     Program PWSCF v.5.1rc2 (svn rev. ) starts on 25Oct2017 at 18:16: 1

     Current dimensions of program PWSCF are:
     Max number of different atomic species (ntypx) = 10
     Max number of k-points (npk) =  40000
     Max angular momentum in pseudopotentials (lmaxx) =  3

     IMPORTANT: XC functional enforced from input :
     Exchange-correlation      = BEEF-VDW ( 1  4 27 13 2)
     Any further DFT definition will be discarded
     Please, verify this is what you really want

     Subspace diagonalization in iterative solution of the eigenvalue problem:
     a serial algorithm will be used

     bravais-lattice index     =            0
     lattice parameter (alat)  =       1.8897  a.u.
     unit-cell volume          =     440.6014 (a.u.)^3
     number of atoms/cell      =            4
     number of atomic types    =            2
     number of electrons       =        57.00
     number of Kohn-Sham states=           48
     kinetic-energy cutoff     =      58.7989  Ry
     charge density cutoff     =     587.9892  Ry
     convergence threshold     =      7.3E-09
     mixing beta               =       0.1000
     number of iterations used =           10  local-TF  mixing
     Exchange-correlation      = BEEF-VDW ( 1  4 27 13 2)
     nstep                     =           50

     celldm(1)=   1.889726  celldm(2)=   0.000000  celldm(3)=   0.000000
     celldm(4)=   0.000000  celldm(5)=   0.000000  celldm(6)=   0.000000

     crystal axes: (cart. coord. in units of alat)
               a(1) = (   4.026705   0.000000   0.000000 )
               a(2) = (   0.000000   4.026705   0.000000 )
               a(3) = (   0.000000   0.000000   4.026705 )

     reciprocal axes: (cart. coord. in units 2 pi/alat)
               b(1) = (  0.248342  0.000000  0.000000 )
               b(2) = (  0.000000  0.248342  0.000000 )
               b(3) = (  0.000000  0.000000  0.248342 )

     PseudoPot. # 1 for Tc read from file:
     /home/vossj/suncat/psp/gbrv1.5pbe/Tc.UPF
     MD5 check sum: 9eb49e5b028550b2339a02317eb7b844
     Pseudo is Ultrasoft + core correction, Zval = 15.0
     Generated by new atomic code, or converted to UPF format
     Using radial grid of  965 points,  6 beta functions with:
                l(1) =   0
                l(2) =   0
                l(3) =   1
                l(4) =   1
                l(5) =   2
                l(6) =   2
     Q(r) pseudized with  8 coefficients,  rinner =    1.300   1.300   1.300
                                                       1.300   1.300

     PseudoPot. # 2 for Zr read from file:
     /home/vossj/suncat/psp/gbrv1.5pbe/Zr.UPF
     MD5 check sum: 5db81b1e868ab7776c4564c113de050b
     Pseudo is Ultrasoft + core correction, Zval = 12.0
     Generated by new atomic code, or converted to UPF format
     Using radial grid of  887 points,  6 beta functions with:
                l(1) =   0
                l(2) =   0
                l(3) =   1
                l(4) =   1
                l(5) =   2
                l(6) =   2
     Q(r) pseudized with  6 coefficients,  rinner =    1.200   1.200   1.200
                                                       1.200   1.200

     vdW kernel table read from file vdW_kernel_table
     MD5 check sum: 095c7af220d748ca6e76c0b4c6cfb241

     atomic species   valence    mass     pseudopotential
        Tc1           15.00    97.90721     Tc( 1.00)
        Zr1           12.00    91.22400     Zr( 1.00)

     48 Sym. Ops., with inversion, found (32 have fractional translation)

   Cartesian axes

     site n.     atom                  positions (alat units)
         1           Tc1 tau(   1) = (   0.0000000   0.0000000   0.0000000  )
         2           Tc1 tau(   2) = (   0.0000000   2.0133523   2.0133523  )
         3           Tc1 tau(   3) = (   2.0133523   0.0000000   2.0133523  )
         4           Zr1 tau(   4) = (   2.0133523   2.0133523   0.0000000  )

     number of k points=    84  Fermi-Dirac smearing, width (Ry)=  0.0073
                       cart. coord. in units 2pi/alat
        k(    1) = (   0.0000000   0.0000000   0.0000000), wk =   0.0011574
        k(    2) = (   0.0000000   0.0000000   0.0206952), wk =   0.0069444
        k(    3) = (   0.0000000   0.0000000   0.0413903), wk =   0.0069444
        k(    4) = (   0.0000000   0.0000000   0.0620855), wk =   0.0069444
        k(    5) = (   0.0000000   0.0000000   0.0827807), wk =   0.0069444
        k(    6) = (   0.0000000   0.0000000   0.1034758), wk =   0.0069444
        k(    7) = (   0.0000000   0.0000000  -0.1241710), wk =   0.0034722
        k(    8) = (   0.0000000   0.0206952   0.0206952), wk =   0.0138889
        k(    9) = (   0.0000000   0.0206952   0.0413903), wk =   0.0277778
        k(   10) = (   0.0000000   0.0206952   0.0620855), wk =   0.0277778
        k(   11) = (   0.0000000   0.0206952   0.0827807), wk =   0.0277778
        k(   12) = (   0.0000000   0.0206952   0.1034758), wk =   0.0277778
        k(   13) = (   0.0000000   0.0206952  -0.1241710), wk =   0.0138889
        k(   14) = (   0.0000000   0.0413903   0.0413903), wk =   0.0138889
        k(   15) = (   0.0000000   0.0413903   0.0620855), wk =   0.0277778
        k(   16) = (   0.0000000   0.0413903   0.0827807), wk =   0.0277778
        k(   17) = (   0.0000000   0.0413903   0.1034758), wk =   0.0277778
        k(   18) = (   0.0000000   0.0413903  -0.1241710), wk =   0.0138889
        k(   19) = (   0.0000000   0.0620855   0.0620855), wk =   0.0138889
        k(   20) = (   0.0000000   0.0620855   0.0827807), wk =   0.0277778
        k(   21) = (   0.0000000   0.0620855   0.1034758), wk =   0.0277778
        k(   22) = (   0.0000000   0.0620855  -0.1241710), wk =   0.0138889
        k(   23) = (   0.0000000   0.0827807   0.0827807), wk =   0.0138889
        k(   24) = (   0.0000000   0.0827807   0.1034758), wk =   0.0277778
        k(   25) = (   0.0000000   0.0827807  -0.1241710), wk =   0.0138889
        k(   26) = (   0.0000000   0.1034758   0.1034758), wk =   0.0138889
        k(   27) = (   0.0000000   0.1034758  -0.1241710), wk =   0.0138889
        k(   28) = (   0.0000000  -0.1241710  -0.1241710), wk =   0.0034722
        k(   29) = (   0.0206952   0.0206952   0.0206952), wk =   0.0092593
        k(   30) = (   0.0206952   0.0206952   0.0413903), wk =   0.0277778
        k(   31) = (   0.0206952   0.0206952   0.0620855), wk =   0.0277778
        k(   32) = (   0.0206952   0.0206952   0.0827807), wk =   0.0277778
        k(   33) = (   0.0206952   0.0206952   0.1034758), wk =   0.0277778
        k(   34) = (   0.0206952   0.0206952  -0.1241710), wk =   0.0138889
        k(   35) = (   0.0206952   0.0413903   0.0413903), wk =   0.0277778
        k(   36) = (   0.0206952   0.0413903   0.0620855), wk =   0.0555556
        k(   37) = (   0.0206952   0.0413903   0.0827807), wk =   0.0555556
        k(   38) = (   0.0206952   0.0413903   0.1034758), wk =   0.0555556
        k(   39) = (   0.0206952   0.0413903  -0.1241710), wk =   0.0277778
        k(   40) = (   0.0206952   0.0620855   0.0620855), wk =   0.0277778
        k(   41) = (   0.0206952   0.0620855   0.0827807), wk =   0.0555556
        k(   42) = (   0.0206952   0.0620855   0.1034758), wk =   0.0555556
        k(   43) = (   0.0206952   0.0620855  -0.1241710), wk =   0.0277778
        k(   44) = (   0.0206952   0.0827807   0.0827807), wk =   0.0277778
        k(   45) = (   0.0206952   0.0827807   0.1034758), wk =   0.0555556
        k(   46) = (   0.0206952   0.0827807  -0.1241710), wk =   0.0277778
        k(   47) = (   0.0206952   0.1034758   0.1034758), wk =   0.0277778
        k(   48) = (   0.0206952   0.1034758  -0.1241710), wk =   0.0277778
        k(   49) = (   0.0206952  -0.1241710  -0.1241710), wk =   0.0069444
        k(   50) = (   0.0413903   0.0413903   0.0413903), wk =   0.0092593
        k(   51) = (   0.0413903   0.0413903   0.0620855), wk =   0.0277778
        k(   52) = (   0.0413903   0.0413903   0.0827807), wk =   0.0277778
        k(   53) = (   0.0413903   0.0413903   0.1034758), wk =   0.0277778
        k(   54) = (   0.0413903   0.0413903  -0.1241710), wk =   0.0138889
        k(   55) = (   0.0413903   0.0620855   0.0620855), wk =   0.0277778
        k(   56) = (   0.0413903   0.0620855   0.0827807), wk =   0.0555556
        k(   57) = (   0.0413903   0.0620855   0.1034758), wk =   0.0555556
        k(   58) = (   0.0413903   0.0620855  -0.1241710), wk =   0.0277778
        k(   59) = (   0.0413903   0.0827807   0.0827807), wk =   0.0277778
        k(   60) = (   0.0413903   0.0827807   0.1034758), wk =   0.0555556
[...]
        k(   70) = (   0.0620855   0.0827807   0.1034758), wk =   0.0555556
        k(   71) = (   0.0620855   0.0827807  -0.1241710), wk =   0.0277778
        k(   72) = (   0.0620855   0.1034758   0.1034758), wk =   0.0277778
        k(   73) = (   0.0620855   0.1034758  -0.1241710), wk =   0.0277778
        k(   74) = (   0.0620855  -0.1241710  -0.1241710), wk =   0.0069444
        k(   75) = (   0.0827807   0.0827807   0.0827807), wk =   0.0092593
        k(   76) = (   0.0827807   0.0827807   0.1034758), wk =   0.0277778
        k(   77) = (   0.0827807   0.0827807  -0.1241710), wk =   0.0138889
        k(   78) = (   0.0827807   0.1034758   0.1034758), wk =   0.0277778
        k(   79) = (   0.0827807   0.1034758  -0.1241710), wk =   0.0277778
        k(   80) = (   0.0827807  -0.1241710  -0.1241710), wk =   0.0069444
        k(   81) = (   0.1034758   0.1034758   0.1034758), wk =   0.0092593
        k(   82) = (   0.1034758   0.1034758  -0.1241710), wk =   0.0138889
        k(   83) = (   0.1034758  -0.1241710  -0.1241710), wk =   0.0069444
        k(   84) = (  -0.1241710  -0.1241710  -0.1241710), wk =   0.0011574

     Largest allocated arrays     est. size (Mb)     dimensions
     Largest temporary arrays     est. size (Mb)     dimensions

     Check: negative/imaginary core charge=   -0.000009    0.000000

     Initial potential from superposition of free atoms
     Check: negative starting charge=   -0.431517

     starting charge   53.99777, renormalised to   57.00000

     negative rho (up, down):  4.555E-01 0.000E+00

     *
     * You are using vdW-DF for exchange-correlation in this calculation.
     * Please cite the following three references that made this development
     * possible:
     *
     *   M. Dion, H. Rydberg, E. Schroder, D. C. Langreth, and
     *   B. I. Lundqvist, Phys. Rev. Lett. 92, 246401 (2004).
     *
     *   T. Thonhauser, V. R. Cooper, S. Li, A. Puzder, P. Hyldgaard, and
     *   D. C. Langreth, Phys. Rev. B 76, 125112 (2007).
     *
     *   G. Roman-Perez and J. M. Soler, Phys. Rev. Lett. 103, 096102 (2009).
     *
     *
     * If you are using vdW-DF2, please also cite:
     *
     *   K. Lee, E. D. Murray, L. Kong, B. I. Lundqvist, and
     *   D. C. Langreth, Phys. Rev. B 82, 081101(R) (2010).
     *
     *
     * If you are calculating the stress with vdW-DF, please also cite:
     *
     *   R. Sabatini, E. Kucukbenli, B. Kolb, T. Thonhauser, and
     *   S. de Gironcoli, J. Phys.: Condens. Matter 24, 424209 (2012).
     *

     Carrying out vdW-DF run using the following parameters:

     Nqs =      20    Nr_points =    1024   r_max =   100.000
     q_mesh =
               0.00001000     0.04494208     0.09755937     0.15916263
               0.23128650     0.31572767     0.41458969     0.53033537
               0.66584808     0.82450364     1.01025438     1.22772762
               1.48234092     1.78043706     2.12944203     2.53805004
               3.01644009     3.57652955     4.23227104     5.00000000

     Gradients computed in reciprocal space

     Starting wfc are   52 randomized atomic wfcs

     Self-consistent Calculation

     iteration #  1     ecut=    58.80 Ry     beta=0.10
     Davidson diagonalization with overlap
     ethr =  1.00E-02,  avg # of iterations =  4.4

[...]

     total energy              =    -626.44408674 Ry
     Harris-Foulkes estimate   =    -626.64056194 Ry
     estimated scf accuracy    <       3.11402395 Ry

[...]

     total energy              =    -625.73764299 Ry
     Harris-Foulkes estimate   =    -625.73764263 Ry
     estimated scf accuracy    <       0.00000001 Ry

     iteration # 15     ecut=    58.80 Ry     beta=0.10
     Davidson diagonalization with overlap
     ethr =  2.36E-11,  avg # of iterations =  1.9

     negative rho (up, down):  4.483E-01 0.000E+00

     End of self-consistent calculation

          k = 0.0000 0.0000 0.0000 (  3407 PWs)   bands (ev):

   -47.3212 -47.1926 -47.1926 -28.8171 -19.5590 -19.5590 -19.5590 -19.1874
   -19.1874 -19.1874 -19.0065 -19.0065 -19.0065  -6.8378  -6.8378  -6.8378
    12.9878  14.7042  14.7042  14.7685  15.3183  15.3183  15.3183  18.5463
    18.5463  18.5463  20.6848  20.6848  21.9374  22.4354  22.4354  22.4354
    23.4647  23.4647  23.4647  24.1943  24.1943  25.3781  25.3781  25.3781
    31.1660  31.1660  31.1660  32.8380  32.9346  32.9346  32.9346  33.3046

[...]

          k = 0.1035-0.1242-0.1242 (  3368 PWs)   bands (ev):

[...]

          k =-0.1242-0.1242-0.1242 (  3328 PWs)   bands (ev):

   -47.2346 -47.2346 -47.2346 -28.8125 -19.7544 -19.4986 -19.4986 -19.4986
   -19.0451 -19.0451 -18.9979 -18.9979 -18.9979  -6.8686  -6.8686  -6.8686
    14.9505  14.9505  14.9505  15.2845  17.9554  17.9554  17.9554  18.4491
    18.4491  18.4491  18.9351  18.9351  20.5259  21.2894  21.2894  21.2894
    21.9746  21.9746  21.9746  23.8979  23.8979  23.8979  24.4973  24.4973
    30.3915  30.3915  30.3915  30.9448  32.4520  32.4520  32.4520  32.6267

     the Fermi energy is    19.4309 ev

!    total energy              =    -625.73764452 Ry
     Harris-Foulkes estimate   =    -625.73764299 Ry
     estimated scf accuracy    <          5.8E-09 Ry

     The total energy is the sum of the following terms:

     one-electron contribution =    -104.16365920 Ry
     hartree contribution      =      87.85312498 Ry
     xc contribution           =    -118.00969138 Ry
     ewald contribution        =    -491.40395543 Ry
     smearing contrib. (-TS)   =      -0.01346350 Ry

     convergence has been achieved in  15 iterations

     Forces acting on atoms (Ry/au):

     negative rho (up, down):  4.483E-01 0.000E+00
     atom    1 type  1   force =     0.00000000    0.00000000    0.00000000
     atom    2 type  1   force =     0.00000000    0.00000000    0.00000000
     atom    3 type  1   force =     0.00000000    0.00000000    0.00000000
     atom    4 type  2   force =     0.00000000    0.00000000    0.00000000

     Total force =     0.000000     Total SCF correction =     0.000000
 !ASE

     General routines

     Parallel routines

   This run was terminated on:  18:17:13  25Oct2017

   JOB DONE.