     Program PWSCF v.5.1rc2 (svn rev. ) starts on 24Oct2017 at 21:43: 2

     Current dimensions of program PWSCF are:
     Max number of different atomic species (ntypx) = 10
     Max number of k-points (npk) =  40000
     Max angular momentum in pseudopotentials (lmaxx) =  3

     IMPORTANT: XC functional enforced from input :
     Exchange-correlation      = BEEF-VDW ( 1  4 27 13 2)
     Any further DFT definition will be discarded
     Please, verify this is what you really want

     Subspace diagonalization in iterative solution of the eigenvalue problem:
     a serial algorithm will be used

     bravais-lattice index     =            0
     lattice parameter (alat)  =       1.8897  a.u.
     unit-cell volume          =     428.3599 (a.u.)^3
     number of atoms/cell      =            4
     number of atomic types    =            2
     number of electrons       =        61.00
     number of Kohn-Sham states=           50
     kinetic-energy cutoff     =      58.7989  Ry
     charge density cutoff     =     587.9892  Ry
     convergence threshold     =      7.3E-09
     mixing beta               =       0.1000
     number of iterations used =           10  local-TF  mixing
     Exchange-correlation      = BEEF-VDW ( 1  4 27 13 2)
     nstep                     =           50

     celldm(1)=   1.889726  celldm(2)=   0.000000  celldm(3)=   0.000000
     celldm(4)=   0.000000  celldm(5)=   0.000000  celldm(6)=   0.000000

     crystal axes: (cart. coord. in units of alat)
               a(1) = (   3.989061   0.000000   0.000000 )
               a(2) = (   0.000000   3.989061   0.000000 )
               a(3) = (   0.000000   0.000000   3.989061 )

     reciprocal axes: (cart. coord. in units 2 pi/alat)
               b(1) = (  0.250686  0.000000  0.000000 )
               b(2) = (  0.000000  0.250686  0.000000 )
               b(3) = (  0.000000  0.000000  0.250686 )

     PseudoPot. # 1 for Os read from file:
     /home/vossj/suncat/psp/gbrv1.5pbe/Os.UPF
     MD5 check sum: a3fb40a04f0c37c25c34bbc47164c9a8
     Pseudo is Ultrasoft + core correction, Zval = 16.0
     Generated by new atomic code, or converted to UPF format
     Using radial grid of  983 points,  8 beta functions with:
                l(1) =   0
                l(2) =   0
                l(3) =   1
                l(4) =   1
                l(5) =   2
                l(6) =   2
                l(7) =   3
                l(8) =   3
     Q(r) pseudized with  8 coefficients,  rinner =    1.150   1.150   1.150
                                                       1.150   1.150   1.150
                                                       1.150

     PseudoPot. # 2 for In read from file:
     /home/vossj/suncat/psp/gbrv1.5pbe/In.UPF
     MD5 check sum: 90777abd96fbb83f2e67db2a40c566b9
     Pseudo is Ultrasoft + core correction, Zval = 13.0
     Generated by new atomic code, or converted to UPF format
     Using radial grid of  889 points,  6 beta functions with:
                l(1) =   0
                l(2) =   0
                l(3) =   1
                l(4) =   1
                l(5) =   2
                l(6) =   2
     Q(r) pseudized with  6 coefficients,  rinner =    1.400   1.400   1.400
                                                       1.400   1.400

     vdW kernel table read from file vdW_kernel_table
     MD5 check sum: 095c7af220d748ca6e76c0b4c6cfb241

     atomic species   valence    mass     pseudopotential
        Os1           16.00   190.23000     Os( 1.00)
        In1           13.00   114.81800     In( 1.00)

     48 Sym. Ops., with inversion, found (32 have fractional translation)

   Cartesian axes

     site n.     atom                  positions (alat units)
         1           Os1 tau(   1) = (   0.0000000   0.0000000   0.0000000  )
         2           Os1 tau(   2) = (   0.0000000   1.9945307   1.9945307  )
         3           Os1 tau(   3) = (   1.9945307   0.0000000   1.9945307  )
         4           In1 tau(   4) = (   1.9945307   1.9945307   0.0000000  )

     number of k points=    84  Fermi-Dirac smearing, width (Ry)=  0.0073
                       cart. coord. in units 2pi/alat
        k(    1) = (   0.0000000   0.0000000   0.0000000), wk =   0.0011574
        k(    2) = (   0.0000000   0.0000000   0.0208905), wk =   0.0069444
        k(    3) = (   0.0000000   0.0000000   0.0417809), wk =   0.0069444
        k(    4) = (   0.0000000   0.0000000   0.0626714), wk =   0.0069444
        k(    5) = (   0.0000000   0.0000000   0.0835618), wk =   0.0069444
        k(    6) = (   0.0000000   0.0000000   0.1044523), wk =   0.0069444
        k(    7) = (   0.0000000   0.0000000  -0.1253428), wk =   0.0034722
        k(    8) = (   0.0000000   0.0208905   0.0208905), wk =   0.0138889
        k(    9) = (   0.0000000   0.0208905   0.0417809), wk =   0.0277778
        k(   10) = (   0.0000000   0.0208905   0.0626714), wk =   0.0277778
        k(   11) = (   0.0000000   0.0208905   0.0835618), wk =   0.0277778
        k(   12) = (   0.0000000   0.0208905   0.1044523), wk =   0.0277778
        k(   13) = (   0.0000000   0.0208905  -0.1253428), wk =   0.0138889
        k(   14) = (   0.0000000   0.0417809   0.0417809), wk =   0.0138889
        k(   15) = (   0.0000000   0.0417809   0.0626714), wk =   0.0277778
        k(   16) = (   0.0000000   0.0417809   0.0835618), wk =   0.0277778
        k(   17) = (   0.0000000   0.0417809   0.1044523), wk =   0.0277778
        k(   18) = (   0.0000000   0.0417809  -0.1253428), wk =   0.0138889
        k(   19) = (   0.0000000   0.0626714   0.0626714), wk =   0.0138889
        k(   20) = (   0.0000000   0.0626714   0.0835618), wk =   0.0277778
        k(   21) = (   0.0000000   0.0626714   0.1044523), wk =   0.0277778
        k(   22) = (   0.0000000   0.0626714  -0.1253428), wk =   0.0138889
        k(   23) = (   0.0000000   0.0835618   0.0835618), wk =   0.0138889
        k(   24) = (   0.0000000   0.0835618   0.1044523), wk =   0.0277778
        k(   25) = (   0.0000000   0.0835618  -0.1253428), wk =   0.0138889
        k(   26) = (   0.0000000   0.1044523   0.1044523), wk =   0.0138889
        k(   27) = (   0.0000000   0.1044523  -0.1253428), wk =   0.0138889
        k(   28) = (   0.0000000  -0.1253428  -0.1253428), wk =   0.0034722
        k(   29) = (   0.0208905   0.0208905   0.0208905), wk =   0.0092593
        k(   30) = (   0.0208905   0.0208905   0.0417809), wk =   0.0277778
        k(   31) = (   0.0208905   0.0208905   0.0626714), wk =   0.0277778
        k(   32) = (   0.0208905   0.0208905   0.0835618), wk =   0.0277778
        k(   33) = (   0.0208905   0.0208905   0.1044523), wk =   0.0277778
        k(   34) = (   0.0208905   0.0208905  -0.1253428), wk =   0.0138889
        k(   35) = (   0.0208905   0.0417809   0.0417809), wk =   0.0277778
        k(   36) = (   0.0208905   0.0417809   0.0626714), wk =   0.0555556
        k(   37) = (   0.0208905   0.0417809   0.0835618), wk =   0.0555556
        k(   38) = (   0.0208905   0.0417809   0.1044523), wk =   0.0555556
        k(   39) = (   0.0208905   0.0417809  -0.1253428), wk =   0.0277778
        k(   40) = (   0.0208905   0.0626714   0.0626714), wk =   0.0277778
        k(   41) = (   0.0208905   0.0626714   0.0835618), wk =   0.0555556
        k(   42) = (   0.0208905   0.0626714   0.1044523), wk =   0.0555556
        k(   43) = (   0.0208905   0.0626714  -0.1253428), wk =   0.0277778
        k(   44) = (   0.0208905   0.0835618   0.0835618), wk =   0.0277778
        k(   45) = (   0.0208905   0.0835618   0.1044523), wk =   0.0555556
        k(   46) = (   0.0208905   0.0835618  -0.1253428), wk =   0.0277778
        k(   47) = (   0.0208905   0.1044523   0.1044523), wk =   0.0277778
        k(   48) = (   0.0208905   0.1044523  -0.1253428), wk =   0.0277778
        k(   49) = (   0.0208905  -0.1253428  -0.1253428), wk =   0.0069444
        k(   50) = (   0.0417809   0.0417809   0.0417809), wk =   0.0092593
        k(   51) = (   0.0417809   0.0417809   0.0626714), wk =   0.0277778
        k(   52) = (   0.0417809   0.0417809   0.0835618), wk =   0.0277778
        k(   53) = (   0.0417809   0.0417809   0.1044523), wk =   0.0277778
        k(   54) = (   0.0417809   0.0417809  -0.1253428), wk =   0.0138889
        k(   55) = (   0.0417809   0.0626714   0.0626714), wk =   0.0277778
        k(   56) = (   0.0417809   0.0626714   0.0835618), wk =   0.0555556
        k(   57) = (   0.0417809   0.0626714   0.1044523), wk =   0.0555556
        k(   58) = (   0.0417809   0.0626714  -0.1253428), wk =   0.0277778
        k(   59) = (   0.0417809   0.0835618   0.0835618), wk =   0.0277778
        k(   60) = (   0.0417809   0.0835618   0.1044523), wk =   0.0555556
[...]
        k(   70) = (   0.0626714   0.0835618   0.1044523), wk =   0.0555556
        k(   71) = (   0.0626714   0.0835618  -0.1253428), wk =   0.0277778
        k(   72) = (   0.0626714   0.1044523   0.1044523), wk =   0.0277778
        k(   73) = (   0.0626714   0.1044523  -0.1253428), wk =   0.0277778
        k(   74) = (   0.0626714  -0.1253428  -0.1253428), wk =   0.0069444
        k(   75) = (   0.0835618   0.0835618   0.0835618), wk =   0.0092593
        k(   76) = (   0.0835618   0.0835618   0.1044523), wk =   0.0277778
        k(   77) = (   0.0835618   0.0835618  -0.1253428), wk =   0.0138889
        k(   78) = (   0.0835618   0.1044523   0.1044523), wk =   0.0277778
        k(   79) = (   0.0835618   0.1044523  -0.1253428), wk =   0.0277778
        k(   80) = (   0.0835618  -0.1253428  -0.1253428), wk =   0.0069444
        k(   81) = (   0.1044523   0.1044523   0.1044523), wk =   0.0092593
        k(   82) = (   0.1044523   0.1044523  -0.1253428), wk =   0.0138889
        k(   83) = (   0.1044523  -0.1253428  -0.1253428), wk =   0.0069444
        k(   84) = (  -0.1253428  -0.1253428  -0.1253428), wk =   0.0011574

     Largest allocated arrays     est. size (Mb)     dimensions
     Largest temporary arrays     est. size (Mb)     dimensions

     Initial potential from superposition of free atoms
     Check: negative starting charge=   -0.370828

     starting charge   57.99989, renormalised to   61.00000

     negative rho (up, down):  3.900E-01 0.000E+00

     *
     * You are using vdW-DF for exchange-correlation in this calculation.
     * Please cite the following three references that made this development
     * possible:
     *
     *   M. Dion, H. Rydberg, E. Schroder, D. C. Langreth, and
     *   B. I. Lundqvist, Phys. Rev. Lett. 92, 246401 (2004).
     *
     *   T. Thonhauser, V. R. Cooper, S. Li, A. Puzder, P. Hyldgaard, and
     *   D. C. Langreth, Phys. Rev. B 76, 125112 (2007).
     *
     *   G. Roman-Perez and J. M. Soler, Phys. Rev. Lett. 103, 096102 (2009).
     *
     *
     * If you are using vdW-DF2, please also cite:
     *
     *   K. Lee, E. D. Murray, L. Kong, B. I. Lundqvist, and
     *   D. C. Langreth, Phys. Rev. B 82, 081101(R) (2010).
     *
     *
     * If you are calculating the stress with vdW-DF, please also cite:
     *
     *   R. Sabatini, E. Kucukbenli, B. Kolb, T. Thonhauser, and
     *   S. de Gironcoli, J. Phys.: Condens. Matter 24, 424209 (2012).
     *

     Carrying out vdW-DF run using the following parameters:

     Nqs =      20    Nr_points =    1024   r_max =   100.000
     q_mesh =
               0.00001000     0.04494208     0.09755937     0.15916263
               0.23128650     0.31572767     0.41458969     0.53033537
               0.66584808     0.82450364     1.01025438     1.22772762
               1.48234092     1.78043706     2.12944203     2.53805004
               3.01644009     3.57652955     4.23227104     5.00000000

     Gradients computed in reciprocal space

     Starting wfc are   48 randomized atomic wfcs +    2 random wfc

     Self-consistent Calculation

     iteration #  1     ecut=    58.80 Ry     beta=0.10
     Davidson diagonalization with overlap
     ethr =  1.00E-02,  avg # of iterations =  4.2

[...]

     total energy              =    -734.55325300 Ry
     Harris-Foulkes estimate   =    -734.66126891 Ry
     estimated scf accuracy    <       1.52514130 Ry

[...]

     total energy              =    -734.07555503 Ry
     Harris-Foulkes estimate   =    -734.07555379 Ry
     estimated scf accuracy    <       0.00000001 Ry

     iteration # 12     ecut=    58.80 Ry     beta=0.10
     Davidson diagonalization with overlap
     ethr =  1.82E-11,  avg # of iterations =  2.0

     negative rho (up, down):  3.605E-01 0.000E+00

     End of self-consistent calculation

          k = 0.0000 0.0000 0.0000 (  3239 PWs)   bands (ev):

   -65.1691 -65.1139 -65.1139 -24.6756 -24.6756 -24.6756 -24.3766 -24.3766
   -24.3766 -24.2153 -24.2153 -24.2153   6.4189   6.4189   6.4770   6.4770
     6.4770  10.5932  14.6959  16.6881  16.6881  16.6881  16.7531  16.7531
    20.6061  20.6061  20.6061  21.6139  21.6139  21.6139  22.1400  22.1400
    23.2996  23.9433  23.9433  23.9433  27.8589  30.2458  30.2458  30.3647
    30.3647  30.3647  32.3598  32.3598  32.3598  34.6123  36.9856  39.4693
    39.4693  39.4693

[...]

          k = 0.1045-0.1253-0.1253 (  3244 PWs)   bands (ev):

[...]

          k =-0.1253-0.1253-0.1253 (  3184 PWs)   bands (ev):

   -65.1321 -65.1321 -65.1321 -24.8385 -24.6174 -24.6174 -24.6174 -24.2498
   -24.2498 -24.2174 -24.2174 -24.2174   6.4256   6.4256   6.4256   6.6223
     6.6223  13.3329  15.8536  15.8536  15.8536  18.6942  18.6942  18.6942
    19.2300  19.2300  19.2300  20.4178  20.4178  20.4178  21.0789  21.2740
    21.2740  23.3671  23.3671  23.3671  25.7154  27.5387  27.5387  27.5387
    34.0093  34.0093  34.0093  34.3057  36.9816  37.0162  37.0162  37.0162
    39.6296  39.6296

     the Fermi energy is    21.1852 ev

!    total energy              =    -734.07556007 Ry
     Harris-Foulkes estimate   =    -734.07555503 Ry
     estimated scf accuracy    <          3.7E-09 Ry

     The total energy is the sum of the following terms:

     one-electron contribution =    -110.97229923 Ry
     hartree contribution      =     100.34852908 Ry
     xc contribution           =    -155.62662782 Ry
     ewald contribution        =    -567.81043175 Ry
     smearing contrib. (-TS)   =      -0.01473035 Ry

     convergence has been achieved in  12 iterations

     Forces acting on atoms (Ry/au):

     negative rho (up, down):  3.605E-01 0.000E+00
     atom    1 type  1   force =     0.00000000    0.00000000    0.00000000
     atom    2 type  1   force =     0.00000000    0.00000000    0.00000000
     atom    3 type  1   force =     0.00000000    0.00000000    0.00000000
     atom    4 type  2   force =     0.00000000    0.00000000    0.00000000

     Total force =     0.000000     Total SCF correction =     0.000000
 !ASE

     General routines

     Parallel routines

   This run was terminated on:  21:44: 2  24Oct2017

   JOB DONE.