     Program PWSCF v.5.1rc2 (svn rev. ) starts on 25Oct2017 at 22:46:27

     Current dimensions of program PWSCF are:
     Max number of different atomic species (ntypx) = 10
     Max number of k-points (npk) =  40000
     Max angular momentum in pseudopotentials (lmaxx) =  3

     IMPORTANT: XC functional enforced from input :
     Exchange-correlation      = BEEF-VDW ( 1  4 27 13 2)
     Any further DFT definition will be discarded
     Please, verify this is what you really want

     Subspace diagonalization in iterative solution of the eigenvalue problem:
     a serial algorithm will be used

     bravais-lattice index     =            0
     lattice parameter (alat)  =       1.8897  a.u.
     unit-cell volume          =     454.6893 (a.u.)^3
     number of atoms/cell      =            4
     number of atomic types    =            2
     number of electrons       =        61.00
     number of Kohn-Sham states=           50
     kinetic-energy cutoff     =      58.7989  Ry
     charge density cutoff     =     587.9892  Ry
     convergence threshold     =      7.3E-09
     mixing beta               =       0.1000
     number of iterations used =           10  local-TF  mixing
     Exchange-correlation      = BEEF-VDW ( 1  4 27 13 2)
     nstep                     =           50

     celldm(1)=   1.889726  celldm(2)=   0.000000  celldm(3)=   0.000000
     celldm(4)=   0.000000  celldm(5)=   0.000000  celldm(6)=   0.000000

     crystal axes: (cart. coord. in units of alat)
               a(1) = (   4.069172   0.000000   0.000000 )
               a(2) = (   0.000000   4.069172   0.000000 )
               a(3) = (   0.000000   0.000000   4.069172 )

     reciprocal axes: (cart. coord. in units 2 pi/alat)
               b(1) = (  0.245750  0.000000  0.000000 )
               b(2) = (  0.000000  0.245750  0.000000 )
               b(3) = (  0.000000  0.000000  0.245750 )

     PseudoPot. # 1 for Pd read from file:
     /home/vossj/suncat/psp/gbrv1.5pbe/Pd.UPF
     MD5 check sum: 2d733d2bc2cbfd217af676df1668a4bc
     Pseudo is Ultrasoft + core correction, Zval = 16.0
     Generated by new atomic code, or converted to UPF format
     Using radial grid of  887 points,  6 beta functions with:
                l(1) =   0
                l(2) =   0
                l(3) =   1
                l(4) =   1
                l(5) =   2
                l(6) =   2
     Q(r) pseudized with  8 coefficients,  rinner =    1.130   1.130   1.130
                                                       1.130   1.130

     PseudoPot. # 2 for In read from file:
     /home/vossj/suncat/psp/gbrv1.5pbe/In.UPF
     MD5 check sum: 90777abd96fbb83f2e67db2a40c566b9
     Pseudo is Ultrasoft + core correction, Zval = 13.0
     Generated by new atomic code, or converted to UPF format
     Using radial grid of  889 points,  6 beta functions with:
                l(1) =   0
                l(2) =   0
                l(3) =   1
                l(4) =   1
                l(5) =   2
                l(6) =   2
     Q(r) pseudized with  6 coefficients,  rinner =    1.400   1.400   1.400
                                                       1.400   1.400

     vdW kernel table read from file vdW_kernel_table
     MD5 check sum: 095c7af220d748ca6e76c0b4c6cfb241

     atomic species   valence    mass     pseudopotential
        Pd1           16.00   106.42000     Pd( 1.00)
        In1           13.00   114.81800     In( 1.00)

     48 Sym. Ops., with inversion, found (32 have fractional translation)

   Cartesian axes

     site n.     atom                  positions (alat units)
         1           Pd1 tau(   1) = (   0.0000000   0.0000000   0.0000000  )
         2           Pd1 tau(   2) = (   0.0000000   2.0345859   2.0345859  )
         3           Pd1 tau(   3) = (   2.0345859   0.0000000   2.0345859  )
         4           In1 tau(   4) = (   2.0345859   2.0345859   0.0000000  )

     number of k points=    84  Fermi-Dirac smearing, width (Ry)=  0.0073
                       cart. coord. in units 2pi/alat
        k(    1) = (   0.0000000   0.0000000   0.0000000), wk =   0.0011574
        k(    2) = (   0.0000000   0.0000000   0.0204792), wk =   0.0069444
        k(    3) = (   0.0000000   0.0000000   0.0409584), wk =   0.0069444
        k(    4) = (   0.0000000   0.0000000   0.0614376), wk =   0.0069444
        k(    5) = (   0.0000000   0.0000000   0.0819168), wk =   0.0069444
        k(    6) = (   0.0000000   0.0000000   0.1023959), wk =   0.0069444
        k(    7) = (   0.0000000   0.0000000  -0.1228751), wk =   0.0034722
        k(    8) = (   0.0000000   0.0204792   0.0204792), wk =   0.0138889
        k(    9) = (   0.0000000   0.0204792   0.0409584), wk =   0.0277778
        k(   10) = (   0.0000000   0.0204792   0.0614376), wk =   0.0277778
        k(   11) = (   0.0000000   0.0204792   0.0819168), wk =   0.0277778
        k(   12) = (   0.0000000   0.0204792   0.1023959), wk =   0.0277778
        k(   13) = (   0.0000000   0.0204792  -0.1228751), wk =   0.0138889
        k(   14) = (   0.0000000   0.0409584   0.0409584), wk =   0.0138889
        k(   15) = (   0.0000000   0.0409584   0.0614376), wk =   0.0277778
        k(   16) = (   0.0000000   0.0409584   0.0819168), wk =   0.0277778
        k(   17) = (   0.0000000   0.0409584   0.1023959), wk =   0.0277778
        k(   18) = (   0.0000000   0.0409584  -0.1228751), wk =   0.0138889
        k(   19) = (   0.0000000   0.0614376   0.0614376), wk =   0.0138889
        k(   20) = (   0.0000000   0.0614376   0.0819168), wk =   0.0277778
        k(   21) = (   0.0000000   0.0614376   0.1023959), wk =   0.0277778
        k(   22) = (   0.0000000   0.0614376  -0.1228751), wk =   0.0138889
        k(   23) = (   0.0000000   0.0819168   0.0819168), wk =   0.0138889
        k(   24) = (   0.0000000   0.0819168   0.1023959), wk =   0.0277778
        k(   25) = (   0.0000000   0.0819168  -0.1228751), wk =   0.0138889
        k(   26) = (   0.0000000   0.1023959   0.1023959), wk =   0.0138889
        k(   27) = (   0.0000000   0.1023959  -0.1228751), wk =   0.0138889
        k(   28) = (   0.0000000  -0.1228751  -0.1228751), wk =   0.0034722
        k(   29) = (   0.0204792   0.0204792   0.0204792), wk =   0.0092593
        k(   30) = (   0.0204792   0.0204792   0.0409584), wk =   0.0277778
        k(   31) = (   0.0204792   0.0204792   0.0614376), wk =   0.0277778
        k(   32) = (   0.0204792   0.0204792   0.0819168), wk =   0.0277778
        k(   33) = (   0.0204792   0.0204792   0.1023959), wk =   0.0277778
        k(   34) = (   0.0204792   0.0204792  -0.1228751), wk =   0.0138889
        k(   35) = (   0.0204792   0.0409584   0.0409584), wk =   0.0277778
        k(   36) = (   0.0204792   0.0409584   0.0614376), wk =   0.0555556
        k(   37) = (   0.0204792   0.0409584   0.0819168), wk =   0.0555556
        k(   38) = (   0.0204792   0.0409584   0.1023959), wk =   0.0555556
        k(   39) = (   0.0204792   0.0409584  -0.1228751), wk =   0.0277778
        k(   40) = (   0.0204792   0.0614376   0.0614376), wk =   0.0277778
        k(   41) = (   0.0204792   0.0614376   0.0819168), wk =   0.0555556
        k(   42) = (   0.0204792   0.0614376   0.1023959), wk =   0.0555556
        k(   43) = (   0.0204792   0.0614376  -0.1228751), wk =   0.0277778
        k(   44) = (   0.0204792   0.0819168   0.0819168), wk =   0.0277778
        k(   45) = (   0.0204792   0.0819168   0.1023959), wk =   0.0555556
        k(   46) = (   0.0204792   0.0819168  -0.1228751), wk =   0.0277778
        k(   47) = (   0.0204792   0.1023959   0.1023959), wk =   0.0277778
        k(   48) = (   0.0204792   0.1023959  -0.1228751), wk =   0.0277778
        k(   49) = (   0.0204792  -0.1228751  -0.1228751), wk =   0.0069444
        k(   50) = (   0.0409584   0.0409584   0.0409584), wk =   0.0092593
        k(   51) = (   0.0409584   0.0409584   0.0614376), wk =   0.0277778
        k(   52) = (   0.0409584   0.0409584   0.0819168), wk =   0.0277778
        k(   53) = (   0.0409584   0.0409584   0.1023959), wk =   0.0277778
        k(   54) = (   0.0409584   0.0409584  -0.1228751), wk =   0.0138889
        k(   55) = (   0.0409584   0.0614376   0.0614376), wk =   0.0277778
        k(   56) = (   0.0409584   0.0614376   0.0819168), wk =   0.0555556
        k(   57) = (   0.0409584   0.0614376   0.1023959), wk =   0.0555556
        k(   58) = (   0.0409584   0.0614376  -0.1228751), wk =   0.0277778
        k(   59) = (   0.0409584   0.0819168   0.0819168), wk =   0.0277778
        k(   60) = (   0.0409584   0.0819168   0.1023959), wk =   0.0555556
[...]
        k(   70) = (   0.0614376   0.0819168   0.1023959), wk =   0.0555556
        k(   71) = (   0.0614376   0.0819168  -0.1228751), wk =   0.0277778
        k(   72) = (   0.0614376   0.1023959   0.1023959), wk =   0.0277778
        k(   73) = (   0.0614376   0.1023959  -0.1228751), wk =   0.0277778
        k(   74) = (   0.0614376  -0.1228751  -0.1228751), wk =   0.0069444
        k(   75) = (   0.0819168   0.0819168   0.0819168), wk =   0.0092593
        k(   76) = (   0.0819168   0.0819168   0.1023959), wk =   0.0277778
        k(   77) = (   0.0819168   0.0819168  -0.1228751), wk =   0.0138889
        k(   78) = (   0.0819168   0.1023959   0.1023959), wk =   0.0277778
        k(   79) = (   0.0819168   0.1023959  -0.1228751), wk =   0.0277778
        k(   80) = (   0.0819168  -0.1228751  -0.1228751), wk =   0.0069444
        k(   81) = (   0.1023959   0.1023959   0.1023959), wk =   0.0092593
        k(   82) = (   0.1023959   0.1023959  -0.1228751), wk =   0.0138889
        k(   83) = (   0.1023959  -0.1228751  -0.1228751), wk =   0.0069444
        k(   84) = (  -0.1228751  -0.1228751  -0.1228751), wk =   0.0011574

     Largest allocated arrays     est. size (Mb)     dimensions
     Largest temporary arrays     est. size (Mb)     dimensions

     Initial potential from superposition of free atoms
     Check: negative starting charge=   -0.231146

     starting charge   57.99998, renormalised to   61.00000

     negative rho (up, down):  2.431E-01 0.000E+00

     *
     * You are using vdW-DF for exchange-correlation in this calculation.
     * Please cite the following three references that made this development
     * possible:
     *
     *   M. Dion, H. Rydberg, E. Schroder, D. C. Langreth, and
     *   B. I. Lundqvist, Phys. Rev. Lett. 92, 246401 (2004).
     *
     *   T. Thonhauser, V. R. Cooper, S. Li, A. Puzder, P. Hyldgaard, and
     *   D. C. Langreth, Phys. Rev. B 76, 125112 (2007).
     *
     *   G. Roman-Perez and J. M. Soler, Phys. Rev. Lett. 103, 096102 (2009).
     *
     *
     * If you are using vdW-DF2, please also cite:
     *
     *   K. Lee, E. D. Murray, L. Kong, B. I. Lundqvist, and
     *   D. C. Langreth, Phys. Rev. B 82, 081101(R) (2010).
     *
     *
     * If you are calculating the stress with vdW-DF, please also cite:
     *
     *   R. Sabatini, E. Kucukbenli, B. Kolb, T. Thonhauser, and
     *   S. de Gironcoli, J. Phys.: Condens. Matter 24, 424209 (2012).
     *

     Carrying out vdW-DF run using the following parameters:

     Nqs =      20    Nr_points =    1024   r_max =   100.000
     q_mesh =
               0.00001000     0.04494208     0.09755937     0.15916263
               0.23128650     0.31572767     0.41458969     0.53033537
               0.66584808     0.82450364     1.01025438     1.22772762
               1.48234092     1.78043706     2.12944203     2.53805004
               3.01644009     3.57652955     4.23227104     5.00000000

     Gradients computed in reciprocal space

     Starting wfc are   45 randomized atomic wfcs +    5 random wfc

     Self-consistent Calculation

     iteration #  1     ecut=    58.80 Ry     beta=0.10
     Davidson diagonalization with overlap
     ethr =  1.00E-02,  avg # of iterations =  4.6

[...]

     total energy              =    -735.91738610 Ry
     Harris-Foulkes estimate   =    -736.49812624 Ry
     estimated scf accuracy    <       8.77860323 Ry

[...]

     total energy              =    -734.33755314 Ry
     Harris-Foulkes estimate   =    -734.33755094 Ry
     estimated scf accuracy    <       0.00000110 Ry

     iteration # 12     ecut=    58.80 Ry     beta=0.10
     Davidson diagonalization with overlap
     ethr =  4.77E-10,  avg # of iterations =  2.0

     negative rho (up, down):  2.416E-01 0.000E+00

     End of self-consistent calculation

          k = 0.0000 0.0000 0.0000 (  3431 PWs)   bands (ev):

   -33.9294 -33.9294 -33.9294 -33.8604 -33.8604 -33.8604 -33.7276 -33.7276
   -33.7276   1.3650   1.3650   1.4073   1.4073   1.4073   7.5650  11.2405
    12.1645  12.1645  12.1645  12.2733  12.2733  14.2037  14.2037  14.2037
    15.0603  15.0603  15.5104  15.9055  15.9055  15.9055  17.1964  17.1964
    17.1964  21.4541  23.6384  23.6384  26.0569  26.0569  26.0569  27.4906
    27.4906  27.4906  31.5634  32.1505  33.0474  33.0474  33.0474  33.1069
    34.0070  34.0070

[...]

          k = 0.1024-0.1229-0.1229 (  3472 PWs)   bands (ev):

[...]

          k =-0.1229-0.1229-0.1229 (  3448 PWs)   bands (ev):

   -33.9456 -33.9456 -33.9456 -33.9146 -33.8021 -33.8021 -33.8021 -33.7029
   -33.7029   1.3755   1.3755   1.3755   1.4867   1.4867   9.4953  12.0410
    12.0410  12.0410  13.2530  13.2530  13.2530  14.3178  14.3178  14.3178
    14.5151  14.5151  14.9031  14.9031  14.9031  15.6067  15.6067  15.6067
    17.0282  18.0665  20.9042  20.9042  20.9042  30.9161  30.9161  30.9161
    31.6107  31.8502  32.8190  32.8190  32.8190  34.4315  34.4315  34.4315
    35.7426  36.2292

     the Fermi energy is    15.8461 ev

!    total energy              =    -734.33756517 Ry
     Harris-Foulkes estimate   =    -734.33755331 Ry
     estimated scf accuracy    <          3.9E-09 Ry

     The total energy is the sum of the following terms:

     one-electron contribution =    -186.46336209 Ry
     hartree contribution      =     145.79095129 Ry
     xc contribution           =    -137.02612576 Ry
     ewald contribution        =    -556.63186024 Ry
     smearing contrib. (-TS)   =      -0.00716839 Ry

     convergence has been achieved in  12 iterations

     Forces acting on atoms (Ry/au):

     negative rho (up, down):  2.416E-01 0.000E+00
     atom    1 type  1   force =     0.00000000    0.00000000    0.00000000
     atom    2 type  1   force =     0.00000000    0.00000000   -0.00000000
     atom    3 type  1   force =     0.00000000    0.00000000    0.00000000
     atom    4 type  2   force =     0.00000000    0.00000000    0.00000000

     Total force =     0.000000     Total SCF correction =     0.000000
 !ASE

     General routines

     Parallel routines

   This run was terminated on:  22:47:18  25Oct2017

   JOB DONE.