     Program PWSCF v.5.1rc2 (svn rev. ) starts on 17Feb2018 at 13:47:35

     Current dimensions of program PWSCF are:
     Max number of different atomic species (ntypx) = 10
     Max number of k-points (npk) =  40000
     Max angular momentum in pseudopotentials (lmaxx) =  3

     IMPORTANT: XC functional enforced from input :
     Exchange-correlation      = BEEF-VDW ( 1  4 27 13 2)
     Any further DFT definition will be discarded
     Please, verify this is what you really want

     Subspace diagonalization in iterative solution of the eigenvalue problem:
     a serial algorithm will be used

     bravais-lattice index     =            0
     lattice parameter (alat)  =       1.8897  a.u.
     unit-cell volume          =     803.9532 (a.u.)^3
     number of atoms/cell      =            4
     number of atomic types    =            2
     number of electrons       =        56.00
     number of Kohn-Sham states=           48
     kinetic-energy cutoff     =      58.7989  Ry
     charge density cutoff     =     587.9892  Ry
     convergence threshold     =      7.3E-09
     mixing beta               =       0.1000
     number of iterations used =           10  local-TF  mixing
     Exchange-correlation      = BEEF-VDW ( 1  4 27 13 2)
     nstep                     =           50

     celldm(1)=   1.889726  celldm(2)=   0.000000  celldm(3)=   0.000000
     celldm(4)=   0.000000  celldm(5)=   0.000000  celldm(6)=   0.000000

     crystal axes: (cart. coord. in units of alat)
               a(1) = (   4.920524   0.000000   0.000000 )
               a(2) = (   0.000000   4.920524   0.000000 )
               a(3) = (   0.000000   0.000000   4.920524 )

     reciprocal axes: (cart. coord. in units 2 pi/alat)
               b(1) = (  0.203230  0.000000  0.000000 )
               b(2) = (  0.000000  0.203230  0.000000 )
               b(3) = (  0.000000  0.000000  0.203230 )

     PseudoPot. # 1 for Bi read from file:
     /home/mamunm/src/pseudo/gbrv1.5pbe/Bi.UPF
     MD5 check sum: 81103212dc04adf40945787f699eab19
     Pseudo is Ultrasoft + core correction, Zval = 15.0
     Generated by new atomic code, or converted to UPF format
     Using radial grid of  899 points,  6 beta functions with:
                l(1) =   0
                l(2) =   0
                l(3) =   1
                l(4) =   1
                l(5) =   2
                l(6) =   2
     Q(r) pseudized with  6 coefficients,  rinner =    1.000   1.000   1.000
                                                       1.000   1.000

     PseudoPot. # 2 for Sc read from file:
     /home/mamunm/src/pseudo/gbrv1.5pbe/Sc.UPF
     MD5 check sum: db30a2753ba66ef00f23801d899b7e7f
     Pseudo is Ultrasoft + core correction, Zval = 11.0
     Generated by new atomic code, or converted to UPF format
     Using radial grid of  849 points,  6 beta functions with:
                l(1) =   0
                l(2) =   0
                l(3) =   1
                l(4) =   1
                l(5) =   2
                l(6) =   2
     Q(r) pseudized with  6 coefficients,  rinner =    1.200   1.200   1.200
                                                       1.200   1.200

     vdW kernel table read from file vdW_kernel_table
     MD5 check sum: 095c7af220d748ca6e76c0b4c6cfb241

     atomic species   valence    mass     pseudopotential
        Bi1           15.00   208.98040     Bi( 1.00)
        Sc1           11.00    44.95591     Sc( 1.00)

     48 Sym. Ops., with inversion, found (32 have fractional translation)

   Cartesian axes

     site n.     atom                  positions (alat units)
         1           Bi1 tau(   1) = (   0.0000000   0.0000000   0.0000000  )
         2           Bi1 tau(   2) = (   0.0000000   2.4602622   2.4602622  )
         3           Bi1 tau(   3) = (   2.4602622   0.0000000   2.4602622  )
         4           Sc1 tau(   4) = (   2.4602622   2.4602622   0.0000000  )

     number of k points=    84  Fermi-Dirac smearing, width (Ry)=  0.0073
                       cart. coord. in units 2pi/alat
        k(    1) = (   0.0000000   0.0000000   0.0000000), wk =   0.0011574
        k(    2) = (   0.0000000   0.0000000   0.0169359), wk =   0.0069444
        k(    3) = (   0.0000000   0.0000000   0.0338717), wk =   0.0069444
        k(    4) = (   0.0000000   0.0000000   0.0508076), wk =   0.0069444
        k(    5) = (   0.0000000   0.0000000   0.0677435), wk =   0.0069444
        k(    6) = (   0.0000000   0.0000000   0.0846793), wk =   0.0069444
        k(    7) = (   0.0000000   0.0000000  -0.1016152), wk =   0.0034722
        k(    8) = (   0.0000000   0.0169359   0.0169359), wk =   0.0138889
        k(    9) = (   0.0000000   0.0169359   0.0338717), wk =   0.0277778
        k(   10) = (   0.0000000   0.0169359   0.0508076), wk =   0.0277778
        k(   11) = (   0.0000000   0.0169359   0.0677435), wk =   0.0277778
        k(   12) = (   0.0000000   0.0169359   0.0846793), wk =   0.0277778
        k(   13) = (   0.0000000   0.0169359  -0.1016152), wk =   0.0138889
        k(   14) = (   0.0000000   0.0338717   0.0338717), wk =   0.0138889
        k(   15) = (   0.0000000   0.0338717   0.0508076), wk =   0.0277778
        k(   16) = (   0.0000000   0.0338717   0.0677435), wk =   0.0277778
        k(   17) = (   0.0000000   0.0338717   0.0846793), wk =   0.0277778
        k(   18) = (   0.0000000   0.0338717  -0.1016152), wk =   0.0138889
        k(   19) = (   0.0000000   0.0508076   0.0508076), wk =   0.0138889
        k(   20) = (   0.0000000   0.0508076   0.0677435), wk =   0.0277778
        k(   21) = (   0.0000000   0.0508076   0.0846793), wk =   0.0277778
        k(   22) = (   0.0000000   0.0508076  -0.1016152), wk =   0.0138889
        k(   23) = (   0.0000000   0.0677435   0.0677435), wk =   0.0138889
        k(   24) = (   0.0000000   0.0677435   0.0846793), wk =   0.0277778
        k(   25) = (   0.0000000   0.0677435  -0.1016152), wk =   0.0138889
        k(   26) = (   0.0000000   0.0846793   0.0846793), wk =   0.0138889
        k(   27) = (   0.0000000   0.0846793  -0.1016152), wk =   0.0138889
        k(   28) = (   0.0000000  -0.1016152  -0.1016152), wk =   0.0034722
        k(   29) = (   0.0169359   0.0169359   0.0169359), wk =   0.0092593
        k(   30) = (   0.0169359   0.0169359   0.0338717), wk =   0.0277778
        k(   31) = (   0.0169359   0.0169359   0.0508076), wk =   0.0277778
        k(   32) = (   0.0169359   0.0169359   0.0677435), wk =   0.0277778
        k(   33) = (   0.0169359   0.0169359   0.0846793), wk =   0.0277778
        k(   34) = (   0.0169359   0.0169359  -0.1016152), wk =   0.0138889
        k(   35) = (   0.0169359   0.0338717   0.0338717), wk =   0.0277778
        k(   36) = (   0.0169359   0.0338717   0.0508076), wk =   0.0555556
        k(   37) = (   0.0169359   0.0338717   0.0677435), wk =   0.0555556
        k(   38) = (   0.0169359   0.0338717   0.0846793), wk =   0.0555556
        k(   39) = (   0.0169359   0.0338717  -0.1016152), wk =   0.0277778
        k(   40) = (   0.0169359   0.0508076   0.0508076), wk =   0.0277778
        k(   41) = (   0.0169359   0.0508076   0.0677435), wk =   0.0555556
        k(   42) = (   0.0169359   0.0508076   0.0846793), wk =   0.0555556
        k(   43) = (   0.0169359   0.0508076  -0.1016152), wk =   0.0277778
        k(   44) = (   0.0169359   0.0677435   0.0677435), wk =   0.0277778
        k(   45) = (   0.0169359   0.0677435   0.0846793), wk =   0.0555556
        k(   46) = (   0.0169359   0.0677435  -0.1016152), wk =   0.0277778
        k(   47) = (   0.0169359   0.0846793   0.0846793), wk =   0.0277778
        k(   48) = (   0.0169359   0.0846793  -0.1016152), wk =   0.0277778
        k(   49) = (   0.0169359  -0.1016152  -0.1016152), wk =   0.0069444
        k(   50) = (   0.0338717   0.0338717   0.0338717), wk =   0.0092593
        k(   51) = (   0.0338717   0.0338717   0.0508076), wk =   0.0277778
        k(   52) = (   0.0338717   0.0338717   0.0677435), wk =   0.0277778
        k(   53) = (   0.0338717   0.0338717   0.0846793), wk =   0.0277778
        k(   54) = (   0.0338717   0.0338717  -0.1016152), wk =   0.0138889
        k(   55) = (   0.0338717   0.0508076   0.0508076), wk =   0.0277778
        k(   56) = (   0.0338717   0.0508076   0.0677435), wk =   0.0555556
        k(   57) = (   0.0338717   0.0508076   0.0846793), wk =   0.0555556
        k(   58) = (   0.0338717   0.0508076  -0.1016152), wk =   0.0277778
        k(   59) = (   0.0338717   0.0677435   0.0677435), wk =   0.0277778
        k(   60) = (   0.0338717   0.0677435   0.0846793), wk =   0.0555556
[...]
        k(   70) = (   0.0508076   0.0677435   0.0846793), wk =   0.0555556
        k(   71) = (   0.0508076   0.0677435  -0.1016152), wk =   0.0277778
        k(   72) = (   0.0508076   0.0846793   0.0846793), wk =   0.0277778
        k(   73) = (   0.0508076   0.0846793  -0.1016152), wk =   0.0277778
        k(   74) = (   0.0508076  -0.1016152  -0.1016152), wk =   0.0069444
        k(   75) = (   0.0677435   0.0677435   0.0677435), wk =   0.0092593
        k(   76) = (   0.0677435   0.0677435   0.0846793), wk =   0.0277778
        k(   77) = (   0.0677435   0.0677435  -0.1016152), wk =   0.0138889
        k(   78) = (   0.0677435   0.0846793   0.0846793), wk =   0.0277778
        k(   79) = (   0.0677435   0.0846793  -0.1016152), wk =   0.0277778
        k(   80) = (   0.0677435  -0.1016152  -0.1016152), wk =   0.0069444
        k(   81) = (   0.0846793   0.0846793   0.0846793), wk =   0.0092593
        k(   82) = (   0.0846793   0.0846793  -0.1016152), wk =   0.0138889
        k(   83) = (   0.0846793  -0.1016152  -0.1016152), wk =   0.0069444
        k(   84) = (  -0.1016152  -0.1016152  -0.1016152), wk =   0.0011574

     Largest allocated arrays     est. size (Mb)     dimensions
     Largest temporary arrays     est. size (Mb)     dimensions

     Check: negative/imaginary core charge=   -0.000001    0.000000

     Initial potential from superposition of free atoms
     Check: negative starting charge=   -0.126982

     starting charge   52.99747, renormalised to   56.00000

     negative rho (up, down):  1.342E-01 0.000E+00

     *
     * You are using vdW-DF for exchange-correlation in this calculation.
     * Please cite the following three references that made this development
     * possible:
     *
     *   M. Dion, H. Rydberg, E. Schroder, D. C. Langreth, and
     *   B. I. Lundqvist, Phys. Rev. Lett. 92, 246401 (2004).
     *
     *   T. Thonhauser, V. R. Cooper, S. Li, A. Puzder, P. Hyldgaard, and
     *   D. C. Langreth, Phys. Rev. B 76, 125112 (2007).
     *
     *   G. Roman-Perez and J. M. Soler, Phys. Rev. Lett. 103, 096102 (2009).
     *
     *
     * If you are using vdW-DF2, please also cite:
     *
     *   K. Lee, E. D. Murray, L. Kong, B. I. Lundqvist, and
     *   D. C. Langreth, Phys. Rev. B 82, 081101(R) (2010).
     *
     *
     * If you are calculating the stress with vdW-DF, please also cite:
     *
     *   R. Sabatini, E. Kucukbenli, B. Kolb, T. Thonhauser, and
     *   S. de Gironcoli, J. Phys.: Condens. Matter 24, 424209 (2012).
     *

     Carrying out vdW-DF run using the following parameters:

     Nqs =      20    Nr_points =    1024   r_max =   100.000
     q_mesh =
               0.00001000     0.04494208     0.09755937     0.15916263
               0.23128650     0.31572767     0.41458969     0.53033537
               0.66584808     0.82450364     1.01025438     1.22772762
               1.48234092     1.78043706     2.12944203     2.53805004
               3.01644009     3.57652955     4.23227104     5.00000000

     Gradients computed in reciprocal space

     Starting wfc are   40 randomized atomic wfcs +    8 random wfc

     Self-consistent Calculation

     iteration #  1     ecut=    58.80 Ry     beta=0.10
     Davidson diagonalization with overlap
     ethr =  1.00E-02,  avg # of iterations =  5.3

[...]

     total energy              =    -657.00151055 Ry
     Harris-Foulkes estimate   =    -657.11123194 Ry
     estimated scf accuracy    <       1.64782338 Ry

[...]

     total energy              =    -656.39205873 Ry
     Harris-Foulkes estimate   =    -656.39204912 Ry
     estimated scf accuracy    <          9.6E-09 Ry

     iteration # 20     ecut=    58.80 Ry     beta=0.10
     Davidson diagonalization with overlap
     ethr =  1.72E-11,  avg # of iterations =  2.0

     negative rho (up, down):  1.354E-01 0.000E+00

     End of self-consistent calculation

          k = 0.0000 0.0000 0.0000 (  6043 PWs)   bands (ev):

   -39.6466 -18.2111 -18.2111 -18.2111 -12.1103 -12.1101 -12.1101 -12.1083
   -11.9821 -11.9819 -11.9703 -11.9702 -11.9380 -11.9380 -11.9376 -11.8830
   -11.8828 -11.8828 -11.8524  -1.7690   1.8040   1.8042   7.4804   7.4804
     7.4804  11.6428  11.7984  11.7985  11.8586  11.8586  11.8586  11.9023
    11.9024  11.9024  13.8922  13.8922  13.8923  17.3205  17.6279  17.6280
    18.2408  18.2409  18.2409  20.4114  20.4115  20.4115  20.9809  24.0163

[...]

          k = 0.0847-0.1016-0.1016 (  6080 PWs)   bands (ev):

[...]

          k =-0.1016-0.1016-0.1016 (  6152 PWs)   bands (ev):

   -39.6465 -18.2127 -18.2127 -18.2127 -12.0644 -12.0644 -12.0643 -12.0275
   -12.0275 -12.0274 -11.9976 -11.9758 -11.9758 -11.9756 -11.9184 -11.9181
   -11.8724 -11.8724 -11.8722   0.5935   0.5935   0.5938   5.9081   6.9766
     6.9768   6.9768  11.1302  12.3266  12.3266  12.3342  12.3342  12.3342
    14.9978  14.9980  15.0943  15.0945  15.0945  19.8533  19.8533  19.8533
    20.0059  20.0060  20.0060  20.2794  21.1931  21.1931  21.1931  21.4087

     the Fermi energy is    11.3755 ev

!    total energy              =    -656.39210020 Ry
     Harris-Foulkes estimate   =    -656.39205935 Ry
     estimated scf accuracy    <          7.2E-09 Ry

     The total energy is the sum of the following terms:

     one-electron contribution =    -171.68166556 Ry
     hartree contribution      =     118.49189391 Ry
     xc contribution           =    -213.71239013 Ry
     ewald contribution        =    -389.48338155 Ry
     smearing contrib. (-TS)   =      -0.00655687 Ry

     convergence has been achieved in  20 iterations

     Forces acting on atoms (Ry/au):

     negative rho (up, down):  1.354E-01 0.000E+00
     atom    1 type  1   force =     0.00000000    0.00000000    0.00000000
     atom    2 type  1   force =     0.00000000   -0.00000000    0.00000000
     atom    3 type  1   force =     0.00000000    0.00000000    0.00000000
     atom    4 type  2   force =     0.00000000    0.00000000    0.00000000

     Total force =     0.000000     Total SCF correction =     0.000000
 !ASE

     General routines

     Parallel routines

   This run was terminated on:  13:49:33  17Feb2018

   JOB DONE.