     Program PWSCF v.5.1rc2 (svn rev. ) starts on 24Oct2017 at 20:59:35

     Current dimensions of program PWSCF are:
     Max number of different atomic species (ntypx) = 10
     Max number of k-points (npk) =  40000
     Max angular momentum in pseudopotentials (lmaxx) =  3

     IMPORTANT: XC functional enforced from input :
     Exchange-correlation      = BEEF-VDW ( 1  4 27 13 2)
     Any further DFT definition will be discarded
     Please, verify this is what you really want

     Subspace diagonalization in iterative solution of the eigenvalue problem:
     a serial algorithm will be used

     bravais-lattice index     =            0
     lattice parameter (alat)  =       1.8897  a.u.
     unit-cell volume          =     436.0581 (a.u.)^3
     number of atoms/cell      =            4
     number of atomic types    =            2
     number of electrons       =        52.00
     number of Kohn-Sham states=           46
     kinetic-energy cutoff     =      58.7989  Ry
     charge density cutoff     =     587.9892  Ry
     convergence threshold     =      7.3E-09
     mixing beta               =       0.1000
     number of iterations used =           10  local-TF  mixing
     Exchange-correlation      = BEEF-VDW ( 1  4 27 13 2)
     nstep                     =           50

     celldm(1)=   1.889726  celldm(2)=   0.000000  celldm(3)=   0.000000
     celldm(4)=   0.000000  celldm(5)=   0.000000  celldm(6)=   0.000000

     crystal axes: (cart. coord. in units of alat)
               a(1) = (   4.012816   0.000000   0.000000 )
               a(2) = (   0.000000   4.012816   0.000000 )
               a(3) = (   0.000000   0.000000   4.012816 )

     reciprocal axes: (cart. coord. in units 2 pi/alat)
               b(1) = (  0.249202  0.000000  0.000000 )
               b(2) = (  0.000000  0.249202  0.000000 )
               b(3) = (  0.000000  0.000000  0.249202 )

     PseudoPot. # 1 for Ti read from file:
     /home/vossj/suncat/psp/gbrv1.5pbe/Ti.UPF
     MD5 check sum: 88a00a6731bd790ddea75d31a80cb452
     Pseudo is Ultrasoft + core correction, Zval = 12.0
     Generated by new atomic code, or converted to UPF format
     Using radial grid of  851 points,  6 beta functions with:
                l(1) =   0
                l(2) =   0
                l(3) =   1
                l(4) =   1
                l(5) =   2
                l(6) =   2
     Q(r) pseudized with  6 coefficients,  rinner =    1.000   1.000   1.000
                                                       1.000   1.000

     PseudoPot. # 2 for Os read from file:
     /home/vossj/suncat/psp/gbrv1.5pbe/Os.UPF
     MD5 check sum: a3fb40a04f0c37c25c34bbc47164c9a8
     Pseudo is Ultrasoft + core correction, Zval = 16.0
     Generated by new atomic code, or converted to UPF format
     Using radial grid of  983 points,  8 beta functions with:
                l(1) =   0
                l(2) =   0
                l(3) =   1
                l(4) =   1
                l(5) =   2
                l(6) =   2
                l(7) =   3
                l(8) =   3
     Q(r) pseudized with  8 coefficients,  rinner =    1.150   1.150   1.150
                                                       1.150   1.150   1.150
                                                       1.150

     vdW kernel table read from file vdW_kernel_table
     MD5 check sum: 095c7af220d748ca6e76c0b4c6cfb241

     atomic species   valence    mass     pseudopotential
        Ti1           12.00    47.86700     Ti( 1.00)
        Os1           16.00   190.23000     Os( 1.00)

     48 Sym. Ops., with inversion, found (32 have fractional translation)

   Cartesian axes

     site n.     atom                  positions (alat units)
         1           Ti1 tau(   1) = (   0.0000000   0.0000000   0.0000000  )
         2           Ti1 tau(   2) = (   0.0000000   2.0064080   2.0064080  )
         3           Ti1 tau(   3) = (   2.0064080   0.0000000   2.0064080  )
         4           Os1 tau(   4) = (   2.0064080   2.0064080   0.0000000  )

     number of k points=    84  Fermi-Dirac smearing, width (Ry)=  0.0073
                       cart. coord. in units 2pi/alat
        k(    1) = (   0.0000000   0.0000000   0.0000000), wk =   0.0011574
        k(    2) = (   0.0000000   0.0000000   0.0207668), wk =   0.0069444
        k(    3) = (   0.0000000   0.0000000   0.0415336), wk =   0.0069444
        k(    4) = (   0.0000000   0.0000000   0.0623004), wk =   0.0069444
        k(    5) = (   0.0000000   0.0000000   0.0830672), wk =   0.0069444
        k(    6) = (   0.0000000   0.0000000   0.1038340), wk =   0.0069444
        k(    7) = (   0.0000000   0.0000000  -0.1246008), wk =   0.0034722
        k(    8) = (   0.0000000   0.0207668   0.0207668), wk =   0.0138889
        k(    9) = (   0.0000000   0.0207668   0.0415336), wk =   0.0277778
        k(   10) = (   0.0000000   0.0207668   0.0623004), wk =   0.0277778
        k(   11) = (   0.0000000   0.0207668   0.0830672), wk =   0.0277778
        k(   12) = (   0.0000000   0.0207668   0.1038340), wk =   0.0277778
        k(   13) = (   0.0000000   0.0207668  -0.1246008), wk =   0.0138889
        k(   14) = (   0.0000000   0.0415336   0.0415336), wk =   0.0138889
        k(   15) = (   0.0000000   0.0415336   0.0623004), wk =   0.0277778
        k(   16) = (   0.0000000   0.0415336   0.0830672), wk =   0.0277778
        k(   17) = (   0.0000000   0.0415336   0.1038340), wk =   0.0277778
        k(   18) = (   0.0000000   0.0415336  -0.1246008), wk =   0.0138889
        k(   19) = (   0.0000000   0.0623004   0.0623004), wk =   0.0138889
        k(   20) = (   0.0000000   0.0623004   0.0830672), wk =   0.0277778
        k(   21) = (   0.0000000   0.0623004   0.1038340), wk =   0.0277778
        k(   22) = (   0.0000000   0.0623004  -0.1246008), wk =   0.0138889
        k(   23) = (   0.0000000   0.0830672   0.0830672), wk =   0.0138889
        k(   24) = (   0.0000000   0.0830672   0.1038340), wk =   0.0277778
        k(   25) = (   0.0000000   0.0830672  -0.1246008), wk =   0.0138889
        k(   26) = (   0.0000000   0.1038340   0.1038340), wk =   0.0138889
        k(   27) = (   0.0000000   0.1038340  -0.1246008), wk =   0.0138889
        k(   28) = (   0.0000000  -0.1246008  -0.1246008), wk =   0.0034722
        k(   29) = (   0.0207668   0.0207668   0.0207668), wk =   0.0092593
        k(   30) = (   0.0207668   0.0207668   0.0415336), wk =   0.0277778
        k(   31) = (   0.0207668   0.0207668   0.0623004), wk =   0.0277778
        k(   32) = (   0.0207668   0.0207668   0.0830672), wk =   0.0277778
        k(   33) = (   0.0207668   0.0207668   0.1038340), wk =   0.0277778
        k(   34) = (   0.0207668   0.0207668  -0.1246008), wk =   0.0138889
        k(   35) = (   0.0207668   0.0415336   0.0415336), wk =   0.0277778
        k(   36) = (   0.0207668   0.0415336   0.0623004), wk =   0.0555556
        k(   37) = (   0.0207668   0.0415336   0.0830672), wk =   0.0555556
        k(   38) = (   0.0207668   0.0415336   0.1038340), wk =   0.0555556
        k(   39) = (   0.0207668   0.0415336  -0.1246008), wk =   0.0277778
        k(   40) = (   0.0207668   0.0623004   0.0623004), wk =   0.0277778
        k(   41) = (   0.0207668   0.0623004   0.0830672), wk =   0.0555556
        k(   42) = (   0.0207668   0.0623004   0.1038340), wk =   0.0555556
        k(   43) = (   0.0207668   0.0623004  -0.1246008), wk =   0.0277778
        k(   44) = (   0.0207668   0.0830672   0.0830672), wk =   0.0277778
        k(   45) = (   0.0207668   0.0830672   0.1038340), wk =   0.0555556
        k(   46) = (   0.0207668   0.0830672  -0.1246008), wk =   0.0277778
        k(   47) = (   0.0207668   0.1038340   0.1038340), wk =   0.0277778
        k(   48) = (   0.0207668   0.1038340  -0.1246008), wk =   0.0277778
        k(   49) = (   0.0207668  -0.1246008  -0.1246008), wk =   0.0069444
        k(   50) = (   0.0415336   0.0415336   0.0415336), wk =   0.0092593
        k(   51) = (   0.0415336   0.0415336   0.0623004), wk =   0.0277778
        k(   52) = (   0.0415336   0.0415336   0.0830672), wk =   0.0277778
        k(   53) = (   0.0415336   0.0415336   0.1038340), wk =   0.0277778
        k(   54) = (   0.0415336   0.0415336  -0.1246008), wk =   0.0138889
        k(   55) = (   0.0415336   0.0623004   0.0623004), wk =   0.0277778
        k(   56) = (   0.0415336   0.0623004   0.0830672), wk =   0.0555556
        k(   57) = (   0.0415336   0.0623004   0.1038340), wk =   0.0555556
        k(   58) = (   0.0415336   0.0623004  -0.1246008), wk =   0.0277778
        k(   59) = (   0.0415336   0.0830672   0.0830672), wk =   0.0277778
        k(   60) = (   0.0415336   0.0830672   0.1038340), wk =   0.0555556
[...]
        k(   70) = (   0.0623004   0.0830672   0.1038340), wk =   0.0555556
        k(   71) = (   0.0623004   0.0830672  -0.1246008), wk =   0.0277778
        k(   72) = (   0.0623004   0.1038340   0.1038340), wk =   0.0277778
        k(   73) = (   0.0623004   0.1038340  -0.1246008), wk =   0.0277778
        k(   74) = (   0.0623004  -0.1246008  -0.1246008), wk =   0.0069444
        k(   75) = (   0.0830672   0.0830672   0.0830672), wk =   0.0092593
        k(   76) = (   0.0830672   0.0830672   0.1038340), wk =   0.0277778
        k(   77) = (   0.0830672   0.0830672  -0.1246008), wk =   0.0138889
        k(   78) = (   0.0830672   0.1038340   0.1038340), wk =   0.0277778
        k(   79) = (   0.0830672   0.1038340  -0.1246008), wk =   0.0277778
        k(   80) = (   0.0830672  -0.1246008  -0.1246008), wk =   0.0069444
        k(   81) = (   0.1038340   0.1038340   0.1038340), wk =   0.0092593
        k(   82) = (   0.1038340   0.1038340  -0.1246008), wk =   0.0138889
        k(   83) = (   0.1038340  -0.1246008  -0.1246008), wk =   0.0069444
        k(   84) = (  -0.1246008  -0.1246008  -0.1246008), wk =   0.0011574

     Largest allocated arrays     est. size (Mb)     dimensions
     Largest temporary arrays     est. size (Mb)     dimensions

     Check: negative/imaginary core charge=   -0.000002    0.000000

     Initial potential from superposition of free atoms
     Check: negative starting charge=   -0.127150

     starting charge   48.49983, renormalised to   52.00000

     negative rho (up, down):  1.363E-01 0.000E+00

     *
     * You are using vdW-DF for exchange-correlation in this calculation.
     * Please cite the following three references that made this development
     * possible:
     *
     *   M. Dion, H. Rydberg, E. Schroder, D. C. Langreth, and
     *   B. I. Lundqvist, Phys. Rev. Lett. 92, 246401 (2004).
     *
     *   T. Thonhauser, V. R. Cooper, S. Li, A. Puzder, P. Hyldgaard, and
     *   D. C. Langreth, Phys. Rev. B 76, 125112 (2007).
     *
     *   G. Roman-Perez and J. M. Soler, Phys. Rev. Lett. 103, 096102 (2009).
     *
     *
     * If you are using vdW-DF2, please also cite:
     *
     *   K. Lee, E. D. Murray, L. Kong, B. I. Lundqvist, and
     *   D. C. Langreth, Phys. Rev. B 82, 081101(R) (2010).
     *
     *
     * If you are calculating the stress with vdW-DF, please also cite:
     *
     *   R. Sabatini, E. Kucukbenli, B. Kolb, T. Thonhauser, and
     *   S. de Gironcoli, J. Phys.: Condens. Matter 24, 424209 (2012).
     *

     Carrying out vdW-DF run using the following parameters:

     Nqs =      20    Nr_points =    1024   r_max =   100.000
     q_mesh =
               0.00001000     0.04494208     0.09755937     0.15916263
               0.23128650     0.31572767     0.41458969     0.53033537
               0.66584808     0.82450364     1.01025438     1.22772762
               1.48234092     1.78043706     2.12944203     2.53805004
               3.01644009     3.57652955     4.23227104     5.00000000

     Gradients computed in reciprocal space

     Starting wfc are   43 randomized atomic wfcs +    3 random wfc

     Self-consistent Calculation

     iteration #  1     ecut=    58.80 Ry     beta=0.10
     Davidson diagonalization with overlap
     ethr =  1.00E-02,  avg # of iterations =  3.9

[...]

     total energy              =    -560.44507118 Ry
     Harris-Foulkes estimate   =    -560.75239563 Ry
     estimated scf accuracy    <       5.94353099 Ry

[...]

     total energy              =    -559.63713586 Ry
     Harris-Foulkes estimate   =    -559.63714388 Ry
     estimated scf accuracy    <       0.00000015 Ry

     iteration # 15     ecut=    58.80 Ry     beta=0.10
     Davidson diagonalization with overlap
     ethr =  2.76E-10,  avg # of iterations =  1.0

     negative rho (up, down):  1.241E-01 0.000E+00

     End of self-consistent calculation

          k = 0.0000 0.0000 0.0000 (  3287 PWs)   bands (ev):

   -69.9445 -40.9846 -40.8266 -40.8266 -29.2162 -29.2162 -29.2162 -17.3887
   -17.3887 -17.3887 -17.0631 -17.0631 -17.0631 -16.8515 -16.8515 -16.8515
     8.9347  11.9388  11.9388  12.8477  12.8839  12.8839  12.8839  16.2016
    16.2016  16.2016  18.0233  18.0233  19.0283  19.0283  19.0283  19.3705
    19.3705  19.6046  19.6046  19.6046  19.6075  19.8903  19.8903  19.8903
    25.9132  28.1745  28.1745  28.3350  28.3358  28.3360

[...]

          k = 0.1038-0.1246-0.1246 (  3308 PWs)   bands (ev):

[...]

          k =-0.1246-0.1246-0.1246 (  3328 PWs)   bands (ev):

   -69.9443 -40.8780 -40.8780 -40.8780 -29.2223 -29.2223 -29.2223 -17.5703
   -17.3484 -17.3484 -17.3484 -16.8834 -16.8834 -16.8834 -16.8585 -16.8585
    11.9698  12.2117  12.2117  12.2117  14.8114  14.8114  16.0005  16.0005
    16.0005  16.6192  16.6192  16.6192  16.6428  16.6428  16.6428  16.7934
    19.3196  19.3196  19.3342  19.3342  19.3342  19.6029  19.6029  19.6029
    22.8864  25.3000  25.3000  25.3000  30.5452  30.6427

     the Fermi energy is    15.9805 ev

!    total energy              =    -559.63714632 Ry
     Harris-Foulkes estimate   =    -559.63713587 Ry
     estimated scf accuracy    <          3.4E-09 Ry

     The total energy is the sum of the following terms:

     one-electron contribution =    -150.37311675 Ry
     hartree contribution      =      98.13873789 Ry
     xc contribution           =     -95.10080314 Ry
     ewald contribution        =    -412.28712121 Ry
     smearing contrib. (-TS)   =      -0.01484310 Ry

     convergence has been achieved in  15 iterations

     Forces acting on atoms (Ry/au):

     negative rho (up, down):  1.241E-01 0.000E+00
     atom    1 type  1   force =     0.00000000    0.00000000    0.00000000
     atom    2 type  1   force =     0.00000000    0.00000000    0.00000000
     atom    3 type  1   force =     0.00000000    0.00000000    0.00000000
     atom    4 type  2   force =     0.00000000    0.00000000    0.00000000

     Total force =     0.000000     Total SCF correction =     0.000000
 !ASE

     General routines

     Parallel routines

   This run was terminated on:  21: 0:32  24Oct2017

   JOB DONE.