     Program PWSCF v.5.1rc2 (svn rev. ) starts on 25Oct2017 at 10: 6:41

     Current dimensions of program PWSCF are:
     Max number of different atomic species (ntypx) = 10
     Max number of k-points (npk) =  40000
     Max angular momentum in pseudopotentials (lmaxx) =  3

     IMPORTANT: XC functional enforced from input :
     Exchange-correlation      = BEEF-VDW ( 1  4 27 13 2)
     Any further DFT definition will be discarded
     Please, verify this is what you really want

     Subspace diagonalization in iterative solution of the eigenvalue problem:
     a serial algorithm will be used

     bravais-lattice index     =            0
     lattice parameter (alat)  =       1.8897  a.u.
     unit-cell volume          =     551.3726 (a.u.)^3
     number of atoms/cell      =            4
     number of atomic types    =            2
     number of electrons       =        55.00
     number of Kohn-Sham states=           47
     kinetic-energy cutoff     =      58.7989  Ry
     charge density cutoff     =     587.9892  Ry
     convergence threshold     =      7.3E-09
     mixing beta               =       0.1000
     number of iterations used =           10  local-TF  mixing
     Exchange-correlation      = BEEF-VDW ( 1  4 27 13 2)
     nstep                     =           50

     celldm(1)=   1.889726  celldm(2)=   0.000000  celldm(3)=   0.000000
     celldm(4)=   0.000000  celldm(5)=   0.000000  celldm(6)=   0.000000

     crystal axes: (cart. coord. in units of alat)
               a(1) = (   4.339265   0.000000   0.000000 )
               a(2) = (   0.000000   4.339265   0.000000 )
               a(3) = (   0.000000   0.000000   4.339265 )

     reciprocal axes: (cart. coord. in units 2 pi/alat)
               b(1) = (  0.230454  0.000000  0.000000 )
               b(2) = (  0.000000  0.230454  0.000000 )
               b(3) = (  0.000000  0.000000  0.230454 )

     PseudoPot. # 1 for In read from file:
     /home/vossj/suncat/psp/gbrv1.5pbe/In.UPF
     MD5 check sum: 90777abd96fbb83f2e67db2a40c566b9
     Pseudo is Ultrasoft + core correction, Zval = 13.0
     Generated by new atomic code, or converted to UPF format
     Using radial grid of  889 points,  6 beta functions with:
                l(1) =   0
                l(2) =   0
                l(3) =   1
                l(4) =   1
                l(5) =   2
                l(6) =   2
     Q(r) pseudized with  6 coefficients,  rinner =    1.400   1.400   1.400
                                                       1.400   1.400

     PseudoPot. # 2 for Ru read from file:
     /home/vossj/suncat/psp/gbrv1.5pbe/Ru.UPF
     MD5 check sum: 7158a806dd851261a58e6920c40ebe78
     Pseudo is Ultrasoft + core correction, Zval = 16.0
     Generated by new atomic code, or converted to UPF format
     Using radial grid of  967 points,  6 beta functions with:
                l(1) =   0
                l(2) =   0
                l(3) =   1
                l(4) =   1
                l(5) =   2
                l(6) =   2
     Q(r) pseudized with  8 coefficients,  rinner =    1.300   1.300   1.300
                                                       1.300   1.300

     vdW kernel table read from file vdW_kernel_table
     MD5 check sum: 095c7af220d748ca6e76c0b4c6cfb241

     atomic species   valence    mass     pseudopotential
        In1           13.00   114.81800     In( 1.00)
        Ru1           16.00   101.07000     Ru( 1.00)

     48 Sym. Ops., with inversion, found (32 have fractional translation)

   Cartesian axes

     site n.     atom                  positions (alat units)
         1           In1 tau(   1) = (   0.0000000   0.0000000   0.0000000  )
         2           In1 tau(   2) = (   0.0000000   2.1696327   2.1696327  )
         3           In1 tau(   3) = (   2.1696327   0.0000000   2.1696327  )
         4           Ru1 tau(   4) = (   2.1696327   2.1696327   0.0000000  )

     number of k points=    84  Fermi-Dirac smearing, width (Ry)=  0.0073
                       cart. coord. in units 2pi/alat
        k(    1) = (   0.0000000   0.0000000   0.0000000), wk =   0.0011574
        k(    2) = (   0.0000000   0.0000000   0.0192045), wk =   0.0069444
        k(    3) = (   0.0000000   0.0000000   0.0384090), wk =   0.0069444
        k(    4) = (   0.0000000   0.0000000   0.0576134), wk =   0.0069444
        k(    5) = (   0.0000000   0.0000000   0.0768179), wk =   0.0069444
        k(    6) = (   0.0000000   0.0000000   0.0960224), wk =   0.0069444
        k(    7) = (   0.0000000   0.0000000  -0.1152269), wk =   0.0034722
        k(    8) = (   0.0000000   0.0192045   0.0192045), wk =   0.0138889
        k(    9) = (   0.0000000   0.0192045   0.0384090), wk =   0.0277778
        k(   10) = (   0.0000000   0.0192045   0.0576134), wk =   0.0277778
        k(   11) = (   0.0000000   0.0192045   0.0768179), wk =   0.0277778
        k(   12) = (   0.0000000   0.0192045   0.0960224), wk =   0.0277778
        k(   13) = (   0.0000000   0.0192045  -0.1152269), wk =   0.0138889
        k(   14) = (   0.0000000   0.0384090   0.0384090), wk =   0.0138889
        k(   15) = (   0.0000000   0.0384090   0.0576134), wk =   0.0277778
        k(   16) = (   0.0000000   0.0384090   0.0768179), wk =   0.0277778
        k(   17) = (   0.0000000   0.0384090   0.0960224), wk =   0.0277778
        k(   18) = (   0.0000000   0.0384090  -0.1152269), wk =   0.0138889
        k(   19) = (   0.0000000   0.0576134   0.0576134), wk =   0.0138889
        k(   20) = (   0.0000000   0.0576134   0.0768179), wk =   0.0277778
        k(   21) = (   0.0000000   0.0576134   0.0960224), wk =   0.0277778
        k(   22) = (   0.0000000   0.0576134  -0.1152269), wk =   0.0138889
        k(   23) = (   0.0000000   0.0768179   0.0768179), wk =   0.0138889
        k(   24) = (   0.0000000   0.0768179   0.0960224), wk =   0.0277778
        k(   25) = (   0.0000000   0.0768179  -0.1152269), wk =   0.0138889
        k(   26) = (   0.0000000   0.0960224   0.0960224), wk =   0.0138889
        k(   27) = (   0.0000000   0.0960224  -0.1152269), wk =   0.0138889
        k(   28) = (   0.0000000  -0.1152269  -0.1152269), wk =   0.0034722
        k(   29) = (   0.0192045   0.0192045   0.0192045), wk =   0.0092593
        k(   30) = (   0.0192045   0.0192045   0.0384090), wk =   0.0277778
        k(   31) = (   0.0192045   0.0192045   0.0576134), wk =   0.0277778
        k(   32) = (   0.0192045   0.0192045   0.0768179), wk =   0.0277778
        k(   33) = (   0.0192045   0.0192045   0.0960224), wk =   0.0277778
        k(   34) = (   0.0192045   0.0192045  -0.1152269), wk =   0.0138889
        k(   35) = (   0.0192045   0.0384090   0.0384090), wk =   0.0277778
        k(   36) = (   0.0192045   0.0384090   0.0576134), wk =   0.0555556
        k(   37) = (   0.0192045   0.0384090   0.0768179), wk =   0.0555556
        k(   38) = (   0.0192045   0.0384090   0.0960224), wk =   0.0555556
        k(   39) = (   0.0192045   0.0384090  -0.1152269), wk =   0.0277778
        k(   40) = (   0.0192045   0.0576134   0.0576134), wk =   0.0277778
        k(   41) = (   0.0192045   0.0576134   0.0768179), wk =   0.0555556
        k(   42) = (   0.0192045   0.0576134   0.0960224), wk =   0.0555556
        k(   43) = (   0.0192045   0.0576134  -0.1152269), wk =   0.0277778
        k(   44) = (   0.0192045   0.0768179   0.0768179), wk =   0.0277778
        k(   45) = (   0.0192045   0.0768179   0.0960224), wk =   0.0555556
        k(   46) = (   0.0192045   0.0768179  -0.1152269), wk =   0.0277778
        k(   47) = (   0.0192045   0.0960224   0.0960224), wk =   0.0277778
        k(   48) = (   0.0192045   0.0960224  -0.1152269), wk =   0.0277778
        k(   49) = (   0.0192045  -0.1152269  -0.1152269), wk =   0.0069444
        k(   50) = (   0.0384090   0.0384090   0.0384090), wk =   0.0092593
        k(   51) = (   0.0384090   0.0384090   0.0576134), wk =   0.0277778
        k(   52) = (   0.0384090   0.0384090   0.0768179), wk =   0.0277778
        k(   53) = (   0.0384090   0.0384090   0.0960224), wk =   0.0277778
        k(   54) = (   0.0384090   0.0384090  -0.1152269), wk =   0.0138889
        k(   55) = (   0.0384090   0.0576134   0.0576134), wk =   0.0277778
        k(   56) = (   0.0384090   0.0576134   0.0768179), wk =   0.0555556
        k(   57) = (   0.0384090   0.0576134   0.0960224), wk =   0.0555556
        k(   58) = (   0.0384090   0.0576134  -0.1152269), wk =   0.0277778
        k(   59) = (   0.0384090   0.0768179   0.0768179), wk =   0.0277778
        k(   60) = (   0.0384090   0.0768179   0.0960224), wk =   0.0555556
[...]
        k(   70) = (   0.0576134   0.0768179   0.0960224), wk =   0.0555556
        k(   71) = (   0.0576134   0.0768179  -0.1152269), wk =   0.0277778
        k(   72) = (   0.0576134   0.0960224   0.0960224), wk =   0.0277778
        k(   73) = (   0.0576134   0.0960224  -0.1152269), wk =   0.0277778
        k(   74) = (   0.0576134  -0.1152269  -0.1152269), wk =   0.0069444
        k(   75) = (   0.0768179   0.0768179   0.0768179), wk =   0.0092593
        k(   76) = (   0.0768179   0.0768179   0.0960224), wk =   0.0277778
        k(   77) = (   0.0768179   0.0768179  -0.1152269), wk =   0.0138889
        k(   78) = (   0.0768179   0.0960224   0.0960224), wk =   0.0277778
        k(   79) = (   0.0768179   0.0960224  -0.1152269), wk =   0.0277778
        k(   80) = (   0.0768179  -0.1152269  -0.1152269), wk =   0.0069444
        k(   81) = (   0.0960224   0.0960224   0.0960224), wk =   0.0092593
        k(   82) = (   0.0960224   0.0960224  -0.1152269), wk =   0.0138889
        k(   83) = (   0.0960224  -0.1152269  -0.1152269), wk =   0.0069444
        k(   84) = (  -0.1152269  -0.1152269  -0.1152269), wk =   0.0011574

     Largest allocated arrays     est. size (Mb)     dimensions
     Largest temporary arrays     est. size (Mb)     dimensions

     Initial potential from superposition of free atoms
     Check: negative starting charge=   -0.075811

     starting charge   49.49998, renormalised to   55.00000

     negative rho (up, down):  8.423E-02 0.000E+00

     *
     * You are using vdW-DF for exchange-correlation in this calculation.
     * Please cite the following three references that made this development
     * possible:
     *
     *   M. Dion, H. Rydberg, E. Schroder, D. C. Langreth, and
     *   B. I. Lundqvist, Phys. Rev. Lett. 92, 246401 (2004).
     *
     *   T. Thonhauser, V. R. Cooper, S. Li, A. Puzder, P. Hyldgaard, and
     *   D. C. Langreth, Phys. Rev. B 76, 125112 (2007).
     *
     *   G. Roman-Perez and J. M. Soler, Phys. Rev. Lett. 103, 096102 (2009).
     *
     *
     * If you are using vdW-DF2, please also cite:
     *
     *   K. Lee, E. D. Murray, L. Kong, B. I. Lundqvist, and
     *   D. C. Langreth, Phys. Rev. B 82, 081101(R) (2010).
     *
     *
     * If you are calculating the stress with vdW-DF, please also cite:
     *
     *   R. Sabatini, E. Kucukbenli, B. Kolb, T. Thonhauser, and
     *   S. de Gironcoli, J. Phys.: Condens. Matter 24, 424209 (2012).
     *

     Carrying out vdW-DF run using the following parameters:

     Nqs =      20    Nr_points =    1024   r_max =   100.000
     q_mesh =
               0.00001000     0.04494208     0.09755937     0.15916263
               0.23128650     0.31572767     0.41458969     0.53033537
               0.66584808     0.82450364     1.01025438     1.22772762
               1.48234092     1.78043706     2.12944203     2.53805004
               3.01644009     3.57652955     4.23227104     5.00000000

     Gradients computed in reciprocal space

     Starting wfc are   40 randomized atomic wfcs +    7 random wfc

     Self-consistent Calculation

     iteration #  1     ecut=    58.80 Ry     beta=0.10
     Davidson diagonalization with overlap
     ethr =  1.00E-02,  avg # of iterations =  4.8

[...]

     total energy              =    -602.48086136 Ry
     Harris-Foulkes estimate   =    -603.46532856 Ry
     estimated scf accuracy    <      14.55208122 Ry

[...]

     total energy              =    -599.43015319 Ry
     Harris-Foulkes estimate   =    -599.43015298 Ry
     estimated scf accuracy    <       0.00000008 Ry

     iteration # 22     ecut=    58.80 Ry     beta=0.10
     Davidson diagonalization with overlap
     ethr =  6.46E-11,  avg # of iterations =  1.0

     negative rho (up, down):  7.529E-02 0.000E+00

     End of self-consistent calculation

          k = 0.0000 0.0000 0.0000 (  4169 PWs)   bands (ev):

   -57.9777 -27.9879 -27.9879 -27.9879  -1.7134  -1.6765  -1.6765  -1.6765
    -1.3793  -1.3793  -1.0985  -1.0985  -1.0985  -1.0133  -1.0133  -0.7959
    -0.7736  -0.7736  -0.7736   3.6369  10.9636  10.9636  12.0283  12.0283
    12.0283  13.0593  13.0593  13.0593  15.5422  15.5422  16.2234  19.1133
    19.1133  19.1133  20.9081  20.9081  20.9081  24.7896  24.7896  24.7896
    25.0757  25.0757  26.2315  26.4709  28.7648  28.7648  28.7648

[...]

          k = 0.0960-0.1152-0.1152 (  4224 PWs)   bands (ev):

[...]

          k =-0.1152-0.1152-0.1152 (  4224 PWs)   bands (ev):

   -57.9776 -27.9896 -27.9896 -27.9896  -1.5276  -1.5276  -1.5276  -1.4433
    -1.3741  -1.3741  -1.3741  -1.1121  -1.1121  -1.1121  -1.0105  -1.0105
    -0.8133  -0.8133  -0.8133   8.9470   8.9470   8.9470   9.5013  11.0279
    11.0279  11.0279  13.3677  13.3677  14.6569  14.6569  14.6569  14.8458
    24.3661  24.3661  24.8253  24.8253  24.8253  25.4849  25.8435  25.8435
    25.8435  28.3519  28.3519  28.3519  29.0130  29.0130  29.0130

     the Fermi energy is    13.9881 ev

!    total energy              =    -599.43015417 Ry
     Harris-Foulkes estimate   =    -599.43015321 Ry
     estimated scf accuracy    <          1.0E-09 Ry

     The total energy is the sum of the following terms:

     one-electron contribution =    -152.32554674 Ry
     hartree contribution      =     122.18620390 Ry
     xc contribution           =    -144.58747401 Ry
     ewald contribution        =    -424.69657379 Ry
     smearing contrib. (-TS)   =      -0.00676354 Ry

     convergence has been achieved in  22 iterations

     Forces acting on atoms (Ry/au):

     negative rho (up, down):  7.529E-02 0.000E+00
     atom    1 type  1   force =     0.00000000   -0.00000000    0.00000000
     atom    2 type  1   force =     0.00000000   -0.00000000    0.00000000
     atom    3 type  1   force =     0.00000000    0.00000000    0.00000000
     atom    4 type  2   force =     0.00000000    0.00000000    0.00000000

     Total force =     0.000000     Total SCF correction =     0.000000
 !ASE

     General routines

     Parallel routines

   This run was terminated on:  10: 8:19  25Oct2017

   JOB DONE.