     Program PWSCF v.5.1rc2 (svn rev. ) starts on 25Oct2017 at  5:48:39

     Current dimensions of program PWSCF are:
     Max number of different atomic species (ntypx) = 10
     Max number of k-points (npk) =  40000
     Max angular momentum in pseudopotentials (lmaxx) =  3

     IMPORTANT: XC functional enforced from input :
     Exchange-correlation      = BEEF-VDW ( 1  4 27 13 2)
     Any further DFT definition will be discarded
     Please, verify this is what you really want

     Subspace diagonalization in iterative solution of the eigenvalue problem:
     a serial algorithm will be used

     bravais-lattice index     =            0
     lattice parameter (alat)  =       1.8897  a.u.
     unit-cell volume          =     445.3217 (a.u.)^3
     number of atoms/cell      =            4
     number of atomic types    =            2
     number of electrons       =        60.00
     number of Kohn-Sham states=           50
     kinetic-energy cutoff     =      58.7989  Ry
     charge density cutoff     =     587.9892  Ry
     convergence threshold     =      7.3E-09
     mixing beta               =       0.1000
     number of iterations used =           10  local-TF  mixing
     Exchange-correlation      = BEEF-VDW ( 1  4 27 13 2)
     nstep                     =           50

     celldm(1)=   1.889726  celldm(2)=   0.000000  celldm(3)=   0.000000
     celldm(4)=   0.000000  celldm(5)=   0.000000  celldm(6)=   0.000000

     crystal axes: (cart. coord. in units of alat)
               a(1) = (   4.041033   0.000000   0.000000 )
               a(2) = (   0.000000   4.041033   0.000000 )
               a(3) = (   0.000000   0.000000   4.041033 )

     reciprocal axes: (cart. coord. in units 2 pi/alat)
               b(1) = (  0.247461  0.000000  0.000000 )
               b(2) = (  0.000000  0.247461  0.000000 )
               b(3) = (  0.000000  0.000000  0.247461 )

     PseudoPot. # 1 for Pt read from file:
     /home/vossj/suncat/psp/gbrv1.5pbe/Pt.UPF
     MD5 check sum: f09d6de1a584b5a045c4fc126da2d0c4
     Pseudo is Ultrasoft + core correction, Zval = 16.0
     Generated by new atomic code, or converted to UPF format
     Using radial grid of  985 points,  6 beta functions with:
                l(1) =   0
                l(2) =   0
                l(3) =   1
                l(4) =   1
                l(5) =   2
                l(6) =   2
     Q(r) pseudized with  8 coefficients,  rinner =    1.300   1.300   1.300
                                                       1.300   1.300

     PseudoPot. # 2 for Hf read from file:
     /home/vossj/suncat/psp/gbrv1.5pbe/Hf.UPF
     MD5 check sum: 8ee9378dfe14276e333edf04c5e4aa26
     Pseudo is Ultrasoft + core correction, Zval = 12.0
     Generated by new atomic code, or converted to UPF format
     Using radial grid of  921 points,  8 beta functions with:
                l(1) =   0
                l(2) =   0
                l(3) =   0
                l(4) =   1
                l(5) =   1
                l(6) =   2
                l(7) =   2
                l(8) =   3
     Q(r) pseudized with  6 coefficients,  rinner =    1.200   1.200   1.200
                                                       1.200   1.200   1.200
                                                       1.200

     vdW kernel table read from file vdW_kernel_table
     MD5 check sum: 095c7af220d748ca6e76c0b4c6cfb241

     atomic species   valence    mass     pseudopotential
        Pt1           16.00   195.08400     Pt( 1.00)
        Hf1           12.00   178.49000     Hf( 1.00)

     48 Sym. Ops., with inversion, found (32 have fractional translation)

   Cartesian axes

     site n.     atom                  positions (alat units)
         1           Pt1 tau(   1) = (   0.0000000   0.0000000   0.0000000  )
         2           Pt1 tau(   2) = (   0.0000000   2.0205167   2.0205167  )
         3           Pt1 tau(   3) = (   2.0205167   0.0000000   2.0205167  )
         4           Hf1 tau(   4) = (   2.0205167   2.0205167   0.0000000  )

     number of k points=    84  Fermi-Dirac smearing, width (Ry)=  0.0073
                       cart. coord. in units 2pi/alat
        k(    1) = (   0.0000000   0.0000000   0.0000000), wk =   0.0011574
        k(    2) = (   0.0000000   0.0000000   0.0206218), wk =   0.0069444
        k(    3) = (   0.0000000   0.0000000   0.0412436), wk =   0.0069444
        k(    4) = (   0.0000000   0.0000000   0.0618654), wk =   0.0069444
        k(    5) = (   0.0000000   0.0000000   0.0824872), wk =   0.0069444
        k(    6) = (   0.0000000   0.0000000   0.1031089), wk =   0.0069444
        k(    7) = (   0.0000000   0.0000000  -0.1237307), wk =   0.0034722
        k(    8) = (   0.0000000   0.0206218   0.0206218), wk =   0.0138889
        k(    9) = (   0.0000000   0.0206218   0.0412436), wk =   0.0277778
        k(   10) = (   0.0000000   0.0206218   0.0618654), wk =   0.0277778
        k(   11) = (   0.0000000   0.0206218   0.0824872), wk =   0.0277778
        k(   12) = (   0.0000000   0.0206218   0.1031089), wk =   0.0277778
        k(   13) = (   0.0000000   0.0206218  -0.1237307), wk =   0.0138889
        k(   14) = (   0.0000000   0.0412436   0.0412436), wk =   0.0138889
        k(   15) = (   0.0000000   0.0412436   0.0618654), wk =   0.0277778
        k(   16) = (   0.0000000   0.0412436   0.0824872), wk =   0.0277778
        k(   17) = (   0.0000000   0.0412436   0.1031089), wk =   0.0277778
        k(   18) = (   0.0000000   0.0412436  -0.1237307), wk =   0.0138889
        k(   19) = (   0.0000000   0.0618654   0.0618654), wk =   0.0138889
        k(   20) = (   0.0000000   0.0618654   0.0824872), wk =   0.0277778
        k(   21) = (   0.0000000   0.0618654   0.1031089), wk =   0.0277778
        k(   22) = (   0.0000000   0.0618654  -0.1237307), wk =   0.0138889
        k(   23) = (   0.0000000   0.0824872   0.0824872), wk =   0.0138889
        k(   24) = (   0.0000000   0.0824872   0.1031089), wk =   0.0277778
        k(   25) = (   0.0000000   0.0824872  -0.1237307), wk =   0.0138889
        k(   26) = (   0.0000000   0.1031089   0.1031089), wk =   0.0138889
        k(   27) = (   0.0000000   0.1031089  -0.1237307), wk =   0.0138889
        k(   28) = (   0.0000000  -0.1237307  -0.1237307), wk =   0.0034722
        k(   29) = (   0.0206218   0.0206218   0.0206218), wk =   0.0092593
        k(   30) = (   0.0206218   0.0206218   0.0412436), wk =   0.0277778
        k(   31) = (   0.0206218   0.0206218   0.0618654), wk =   0.0277778
        k(   32) = (   0.0206218   0.0206218   0.0824872), wk =   0.0277778
        k(   33) = (   0.0206218   0.0206218   0.1031089), wk =   0.0277778
        k(   34) = (   0.0206218   0.0206218  -0.1237307), wk =   0.0138889
        k(   35) = (   0.0206218   0.0412436   0.0412436), wk =   0.0277778
        k(   36) = (   0.0206218   0.0412436   0.0618654), wk =   0.0555556
        k(   37) = (   0.0206218   0.0412436   0.0824872), wk =   0.0555556
        k(   38) = (   0.0206218   0.0412436   0.1031089), wk =   0.0555556
        k(   39) = (   0.0206218   0.0412436  -0.1237307), wk =   0.0277778
        k(   40) = (   0.0206218   0.0618654   0.0618654), wk =   0.0277778
        k(   41) = (   0.0206218   0.0618654   0.0824872), wk =   0.0555556
        k(   42) = (   0.0206218   0.0618654   0.1031089), wk =   0.0555556
        k(   43) = (   0.0206218   0.0618654  -0.1237307), wk =   0.0277778
        k(   44) = (   0.0206218   0.0824872   0.0824872), wk =   0.0277778
        k(   45) = (   0.0206218   0.0824872   0.1031089), wk =   0.0555556
        k(   46) = (   0.0206218   0.0824872  -0.1237307), wk =   0.0277778
        k(   47) = (   0.0206218   0.1031089   0.1031089), wk =   0.0277778
        k(   48) = (   0.0206218   0.1031089  -0.1237307), wk =   0.0277778
        k(   49) = (   0.0206218  -0.1237307  -0.1237307), wk =   0.0069444
        k(   50) = (   0.0412436   0.0412436   0.0412436), wk =   0.0092593
        k(   51) = (   0.0412436   0.0412436   0.0618654), wk =   0.0277778
        k(   52) = (   0.0412436   0.0412436   0.0824872), wk =   0.0277778
        k(   53) = (   0.0412436   0.0412436   0.1031089), wk =   0.0277778
        k(   54) = (   0.0412436   0.0412436  -0.1237307), wk =   0.0138889
        k(   55) = (   0.0412436   0.0618654   0.0618654), wk =   0.0277778
        k(   56) = (   0.0412436   0.0618654   0.0824872), wk =   0.0555556
        k(   57) = (   0.0412436   0.0618654   0.1031089), wk =   0.0555556
        k(   58) = (   0.0412436   0.0618654  -0.1237307), wk =   0.0277778
        k(   59) = (   0.0412436   0.0824872   0.0824872), wk =   0.0277778
        k(   60) = (   0.0412436   0.0824872   0.1031089), wk =   0.0555556
[...]
        k(   70) = (   0.0618654   0.0824872   0.1031089), wk =   0.0555556
        k(   71) = (   0.0618654   0.0824872  -0.1237307), wk =   0.0277778
        k(   72) = (   0.0618654   0.1031089   0.1031089), wk =   0.0277778
        k(   73) = (   0.0618654   0.1031089  -0.1237307), wk =   0.0277778
        k(   74) = (   0.0618654  -0.1237307  -0.1237307), wk =   0.0069444
        k(   75) = (   0.0824872   0.0824872   0.0824872), wk =   0.0092593
        k(   76) = (   0.0824872   0.0824872   0.1031089), wk =   0.0277778
        k(   77) = (   0.0824872   0.0824872  -0.1237307), wk =   0.0138889
        k(   78) = (   0.0824872   0.1031089   0.1031089), wk =   0.0277778
        k(   79) = (   0.0824872   0.1031089  -0.1237307), wk =   0.0277778
        k(   80) = (   0.0824872  -0.1237307  -0.1237307), wk =   0.0069444
        k(   81) = (   0.1031089   0.1031089   0.1031089), wk =   0.0092593
        k(   82) = (   0.1031089   0.1031089  -0.1237307), wk =   0.0138889
        k(   83) = (   0.1031089  -0.1237307  -0.1237307), wk =   0.0069444
        k(   84) = (  -0.1237307  -0.1237307  -0.1237307), wk =   0.0011574

     Largest allocated arrays     est. size (Mb)     dimensions
     Largest temporary arrays     est. size (Mb)     dimensions

     Initial potential from superposition of free atoms
     Check: negative starting charge=   -0.658730

     starting charge   56.49996, renormalised to   60.00000

     negative rho (up, down):  6.995E-01 0.000E+00

     *
     * You are using vdW-DF for exchange-correlation in this calculation.
     * Please cite the following three references that made this development
     * possible:
     *
     *   M. Dion, H. Rydberg, E. Schroder, D. C. Langreth, and
     *   B. I. Lundqvist, Phys. Rev. Lett. 92, 246401 (2004).
     *
     *   T. Thonhauser, V. R. Cooper, S. Li, A. Puzder, P. Hyldgaard, and
     *   D. C. Langreth, Phys. Rev. B 76, 125112 (2007).
     *
     *   G. Roman-Perez and J. M. Soler, Phys. Rev. Lett. 103, 096102 (2009).
     *
     *
     * If you are using vdW-DF2, please also cite:
     *
     *   K. Lee, E. D. Murray, L. Kong, B. I. Lundqvist, and
     *   D. C. Langreth, Phys. Rev. B 82, 081101(R) (2010).
     *
     *
     * If you are calculating the stress with vdW-DF, please also cite:
     *
     *   R. Sabatini, E. Kucukbenli, B. Kolb, T. Thonhauser, and
     *   S. de Gironcoli, J. Phys.: Condens. Matter 24, 424209 (2012).
     *

     Carrying out vdW-DF run using the following parameters:

     Nqs =      20    Nr_points =    1024   r_max =   100.000
     q_mesh =
               0.00001000     0.04494208     0.09755937     0.15916263
               0.23128650     0.31572767     0.41458969     0.53033537
               0.66584808     0.82450364     1.01025438     1.22772762
               1.48234092     1.78043706     2.12944203     2.53805004
               3.01644009     3.57652955     4.23227104     5.00000000

     Gradients computed in reciprocal space

     Starting wfc are   49 randomized atomic wfcs +    1 random wfc

     Self-consistent Calculation

     iteration #  1     ecut=    58.80 Ry     beta=0.10
     Davidson diagonalization with overlap
     ethr =  1.00E-02,  avg # of iterations =  4.2

[...]

     total energy              =    -799.71330061 Ry
     Harris-Foulkes estimate   =    -800.41322364 Ry
     estimated scf accuracy    <      12.11291843 Ry

[...]

     total energy              =    -798.03116470 Ry
     Harris-Foulkes estimate   =    -798.03116319 Ry
     estimated scf accuracy    <       0.00000003 Ry

     iteration # 14     ecut=    58.80 Ry     beta=0.10
     Davidson diagonalization with overlap
     ethr =  4.97E-11,  avg # of iterations =  1.1

     negative rho (up, down):  6.491E-01 0.000E+00

     End of self-consistent calculation

          k = 0.0000 0.0000 0.0000 (  3407 PWs)   bands (ev):

   -42.7506 -32.7973 -32.7973 -32.7973 -32.6961 -32.6961 -32.6961 -32.5480
   -32.5480 -32.5480 -11.2443 -11.2443 -11.2443  10.9268  13.8859  13.8859
    14.0079  14.4347  14.4347  14.4347  17.1094  17.1094  17.1094  18.8568
    18.8568  19.7731  20.3284  20.3284  20.3284  22.3864  22.3864  22.3864
    23.2154  23.2154  25.0594  25.0594  25.0594  29.7649  29.7649  30.4239
    30.4239  30.4239  30.9917  32.5684  32.5684  32.5684  34.1562  38.9734
    38.9734  38.9734

[...]

          k = 0.1031-0.1237-0.1237 (  3396 PWs)   bands (ev):

[...]

          k =-0.1237-0.1237-0.1237 (  3448 PWs)   bands (ev):

   -42.7491 -32.8103 -32.8103 -32.8103 -32.8035 -32.6188 -32.6188 -32.6188
   -32.5244 -32.5244 -11.2676 -11.2676 -11.2676  13.7096  13.7096  13.7096
    13.8990  16.4795  16.4795  16.4795  17.1459  17.1459  17.1459  17.5404
    17.5404  19.8893  19.8893  19.8893  19.9445  20.3259  20.3259  20.3259
    22.3523  22.3523  22.3523  24.3326  24.3326  28.2064  28.2440  28.2440
    28.2440  33.5840  33.5840  33.5840  34.0085  37.5447  37.5447  37.5447
    38.2068  38.2068

     the Fermi energy is    20.8989 ev

!    total energy              =    -798.03117112 Ry
     Harris-Foulkes estimate   =    -798.03116470 Ry
     estimated scf accuracy    <          2.1E-09 Ry

     The total energy is the sum of the following terms:

     one-electron contribution =     -96.44195895 Ry
     hartree contribution      =      95.84265947 Ry
     xc contribution           =    -253.53501976 Ry
     ewald contribution        =    -543.89607888 Ry
     smearing contrib. (-TS)   =      -0.00077301 Ry

     convergence has been achieved in  14 iterations

     Forces acting on atoms (Ry/au):

     negative rho (up, down):  6.491E-01 0.000E+00
     atom    1 type  1   force =     0.00000000    0.00000000    0.00000000
     atom    2 type  1   force =     0.00000000   -0.00000000    0.00000000
     atom    3 type  1   force =     0.00000000    0.00000000    0.00000000
     atom    4 type  2   force =     0.00000000    0.00000000    0.00000000

     Total force =     0.000000     Total SCF correction =     0.000000
 !ASE

     General routines

     Parallel routines

   This run was terminated on:   5:49:37  25Oct2017

   JOB DONE.