     Program PWSCF v.5.1rc2 (svn rev. ) starts on 25Oct2017 at  5:54:46

     Current dimensions of program PWSCF are:
     Max number of different atomic species (ntypx) = 10
     Max number of k-points (npk) =  40000
     Max angular momentum in pseudopotentials (lmaxx) =  3

     IMPORTANT: XC functional enforced from input :
     Exchange-correlation      = BEEF-VDW ( 1  4 27 13 2)
     Any further DFT definition will be discarded
     Please, verify this is what you really want

     Subspace diagonalization in iterative solution of the eigenvalue problem:
     a serial algorithm will be used

     bravais-lattice index     =            0
     lattice parameter (alat)  =       1.8897  a.u.
     unit-cell volume          =     423.8125 (a.u.)^3
     number of atoms/cell      =            4
     number of atomic types    =            2
     number of electrons       =        62.00
     number of Kohn-Sham states=           51
     kinetic-energy cutoff     =      58.7989  Ry
     charge density cutoff     =     587.9892  Ry
     convergence threshold     =      7.3E-09
     mixing beta               =       0.1000
     number of iterations used =           10  local-TF  mixing
     Exchange-correlation      = BEEF-VDW ( 1  4 27 13 2)
     nstep                     =           50

     celldm(1)=   1.889726  celldm(2)=   0.000000  celldm(3)=   0.000000
     celldm(4)=   0.000000  celldm(5)=   0.000000  celldm(6)=   0.000000

     crystal axes: (cart. coord. in units of alat)
               a(1) = (   3.974895   0.000000   0.000000 )
               a(2) = (   0.000000   3.974895   0.000000 )
               a(3) = (   0.000000   0.000000   3.974895 )

     reciprocal axes: (cart. coord. in units 2 pi/alat)
               b(1) = (  0.251579  0.000000  0.000000 )
               b(2) = (  0.000000  0.251579  0.000000 )
               b(3) = (  0.000000  0.000000  0.251579 )

     PseudoPot. # 1 for Pt read from file:
     /home/vossj/suncat/psp/gbrv1.5pbe/Pt.UPF
     MD5 check sum: f09d6de1a584b5a045c4fc126da2d0c4
     Pseudo is Ultrasoft + core correction, Zval = 16.0
     Generated by new atomic code, or converted to UPF format
     Using radial grid of  985 points,  6 beta functions with:
                l(1) =   0
                l(2) =   0
                l(3) =   1
                l(4) =   1
                l(5) =   2
                l(6) =   2
     Q(r) pseudized with  8 coefficients,  rinner =    1.300   1.300   1.300
                                                       1.300   1.300

     PseudoPot. # 2 for Mo read from file:
     /home/vossj/suncat/psp/gbrv1.5pbe/Mo.UPF
     MD5 check sum: 30c4dcd161f5d35cd49bb5239c51a633
     Pseudo is Ultrasoft + core correction, Zval = 14.0
     Generated by new atomic code, or converted to UPF format
     Using radial grid of  889 points,  6 beta functions with:
                l(1) =   0
                l(2) =   0
                l(3) =   1
                l(4) =   1
                l(5) =   2
                l(6) =   2
     Q(r) pseudized with  6 coefficients,  rinner =    1.000   1.000   1.000
                                                       1.000   1.000

     vdW kernel table read from file vdW_kernel_table
     MD5 check sum: 095c7af220d748ca6e76c0b4c6cfb241

     atomic species   valence    mass     pseudopotential
        Pt1           16.00   195.08400     Pt( 1.00)
        Mo1           14.00    95.95000     Mo( 1.00)

     48 Sym. Ops., with inversion, found (32 have fractional translation)

   Cartesian axes

     site n.     atom                  positions (alat units)
         1           Pt1 tau(   1) = (   0.0000000   0.0000000   0.0000000  )
         2           Pt1 tau(   2) = (   0.0000000   1.9874477   1.9874477  )
         3           Pt1 tau(   3) = (   1.9874477   0.0000000   1.9874477  )
         4           Mo1 tau(   4) = (   1.9874477   1.9874477   0.0000000  )

     number of k points=    84  Fermi-Dirac smearing, width (Ry)=  0.0073
                       cart. coord. in units 2pi/alat
        k(    1) = (   0.0000000   0.0000000   0.0000000), wk =   0.0011574
        k(    2) = (   0.0000000   0.0000000   0.0209649), wk =   0.0069444
        k(    3) = (   0.0000000   0.0000000   0.0419298), wk =   0.0069444
        k(    4) = (   0.0000000   0.0000000   0.0628947), wk =   0.0069444
        k(    5) = (   0.0000000   0.0000000   0.0838596), wk =   0.0069444
        k(    6) = (   0.0000000   0.0000000   0.1048246), wk =   0.0069444
        k(    7) = (   0.0000000   0.0000000  -0.1257895), wk =   0.0034722
        k(    8) = (   0.0000000   0.0209649   0.0209649), wk =   0.0138889
        k(    9) = (   0.0000000   0.0209649   0.0419298), wk =   0.0277778
        k(   10) = (   0.0000000   0.0209649   0.0628947), wk =   0.0277778
        k(   11) = (   0.0000000   0.0209649   0.0838596), wk =   0.0277778
        k(   12) = (   0.0000000   0.0209649   0.1048246), wk =   0.0277778
        k(   13) = (   0.0000000   0.0209649  -0.1257895), wk =   0.0138889
        k(   14) = (   0.0000000   0.0419298   0.0419298), wk =   0.0138889
        k(   15) = (   0.0000000   0.0419298   0.0628947), wk =   0.0277778
        k(   16) = (   0.0000000   0.0419298   0.0838596), wk =   0.0277778
        k(   17) = (   0.0000000   0.0419298   0.1048246), wk =   0.0277778
        k(   18) = (   0.0000000   0.0419298  -0.1257895), wk =   0.0138889
        k(   19) = (   0.0000000   0.0628947   0.0628947), wk =   0.0138889
        k(   20) = (   0.0000000   0.0628947   0.0838596), wk =   0.0277778
        k(   21) = (   0.0000000   0.0628947   0.1048246), wk =   0.0277778
        k(   22) = (   0.0000000   0.0628947  -0.1257895), wk =   0.0138889
        k(   23) = (   0.0000000   0.0838596   0.0838596), wk =   0.0138889
        k(   24) = (   0.0000000   0.0838596   0.1048246), wk =   0.0277778
        k(   25) = (   0.0000000   0.0838596  -0.1257895), wk =   0.0138889
        k(   26) = (   0.0000000   0.1048246   0.1048246), wk =   0.0138889
        k(   27) = (   0.0000000   0.1048246  -0.1257895), wk =   0.0138889
        k(   28) = (   0.0000000  -0.1257895  -0.1257895), wk =   0.0034722
        k(   29) = (   0.0209649   0.0209649   0.0209649), wk =   0.0092593
        k(   30) = (   0.0209649   0.0209649   0.0419298), wk =   0.0277778
        k(   31) = (   0.0209649   0.0209649   0.0628947), wk =   0.0277778
        k(   32) = (   0.0209649   0.0209649   0.0838596), wk =   0.0277778
        k(   33) = (   0.0209649   0.0209649   0.1048246), wk =   0.0277778
        k(   34) = (   0.0209649   0.0209649  -0.1257895), wk =   0.0138889
        k(   35) = (   0.0209649   0.0419298   0.0419298), wk =   0.0277778
        k(   36) = (   0.0209649   0.0419298   0.0628947), wk =   0.0555556
        k(   37) = (   0.0209649   0.0419298   0.0838596), wk =   0.0555556
        k(   38) = (   0.0209649   0.0419298   0.1048246), wk =   0.0555556
        k(   39) = (   0.0209649   0.0419298  -0.1257895), wk =   0.0277778
        k(   40) = (   0.0209649   0.0628947   0.0628947), wk =   0.0277778
        k(   41) = (   0.0209649   0.0628947   0.0838596), wk =   0.0555556
        k(   42) = (   0.0209649   0.0628947   0.1048246), wk =   0.0555556
        k(   43) = (   0.0209649   0.0628947  -0.1257895), wk =   0.0277778
        k(   44) = (   0.0209649   0.0838596   0.0838596), wk =   0.0277778
        k(   45) = (   0.0209649   0.0838596   0.1048246), wk =   0.0555556
        k(   46) = (   0.0209649   0.0838596  -0.1257895), wk =   0.0277778
        k(   47) = (   0.0209649   0.1048246   0.1048246), wk =   0.0277778
        k(   48) = (   0.0209649   0.1048246  -0.1257895), wk =   0.0277778
        k(   49) = (   0.0209649  -0.1257895  -0.1257895), wk =   0.0069444
        k(   50) = (   0.0419298   0.0419298   0.0419298), wk =   0.0092593
        k(   51) = (   0.0419298   0.0419298   0.0628947), wk =   0.0277778
        k(   52) = (   0.0419298   0.0419298   0.0838596), wk =   0.0277778
        k(   53) = (   0.0419298   0.0419298   0.1048246), wk =   0.0277778
        k(   54) = (   0.0419298   0.0419298  -0.1257895), wk =   0.0138889
        k(   55) = (   0.0419298   0.0628947   0.0628947), wk =   0.0277778
        k(   56) = (   0.0419298   0.0628947   0.0838596), wk =   0.0555556
        k(   57) = (   0.0419298   0.0628947   0.1048246), wk =   0.0555556
        k(   58) = (   0.0419298   0.0628947  -0.1257895), wk =   0.0277778
        k(   59) = (   0.0419298   0.0838596   0.0838596), wk =   0.0277778
        k(   60) = (   0.0419298   0.0838596   0.1048246), wk =   0.0555556
[...]
        k(   70) = (   0.0628947   0.0838596   0.1048246), wk =   0.0555556
        k(   71) = (   0.0628947   0.0838596  -0.1257895), wk =   0.0277778
        k(   72) = (   0.0628947   0.1048246   0.1048246), wk =   0.0277778
        k(   73) = (   0.0628947   0.1048246  -0.1257895), wk =   0.0277778
        k(   74) = (   0.0628947  -0.1257895  -0.1257895), wk =   0.0069444
        k(   75) = (   0.0838596   0.0838596   0.0838596), wk =   0.0092593
        k(   76) = (   0.0838596   0.0838596   0.1048246), wk =   0.0277778
        k(   77) = (   0.0838596   0.0838596  -0.1257895), wk =   0.0138889
        k(   78) = (   0.0838596   0.1048246   0.1048246), wk =   0.0277778
        k(   79) = (   0.0838596   0.1048246  -0.1257895), wk =   0.0277778
        k(   80) = (   0.0838596  -0.1257895  -0.1257895), wk =   0.0069444
        k(   81) = (   0.1048246   0.1048246   0.1048246), wk =   0.0092593
        k(   82) = (   0.1048246   0.1048246  -0.1257895), wk =   0.0138889
        k(   83) = (   0.1048246  -0.1257895  -0.1257895), wk =   0.0069444
        k(   84) = (  -0.1257895  -0.1257895  -0.1257895), wk =   0.0011574

     Largest allocated arrays     est. size (Mb)     dimensions
     Largest temporary arrays     est. size (Mb)     dimensions

     Initial potential from superposition of free atoms
     Check: negative starting charge=   -0.551666

     starting charge   60.49890, renormalised to   62.00000

     negative rho (up, down):  5.654E-01 0.000E+00

     *
     * You are using vdW-DF for exchange-correlation in this calculation.
     * Please cite the following three references that made this development
     * possible:
     *
     *   M. Dion, H. Rydberg, E. Schroder, D. C. Langreth, and
     *   B. I. Lundqvist, Phys. Rev. Lett. 92, 246401 (2004).
     *
     *   T. Thonhauser, V. R. Cooper, S. Li, A. Puzder, P. Hyldgaard, and
     *   D. C. Langreth, Phys. Rev. B 76, 125112 (2007).
     *
     *   G. Roman-Perez and J. M. Soler, Phys. Rev. Lett. 103, 096102 (2009).
     *
     *
     * If you are using vdW-DF2, please also cite:
     *
     *   K. Lee, E. D. Murray, L. Kong, B. I. Lundqvist, and
     *   D. C. Langreth, Phys. Rev. B 82, 081101(R) (2010).
     *
     *
     * If you are calculating the stress with vdW-DF, please also cite:
     *
     *   R. Sabatini, E. Kucukbenli, B. Kolb, T. Thonhauser, and
     *   S. de Gironcoli, J. Phys.: Condens. Matter 24, 424209 (2012).
     *

     Carrying out vdW-DF run using the following parameters:

     Nqs =      20    Nr_points =    1024   r_max =   100.000
     q_mesh =
               0.00001000     0.04494208     0.09755937     0.15916263
               0.23128650     0.31572767     0.41458969     0.53033537
               0.66584808     0.82450364     1.01025438     1.22772762
               1.48234092     1.78043706     2.12944203     2.53805004
               3.01644009     3.57652955     4.23227104     5.00000000

     Gradients computed in reciprocal space

     Starting wfc are   49 randomized atomic wfcs +    2 random wfc

     Self-consistent Calculation

     iteration #  1     ecut=    58.80 Ry     beta=0.10
     Davidson diagonalization with overlap
     ethr =  1.00E-02,  avg # of iterations =  4.7

[...]

     total energy              =    -777.81321903 Ry
     Harris-Foulkes estimate   =    -778.15547290 Ry
     estimated scf accuracy    <       6.32706556 Ry

[...]

     total energy              =    -777.16887721 Ry
     Harris-Foulkes estimate   =    -777.16887593 Ry
     estimated scf accuracy    <       0.00000001 Ry

     iteration # 15     ecut=    58.80 Ry     beta=0.10
     Davidson diagonalization with overlap
     ethr =  1.79E-11,  avg # of iterations =  1.0

     negative rho (up, down):  5.315E-01 0.000E+00

     End of self-consistent calculation

          k = 0.0000 0.0000 0.0000 (  3239 PWs)   bands (ev):

   -40.3667 -32.0113 -32.0113 -32.0113 -31.8752 -31.8752 -31.8752 -31.7325
   -31.7325 -31.7325 -14.3651 -14.3651 -14.3651  11.9356  14.6253  14.6253
    14.6661  15.0694  15.0694  15.0694  17.8531  17.8531  17.8531  19.7554
    19.7554  20.8612  21.3943  21.3943  21.3943  22.6673  22.6673  23.4197
    23.4197  23.4197  23.5494  23.5494  23.5494  30.0678  30.0678  32.0117
    32.0117  32.0117  32.9227  33.4651  33.4651  33.4651  35.4095  40.3275
    40.3275  40.7114  40.7114

[...]

          k = 0.1048-0.1258-0.1258 (  3220 PWs)   bands (ev):

[...]

          k =-0.1258-0.1258-0.1258 (  3184 PWs)   bands (ev):

   -40.3647 -32.0543 -32.0114 -32.0114 -32.0114 -31.7833 -31.7833 -31.7833
   -31.7186 -31.7186 -14.3777 -14.3777 -14.3777  14.3884  14.3884  14.3884
    14.9143  17.3304  17.3304  17.3304  17.8342  17.8342  17.8342  18.2427
    18.2427  20.8503  20.9458  20.9458  20.9458  21.3097  21.3097  21.3097
    22.4582  22.4582  22.4582  22.8718  22.8718  27.4977  27.4977  27.4977
    30.2101  34.9296  34.9296  34.9296  35.1512  39.1297  39.1297  39.1297
    39.8279  39.8279  41.0259

     the Fermi energy is    21.5235 ev

!    total energy              =    -777.16888273 Ry
     Harris-Foulkes estimate   =    -777.16887721 Ry
     estimated scf accuracy    <          1.9E-09 Ry

     The total energy is the sum of the following terms:

     one-electron contribution =     -90.07227168 Ry
     hartree contribution      =      96.43912370 Ry
     xc contribution           =    -196.04321406 Ry
     ewald contribution        =    -587.47761207 Ry
     smearing contrib. (-TS)   =      -0.01490861 Ry

     convergence has been achieved in  15 iterations

     Forces acting on atoms (Ry/au):

     negative rho (up, down):  5.315E-01 0.000E+00
     atom    1 type  1   force =     0.00000000    0.00000000    0.00000000
     atom    2 type  1   force =     0.00000000    0.00000000    0.00000000
     atom    3 type  1   force =     0.00000000   -0.00000000    0.00000000
     atom    4 type  2   force =     0.00000000    0.00000000    0.00000000

     Total force =     0.000000     Total SCF correction =     0.000000
 !ASE

     General routines

     Parallel routines

   This run was terminated on:   5:55:46  25Oct2017

   JOB DONE.