     Program PWSCF v.5.1rc2 (svn rev. ) starts on 25Oct2017 at  9:36:44

     Current dimensions of program PWSCF are:
     Max number of different atomic species (ntypx) = 10
     Max number of k-points (npk) =  40000
     Max angular momentum in pseudopotentials (lmaxx) =  3

     IMPORTANT: XC functional enforced from input :
     Exchange-correlation      = BEEF-VDW ( 1  4 27 13 2)
     Any further DFT definition will be discarded
     Please, verify this is what you really want

     Subspace diagonalization in iterative solution of the eigenvalue problem:
     a serial algorithm will be used

     bravais-lattice index     =            0
     lattice parameter (alat)  =       1.8897  a.u.
     unit-cell volume          =     567.0307 (a.u.)^3
     number of atoms/cell      =            4
     number of atomic types    =            2
     number of electrons       =        54.00
     number of Kohn-Sham states=           47
     kinetic-energy cutoff     =      58.7989  Ry
     charge density cutoff     =     587.9892  Ry
     convergence threshold     =      7.3E-09
     mixing beta               =       0.1000
     number of iterations used =           10  local-TF  mixing
     Exchange-correlation      = BEEF-VDW ( 1  4 27 13 2)
     nstep                     =           50

     celldm(1)=   1.889726  celldm(2)=   0.000000  celldm(3)=   0.000000
     celldm(4)=   0.000000  celldm(5)=   0.000000  celldm(6)=   0.000000

     crystal axes: (cart. coord. in units of alat)
               a(1) = (   4.379959   0.000000   0.000000 )
               a(2) = (   0.000000   4.379959   0.000000 )
               a(3) = (   0.000000   0.000000   4.379959 )

     reciprocal axes: (cart. coord. in units 2 pi/alat)
               b(1) = (  0.228313  0.000000  0.000000 )
               b(2) = (  0.000000  0.228313  0.000000 )
               b(3) = (  0.000000  0.000000  0.228313 )

     PseudoPot. # 1 for In read from file:
     /home/vossj/suncat/psp/gbrv1.5pbe/In.UPF
     MD5 check sum: 90777abd96fbb83f2e67db2a40c566b9
     Pseudo is Ultrasoft + core correction, Zval = 13.0
     Generated by new atomic code, or converted to UPF format
     Using radial grid of  889 points,  6 beta functions with:
                l(1) =   0
                l(2) =   0
                l(3) =   1
                l(4) =   1
                l(5) =   2
                l(6) =   2
     Q(r) pseudized with  6 coefficients,  rinner =    1.400   1.400   1.400
                                                       1.400   1.400

     PseudoPot. # 2 for Ir read from file:
     /home/vossj/suncat/psp/gbrv1.5pbe/Ir.UPF
     MD5 check sum: 8836f839c3459d2b385c504ce6d91f2c
     Pseudo is Ultrasoft + core correction, Zval = 15.0
     Generated by new atomic code, or converted to UPF format
     Using radial grid of  983 points,  7 beta functions with:
                l(1) =   0
                l(2) =   0
                l(3) =   1
                l(4) =   1
                l(5) =   1
                l(6) =   2
                l(7) =   2
     Q(r) pseudized with  8 coefficients,  rinner =    1.400   1.400   1.400
                                                       1.400   1.400

     vdW kernel table read from file vdW_kernel_table
     MD5 check sum: 095c7af220d748ca6e76c0b4c6cfb241

     atomic species   valence    mass     pseudopotential
        In1           13.00   114.81800     In( 1.00)
        Ir1           15.00   192.21700     Ir( 1.00)

     48 Sym. Ops., with inversion, found (32 have fractional translation)

   Cartesian axes

     site n.     atom                  positions (alat units)
         1           In1 tau(   1) = (   0.0000000   0.0000000   0.0000000  )
         2           In1 tau(   2) = (   0.0000000   2.1899793   2.1899793  )
         3           In1 tau(   3) = (   2.1899793   0.0000000   2.1899793  )
         4           Ir1 tau(   4) = (   2.1899793   2.1899793   0.0000000  )

     number of k points=    84  Fermi-Dirac smearing, width (Ry)=  0.0073
                       cart. coord. in units 2pi/alat
        k(    1) = (   0.0000000   0.0000000   0.0000000), wk =   0.0011574
        k(    2) = (   0.0000000   0.0000000   0.0190261), wk =   0.0069444
        k(    3) = (   0.0000000   0.0000000   0.0380521), wk =   0.0069444
        k(    4) = (   0.0000000   0.0000000   0.0570782), wk =   0.0069444
        k(    5) = (   0.0000000   0.0000000   0.0761042), wk =   0.0069444
        k(    6) = (   0.0000000   0.0000000   0.0951303), wk =   0.0069444
        k(    7) = (   0.0000000   0.0000000  -0.1141563), wk =   0.0034722
        k(    8) = (   0.0000000   0.0190261   0.0190261), wk =   0.0138889
        k(    9) = (   0.0000000   0.0190261   0.0380521), wk =   0.0277778
        k(   10) = (   0.0000000   0.0190261   0.0570782), wk =   0.0277778
        k(   11) = (   0.0000000   0.0190261   0.0761042), wk =   0.0277778
        k(   12) = (   0.0000000   0.0190261   0.0951303), wk =   0.0277778
        k(   13) = (   0.0000000   0.0190261  -0.1141563), wk =   0.0138889
        k(   14) = (   0.0000000   0.0380521   0.0380521), wk =   0.0138889
        k(   15) = (   0.0000000   0.0380521   0.0570782), wk =   0.0277778
        k(   16) = (   0.0000000   0.0380521   0.0761042), wk =   0.0277778
        k(   17) = (   0.0000000   0.0380521   0.0951303), wk =   0.0277778
        k(   18) = (   0.0000000   0.0380521  -0.1141563), wk =   0.0138889
        k(   19) = (   0.0000000   0.0570782   0.0570782), wk =   0.0138889
        k(   20) = (   0.0000000   0.0570782   0.0761042), wk =   0.0277778
        k(   21) = (   0.0000000   0.0570782   0.0951303), wk =   0.0277778
        k(   22) = (   0.0000000   0.0570782  -0.1141563), wk =   0.0138889
        k(   23) = (   0.0000000   0.0761042   0.0761042), wk =   0.0138889
        k(   24) = (   0.0000000   0.0761042   0.0951303), wk =   0.0277778
        k(   25) = (   0.0000000   0.0761042  -0.1141563), wk =   0.0138889
        k(   26) = (   0.0000000   0.0951303   0.0951303), wk =   0.0138889
        k(   27) = (   0.0000000   0.0951303  -0.1141563), wk =   0.0138889
        k(   28) = (   0.0000000  -0.1141563  -0.1141563), wk =   0.0034722
        k(   29) = (   0.0190261   0.0190261   0.0190261), wk =   0.0092593
        k(   30) = (   0.0190261   0.0190261   0.0380521), wk =   0.0277778
        k(   31) = (   0.0190261   0.0190261   0.0570782), wk =   0.0277778
        k(   32) = (   0.0190261   0.0190261   0.0761042), wk =   0.0277778
        k(   33) = (   0.0190261   0.0190261   0.0951303), wk =   0.0277778
        k(   34) = (   0.0190261   0.0190261  -0.1141563), wk =   0.0138889
        k(   35) = (   0.0190261   0.0380521   0.0380521), wk =   0.0277778
        k(   36) = (   0.0190261   0.0380521   0.0570782), wk =   0.0555556
        k(   37) = (   0.0190261   0.0380521   0.0761042), wk =   0.0555556
        k(   38) = (   0.0190261   0.0380521   0.0951303), wk =   0.0555556
        k(   39) = (   0.0190261   0.0380521  -0.1141563), wk =   0.0277778
        k(   40) = (   0.0190261   0.0570782   0.0570782), wk =   0.0277778
        k(   41) = (   0.0190261   0.0570782   0.0761042), wk =   0.0555556
        k(   42) = (   0.0190261   0.0570782   0.0951303), wk =   0.0555556
        k(   43) = (   0.0190261   0.0570782  -0.1141563), wk =   0.0277778
        k(   44) = (   0.0190261   0.0761042   0.0761042), wk =   0.0277778
        k(   45) = (   0.0190261   0.0761042   0.0951303), wk =   0.0555556
        k(   46) = (   0.0190261   0.0761042  -0.1141563), wk =   0.0277778
        k(   47) = (   0.0190261   0.0951303   0.0951303), wk =   0.0277778
        k(   48) = (   0.0190261   0.0951303  -0.1141563), wk =   0.0277778
        k(   49) = (   0.0190261  -0.1141563  -0.1141563), wk =   0.0069444
        k(   50) = (   0.0380521   0.0380521   0.0380521), wk =   0.0092593
        k(   51) = (   0.0380521   0.0380521   0.0570782), wk =   0.0277778
        k(   52) = (   0.0380521   0.0380521   0.0761042), wk =   0.0277778
        k(   53) = (   0.0380521   0.0380521   0.0951303), wk =   0.0277778
        k(   54) = (   0.0380521   0.0380521  -0.1141563), wk =   0.0138889
        k(   55) = (   0.0380521   0.0570782   0.0570782), wk =   0.0277778
        k(   56) = (   0.0380521   0.0570782   0.0761042), wk =   0.0555556
        k(   57) = (   0.0380521   0.0570782   0.0951303), wk =   0.0555556
        k(   58) = (   0.0380521   0.0570782  -0.1141563), wk =   0.0277778
        k(   59) = (   0.0380521   0.0761042   0.0761042), wk =   0.0277778
        k(   60) = (   0.0380521   0.0761042   0.0951303), wk =   0.0555556
[...]
        k(   70) = (   0.0570782   0.0761042   0.0951303), wk =   0.0555556
        k(   71) = (   0.0570782   0.0761042  -0.1141563), wk =   0.0277778
        k(   72) = (   0.0570782   0.0951303   0.0951303), wk =   0.0277778
        k(   73) = (   0.0570782   0.0951303  -0.1141563), wk =   0.0277778
        k(   74) = (   0.0570782  -0.1141563  -0.1141563), wk =   0.0069444
        k(   75) = (   0.0761042   0.0761042   0.0761042), wk =   0.0092593
        k(   76) = (   0.0761042   0.0761042   0.0951303), wk =   0.0277778
        k(   77) = (   0.0761042   0.0761042  -0.1141563), wk =   0.0138889
        k(   78) = (   0.0761042   0.0951303   0.0951303), wk =   0.0277778
        k(   79) = (   0.0761042   0.0951303  -0.1141563), wk =   0.0277778
        k(   80) = (   0.0761042  -0.1141563  -0.1141563), wk =   0.0069444
        k(   81) = (   0.0951303   0.0951303   0.0951303), wk =   0.0092593
        k(   82) = (   0.0951303   0.0951303  -0.1141563), wk =   0.0138889
        k(   83) = (   0.0951303  -0.1141563  -0.1141563), wk =   0.0069444
        k(   84) = (  -0.1141563  -0.1141563  -0.1141563), wk =   0.0011574

     Largest allocated arrays     est. size (Mb)     dimensions
     Largest temporary arrays     est. size (Mb)     dimensions

     Initial potential from superposition of free atoms
     Check: negative starting charge=   -0.362903

     starting charge   48.99997, renormalised to   54.00000

     negative rho (up, down):  3.999E-01 0.000E+00

     *
     * You are using vdW-DF for exchange-correlation in this calculation.
     * Please cite the following three references that made this development
     * possible:
     *
     *   M. Dion, H. Rydberg, E. Schroder, D. C. Langreth, and
     *   B. I. Lundqvist, Phys. Rev. Lett. 92, 246401 (2004).
     *
     *   T. Thonhauser, V. R. Cooper, S. Li, A. Puzder, P. Hyldgaard, and
     *   D. C. Langreth, Phys. Rev. B 76, 125112 (2007).
     *
     *   G. Roman-Perez and J. M. Soler, Phys. Rev. Lett. 103, 096102 (2009).
     *
     *
     * If you are using vdW-DF2, please also cite:
     *
     *   K. Lee, E. D. Murray, L. Kong, B. I. Lundqvist, and
     *   D. C. Langreth, Phys. Rev. B 82, 081101(R) (2010).
     *
     *
     * If you are calculating the stress with vdW-DF, please also cite:
     *
     *   R. Sabatini, E. Kucukbenli, B. Kolb, T. Thonhauser, and
     *   S. de Gironcoli, J. Phys.: Condens. Matter 24, 424209 (2012).
     *

     Carrying out vdW-DF run using the following parameters:

     Nqs =      20    Nr_points =    1024   r_max =   100.000
     q_mesh =
               0.00001000     0.04494208     0.09755937     0.15916263
               0.23128650     0.31572767     0.41458969     0.53033537
               0.66584808     0.82450364     1.01025438     1.22772762
               1.48234092     1.78043706     2.12944203     2.53805004
               3.01644009     3.57652955     4.23227104     5.00000000

     Gradients computed in reciprocal space

     Starting wfc are   39 randomized atomic wfcs +    8 random wfc

     Self-consistent Calculation

     iteration #  1     ecut=    58.80 Ry     beta=0.10
     Davidson diagonalization with overlap
     ethr =  1.00E-02,  avg # of iterations =  4.7

[...]

     total energy              =    -590.59561685 Ry
     Harris-Foulkes estimate   =    -591.59627712 Ry
     estimated scf accuracy    <      16.00090334 Ry

[...]

     total energy              =    -587.65440686 Ry
     Harris-Foulkes estimate   =    -587.65440564 Ry
     estimated scf accuracy    <       0.00000002 Ry

     iteration # 17     ecut=    58.80 Ry     beta=0.10
     Davidson diagonalization with overlap
     ethr =  3.35E-11,  avg # of iterations =  2.5

     negative rho (up, down):  3.333E-01 0.000E+00

     End of self-consistent calculation

          k = 0.0000 0.0000 0.0000 (  4385 PWs)   bands (ev):

   -34.5754 -34.5754 -34.5754  -1.8611  -1.8255  -1.8255  -1.8255  -1.5416
    -1.5416  -1.2777  -1.2777  -1.2777  -1.2080  -1.2080  -1.0012  -0.9848
    -0.9848  -0.9848   3.3956  10.3996  10.3996  11.8041  11.8041  11.8041
    12.2505  12.2505  12.2505  14.7301  15.0155  15.0155  18.7987  18.7987
    18.7987  20.3332  20.3332  20.3332  24.4155  24.5361  24.5361  24.5361
    24.8547  24.8547  25.6751  26.1642  28.0957  28.0957  28.0957

[...]

          k = 0.0951-0.1142-0.1142 (  4312 PWs)   bands (ev):

[...]

          k =-0.1142-0.1142-0.1142 (  4272 PWs)   bands (ev):

   -34.5761 -34.5761 -34.5761  -1.6839  -1.6839  -1.6839  -1.6119  -1.5418
    -1.5418  -1.5418  -1.2988  -1.2988  -1.2988  -1.1940  -1.1940  -1.0193
    -1.0193  -1.0193   8.5870   8.5870   8.5870   9.4049  10.7935  10.7935
    10.7935  12.5538  12.5538  12.7776  14.0142  14.0142  14.0142  23.9013
    23.9013  24.3209  24.3209  24.3209  25.1896  25.5434  25.5434  25.5434
    25.6698  27.4976  27.4976  27.4976  28.5417  28.5600  28.5600

     the Fermi energy is    13.7361 ev

!    total energy              =    -587.65441702 Ry
     Harris-Foulkes estimate   =    -587.65440686 Ry
     estimated scf accuracy    <          3.7E-09 Ry

     The total energy is the sum of the following terms:

     one-electron contribution =    -122.20581776 Ry
     hartree contribution      =     108.84458182 Ry
     xc contribution           =    -169.65305639 Ry
     ewald contribution        =    -404.63456707 Ry
     smearing contrib. (-TS)   =      -0.00555761 Ry

     convergence has been achieved in  17 iterations

     Forces acting on atoms (Ry/au):

     negative rho (up, down):  3.333E-01 0.000E+00
     atom    1 type  1   force =     0.00000000    0.00000000    0.00000000
     atom    2 type  1   force =     0.00000000   -0.00000000    0.00000000
     atom    3 type  1   force =     0.00000000    0.00000000    0.00000000
     atom    4 type  2   force =     0.00000000    0.00000000    0.00000000

     Total force =     0.000000     Total SCF correction =     0.000000
 !ASE

     General routines

     Parallel routines

   This run was terminated on:   9:38: 6  25Oct2017

   JOB DONE.