     Program PWSCF v.5.1rc2 (svn rev. ) starts on 26Oct2017 at  1:13: 9

     Current dimensions of program PWSCF are:
     Max number of different atomic species (ntypx) = 10
     Max number of k-points (npk) =  40000
     Max angular momentum in pseudopotentials (lmaxx) =  3

     IMPORTANT: XC functional enforced from input :
     Exchange-correlation      = BEEF-VDW ( 1  4 27 13 2)
     Any further DFT definition will be discarded
     Please, verify this is what you really want

     Subspace diagonalization in iterative solution of the eigenvalue problem:
     a serial algorithm will be used

     bravais-lattice index     =            0
     lattice parameter (alat)  =       1.8897  a.u.
     unit-cell volume          =     704.3154 (a.u.)^3
     number of atoms/cell      =            4
     number of atomic types    =            2
     number of electrons       =        62.00
     number of Kohn-Sham states=           51
     kinetic-energy cutoff     =      58.7989  Ry
     charge density cutoff     =     587.9892  Ry
     convergence threshold     =      7.3E-09
     mixing beta               =       0.1000
     number of iterations used =           10  local-TF  mixing
     Exchange-correlation      = BEEF-VDW ( 1  4 27 13 2)
     nstep                     =           50

     celldm(1)=   1.889726  celldm(2)=   0.000000  celldm(3)=   0.000000
     celldm(4)=   0.000000  celldm(5)=   0.000000  celldm(6)=   0.000000

     crystal axes: (cart. coord. in units of alat)
               a(1) = (   4.708221   0.000000   0.000000 )
               a(2) = (   0.000000   4.708221   0.000000 )
               a(3) = (   0.000000   0.000000   4.708221 )

     reciprocal axes: (cart. coord. in units 2 pi/alat)
               b(1) = (  0.212394  0.000000  0.000000 )
               b(2) = (  0.000000  0.212394  0.000000 )
               b(3) = (  0.000000  0.000000  0.212394 )

     PseudoPot. # 1 for Sn read from file:
     /home/vossj/suncat/psp/gbrv1.5pbe/Sn.UPF
     MD5 check sum: 469debedee59599fedebd795477fea03
     Pseudo is Ultrasoft + core correction, Zval = 14.0
     Generated by new atomic code, or converted to UPF format
     Using radial grid of  891 points,  6 beta functions with:
                l(1) =   0
                l(2) =   0
                l(3) =   1
                l(4) =   1
                l(5) =   2
                l(6) =   2
     Q(r) pseudized with  8 coefficients,  rinner =    1.350   1.350   1.350
                                                       1.350   1.350

     PseudoPot. # 2 for Zn read from file:
     /home/vossj/suncat/psp/gbrv1.5pbe/Zn.UPF
     MD5 check sum: df62231357ef9e81f77b2b3087fa5675
     Pseudo is Ultrasoft, Zval = 20.0
     Generated by new atomic code, or converted to UPF format
     Using radial grid of  943 points,  6 beta functions with:
                l(1) =   0
                l(2) =   0
                l(3) =   1
                l(4) =   1
                l(5) =   2
                l(6) =   2
     Q(r) pseudized with  8 coefficients,  rinner =    1.100   1.100   1.100
                                                       1.100   1.100

     vdW kernel table read from file vdW_kernel_table
     MD5 check sum: 095c7af220d748ca6e76c0b4c6cfb241

     atomic species   valence    mass     pseudopotential
        Sn1           14.00   118.71000     Sn( 1.00)
        Zn1           20.00    65.38000     Zn( 1.00)

     48 Sym. Ops., with inversion, found (32 have fractional translation)

   Cartesian axes

     site n.     atom                  positions (alat units)
         1           Sn1 tau(   1) = (   0.0000000   0.0000000   0.0000000  )
         2           Sn1 tau(   2) = (   0.0000000   2.3541106   2.3541106  )
         3           Sn1 tau(   3) = (   2.3541106   0.0000000   2.3541106  )
         4           Zn1 tau(   4) = (   2.3541106   2.3541106   0.0000000  )

     number of k points=    84  Fermi-Dirac smearing, width (Ry)=  0.0073
                       cart. coord. in units 2pi/alat
        k(    1) = (   0.0000000   0.0000000   0.0000000), wk =   0.0011574
        k(    2) = (   0.0000000   0.0000000   0.0176995), wk =   0.0069444
        k(    3) = (   0.0000000   0.0000000   0.0353991), wk =   0.0069444
        k(    4) = (   0.0000000   0.0000000   0.0530986), wk =   0.0069444
        k(    5) = (   0.0000000   0.0000000   0.0707981), wk =   0.0069444
        k(    6) = (   0.0000000   0.0000000   0.0884977), wk =   0.0069444
        k(    7) = (   0.0000000   0.0000000  -0.1061972), wk =   0.0034722
        k(    8) = (   0.0000000   0.0176995   0.0176995), wk =   0.0138889
        k(    9) = (   0.0000000   0.0176995   0.0353991), wk =   0.0277778
        k(   10) = (   0.0000000   0.0176995   0.0530986), wk =   0.0277778
        k(   11) = (   0.0000000   0.0176995   0.0707981), wk =   0.0277778
        k(   12) = (   0.0000000   0.0176995   0.0884977), wk =   0.0277778
        k(   13) = (   0.0000000   0.0176995  -0.1061972), wk =   0.0138889
        k(   14) = (   0.0000000   0.0353991   0.0353991), wk =   0.0138889
        k(   15) = (   0.0000000   0.0353991   0.0530986), wk =   0.0277778
        k(   16) = (   0.0000000   0.0353991   0.0707981), wk =   0.0277778
        k(   17) = (   0.0000000   0.0353991   0.0884977), wk =   0.0277778
        k(   18) = (   0.0000000   0.0353991  -0.1061972), wk =   0.0138889
        k(   19) = (   0.0000000   0.0530986   0.0530986), wk =   0.0138889
        k(   20) = (   0.0000000   0.0530986   0.0707981), wk =   0.0277778
        k(   21) = (   0.0000000   0.0530986   0.0884977), wk =   0.0277778
        k(   22) = (   0.0000000   0.0530986  -0.1061972), wk =   0.0138889
        k(   23) = (   0.0000000   0.0707981   0.0707981), wk =   0.0138889
        k(   24) = (   0.0000000   0.0707981   0.0884977), wk =   0.0277778
        k(   25) = (   0.0000000   0.0707981  -0.1061972), wk =   0.0138889
        k(   26) = (   0.0000000   0.0884977   0.0884977), wk =   0.0138889
        k(   27) = (   0.0000000   0.0884977  -0.1061972), wk =   0.0138889
        k(   28) = (   0.0000000  -0.1061972  -0.1061972), wk =   0.0034722
        k(   29) = (   0.0176995   0.0176995   0.0176995), wk =   0.0092593
        k(   30) = (   0.0176995   0.0176995   0.0353991), wk =   0.0277778
        k(   31) = (   0.0176995   0.0176995   0.0530986), wk =   0.0277778
        k(   32) = (   0.0176995   0.0176995   0.0707981), wk =   0.0277778
        k(   33) = (   0.0176995   0.0176995   0.0884977), wk =   0.0277778
        k(   34) = (   0.0176995   0.0176995  -0.1061972), wk =   0.0138889
        k(   35) = (   0.0176995   0.0353991   0.0353991), wk =   0.0277778
        k(   36) = (   0.0176995   0.0353991   0.0530986), wk =   0.0555556
        k(   37) = (   0.0176995   0.0353991   0.0707981), wk =   0.0555556
        k(   38) = (   0.0176995   0.0353991   0.0884977), wk =   0.0555556
        k(   39) = (   0.0176995   0.0353991  -0.1061972), wk =   0.0277778
        k(   40) = (   0.0176995   0.0530986   0.0530986), wk =   0.0277778
        k(   41) = (   0.0176995   0.0530986   0.0707981), wk =   0.0555556
        k(   42) = (   0.0176995   0.0530986   0.0884977), wk =   0.0555556
        k(   43) = (   0.0176995   0.0530986  -0.1061972), wk =   0.0277778
        k(   44) = (   0.0176995   0.0707981   0.0707981), wk =   0.0277778
        k(   45) = (   0.0176995   0.0707981   0.0884977), wk =   0.0555556
        k(   46) = (   0.0176995   0.0707981  -0.1061972), wk =   0.0277778
        k(   47) = (   0.0176995   0.0884977   0.0884977), wk =   0.0277778
        k(   48) = (   0.0176995   0.0884977  -0.1061972), wk =   0.0277778
        k(   49) = (   0.0176995  -0.1061972  -0.1061972), wk =   0.0069444
        k(   50) = (   0.0353991   0.0353991   0.0353991), wk =   0.0092593
        k(   51) = (   0.0353991   0.0353991   0.0530986), wk =   0.0277778
        k(   52) = (   0.0353991   0.0353991   0.0707981), wk =   0.0277778
        k(   53) = (   0.0353991   0.0353991   0.0884977), wk =   0.0277778
        k(   54) = (   0.0353991   0.0353991  -0.1061972), wk =   0.0138889
        k(   55) = (   0.0353991   0.0530986   0.0530986), wk =   0.0277778
        k(   56) = (   0.0353991   0.0530986   0.0707981), wk =   0.0555556
        k(   57) = (   0.0353991   0.0530986   0.0884977), wk =   0.0555556
        k(   58) = (   0.0353991   0.0530986  -0.1061972), wk =   0.0277778
        k(   59) = (   0.0353991   0.0707981   0.0707981), wk =   0.0277778
        k(   60) = (   0.0353991   0.0707981   0.0884977), wk =   0.0555556
[...]
        k(   70) = (   0.0530986   0.0707981   0.0884977), wk =   0.0555556
        k(   71) = (   0.0530986   0.0707981  -0.1061972), wk =   0.0277778
        k(   72) = (   0.0530986   0.0884977   0.0884977), wk =   0.0277778
        k(   73) = (   0.0530986   0.0884977  -0.1061972), wk =   0.0277778
        k(   74) = (   0.0530986  -0.1061972  -0.1061972), wk =   0.0069444
        k(   75) = (   0.0707981   0.0707981   0.0707981), wk =   0.0092593
        k(   76) = (   0.0707981   0.0707981   0.0884977), wk =   0.0277778
        k(   77) = (   0.0707981   0.0707981  -0.1061972), wk =   0.0138889
        k(   78) = (   0.0707981   0.0884977   0.0884977), wk =   0.0277778
        k(   79) = (   0.0707981   0.0884977  -0.1061972), wk =   0.0277778
        k(   80) = (   0.0707981  -0.1061972  -0.1061972), wk =   0.0069444
        k(   81) = (   0.0884977   0.0884977   0.0884977), wk =   0.0092593
        k(   82) = (   0.0884977   0.0884977  -0.1061972), wk =   0.0138889
        k(   83) = (   0.0884977  -0.1061972  -0.1061972), wk =   0.0069444
        k(   84) = (  -0.1061972  -0.1061972  -0.1061972), wk =   0.0011574

     Largest allocated arrays     est. size (Mb)     dimensions
     Largest temporary arrays     est. size (Mb)     dimensions

     Initial potential from superposition of free atoms

     starting charge   58.99972, renormalised to   62.00000

     *
     * You are using vdW-DF for exchange-correlation in this calculation.
     * Please cite the following three references that made this development
     * possible:
     *
     *   M. Dion, H. Rydberg, E. Schroder, D. C. Langreth, and
     *   B. I. Lundqvist, Phys. Rev. Lett. 92, 246401 (2004).
     *
     *   T. Thonhauser, V. R. Cooper, S. Li, A. Puzder, P. Hyldgaard, and
     *   D. C. Langreth, Phys. Rev. B 76, 125112 (2007).
     *
     *   G. Roman-Perez and J. M. Soler, Phys. Rev. Lett. 103, 096102 (2009).
     *
     *
     * If you are using vdW-DF2, please also cite:
     *
     *   K. Lee, E. D. Murray, L. Kong, B. I. Lundqvist, and
     *   D. C. Langreth, Phys. Rev. B 82, 081101(R) (2010).
     *
     *
     * If you are calculating the stress with vdW-DF, please also cite:
     *
     *   R. Sabatini, E. Kucukbenli, B. Kolb, T. Thonhauser, and
     *   S. de Gironcoli, J. Phys.: Condens. Matter 24, 424209 (2012).
     *

     Carrying out vdW-DF run using the following parameters:

     Nqs =      20    Nr_points =    1024   r_max =   100.000
     q_mesh =
               0.00001000     0.04494208     0.09755937     0.15916263
               0.23128650     0.31572767     0.41458969     0.53033537
               0.66584808     0.82450364     1.01025438     1.22772762
               1.48234092     1.78043706     2.12944203     2.53805004
               3.01644009     3.57652955     4.23227104     5.00000000

     Gradients computed in reciprocal space

     Starting wfc are   40 randomized atomic wfcs +   11 random wfc

     Self-consistent Calculation

     iteration #  1     ecut=    58.80 Ry     beta=0.10
     Davidson diagonalization with overlap
     ethr =  1.00E-02,  avg # of iterations =  5.6

     total energy              =    -947.88603426 Ry
     Harris-Foulkes estimate   =    -953.26373884 Ry
     estimated scf accuracy    <      99.67743907 Ry

[...]

     total energy              =    -944.89962428 Ry
     Harris-Foulkes estimate   =    -944.89961787 Ry
     estimated scf accuracy    <       0.00000034 Ry

     iteration # 19     ecut=    58.80 Ry     beta=0.10
     Davidson diagonalization with overlap
     ethr =  5.04E-10,  avg # of iterations =  2.0

     End of self-consistent calculation

          k = 0.0000 0.0000 0.0000 (  5377 PWs)   bands (ev):

  -116.1817 -70.3655 -70.3655 -70.3655 -11.9962 -11.9962 -11.9962 -11.9701
   -11.9199 -11.9199 -11.8578 -11.8578 -11.8578 -11.8201 -11.8201 -11.7851
   -11.7539 -11.7539 -11.7539  -0.5195   2.8472   2.8472   2.9306   2.9306
     2.9306   5.5575   5.5575   7.0945   7.0945   7.0945   8.3362  12.6337
    12.6337  12.6337  13.6496  13.6496  13.6496  16.4218  16.5301  16.5301
    16.7253  16.7253  16.7253  19.2299  19.2299  19.2299  21.9281  23.0255
    23.0255  23.0255  25.2193

[...]

          k = 0.0885-0.1062-0.1062 (  5404 PWs)   bands (ev):

[...]

          k =-0.1062-0.1062-0.1062 (  5400 PWs)   bands (ev):

  -116.1817 -70.3655 -70.3655 -70.3655 -11.9371 -11.9371 -11.9371 -11.9344
   -11.9344 -11.9344 -11.9275 -11.8391 -11.8391 -11.8341 -11.8341 -11.8341
   -11.7761 -11.7761 -11.7761   2.5867   2.5867   2.5867   2.9524   2.9524
     3.8016   3.8016   3.8016   5.4000   6.3400   6.3400   6.3400   7.0131
    16.2127  16.2127  16.5447  16.5447  16.5447  18.2118  18.2118  18.2118
    20.8622  21.0030  21.0030  21.0030  21.3498  21.3498  21.3498  21.9385
    21.9385  21.9385  21.9953

     the Fermi energy is    10.0866 ev

!    total energy              =    -944.89965234 Ry
     Harris-Foulkes estimate   =    -944.89962433 Ry
     estimated scf accuracy    <          5.0E-09 Ry

     The total energy is the sum of the following terms:

     one-electron contribution =    -603.32062334 Ry
     hartree contribution      =     337.37842727 Ry
     xc contribution           =    -176.89532961 Ry
     ewald contribution        =    -502.05761820 Ry
     smearing contrib. (-TS)   =      -0.00450846 Ry

     convergence has been achieved in  19 iterations

     Forces acting on atoms (Ry/au):

     atom    1 type  1   force =     0.00000000    0.00000000    0.00000000
     atom    2 type  1   force =     0.00000000    0.00000000    0.00000000
     atom    3 type  1   force =     0.00000000    0.00000000    0.00000000
     atom    4 type  2   force =     0.00000000    0.00000000   -0.00000000

     Total force =     0.000000     Total SCF correction =     0.000000
 !ASE

     General routines

     Parallel routines

   This run was terminated on:   1:15: 3  26Oct2017

   JOB DONE.