     Program PWSCF v.5.1rc2 (svn rev. ) starts on 25Oct2017 at 17:46:35

     Current dimensions of program PWSCF are:
     Max number of different atomic species (ntypx) = 10
     Max number of k-points (npk) =  40000
     Max angular momentum in pseudopotentials (lmaxx) =  3

     IMPORTANT: XC functional enforced from input :
     Exchange-correlation      = BEEF-VDW ( 1  4 27 13 2)
     Any further DFT definition will be discarded
     Please, verify this is what you really want

     Subspace diagonalization in iterative solution of the eigenvalue problem:
     a serial algorithm will be used

     bravais-lattice index     =            0
     lattice parameter (alat)  =       1.8897  a.u.
     unit-cell volume          =     388.7577 (a.u.)^3
     number of atoms/cell      =            4
     number of atomic types    =            2
     number of electrons       =        64.00
     number of Kohn-Sham states=           52
     kinetic-energy cutoff     =      58.7989  Ry
     charge density cutoff     =     587.9892  Ry
     convergence threshold     =      7.3E-09
     mixing beta               =       0.1000
     number of iterations used =           10  local-TF  mixing
     Exchange-correlation      = BEEF-VDW ( 1  4 27 13 2)
     nstep                     =           50

     celldm(1)=   1.889726  celldm(2)=   0.000000  celldm(3)=   0.000000
     celldm(4)=   0.000000  celldm(5)=   0.000000  celldm(6)=   0.000000

     crystal axes: (cart. coord. in units of alat)
               a(1) = (   3.862135   0.000000   0.000000 )
               a(2) = (   0.000000   3.862135   0.000000 )
               a(3) = (   0.000000   0.000000   3.862135 )

     reciprocal axes: (cart. coord. in units 2 pi/alat)
               b(1) = (  0.258924  0.000000  0.000000 )
               b(2) = (  0.000000  0.258924  0.000000 )
               b(3) = (  0.000000  0.000000  0.258924 )

     PseudoPot. # 1 for Rh read from file:
     /home/vossj/suncat/psp/gbrv1.5pbe/Rh.UPF
     MD5 check sum: 761627e959a2e3a1f56b0b5fe687810e
     Pseudo is Ultrasoft + core correction, Zval = 15.0
     Generated by new atomic code, or converted to UPF format
     Using radial grid of  969 points,  7 beta functions with:
                l(1) =   0
                l(2) =   0
                l(3) =   1
                l(4) =   1
                l(5) =   2
                l(6) =   2
                l(7) =   2
     Q(r) pseudized with  8 coefficients,  rinner =    1.200   1.200   1.200
                                                       1.200   1.200

     PseudoPot. # 2 for Ga read from file:
     /home/vossj/suncat/psp/gbrv1.5pbe/Ga.UPF
     MD5 check sum: ccd671392a58a050fbb373893b4fcd66
     Pseudo is Ultrasoft + core correction, Zval = 19.0
     Generated by new atomic code, or converted to UPF format
     Using radial grid of  871 points,  6 beta functions with:
                l(1) =   0
                l(2) =   0
                l(3) =   1
                l(4) =   1
                l(5) =   2
                l(6) =   2
     Q(r) pseudized with  8 coefficients,  rinner =    1.250   1.250   1.250
                                                       1.250   1.250

     vdW kernel table read from file vdW_kernel_table
     MD5 check sum: 095c7af220d748ca6e76c0b4c6cfb241

     atomic species   valence    mass     pseudopotential
        Rh1           15.00   102.90550     Rh( 1.00)
        Ga1           19.00    69.72300     Ga( 1.00)

     48 Sym. Ops., with inversion, found (32 have fractional translation)

   Cartesian axes

     site n.     atom                  positions (alat units)
         1           Rh1 tau(   1) = (   0.0000000   0.0000000   0.0000000  )
         2           Rh1 tau(   2) = (   0.0000000   1.9310676   1.9310676  )
         3           Rh1 tau(   3) = (   1.9310676   0.0000000   1.9310676  )
         4           Ga1 tau(   4) = (   1.9310676   1.9310676   0.0000000  )

     number of k points=    84  Fermi-Dirac smearing, width (Ry)=  0.0073
                       cart. coord. in units 2pi/alat
        k(    1) = (   0.0000000   0.0000000   0.0000000), wk =   0.0011574
        k(    2) = (   0.0000000   0.0000000   0.0215770), wk =   0.0069444
        k(    3) = (   0.0000000   0.0000000   0.0431540), wk =   0.0069444
        k(    4) = (   0.0000000   0.0000000   0.0647310), wk =   0.0069444
        k(    5) = (   0.0000000   0.0000000   0.0863080), wk =   0.0069444
        k(    6) = (   0.0000000   0.0000000   0.1078851), wk =   0.0069444
        k(    7) = (   0.0000000   0.0000000  -0.1294621), wk =   0.0034722
        k(    8) = (   0.0000000   0.0215770   0.0215770), wk =   0.0138889
        k(    9) = (   0.0000000   0.0215770   0.0431540), wk =   0.0277778
        k(   10) = (   0.0000000   0.0215770   0.0647310), wk =   0.0277778
        k(   11) = (   0.0000000   0.0215770   0.0863080), wk =   0.0277778
        k(   12) = (   0.0000000   0.0215770   0.1078851), wk =   0.0277778
        k(   13) = (   0.0000000   0.0215770  -0.1294621), wk =   0.0138889
        k(   14) = (   0.0000000   0.0431540   0.0431540), wk =   0.0138889
        k(   15) = (   0.0000000   0.0431540   0.0647310), wk =   0.0277778
        k(   16) = (   0.0000000   0.0431540   0.0863080), wk =   0.0277778
        k(   17) = (   0.0000000   0.0431540   0.1078851), wk =   0.0277778
        k(   18) = (   0.0000000   0.0431540  -0.1294621), wk =   0.0138889
        k(   19) = (   0.0000000   0.0647310   0.0647310), wk =   0.0138889
        k(   20) = (   0.0000000   0.0647310   0.0863080), wk =   0.0277778
        k(   21) = (   0.0000000   0.0647310   0.1078851), wk =   0.0277778
        k(   22) = (   0.0000000   0.0647310  -0.1294621), wk =   0.0138889
        k(   23) = (   0.0000000   0.0863080   0.0863080), wk =   0.0138889
        k(   24) = (   0.0000000   0.0863080   0.1078851), wk =   0.0277778
        k(   25) = (   0.0000000   0.0863080  -0.1294621), wk =   0.0138889
        k(   26) = (   0.0000000   0.1078851   0.1078851), wk =   0.0138889
        k(   27) = (   0.0000000   0.1078851  -0.1294621), wk =   0.0138889
        k(   28) = (   0.0000000  -0.1294621  -0.1294621), wk =   0.0034722
        k(   29) = (   0.0215770   0.0215770   0.0215770), wk =   0.0092593
        k(   30) = (   0.0215770   0.0215770   0.0431540), wk =   0.0277778
        k(   31) = (   0.0215770   0.0215770   0.0647310), wk =   0.0277778
        k(   32) = (   0.0215770   0.0215770   0.0863080), wk =   0.0277778
        k(   33) = (   0.0215770   0.0215770   0.1078851), wk =   0.0277778
        k(   34) = (   0.0215770   0.0215770  -0.1294621), wk =   0.0138889
        k(   35) = (   0.0215770   0.0431540   0.0431540), wk =   0.0277778
        k(   36) = (   0.0215770   0.0431540   0.0647310), wk =   0.0555556
        k(   37) = (   0.0215770   0.0431540   0.0863080), wk =   0.0555556
        k(   38) = (   0.0215770   0.0431540   0.1078851), wk =   0.0555556
        k(   39) = (   0.0215770   0.0431540  -0.1294621), wk =   0.0277778
        k(   40) = (   0.0215770   0.0647310   0.0647310), wk =   0.0277778
        k(   41) = (   0.0215770   0.0647310   0.0863080), wk =   0.0555556
        k(   42) = (   0.0215770   0.0647310   0.1078851), wk =   0.0555556
        k(   43) = (   0.0215770   0.0647310  -0.1294621), wk =   0.0277778
        k(   44) = (   0.0215770   0.0863080   0.0863080), wk =   0.0277778
        k(   45) = (   0.0215770   0.0863080   0.1078851), wk =   0.0555556
        k(   46) = (   0.0215770   0.0863080  -0.1294621), wk =   0.0277778
        k(   47) = (   0.0215770   0.1078851   0.1078851), wk =   0.0277778
        k(   48) = (   0.0215770   0.1078851  -0.1294621), wk =   0.0277778
        k(   49) = (   0.0215770  -0.1294621  -0.1294621), wk =   0.0069444
        k(   50) = (   0.0431540   0.0431540   0.0431540), wk =   0.0092593
        k(   51) = (   0.0431540   0.0431540   0.0647310), wk =   0.0277778
        k(   52) = (   0.0431540   0.0431540   0.0863080), wk =   0.0277778
        k(   53) = (   0.0431540   0.0431540   0.1078851), wk =   0.0277778
        k(   54) = (   0.0431540   0.0431540  -0.1294621), wk =   0.0138889
        k(   55) = (   0.0431540   0.0647310   0.0647310), wk =   0.0277778
        k(   56) = (   0.0431540   0.0647310   0.0863080), wk =   0.0555556
        k(   57) = (   0.0431540   0.0647310   0.1078851), wk =   0.0555556
        k(   58) = (   0.0431540   0.0647310  -0.1294621), wk =   0.0277778
        k(   59) = (   0.0431540   0.0863080   0.0863080), wk =   0.0277778
        k(   60) = (   0.0431540   0.0863080   0.1078851), wk =   0.0555556
[...]
        k(   70) = (   0.0647310   0.0863080   0.1078851), wk =   0.0555556
        k(   71) = (   0.0647310   0.0863080  -0.1294621), wk =   0.0277778
        k(   72) = (   0.0647310   0.1078851   0.1078851), wk =   0.0277778
        k(   73) = (   0.0647310   0.1078851  -0.1294621), wk =   0.0277778
        k(   74) = (   0.0647310  -0.1294621  -0.1294621), wk =   0.0069444
        k(   75) = (   0.0863080   0.0863080   0.0863080), wk =   0.0092593
        k(   76) = (   0.0863080   0.0863080   0.1078851), wk =   0.0277778
        k(   77) = (   0.0863080   0.0863080  -0.1294621), wk =   0.0138889
        k(   78) = (   0.0863080   0.1078851   0.1078851), wk =   0.0277778
        k(   79) = (   0.0863080   0.1078851  -0.1294621), wk =   0.0277778
        k(   80) = (   0.0863080  -0.1294621  -0.1294621), wk =   0.0069444
        k(   81) = (   0.1078851   0.1078851   0.1078851), wk =   0.0092593
        k(   82) = (   0.1078851   0.1078851  -0.1294621), wk =   0.0138889
        k(   83) = (   0.1078851  -0.1294621  -0.1294621), wk =   0.0069444
        k(   84) = (  -0.1294621  -0.1294621  -0.1294621), wk =   0.0011574

     Largest allocated arrays     est. size (Mb)     dimensions
     Largest temporary arrays     est. size (Mb)     dimensions

     Initial potential from superposition of free atoms
     Check: negative starting charge=   -0.169255

     starting charge   61.49970, renormalised to   64.00000

     negative rho (up, down):  1.761E-01 0.000E+00

     *
     * You are using vdW-DF for exchange-correlation in this calculation.
     * Please cite the following three references that made this development
     * possible:
     *
     *   M. Dion, H. Rydberg, E. Schroder, D. C. Langreth, and
     *   B. I. Lundqvist, Phys. Rev. Lett. 92, 246401 (2004).
     *
     *   T. Thonhauser, V. R. Cooper, S. Li, A. Puzder, P. Hyldgaard, and
     *   D. C. Langreth, Phys. Rev. B 76, 125112 (2007).
     *
     *   G. Roman-Perez and J. M. Soler, Phys. Rev. Lett. 103, 096102 (2009).
     *
     *
     * If you are using vdW-DF2, please also cite:
     *
     *   K. Lee, E. D. Murray, L. Kong, B. I. Lundqvist, and
     *   D. C. Langreth, Phys. Rev. B 82, 081101(R) (2010).
     *
     *
     * If you are calculating the stress with vdW-DF, please also cite:
     *
     *   R. Sabatini, E. Kucukbenli, B. Kolb, T. Thonhauser, and
     *   S. de Gironcoli, J. Phys.: Condens. Matter 24, 424209 (2012).
     *

     Carrying out vdW-DF run using the following parameters:

     Nqs =      20    Nr_points =    1024   r_max =   100.000
     q_mesh =
               0.00001000     0.04494208     0.09755937     0.15916263
               0.23128650     0.31572767     0.41458969     0.53033537
               0.66584808     0.82450364     1.01025438     1.22772762
               1.48234092     1.78043706     2.12944203     2.53805004
               3.01644009     3.57652955     4.23227104     5.00000000

     Gradients computed in reciprocal space

     Starting wfc are   48 randomized atomic wfcs +    4 random wfc

     Self-consistent Calculation

     iteration #  1     ecut=    58.80 Ry     beta=0.10
     Davidson diagonalization with overlap
     ethr =  1.00E-02,  avg # of iterations =  4.4

[...]

     total energy              =    -934.38230525 Ry
     Harris-Foulkes estimate   =    -934.78456405 Ry
     estimated scf accuracy    <       5.46994713 Ry

[...]

     total energy              =    -933.39124773 Ry
     Harris-Foulkes estimate   =    -933.39124723 Ry
     estimated scf accuracy    <       0.00000003 Ry

     iteration # 14     ecut=    58.80 Ry     beta=0.10
     Davidson diagonalization with overlap
     ethr =  3.57E-11,  avg # of iterations =  2.0

     negative rho (up, down):  1.761E-01 0.000E+00

     End of self-consistent calculation

          k = 0.0000 0.0000 0.0000 (  2945 PWs)   bands (ev):

   -76.0027 -76.0027 -76.0027 -28.0501 -28.0501 -28.0501 -27.7951 -27.7951
   -27.7951 -27.6348 -27.6348 -27.6348   3.5983   3.5983   3.6162   3.6162
     3.6162   9.0433  12.7046  14.0804  14.0804  14.0804  14.2565  14.2565
    17.1747  17.1747  17.1747  18.3984  18.3984  19.2080  19.5188  19.5188
    19.5188  19.6656  19.6656  19.6656  24.1062  28.0795  28.0795  28.8177
    28.8177  28.8177  32.1766  32.1766  32.1766  35.6408  36.9218  36.9218
    36.9218  37.0658  39.7283  39.7283

[...]

          k = 0.1079-0.1295-0.1295 (  2976 PWs)   bands (ev):

[...]

          k =-0.1295-0.1295-0.1295 (  3016 PWs)   bands (ev):

   -76.0028 -76.0028 -76.0028 -28.1825 -28.0124 -28.0124 -28.0124 -27.6529
   -27.6529 -27.6529 -27.6506 -27.6506   3.6035   3.6035   3.6035   3.6683
     3.6683  10.7726  13.9270  13.9270  13.9270  15.8125  15.8125  15.8125
    17.1163  17.1163  17.1163  17.1725  17.1725  17.1725  17.7143  17.7143
    19.2643  19.2643  19.2643  19.6327  20.9265  25.2880  25.2880  25.2880
    34.0697  34.0697  34.0697  34.9295  35.6587  35.6587  35.6587  38.7242
    38.7242  40.1324  40.1324  40.7080

     the Fermi energy is    18.4118 ev

!    total energy              =    -933.39124989 Ry
     Harris-Foulkes estimate   =    -933.39124774 Ry
     estimated scf accuracy    <          1.0E-09 Ry

     The total energy is the sum of the following terms:

     one-electron contribution =    -389.48853977 Ry
     hartree contribution      =     246.27902955 Ry
     xc contribution           =    -143.18342378 Ry
     ewald contribution        =    -646.98707485 Ry
     smearing contrib. (-TS)   =      -0.01124105 Ry

     convergence has been achieved in  14 iterations

     Forces acting on atoms (Ry/au):

     negative rho (up, down):  1.761E-01 0.000E+00
     atom    1 type  1   force =     0.00000000    0.00000000    0.00000000
     atom    2 type  1   force =     0.00000000   -0.00000000    0.00000000
     atom    3 type  1   force =     0.00000000    0.00000000    0.00000000
     atom    4 type  2   force =     0.00000000    0.00000000    0.00000000

     Total force =     0.000000     Total SCF correction =     0.000000
 !ASE

     General routines

     Parallel routines

   This run was terminated on:  17:47:42  25Oct2017

   JOB DONE.