     Program PWSCF v.5.1rc2 (svn rev. ) starts on 17Feb2018 at 13:46:46

     Current dimensions of program PWSCF are:
     Max number of different atomic species (ntypx) = 10
     Max number of k-points (npk) =  40000
     Max angular momentum in pseudopotentials (lmaxx) =  3

     IMPORTANT: XC functional enforced from input :
     Exchange-correlation      = BEEF-VDW ( 1  4 27 13 2)
     Any further DFT definition will be discarded
     Please, verify this is what you really want

     Subspace diagonalization in iterative solution of the eigenvalue problem:
     a serial algorithm will be used

     bravais-lattice index     =            0
     lattice parameter (alat)  =       1.8897  a.u.
     unit-cell volume          =     646.5886 (a.u.)^3
     number of atoms/cell      =            4
     number of atomic types    =            2
     number of electrons       =        48.00
     number of Kohn-Sham states=           44
     kinetic-energy cutoff     =      58.7989  Ry
     charge density cutoff     =     587.9892  Ry
     convergence threshold     =      7.3E-09
     mixing beta               =       0.1000
     number of iterations used =           10  local-TF  mixing
     Exchange-correlation      = BEEF-VDW ( 1  4 27 13 2)
     nstep                     =           50

     celldm(1)=   1.889726  celldm(2)=   0.000000  celldm(3)=   0.000000
     celldm(4)=   0.000000  celldm(5)=   0.000000  celldm(6)=   0.000000

     crystal axes: (cart. coord. in units of alat)
               a(1) = (   4.575907   0.000000   0.000000 )
               a(2) = (   0.000000   4.575907   0.000000 )
               a(3) = (   0.000000   0.000000   4.575907 )

     reciprocal axes: (cart. coord. in units 2 pi/alat)
               b(1) = (  0.218536  0.000000  0.000000 )
               b(2) = (  0.000000  0.218536  0.000000 )
               b(3) = (  0.000000  0.000000  0.218536 )

     PseudoPot. # 1 for Sc read from file:
     /home/mamunm/src/pseudo/gbrv1.5pbe/Sc.UPF
     MD5 check sum: db30a2753ba66ef00f23801d899b7e7f
     Pseudo is Ultrasoft + core correction, Zval = 11.0
     Generated by new atomic code, or converted to UPF format
     Using radial grid of  849 points,  6 beta functions with:
                l(1) =   0
                l(2) =   0
                l(3) =   1
                l(4) =   1
                l(5) =   2
                l(6) =   2
     Q(r) pseudized with  6 coefficients,  rinner =    1.200   1.200   1.200
                                                       1.200   1.200

     PseudoPot. # 2 for Bi read from file:
     /home/mamunm/src/pseudo/gbrv1.5pbe/Bi.UPF
     MD5 check sum: 81103212dc04adf40945787f699eab19
     Pseudo is Ultrasoft + core correction, Zval = 15.0
     Generated by new atomic code, or converted to UPF format
     Using radial grid of  899 points,  6 beta functions with:
                l(1) =   0
                l(2) =   0
                l(3) =   1
                l(4) =   1
                l(5) =   2
                l(6) =   2
     Q(r) pseudized with  6 coefficients,  rinner =    1.000   1.000   1.000
                                                       1.000   1.000

     vdW kernel table read from file vdW_kernel_table
     MD5 check sum: 095c7af220d748ca6e76c0b4c6cfb241

     atomic species   valence    mass     pseudopotential
        Sc1           11.00    44.95591     Sc( 1.00)
        Bi1           15.00   208.98040     Bi( 1.00)

     48 Sym. Ops., with inversion, found (32 have fractional translation)

   Cartesian axes

     site n.     atom                  positions (alat units)
         1           Sc1 tau(   1) = (   0.0000000   0.0000000   0.0000000  )
         2           Sc1 tau(   2) = (   0.0000000   2.2879533   2.2879533  )
         3           Sc1 tau(   3) = (   2.2879533   0.0000000   2.2879533  )
         4           Bi1 tau(   4) = (   2.2879533   2.2879533   0.0000000  )

     number of k points=    84  Fermi-Dirac smearing, width (Ry)=  0.0073
                       cart. coord. in units 2pi/alat
        k(    1) = (   0.0000000   0.0000000   0.0000000), wk =   0.0011574
        k(    2) = (   0.0000000   0.0000000   0.0182113), wk =   0.0069444
        k(    3) = (   0.0000000   0.0000000   0.0364227), wk =   0.0069444
        k(    4) = (   0.0000000   0.0000000   0.0546340), wk =   0.0069444
        k(    5) = (   0.0000000   0.0000000   0.0728453), wk =   0.0069444
        k(    6) = (   0.0000000   0.0000000   0.0910566), wk =   0.0069444
        k(    7) = (   0.0000000   0.0000000  -0.1092680), wk =   0.0034722
        k(    8) = (   0.0000000   0.0182113   0.0182113), wk =   0.0138889
        k(    9) = (   0.0000000   0.0182113   0.0364227), wk =   0.0277778
        k(   10) = (   0.0000000   0.0182113   0.0546340), wk =   0.0277778
        k(   11) = (   0.0000000   0.0182113   0.0728453), wk =   0.0277778
        k(   12) = (   0.0000000   0.0182113   0.0910566), wk =   0.0277778
        k(   13) = (   0.0000000   0.0182113  -0.1092680), wk =   0.0138889
        k(   14) = (   0.0000000   0.0364227   0.0364227), wk =   0.0138889
        k(   15) = (   0.0000000   0.0364227   0.0546340), wk =   0.0277778
        k(   16) = (   0.0000000   0.0364227   0.0728453), wk =   0.0277778
        k(   17) = (   0.0000000   0.0364227   0.0910566), wk =   0.0277778
        k(   18) = (   0.0000000   0.0364227  -0.1092680), wk =   0.0138889
        k(   19) = (   0.0000000   0.0546340   0.0546340), wk =   0.0138889
        k(   20) = (   0.0000000   0.0546340   0.0728453), wk =   0.0277778
        k(   21) = (   0.0000000   0.0546340   0.0910566), wk =   0.0277778
        k(   22) = (   0.0000000   0.0546340  -0.1092680), wk =   0.0138889
        k(   23) = (   0.0000000   0.0728453   0.0728453), wk =   0.0138889
        k(   24) = (   0.0000000   0.0728453   0.0910566), wk =   0.0277778
        k(   25) = (   0.0000000   0.0728453  -0.1092680), wk =   0.0138889
        k(   26) = (   0.0000000   0.0910566   0.0910566), wk =   0.0138889
        k(   27) = (   0.0000000   0.0910566  -0.1092680), wk =   0.0138889
        k(   28) = (   0.0000000  -0.1092680  -0.1092680), wk =   0.0034722
        k(   29) = (   0.0182113   0.0182113   0.0182113), wk =   0.0092593
        k(   30) = (   0.0182113   0.0182113   0.0364227), wk =   0.0277778
        k(   31) = (   0.0182113   0.0182113   0.0546340), wk =   0.0277778
        k(   32) = (   0.0182113   0.0182113   0.0728453), wk =   0.0277778
        k(   33) = (   0.0182113   0.0182113   0.0910566), wk =   0.0277778
        k(   34) = (   0.0182113   0.0182113  -0.1092680), wk =   0.0138889
        k(   35) = (   0.0182113   0.0364227   0.0364227), wk =   0.0277778
        k(   36) = (   0.0182113   0.0364227   0.0546340), wk =   0.0555556
        k(   37) = (   0.0182113   0.0364227   0.0728453), wk =   0.0555556
        k(   38) = (   0.0182113   0.0364227   0.0910566), wk =   0.0555556
        k(   39) = (   0.0182113   0.0364227  -0.1092680), wk =   0.0277778
        k(   40) = (   0.0182113   0.0546340   0.0546340), wk =   0.0277778
        k(   41) = (   0.0182113   0.0546340   0.0728453), wk =   0.0555556
        k(   42) = (   0.0182113   0.0546340   0.0910566), wk =   0.0555556
        k(   43) = (   0.0182113   0.0546340  -0.1092680), wk =   0.0277778
        k(   44) = (   0.0182113   0.0728453   0.0728453), wk =   0.0277778
        k(   45) = (   0.0182113   0.0728453   0.0910566), wk =   0.0555556
        k(   46) = (   0.0182113   0.0728453  -0.1092680), wk =   0.0277778
        k(   47) = (   0.0182113   0.0910566   0.0910566), wk =   0.0277778
        k(   48) = (   0.0182113   0.0910566  -0.1092680), wk =   0.0277778
        k(   49) = (   0.0182113  -0.1092680  -0.1092680), wk =   0.0069444
        k(   50) = (   0.0364227   0.0364227   0.0364227), wk =   0.0092593
        k(   51) = (   0.0364227   0.0364227   0.0546340), wk =   0.0277778
        k(   52) = (   0.0364227   0.0364227   0.0728453), wk =   0.0277778
        k(   53) = (   0.0364227   0.0364227   0.0910566), wk =   0.0277778
        k(   54) = (   0.0364227   0.0364227  -0.1092680), wk =   0.0138889
        k(   55) = (   0.0364227   0.0546340   0.0546340), wk =   0.0277778
        k(   56) = (   0.0364227   0.0546340   0.0728453), wk =   0.0555556
        k(   57) = (   0.0364227   0.0546340   0.0910566), wk =   0.0555556
        k(   58) = (   0.0364227   0.0546340  -0.1092680), wk =   0.0277778
        k(   59) = (   0.0364227   0.0728453   0.0728453), wk =   0.0277778
        k(   60) = (   0.0364227   0.0728453   0.0910566), wk =   0.0555556
[...]
        k(   70) = (   0.0546340   0.0728453   0.0910566), wk =   0.0555556
        k(   71) = (   0.0546340   0.0728453  -0.1092680), wk =   0.0277778
        k(   72) = (   0.0546340   0.0910566   0.0910566), wk =   0.0277778
        k(   73) = (   0.0546340   0.0910566  -0.1092680), wk =   0.0277778
        k(   74) = (   0.0546340  -0.1092680  -0.1092680), wk =   0.0069444
        k(   75) = (   0.0728453   0.0728453   0.0728453), wk =   0.0092593
        k(   76) = (   0.0728453   0.0728453   0.0910566), wk =   0.0277778
        k(   77) = (   0.0728453   0.0728453  -0.1092680), wk =   0.0138889
        k(   78) = (   0.0728453   0.0910566   0.0910566), wk =   0.0277778
        k(   79) = (   0.0728453   0.0910566  -0.1092680), wk =   0.0277778
        k(   80) = (   0.0728453  -0.1092680  -0.1092680), wk =   0.0069444
        k(   81) = (   0.0910566   0.0910566   0.0910566), wk =   0.0092593
        k(   82) = (   0.0910566   0.0910566  -0.1092680), wk =   0.0138889
        k(   83) = (   0.0910566  -0.1092680  -0.1092680), wk =   0.0069444
        k(   84) = (  -0.1092680  -0.1092680  -0.1092680), wk =   0.0011574

     Largest allocated arrays     est. size (Mb)     dimensions
     Largest temporary arrays     est. size (Mb)     dimensions

     Check: negative/imaginary core charge=   -0.000001    0.000000

     Initial potential from superposition of free atoms
     Check: negative starting charge=   -0.042147

     starting charge   46.99275, renormalised to   48.00000

     negative rho (up, down):  4.305E-02 0.000E+00

     *
     * You are using vdW-DF for exchange-correlation in this calculation.
     * Please cite the following three references that made this development
     * possible:
     *
     *   M. Dion, H. Rydberg, E. Schroder, D. C. Langreth, and
     *   B. I. Lundqvist, Phys. Rev. Lett. 92, 246401 (2004).
     *
     *   T. Thonhauser, V. R. Cooper, S. Li, A. Puzder, P. Hyldgaard, and
     *   D. C. Langreth, Phys. Rev. B 76, 125112 (2007).
     *
     *   G. Roman-Perez and J. M. Soler, Phys. Rev. Lett. 103, 096102 (2009).
     *
     *
     * If you are using vdW-DF2, please also cite:
     *
     *   K. Lee, E. D. Murray, L. Kong, B. I. Lundqvist, and
     *   D. C. Langreth, Phys. Rev. B 82, 081101(R) (2010).
     *
     *
     * If you are calculating the stress with vdW-DF, please also cite:
     *
     *   R. Sabatini, E. Kucukbenli, B. Kolb, T. Thonhauser, and
     *   S. de Gironcoli, J. Phys.: Condens. Matter 24, 424209 (2012).
     *

     Carrying out vdW-DF run using the following parameters:

     Nqs =      20    Nr_points =    1024   r_max =   100.000
     q_mesh =
               0.00001000     0.04494208     0.09755937     0.15916263
               0.23128650     0.31572767     0.41458969     0.53033537
               0.66584808     0.82450364     1.01025438     1.22772762
               1.48234092     1.78043706     2.12944203     2.53805004
               3.01644009     3.57652955     4.23227104     5.00000000

     Gradients computed in reciprocal space

     Starting wfc are   48 randomized atomic wfcs

     Self-consistent Calculation

     iteration #  1     ecut=    58.80 Ry     beta=0.10
     Davidson diagonalization with overlap
     ethr =  1.00E-02,  avg # of iterations =  3.6

     Threshold (ethr) on eigenvalues was too large:
     Diagonalizing with lowered threshold

     Davidson diagonalization with overlap
     ethr =  5.36E-04,  avg # of iterations =  1.4

[...]

     total energy              =    -471.84375270 Ry
     Harris-Foulkes estimate   =    -471.85930468 Ry
     estimated scf accuracy    <       0.24719400 Ry

[...]

     total energy              =    -471.76539386 Ry
     Harris-Foulkes estimate   =    -471.76537881 Ry
     estimated scf accuracy    <       0.00000008 Ry

     iteration # 11     ecut=    58.80 Ry     beta=0.10
     Davidson diagonalization with overlap
     ethr =  1.68E-10,  avg # of iterations =  2.0

     negative rho (up, down):  4.664E-02 0.000E+00

     End of self-consistent calculation

          k = 0.0000 0.0000 0.0000 (  4945 PWs)   bands (ev):

   -38.4956 -38.4306 -38.4306 -17.2221 -17.2221 -17.2221 -17.1034 -17.1034
   -17.1034 -16.8613 -16.8613 -16.8613 -11.8942 -11.8942 -11.8942 -11.8929
   -11.8929  -0.3697   8.4526   9.6662   9.6662   9.6662  10.1438  10.1438
    10.9203  10.9203  10.9203  12.4235  13.3046  13.3046  13.3046  14.4489
    14.4489  14.8147  15.1889  15.1889  15.1889  17.1962  17.1962  17.1962
    18.3514  18.3514  19.8446  19.8446

[...]

          k = 0.0911-0.1093-0.1093 (  4880 PWs)   bands (ev):

[...]

          k =-0.1093-0.1093-0.1093 (  4896 PWs)   bands (ev):

   -38.4518 -38.4518 -38.4518 -17.2594 -17.2594 -17.2594 -17.1783 -17.0080
   -17.0080 -17.0080 -16.8104 -16.8104 -11.8972 -11.8972 -11.8972 -11.8786
   -11.8786   0.3421   8.1621   8.1621   8.1621   9.8202   9.8202   9.8202
    11.5415  12.4245  12.4245  12.4245  12.9721  13.3347  13.3347  13.3347
    13.6770  13.6770  14.9022  14.9022  14.9022  17.0464  17.0464  17.0464
    20.3563  20.3563  20.3563  22.5878

     the Fermi energy is    11.3717 ev

!    total energy              =    -471.76547350 Ry
     Harris-Foulkes estimate   =    -471.76539387 Ry
     estimated scf accuracy    <          2.7E-09 Ry

     The total energy is the sum of the following terms:

     one-electron contribution =    -146.86927270 Ry
     hartree contribution      =      92.16241736 Ry
     xc contribution           =    -108.50770784 Ry
     ewald contribution        =    -308.53163001 Ry
     smearing contrib. (-TS)   =      -0.01928031 Ry

     convergence has been achieved in  11 iterations

     Forces acting on atoms (Ry/au):

     negative rho (up, down):  4.664E-02 0.000E+00
     atom    1 type  1   force =     0.00000000   -0.00000000    0.00000000
     atom    2 type  1   force =     0.00000000    0.00000000    0.00000000
     atom    3 type  1   force =     0.00000000    0.00000000    0.00000000
     atom    4 type  2   force =     0.00000000    0.00000000   -0.00000000

     Total force =     0.000000     Total SCF correction =     0.000000
 !ASE

     General routines

     Parallel routines

   This run was terminated on:  13:47:52  17Feb2018

   JOB DONE.