     Program PWSCF v.5.1rc2 (svn rev. ) starts on 24Oct2017 at 20:58:37

     Current dimensions of program PWSCF are:
     Max number of different atomic species (ntypx) = 10
     Max number of k-points (npk) =  40000
     Max angular momentum in pseudopotentials (lmaxx) =  3

     IMPORTANT: XC functional enforced from input :
     Exchange-correlation      = BEEF-VDW ( 1  4 27 13 2)
     Any further DFT definition will be discarded
     Please, verify this is what you really want

     Subspace diagonalization in iterative solution of the eigenvalue problem:
     a serial algorithm will be used

     bravais-lattice index     =            0
     lattice parameter (alat)  =       1.8897  a.u.
     unit-cell volume          =     454.3261 (a.u.)^3
     number of atoms/cell      =            4
     number of atomic types    =            2
     number of electrons       =        50.00
     number of Kohn-Sham states=           45
     kinetic-energy cutoff     =      58.7989  Ry
     charge density cutoff     =     587.9892  Ry
     convergence threshold     =      7.3E-09
     mixing beta               =       0.1000
     number of iterations used =           10  local-TF  mixing
     Exchange-correlation      = BEEF-VDW ( 1  4 27 13 2)
     nstep                     =           50

     celldm(1)=   1.889726  celldm(2)=   0.000000  celldm(3)=   0.000000
     celldm(4)=   0.000000  celldm(5)=   0.000000  celldm(6)=   0.000000

     crystal axes: (cart. coord. in units of alat)
               a(1) = (   4.068088   0.000000   0.000000 )
               a(2) = (   0.000000   4.068088   0.000000 )
               a(3) = (   0.000000   0.000000   4.068088 )

     reciprocal axes: (cart. coord. in units 2 pi/alat)
               b(1) = (  0.245816  0.000000  0.000000 )
               b(2) = (  0.000000  0.245816  0.000000 )
               b(3) = (  0.000000  0.000000  0.245816 )

     PseudoPot. # 1 for Ti read from file:
     /home/vossj/suncat/psp/gbrv1.5pbe/Ti.UPF
     MD5 check sum: 88a00a6731bd790ddea75d31a80cb452
     Pseudo is Ultrasoft + core correction, Zval = 12.0
     Generated by new atomic code, or converted to UPF format
     Using radial grid of  851 points,  6 beta functions with:
                l(1) =   0
                l(2) =   0
                l(3) =   1
                l(4) =   1
                l(5) =   2
                l(6) =   2
     Q(r) pseudized with  6 coefficients,  rinner =    1.000   1.000   1.000
                                                       1.000   1.000

     PseudoPot. # 2 for Mo read from file:
     /home/vossj/suncat/psp/gbrv1.5pbe/Mo.UPF
     MD5 check sum: 30c4dcd161f5d35cd49bb5239c51a633
     Pseudo is Ultrasoft + core correction, Zval = 14.0
     Generated by new atomic code, or converted to UPF format
     Using radial grid of  889 points,  6 beta functions with:
                l(1) =   0
                l(2) =   0
                l(3) =   1
                l(4) =   1
                l(5) =   2
                l(6) =   2
     Q(r) pseudized with  6 coefficients,  rinner =    1.000   1.000   1.000
                                                       1.000   1.000

     vdW kernel table read from file vdW_kernel_table
     MD5 check sum: 095c7af220d748ca6e76c0b4c6cfb241

     atomic species   valence    mass     pseudopotential
        Ti1           12.00    47.86700     Ti( 1.00)
        Mo1           14.00    95.95000     Mo( 1.00)

     48 Sym. Ops., with inversion, found (32 have fractional translation)

   Cartesian axes

     site n.     atom                  positions (alat units)
         1           Ti1 tau(   1) = (   0.0000000   0.0000000   0.0000000  )
         2           Ti1 tau(   2) = (   0.0000000   2.0340441   2.0340441  )
         3           Ti1 tau(   3) = (   2.0340441   0.0000000   2.0340441  )
         4           Mo1 tau(   4) = (   2.0340441   2.0340441   0.0000000  )

     number of k points=    84  Fermi-Dirac smearing, width (Ry)=  0.0073
                       cart. coord. in units 2pi/alat
        k(    1) = (   0.0000000   0.0000000   0.0000000), wk =   0.0011574
        k(    2) = (   0.0000000   0.0000000   0.0204846), wk =   0.0069444
        k(    3) = (   0.0000000   0.0000000   0.0409693), wk =   0.0069444
        k(    4) = (   0.0000000   0.0000000   0.0614539), wk =   0.0069444
        k(    5) = (   0.0000000   0.0000000   0.0819386), wk =   0.0069444
        k(    6) = (   0.0000000   0.0000000   0.1024232), wk =   0.0069444
        k(    7) = (   0.0000000   0.0000000  -0.1229079), wk =   0.0034722
        k(    8) = (   0.0000000   0.0204846   0.0204846), wk =   0.0138889
        k(    9) = (   0.0000000   0.0204846   0.0409693), wk =   0.0277778
        k(   10) = (   0.0000000   0.0204846   0.0614539), wk =   0.0277778
        k(   11) = (   0.0000000   0.0204846   0.0819386), wk =   0.0277778
        k(   12) = (   0.0000000   0.0204846   0.1024232), wk =   0.0277778
        k(   13) = (   0.0000000   0.0204846  -0.1229079), wk =   0.0138889
        k(   14) = (   0.0000000   0.0409693   0.0409693), wk =   0.0138889
        k(   15) = (   0.0000000   0.0409693   0.0614539), wk =   0.0277778
        k(   16) = (   0.0000000   0.0409693   0.0819386), wk =   0.0277778
        k(   17) = (   0.0000000   0.0409693   0.1024232), wk =   0.0277778
        k(   18) = (   0.0000000   0.0409693  -0.1229079), wk =   0.0138889
        k(   19) = (   0.0000000   0.0614539   0.0614539), wk =   0.0138889
        k(   20) = (   0.0000000   0.0614539   0.0819386), wk =   0.0277778
        k(   21) = (   0.0000000   0.0614539   0.1024232), wk =   0.0277778
        k(   22) = (   0.0000000   0.0614539  -0.1229079), wk =   0.0138889
        k(   23) = (   0.0000000   0.0819386   0.0819386), wk =   0.0138889
        k(   24) = (   0.0000000   0.0819386   0.1024232), wk =   0.0277778
        k(   25) = (   0.0000000   0.0819386  -0.1229079), wk =   0.0138889
        k(   26) = (   0.0000000   0.1024232   0.1024232), wk =   0.0138889
        k(   27) = (   0.0000000   0.1024232  -0.1229079), wk =   0.0138889
        k(   28) = (   0.0000000  -0.1229079  -0.1229079), wk =   0.0034722
        k(   29) = (   0.0204846   0.0204846   0.0204846), wk =   0.0092593
        k(   30) = (   0.0204846   0.0204846   0.0409693), wk =   0.0277778
        k(   31) = (   0.0204846   0.0204846   0.0614539), wk =   0.0277778
        k(   32) = (   0.0204846   0.0204846   0.0819386), wk =   0.0277778
        k(   33) = (   0.0204846   0.0204846   0.1024232), wk =   0.0277778
        k(   34) = (   0.0204846   0.0204846  -0.1229079), wk =   0.0138889
        k(   35) = (   0.0204846   0.0409693   0.0409693), wk =   0.0277778
        k(   36) = (   0.0204846   0.0409693   0.0614539), wk =   0.0555556
        k(   37) = (   0.0204846   0.0409693   0.0819386), wk =   0.0555556
        k(   38) = (   0.0204846   0.0409693   0.1024232), wk =   0.0555556
        k(   39) = (   0.0204846   0.0409693  -0.1229079), wk =   0.0277778
        k(   40) = (   0.0204846   0.0614539   0.0614539), wk =   0.0277778
        k(   41) = (   0.0204846   0.0614539   0.0819386), wk =   0.0555556
        k(   42) = (   0.0204846   0.0614539   0.1024232), wk =   0.0555556
        k(   43) = (   0.0204846   0.0614539  -0.1229079), wk =   0.0277778
        k(   44) = (   0.0204846   0.0819386   0.0819386), wk =   0.0277778
        k(   45) = (   0.0204846   0.0819386   0.1024232), wk =   0.0555556
        k(   46) = (   0.0204846   0.0819386  -0.1229079), wk =   0.0277778
        k(   47) = (   0.0204846   0.1024232   0.1024232), wk =   0.0277778
        k(   48) = (   0.0204846   0.1024232  -0.1229079), wk =   0.0277778
        k(   49) = (   0.0204846  -0.1229079  -0.1229079), wk =   0.0069444
        k(   50) = (   0.0409693   0.0409693   0.0409693), wk =   0.0092593
        k(   51) = (   0.0409693   0.0409693   0.0614539), wk =   0.0277778
        k(   52) = (   0.0409693   0.0409693   0.0819386), wk =   0.0277778
        k(   53) = (   0.0409693   0.0409693   0.1024232), wk =   0.0277778
        k(   54) = (   0.0409693   0.0409693  -0.1229079), wk =   0.0138889
        k(   55) = (   0.0409693   0.0614539   0.0614539), wk =   0.0277778
        k(   56) = (   0.0409693   0.0614539   0.0819386), wk =   0.0555556
        k(   57) = (   0.0409693   0.0614539   0.1024232), wk =   0.0555556
        k(   58) = (   0.0409693   0.0614539  -0.1229079), wk =   0.0277778
        k(   59) = (   0.0409693   0.0819386   0.0819386), wk =   0.0277778
        k(   60) = (   0.0409693   0.0819386   0.1024232), wk =   0.0555556
[...]
        k(   70) = (   0.0614539   0.0819386   0.1024232), wk =   0.0555556
        k(   71) = (   0.0614539   0.0819386  -0.1229079), wk =   0.0277778
        k(   72) = (   0.0614539   0.1024232   0.1024232), wk =   0.0277778
        k(   73) = (   0.0614539   0.1024232  -0.1229079), wk =   0.0277778
        k(   74) = (   0.0614539  -0.1229079  -0.1229079), wk =   0.0069444
        k(   75) = (   0.0819386   0.0819386   0.0819386), wk =   0.0092593
        k(   76) = (   0.0819386   0.0819386   0.1024232), wk =   0.0277778
        k(   77) = (   0.0819386   0.0819386  -0.1229079), wk =   0.0138889
        k(   78) = (   0.0819386   0.1024232   0.1024232), wk =   0.0277778
        k(   79) = (   0.0819386   0.1024232  -0.1229079), wk =   0.0277778
        k(   80) = (   0.0819386  -0.1229079  -0.1229079), wk =   0.0069444
        k(   81) = (   0.1024232   0.1024232   0.1024232), wk =   0.0092593
        k(   82) = (   0.1024232   0.1024232  -0.1229079), wk =   0.0138889
        k(   83) = (   0.1024232  -0.1229079  -0.1229079), wk =   0.0069444
        k(   84) = (  -0.1229079  -0.1229079  -0.1229079), wk =   0.0011574

     Largest allocated arrays     est. size (Mb)     dimensions
     Largest temporary arrays     est. size (Mb)     dimensions

     Check: negative/imaginary core charge=   -0.000003    0.000000

     Initial potential from superposition of free atoms
     Check: negative starting charge=   -0.003966

     starting charge   46.99880, renormalised to   50.00000

     negative rho (up, down):  4.219E-03 0.000E+00

     *
     * You are using vdW-DF for exchange-correlation in this calculation.
     * Please cite the following three references that made this development
     * possible:
     *
     *   M. Dion, H. Rydberg, E. Schroder, D. C. Langreth, and
     *   B. I. Lundqvist, Phys. Rev. Lett. 92, 246401 (2004).
     *
     *   T. Thonhauser, V. R. Cooper, S. Li, A. Puzder, P. Hyldgaard, and
     *   D. C. Langreth, Phys. Rev. B 76, 125112 (2007).
     *
     *   G. Roman-Perez and J. M. Soler, Phys. Rev. Lett. 103, 096102 (2009).
     *
     *
     * If you are using vdW-DF2, please also cite:
     *
     *   K. Lee, E. D. Murray, L. Kong, B. I. Lundqvist, and
     *   D. C. Langreth, Phys. Rev. B 82, 081101(R) (2010).
     *
     *
     * If you are calculating the stress with vdW-DF, please also cite:
     *
     *   R. Sabatini, E. Kucukbenli, B. Kolb, T. Thonhauser, and
     *   S. de Gironcoli, J. Phys.: Condens. Matter 24, 424209 (2012).
     *

     Carrying out vdW-DF run using the following parameters:

     Nqs =      20    Nr_points =    1024   r_max =   100.000
     q_mesh =
               0.00001000     0.04494208     0.09755937     0.15916263
               0.23128650     0.31572767     0.41458969     0.53033537
               0.66584808     0.82450364     1.01025438     1.22772762
               1.48234092     1.78043706     2.12944203     2.53805004
               3.01644009     3.57652955     4.23227104     5.00000000

     Gradients computed in reciprocal space

     Starting wfc are   43 randomized atomic wfcs +    2 random wfc

     Self-consistent Calculation

     iteration #  1     ecut=    58.80 Ry     beta=0.10
     Davidson diagonalization with overlap
     ethr =  1.00E-02,  avg # of iterations =  3.7

[...]

     total energy              =    -500.31561308 Ry
     Harris-Foulkes estimate   =    -500.49944135 Ry
     estimated scf accuracy    <       3.48305656 Ry

[...]

     total energy              =    -499.74412184 Ry
     Harris-Foulkes estimate   =    -499.74413099 Ry
     estimated scf accuracy    <          7.9E-09 Ry

     iteration # 16     ecut=    58.80 Ry     beta=0.10
     Davidson diagonalization with overlap
     ethr =  1.57E-11,  avg # of iterations =  2.0

     negative rho (up, down):  2.043E-03 0.000E+00

     End of self-consistent calculation

          k = 0.0000 0.0000 0.0000 (  3431 PWs)   bands (ev):

   -45.8311 -42.0223 -41.8895 -41.8895 -19.9212 -19.9212 -19.9212 -18.3749
   -18.3749 -18.3749 -18.1253 -18.1253 -18.1253 -17.9248 -17.9248 -17.9248
     8.6871  11.4258  11.4258  12.1410  12.4157  12.4157  12.4157  15.3948
    15.3948  15.3948  17.2285  17.2285  18.0597  18.0597  18.0597  18.4156
    18.4687  18.4687  18.6936  18.6936  18.6936  18.8533  18.8533  18.8533
    25.7614  26.5872  26.5872  26.6779  26.6779

[...]

          k = 0.1024-0.1229-0.1229 (  3472 PWs)   bands (ev):

[...]

          k =-0.1229-0.1229-0.1229 (  3448 PWs)   bands (ev):

   -45.8279 -41.9335 -41.9335 -41.9335 -19.9606 -19.9606 -19.9606 -18.5739
   -18.2981 -18.2981 -18.2981 -17.9649 -17.9649 -17.9649 -17.9449 -17.9449
    11.6239  11.6239  11.6239  12.1157  14.6986  14.6986  15.2496  15.2496
    15.2496  15.5444  15.5444  15.5444  15.5593  15.8224  15.8224  15.8224
    18.4160  18.4160  18.4160  18.4481  18.4481  18.4879  18.4879  18.4879
    23.3605  23.9268  23.9268  23.9268  29.1481

     the Fermi energy is    14.8954 ev

!    total energy              =    -499.74412275 Ry
     Harris-Foulkes estimate   =    -499.74412184 Ry
     estimated scf accuracy    <          2.0E-09 Ry

     The total energy is the sum of the following terms:

     one-electron contribution =    -141.51121842 Ry
     hartree contribution      =      91.80267256 Ry
     xc contribution           =     -76.38958760 Ry
     ewald contribution        =    -373.62940758 Ry
     smearing contrib. (-TS)   =      -0.01658171 Ry

     convergence has been achieved in  16 iterations

     Forces acting on atoms (Ry/au):

     negative rho (up, down):  2.043E-03 0.000E+00
     atom    1 type  1   force =     0.00000000    0.00000000    0.00000000
     atom    2 type  1   force =     0.00000000    0.00000000    0.00000000
     atom    3 type  1   force =     0.00000000    0.00000000   -0.00000000
     atom    4 type  2   force =     0.00000000    0.00000000    0.00000000

     Total force =     0.000000     Total SCF correction =     0.000000
 !ASE

     General routines

     Parallel routines

   This run was terminated on:  20:59:31  24Oct2017

   JOB DONE.