     Program PWSCF v.5.1rc2 (svn rev. ) starts on 25Oct2017 at  9: 5:21

     Current dimensions of program PWSCF are:
     Max number of different atomic species (ntypx) = 10
     Max number of k-points (npk) =  40000
     Max angular momentum in pseudopotentials (lmaxx) =  3

     IMPORTANT: XC functional enforced from input :
     Exchange-correlation      = BEEF-VDW ( 1  4 27 13 2)
     Any further DFT definition will be discarded
     Please, verify this is what you really want

     Subspace diagonalization in iterative solution of the eigenvalue problem:
     a serial algorithm will be used

     bravais-lattice index     =            0
     lattice parameter (alat)  =       1.8897  a.u.
     unit-cell volume          =     581.1567 (a.u.)^3
     number of atoms/cell      =            4
     number of atomic types    =            2
     number of electrons       =        55.00
     number of Kohn-Sham states=           47
     kinetic-energy cutoff     =      58.7989  Ry
     charge density cutoff     =     587.9892  Ry
     convergence threshold     =      7.3E-09
     mixing beta               =       0.1000
     number of iterations used =           10  local-TF  mixing
     Exchange-correlation      = BEEF-VDW ( 1  4 27 13 2)
     nstep                     =           50

     celldm(1)=   1.889726  celldm(2)=   0.000000  celldm(3)=   0.000000
     celldm(4)=   0.000000  celldm(5)=   0.000000  celldm(6)=   0.000000

     crystal axes: (cart. coord. in units of alat)
               a(1) = (   4.416032   0.000000   0.000000 )
               a(2) = (   0.000000   4.416032   0.000000 )
               a(3) = (   0.000000   0.000000   4.416032 )

     reciprocal axes: (cart. coord. in units 2 pi/alat)
               b(1) = (  0.226448  0.000000  0.000000 )
               b(2) = (  0.000000  0.226448  0.000000 )
               b(3) = (  0.000000  0.000000  0.226448 )

     PseudoPot. # 1 for Cd read from file:
     /home/vossj/suncat/psp/gbrv1.5pbe/Cd.UPF
     MD5 check sum: 17164a7926edb8e0dc231208abae86a6
     Pseudo is Ultrasoft + core correction, Zval = 12.0
     Generated by new atomic code, or converted to UPF format
     Using radial grid of  889 points,  6 beta functions with:
                l(1) =   0
                l(2) =   0
                l(3) =   1
                l(4) =   1
                l(5) =   2
                l(6) =   2
     Q(r) pseudized with  6 coefficients,  rinner =    1.000   1.000   1.000
                                                       1.000   1.000

     PseudoPot. # 2 for Ag read from file:
     /home/vossj/suncat/psp/gbrv1.5pbe/Ag.UPF
     MD5 check sum: d66d668201baa78d5eb5b04ef7011058
     Pseudo is Ultrasoft + core correction, Zval = 19.0
     Generated by new atomic code, or converted to UPF format
     Using radial grid of  887 points,  6 beta functions with:
                l(1) =   0
                l(2) =   0
                l(3) =   1
                l(4) =   1
                l(5) =   2
                l(6) =   2
     Q(r) pseudized with  6 coefficients,  rinner =    1.300   1.300   1.300
                                                       1.300   1.300

     vdW kernel table read from file vdW_kernel_table
     MD5 check sum: 095c7af220d748ca6e76c0b4c6cfb241

     atomic species   valence    mass     pseudopotential
        Cd1           12.00   112.41400     Cd( 1.00)
        Ag1           19.00   107.86820     Ag( 1.00)

     48 Sym. Ops., with inversion, found (32 have fractional translation)

   Cartesian axes

     site n.     atom                  positions (alat units)
         1           Cd1 tau(   1) = (   0.0000000   0.0000000   0.0000000  )
         2           Cd1 tau(   2) = (   0.0000000   2.2080161   2.2080161  )
         3           Cd1 tau(   3) = (   2.2080161   0.0000000   2.2080161  )
         4           Ag1 tau(   4) = (   2.2080161   2.2080161   0.0000000  )

     number of k points=    84  Fermi-Dirac smearing, width (Ry)=  0.0073
                       cart. coord. in units 2pi/alat
        k(    1) = (   0.0000000   0.0000000   0.0000000), wk =   0.0011574
        k(    2) = (   0.0000000   0.0000000   0.0188706), wk =   0.0069444
        k(    3) = (   0.0000000   0.0000000   0.0377413), wk =   0.0069444
        k(    4) = (   0.0000000   0.0000000   0.0566119), wk =   0.0069444
        k(    5) = (   0.0000000   0.0000000   0.0754825), wk =   0.0069444
        k(    6) = (   0.0000000   0.0000000   0.0943532), wk =   0.0069444
        k(    7) = (   0.0000000   0.0000000  -0.1132238), wk =   0.0034722
        k(    8) = (   0.0000000   0.0188706   0.0188706), wk =   0.0138889
        k(    9) = (   0.0000000   0.0188706   0.0377413), wk =   0.0277778
        k(   10) = (   0.0000000   0.0188706   0.0566119), wk =   0.0277778
        k(   11) = (   0.0000000   0.0188706   0.0754825), wk =   0.0277778
        k(   12) = (   0.0000000   0.0188706   0.0943532), wk =   0.0277778
        k(   13) = (   0.0000000   0.0188706  -0.1132238), wk =   0.0138889
        k(   14) = (   0.0000000   0.0377413   0.0377413), wk =   0.0138889
        k(   15) = (   0.0000000   0.0377413   0.0566119), wk =   0.0277778
        k(   16) = (   0.0000000   0.0377413   0.0754825), wk =   0.0277778
        k(   17) = (   0.0000000   0.0377413   0.0943532), wk =   0.0277778
        k(   18) = (   0.0000000   0.0377413  -0.1132238), wk =   0.0138889
        k(   19) = (   0.0000000   0.0566119   0.0566119), wk =   0.0138889
        k(   20) = (   0.0000000   0.0566119   0.0754825), wk =   0.0277778
        k(   21) = (   0.0000000   0.0566119   0.0943532), wk =   0.0277778
        k(   22) = (   0.0000000   0.0566119  -0.1132238), wk =   0.0138889
        k(   23) = (   0.0000000   0.0754825   0.0754825), wk =   0.0138889
        k(   24) = (   0.0000000   0.0754825   0.0943532), wk =   0.0277778
        k(   25) = (   0.0000000   0.0754825  -0.1132238), wk =   0.0138889
        k(   26) = (   0.0000000   0.0943532   0.0943532), wk =   0.0138889
        k(   27) = (   0.0000000   0.0943532  -0.1132238), wk =   0.0138889
        k(   28) = (   0.0000000  -0.1132238  -0.1132238), wk =   0.0034722
        k(   29) = (   0.0188706   0.0188706   0.0188706), wk =   0.0092593
        k(   30) = (   0.0188706   0.0188706   0.0377413), wk =   0.0277778
        k(   31) = (   0.0188706   0.0188706   0.0566119), wk =   0.0277778
        k(   32) = (   0.0188706   0.0188706   0.0754825), wk =   0.0277778
        k(   33) = (   0.0188706   0.0188706   0.0943532), wk =   0.0277778
        k(   34) = (   0.0188706   0.0188706  -0.1132238), wk =   0.0138889
        k(   35) = (   0.0188706   0.0377413   0.0377413), wk =   0.0277778
        k(   36) = (   0.0188706   0.0377413   0.0566119), wk =   0.0555556
        k(   37) = (   0.0188706   0.0377413   0.0754825), wk =   0.0555556
        k(   38) = (   0.0188706   0.0377413   0.0943532), wk =   0.0555556
        k(   39) = (   0.0188706   0.0377413  -0.1132238), wk =   0.0277778
        k(   40) = (   0.0188706   0.0566119   0.0566119), wk =   0.0277778
        k(   41) = (   0.0188706   0.0566119   0.0754825), wk =   0.0555556
        k(   42) = (   0.0188706   0.0566119   0.0943532), wk =   0.0555556
        k(   43) = (   0.0188706   0.0566119  -0.1132238), wk =   0.0277778
        k(   44) = (   0.0188706   0.0754825   0.0754825), wk =   0.0277778
        k(   45) = (   0.0188706   0.0754825   0.0943532), wk =   0.0555556
        k(   46) = (   0.0188706   0.0754825  -0.1132238), wk =   0.0277778
        k(   47) = (   0.0188706   0.0943532   0.0943532), wk =   0.0277778
        k(   48) = (   0.0188706   0.0943532  -0.1132238), wk =   0.0277778
        k(   49) = (   0.0188706  -0.1132238  -0.1132238), wk =   0.0069444
        k(   50) = (   0.0377413   0.0377413   0.0377413), wk =   0.0092593
        k(   51) = (   0.0377413   0.0377413   0.0566119), wk =   0.0277778
        k(   52) = (   0.0377413   0.0377413   0.0754825), wk =   0.0277778
        k(   53) = (   0.0377413   0.0377413   0.0943532), wk =   0.0277778
        k(   54) = (   0.0377413   0.0377413  -0.1132238), wk =   0.0138889
        k(   55) = (   0.0377413   0.0566119   0.0566119), wk =   0.0277778
        k(   56) = (   0.0377413   0.0566119   0.0754825), wk =   0.0555556
        k(   57) = (   0.0377413   0.0566119   0.0943532), wk =   0.0555556
        k(   58) = (   0.0377413   0.0566119  -0.1132238), wk =   0.0277778
        k(   59) = (   0.0377413   0.0754825   0.0754825), wk =   0.0277778
        k(   60) = (   0.0377413   0.0754825   0.0943532), wk =   0.0555556
[...]
        k(   70) = (   0.0566119   0.0754825   0.0943532), wk =   0.0555556
        k(   71) = (   0.0566119   0.0754825  -0.1132238), wk =   0.0277778
        k(   72) = (   0.0566119   0.0943532   0.0943532), wk =   0.0277778
        k(   73) = (   0.0566119   0.0943532  -0.1132238), wk =   0.0277778
        k(   74) = (   0.0566119  -0.1132238  -0.1132238), wk =   0.0069444
        k(   75) = (   0.0754825   0.0754825   0.0754825), wk =   0.0092593
        k(   76) = (   0.0754825   0.0754825   0.0943532), wk =   0.0277778
        k(   77) = (   0.0754825   0.0754825  -0.1132238), wk =   0.0138889
        k(   78) = (   0.0754825   0.0943532   0.0943532), wk =   0.0277778
        k(   79) = (   0.0754825   0.0943532  -0.1132238), wk =   0.0277778
        k(   80) = (   0.0754825  -0.1132238  -0.1132238), wk =   0.0069444
        k(   81) = (   0.0943532   0.0943532   0.0943532), wk =   0.0092593
        k(   82) = (   0.0943532   0.0943532  -0.1132238), wk =   0.0138889
        k(   83) = (   0.0943532  -0.1132238  -0.1132238), wk =   0.0069444
        k(   84) = (  -0.1132238  -0.1132238  -0.1132238), wk =   0.0011574

     Largest allocated arrays     est. size (Mb)     dimensions
     Largest temporary arrays     est. size (Mb)     dimensions

     Initial potential from superposition of free atoms
     Check: negative starting charge=   -0.063560

     starting charge   52.99983, renormalised to   55.00000

     negative rho (up, down):  6.596E-02 0.000E+00

     *
     * You are using vdW-DF for exchange-correlation in this calculation.
     * Please cite the following three references that made this development
     * possible:
     *
     *   M. Dion, H. Rydberg, E. Schroder, D. C. Langreth, and
     *   B. I. Lundqvist, Phys. Rev. Lett. 92, 246401 (2004).
     *
     *   T. Thonhauser, V. R. Cooper, S. Li, A. Puzder, P. Hyldgaard, and
     *   D. C. Langreth, Phys. Rev. B 76, 125112 (2007).
     *
     *   G. Roman-Perez and J. M. Soler, Phys. Rev. Lett. 103, 096102 (2009).
     *
     *
     * If you are using vdW-DF2, please also cite:
     *
     *   K. Lee, E. D. Murray, L. Kong, B. I. Lundqvist, and
     *   D. C. Langreth, Phys. Rev. B 82, 081101(R) (2010).
     *
     *
     * If you are calculating the stress with vdW-DF, please also cite:
     *
     *   R. Sabatini, E. Kucukbenli, B. Kolb, T. Thonhauser, and
     *   S. de Gironcoli, J. Phys.: Condens. Matter 24, 424209 (2012).
     *

     Carrying out vdW-DF run using the following parameters:

     Nqs =      20    Nr_points =    1024   r_max =   100.000
     q_mesh =
               0.00001000     0.04494208     0.09755937     0.15916263
               0.23128650     0.31572767     0.41458969     0.53033537
               0.66584808     0.82450364     1.01025438     1.22772762
               1.48234092     1.78043706     2.12944203     2.53805004
               3.01644009     3.57652955     4.23227104     5.00000000

     Gradients computed in reciprocal space

     Starting wfc are   40 randomized atomic wfcs +    7 random wfc

     Self-consistent Calculation

     iteration #  1     ecut=    58.80 Ry     beta=0.10
     Davidson diagonalization with overlap
     ethr =  1.00E-02,  avg # of iterations =  4.6

[...]

     total energy              =    -645.52292040 Ry
     Harris-Foulkes estimate   =    -645.88031480 Ry
     estimated scf accuracy    <       6.91736882 Ry

[...]

     total energy              =    -644.97605674 Ry
     Harris-Foulkes estimate   =    -644.97603661 Ry
     estimated scf accuracy    <       0.00000056 Ry

     iteration # 13     ecut=    58.80 Ry     beta=0.10
     Davidson diagonalization with overlap
     ethr =  7.38E-10,  avg # of iterations =  2.0

     negative rho (up, down):  6.579E-02 0.000E+00

     End of self-consistent calculation

          k = 0.0000 0.0000 0.0000 (  4385 PWs)   bands (ev):

   -80.5951 -44.0841 -44.0841 -44.0841   2.0192   2.1390   2.1390   2.1390
     2.3808   2.3808   2.8890   2.8891   2.8891   3.1562   3.1562   3.3814
     3.4814   3.4814   3.4814   3.5795   7.0942   7.0942   7.3778   7.3779
     7.3779  11.6182  11.6182  11.6182  13.9035  13.9035  14.6641  18.9967
    18.9967  18.9967  19.5444  19.5444  19.5444  23.7897  23.7897  23.9288
    23.9288  23.9288  24.0938  25.8439  27.4162  27.4162  27.4162

[...]

          k = 0.0944-0.1132-0.1132 (  4440 PWs)   bands (ev):

[...]

          k =-0.1132-0.1132-0.1132 (  4416 PWs)   bands (ev):

   -80.5951 -44.0843 -44.0843 -44.0843   2.2216   2.2822   2.2822   2.2822
     2.5827   2.5827   2.5827   2.9303   2.9303   2.9303   3.0275   3.0275
     3.3930   3.3930   3.3930   6.8840   6.8840   6.8840   7.3805   7.3805
     9.6669  10.2264  10.2264  10.2265  11.2613  11.2614  11.2614  12.3286
    24.5455  24.5455  24.7895  24.7895  24.7895  24.8868  25.0296  25.0296
    25.0296  25.7801  25.7802  25.7802  28.9024  28.9024  28.9024

     the Fermi energy is    11.9278 ev

!    total energy              =    -644.97614347 Ry
     Harris-Foulkes estimate   =    -644.97605685 Ry
     estimated scf accuracy    <          1.0E-09 Ry

     The total energy is the sum of the following terms:

     one-electron contribution =    -222.69168039 Ry
     hartree contribution      =     155.72197651 Ry
     xc contribution           =    -152.58339756 Ry
     ewald contribution        =    -425.41954453 Ry
     smearing contrib. (-TS)   =      -0.00349750 Ry

     convergence has been achieved in  13 iterations

     Forces acting on atoms (Ry/au):

     negative rho (up, down):  6.579E-02 0.000E+00
     atom    1 type  1   force =     0.00000000   -0.00000000    0.00000000
     atom    2 type  1   force =     0.00000000   -0.00000000    0.00000000
     atom    3 type  1   force =     0.00000000    0.00000000    0.00000000
     atom    4 type  2   force =     0.00000000    0.00000000    0.00000000

     Total force =     0.000000     Total SCF correction =     0.000000
 !ASE

     General routines

     Parallel routines

   This run was terminated on:   9: 6:26  25Oct2017

   JOB DONE.