     Program PWSCF v.5.1rc2 (svn rev. ) starts on 25Oct2017 at 23:38: 1

     Current dimensions of program PWSCF are:
     Max number of different atomic species (ntypx) = 10
     Max number of k-points (npk) =  40000
     Max angular momentum in pseudopotentials (lmaxx) =  3

     IMPORTANT: XC functional enforced from input :
     Exchange-correlation      = BEEF-VDW ( 1  4 27 13 2)
     Any further DFT definition will be discarded
     Please, verify this is what you really want

     Subspace diagonalization in iterative solution of the eigenvalue problem:
     a serial algorithm will be used

     bravais-lattice index     =            0
     lattice parameter (alat)  =       1.8897  a.u.
     unit-cell volume          =     787.1953 (a.u.)^3
     number of atoms/cell      =            4
     number of atomic types    =            2
     number of electrons       =        61.00
     number of Kohn-Sham states=           50
     kinetic-energy cutoff     =      58.7989  Ry
     charge density cutoff     =     587.9892  Ry
     convergence threshold     =      7.3E-09
     mixing beta               =       0.1000
     number of iterations used =           10  local-TF  mixing
     Exchange-correlation      = BEEF-VDW ( 1  4 27 13 2)
     nstep                     =           50

     celldm(1)=   1.889726  celldm(2)=   0.000000  celldm(3)=   0.000000
     celldm(4)=   0.000000  celldm(5)=   0.000000  celldm(6)=   0.000000

     crystal axes: (cart. coord. in units of alat)
               a(1) = (   4.886096   0.000000   0.000000 )
               a(2) = (   0.000000   4.886096   0.000000 )
               a(3) = (   0.000000   0.000000   4.886096 )

     reciprocal axes: (cart. coord. in units 2 pi/alat)
               b(1) = (  0.204662  0.000000  0.000000 )
               b(2) = (  0.000000  0.204662  0.000000 )
               b(3) = (  0.000000  0.000000  0.204662 )

     PseudoPot. # 1 for Pb read from file:
     /home/vossj/suncat/psp/gbrv1.5pbe/Pb.UPF
     MD5 check sum: 3d1c1779aa92214d1e8f3a7db79003e2
     Pseudo is Ultrasoft + core correction, Zval = 14.0
     Generated by new atomic code, or converted to UPF format
     Using radial grid of  899 points,  6 beta functions with:
                l(1) =   0
                l(2) =   0
                l(3) =   1
                l(4) =   1
                l(5) =   2
                l(6) =   2
     Q(r) pseudized with  6 coefficients,  rinner =    1.000   1.000   1.000
                                                       1.000   1.000

     PseudoPot. # 2 for Ag read from file:
     /home/vossj/suncat/psp/gbrv1.5pbe/Ag.UPF
     MD5 check sum: d66d668201baa78d5eb5b04ef7011058
     Pseudo is Ultrasoft + core correction, Zval = 19.0
     Generated by new atomic code, or converted to UPF format
     Using radial grid of  887 points,  6 beta functions with:
                l(1) =   0
                l(2) =   0
                l(3) =   1
                l(4) =   1
                l(5) =   2
                l(6) =   2
     Q(r) pseudized with  6 coefficients,  rinner =    1.300   1.300   1.300
                                                       1.300   1.300

     vdW kernel table read from file vdW_kernel_table
     MD5 check sum: 095c7af220d748ca6e76c0b4c6cfb241

     atomic species   valence    mass     pseudopotential
        Pb1           14.00   207.20000     Pb( 1.00)
        Ag1           19.00   107.86820     Ag( 1.00)

     48 Sym. Ops., with inversion, found (32 have fractional translation)

   Cartesian axes

     site n.     atom                  positions (alat units)
         1           Pb1 tau(   1) = (   0.0000000   0.0000000   0.0000000  )
         2           Pb1 tau(   2) = (   0.0000000   2.4430478   2.4430478  )
         3           Pb1 tau(   3) = (   2.4430478   0.0000000   2.4430478  )
         4           Ag1 tau(   4) = (   2.4430478   2.4430478   0.0000000  )

     number of k points=    84  Fermi-Dirac smearing, width (Ry)=  0.0073
                       cart. coord. in units 2pi/alat
        k(    1) = (   0.0000000   0.0000000   0.0000000), wk =   0.0011574
        k(    2) = (   0.0000000   0.0000000   0.0170552), wk =   0.0069444
        k(    3) = (   0.0000000   0.0000000   0.0341104), wk =   0.0069444
        k(    4) = (   0.0000000   0.0000000   0.0511656), wk =   0.0069444
        k(    5) = (   0.0000000   0.0000000   0.0682208), wk =   0.0069444
        k(    6) = (   0.0000000   0.0000000   0.0852760), wk =   0.0069444
        k(    7) = (   0.0000000   0.0000000  -0.1023312), wk =   0.0034722
        k(    8) = (   0.0000000   0.0170552   0.0170552), wk =   0.0138889
        k(    9) = (   0.0000000   0.0170552   0.0341104), wk =   0.0277778
        k(   10) = (   0.0000000   0.0170552   0.0511656), wk =   0.0277778
        k(   11) = (   0.0000000   0.0170552   0.0682208), wk =   0.0277778
        k(   12) = (   0.0000000   0.0170552   0.0852760), wk =   0.0277778
        k(   13) = (   0.0000000   0.0170552  -0.1023312), wk =   0.0138889
        k(   14) = (   0.0000000   0.0341104   0.0341104), wk =   0.0138889
        k(   15) = (   0.0000000   0.0341104   0.0511656), wk =   0.0277778
        k(   16) = (   0.0000000   0.0341104   0.0682208), wk =   0.0277778
        k(   17) = (   0.0000000   0.0341104   0.0852760), wk =   0.0277778
        k(   18) = (   0.0000000   0.0341104  -0.1023312), wk =   0.0138889
        k(   19) = (   0.0000000   0.0511656   0.0511656), wk =   0.0138889
        k(   20) = (   0.0000000   0.0511656   0.0682208), wk =   0.0277778
        k(   21) = (   0.0000000   0.0511656   0.0852760), wk =   0.0277778
        k(   22) = (   0.0000000   0.0511656  -0.1023312), wk =   0.0138889
        k(   23) = (   0.0000000   0.0682208   0.0682208), wk =   0.0138889
        k(   24) = (   0.0000000   0.0682208   0.0852760), wk =   0.0277778
        k(   25) = (   0.0000000   0.0682208  -0.1023312), wk =   0.0138889
        k(   26) = (   0.0000000   0.0852760   0.0852760), wk =   0.0138889
        k(   27) = (   0.0000000   0.0852760  -0.1023312), wk =   0.0138889
        k(   28) = (   0.0000000  -0.1023312  -0.1023312), wk =   0.0034722
        k(   29) = (   0.0170552   0.0170552   0.0170552), wk =   0.0092593
        k(   30) = (   0.0170552   0.0170552   0.0341104), wk =   0.0277778
        k(   31) = (   0.0170552   0.0170552   0.0511656), wk =   0.0277778
        k(   32) = (   0.0170552   0.0170552   0.0682208), wk =   0.0277778
        k(   33) = (   0.0170552   0.0170552   0.0852760), wk =   0.0277778
        k(   34) = (   0.0170552   0.0170552  -0.1023312), wk =   0.0138889
        k(   35) = (   0.0170552   0.0341104   0.0341104), wk =   0.0277778
        k(   36) = (   0.0170552   0.0341104   0.0511656), wk =   0.0555556
        k(   37) = (   0.0170552   0.0341104   0.0682208), wk =   0.0555556
        k(   38) = (   0.0170552   0.0341104   0.0852760), wk =   0.0555556
        k(   39) = (   0.0170552   0.0341104  -0.1023312), wk =   0.0277778
        k(   40) = (   0.0170552   0.0511656   0.0511656), wk =   0.0277778
        k(   41) = (   0.0170552   0.0511656   0.0682208), wk =   0.0555556
        k(   42) = (   0.0170552   0.0511656   0.0852760), wk =   0.0555556
        k(   43) = (   0.0170552   0.0511656  -0.1023312), wk =   0.0277778
        k(   44) = (   0.0170552   0.0682208   0.0682208), wk =   0.0277778
        k(   45) = (   0.0170552   0.0682208   0.0852760), wk =   0.0555556
        k(   46) = (   0.0170552   0.0682208  -0.1023312), wk =   0.0277778
        k(   47) = (   0.0170552   0.0852760   0.0852760), wk =   0.0277778
        k(   48) = (   0.0170552   0.0852760  -0.1023312), wk =   0.0277778
        k(   49) = (   0.0170552  -0.1023312  -0.1023312), wk =   0.0069444
        k(   50) = (   0.0341104   0.0341104   0.0341104), wk =   0.0092593
        k(   51) = (   0.0341104   0.0341104   0.0511656), wk =   0.0277778
        k(   52) = (   0.0341104   0.0341104   0.0682208), wk =   0.0277778
        k(   53) = (   0.0341104   0.0341104   0.0852760), wk =   0.0277778
        k(   54) = (   0.0341104   0.0341104  -0.1023312), wk =   0.0138889
        k(   55) = (   0.0341104   0.0511656   0.0511656), wk =   0.0277778
        k(   56) = (   0.0341104   0.0511656   0.0682208), wk =   0.0555556
        k(   57) = (   0.0341104   0.0511656   0.0852760), wk =   0.0555556
        k(   58) = (   0.0341104   0.0511656  -0.1023312), wk =   0.0277778
        k(   59) = (   0.0341104   0.0682208   0.0682208), wk =   0.0277778
        k(   60) = (   0.0341104   0.0682208   0.0852760), wk =   0.0555556
[...]
        k(   70) = (   0.0511656   0.0682208   0.0852760), wk =   0.0555556
        k(   71) = (   0.0511656   0.0682208  -0.1023312), wk =   0.0277778
        k(   72) = (   0.0511656   0.0852760   0.0852760), wk =   0.0277778
        k(   73) = (   0.0511656   0.0852760  -0.1023312), wk =   0.0277778
        k(   74) = (   0.0511656  -0.1023312  -0.1023312), wk =   0.0069444
        k(   75) = (   0.0682208   0.0682208   0.0682208), wk =   0.0092593
        k(   76) = (   0.0682208   0.0682208   0.0852760), wk =   0.0277778
        k(   77) = (   0.0682208   0.0682208  -0.1023312), wk =   0.0138889
        k(   78) = (   0.0682208   0.0852760   0.0852760), wk =   0.0277778
        k(   79) = (   0.0682208   0.0852760  -0.1023312), wk =   0.0277778
        k(   80) = (   0.0682208  -0.1023312  -0.1023312), wk =   0.0069444
        k(   81) = (   0.0852760   0.0852760   0.0852760), wk =   0.0092593
        k(   82) = (   0.0852760   0.0852760  -0.1023312), wk =   0.0138889
        k(   83) = (   0.0852760  -0.1023312  -0.1023312), wk =   0.0069444
        k(   84) = (  -0.1023312  -0.1023312  -0.1023312), wk =   0.0011574

     Largest allocated arrays     est. size (Mb)     dimensions
     Largest temporary arrays     est. size (Mb)     dimensions

     Initial potential from superposition of free atoms
     Check: negative starting charge=   -0.045932

     starting charge   60.49290, renormalised to   61.00000

     negative rho (up, down):  4.632E-02 0.000E+00

     *
     * You are using vdW-DF for exchange-correlation in this calculation.
     * Please cite the following three references that made this development
     * possible:
     *
     *   M. Dion, H. Rydberg, E. Schroder, D. C. Langreth, and
     *   B. I. Lundqvist, Phys. Rev. Lett. 92, 246401 (2004).
     *
     *   T. Thonhauser, V. R. Cooper, S. Li, A. Puzder, P. Hyldgaard, and
     *   D. C. Langreth, Phys. Rev. B 76, 125112 (2007).
     *
     *   G. Roman-Perez and J. M. Soler, Phys. Rev. Lett. 103, 096102 (2009).
     *
     *
     * If you are using vdW-DF2, please also cite:
     *
     *   K. Lee, E. D. Murray, L. Kong, B. I. Lundqvist, and
     *   D. C. Langreth, Phys. Rev. B 82, 081101(R) (2010).
     *
     *
     * If you are calculating the stress with vdW-DF, please also cite:
     *
     *   R. Sabatini, E. Kucukbenli, B. Kolb, T. Thonhauser, and
     *   S. de Gironcoli, J. Phys.: Condens. Matter 24, 424209 (2012).
     *

     Carrying out vdW-DF run using the following parameters:

     Nqs =      20    Nr_points =    1024   r_max =   100.000
     q_mesh =
               0.00001000     0.04494208     0.09755937     0.15916263
               0.23128650     0.31572767     0.41458969     0.53033537
               0.66584808     0.82450364     1.01025438     1.22772762
               1.48234092     1.78043706     2.12944203     2.53805004
               3.01644009     3.57652955     4.23227104     5.00000000

     Gradients computed in reciprocal space

     Starting wfc are   40 randomized atomic wfcs +   10 random wfc

     Self-consistent Calculation

     iteration #  1     ecut=    58.80 Ry     beta=0.10
     Davidson diagonalization with overlap
     ethr =  1.00E-02,  avg # of iterations =  4.8

     Threshold (ethr) on eigenvalues was too large:
     Diagonalizing with lowered threshold

     Davidson diagonalization with overlap
     ethr =  2.77E-04,  avg # of iterations =  1.2

[...]

     total energy              =    -794.75145985 Ry
     Harris-Foulkes estimate   =    -794.75667675 Ry
     estimated scf accuracy    <       0.16937290 Ry

[...]

     total energy              =    -794.73321286 Ry
     Harris-Foulkes estimate   =    -794.73312007 Ry
     estimated scf accuracy    <       0.00000007 Ry

     iteration # 19     ecut=    58.80 Ry     beta=0.10
     Davidson diagonalization with overlap
     ethr =  1.15E-10,  avg # of iterations =  2.2

     negative rho (up, down):  5.080E-02 0.000E+00

     End of self-consistent calculation

          k = 0.0000 0.0000 0.0000 (  6031 PWs)   bands (ev):

   -81.1385 -44.6323 -44.6323 -44.6323  -6.6087  -6.6087  -6.6087  -6.5786
    -6.4700  -6.4700  -6.3523  -6.3523  -6.3523  -6.2963  -6.2963  -6.2208
    -6.1814  -6.1814  -6.1814  -0.1713   4.2282   4.2282   6.6311   6.6311
     6.6311   6.8400   6.8400   8.4479   8.4479   8.4479  10.8810  13.4812
    13.4812  13.4812  14.9406  14.9406  14.9406  17.7893  17.7893  17.9026
    18.8357  18.8357  18.8357  20.7131  20.7131  20.7131  21.3440  21.3723
    21.3723  21.7528

[...]

          k = 0.0853-0.1023-0.1023 (  5956 PWs)   bands (ev):

[...]

          k =-0.1023-0.1023-0.1023 (  6008 PWs)   bands (ev):

   -81.1385 -44.6323 -44.6323 -44.6323  -6.5174  -6.5174  -6.5174  -6.4896
    -6.4896  -6.4896  -6.4847  -6.3283  -6.3283  -6.3283  -6.3168  -6.3168
    -6.2138  -6.2138  -6.2138   2.7640   2.7640   2.7640   6.6936   6.6936
     6.7401   6.8788   6.8788   6.8788   7.8286   7.8286   7.8286   9.9908
    16.8325  16.8325  17.1671  17.1671  17.1671  20.1301  20.1301  20.1301
    20.8364  21.0800  21.0800  21.0800  21.4808  21.4809  21.4809  21.7569
    21.7569  21.7569

     the Fermi energy is    10.9737 ev

!    total energy              =    -794.73360115 Ry
     Harris-Foulkes estimate   =    -794.73321299 Ry
     estimated scf accuracy    <          1.0E-09 Ry

     The total energy is the sum of the following terms:

     one-electron contribution =    -281.16982185 Ry
     hartree contribution      =     178.98522958 Ry
     xc contribution           =    -226.04721652 Ry
     ewald contribution        =    -466.49697089 Ry
     smearing contrib. (-TS)   =      -0.00482148 Ry

     convergence has been achieved in  19 iterations

     Forces acting on atoms (Ry/au):

     negative rho (up, down):  5.080E-02 0.000E+00
     atom    1 type  1   force =     0.00000000    0.00000000    0.00000000
     atom    2 type  1   force =     0.00000000   -0.00000000    0.00000000
     atom    3 type  1   force =     0.00000000    0.00000000    0.00000000
     atom    4 type  2   force =     0.00000000    0.00000000    0.00000000

     Total force =     0.000000     Total SCF correction =     0.000000
 !ASE

     General routines

     Parallel routines

   This run was terminated on:  23:40:11  25Oct2017

   JOB DONE.