     Program PWSCF v.5.1rc2 (svn rev. ) starts on 25Oct2017 at  6: 1:30

     Current dimensions of program PWSCF are:
     Max number of different atomic species (ntypx) = 10
     Max number of k-points (npk) =  40000
     Max angular momentum in pseudopotentials (lmaxx) =  3

     IMPORTANT: XC functional enforced from input :
     Exchange-correlation      = BEEF-VDW ( 1  4 27 13 2)
     Any further DFT definition will be discarded
     Please, verify this is what you really want

     Subspace diagonalization in iterative solution of the eigenvalue problem:
     a serial algorithm will be used

     bravais-lattice index     =            0
     lattice parameter (alat)  =       1.8897  a.u.
     unit-cell volume          =     410.2467 (a.u.)^3
     number of atoms/cell      =            4
     number of atomic types    =            2
     number of electrons       =        64.00
     number of Kohn-Sham states=           52
     kinetic-energy cutoff     =      58.7989  Ry
     charge density cutoff     =     587.9892  Ry
     convergence threshold     =      7.3E-09
     mixing beta               =       0.1000
     number of iterations used =           10  local-TF  mixing
     Exchange-correlation      = BEEF-VDW ( 1  4 27 13 2)
     nstep                     =           50

     celldm(1)=   1.889726  celldm(2)=   0.000000  celldm(3)=   0.000000
     celldm(4)=   0.000000  celldm(5)=   0.000000  celldm(6)=   0.000000

     crystal axes: (cart. coord. in units of alat)
               a(1) = (   3.932024   0.000000   0.000000 )
               a(2) = (   0.000000   3.932024   0.000000 )
               a(3) = (   0.000000   0.000000   3.932024 )

     reciprocal axes: (cart. coord. in units 2 pi/alat)
               b(1) = (  0.254322  0.000000  0.000000 )
               b(2) = (  0.000000  0.254322  0.000000 )
               b(3) = (  0.000000  0.000000  0.254322 )

     PseudoPot. # 1 for Pd read from file:
     /home/vossj/suncat/psp/gbrv1.5pbe/Pd.UPF
     MD5 check sum: 2d733d2bc2cbfd217af676df1668a4bc
     Pseudo is Ultrasoft + core correction, Zval = 16.0
     Generated by new atomic code, or converted to UPF format
     Using radial grid of  887 points,  6 beta functions with:
                l(1) =   0
                l(2) =   0
                l(3) =   1
                l(4) =   1
                l(5) =   2
                l(6) =   2
     Q(r) pseudized with  8 coefficients,  rinner =    1.130   1.130   1.130
                                                       1.130   1.130

     PseudoPot. # 2 for Ru read from file:
     /home/vossj/suncat/psp/gbrv1.5pbe/Ru.UPF
     MD5 check sum: 7158a806dd851261a58e6920c40ebe78
     Pseudo is Ultrasoft + core correction, Zval = 16.0
     Generated by new atomic code, or converted to UPF format
     Using radial grid of  967 points,  6 beta functions with:
                l(1) =   0
                l(2) =   0
                l(3) =   1
                l(4) =   1
                l(5) =   2
                l(6) =   2
     Q(r) pseudized with  8 coefficients,  rinner =    1.300   1.300   1.300
                                                       1.300   1.300

     vdW kernel table read from file vdW_kernel_table
     MD5 check sum: 095c7af220d748ca6e76c0b4c6cfb241

     atomic species   valence    mass     pseudopotential
        Pd1           16.00   106.42000     Pd( 1.00)
        Ru1           16.00   101.07000     Ru( 1.00)

     48 Sym. Ops., with inversion, found (32 have fractional translation)

   Cartesian axes

     site n.     atom                  positions (alat units)
         1           Pd1 tau(   1) = (   0.0000000   0.0000000   0.0000000  )
         2           Pd1 tau(   2) = (   0.0000000   1.9660120   1.9660120  )
         3           Pd1 tau(   3) = (   1.9660120   0.0000000   1.9660120  )
         4           Ru1 tau(   4) = (   1.9660120   1.9660120   0.0000000  )

     number of k points=    84  Fermi-Dirac smearing, width (Ry)=  0.0073
                       cart. coord. in units 2pi/alat
        k(    1) = (   0.0000000   0.0000000   0.0000000), wk =   0.0011574
        k(    2) = (   0.0000000   0.0000000   0.0211935), wk =   0.0069444
        k(    3) = (   0.0000000   0.0000000   0.0423870), wk =   0.0069444
        k(    4) = (   0.0000000   0.0000000   0.0635805), wk =   0.0069444
        k(    5) = (   0.0000000   0.0000000   0.0847740), wk =   0.0069444
        k(    6) = (   0.0000000   0.0000000   0.1059675), wk =   0.0069444
        k(    7) = (   0.0000000   0.0000000  -0.1271610), wk =   0.0034722
        k(    8) = (   0.0000000   0.0211935   0.0211935), wk =   0.0138889
        k(    9) = (   0.0000000   0.0211935   0.0423870), wk =   0.0277778
        k(   10) = (   0.0000000   0.0211935   0.0635805), wk =   0.0277778
        k(   11) = (   0.0000000   0.0211935   0.0847740), wk =   0.0277778
        k(   12) = (   0.0000000   0.0211935   0.1059675), wk =   0.0277778
        k(   13) = (   0.0000000   0.0211935  -0.1271610), wk =   0.0138889
        k(   14) = (   0.0000000   0.0423870   0.0423870), wk =   0.0138889
        k(   15) = (   0.0000000   0.0423870   0.0635805), wk =   0.0277778
        k(   16) = (   0.0000000   0.0423870   0.0847740), wk =   0.0277778
        k(   17) = (   0.0000000   0.0423870   0.1059675), wk =   0.0277778
        k(   18) = (   0.0000000   0.0423870  -0.1271610), wk =   0.0138889
        k(   19) = (   0.0000000   0.0635805   0.0635805), wk =   0.0138889
        k(   20) = (   0.0000000   0.0635805   0.0847740), wk =   0.0277778
        k(   21) = (   0.0000000   0.0635805   0.1059675), wk =   0.0277778
        k(   22) = (   0.0000000   0.0635805  -0.1271610), wk =   0.0138889
        k(   23) = (   0.0000000   0.0847740   0.0847740), wk =   0.0138889
        k(   24) = (   0.0000000   0.0847740   0.1059675), wk =   0.0277778
        k(   25) = (   0.0000000   0.0847740  -0.1271610), wk =   0.0138889
        k(   26) = (   0.0000000   0.1059675   0.1059675), wk =   0.0138889
        k(   27) = (   0.0000000   0.1059675  -0.1271610), wk =   0.0138889
        k(   28) = (   0.0000000  -0.1271610  -0.1271610), wk =   0.0034722
        k(   29) = (   0.0211935   0.0211935   0.0211935), wk =   0.0092593
        k(   30) = (   0.0211935   0.0211935   0.0423870), wk =   0.0277778
        k(   31) = (   0.0211935   0.0211935   0.0635805), wk =   0.0277778
        k(   32) = (   0.0211935   0.0211935   0.0847740), wk =   0.0277778
        k(   33) = (   0.0211935   0.0211935   0.1059675), wk =   0.0277778
        k(   34) = (   0.0211935   0.0211935  -0.1271610), wk =   0.0138889
        k(   35) = (   0.0211935   0.0423870   0.0423870), wk =   0.0277778
        k(   36) = (   0.0211935   0.0423870   0.0635805), wk =   0.0555556
        k(   37) = (   0.0211935   0.0423870   0.0847740), wk =   0.0555556
        k(   38) = (   0.0211935   0.0423870   0.1059675), wk =   0.0555556
        k(   39) = (   0.0211935   0.0423870  -0.1271610), wk =   0.0277778
        k(   40) = (   0.0211935   0.0635805   0.0635805), wk =   0.0277778
        k(   41) = (   0.0211935   0.0635805   0.0847740), wk =   0.0555556
        k(   42) = (   0.0211935   0.0635805   0.1059675), wk =   0.0555556
        k(   43) = (   0.0211935   0.0635805  -0.1271610), wk =   0.0277778
        k(   44) = (   0.0211935   0.0847740   0.0847740), wk =   0.0277778
        k(   45) = (   0.0211935   0.0847740   0.1059675), wk =   0.0555556
        k(   46) = (   0.0211935   0.0847740  -0.1271610), wk =   0.0277778
        k(   47) = (   0.0211935   0.1059675   0.1059675), wk =   0.0277778
        k(   48) = (   0.0211935   0.1059675  -0.1271610), wk =   0.0277778
        k(   49) = (   0.0211935  -0.1271610  -0.1271610), wk =   0.0069444
        k(   50) = (   0.0423870   0.0423870   0.0423870), wk =   0.0092593
        k(   51) = (   0.0423870   0.0423870   0.0635805), wk =   0.0277778
        k(   52) = (   0.0423870   0.0423870   0.0847740), wk =   0.0277778
        k(   53) = (   0.0423870   0.0423870   0.1059675), wk =   0.0277778
        k(   54) = (   0.0423870   0.0423870  -0.1271610), wk =   0.0138889
        k(   55) = (   0.0423870   0.0635805   0.0635805), wk =   0.0277778
        k(   56) = (   0.0423870   0.0635805   0.0847740), wk =   0.0555556
        k(   57) = (   0.0423870   0.0635805   0.1059675), wk =   0.0555556
        k(   58) = (   0.0423870   0.0635805  -0.1271610), wk =   0.0277778
        k(   59) = (   0.0423870   0.0847740   0.0847740), wk =   0.0277778
        k(   60) = (   0.0423870   0.0847740   0.1059675), wk =   0.0555556
[...]
        k(   70) = (   0.0635805   0.0847740   0.1059675), wk =   0.0555556
        k(   71) = (   0.0635805   0.0847740  -0.1271610), wk =   0.0277778
        k(   72) = (   0.0635805   0.1059675   0.1059675), wk =   0.0277778
        k(   73) = (   0.0635805   0.1059675  -0.1271610), wk =   0.0277778
        k(   74) = (   0.0635805  -0.1271610  -0.1271610), wk =   0.0069444
        k(   75) = (   0.0847740   0.0847740   0.0847740), wk =   0.0092593
        k(   76) = (   0.0847740   0.0847740   0.1059675), wk =   0.0277778
        k(   77) = (   0.0847740   0.0847740  -0.1271610), wk =   0.0138889
        k(   78) = (   0.0847740   0.1059675   0.1059675), wk =   0.0277778
        k(   79) = (   0.0847740   0.1059675  -0.1271610), wk =   0.0277778
        k(   80) = (   0.0847740  -0.1271610  -0.1271610), wk =   0.0069444
        k(   81) = (   0.1059675   0.1059675   0.1059675), wk =   0.0092593
        k(   82) = (   0.1059675   0.1059675  -0.1271610), wk =   0.0138889
        k(   83) = (   0.1059675  -0.1271610  -0.1271610), wk =   0.0069444
        k(   84) = (  -0.1271610  -0.1271610  -0.1271610), wk =   0.0011574

     Largest allocated arrays     est. size (Mb)     dimensions
     Largest temporary arrays     est. size (Mb)     dimensions

     Initial potential from superposition of free atoms
     Check: negative starting charge=   -0.308554

     starting charge   61.49996, renormalised to   64.00000

     negative rho (up, down):  3.211E-01 0.000E+00

     *
     * You are using vdW-DF for exchange-correlation in this calculation.
     * Please cite the following three references that made this development
     * possible:
     *
     *   M. Dion, H. Rydberg, E. Schroder, D. C. Langreth, and
     *   B. I. Lundqvist, Phys. Rev. Lett. 92, 246401 (2004).
     *
     *   T. Thonhauser, V. R. Cooper, S. Li, A. Puzder, P. Hyldgaard, and
     *   D. C. Langreth, Phys. Rev. B 76, 125112 (2007).
     *
     *   G. Roman-Perez and J. M. Soler, Phys. Rev. Lett. 103, 096102 (2009).
     *
     *
     * If you are using vdW-DF2, please also cite:
     *
     *   K. Lee, E. D. Murray, L. Kong, B. I. Lundqvist, and
     *   D. C. Langreth, Phys. Rev. B 82, 081101(R) (2010).
     *
     *
     * If you are calculating the stress with vdW-DF, please also cite:
     *
     *   R. Sabatini, E. Kucukbenli, B. Kolb, T. Thonhauser, and
     *   S. de Gironcoli, J. Phys.: Condens. Matter 24, 424209 (2012).
     *

     Carrying out vdW-DF run using the following parameters:

     Nqs =      20    Nr_points =    1024   r_max =   100.000
     q_mesh =
               0.00001000     0.04494208     0.09755937     0.15916263
               0.23128650     0.31572767     0.41458969     0.53033537
               0.66584808     0.82450364     1.01025438     1.22772762
               1.48234092     1.78043706     2.12944203     2.53805004
               3.01644009     3.57652955     4.23227104     5.00000000

     Gradients computed in reciprocal space

     Starting wfc are   49 randomized atomic wfcs +    3 random wfc

     Self-consistent Calculation

     iteration #  1     ecut=    58.80 Ry     beta=0.10
     Davidson diagonalization with overlap
     ethr =  1.00E-02,  avg # of iterations =  4.5

[...]

     total energy              =    -795.82292843 Ry
     Harris-Foulkes estimate   =    -796.41581427 Ry
     estimated scf accuracy    <      10.17628329 Ry

[...]

     total energy              =    -794.51381154 Ry
     Harris-Foulkes estimate   =    -794.51381088 Ry
     estimated scf accuracy    <       0.00000002 Ry

     iteration # 17     ecut=    58.80 Ry     beta=0.10
     Davidson diagonalization with overlap
     ethr =  2.49E-11,  avg # of iterations =  2.2

     negative rho (up, down):  3.222E-01 0.000E+00

     End of self-consistent calculation

          k = 0.0000 0.0000 0.0000 (  3119 PWs)   bands (ev):

   -54.0701 -31.8716 -31.8716 -31.8716 -31.7588 -31.7588 -31.7588 -31.6028
   -31.6028 -31.6028 -24.0169 -24.0169 -24.0169  11.5239  13.1510  13.1510
    13.1521  13.4496  13.4496  13.4496  15.6760  15.6760  15.6760  17.1880
    17.1880  18.0182  18.4226  18.4226  18.4226  19.0042  19.0042  19.5637
    19.5637  19.5637  21.8739  21.8739  21.8739  29.2420  29.2420  29.4161
    31.2267  31.2267  31.2267  32.0625  32.0625  32.0625  35.5798  39.5280
    39.5280  39.8892  39.8892  39.8892

[...]

          k = 0.1060-0.1272-0.1272 (  3140 PWs)   bands (ev):

[...]

          k =-0.1272-0.1272-0.1272 (  3112 PWs)   bands (ev):

   -54.0696 -31.8849 -31.8849 -31.8849 -31.8835 -31.6759 -31.6759 -31.6759
   -31.5772 -31.5772 -24.0206 -24.0206 -24.0206  13.2263  13.3013  13.3013
    13.3013  15.4075  15.4075  15.4075  15.6769  15.6769  15.6769  15.8599
    15.8599  18.0954  18.0954  18.0954  18.9770  18.9770  18.9770  19.0717
    19.0717  19.4993  19.5733  19.5733  19.5733  25.8995  25.8995  25.8995
    26.1292  34.8328  34.8328  34.8328  35.0673  38.7065  38.7065  38.7065
    39.7590  40.3392  40.3392  40.3392

     the Fermi energy is    18.5481 ev

!    total energy              =    -794.51381437 Ry
     Harris-Foulkes estimate   =    -794.51381154 Ry
     estimated scf accuracy    <          2.5E-10 Ry

     The total energy is the sum of the following terms:

     one-electron contribution =    -180.02513579 Ry
     hartree contribution      =     141.85044965 Ry
     xc contribution           =    -124.47718534 Ry
     ewald contribution        =    -631.84596182 Ry
     smearing contrib. (-TS)   =      -0.01598107 Ry

     convergence has been achieved in  17 iterations

     Forces acting on atoms (Ry/au):

     negative rho (up, down):  3.222E-01 0.000E+00
     atom    1 type  1   force =     0.00000000    0.00000000    0.00000000
     atom    2 type  1   force =     0.00000000    0.00000000    0.00000000
     atom    3 type  1   force =     0.00000000    0.00000000    0.00000000
     atom    4 type  2   force =     0.00000000   -0.00000000   -0.00000000

     Total force =     0.000000     Total SCF correction =     0.000000
 !ASE

     General routines

     Parallel routines

   This run was terminated on:   6: 2:35  25Oct2017

   JOB DONE.