     Program PWSCF v.5.1rc2 (svn rev. ) starts on 25Oct2017 at  6:15:11

     Current dimensions of program PWSCF are:
     Max number of different atomic species (ntypx) = 10
     Max number of k-points (npk) =  40000
     Max angular momentum in pseudopotentials (lmaxx) =  3

     IMPORTANT: XC functional enforced from input :
     Exchange-correlation      = BEEF-VDW ( 1  4 27 13 2)
     Any further DFT definition will be discarded
     Please, verify this is what you really want

     Subspace diagonalization in iterative solution of the eigenvalue problem:
     a serial algorithm will be used

     bravais-lattice index     =            0
     lattice parameter (alat)  =       1.8897  a.u.
     unit-cell volume          =     434.5086 (a.u.)^3
     number of atoms/cell      =            4
     number of atomic types    =            2
     number of electrons       =        61.00
     number of Kohn-Sham states=           50
     kinetic-energy cutoff     =      58.7989  Ry
     charge density cutoff     =     587.9892  Ry
     convergence threshold     =      7.3E-09
     mixing beta               =       0.1000
     number of iterations used =           10  local-TF  mixing
     Exchange-correlation      = BEEF-VDW ( 1  4 27 13 2)
     nstep                     =           50

     celldm(1)=   1.889726  celldm(2)=   0.000000  celldm(3)=   0.000000
     celldm(4)=   0.000000  celldm(5)=   0.000000  celldm(6)=   0.000000

     crystal axes: (cart. coord. in units of alat)
               a(1) = (   4.008057   0.000000   0.000000 )
               a(2) = (   0.000000   4.008057   0.000000 )
               a(3) = (   0.000000   0.000000   4.008057 )

     reciprocal axes: (cart. coord. in units 2 pi/alat)
               b(1) = (  0.249497  0.000000  0.000000 )
               b(2) = (  0.000000  0.249497  0.000000 )
               b(3) = (  0.000000  0.000000  0.249497 )

     PseudoPot. # 1 for Pt read from file:
     /home/vossj/suncat/psp/gbrv1.5pbe/Pt.UPF
     MD5 check sum: f09d6de1a584b5a045c4fc126da2d0c4
     Pseudo is Ultrasoft + core correction, Zval = 16.0
     Generated by new atomic code, or converted to UPF format
     Using radial grid of  985 points,  6 beta functions with:
                l(1) =   0
                l(2) =   0
                l(3) =   1
                l(4) =   1
                l(5) =   2
                l(6) =   2
     Q(r) pseudized with  8 coefficients,  rinner =    1.300   1.300   1.300
                                                       1.300   1.300

     PseudoPot. # 2 for Ta read from file:
     /home/vossj/suncat/psp/gbrv1.5pbe/Ta.UPF
     MD5 check sum: f8bbe9446314a3b8ea5d9f3e3836c939
     Pseudo is Ultrasoft + core correction, Zval = 13.0
     Generated by new atomic code, or converted to UPF format
     Using radial grid of  921 points,  7 beta functions with:
                l(1) =   0
                l(2) =   0
                l(3) =   1
                l(4) =   1
                l(5) =   2
                l(6) =   2
                l(7) =   3
     Q(r) pseudized with  6 coefficients,  rinner =    1.300   1.300   1.300
                                                       1.300   1.300   1.300
                                                       1.300

     vdW kernel table read from file vdW_kernel_table
     MD5 check sum: 095c7af220d748ca6e76c0b4c6cfb241

     atomic species   valence    mass     pseudopotential
        Pt1           16.00   195.08400     Pt( 1.00)
        Ta1           13.00   180.94788     Ta( 1.00)

     48 Sym. Ops., with inversion, found (32 have fractional translation)

   Cartesian axes

     site n.     atom                  positions (alat units)
         1           Pt1 tau(   1) = (   0.0000000   0.0000000   0.0000000  )
         2           Pt1 tau(   2) = (   0.0000000   2.0040287   2.0040287  )
         3           Pt1 tau(   3) = (   2.0040287   0.0000000   2.0040287  )
         4           Ta1 tau(   4) = (   2.0040287   2.0040287   0.0000000  )

     number of k points=    84  Fermi-Dirac smearing, width (Ry)=  0.0073
                       cart. coord. in units 2pi/alat
        k(    1) = (   0.0000000   0.0000000   0.0000000), wk =   0.0011574
        k(    2) = (   0.0000000   0.0000000   0.0207915), wk =   0.0069444
        k(    3) = (   0.0000000   0.0000000   0.0415829), wk =   0.0069444
        k(    4) = (   0.0000000   0.0000000   0.0623744), wk =   0.0069444
        k(    5) = (   0.0000000   0.0000000   0.0831658), wk =   0.0069444
        k(    6) = (   0.0000000   0.0000000   0.1039573), wk =   0.0069444
        k(    7) = (   0.0000000   0.0000000  -0.1247487), wk =   0.0034722
        k(    8) = (   0.0000000   0.0207915   0.0207915), wk =   0.0138889
        k(    9) = (   0.0000000   0.0207915   0.0415829), wk =   0.0277778
        k(   10) = (   0.0000000   0.0207915   0.0623744), wk =   0.0277778
        k(   11) = (   0.0000000   0.0207915   0.0831658), wk =   0.0277778
        k(   12) = (   0.0000000   0.0207915   0.1039573), wk =   0.0277778
        k(   13) = (   0.0000000   0.0207915  -0.1247487), wk =   0.0138889
        k(   14) = (   0.0000000   0.0415829   0.0415829), wk =   0.0138889
        k(   15) = (   0.0000000   0.0415829   0.0623744), wk =   0.0277778
        k(   16) = (   0.0000000   0.0415829   0.0831658), wk =   0.0277778
        k(   17) = (   0.0000000   0.0415829   0.1039573), wk =   0.0277778
        k(   18) = (   0.0000000   0.0415829  -0.1247487), wk =   0.0138889
        k(   19) = (   0.0000000   0.0623744   0.0623744), wk =   0.0138889
        k(   20) = (   0.0000000   0.0623744   0.0831658), wk =   0.0277778
        k(   21) = (   0.0000000   0.0623744   0.1039573), wk =   0.0277778
        k(   22) = (   0.0000000   0.0623744  -0.1247487), wk =   0.0138889
        k(   23) = (   0.0000000   0.0831658   0.0831658), wk =   0.0138889
        k(   24) = (   0.0000000   0.0831658   0.1039573), wk =   0.0277778
        k(   25) = (   0.0000000   0.0831658  -0.1247487), wk =   0.0138889
        k(   26) = (   0.0000000   0.1039573   0.1039573), wk =   0.0138889
        k(   27) = (   0.0000000   0.1039573  -0.1247487), wk =   0.0138889
        k(   28) = (   0.0000000  -0.1247487  -0.1247487), wk =   0.0034722
        k(   29) = (   0.0207915   0.0207915   0.0207915), wk =   0.0092593
        k(   30) = (   0.0207915   0.0207915   0.0415829), wk =   0.0277778
        k(   31) = (   0.0207915   0.0207915   0.0623744), wk =   0.0277778
        k(   32) = (   0.0207915   0.0207915   0.0831658), wk =   0.0277778
        k(   33) = (   0.0207915   0.0207915   0.1039573), wk =   0.0277778
        k(   34) = (   0.0207915   0.0207915  -0.1247487), wk =   0.0138889
        k(   35) = (   0.0207915   0.0415829   0.0415829), wk =   0.0277778
        k(   36) = (   0.0207915   0.0415829   0.0623744), wk =   0.0555556
        k(   37) = (   0.0207915   0.0415829   0.0831658), wk =   0.0555556
        k(   38) = (   0.0207915   0.0415829   0.1039573), wk =   0.0555556
        k(   39) = (   0.0207915   0.0415829  -0.1247487), wk =   0.0277778
        k(   40) = (   0.0207915   0.0623744   0.0623744), wk =   0.0277778
        k(   41) = (   0.0207915   0.0623744   0.0831658), wk =   0.0555556
        k(   42) = (   0.0207915   0.0623744   0.1039573), wk =   0.0555556
        k(   43) = (   0.0207915   0.0623744  -0.1247487), wk =   0.0277778
        k(   44) = (   0.0207915   0.0831658   0.0831658), wk =   0.0277778
        k(   45) = (   0.0207915   0.0831658   0.1039573), wk =   0.0555556
        k(   46) = (   0.0207915   0.0831658  -0.1247487), wk =   0.0277778
        k(   47) = (   0.0207915   0.1039573   0.1039573), wk =   0.0277778
        k(   48) = (   0.0207915   0.1039573  -0.1247487), wk =   0.0277778
        k(   49) = (   0.0207915  -0.1247487  -0.1247487), wk =   0.0069444
        k(   50) = (   0.0415829   0.0415829   0.0415829), wk =   0.0092593
        k(   51) = (   0.0415829   0.0415829   0.0623744), wk =   0.0277778
        k(   52) = (   0.0415829   0.0415829   0.0831658), wk =   0.0277778
        k(   53) = (   0.0415829   0.0415829   0.1039573), wk =   0.0277778
        k(   54) = (   0.0415829   0.0415829  -0.1247487), wk =   0.0138889
        k(   55) = (   0.0415829   0.0623744   0.0623744), wk =   0.0277778
        k(   56) = (   0.0415829   0.0623744   0.0831658), wk =   0.0555556
        k(   57) = (   0.0415829   0.0623744   0.1039573), wk =   0.0555556
        k(   58) = (   0.0415829   0.0623744  -0.1247487), wk =   0.0277778
        k(   59) = (   0.0415829   0.0831658   0.0831658), wk =   0.0277778
        k(   60) = (   0.0415829   0.0831658   0.1039573), wk =   0.0555556
[...]
        k(   70) = (   0.0623744   0.0831658   0.1039573), wk =   0.0555556
        k(   71) = (   0.0623744   0.0831658  -0.1247487), wk =   0.0277778
        k(   72) = (   0.0623744   0.1039573   0.1039573), wk =   0.0277778
        k(   73) = (   0.0623744   0.1039573  -0.1247487), wk =   0.0277778
        k(   74) = (   0.0623744  -0.1247487  -0.1247487), wk =   0.0069444
        k(   75) = (   0.0831658   0.0831658   0.0831658), wk =   0.0092593
        k(   76) = (   0.0831658   0.0831658   0.1039573), wk =   0.0277778
        k(   77) = (   0.0831658   0.0831658  -0.1247487), wk =   0.0138889
        k(   78) = (   0.0831658   0.1039573   0.1039573), wk =   0.0277778
        k(   79) = (   0.0831658   0.1039573  -0.1247487), wk =   0.0277778
        k(   80) = (   0.0831658  -0.1247487  -0.1247487), wk =   0.0069444
        k(   81) = (   0.1039573   0.1039573   0.1039573), wk =   0.0092593
        k(   82) = (   0.1039573   0.1039573  -0.1247487), wk =   0.0138889
        k(   83) = (   0.1039573  -0.1247487  -0.1247487), wk =   0.0069444
        k(   84) = (  -0.1247487  -0.1247487  -0.1247487), wk =   0.0011574

     Largest allocated arrays     est. size (Mb)     dimensions
     Largest temporary arrays     est. size (Mb)     dimensions

     Initial potential from superposition of free atoms
     Check: negative starting charge=   -0.645120

     starting charge   59.49885, renormalised to   61.00000

     negative rho (up, down):  6.614E-01 0.000E+00

     *
     * You are using vdW-DF for exchange-correlation in this calculation.
     * Please cite the following three references that made this development
     * possible:
     *
     *   M. Dion, H. Rydberg, E. Schroder, D. C. Langreth, and
     *   B. I. Lundqvist, Phys. Rev. Lett. 92, 246401 (2004).
     *
     *   T. Thonhauser, V. R. Cooper, S. Li, A. Puzder, P. Hyldgaard, and
     *   D. C. Langreth, Phys. Rev. B 76, 125112 (2007).
     *
     *   G. Roman-Perez and J. M. Soler, Phys. Rev. Lett. 103, 096102 (2009).
     *
     *
     * If you are using vdW-DF2, please also cite:
     *
     *   K. Lee, E. D. Murray, L. Kong, B. I. Lundqvist, and
     *   D. C. Langreth, Phys. Rev. B 82, 081101(R) (2010).
     *
     *
     * If you are calculating the stress with vdW-DF, please also cite:
     *
     *   R. Sabatini, E. Kucukbenli, B. Kolb, T. Thonhauser, and
     *   S. de Gironcoli, J. Phys.: Condens. Matter 24, 424209 (2012).
     *

     Carrying out vdW-DF run using the following parameters:

     Nqs =      20    Nr_points =    1024   r_max =   100.000
     q_mesh =
               0.00001000     0.04494208     0.09755937     0.15916263
               0.23128650     0.31572767     0.41458969     0.53033537
               0.66584808     0.82450364     1.01025438     1.22772762
               1.48234092     1.78043706     2.12944203     2.53805004
               3.01644009     3.57652955     4.23227104     5.00000000

     Gradients computed in reciprocal space

     Starting wfc are   49 randomized atomic wfcs +    1 random wfc

     Self-consistent Calculation

     iteration #  1     ecut=    58.80 Ry     beta=0.10
     Davidson diagonalization with overlap
     ethr =  1.00E-02,  avg # of iterations =  4.4

[...]

     total energy              =    -781.05415748 Ry
     Harris-Foulkes estimate   =    -781.30626940 Ry
     estimated scf accuracy    <       4.39678763 Ry

[...]

     total energy              =    -780.54024939 Ry
     Harris-Foulkes estimate   =    -780.54024753 Ry
     estimated scf accuracy    <          1.0E-08 Ry

     iteration # 13     ecut=    58.80 Ry     beta=0.10
     Davidson diagonalization with overlap
     ethr =  1.63E-11,  avg # of iterations =  1.2

     negative rho (up, down):  6.317E-01 0.000E+00

     End of self-consistent calculation

          k = 0.0000 0.0000 0.0000 (  3287 PWs)   bands (ev):

   -48.1780 -32.1585 -32.1585 -32.1585 -32.0448 -32.0448 -32.0448 -31.8904
   -31.8904 -31.8904 -14.4519 -14.4519 -14.4519  11.3901  14.3995  14.3995
    14.4950  14.9455  14.9455  14.9455  17.6972  17.6972  17.6972  19.5539
    19.5539  20.5589  21.1122  21.1122  21.1122  22.9994  22.9994  22.9994
    23.3250  23.3250  24.6983  24.6983  24.6983  30.2725  30.2725  31.3766
    31.3766  31.3766  31.4020  33.0643  33.0643  33.0643  34.9397  39.8034
    40.6805  40.6807

[...]

          k = 0.1040-0.1247-0.1247 (  3300 PWs)   bands (ev):

[...]

          k =-0.1247-0.1247-0.1247 (  3328 PWs)   bands (ev):

   -48.1771 -32.1729 -32.1701 -32.1701 -32.1701 -31.9606 -31.9606 -31.9606
   -31.8671 -31.8671 -14.4666 -14.4666 -14.4666  14.2321  14.2321  14.2321
    14.3175  17.1459  17.1459  17.1459  17.7128  17.7128  17.7128  18.0958
    18.0958  20.6476  20.6647  20.6647  20.6647  20.8393  20.8393  20.8393
    22.7713  22.7713  22.7713  23.9345  23.9345  28.2377  28.2377  28.2377
    28.4270  34.3958  34.3958  34.3958  34.7697  38.4727  38.4727  38.4727
    39.2485  39.2485

     the Fermi energy is    21.7765 ev

!    total energy              =    -780.54025727 Ry
     Harris-Foulkes estimate   =    -780.54024940 Ry
     estimated scf accuracy    <          3.4E-09 Ry

     The total energy is the sum of the following terms:

     one-electron contribution =     -90.17887091 Ry
     hartree contribution      =      94.44777099 Ry
     xc contribution           =    -219.67870962 Ry
     ewald contribution        =    -565.11932312 Ry
     smearing contrib. (-TS)   =      -0.01112460 Ry

     convergence has been achieved in  13 iterations

     Forces acting on atoms (Ry/au):

     negative rho (up, down):  6.317E-01 0.000E+00
     atom    1 type  1   force =     0.00000000    0.00000000    0.00000000
     atom    2 type  1   force =     0.00000000    0.00000000   -0.00000000
     atom    3 type  1   force =     0.00000000    0.00000000   -0.00000000
     atom    4 type  2   force =     0.00000000    0.00000000    0.00000000

     Total force =     0.000000     Total SCF correction =     0.000000
 !ASE

     General routines

     Parallel routines

   This run was terminated on:   6:16: 5  25Oct2017

   JOB DONE.