     Program PWSCF v.5.1rc2 (svn rev. ) starts on 25Oct2017 at 21:28:42

     Current dimensions of program PWSCF are:
     Max number of different atomic species (ntypx) = 10
     Max number of k-points (npk) =  40000
     Max angular momentum in pseudopotentials (lmaxx) =  3

     IMPORTANT: XC functional enforced from input :
     Exchange-correlation      = BEEF-VDW ( 1  4 27 13 2)
     Any further DFT definition will be discarded
     Please, verify this is what you really want

     Subspace diagonalization in iterative solution of the eigenvalue problem:
     a serial algorithm will be used

     bravais-lattice index     =            0
     lattice parameter (alat)  =       1.8897  a.u.
     unit-cell volume          =     342.8565 (a.u.)^3
     number of atoms/cell      =            4
     number of atomic types    =            2
     number of electrons       =        77.00
     number of Kohn-Sham states=           58
     kinetic-energy cutoff     =      58.7989  Ry
     charge density cutoff     =     587.9892  Ry
     convergence threshold     =      7.3E-09
     mixing beta               =       0.1000
     number of iterations used =           10  local-TF  mixing
     Exchange-correlation      = BEEF-VDW ( 1  4 27 13 2)
     nstep                     =           50

     celldm(1)=   1.889726  celldm(2)=   0.000000  celldm(3)=   0.000000
     celldm(4)=   0.000000  celldm(5)=   0.000000  celldm(6)=   0.000000

     crystal axes: (cart. coord. in units of alat)
               a(1) = (   3.703724   0.000000   0.000000 )
               a(2) = (   0.000000   3.703724   0.000000 )
               a(3) = (   0.000000   0.000000   3.703724 )

     reciprocal axes: (cart. coord. in units 2 pi/alat)
               b(1) = (  0.269999  0.000000  0.000000 )
               b(2) = (  0.000000  0.269999  0.000000 )
               b(3) = (  0.000000  0.000000  0.269999 )

     PseudoPot. # 1 for Cu read from file:
     /home/vossj/suncat/psp/gbrv1.5pbe/Cu.UPF
     MD5 check sum: 6e991ff952a84172a2a52a1c1e996048
     Pseudo is Ultrasoft + core correction, Zval = 19.0
     Generated by new atomic code, or converted to UPF format
     Using radial grid of  867 points,  6 beta functions with:
                l(1) =   0
                l(2) =   0
                l(3) =   1
                l(4) =   1
                l(5) =   2
                l(6) =   2
     Q(r) pseudized with  8 coefficients,  rinner =    1.150   1.150   1.150
                                                       1.150   1.150

     PseudoPot. # 2 for Zn read from file:
     /home/vossj/suncat/psp/gbrv1.5pbe/Zn.UPF
     MD5 check sum: df62231357ef9e81f77b2b3087fa5675
     Pseudo is Ultrasoft, Zval = 20.0
     Generated by new atomic code, or converted to UPF format
     Using radial grid of  943 points,  6 beta functions with:
                l(1) =   0
                l(2) =   0
                l(3) =   1
                l(4) =   1
                l(5) =   2
                l(6) =   2
     Q(r) pseudized with  8 coefficients,  rinner =    1.100   1.100   1.100
                                                       1.100   1.100

     vdW kernel table read from file vdW_kernel_table
     MD5 check sum: 095c7af220d748ca6e76c0b4c6cfb241

     atomic species   valence    mass     pseudopotential
        Cu1           19.00    63.54600     Cu( 1.00)
        Zn1           20.00    65.38000     Zn( 1.00)

     48 Sym. Ops., with inversion, found (32 have fractional translation)

   Cartesian axes

     site n.     atom                  positions (alat units)
         1           Cu1 tau(   1) = (   0.0000000   0.0000000   0.0000000  )
         2           Cu1 tau(   2) = (   0.0000000   1.8518619   1.8518619  )
         3           Cu1 tau(   3) = (   1.8518619   0.0000000   1.8518619  )
         4           Zn1 tau(   4) = (   1.8518619   1.8518619   0.0000000  )

     number of k points=    84  Fermi-Dirac smearing, width (Ry)=  0.0073
                       cart. coord. in units 2pi/alat
        k(    1) = (   0.0000000   0.0000000   0.0000000), wk =   0.0011574
        k(    2) = (   0.0000000   0.0000000   0.0224999), wk =   0.0069444
        k(    3) = (   0.0000000   0.0000000   0.0449998), wk =   0.0069444
        k(    4) = (   0.0000000   0.0000000   0.0674996), wk =   0.0069444
        k(    5) = (   0.0000000   0.0000000   0.0899995), wk =   0.0069444
        k(    6) = (   0.0000000   0.0000000   0.1124994), wk =   0.0069444
        k(    7) = (   0.0000000   0.0000000  -0.1349993), wk =   0.0034722
        k(    8) = (   0.0000000   0.0224999   0.0224999), wk =   0.0138889
        k(    9) = (   0.0000000   0.0224999   0.0449998), wk =   0.0277778
        k(   10) = (   0.0000000   0.0224999   0.0674996), wk =   0.0277778
        k(   11) = (   0.0000000   0.0224999   0.0899995), wk =   0.0277778
        k(   12) = (   0.0000000   0.0224999   0.1124994), wk =   0.0277778
        k(   13) = (   0.0000000   0.0224999  -0.1349993), wk =   0.0138889
        k(   14) = (   0.0000000   0.0449998   0.0449998), wk =   0.0138889
        k(   15) = (   0.0000000   0.0449998   0.0674996), wk =   0.0277778
        k(   16) = (   0.0000000   0.0449998   0.0899995), wk =   0.0277778
        k(   17) = (   0.0000000   0.0449998   0.1124994), wk =   0.0277778
        k(   18) = (   0.0000000   0.0449998  -0.1349993), wk =   0.0138889
        k(   19) = (   0.0000000   0.0674996   0.0674996), wk =   0.0138889
        k(   20) = (   0.0000000   0.0674996   0.0899995), wk =   0.0277778
        k(   21) = (   0.0000000   0.0674996   0.1124994), wk =   0.0277778
        k(   22) = (   0.0000000   0.0674996  -0.1349993), wk =   0.0138889
        k(   23) = (   0.0000000   0.0899995   0.0899995), wk =   0.0138889
        k(   24) = (   0.0000000   0.0899995   0.1124994), wk =   0.0277778
        k(   25) = (   0.0000000   0.0899995  -0.1349993), wk =   0.0138889
        k(   26) = (   0.0000000   0.1124994   0.1124994), wk =   0.0138889
        k(   27) = (   0.0000000   0.1124994  -0.1349993), wk =   0.0138889
        k(   28) = (   0.0000000  -0.1349993  -0.1349993), wk =   0.0034722
        k(   29) = (   0.0224999   0.0224999   0.0224999), wk =   0.0092593
        k(   30) = (   0.0224999   0.0224999   0.0449998), wk =   0.0277778
        k(   31) = (   0.0224999   0.0224999   0.0674996), wk =   0.0277778
        k(   32) = (   0.0224999   0.0224999   0.0899995), wk =   0.0277778
        k(   33) = (   0.0224999   0.0224999   0.1124994), wk =   0.0277778
        k(   34) = (   0.0224999   0.0224999  -0.1349993), wk =   0.0138889
        k(   35) = (   0.0224999   0.0449998   0.0449998), wk =   0.0277778
        k(   36) = (   0.0224999   0.0449998   0.0674996), wk =   0.0555556
        k(   37) = (   0.0224999   0.0449998   0.0899995), wk =   0.0555556
        k(   38) = (   0.0224999   0.0449998   0.1124994), wk =   0.0555556
        k(   39) = (   0.0224999   0.0449998  -0.1349993), wk =   0.0277778
        k(   40) = (   0.0224999   0.0674996   0.0674996), wk =   0.0277778
        k(   41) = (   0.0224999   0.0674996   0.0899995), wk =   0.0555556
        k(   42) = (   0.0224999   0.0674996   0.1124994), wk =   0.0555556
        k(   43) = (   0.0224999   0.0674996  -0.1349993), wk =   0.0277778
        k(   44) = (   0.0224999   0.0899995   0.0899995), wk =   0.0277778
        k(   45) = (   0.0224999   0.0899995   0.1124994), wk =   0.0555556
        k(   46) = (   0.0224999   0.0899995  -0.1349993), wk =   0.0277778
        k(   47) = (   0.0224999   0.1124994   0.1124994), wk =   0.0277778
        k(   48) = (   0.0224999   0.1124994  -0.1349993), wk =   0.0277778
        k(   49) = (   0.0224999  -0.1349993  -0.1349993), wk =   0.0069444
        k(   50) = (   0.0449998   0.0449998   0.0449998), wk =   0.0092593
        k(   51) = (   0.0449998   0.0449998   0.0674996), wk =   0.0277778
        k(   52) = (   0.0449998   0.0449998   0.0899995), wk =   0.0277778
        k(   53) = (   0.0449998   0.0449998   0.1124994), wk =   0.0277778
        k(   54) = (   0.0449998   0.0449998  -0.1349993), wk =   0.0138889
        k(   55) = (   0.0449998   0.0674996   0.0674996), wk =   0.0277778
        k(   56) = (   0.0449998   0.0674996   0.0899995), wk =   0.0555556
        k(   57) = (   0.0449998   0.0674996   0.1124994), wk =   0.0555556
        k(   58) = (   0.0449998   0.0674996  -0.1349993), wk =   0.0277778
        k(   59) = (   0.0449998   0.0899995   0.0899995), wk =   0.0277778
        k(   60) = (   0.0449998   0.0899995   0.1124994), wk =   0.0555556
[...]
        k(   70) = (   0.0674996   0.0899995   0.1124994), wk =   0.0555556
        k(   71) = (   0.0674996   0.0899995  -0.1349993), wk =   0.0277778
        k(   72) = (   0.0674996   0.1124994   0.1124994), wk =   0.0277778
        k(   73) = (   0.0674996   0.1124994  -0.1349993), wk =   0.0277778
        k(   74) = (   0.0674996  -0.1349993  -0.1349993), wk =   0.0069444
        k(   75) = (   0.0899995   0.0899995   0.0899995), wk =   0.0092593
        k(   76) = (   0.0899995   0.0899995   0.1124994), wk =   0.0277778
        k(   77) = (   0.0899995   0.0899995  -0.1349993), wk =   0.0138889
        k(   78) = (   0.0899995   0.1124994   0.1124994), wk =   0.0277778
        k(   79) = (   0.0899995   0.1124994  -0.1349993), wk =   0.0277778
        k(   80) = (   0.0899995  -0.1349993  -0.1349993), wk =   0.0069444
        k(   81) = (   0.1124994   0.1124994   0.1124994), wk =   0.0092593
        k(   82) = (   0.1124994   0.1124994  -0.1349993), wk =   0.0138889
        k(   83) = (   0.1124994  -0.1349993  -0.1349993), wk =   0.0069444
        k(   84) = (  -0.1349993  -0.1349993  -0.1349993), wk =   0.0011574

     Largest allocated arrays     est. size (Mb)     dimensions
     Largest temporary arrays     est. size (Mb)     dimensions

     Initial potential from superposition of free atoms

     starting charge   73.99985, renormalised to   77.00000

     *
     * You are using vdW-DF for exchange-correlation in this calculation.
     * Please cite the following three references that made this development
     * possible:
     *
     *   M. Dion, H. Rydberg, E. Schroder, D. C. Langreth, and
     *   B. I. Lundqvist, Phys. Rev. Lett. 92, 246401 (2004).
     *
     *   T. Thonhauser, V. R. Cooper, S. Li, A. Puzder, P. Hyldgaard, and
     *   D. C. Langreth, Phys. Rev. B 76, 125112 (2007).
     *
     *   G. Roman-Perez and J. M. Soler, Phys. Rev. Lett. 103, 096102 (2009).
     *
     *
     * If you are using vdW-DF2, please also cite:
     *
     *   K. Lee, E. D. Murray, L. Kong, B. I. Lundqvist, and
     *   D. C. Langreth, Phys. Rev. B 82, 081101(R) (2010).
     *
     *
     * If you are calculating the stress with vdW-DF, please also cite:
     *
     *   R. Sabatini, E. Kucukbenli, B. Kolb, T. Thonhauser, and
     *   S. de Gironcoli, J. Phys.: Condens. Matter 24, 424209 (2012).
     *

     Carrying out vdW-DF run using the following parameters:

     Nqs =      20    Nr_points =    1024   r_max =   100.000
     q_mesh =
               0.00001000     0.04494208     0.09755937     0.15916263
               0.23128650     0.31572767     0.41458969     0.53033537
               0.66584808     0.82450364     1.01025438     1.22772762
               1.48234092     1.78043706     2.12944203     2.53805004
               3.01644009     3.57652955     4.23227104     5.00000000

     Gradients computed in reciprocal space

     Starting wfc are   52 randomized atomic wfcs +    6 random wfc

     Self-consistent Calculation

     iteration #  1     ecut=    58.80 Ry     beta=0.10
     Davidson diagonalization with overlap
     ethr =  1.00E-02,  avg # of iterations =  4.2

     total energy              =   -1678.77437882 Ry
     Harris-Foulkes estimate   =   -1681.77990240 Ry
     estimated scf accuracy    <      48.78330282 Ry

[...]

     total energy              =   -1677.68321191 Ry
     Harris-Foulkes estimate   =   -1677.68320992 Ry
     estimated scf accuracy    <       0.00000006 Ry

     iteration # 17     ecut=    58.80 Ry     beta=0.10
     Davidson diagonalization with overlap
     ethr =  1.76E-11,  avg # of iterations =  2.2

     End of self-consistent calculation

          k = 0.0000 0.0000 0.0000 (  2553 PWs)   bands (ev):

  -111.4519 -97.8234 -97.8137 -97.8137 -65.6296 -65.6296 -65.6296 -55.2401
   -55.2401 -55.2401 -55.2213 -55.2213 -55.2213 -55.1655 -55.1655 -55.1655
     5.3731   7.2996   7.2996   7.5135   7.5135   7.5135  10.1234  11.1284
    11.1284  11.1284  11.2675  11.2675  12.4140  12.4140  12.4140  12.7928
    12.7928  13.0221  13.2180  13.2180  13.2180  15.7708  15.7708  15.7708
    20.2556  20.7743  20.7743  26.4118  26.4118  26.4118  27.0518  27.0518
    27.0518  31.0217  31.0217  31.0217  32.6273  33.4180  33.4180  36.4993
    38.3050  38.3050

[...]

          k = 0.1125-0.1350-0.1350 (  2576 PWs)   bands (ev):

[...]

          k =-0.1350-0.1350-0.1350 (  2608 PWs)   bands (ev):

  -111.4519 -97.8169 -97.8169 -97.8169 -65.6297 -65.6297 -65.6297 -55.2479
   -55.2479 -55.2479 -55.2227 -55.2025 -55.2025 -55.2025 -55.1548 -55.1548
     7.3014   7.3014   7.3014   7.7110   7.7110   9.4129  10.8075  10.8075
    10.8075  11.7747  11.7747  11.7747  12.4451  12.4451  12.4451  12.5668
    12.5668  13.0692  13.0692  13.0692  13.3018  13.3018  13.3018  14.0115
    16.7355  17.6445  17.6445  17.6445  34.2127  34.2127  34.2127  35.0338
    35.0338  35.0338  35.1940  35.4184  35.4184  35.4184  35.6869  35.6869
    37.4563  37.4563

     the Fermi energy is    15.0219 ev

!    total energy              =   -1677.68322054 Ry
     Harris-Foulkes estimate   =   -1677.68321192 Ry
     estimated scf accuracy    <          3.2E-10 Ry

     The total energy is the sum of the following terms:

     one-electron contribution =   -1170.54059881 Ry
     hartree contribution      =     627.65841112 Ry
     xc contribution           =    -163.57679098 Ry
     ewald contribution        =    -971.22159732 Ry
     smearing contrib. (-TS)   =      -0.00264454 Ry

     convergence has been achieved in  17 iterations

     Forces acting on atoms (Ry/au):

     atom    1 type  1   force =     0.00000000    0.00000000    0.00000000
     atom    2 type  1   force =     0.00000000    0.00000000    0.00000000
     atom    3 type  1   force =     0.00000000    0.00000000   -0.00000000
     atom    4 type  2   force =     0.00000000   -0.00000000    0.00000000

     Total force =     0.000000     Total SCF correction =     0.000000
 !ASE

     General routines

     Parallel routines

   This run was terminated on:  21:30:12  25Oct2017

   JOB DONE.