     Program PWSCF v.5.1rc2 (svn rev. ) starts on 25Oct2017 at  0: 6:14

     Current dimensions of program PWSCF are:
     Max number of different atomic species (ntypx) = 10
     Max number of k-points (npk) =  40000
     Max angular momentum in pseudopotentials (lmaxx) =  3

     IMPORTANT: XC functional enforced from input :
     Exchange-correlation      = BEEF-VDW ( 1  4 27 13 2)
     Any further DFT definition will be discarded
     Please, verify this is what you really want

     Subspace diagonalization in iterative solution of the eigenvalue problem:
     a serial algorithm will be used

     bravais-lattice index     =            0
     lattice parameter (alat)  =       1.8897  a.u.
     unit-cell volume          =     706.9540 (a.u.)^3
     number of atoms/cell      =            4
     number of atomic types    =            2
     number of electrons       =        56.00
     number of Kohn-Sham states=           48
     kinetic-energy cutoff     =      58.7989  Ry
     charge density cutoff     =     587.9892  Ry
     convergence threshold     =      7.3E-09
     mixing beta               =       0.1000
     number of iterations used =           10  local-TF  mixing
     Exchange-correlation      = BEEF-VDW ( 1  4 27 13 2)
     nstep                     =           50

     celldm(1)=   1.889726  celldm(2)=   0.000000  celldm(3)=   0.000000
     celldm(4)=   0.000000  celldm(5)=   0.000000  celldm(6)=   0.000000

     crystal axes: (cart. coord. in units of alat)
               a(1) = (   4.714093   0.000000   0.000000 )
               a(2) = (   0.000000   4.714093   0.000000 )
               a(3) = (   0.000000   0.000000   4.714093 )

     reciprocal axes: (cart. coord. in units 2 pi/alat)
               b(1) = (  0.212130  0.000000  0.000000 )
               b(2) = (  0.000000  0.212130  0.000000 )
               b(3) = (  0.000000  0.000000  0.212130 )

     PseudoPot. # 1 for Pb read from file:
     /home/vossj/suncat/psp/gbrv1.5pbe/Pb.UPF
     MD5 check sum: 3d1c1779aa92214d1e8f3a7db79003e2
     Pseudo is Ultrasoft + core correction, Zval = 14.0
     Generated by new atomic code, or converted to UPF format
     Using radial grid of  899 points,  6 beta functions with:
                l(1) =   0
                l(2) =   0
                l(3) =   1
                l(4) =   1
                l(5) =   2
                l(6) =   2
     Q(r) pseudized with  6 coefficients,  rinner =    1.000   1.000   1.000
                                                       1.000   1.000

     PseudoPot. # 2 for Mo read from file:
     /home/vossj/suncat/psp/gbrv1.5pbe/Mo.UPF
     MD5 check sum: 30c4dcd161f5d35cd49bb5239c51a633
     Pseudo is Ultrasoft + core correction, Zval = 14.0
     Generated by new atomic code, or converted to UPF format
     Using radial grid of  889 points,  6 beta functions with:
                l(1) =   0
                l(2) =   0
                l(3) =   1
                l(4) =   1
                l(5) =   2
                l(6) =   2
     Q(r) pseudized with  6 coefficients,  rinner =    1.000   1.000   1.000
                                                       1.000   1.000

     vdW kernel table read from file vdW_kernel_table
     MD5 check sum: 095c7af220d748ca6e76c0b4c6cfb241

     atomic species   valence    mass     pseudopotential
        Pb1           14.00   207.20000     Pb( 1.00)
        Mo1           14.00    95.95000     Mo( 1.00)

     48 Sym. Ops., with inversion, found (32 have fractional translation)

   Cartesian axes

     site n.     atom                  positions (alat units)
         1           Pb1 tau(   1) = (   0.0000000   0.0000000   0.0000000  )
         2           Pb1 tau(   2) = (   0.0000000   2.3570467   2.3570467  )
         3           Pb1 tau(   3) = (   2.3570467   0.0000000   2.3570467  )
         4           Mo1 tau(   4) = (   2.3570467   2.3570467   0.0000000  )

     number of k points=    84  Fermi-Dirac smearing, width (Ry)=  0.0073
                       cart. coord. in units 2pi/alat
        k(    1) = (   0.0000000   0.0000000   0.0000000), wk =   0.0011574
        k(    2) = (   0.0000000   0.0000000   0.0176775), wk =   0.0069444
        k(    3) = (   0.0000000   0.0000000   0.0353550), wk =   0.0069444
        k(    4) = (   0.0000000   0.0000000   0.0530325), wk =   0.0069444
        k(    5) = (   0.0000000   0.0000000   0.0707100), wk =   0.0069444
        k(    6) = (   0.0000000   0.0000000   0.0883874), wk =   0.0069444
        k(    7) = (   0.0000000   0.0000000  -0.1060649), wk =   0.0034722
        k(    8) = (   0.0000000   0.0176775   0.0176775), wk =   0.0138889
        k(    9) = (   0.0000000   0.0176775   0.0353550), wk =   0.0277778
        k(   10) = (   0.0000000   0.0176775   0.0530325), wk =   0.0277778
        k(   11) = (   0.0000000   0.0176775   0.0707100), wk =   0.0277778
        k(   12) = (   0.0000000   0.0176775   0.0883874), wk =   0.0277778
        k(   13) = (   0.0000000   0.0176775  -0.1060649), wk =   0.0138889
        k(   14) = (   0.0000000   0.0353550   0.0353550), wk =   0.0138889
        k(   15) = (   0.0000000   0.0353550   0.0530325), wk =   0.0277778
        k(   16) = (   0.0000000   0.0353550   0.0707100), wk =   0.0277778
        k(   17) = (   0.0000000   0.0353550   0.0883874), wk =   0.0277778
        k(   18) = (   0.0000000   0.0353550  -0.1060649), wk =   0.0138889
        k(   19) = (   0.0000000   0.0530325   0.0530325), wk =   0.0138889
        k(   20) = (   0.0000000   0.0530325   0.0707100), wk =   0.0277778
        k(   21) = (   0.0000000   0.0530325   0.0883874), wk =   0.0277778
        k(   22) = (   0.0000000   0.0530325  -0.1060649), wk =   0.0138889
        k(   23) = (   0.0000000   0.0707100   0.0707100), wk =   0.0138889
        k(   24) = (   0.0000000   0.0707100   0.0883874), wk =   0.0277778
        k(   25) = (   0.0000000   0.0707100  -0.1060649), wk =   0.0138889
        k(   26) = (   0.0000000   0.0883874   0.0883874), wk =   0.0138889
        k(   27) = (   0.0000000   0.0883874  -0.1060649), wk =   0.0138889
        k(   28) = (   0.0000000  -0.1060649  -0.1060649), wk =   0.0034722
        k(   29) = (   0.0176775   0.0176775   0.0176775), wk =   0.0092593
        k(   30) = (   0.0176775   0.0176775   0.0353550), wk =   0.0277778
        k(   31) = (   0.0176775   0.0176775   0.0530325), wk =   0.0277778
        k(   32) = (   0.0176775   0.0176775   0.0707100), wk =   0.0277778
        k(   33) = (   0.0176775   0.0176775   0.0883874), wk =   0.0277778
        k(   34) = (   0.0176775   0.0176775  -0.1060649), wk =   0.0138889
        k(   35) = (   0.0176775   0.0353550   0.0353550), wk =   0.0277778
        k(   36) = (   0.0176775   0.0353550   0.0530325), wk =   0.0555556
        k(   37) = (   0.0176775   0.0353550   0.0707100), wk =   0.0555556
        k(   38) = (   0.0176775   0.0353550   0.0883874), wk =   0.0555556
        k(   39) = (   0.0176775   0.0353550  -0.1060649), wk =   0.0277778
        k(   40) = (   0.0176775   0.0530325   0.0530325), wk =   0.0277778
        k(   41) = (   0.0176775   0.0530325   0.0707100), wk =   0.0555556
        k(   42) = (   0.0176775   0.0530325   0.0883874), wk =   0.0555556
        k(   43) = (   0.0176775   0.0530325  -0.1060649), wk =   0.0277778
        k(   44) = (   0.0176775   0.0707100   0.0707100), wk =   0.0277778
        k(   45) = (   0.0176775   0.0707100   0.0883874), wk =   0.0555556
        k(   46) = (   0.0176775   0.0707100  -0.1060649), wk =   0.0277778
        k(   47) = (   0.0176775   0.0883874   0.0883874), wk =   0.0277778
        k(   48) = (   0.0176775   0.0883874  -0.1060649), wk =   0.0277778
        k(   49) = (   0.0176775  -0.1060649  -0.1060649), wk =   0.0069444
        k(   50) = (   0.0353550   0.0353550   0.0353550), wk =   0.0092593
        k(   51) = (   0.0353550   0.0353550   0.0530325), wk =   0.0277778
        k(   52) = (   0.0353550   0.0353550   0.0707100), wk =   0.0277778
        k(   53) = (   0.0353550   0.0353550   0.0883874), wk =   0.0277778
        k(   54) = (   0.0353550   0.0353550  -0.1060649), wk =   0.0138889
        k(   55) = (   0.0353550   0.0530325   0.0530325), wk =   0.0277778
        k(   56) = (   0.0353550   0.0530325   0.0707100), wk =   0.0555556
        k(   57) = (   0.0353550   0.0530325   0.0883874), wk =   0.0555556
        k(   58) = (   0.0353550   0.0530325  -0.1060649), wk =   0.0277778
        k(   59) = (   0.0353550   0.0707100   0.0707100), wk =   0.0277778
        k(   60) = (   0.0353550   0.0707100   0.0883874), wk =   0.0555556
[...]
        k(   70) = (   0.0530325   0.0707100   0.0883874), wk =   0.0555556
        k(   71) = (   0.0530325   0.0707100  -0.1060649), wk =   0.0277778
        k(   72) = (   0.0530325   0.0883874   0.0883874), wk =   0.0277778
        k(   73) = (   0.0530325   0.0883874  -0.1060649), wk =   0.0277778
        k(   74) = (   0.0530325  -0.1060649  -0.1060649), wk =   0.0069444
        k(   75) = (   0.0707100   0.0707100   0.0707100), wk =   0.0092593
        k(   76) = (   0.0707100   0.0707100   0.0883874), wk =   0.0277778
        k(   77) = (   0.0707100   0.0707100  -0.1060649), wk =   0.0138889
        k(   78) = (   0.0707100   0.0883874   0.0883874), wk =   0.0277778
        k(   79) = (   0.0707100   0.0883874  -0.1060649), wk =   0.0277778
        k(   80) = (   0.0707100  -0.1060649  -0.1060649), wk =   0.0069444
        k(   81) = (   0.0883874   0.0883874   0.0883874), wk =   0.0092593
        k(   82) = (   0.0883874   0.0883874  -0.1060649), wk =   0.0138889
        k(   83) = (   0.0883874  -0.1060649  -0.1060649), wk =   0.0069444
        k(   84) = (  -0.1060649  -0.1060649  -0.1060649), wk =   0.0011574

     Largest allocated arrays     est. size (Mb)     dimensions
     Largest temporary arrays     est. size (Mb)     dimensions

     Initial potential from superposition of free atoms
     Check: negative starting charge=   -0.046112

     starting charge   55.99188, renormalised to   56.00000

     negative rho (up, down):  4.612E-02 0.000E+00

     *
     * You are using vdW-DF for exchange-correlation in this calculation.
     * Please cite the following three references that made this development
     * possible:
     *
     *   M. Dion, H. Rydberg, E. Schroder, D. C. Langreth, and
     *   B. I. Lundqvist, Phys. Rev. Lett. 92, 246401 (2004).
     *
     *   T. Thonhauser, V. R. Cooper, S. Li, A. Puzder, P. Hyldgaard, and
     *   D. C. Langreth, Phys. Rev. B 76, 125112 (2007).
     *
     *   G. Roman-Perez and J. M. Soler, Phys. Rev. Lett. 103, 096102 (2009).
     *
     *
     * If you are using vdW-DF2, please also cite:
     *
     *   K. Lee, E. D. Murray, L. Kong, B. I. Lundqvist, and
     *   D. C. Langreth, Phys. Rev. B 82, 081101(R) (2010).
     *
     *
     * If you are calculating the stress with vdW-DF, please also cite:
     *
     *   R. Sabatini, E. Kucukbenli, B. Kolb, T. Thonhauser, and
     *   S. de Gironcoli, J. Phys.: Condens. Matter 24, 424209 (2012).
     *

     Carrying out vdW-DF run using the following parameters:

     Nqs =      20    Nr_points =    1024   r_max =   100.000
     q_mesh =
               0.00001000     0.04494208     0.09755937     0.15916263
               0.23128650     0.31572767     0.41458969     0.53033537
               0.66584808     0.82450364     1.01025438     1.22772762
               1.48234092     1.78043706     2.12944203     2.53805004
               3.01644009     3.57652955     4.23227104     5.00000000

     Gradients computed in reciprocal space

     Starting wfc are   40 randomized atomic wfcs +    8 random wfc

     Self-consistent Calculation

     iteration #  1     ecut=    58.80 Ry     beta=0.10
     Davidson diagonalization with overlap
     ethr =  1.00E-02,  avg # of iterations =  5.3

[...]

     total energy              =    -637.88139498 Ry
     Harris-Foulkes estimate   =    -637.93999658 Ry
     estimated scf accuracy    <       1.38866991 Ry

[...]

     iteration #  4     ecut=    58.80 Ry     beta=0.10
     Davidson diagonalization with overlap
     c_bands:  1 eigenvalues not converged
     ethr =  2.15E-05,  avg # of iterations = 12.1

[...]

     total energy              =    -637.83040596 Ry
     Harris-Foulkes estimate   =    -637.83014694 Ry
     estimated scf accuracy    <       0.00000048 Ry

     iteration # 12     ecut=    58.80 Ry     beta=0.10
     Davidson diagonalization with overlap
     ethr =  8.63E-10,  avg # of iterations =  2.0

     negative rho (up, down):  5.197E-02 0.000E+00

     End of self-consistent calculation

          k = 0.0000 0.0000 0.0000 (  5449 PWs)   bands (ev):

   -48.1440 -22.1967 -22.1967 -22.1967  -4.7168  -4.7168  -4.7168  -4.7168
    -4.4796  -4.4796  -4.3227  -4.3227  -4.3227  -4.3050  -4.3050  -4.1276
    -4.1276  -4.1276  -4.1215   1.1342   6.4271   6.4271  10.0923  10.0923
    10.0923  12.6185  12.6185  12.6185  12.8721  12.8721  14.0681  15.5607
    15.5607  15.5607  17.5219  17.5219  17.5219  21.2310  21.4610  21.4610
    22.0909  22.0909  22.0909  23.3581  23.4241  23.4242  23.4359  24.3569

[...]

          k = 0.0884-0.1061-0.1061 (  5424 PWs)   bands (ev):

[...]

          k =-0.1061-0.1061-0.1061 (  5400 PWs)   bands (ev):

   -48.1439 -22.1983 -22.1983 -22.1983  -4.6092  -4.6092  -4.6092  -4.5201
    -4.5201  -4.5201  -4.5146  -4.3515  -4.3515  -4.3515  -4.2678  -4.2678
    -4.1432  -4.1432  -4.1432   4.6372   4.6372   4.6372   8.1028   9.4388
     9.4388   9.4388  12.9468  12.9468  13.1752  13.3622  13.3622  13.3622
    19.4972  19.4973  19.7672  19.7672  19.7673  22.5881  22.7552  22.7552
    22.7552  23.3187  23.3187  23.3187  24.4541  24.4541  24.4541  24.6246

     the Fermi energy is    12.8590 ev

!    total energy              =    -637.83145970 Ry
     Harris-Foulkes estimate   =    -637.83040617 Ry
     estimated scf accuracy    <          6.2E-09 Ry

     The total energy is the sum of the following terms:

     one-electron contribution =    -117.61812109 Ry
     hartree contribution      =      99.36296993 Ry
     xc contribution           =    -216.05622199 Ry
     ewald contribution        =    -403.50162992 Ry
     smearing contrib. (-TS)   =      -0.01845663 Ry

     convergence has been achieved in  12 iterations

     Forces acting on atoms (Ry/au):

     negative rho (up, down):  5.197E-02 0.000E+00
     atom    1 type  1   force =     0.00000000    0.00000000    0.00000000
     atom    2 type  1   force =     0.00000000    0.00000000    0.00000000
     atom    3 type  1   force =     0.00000000    0.00000000    0.00000000
     atom    4 type  2   force =     0.00000000    0.00000000    0.00000000

     Total force =     0.000000     Total SCF correction =     0.000000
 !ASE

     General routines

     Parallel routines

   This run was terminated on:   0: 7:39  25Oct2017

   JOB DONE.