     Program PWSCF v.5.1rc2 (svn rev. ) starts on 18Feb2018 at 16:14:52

     Current dimensions of program PWSCF are:
     Max number of different atomic species (ntypx) = 10
     Max number of k-points (npk) =  40000
     Max angular momentum in pseudopotentials (lmaxx) =  3

     IMPORTANT: XC functional enforced from input :
     Exchange-correlation      = BEEF-VDW ( 1  4 27 13 2)
     Any further DFT definition will be discarded
     Please, verify this is what you really want

     Subspace diagonalization in iterative solution of the eigenvalue problem:
     a serial algorithm will be used

     bravais-lattice index     =            0
     lattice parameter (alat)  =       1.8897  a.u.
     unit-cell volume          =     446.5821 (a.u.)^3
     number of atoms/cell      =            4
     number of atomic types    =            2
     number of electrons       =        63.00
     number of Kohn-Sham states=           51
     kinetic-energy cutoff     =      58.7989  Ry
     charge density cutoff     =     587.9892  Ry
     convergence threshold     =      7.3E-09
     mixing beta               =       0.1000
     number of iterations used =           10  local-TF  mixing
     Exchange-correlation      = BEEF-VDW ( 1  4 27 13 2)
     nstep                     =           50

     celldm(1)=   1.889726  celldm(2)=   0.000000  celldm(3)=   0.000000
     celldm(4)=   0.000000  celldm(5)=   0.000000  celldm(6)=   0.000000

     crystal axes: (cart. coord. in units of alat)
               a(1) = (   4.044842   0.000000   0.000000 )
               a(2) = (   0.000000   4.044842   0.000000 )
               a(3) = (   0.000000   0.000000   4.044842 )

     reciprocal axes: (cart. coord. in units 2 pi/alat)
               b(1) = (  0.247228  0.000000  0.000000 )
               b(2) = (  0.000000  0.247228  0.000000 )
               b(3) = (  0.000000  0.000000  0.247228 )

     PseudoPot. # 1 for Ru read from file:
     /home/mamunm/src/pseudo/gbrv1.5pbe/Ru.UPF
     MD5 check sum: 7158a806dd851261a58e6920c40ebe78
     Pseudo is Ultrasoft + core correction, Zval = 16.0
     Generated by new atomic code, or converted to UPF format
     Using radial grid of  967 points,  6 beta functions with:
                l(1) =   0
                l(2) =   0
                l(3) =   1
                l(4) =   1
                l(5) =   2
                l(6) =   2
     Q(r) pseudized with  8 coefficients,  rinner =    1.300   1.300   1.300
                                                       1.300   1.300

     PseudoPot. # 2 for Bi read from file:
     /home/mamunm/src/pseudo/gbrv1.5pbe/Bi.UPF
     MD5 check sum: 81103212dc04adf40945787f699eab19
     Pseudo is Ultrasoft + core correction, Zval = 15.0
     Generated by new atomic code, or converted to UPF format
     Using radial grid of  899 points,  6 beta functions with:
                l(1) =   0
                l(2) =   0
                l(3) =   1
                l(4) =   1
                l(5) =   2
                l(6) =   2
     Q(r) pseudized with  6 coefficients,  rinner =    1.000   1.000   1.000
                                                       1.000   1.000

     vdW kernel table read from file vdW_kernel_table
     MD5 check sum: 095c7af220d748ca6e76c0b4c6cfb241

     atomic species   valence    mass     pseudopotential
        Ru1           16.00   101.07000     Ru( 1.00)
        Bi1           15.00   208.98040     Bi( 1.00)

     48 Sym. Ops., with inversion, found (32 have fractional translation)

   Cartesian axes

     site n.     atom                  positions (alat units)
         1           Ru1 tau(   1) = (   0.0000000   0.0000000   0.0000000  )
         2           Ru1 tau(   2) = (   0.0000000   2.0224211   2.0224211  )
         3           Ru1 tau(   3) = (   2.0224211   0.0000000   2.0224211  )
         4           Bi1 tau(   4) = (   2.0224211   2.0224211   0.0000000  )

     number of k points=    84  Fermi-Dirac smearing, width (Ry)=  0.0073
                       cart. coord. in units 2pi/alat
        k(    1) = (   0.0000000   0.0000000   0.0000000), wk =   0.0011574
        k(    2) = (   0.0000000   0.0000000   0.0206024), wk =   0.0069444
        k(    3) = (   0.0000000   0.0000000   0.0412047), wk =   0.0069444
        k(    4) = (   0.0000000   0.0000000   0.0618071), wk =   0.0069444
        k(    5) = (   0.0000000   0.0000000   0.0824095), wk =   0.0069444
        k(    6) = (   0.0000000   0.0000000   0.1030118), wk =   0.0069444
        k(    7) = (   0.0000000   0.0000000  -0.1236142), wk =   0.0034722
        k(    8) = (   0.0000000   0.0206024   0.0206024), wk =   0.0138889
        k(    9) = (   0.0000000   0.0206024   0.0412047), wk =   0.0277778
        k(   10) = (   0.0000000   0.0206024   0.0618071), wk =   0.0277778
        k(   11) = (   0.0000000   0.0206024   0.0824095), wk =   0.0277778
        k(   12) = (   0.0000000   0.0206024   0.1030118), wk =   0.0277778
        k(   13) = (   0.0000000   0.0206024  -0.1236142), wk =   0.0138889
        k(   14) = (   0.0000000   0.0412047   0.0412047), wk =   0.0138889
        k(   15) = (   0.0000000   0.0412047   0.0618071), wk =   0.0277778
        k(   16) = (   0.0000000   0.0412047   0.0824095), wk =   0.0277778
        k(   17) = (   0.0000000   0.0412047   0.1030118), wk =   0.0277778
        k(   18) = (   0.0000000   0.0412047  -0.1236142), wk =   0.0138889
        k(   19) = (   0.0000000   0.0618071   0.0618071), wk =   0.0138889
        k(   20) = (   0.0000000   0.0618071   0.0824095), wk =   0.0277778
        k(   21) = (   0.0000000   0.0618071   0.1030118), wk =   0.0277778
        k(   22) = (   0.0000000   0.0618071  -0.1236142), wk =   0.0138889
        k(   23) = (   0.0000000   0.0824095   0.0824095), wk =   0.0138889
        k(   24) = (   0.0000000   0.0824095   0.1030118), wk =   0.0277778
        k(   25) = (   0.0000000   0.0824095  -0.1236142), wk =   0.0138889
        k(   26) = (   0.0000000   0.1030118   0.1030118), wk =   0.0138889
        k(   27) = (   0.0000000   0.1030118  -0.1236142), wk =   0.0138889
        k(   28) = (   0.0000000  -0.1236142  -0.1236142), wk =   0.0034722
        k(   29) = (   0.0206024   0.0206024   0.0206024), wk =   0.0092593
        k(   30) = (   0.0206024   0.0206024   0.0412047), wk =   0.0277778
        k(   31) = (   0.0206024   0.0206024   0.0618071), wk =   0.0277778
        k(   32) = (   0.0206024   0.0206024   0.0824095), wk =   0.0277778
        k(   33) = (   0.0206024   0.0206024   0.1030118), wk =   0.0277778
        k(   34) = (   0.0206024   0.0206024  -0.1236142), wk =   0.0138889
        k(   35) = (   0.0206024   0.0412047   0.0412047), wk =   0.0277778
        k(   36) = (   0.0206024   0.0412047   0.0618071), wk =   0.0555556
        k(   37) = (   0.0206024   0.0412047   0.0824095), wk =   0.0555556
        k(   38) = (   0.0206024   0.0412047   0.1030118), wk =   0.0555556
        k(   39) = (   0.0206024   0.0412047  -0.1236142), wk =   0.0277778
        k(   40) = (   0.0206024   0.0618071   0.0618071), wk =   0.0277778
        k(   41) = (   0.0206024   0.0618071   0.0824095), wk =   0.0555556
        k(   42) = (   0.0206024   0.0618071   0.1030118), wk =   0.0555556
        k(   43) = (   0.0206024   0.0618071  -0.1236142), wk =   0.0277778
        k(   44) = (   0.0206024   0.0824095   0.0824095), wk =   0.0277778
        k(   45) = (   0.0206024   0.0824095   0.1030118), wk =   0.0555556
        k(   46) = (   0.0206024   0.0824095  -0.1236142), wk =   0.0277778
        k(   47) = (   0.0206024   0.1030118   0.1030118), wk =   0.0277778
        k(   48) = (   0.0206024   0.1030118  -0.1236142), wk =   0.0277778
        k(   49) = (   0.0206024  -0.1236142  -0.1236142), wk =   0.0069444
        k(   50) = (   0.0412047   0.0412047   0.0412047), wk =   0.0092593
        k(   51) = (   0.0412047   0.0412047   0.0618071), wk =   0.0277778
        k(   52) = (   0.0412047   0.0412047   0.0824095), wk =   0.0277778
        k(   53) = (   0.0412047   0.0412047   0.1030118), wk =   0.0277778
        k(   54) = (   0.0412047   0.0412047  -0.1236142), wk =   0.0138889
        k(   55) = (   0.0412047   0.0618071   0.0618071), wk =   0.0277778
        k(   56) = (   0.0412047   0.0618071   0.0824095), wk =   0.0555556
        k(   57) = (   0.0412047   0.0618071   0.1030118), wk =   0.0555556
        k(   58) = (   0.0412047   0.0618071  -0.1236142), wk =   0.0277778
        k(   59) = (   0.0412047   0.0824095   0.0824095), wk =   0.0277778
        k(   60) = (   0.0412047   0.0824095   0.1030118), wk =   0.0555556
[...]
        k(   70) = (   0.0618071   0.0824095   0.1030118), wk =   0.0555556
        k(   71) = (   0.0618071   0.0824095  -0.1236142), wk =   0.0277778
        k(   72) = (   0.0618071   0.1030118   0.1030118), wk =   0.0277778
        k(   73) = (   0.0618071   0.1030118  -0.1236142), wk =   0.0277778
        k(   74) = (   0.0618071  -0.1236142  -0.1236142), wk =   0.0069444
        k(   75) = (   0.0824095   0.0824095   0.0824095), wk =   0.0092593
        k(   76) = (   0.0824095   0.0824095   0.1030118), wk =   0.0277778
        k(   77) = (   0.0824095   0.0824095  -0.1236142), wk =   0.0138889
        k(   78) = (   0.0824095   0.1030118   0.1030118), wk =   0.0277778
        k(   79) = (   0.0824095   0.1030118  -0.1236142), wk =   0.0277778
        k(   80) = (   0.0824095  -0.1236142  -0.1236142), wk =   0.0069444
        k(   81) = (   0.1030118   0.1030118   0.1030118), wk =   0.0092593
        k(   82) = (   0.1030118   0.1030118  -0.1236142), wk =   0.0138889
        k(   83) = (   0.1030118  -0.1236142  -0.1236142), wk =   0.0069444
        k(   84) = (  -0.1236142  -0.1236142  -0.1236142), wk =   0.0011574

     Largest allocated arrays     est. size (Mb)     dimensions
     Largest temporary arrays     est. size (Mb)     dimensions

     Initial potential from superposition of free atoms
     Check: negative starting charge=   -0.269140

     starting charge   58.99991, renormalised to   63.00000

     negative rho (up, down):  2.874E-01 0.000E+00

     *
     * You are using vdW-DF for exchange-correlation in this calculation.
     * Please cite the following three references that made this development
     * possible:
     *
     *   M. Dion, H. Rydberg, E. Schroder, D. C. Langreth, and
     *   B. I. Lundqvist, Phys. Rev. Lett. 92, 246401 (2004).
     *
     *   T. Thonhauser, V. R. Cooper, S. Li, A. Puzder, P. Hyldgaard, and
     *   D. C. Langreth, Phys. Rev. B 76, 125112 (2007).
     *
     *   G. Roman-Perez and J. M. Soler, Phys. Rev. Lett. 103, 096102 (2009).
     *
     *
     * If you are using vdW-DF2, please also cite:
     *
     *   K. Lee, E. D. Murray, L. Kong, B. I. Lundqvist, and
     *   D. C. Langreth, Phys. Rev. B 82, 081101(R) (2010).
     *
     *
     * If you are calculating the stress with vdW-DF, please also cite:
     *
     *   R. Sabatini, E. Kucukbenli, B. Kolb, T. Thonhauser, and
     *   S. de Gironcoli, J. Phys.: Condens. Matter 24, 424209 (2012).
     *

     Carrying out vdW-DF run using the following parameters:

     Nqs =      20    Nr_points =    1024   r_max =   100.000
     q_mesh =
               0.00001000     0.04494208     0.09755937     0.15916263
               0.23128650     0.31572767     0.41458969     0.53033537
               0.66584808     0.82450364     1.01025438     1.22772762
               1.48234092     1.78043706     2.12944203     2.53805004
               3.01644009     3.57652955     4.23227104     5.00000000

     Gradients computed in reciprocal space

     Starting wfc are   48 randomized atomic wfcs +    3 random wfc

     Self-consistent Calculation

     iteration #  1     ecut=    58.80 Ry     beta=0.10
     Davidson diagonalization with overlap
     ethr =  1.00E-02,  avg # of iterations =  4.6

[...]

     total energy              =    -773.52684726 Ry
     Harris-Foulkes estimate   =    -773.79844264 Ry
     estimated scf accuracy    <       3.84413038 Ry

[...]

     total energy              =    -772.46260476 Ry
     Harris-Foulkes estimate   =    -772.46260182 Ry
     estimated scf accuracy    <       0.00000001 Ry

     iteration # 14     ecut=    58.80 Ry     beta=0.10
     Davidson diagonalization with overlap
     ethr =  2.27E-11,  avg # of iterations =  2.1

     negative rho (up, down):  2.768E-01 0.000E+00

     End of self-consistent calculation

          k = 0.0000 0.0000 0.0000 (  3407 PWs)   bands (ev):

   -52.5970 -52.5190 -52.5190 -22.7403 -22.7403 -22.7403 -22.4932 -22.4932
   -22.4932 -22.3694 -22.3694 -22.3694  -3.4304  -3.4304  -3.4108  -3.4108
    -3.4108   7.0369  14.8049  16.0608  16.0608  16.1761  16.1761  16.1761
    18.7711  18.7711  18.7711  19.0879  19.0879  19.0879  20.3410  20.3410
    21.1538  21.6243  21.6243  21.6243  21.8457  28.2799  28.2799  28.2799
    28.6096  28.6096  30.6790  30.6790  30.6790  33.1550  36.3153  37.1143
    37.1143  37.1143  37.7453

[...]

          k = 0.1030-0.1236-0.1236 (  3408 PWs)   bands (ev):

[...]

          k =-0.1236-0.1236-0.1236 (  3448 PWs)   bands (ev):

   -52.5446 -52.5446 -52.5446 -22.8733 -22.6922 -22.6922 -22.6922 -22.4017
   -22.4017 -22.3643 -22.3643 -22.3643  -3.4224  -3.4224  -3.4224  -3.3683
    -3.3683   8.3027  15.8894  15.8894  15.8894  16.6195  16.6195  16.6195
    17.8186  17.8186  17.8186  19.0699  19.0699  19.0699  19.5829  19.5829
    20.1987  20.7020  21.2235  21.2235  21.2235  26.1375  26.1375  26.1375
    31.8948  31.8948  31.8948  33.2308  34.5194  34.5194  34.5194  36.7663
    36.7663  36.7663  38.6945

     the Fermi energy is    19.8378 ev

!    total energy              =    -772.46261730 Ry
     Harris-Foulkes estimate   =    -772.46260476 Ry
     estimated scf accuracy    <          3.3E-09 Ry

     The total energy is the sum of the following terms:

     one-electron contribution =    -151.78834795 Ry
     hartree contribution      =     122.31201482 Ry
     xc contribution           =    -147.56616994 Ry
     ewald contribution        =    -595.39933738 Ry
     smearing contrib. (-TS)   =      -0.02077685 Ry

     convergence has been achieved in  14 iterations

     Forces acting on atoms (Ry/au):

     negative rho (up, down):  2.768E-01 0.000E+00
     atom    1 type  1   force =     0.00000000   -0.00000000    0.00000000
     atom    2 type  1   force =     0.00000000    0.00000000   -0.00000000
     atom    3 type  1   force =     0.00000000   -0.00000000    0.00000000
     atom    4 type  2   force =     0.00000000    0.00000000    0.00000000

     Total force =     0.000000     Total SCF correction =     0.000000
 !ASE

     General routines

     Parallel routines

   This run was terminated on:  16:16: 1  18Feb2018

   JOB DONE.