     Program PWSCF v.5.1rc2 (svn rev. ) starts on 24Oct2017 at 20:53:19

     Current dimensions of program PWSCF are:
     Max number of different atomic species (ntypx) = 10
     Max number of k-points (npk) =  40000
     Max angular momentum in pseudopotentials (lmaxx) =  3

     IMPORTANT: XC functional enforced from input :
     Exchange-correlation      = BEEF-VDW ( 1  4 27 13 2)
     Any further DFT definition will be discarded
     Please, verify this is what you really want

     Subspace diagonalization in iterative solution of the eigenvalue problem:
     a serial algorithm will be used

     bravais-lattice index     =            0
     lattice parameter (alat)  =       1.8897  a.u.
     unit-cell volume          =     364.5947 (a.u.)^3
     number of atoms/cell      =            4
     number of atomic types    =            2
     number of electrons       =        71.00
     number of Kohn-Sham states=           55
     kinetic-energy cutoff     =      58.7989  Ry
     charge density cutoff     =     587.9892  Ry
     convergence threshold     =      7.3E-09
     mixing beta               =       0.1000
     number of iterations used =           10  local-TF  mixing
     Exchange-correlation      = BEEF-VDW ( 1  4 27 13 2)
     nstep                     =           50

     celldm(1)=   1.889726  celldm(2)=   0.000000  celldm(3)=   0.000000
     celldm(4)=   0.000000  celldm(5)=   0.000000  celldm(6)=   0.000000

     crystal axes: (cart. coord. in units of alat)
               a(1) = (   3.780401   0.000000   0.000000 )
               a(2) = (   0.000000   3.780401   0.000000 )
               a(3) = (   0.000000   0.000000   3.780401 )

     reciprocal axes: (cart. coord. in units 2 pi/alat)
               b(1) = (  0.264522  0.000000  0.000000 )
               b(2) = (  0.000000  0.264522  0.000000 )
               b(3) = (  0.000000  0.000000  0.264522 )

     PseudoPot. # 1 for Cu read from file:
     /home/vossj/suncat/psp/gbrv1.5pbe/Cu.UPF
     MD5 check sum: 6e991ff952a84172a2a52a1c1e996048
     Pseudo is Ultrasoft + core correction, Zval = 19.0
     Generated by new atomic code, or converted to UPF format
     Using radial grid of  867 points,  6 beta functions with:
                l(1) =   0
                l(2) =   0
                l(3) =   1
                l(4) =   1
                l(5) =   2
                l(6) =   2
     Q(r) pseudized with  8 coefficients,  rinner =    1.150   1.150   1.150
                                                       1.150   1.150

     PseudoPot. # 2 for Mo read from file:
     /home/vossj/suncat/psp/gbrv1.5pbe/Mo.UPF
     MD5 check sum: 30c4dcd161f5d35cd49bb5239c51a633
     Pseudo is Ultrasoft + core correction, Zval = 14.0
     Generated by new atomic code, or converted to UPF format
     Using radial grid of  889 points,  6 beta functions with:
                l(1) =   0
                l(2) =   0
                l(3) =   1
                l(4) =   1
                l(5) =   2
                l(6) =   2
     Q(r) pseudized with  6 coefficients,  rinner =    1.000   1.000   1.000
                                                       1.000   1.000

     vdW kernel table read from file vdW_kernel_table
     MD5 check sum: 095c7af220d748ca6e76c0b4c6cfb241

     atomic species   valence    mass     pseudopotential
        Cu1           19.00    63.54600     Cu( 1.00)
        Mo1           14.00    95.95000     Mo( 1.00)

     48 Sym. Ops., with inversion, found (32 have fractional translation)

   Cartesian axes

     site n.     atom                  positions (alat units)
         1           Cu1 tau(   1) = (   0.0000000   0.0000000   0.0000000  )
         2           Cu1 tau(   2) = (   0.0000000   1.8902007   1.8902007  )
         3           Cu1 tau(   3) = (   1.8902007   0.0000000   1.8902007  )
         4           Mo1 tau(   4) = (   1.8902007   1.8902007   0.0000000  )

     number of k points=    84  Fermi-Dirac smearing, width (Ry)=  0.0073
                       cart. coord. in units 2pi/alat
        k(    1) = (   0.0000000   0.0000000   0.0000000), wk =   0.0011574
        k(    2) = (   0.0000000   0.0000000   0.0220435), wk =   0.0069444
        k(    3) = (   0.0000000   0.0000000   0.0440870), wk =   0.0069444
        k(    4) = (   0.0000000   0.0000000   0.0661305), wk =   0.0069444
        k(    5) = (   0.0000000   0.0000000   0.0881741), wk =   0.0069444
        k(    6) = (   0.0000000   0.0000000   0.1102176), wk =   0.0069444
        k(    7) = (   0.0000000   0.0000000  -0.1322611), wk =   0.0034722
        k(    8) = (   0.0000000   0.0220435   0.0220435), wk =   0.0138889
        k(    9) = (   0.0000000   0.0220435   0.0440870), wk =   0.0277778
        k(   10) = (   0.0000000   0.0220435   0.0661305), wk =   0.0277778
        k(   11) = (   0.0000000   0.0220435   0.0881741), wk =   0.0277778
        k(   12) = (   0.0000000   0.0220435   0.1102176), wk =   0.0277778
        k(   13) = (   0.0000000   0.0220435  -0.1322611), wk =   0.0138889
        k(   14) = (   0.0000000   0.0440870   0.0440870), wk =   0.0138889
        k(   15) = (   0.0000000   0.0440870   0.0661305), wk =   0.0277778
        k(   16) = (   0.0000000   0.0440870   0.0881741), wk =   0.0277778
        k(   17) = (   0.0000000   0.0440870   0.1102176), wk =   0.0277778
        k(   18) = (   0.0000000   0.0440870  -0.1322611), wk =   0.0138889
        k(   19) = (   0.0000000   0.0661305   0.0661305), wk =   0.0138889
        k(   20) = (   0.0000000   0.0661305   0.0881741), wk =   0.0277778
        k(   21) = (   0.0000000   0.0661305   0.1102176), wk =   0.0277778
        k(   22) = (   0.0000000   0.0661305  -0.1322611), wk =   0.0138889
        k(   23) = (   0.0000000   0.0881741   0.0881741), wk =   0.0138889
        k(   24) = (   0.0000000   0.0881741   0.1102176), wk =   0.0277778
        k(   25) = (   0.0000000   0.0881741  -0.1322611), wk =   0.0138889
        k(   26) = (   0.0000000   0.1102176   0.1102176), wk =   0.0138889
        k(   27) = (   0.0000000   0.1102176  -0.1322611), wk =   0.0138889
        k(   28) = (   0.0000000  -0.1322611  -0.1322611), wk =   0.0034722
        k(   29) = (   0.0220435   0.0220435   0.0220435), wk =   0.0092593
        k(   30) = (   0.0220435   0.0220435   0.0440870), wk =   0.0277778
        k(   31) = (   0.0220435   0.0220435   0.0661305), wk =   0.0277778
        k(   32) = (   0.0220435   0.0220435   0.0881741), wk =   0.0277778
        k(   33) = (   0.0220435   0.0220435   0.1102176), wk =   0.0277778
        k(   34) = (   0.0220435   0.0220435  -0.1322611), wk =   0.0138889
        k(   35) = (   0.0220435   0.0440870   0.0440870), wk =   0.0277778
        k(   36) = (   0.0220435   0.0440870   0.0661305), wk =   0.0555556
        k(   37) = (   0.0220435   0.0440870   0.0881741), wk =   0.0555556
        k(   38) = (   0.0220435   0.0440870   0.1102176), wk =   0.0555556
        k(   39) = (   0.0220435   0.0440870  -0.1322611), wk =   0.0277778
        k(   40) = (   0.0220435   0.0661305   0.0661305), wk =   0.0277778
        k(   41) = (   0.0220435   0.0661305   0.0881741), wk =   0.0555556
        k(   42) = (   0.0220435   0.0661305   0.1102176), wk =   0.0555556
        k(   43) = (   0.0220435   0.0661305  -0.1322611), wk =   0.0277778
        k(   44) = (   0.0220435   0.0881741   0.0881741), wk =   0.0277778
        k(   45) = (   0.0220435   0.0881741   0.1102176), wk =   0.0555556
        k(   46) = (   0.0220435   0.0881741  -0.1322611), wk =   0.0277778
        k(   47) = (   0.0220435   0.1102176   0.1102176), wk =   0.0277778
        k(   48) = (   0.0220435   0.1102176  -0.1322611), wk =   0.0277778
        k(   49) = (   0.0220435  -0.1322611  -0.1322611), wk =   0.0069444
        k(   50) = (   0.0440870   0.0440870   0.0440870), wk =   0.0092593
        k(   51) = (   0.0440870   0.0440870   0.0661305), wk =   0.0277778
        k(   52) = (   0.0440870   0.0440870   0.0881741), wk =   0.0277778
        k(   53) = (   0.0440870   0.0440870   0.1102176), wk =   0.0277778
        k(   54) = (   0.0440870   0.0440870  -0.1322611), wk =   0.0138889
        k(   55) = (   0.0440870   0.0661305   0.0661305), wk =   0.0277778
        k(   56) = (   0.0440870   0.0661305   0.0881741), wk =   0.0555556
        k(   57) = (   0.0440870   0.0661305   0.1102176), wk =   0.0555556
        k(   58) = (   0.0440870   0.0661305  -0.1322611), wk =   0.0277778
        k(   59) = (   0.0440870   0.0881741   0.0881741), wk =   0.0277778
        k(   60) = (   0.0440870   0.0881741   0.1102176), wk =   0.0555556
[...]
        k(   70) = (   0.0661305   0.0881741   0.1102176), wk =   0.0555556
        k(   71) = (   0.0661305   0.0881741  -0.1322611), wk =   0.0277778
        k(   72) = (   0.0661305   0.1102176   0.1102176), wk =   0.0277778
        k(   73) = (   0.0661305   0.1102176  -0.1322611), wk =   0.0277778
        k(   74) = (   0.0661305  -0.1322611  -0.1322611), wk =   0.0069444
        k(   75) = (   0.0881741   0.0881741   0.0881741), wk =   0.0092593
        k(   76) = (   0.0881741   0.0881741   0.1102176), wk =   0.0277778
        k(   77) = (   0.0881741   0.0881741  -0.1322611), wk =   0.0138889
        k(   78) = (   0.0881741   0.1102176   0.1102176), wk =   0.0277778
        k(   79) = (   0.0881741   0.1102176  -0.1322611), wk =   0.0277778
        k(   80) = (   0.0881741  -0.1322611  -0.1322611), wk =   0.0069444
        k(   81) = (   0.1102176   0.1102176   0.1102176), wk =   0.0092593
        k(   82) = (   0.1102176   0.1102176  -0.1322611), wk =   0.0138889
        k(   83) = (   0.1102176  -0.1322611  -0.1322611), wk =   0.0069444
        k(   84) = (  -0.1322611  -0.1322611  -0.1322611), wk =   0.0011574

     Largest allocated arrays     est. size (Mb)     dimensions
     Largest temporary arrays     est. size (Mb)     dimensions

     Initial potential from superposition of free atoms

     starting charge   67.99893, renormalised to   71.00000

     *
     * You are using vdW-DF for exchange-correlation in this calculation.
     * Please cite the following three references that made this development
     * possible:
     *
     *   M. Dion, H. Rydberg, E. Schroder, D. C. Langreth, and
     *   B. I. Lundqvist, Phys. Rev. Lett. 92, 246401 (2004).
     *
     *   T. Thonhauser, V. R. Cooper, S. Li, A. Puzder, P. Hyldgaard, and
     *   D. C. Langreth, Phys. Rev. B 76, 125112 (2007).
     *
     *   G. Roman-Perez and J. M. Soler, Phys. Rev. Lett. 103, 096102 (2009).
     *
     *
     * If you are using vdW-DF2, please also cite:
     *
     *   K. Lee, E. D. Murray, L. Kong, B. I. Lundqvist, and
     *   D. C. Langreth, Phys. Rev. B 82, 081101(R) (2010).
     *
     *
     * If you are calculating the stress with vdW-DF, please also cite:
     *
     *   R. Sabatini, E. Kucukbenli, B. Kolb, T. Thonhauser, and
     *   S. de Gironcoli, J. Phys.: Condens. Matter 24, 424209 (2012).
     *

     Carrying out vdW-DF run using the following parameters:

     Nqs =      20    Nr_points =    1024   r_max =   100.000
     q_mesh =
               0.00001000     0.04494208     0.09755937     0.15916263
               0.23128650     0.31572767     0.41458969     0.53033537
               0.66584808     0.82450364     1.01025438     1.22772762
               1.48234092     1.78043706     2.12944203     2.53805004
               3.01644009     3.57652955     4.23227104     5.00000000

     Gradients computed in reciprocal space

     Starting wfc are   52 randomized atomic wfcs +    3 random wfc

     Self-consistent Calculation

     iteration #  1     ecut=    58.80 Ry     beta=0.10
     Davidson diagonalization with overlap
     ethr =  1.00E-02,  avg # of iterations =  4.2

     total energy              =   -1355.47012514 Ry
     Harris-Foulkes estimate   =   -1356.33885114 Ry
     estimated scf accuracy    <      11.21776549 Ry

[...]

     total energy              =   -1354.75355518 Ry
     Harris-Foulkes estimate   =   -1354.75355314 Ry
     estimated scf accuracy    <       0.00000001 Ry

     iteration # 17     ecut=    58.80 Ry     beta=0.10
     Davidson diagonalization with overlap
     ethr =  1.45E-11,  avg # of iterations =  2.0

     End of self-consistent calculation

          k = 0.0000 0.0000 0.0000 (  2801 PWs)   bands (ev):

   -96.6198 -96.6127 -96.6127 -54.0419 -54.0419 -54.0419 -54.0327 -54.0327
   -54.0327 -53.9140 -53.9140 -53.9140 -45.0690 -19.0764 -19.0764 -19.0764
     7.8412  11.1364  11.1364  11.8203  11.8386  11.8386  11.8386  13.1980
    13.1980  13.1980  13.9086  13.9086  14.1582  14.3813  14.3813  14.3813
    16.2373  16.2373  17.5755  17.5755  17.5755  18.1724  18.1724  18.1724
    24.6356  25.1107  25.1107  26.7433  26.7433  26.7433  30.6526  30.6526
    30.6526  34.5560  34.5560  34.5560  35.0111  35.1242  35.1242

[...]

          k = 0.1102-0.1323-0.1323 (  2812 PWs)   bands (ev):

[...]

          k =-0.1323-0.1323-0.1323 (  2800 PWs)   bands (ev):

   -96.6151 -96.6151 -96.6151 -54.0535 -54.0535 -54.0535 -54.0181 -54.0181
   -54.0181 -53.9526 -53.9003 -53.9003 -45.0645 -19.1051 -19.1051 -19.1051
    11.0510  11.0510  11.0510  11.8087  13.0293  13.0293  13.0293  13.2466
    13.2466  13.2466  13.2988  13.2988  14.2295  14.2295  14.2295  15.3295
    15.7251  15.7251  15.7251  16.1684  16.1684  16.1684  17.4934  17.4934
    22.3240  22.3240  22.3240  22.5754  33.7406  33.7406  33.7406  34.0253
    34.0253  34.0253  34.7361  35.8986  35.8986  38.3815  38.3815

     the Fermi energy is    15.9428 ev

!    total energy              =   -1354.75356386 Ry
     Harris-Foulkes estimate   =   -1354.75355518 Ry
     estimated scf accuracy    <          3.4E-10 Ry

     The total energy is the sum of the following terms:

     one-electron contribution =    -884.84560608 Ry
     hartree contribution      =     484.83679245 Ry
     xc contribution           =    -139.99955435 Ry
     ewald contribution        =    -814.72731850 Ry
     smearing contrib. (-TS)   =      -0.01787737 Ry

     convergence has been achieved in  17 iterations

     Forces acting on atoms (Ry/au):

     atom    1 type  1   force =     0.00000000    0.00000000   -0.00000000
     atom    2 type  1   force =     0.00000000    0.00000000   -0.00000000
     atom    3 type  1   force =     0.00000000    0.00000000   -0.00000000
     atom    4 type  2   force =     0.00000000    0.00000000    0.00000000

     Total force =     0.000000     Total SCF correction =     0.000000
 !ASE

     General routines

     Parallel routines

   This run was terminated on:  20:54:36  24Oct2017

   JOB DONE.