     Program PWSCF v.5.1rc2 (svn rev. ) starts on 25Oct2017 at 16:33:35

     Current dimensions of program PWSCF are:
     Max number of different atomic species (ntypx) = 10
     Max number of k-points (npk) =  40000
     Max angular momentum in pseudopotentials (lmaxx) =  3

     IMPORTANT: XC functional enforced from input :
     Exchange-correlation      = BEEF-VDW ( 1  4 27 13 2)
     Any further DFT definition will be discarded
     Please, verify this is what you really want

     Subspace diagonalization in iterative solution of the eigenvalue problem:
     a serial algorithm will be used

     bravais-lattice index     =            0
     lattice parameter (alat)  =       1.8897  a.u.
     unit-cell volume          =     532.1469 (a.u.)^3
     number of atoms/cell      =            4
     number of atomic types    =            2
     number of electrons       =        51.00
     number of Kohn-Sham states=           45
     kinetic-energy cutoff     =      58.7989  Ry
     charge density cutoff     =     587.9892  Ry
     convergence threshold     =      7.3E-09
     mixing beta               =       0.1000
     number of iterations used =           10  local-TF  mixing
     Exchange-correlation      = BEEF-VDW ( 1  4 27 13 2)
     nstep                     =           50

     celldm(1)=   1.889726  celldm(2)=   0.000000  celldm(3)=   0.000000
     celldm(4)=   0.000000  celldm(5)=   0.000000  celldm(6)=   0.000000

     crystal axes: (cart. coord. in units of alat)
               a(1) = (   4.288232   0.000000   0.000000 )
               a(2) = (   0.000000   4.288232   0.000000 )
               a(3) = (   0.000000   0.000000   4.288232 )

     reciprocal axes: (cart. coord. in units 2 pi/alat)
               b(1) = (  0.233196  0.000000  0.000000 )
               b(2) = (  0.000000  0.233196  0.000000 )
               b(3) = (  0.000000  0.000000  0.233196 )

     PseudoPot. # 1 for Nb read from file:
     /home/vossj/suncat/psp/gbrv1.5pbe/Nb.UPF
     MD5 check sum: 573aab8a2fa660278ed4a62cd769473f
     Pseudo is Ultrasoft + core correction, Zval = 13.0
     Generated by new atomic code, or converted to UPF format
     Using radial grid of  887 points,  6 beta functions with:
                l(1) =   0
                l(2) =   0
                l(3) =   1
                l(4) =   1
                l(5) =   2
                l(6) =   2
     Q(r) pseudized with  6 coefficients,  rinner =    1.000   1.000   1.000
                                                       1.000   1.000

     PseudoPot. # 2 for Hf read from file:
     /home/vossj/suncat/psp/gbrv1.5pbe/Hf.UPF
     MD5 check sum: 8ee9378dfe14276e333edf04c5e4aa26
     Pseudo is Ultrasoft + core correction, Zval = 12.0
     Generated by new atomic code, or converted to UPF format
     Using radial grid of  921 points,  8 beta functions with:
                l(1) =   0
                l(2) =   0
                l(3) =   0
                l(4) =   1
                l(5) =   1
                l(6) =   2
                l(7) =   2
                l(8) =   3
     Q(r) pseudized with  6 coefficients,  rinner =    1.200   1.200   1.200
                                                       1.200   1.200   1.200
                                                       1.200

     vdW kernel table read from file vdW_kernel_table
     MD5 check sum: 095c7af220d748ca6e76c0b4c6cfb241

     atomic species   valence    mass     pseudopotential
        Nb1           13.00    92.90637     Nb( 1.00)
        Hf1           12.00   178.49000     Hf( 1.00)

     48 Sym. Ops., with inversion, found (32 have fractional translation)

   Cartesian axes

     site n.     atom                  positions (alat units)
         1           Nb1 tau(   1) = (   0.0000000   0.0000000   0.0000000  )
         2           Nb1 tau(   2) = (   0.0000000   2.1441162   2.1441162  )
         3           Nb1 tau(   3) = (   2.1441162   0.0000000   2.1441162  )
         4           Hf1 tau(   4) = (   2.1441162   2.1441162   0.0000000  )

     number of k points=    84  Fermi-Dirac smearing, width (Ry)=  0.0073
                       cart. coord. in units 2pi/alat
        k(    1) = (   0.0000000   0.0000000   0.0000000), wk =   0.0011574
        k(    2) = (   0.0000000   0.0000000   0.0194330), wk =   0.0069444
        k(    3) = (   0.0000000   0.0000000   0.0388661), wk =   0.0069444
        k(    4) = (   0.0000000   0.0000000   0.0582991), wk =   0.0069444
        k(    5) = (   0.0000000   0.0000000   0.0777321), wk =   0.0069444
        k(    6) = (   0.0000000   0.0000000   0.0971651), wk =   0.0069444
        k(    7) = (   0.0000000   0.0000000  -0.1165982), wk =   0.0034722
        k(    8) = (   0.0000000   0.0194330   0.0194330), wk =   0.0138889
        k(    9) = (   0.0000000   0.0194330   0.0388661), wk =   0.0277778
        k(   10) = (   0.0000000   0.0194330   0.0582991), wk =   0.0277778
        k(   11) = (   0.0000000   0.0194330   0.0777321), wk =   0.0277778
        k(   12) = (   0.0000000   0.0194330   0.0971651), wk =   0.0277778
        k(   13) = (   0.0000000   0.0194330  -0.1165982), wk =   0.0138889
        k(   14) = (   0.0000000   0.0388661   0.0388661), wk =   0.0138889
        k(   15) = (   0.0000000   0.0388661   0.0582991), wk =   0.0277778
        k(   16) = (   0.0000000   0.0388661   0.0777321), wk =   0.0277778
        k(   17) = (   0.0000000   0.0388661   0.0971651), wk =   0.0277778
        k(   18) = (   0.0000000   0.0388661  -0.1165982), wk =   0.0138889
        k(   19) = (   0.0000000   0.0582991   0.0582991), wk =   0.0138889
        k(   20) = (   0.0000000   0.0582991   0.0777321), wk =   0.0277778
        k(   21) = (   0.0000000   0.0582991   0.0971651), wk =   0.0277778
        k(   22) = (   0.0000000   0.0582991  -0.1165982), wk =   0.0138889
        k(   23) = (   0.0000000   0.0777321   0.0777321), wk =   0.0138889
        k(   24) = (   0.0000000   0.0777321   0.0971651), wk =   0.0277778
        k(   25) = (   0.0000000   0.0777321  -0.1165982), wk =   0.0138889
        k(   26) = (   0.0000000   0.0971651   0.0971651), wk =   0.0138889
        k(   27) = (   0.0000000   0.0971651  -0.1165982), wk =   0.0138889
        k(   28) = (   0.0000000  -0.1165982  -0.1165982), wk =   0.0034722
        k(   29) = (   0.0194330   0.0194330   0.0194330), wk =   0.0092593
        k(   30) = (   0.0194330   0.0194330   0.0388661), wk =   0.0277778
        k(   31) = (   0.0194330   0.0194330   0.0582991), wk =   0.0277778
        k(   32) = (   0.0194330   0.0194330   0.0777321), wk =   0.0277778
        k(   33) = (   0.0194330   0.0194330   0.0971651), wk =   0.0277778
        k(   34) = (   0.0194330   0.0194330  -0.1165982), wk =   0.0138889
        k(   35) = (   0.0194330   0.0388661   0.0388661), wk =   0.0277778
        k(   36) = (   0.0194330   0.0388661   0.0582991), wk =   0.0555556
        k(   37) = (   0.0194330   0.0388661   0.0777321), wk =   0.0555556
        k(   38) = (   0.0194330   0.0388661   0.0971651), wk =   0.0555556
        k(   39) = (   0.0194330   0.0388661  -0.1165982), wk =   0.0277778
        k(   40) = (   0.0194330   0.0582991   0.0582991), wk =   0.0277778
        k(   41) = (   0.0194330   0.0582991   0.0777321), wk =   0.0555556
        k(   42) = (   0.0194330   0.0582991   0.0971651), wk =   0.0555556
        k(   43) = (   0.0194330   0.0582991  -0.1165982), wk =   0.0277778
        k(   44) = (   0.0194330   0.0777321   0.0777321), wk =   0.0277778
        k(   45) = (   0.0194330   0.0777321   0.0971651), wk =   0.0555556
        k(   46) = (   0.0194330   0.0777321  -0.1165982), wk =   0.0277778
        k(   47) = (   0.0194330   0.0971651   0.0971651), wk =   0.0277778
        k(   48) = (   0.0194330   0.0971651  -0.1165982), wk =   0.0277778
        k(   49) = (   0.0194330  -0.1165982  -0.1165982), wk =   0.0069444
        k(   50) = (   0.0388661   0.0388661   0.0388661), wk =   0.0092593
        k(   51) = (   0.0388661   0.0388661   0.0582991), wk =   0.0277778
        k(   52) = (   0.0388661   0.0388661   0.0777321), wk =   0.0277778
        k(   53) = (   0.0388661   0.0388661   0.0971651), wk =   0.0277778
        k(   54) = (   0.0388661   0.0388661  -0.1165982), wk =   0.0138889
        k(   55) = (   0.0388661   0.0582991   0.0582991), wk =   0.0277778
        k(   56) = (   0.0388661   0.0582991   0.0777321), wk =   0.0555556
        k(   57) = (   0.0388661   0.0582991   0.0971651), wk =   0.0555556
        k(   58) = (   0.0388661   0.0582991  -0.1165982), wk =   0.0277778
        k(   59) = (   0.0388661   0.0777321   0.0777321), wk =   0.0277778
        k(   60) = (   0.0388661   0.0777321   0.0971651), wk =   0.0555556
[...]
        k(   70) = (   0.0582991   0.0777321   0.0971651), wk =   0.0555556
        k(   71) = (   0.0582991   0.0777321  -0.1165982), wk =   0.0277778
        k(   72) = (   0.0582991   0.0971651   0.0971651), wk =   0.0277778
        k(   73) = (   0.0582991   0.0971651  -0.1165982), wk =   0.0277778
        k(   74) = (   0.0582991  -0.1165982  -0.1165982), wk =   0.0069444
        k(   75) = (   0.0777321   0.0777321   0.0777321), wk =   0.0092593
        k(   76) = (   0.0777321   0.0777321   0.0971651), wk =   0.0277778
        k(   77) = (   0.0777321   0.0777321  -0.1165982), wk =   0.0138889
        k(   78) = (   0.0777321   0.0971651   0.0971651), wk =   0.0277778
        k(   79) = (   0.0777321   0.0971651  -0.1165982), wk =   0.0277778
        k(   80) = (   0.0777321  -0.1165982  -0.1165982), wk =   0.0069444
        k(   81) = (   0.0971651   0.0971651   0.0971651), wk =   0.0092593
        k(   82) = (   0.0971651   0.0971651  -0.1165982), wk =   0.0138889
        k(   83) = (   0.0971651  -0.1165982  -0.1165982), wk =   0.0069444
        k(   84) = (  -0.1165982  -0.1165982  -0.1165982), wk =   0.0011574

     Largest allocated arrays     est. size (Mb)     dimensions
     Largest temporary arrays     est. size (Mb)     dimensions

     Check: negative/imaginary core charge=   -0.000002    0.000000

     Initial potential from superposition of free atoms
     Check: negative starting charge=   -0.106959

     starting charge   48.99180, renormalised to   51.00000

     negative rho (up, down):  1.113E-01 0.000E+00

     *
     * You are using vdW-DF for exchange-correlation in this calculation.
     * Please cite the following three references that made this development
     * possible:
     *
     *   M. Dion, H. Rydberg, E. Schroder, D. C. Langreth, and
     *   B. I. Lundqvist, Phys. Rev. Lett. 92, 246401 (2004).
     *
     *   T. Thonhauser, V. R. Cooper, S. Li, A. Puzder, P. Hyldgaard, and
     *   D. C. Langreth, Phys. Rev. B 76, 125112 (2007).
     *
     *   G. Roman-Perez and J. M. Soler, Phys. Rev. Lett. 103, 096102 (2009).
     *
     *
     * If you are using vdW-DF2, please also cite:
     *
     *   K. Lee, E. D. Murray, L. Kong, B. I. Lundqvist, and
     *   D. C. Langreth, Phys. Rev. B 82, 081101(R) (2010).
     *
     *
     * If you are calculating the stress with vdW-DF, please also cite:
     *
     *   R. Sabatini, E. Kucukbenli, B. Kolb, T. Thonhauser, and
     *   S. de Gironcoli, J. Phys.: Condens. Matter 24, 424209 (2012).
     *

     Carrying out vdW-DF run using the following parameters:

     Nqs =      20    Nr_points =    1024   r_max =   100.000
     q_mesh =
               0.00001000     0.04494208     0.09755937     0.15916263
               0.23128650     0.31572767     0.41458969     0.53033537
               0.66584808     0.82450364     1.01025438     1.22772762
               1.48234092     1.78043706     2.12944203     2.53805004
               3.01644009     3.57652955     4.23227104     5.00000000

     Gradients computed in reciprocal space

     Starting wfc are   52 randomized atomic wfcs

     Self-consistent Calculation

     iteration #  1     ecut=    58.80 Ry     beta=0.10
     Davidson diagonalization with overlap
     ethr =  1.00E-02,  avg # of iterations =  4.3

[...]

     total energy              =    -516.84791711 Ry
     Harris-Foulkes estimate   =    -516.98602958 Ry
     estimated scf accuracy    <       2.74534260 Ry

[...]

     total energy              =    -516.26759800 Ry
     Harris-Foulkes estimate   =    -516.26758869 Ry
     estimated scf accuracy    <       0.00000002 Ry

     iteration # 14     ecut=    58.80 Ry     beta=0.10
     Davidson diagonalization with overlap
     ethr =  3.32E-11,  avg # of iterations =  2.0

     negative rho (up, down):  1.183E-01 0.000E+00

     End of self-consistent calculation

          k = 0.0000 0.0000 0.0000 (  3959 PWs)   bands (ev):

   -45.6304 -38.6763 -38.5231 -38.5231 -15.0599 -15.0599 -15.0599 -14.5423
   -14.5423 -14.5423 -14.3930 -14.3930 -14.3930 -13.9837 -13.9837 -13.9837
     9.8828  12.4997  12.6077  12.6077  13.3563  13.3563  13.3563  16.7157
    16.7157  16.7157  19.1743  19.1743  19.6160  19.6160  19.6160  20.6297
    21.1543  21.1543  21.1543  21.7906  21.7906  22.6674  22.6674  22.6674
    27.1938  27.1938  27.1938  27.3473  27.3473

[...]

          k = 0.0972-0.1166-0.1166 (  4048 PWs)   bands (ev):

[...]

          k =-0.1166-0.1166-0.1166 (  4032 PWs)   bands (ev):

   -45.6293 -38.5736 -38.5736 -38.5736 -15.1630 -15.1091 -15.1091 -15.1091
   -14.3183 -14.3183 -14.3183 -14.3057 -14.3057 -13.9961 -13.9961 -13.9961
    12.2167  12.7847  12.7847  12.7847  16.2685  16.2685  16.2685  16.5841
    16.5841  16.5841  16.8818  16.8818  17.4437  17.4437  17.4437  17.5226
    20.6468  20.6468  20.6468  21.7042  21.7042  21.7042  21.8138  21.8138
    25.3426  26.9929  26.9929  26.9929  27.7470

     the Fermi energy is    16.3422 ev

!    total energy              =    -516.26760045 Ry
     Harris-Foulkes estimate   =    -516.26759800 Ry
     estimated scf accuracy    <          1.4E-09 Ry

     The total energy is the sum of the following terms:

     one-electron contribution =     -75.11978650 Ry
     hartree contribution      =      61.63814898 Ry
     xc contribution           =    -134.66403073 Ry
     ewald contribution        =    -368.10840299 Ry
     smearing contrib. (-TS)   =      -0.01352920 Ry

     convergence has been achieved in  14 iterations

     Forces acting on atoms (Ry/au):

     negative rho (up, down):  1.183E-01 0.000E+00
     atom    1 type  1   force =     0.00000000    0.00000000    0.00000000
     atom    2 type  1   force =     0.00000000    0.00000000    0.00000000
     atom    3 type  1   force =     0.00000000    0.00000000    0.00000000
     atom    4 type  2   force =     0.00000000    0.00000000    0.00000000

     Total force =     0.000000     Total SCF correction =     0.000000
 !ASE

     General routines

     Parallel routines

   This run was terminated on:  16:34:40  25Oct2017

   JOB DONE.