     Program PWSCF v.5.1rc2 (svn rev. ) starts on 27Jan2018 at 12:46:40

     Current dimensions of program PWSCF are:
     Max number of different atomic species (ntypx) = 10
     Max number of k-points (npk) =  40000
     Max angular momentum in pseudopotentials (lmaxx) =  3

     IMPORTANT: XC functional enforced from input :
     Exchange-correlation      = BEEF-VDW ( 1  4 27 13 2)
     Any further DFT definition will be discarded
     Please, verify this is what you really want

     Subspace diagonalization in iterative solution of the eigenvalue problem:
     a serial algorithm will be used

     Found symmetry operation: I + ( -0.5000 -0.5000 -0.5000)
     This is a supercell, fractional translations are disabled

     bravais-lattice index     =            0
     lattice parameter (alat)  =       1.8897  a.u.
     unit-cell volume          =     300.1735 (a.u.)^3
     number of atoms/cell      =            2
     number of atomic types    =            1
     number of electrons       =        28.00
     number of Kohn-Sham states=           24
     kinetic-energy cutoff     =      58.7989  Ry
     charge density cutoff     =     587.9892  Ry
     convergence threshold     =      7.3E-07
     mixing beta               =       0.2000
     number of iterations used =           10  plain     mixing
     Exchange-correlation      = BEEF-VDW ( 1  4 27 13 2)

     celldm(1)=   1.889726  celldm(2)=   0.000000  celldm(3)=   0.000000
     celldm(4)=   0.000000  celldm(5)=   0.000000  celldm(6)=   0.000000

     crystal axes: (cart. coord. in units of alat)
               a(1) = (   3.543169   0.000000   0.000000 )
               a(2) = (   0.000000   3.543169   0.000000 )
               a(3) = (   0.000000   0.000000   3.543169 )

     reciprocal axes: (cart. coord. in units 2 pi/alat)
               b(1) = (  0.282233  0.000000  0.000000 )
               b(2) = (  0.000000  0.282233  0.000000 )
               b(3) = (  0.000000  0.000000  0.282233 )

     PseudoPot. # 1 for Mo read from file:
     /home/vossj/suncat/psp/gbrv1.5pbe/Mo.UPF
     MD5 check sum: 30c4dcd161f5d35cd49bb5239c51a633
     Pseudo is Ultrasoft + core correction, Zval = 14.0
     Generated by new atomic code, or converted to UPF format
     Using radial grid of  889 points,  6 beta functions with:
                l(1) =   0
                l(2) =   0
                l(3) =   1
                l(4) =   1
                l(5) =   2
                l(6) =   2
     Q(r) pseudized with  6 coefficients,  rinner =    1.000   1.000   1.000
                                                       1.000   1.000

     vdW kernel table read from file vdW_kernel_table
     MD5 check sum: 095c7af220d748ca6e76c0b4c6cfb241

     atomic species   valence    mass     pseudopotential
        Mo1           14.00    95.95000     Mo( 1.00)

     48 Sym. Ops., with inversion, found

   Cartesian axes

     site n.     atom                  positions (alat units)
         1           Mo1 tau(   1) = (   0.0000000   0.0000000   0.0000000  )
         2           Mo1 tau(   2) = (   1.7715847   1.7715847   1.7715847  )

     number of k points=    84  Fermi-Dirac smearing, width (Ry)=  0.0073
                       cart. coord. in units 2pi/alat
        k(    1) = (   0.0000000   0.0000000   0.0000000), wk =   0.0011574
        k(    2) = (   0.0000000   0.0000000   0.0235194), wk =   0.0069444
        k(    3) = (   0.0000000   0.0000000   0.0470389), wk =   0.0069444
        k(    4) = (   0.0000000   0.0000000   0.0705583), wk =   0.0069444
        k(    5) = (   0.0000000   0.0000000   0.0940777), wk =   0.0069444
        k(    6) = (   0.0000000   0.0000000   0.1175972), wk =   0.0069444
        k(    7) = (   0.0000000   0.0000000  -0.1411166), wk =   0.0034722
        k(    8) = (   0.0000000   0.0235194   0.0235194), wk =   0.0138889
        k(    9) = (   0.0000000   0.0235194   0.0470389), wk =   0.0277778
        k(   10) = (   0.0000000   0.0235194   0.0705583), wk =   0.0277778
        k(   11) = (   0.0000000   0.0235194   0.0940777), wk =   0.0277778
        k(   12) = (   0.0000000   0.0235194   0.1175972), wk =   0.0277778
        k(   13) = (   0.0000000   0.0235194  -0.1411166), wk =   0.0138889
        k(   14) = (   0.0000000   0.0470389   0.0470389), wk =   0.0138889
        k(   15) = (   0.0000000   0.0470389   0.0705583), wk =   0.0277778
        k(   16) = (   0.0000000   0.0470389   0.0940777), wk =   0.0277778
        k(   17) = (   0.0000000   0.0470389   0.1175972), wk =   0.0277778
        k(   18) = (   0.0000000   0.0470389  -0.1411166), wk =   0.0138889
        k(   19) = (   0.0000000   0.0705583   0.0705583), wk =   0.0138889
        k(   20) = (   0.0000000   0.0705583   0.0940777), wk =   0.0277778
        k(   21) = (   0.0000000   0.0705583   0.1175972), wk =   0.0277778
        k(   22) = (   0.0000000   0.0705583  -0.1411166), wk =   0.0138889
        k(   23) = (   0.0000000   0.0940777   0.0940777), wk =   0.0138889
        k(   24) = (   0.0000000   0.0940777   0.1175972), wk =   0.0277778
        k(   25) = (   0.0000000   0.0940777  -0.1411166), wk =   0.0138889
        k(   26) = (   0.0000000   0.1175972   0.1175972), wk =   0.0138889
        k(   27) = (   0.0000000   0.1175972  -0.1411166), wk =   0.0138889
        k(   28) = (   0.0000000  -0.1411166  -0.1411166), wk =   0.0034722
        k(   29) = (   0.0235194   0.0235194   0.0235194), wk =   0.0092593
        k(   30) = (   0.0235194   0.0235194   0.0470389), wk =   0.0277778
        k(   31) = (   0.0235194   0.0235194   0.0705583), wk =   0.0277778
        k(   32) = (   0.0235194   0.0235194   0.0940777), wk =   0.0277778
        k(   33) = (   0.0235194   0.0235194   0.1175972), wk =   0.0277778
        k(   34) = (   0.0235194   0.0235194  -0.1411166), wk =   0.0138889
        k(   35) = (   0.0235194   0.0470389   0.0470389), wk =   0.0277778
        k(   36) = (   0.0235194   0.0470389   0.0705583), wk =   0.0555556
        k(   37) = (   0.0235194   0.0470389   0.0940777), wk =   0.0555556
        k(   38) = (   0.0235194   0.0470389   0.1175972), wk =   0.0555556
        k(   39) = (   0.0235194   0.0470389  -0.1411166), wk =   0.0277778
        k(   40) = (   0.0235194   0.0705583   0.0705583), wk =   0.0277778
        k(   41) = (   0.0235194   0.0705583   0.0940777), wk =   0.0555556
        k(   42) = (   0.0235194   0.0705583   0.1175972), wk =   0.0555556
        k(   43) = (   0.0235194   0.0705583  -0.1411166), wk =   0.0277778
        k(   44) = (   0.0235194   0.0940777   0.0940777), wk =   0.0277778
        k(   45) = (   0.0235194   0.0940777   0.1175972), wk =   0.0555556
        k(   46) = (   0.0235194   0.0940777  -0.1411166), wk =   0.0277778
        k(   47) = (   0.0235194   0.1175972   0.1175972), wk =   0.0277778
        k(   48) = (   0.0235194   0.1175972  -0.1411166), wk =   0.0277778
        k(   49) = (   0.0235194  -0.1411166  -0.1411166), wk =   0.0069444
        k(   50) = (   0.0470389   0.0470389   0.0470389), wk =   0.0092593
        k(   51) = (   0.0470389   0.0470389   0.0705583), wk =   0.0277778
        k(   52) = (   0.0470389   0.0470389   0.0940777), wk =   0.0277778
        k(   53) = (   0.0470389   0.0470389   0.1175972), wk =   0.0277778
        k(   54) = (   0.0470389   0.0470389  -0.1411166), wk =   0.0138889
        k(   55) = (   0.0470389   0.0705583   0.0705583), wk =   0.0277778
        k(   56) = (   0.0470389   0.0705583   0.0940777), wk =   0.0555556
        k(   57) = (   0.0470389   0.0705583   0.1175972), wk =   0.0555556
        k(   58) = (   0.0470389   0.0705583  -0.1411166), wk =   0.0277778
        k(   59) = (   0.0470389   0.0940777   0.0940777), wk =   0.0277778
        k(   60) = (   0.0470389   0.0940777   0.1175972), wk =   0.0555556
[...]
        k(   70) = (   0.0705583   0.0940777   0.1175972), wk =   0.0555556
        k(   71) = (   0.0705583   0.0940777  -0.1411166), wk =   0.0277778
        k(   72) = (   0.0705583   0.1175972   0.1175972), wk =   0.0277778
        k(   73) = (   0.0705583   0.1175972  -0.1411166), wk =   0.0277778
        k(   74) = (   0.0705583  -0.1411166  -0.1411166), wk =   0.0069444
        k(   75) = (   0.0940777   0.0940777   0.0940777), wk =   0.0092593
        k(   76) = (   0.0940777   0.0940777   0.1175972), wk =   0.0277778
        k(   77) = (   0.0940777   0.0940777  -0.1411166), wk =   0.0138889
        k(   78) = (   0.0940777   0.1175972   0.1175972), wk =   0.0277778
        k(   79) = (   0.0940777   0.1175972  -0.1411166), wk =   0.0277778
        k(   80) = (   0.0940777  -0.1411166  -0.1411166), wk =   0.0069444
        k(   81) = (   0.1175972   0.1175972   0.1175972), wk =   0.0092593
        k(   82) = (   0.1175972   0.1175972  -0.1411166), wk =   0.0138889
        k(   83) = (   0.1175972  -0.1411166  -0.1411166), wk =   0.0069444
        k(   84) = (  -0.1411166  -0.1411166  -0.1411166), wk =   0.0011574

     Largest allocated arrays     est. size (Mb)     dimensions
     Largest temporary arrays     est. size (Mb)     dimensions

     Initial potential from superposition of free atoms

     starting charge   27.99787, renormalised to   28.00000

     *
     * You are using vdW-DF for exchange-correlation in this calculation.
     * Please cite the following three references that made this development
     * possible:
     *
     *   M. Dion, H. Rydberg, E. Schroder, D. C. Langreth, and
     *   B. I. Lundqvist, Phys. Rev. Lett. 92, 246401 (2004).
     *
     *   T. Thonhauser, V. R. Cooper, S. Li, A. Puzder, P. Hyldgaard, and
     *   D. C. Langreth, Phys. Rev. B 76, 125112 (2007).
     *
     *   G. Roman-Perez and J. M. Soler, Phys. Rev. Lett. 103, 096102 (2009).
     *
     *
     * If you are using vdW-DF2, please also cite:
     *
     *   K. Lee, E. D. Murray, L. Kong, B. I. Lundqvist, and
     *   D. C. Langreth, Phys. Rev. B 82, 081101(R) (2010).
     *
     *
     * If you are calculating the stress with vdW-DF, please also cite:
     *
     *   R. Sabatini, E. Kucukbenli, B. Kolb, T. Thonhauser, and
     *   S. de Gironcoli, J. Phys.: Condens. Matter 24, 424209 (2012).
     *

     Carrying out vdW-DF run using the following parameters:

     Nqs =      20    Nr_points =    1024   r_max =   100.000
     q_mesh =
               0.00001000     0.04494208     0.09755937     0.15916263
               0.23128650     0.31572767     0.41458969     0.53033537
               0.66584808     0.82450364     1.01025438     1.22772762
               1.48234092     1.78043706     2.12944203     2.53805004
               3.01644009     3.57652955     4.23227104     5.00000000

     Gradients computed in reciprocal space

     Starting wfc are   26 randomized atomic wfcs

     Self-consistent Calculation

     iteration #  1     ecut=    58.80 Ry     beta=0.20
     Davidson diagonalization with overlap
     ethr =  1.00E-02,  avg # of iterations =  3.8

     Threshold (ethr) on eigenvalues was too large:
     Diagonalizing with lowered threshold

     Davidson diagonalization with overlap
     ethr =  1.51E-04,  avg # of iterations =  2.9

     total energy              =    -279.86585748 Ry
     Harris-Foulkes estimate   =    -279.87277438 Ry
     estimated scf accuracy    <       0.04440019 Ry

[...]

     total energy              =    -279.86685956 Ry
     Harris-Foulkes estimate   =    -279.86686364 Ry
     estimated scf accuracy    <       0.00001071 Ry

     iteration #  7     ecut=    58.80 Ry     beta=0.20
     Davidson diagonalization with overlap
     ethr =  3.82E-08,  avg # of iterations =  2.0

     End of self-consistent calculation

          k = 0.0000 0.0000 0.0000 (  2301 PWs)   bands (ev):

   -48.0252 -47.9254 -22.0278 -22.0278 -22.0278 -21.7246 -21.7246 -21.7246
     7.8644  10.4110  10.4110  12.7575  12.7575  12.7575  14.6698  14.6698
    15.8704  15.8704  15.8704  20.5603  20.5603  20.5603  27.1772  27.6950

[...]

          k = 0.1176-0.1411-0.1411 (  2296 PWs)   bands (ev):

[...]

          k =-0.1411-0.1411-0.1411 (  2320 PWs)   bands (ev):

   -47.9651 -47.9649 -21.9297 -21.9297 -21.9297 -21.9295 -21.9295 -21.9295
    11.8257  11.8257  11.8257  11.8258  11.8258  11.8258  15.0218  15.0218
    15.0218  15.0218  20.1976  20.1976  21.8859  21.8859  21.8860  21.8860

     the Fermi energy is    13.5986 ev

!    total energy              =    -279.86686289 Ry
     Harris-Foulkes estimate   =    -279.86686181 Ry
     estimated scf accuracy    <       0.00000046 Ry

     The total energy is the sum of the following terms:

     one-electron contribution =     -74.57350188 Ry
     hartree contribution      =      47.28023998 Ry
     xc contribution           =     -39.50749060 Ry
     ewald contribution        =    -213.06160333 Ry
     smearing contrib. (-TS)   =      -0.00450706 Ry

     convergence has been achieved in   7 iterations

     Forces acting on atoms (Ry/au):

     atom    1 type  1   force =     0.00000000    0.00000000    0.00000000
     atom    2 type  1   force =     0.00000000    0.00000000    0.00000000

     Total force =     0.000000     Total SCF correction =     0.000000

     General routines

     Parallel routines

   This run was terminated on:  12:46:52  27Jan2018

   JOB DONE.