     Program PWSCF v.5.1rc2 (svn rev. ) starts on 25Oct2017 at 12:14:31

     Current dimensions of program PWSCF are:
     Max number of different atomic species (ntypx) = 10
     Max number of k-points (npk) =  40000
     Max angular momentum in pseudopotentials (lmaxx) =  3

     IMPORTANT: XC functional enforced from input :
     Exchange-correlation      = BEEF-VDW ( 1  4 27 13 2)
     Any further DFT definition will be discarded
     Please, verify this is what you really want

     Subspace diagonalization in iterative solution of the eigenvalue problem:
     a serial algorithm will be used

     bravais-lattice index     =            0
     lattice parameter (alat)  =       1.8897  a.u.
     unit-cell volume          =     419.1459 (a.u.)^3
     number of atoms/cell      =            4
     number of atomic types    =            2
     number of electrons       =        58.00
     number of Kohn-Sham states=           49
     kinetic-energy cutoff     =      58.7989  Ry
     charge density cutoff     =     587.9892  Ry
     convergence threshold     =      7.3E-09
     mixing beta               =       0.1000
     number of iterations used =           10  local-TF  mixing
     Exchange-correlation      = BEEF-VDW ( 1  4 27 13 2)
     nstep                     =           50

     celldm(1)=   1.889726  celldm(2)=   0.000000  celldm(3)=   0.000000
     celldm(4)=   0.000000  celldm(5)=   0.000000  celldm(6)=   0.000000

     crystal axes: (cart. coord. in units of alat)
               a(1) = (   3.960252   0.000000   0.000000 )
               a(2) = (   0.000000   3.960252   0.000000 )
               a(3) = (   0.000000   0.000000   3.960252 )

     reciprocal axes: (cart. coord. in units 2 pi/alat)
               b(1) = (  0.252509  0.000000  0.000000 )
               b(2) = (  0.000000  0.252509  0.000000 )
               b(3) = (  0.000000  0.000000  0.252509 )

     PseudoPot. # 1 for Mo read from file:
     /home/vossj/suncat/psp/gbrv1.5pbe/Mo.UPF
     MD5 check sum: 30c4dcd161f5d35cd49bb5239c51a633
     Pseudo is Ultrasoft + core correction, Zval = 14.0
     Generated by new atomic code, or converted to UPF format
     Using radial grid of  889 points,  6 beta functions with:
                l(1) =   0
                l(2) =   0
                l(3) =   1
                l(4) =   1
                l(5) =   2
                l(6) =   2
     Q(r) pseudized with  6 coefficients,  rinner =    1.000   1.000   1.000
                                                       1.000   1.000

     PseudoPot. # 2 for Ru read from file:
     /home/vossj/suncat/psp/gbrv1.5pbe/Ru.UPF
     MD5 check sum: 7158a806dd851261a58e6920c40ebe78
     Pseudo is Ultrasoft + core correction, Zval = 16.0
     Generated by new atomic code, or converted to UPF format
     Using radial grid of  967 points,  6 beta functions with:
                l(1) =   0
                l(2) =   0
                l(3) =   1
                l(4) =   1
                l(5) =   2
                l(6) =   2
     Q(r) pseudized with  8 coefficients,  rinner =    1.300   1.300   1.300
                                                       1.300   1.300

     vdW kernel table read from file vdW_kernel_table
     MD5 check sum: 095c7af220d748ca6e76c0b4c6cfb241

     atomic species   valence    mass     pseudopotential
        Mo1           14.00    95.95000     Mo( 1.00)
        Ru1           16.00   101.07000     Ru( 1.00)

     48 Sym. Ops., with inversion, found (32 have fractional translation)

   Cartesian axes

     site n.     atom                  positions (alat units)
         1           Mo1 tau(   1) = (   0.0000000   0.0000000   0.0000000  )
         2           Mo1 tau(   2) = (   0.0000000   1.9801262   1.9801262  )
         3           Mo1 tau(   3) = (   1.9801262   0.0000000   1.9801262  )
         4           Ru1 tau(   4) = (   1.9801262   1.9801262   0.0000000  )

     number of k points=    84  Fermi-Dirac smearing, width (Ry)=  0.0073
                       cart. coord. in units 2pi/alat
        k(    1) = (   0.0000000   0.0000000   0.0000000), wk =   0.0011574
        k(    2) = (   0.0000000   0.0000000   0.0210424), wk =   0.0069444
        k(    3) = (   0.0000000   0.0000000   0.0420849), wk =   0.0069444
        k(    4) = (   0.0000000   0.0000000   0.0631273), wk =   0.0069444
        k(    5) = (   0.0000000   0.0000000   0.0841697), wk =   0.0069444
        k(    6) = (   0.0000000   0.0000000   0.1052121), wk =   0.0069444
        k(    7) = (   0.0000000   0.0000000  -0.1262546), wk =   0.0034722
        k(    8) = (   0.0000000   0.0210424   0.0210424), wk =   0.0138889
        k(    9) = (   0.0000000   0.0210424   0.0420849), wk =   0.0277778
        k(   10) = (   0.0000000   0.0210424   0.0631273), wk =   0.0277778
        k(   11) = (   0.0000000   0.0210424   0.0841697), wk =   0.0277778
        k(   12) = (   0.0000000   0.0210424   0.1052121), wk =   0.0277778
        k(   13) = (   0.0000000   0.0210424  -0.1262546), wk =   0.0138889
        k(   14) = (   0.0000000   0.0420849   0.0420849), wk =   0.0138889
        k(   15) = (   0.0000000   0.0420849   0.0631273), wk =   0.0277778
        k(   16) = (   0.0000000   0.0420849   0.0841697), wk =   0.0277778
        k(   17) = (   0.0000000   0.0420849   0.1052121), wk =   0.0277778
        k(   18) = (   0.0000000   0.0420849  -0.1262546), wk =   0.0138889
        k(   19) = (   0.0000000   0.0631273   0.0631273), wk =   0.0138889
        k(   20) = (   0.0000000   0.0631273   0.0841697), wk =   0.0277778
        k(   21) = (   0.0000000   0.0631273   0.1052121), wk =   0.0277778
        k(   22) = (   0.0000000   0.0631273  -0.1262546), wk =   0.0138889
        k(   23) = (   0.0000000   0.0841697   0.0841697), wk =   0.0138889
        k(   24) = (   0.0000000   0.0841697   0.1052121), wk =   0.0277778
        k(   25) = (   0.0000000   0.0841697  -0.1262546), wk =   0.0138889
        k(   26) = (   0.0000000   0.1052121   0.1052121), wk =   0.0138889
        k(   27) = (   0.0000000   0.1052121  -0.1262546), wk =   0.0138889
        k(   28) = (   0.0000000  -0.1262546  -0.1262546), wk =   0.0034722
        k(   29) = (   0.0210424   0.0210424   0.0210424), wk =   0.0092593
        k(   30) = (   0.0210424   0.0210424   0.0420849), wk =   0.0277778
        k(   31) = (   0.0210424   0.0210424   0.0631273), wk =   0.0277778
        k(   32) = (   0.0210424   0.0210424   0.0841697), wk =   0.0277778
        k(   33) = (   0.0210424   0.0210424   0.1052121), wk =   0.0277778
        k(   34) = (   0.0210424   0.0210424  -0.1262546), wk =   0.0138889
        k(   35) = (   0.0210424   0.0420849   0.0420849), wk =   0.0277778
        k(   36) = (   0.0210424   0.0420849   0.0631273), wk =   0.0555556
        k(   37) = (   0.0210424   0.0420849   0.0841697), wk =   0.0555556
        k(   38) = (   0.0210424   0.0420849   0.1052121), wk =   0.0555556
        k(   39) = (   0.0210424   0.0420849  -0.1262546), wk =   0.0277778
        k(   40) = (   0.0210424   0.0631273   0.0631273), wk =   0.0277778
        k(   41) = (   0.0210424   0.0631273   0.0841697), wk =   0.0555556
        k(   42) = (   0.0210424   0.0631273   0.1052121), wk =   0.0555556
        k(   43) = (   0.0210424   0.0631273  -0.1262546), wk =   0.0277778
        k(   44) = (   0.0210424   0.0841697   0.0841697), wk =   0.0277778
        k(   45) = (   0.0210424   0.0841697   0.1052121), wk =   0.0555556
        k(   46) = (   0.0210424   0.0841697  -0.1262546), wk =   0.0277778
        k(   47) = (   0.0210424   0.1052121   0.1052121), wk =   0.0277778
        k(   48) = (   0.0210424   0.1052121  -0.1262546), wk =   0.0277778
        k(   49) = (   0.0210424  -0.1262546  -0.1262546), wk =   0.0069444
        k(   50) = (   0.0420849   0.0420849   0.0420849), wk =   0.0092593
        k(   51) = (   0.0420849   0.0420849   0.0631273), wk =   0.0277778
        k(   52) = (   0.0420849   0.0420849   0.0841697), wk =   0.0277778
        k(   53) = (   0.0420849   0.0420849   0.1052121), wk =   0.0277778
        k(   54) = (   0.0420849   0.0420849  -0.1262546), wk =   0.0138889
        k(   55) = (   0.0420849   0.0631273   0.0631273), wk =   0.0277778
        k(   56) = (   0.0420849   0.0631273   0.0841697), wk =   0.0555556
        k(   57) = (   0.0420849   0.0631273   0.1052121), wk =   0.0555556
        k(   58) = (   0.0420849   0.0631273  -0.1262546), wk =   0.0277778
        k(   59) = (   0.0420849   0.0841697   0.0841697), wk =   0.0277778
        k(   60) = (   0.0420849   0.0841697   0.1052121), wk =   0.0555556
[...]
        k(   70) = (   0.0631273   0.0841697   0.1052121), wk =   0.0555556
        k(   71) = (   0.0631273   0.0841697  -0.1262546), wk =   0.0277778
        k(   72) = (   0.0631273   0.1052121   0.1052121), wk =   0.0277778
        k(   73) = (   0.0631273   0.1052121  -0.1262546), wk =   0.0277778
        k(   74) = (   0.0631273  -0.1262546  -0.1262546), wk =   0.0069444
        k(   75) = (   0.0841697   0.0841697   0.0841697), wk =   0.0092593
        k(   76) = (   0.0841697   0.0841697   0.1052121), wk =   0.0277778
        k(   77) = (   0.0841697   0.0841697  -0.1262546), wk =   0.0138889
        k(   78) = (   0.0841697   0.1052121   0.1052121), wk =   0.0277778
        k(   79) = (   0.0841697   0.1052121  -0.1262546), wk =   0.0277778
        k(   80) = (   0.0841697  -0.1262546  -0.1262546), wk =   0.0069444
        k(   81) = (   0.1052121   0.1052121   0.1052121), wk =   0.0092593
        k(   82) = (   0.1052121   0.1052121  -0.1262546), wk =   0.0138889
        k(   83) = (   0.1052121  -0.1262546  -0.1262546), wk =   0.0069444
        k(   84) = (  -0.1262546  -0.1262546  -0.1262546), wk =   0.0011574

     Largest allocated arrays     est. size (Mb)     dimensions
     Largest temporary arrays     est. size (Mb)     dimensions

     Initial potential from superposition of free atoms
     Check: negative starting charge=   -0.074353

     starting charge   56.99679, renormalised to   58.00000

     negative rho (up, down):  7.566E-02 0.000E+00

     *
     * You are using vdW-DF for exchange-correlation in this calculation.
     * Please cite the following three references that made this development
     * possible:
     *
     *   M. Dion, H. Rydberg, E. Schroder, D. C. Langreth, and
     *   B. I. Lundqvist, Phys. Rev. Lett. 92, 246401 (2004).
     *
     *   T. Thonhauser, V. R. Cooper, S. Li, A. Puzder, P. Hyldgaard, and
     *   D. C. Langreth, Phys. Rev. B 76, 125112 (2007).
     *
     *   G. Roman-Perez and J. M. Soler, Phys. Rev. Lett. 103, 096102 (2009).
     *
     *
     * If you are using vdW-DF2, please also cite:
     *
     *   K. Lee, E. D. Murray, L. Kong, B. I. Lundqvist, and
     *   D. C. Langreth, Phys. Rev. B 82, 081101(R) (2010).
     *
     *
     * If you are calculating the stress with vdW-DF, please also cite:
     *
     *   R. Sabatini, E. Kucukbenli, B. Kolb, T. Thonhauser, and
     *   S. de Gironcoli, J. Phys.: Condens. Matter 24, 424209 (2012).
     *

     Carrying out vdW-DF run using the following parameters:

     Nqs =      20    Nr_points =    1024   r_max =   100.000
     q_mesh =
               0.00001000     0.04494208     0.09755937     0.15916263
               0.23128650     0.31572767     0.41458969     0.53033537
               0.66584808     0.82450364     1.01025438     1.22772762
               1.48234092     1.78043706     2.12944203     2.53805004
               3.01644009     3.57652955     4.23227104     5.00000000

     Gradients computed in reciprocal space

     Starting wfc are   52 randomized atomic wfcs

     Self-consistent Calculation

     iteration #  1     ecut=    58.80 Ry     beta=0.10
     Davidson diagonalization with overlap
     ethr =  1.00E-02,  avg # of iterations =  4.2

     Threshold (ethr) on eigenvalues was too large:
     Diagonalizing with lowered threshold

     Davidson diagonalization with overlap
     ethr =  7.29E-04,  avg # of iterations =  1.1

[...]

     total energy              =    -615.25435224 Ry
     Harris-Foulkes estimate   =    -615.28078612 Ry
     estimated scf accuracy    <       0.42135648 Ry

[...]

     total energy              =    -615.13638724 Ry
     Harris-Foulkes estimate   =    -615.13638691 Ry
     estimated scf accuracy    <       0.00000003 Ry

     iteration # 12     ecut=    58.80 Ry     beta=0.10
     Davidson diagonalization with overlap
     ethr =  5.08E-11,  avg # of iterations =  1.4

     negative rho (up, down):  7.729E-02 0.000E+00

     End of self-consistent calculation

          k = 0.0000 0.0000 0.0000 (  3191 PWs)   bands (ev):

   -52.0272 -40.5166 -40.2729 -40.2729 -21.9967 -21.9967 -21.9967 -14.8705
   -14.8705 -14.8705 -14.3170 -14.3170 -14.3170 -13.9588 -13.9588 -13.9588
    13.7471  15.3823  15.4265  15.4265  16.0087  16.0087  16.0087  19.3734
    19.3734  19.3734  21.7166  21.7166  23.8407  23.8407  23.9097  23.9097
    23.9097  24.5296  24.5459  24.5459  24.5459  25.1500  25.1500  25.1500
    32.8979  32.8979  32.8979  33.7733  33.7733  33.7733  34.1590  34.4153
    34.6893

[...]

          k = 0.1052-0.1263-0.1263 (  3168 PWs)   bands (ev):

[...]

          k =-0.1263-0.1263-0.1263 (  3184 PWs)   bands (ev):

   -52.0262 -40.3529 -40.3529 -40.3529 -22.0078 -22.0078 -22.0078 -15.1871
   -14.7879 -14.7879 -14.7879 -14.0064 -14.0064 -14.0064 -13.9814 -13.9814
    15.6675  15.7824  15.7824  15.7824  18.7635  18.7635  19.1869  19.1869
    19.1869  19.5912  19.5912  19.5912  21.9765  21.9765  21.9765  22.2442
    23.5615  23.5615  23.5615  23.7494  23.7494  24.5606  24.5606  24.5606
    30.9481  31.5114  31.5114  31.5114  33.7424  33.8487  33.8487  33.8487
    39.5384

     the Fermi energy is    20.5764 ev

!    total energy              =    -615.13638867 Ry
     Harris-Foulkes estimate   =    -615.13638724 Ry
     estimated scf accuracy    <          1.6E-09 Ry

     The total energy is the sum of the following terms:

     one-electron contribution =     -98.57016299 Ry
     hartree contribution      =      86.69038691 Ry
     xc contribution           =     -87.11265201 Ry
     ewald contribution        =    -516.13313470 Ry
     smearing contrib. (-TS)   =      -0.01082587 Ry

     convergence has been achieved in  12 iterations

     Forces acting on atoms (Ry/au):

     negative rho (up, down):  7.729E-02 0.000E+00
     atom    1 type  1   force =     0.00000000    0.00000000    0.00000000
     atom    2 type  1   force =     0.00000000    0.00000000    0.00000000
     atom    3 type  1   force =     0.00000000    0.00000000   -0.00000000
     atom    4 type  2   force =     0.00000000    0.00000000   -0.00000000

     Total force =     0.000000     Total SCF correction =     0.000000
 !ASE

     General routines

     Parallel routines

   This run was terminated on:  12:15:50  25Oct2017

   JOB DONE.