     Program PWSCF v.5.1rc2 (svn rev. ) starts on 26Oct2017 at  1:25:34

     Current dimensions of program PWSCF are:
     Max number of different atomic species (ntypx) = 10
     Max number of k-points (npk) =  40000
     Max angular momentum in pseudopotentials (lmaxx) =  3

     IMPORTANT: XC functional enforced from input :
     Exchange-correlation      = BEEF-VDW ( 1  4 27 13 2)
     Any further DFT definition will be discarded
     Please, verify this is what you really want

     Subspace diagonalization in iterative solution of the eigenvalue problem:
     a serial algorithm will be used

     bravais-lattice index     =            0
     lattice parameter (alat)  =       1.8897  a.u.
     unit-cell volume          =     441.2768 (a.u.)^3
     number of atoms/cell      =            4
     number of atomic types    =            2
     number of electrons       =        51.00
     number of Kohn-Sham states=           45
     kinetic-energy cutoff     =      58.7989  Ry
     charge density cutoff     =     587.9892  Ry
     convergence threshold     =      7.3E-09
     mixing beta               =       0.1000
     number of iterations used =           10  local-TF  mixing
     Exchange-correlation      = BEEF-VDW ( 1  4 27 13 2)
     nstep                     =           50

     celldm(1)=   1.889726  celldm(2)=   0.000000  celldm(3)=   0.000000
     celldm(4)=   0.000000  celldm(5)=   0.000000  celldm(6)=   0.000000

     crystal axes: (cart. coord. in units of alat)
               a(1) = (   4.028761   0.000000   0.000000 )
               a(2) = (   0.000000   4.028761   0.000000 )
               a(3) = (   0.000000   0.000000   4.028761 )

     reciprocal axes: (cart. coord. in units 2 pi/alat)
               b(1) = (  0.248215  0.000000  0.000000 )
               b(2) = (  0.000000  0.248215  0.000000 )
               b(3) = (  0.000000  0.000000  0.248215 )

     PseudoPot. # 1 for Ti read from file:
     /home/vossj/suncat/psp/gbrv1.5pbe/Ti.UPF
     MD5 check sum: 88a00a6731bd790ddea75d31a80cb452
     Pseudo is Ultrasoft + core correction, Zval = 12.0
     Generated by new atomic code, or converted to UPF format
     Using radial grid of  851 points,  6 beta functions with:
                l(1) =   0
                l(2) =   0
                l(3) =   1
                l(4) =   1
                l(5) =   2
                l(6) =   2
     Q(r) pseudized with  6 coefficients,  rinner =    1.000   1.000   1.000
                                                       1.000   1.000

     PseudoPot. # 2 for Tc read from file:
     /home/vossj/suncat/psp/gbrv1.5pbe/Tc.UPF
     MD5 check sum: 9eb49e5b028550b2339a02317eb7b844
     Pseudo is Ultrasoft + core correction, Zval = 15.0
     Generated by new atomic code, or converted to UPF format
     Using radial grid of  965 points,  6 beta functions with:
                l(1) =   0
                l(2) =   0
                l(3) =   1
                l(4) =   1
                l(5) =   2
                l(6) =   2
     Q(r) pseudized with  8 coefficients,  rinner =    1.300   1.300   1.300
                                                       1.300   1.300

     vdW kernel table read from file vdW_kernel_table
     MD5 check sum: 095c7af220d748ca6e76c0b4c6cfb241

     atomic species   valence    mass     pseudopotential
        Ti1           12.00    47.86700     Ti( 1.00)
        Tc1           15.00    97.90721     Tc( 1.00)

     48 Sym. Ops., with inversion, found (32 have fractional translation)

   Cartesian axes

     site n.     atom                  positions (alat units)
         1           Ti1 tau(   1) = (   0.0000000   0.0000000   0.0000000  )
         2           Ti1 tau(   2) = (   0.0000000   2.0143804   2.0143804  )
         3           Ti1 tau(   3) = (   2.0143804   0.0000000   2.0143804  )
         4           Tc1 tau(   4) = (   2.0143804   2.0143804   0.0000000  )

     number of k points=    84  Fermi-Dirac smearing, width (Ry)=  0.0073
                       cart. coord. in units 2pi/alat
        k(    1) = (   0.0000000   0.0000000   0.0000000), wk =   0.0011574
        k(    2) = (   0.0000000   0.0000000   0.0206846), wk =   0.0069444
        k(    3) = (   0.0000000   0.0000000   0.0413692), wk =   0.0069444
        k(    4) = (   0.0000000   0.0000000   0.0620538), wk =   0.0069444
        k(    5) = (   0.0000000   0.0000000   0.0827384), wk =   0.0069444
        k(    6) = (   0.0000000   0.0000000   0.1034230), wk =   0.0069444
        k(    7) = (   0.0000000   0.0000000  -0.1241076), wk =   0.0034722
        k(    8) = (   0.0000000   0.0206846   0.0206846), wk =   0.0138889
        k(    9) = (   0.0000000   0.0206846   0.0413692), wk =   0.0277778
        k(   10) = (   0.0000000   0.0206846   0.0620538), wk =   0.0277778
        k(   11) = (   0.0000000   0.0206846   0.0827384), wk =   0.0277778
        k(   12) = (   0.0000000   0.0206846   0.1034230), wk =   0.0277778
        k(   13) = (   0.0000000   0.0206846  -0.1241076), wk =   0.0138889
        k(   14) = (   0.0000000   0.0413692   0.0413692), wk =   0.0138889
        k(   15) = (   0.0000000   0.0413692   0.0620538), wk =   0.0277778
        k(   16) = (   0.0000000   0.0413692   0.0827384), wk =   0.0277778
        k(   17) = (   0.0000000   0.0413692   0.1034230), wk =   0.0277778
        k(   18) = (   0.0000000   0.0413692  -0.1241076), wk =   0.0138889
        k(   19) = (   0.0000000   0.0620538   0.0620538), wk =   0.0138889
        k(   20) = (   0.0000000   0.0620538   0.0827384), wk =   0.0277778
        k(   21) = (   0.0000000   0.0620538   0.1034230), wk =   0.0277778
        k(   22) = (   0.0000000   0.0620538  -0.1241076), wk =   0.0138889
        k(   23) = (   0.0000000   0.0827384   0.0827384), wk =   0.0138889
        k(   24) = (   0.0000000   0.0827384   0.1034230), wk =   0.0277778
        k(   25) = (   0.0000000   0.0827384  -0.1241076), wk =   0.0138889
        k(   26) = (   0.0000000   0.1034230   0.1034230), wk =   0.0138889
        k(   27) = (   0.0000000   0.1034230  -0.1241076), wk =   0.0138889
        k(   28) = (   0.0000000  -0.1241076  -0.1241076), wk =   0.0034722
        k(   29) = (   0.0206846   0.0206846   0.0206846), wk =   0.0092593
        k(   30) = (   0.0206846   0.0206846   0.0413692), wk =   0.0277778
        k(   31) = (   0.0206846   0.0206846   0.0620538), wk =   0.0277778
        k(   32) = (   0.0206846   0.0206846   0.0827384), wk =   0.0277778
        k(   33) = (   0.0206846   0.0206846   0.1034230), wk =   0.0277778
        k(   34) = (   0.0206846   0.0206846  -0.1241076), wk =   0.0138889
        k(   35) = (   0.0206846   0.0413692   0.0413692), wk =   0.0277778
        k(   36) = (   0.0206846   0.0413692   0.0620538), wk =   0.0555556
        k(   37) = (   0.0206846   0.0413692   0.0827384), wk =   0.0555556
        k(   38) = (   0.0206846   0.0413692   0.1034230), wk =   0.0555556
        k(   39) = (   0.0206846   0.0413692  -0.1241076), wk =   0.0277778
        k(   40) = (   0.0206846   0.0620538   0.0620538), wk =   0.0277778
        k(   41) = (   0.0206846   0.0620538   0.0827384), wk =   0.0555556
        k(   42) = (   0.0206846   0.0620538   0.1034230), wk =   0.0555556
        k(   43) = (   0.0206846   0.0620538  -0.1241076), wk =   0.0277778
        k(   44) = (   0.0206846   0.0827384   0.0827384), wk =   0.0277778
        k(   45) = (   0.0206846   0.0827384   0.1034230), wk =   0.0555556
        k(   46) = (   0.0206846   0.0827384  -0.1241076), wk =   0.0277778
        k(   47) = (   0.0206846   0.1034230   0.1034230), wk =   0.0277778
        k(   48) = (   0.0206846   0.1034230  -0.1241076), wk =   0.0277778
        k(   49) = (   0.0206846  -0.1241076  -0.1241076), wk =   0.0069444
        k(   50) = (   0.0413692   0.0413692   0.0413692), wk =   0.0092593
        k(   51) = (   0.0413692   0.0413692   0.0620538), wk =   0.0277778
        k(   52) = (   0.0413692   0.0413692   0.0827384), wk =   0.0277778
        k(   53) = (   0.0413692   0.0413692   0.1034230), wk =   0.0277778
        k(   54) = (   0.0413692   0.0413692  -0.1241076), wk =   0.0138889
        k(   55) = (   0.0413692   0.0620538   0.0620538), wk =   0.0277778
        k(   56) = (   0.0413692   0.0620538   0.0827384), wk =   0.0555556
        k(   57) = (   0.0413692   0.0620538   0.1034230), wk =   0.0555556
        k(   58) = (   0.0413692   0.0620538  -0.1241076), wk =   0.0277778
        k(   59) = (   0.0413692   0.0827384   0.0827384), wk =   0.0277778
        k(   60) = (   0.0413692   0.0827384   0.1034230), wk =   0.0555556
[...]
        k(   70) = (   0.0620538   0.0827384   0.1034230), wk =   0.0555556
        k(   71) = (   0.0620538   0.0827384  -0.1241076), wk =   0.0277778
        k(   72) = (   0.0620538   0.1034230   0.1034230), wk =   0.0277778
        k(   73) = (   0.0620538   0.1034230  -0.1241076), wk =   0.0277778
        k(   74) = (   0.0620538  -0.1241076  -0.1241076), wk =   0.0069444
        k(   75) = (   0.0827384   0.0827384   0.0827384), wk =   0.0092593
        k(   76) = (   0.0827384   0.0827384   0.1034230), wk =   0.0277778
        k(   77) = (   0.0827384   0.0827384  -0.1241076), wk =   0.0138889
        k(   78) = (   0.0827384   0.1034230   0.1034230), wk =   0.0277778
        k(   79) = (   0.0827384   0.1034230  -0.1241076), wk =   0.0277778
        k(   80) = (   0.0827384  -0.1241076  -0.1241076), wk =   0.0069444
        k(   81) = (   0.1034230   0.1034230   0.1034230), wk =   0.0092593
        k(   82) = (   0.1034230   0.1034230  -0.1241076), wk =   0.0138889
        k(   83) = (   0.1034230  -0.1241076  -0.1241076), wk =   0.0069444
        k(   84) = (  -0.1241076  -0.1241076  -0.1241076), wk =   0.0011574

     Largest allocated arrays     est. size (Mb)     dimensions
     Largest temporary arrays     est. size (Mb)     dimensions

     Check: negative/imaginary core charge=   -0.000006    0.000000

     Initial potential from superposition of free atoms
     Check: negative starting charge=   -0.128008

     starting charge   46.99984, renormalised to   51.00000

     negative rho (up, down):  1.389E-01 0.000E+00

     *
     * You are using vdW-DF for exchange-correlation in this calculation.
     * Please cite the following three references that made this development
     * possible:
     *
     *   M. Dion, H. Rydberg, E. Schroder, D. C. Langreth, and
     *   B. I. Lundqvist, Phys. Rev. Lett. 92, 246401 (2004).
     *
     *   T. Thonhauser, V. R. Cooper, S. Li, A. Puzder, P. Hyldgaard, and
     *   D. C. Langreth, Phys. Rev. B 76, 125112 (2007).
     *
     *   G. Roman-Perez and J. M. Soler, Phys. Rev. Lett. 103, 096102 (2009).
     *
     *
     * If you are using vdW-DF2, please also cite:
     *
     *   K. Lee, E. D. Murray, L. Kong, B. I. Lundqvist, and
     *   D. C. Langreth, Phys. Rev. B 82, 081101(R) (2010).
     *
     *
     * If you are calculating the stress with vdW-DF, please also cite:
     *
     *   R. Sabatini, E. Kucukbenli, B. Kolb, T. Thonhauser, and
     *   S. de Gironcoli, J. Phys.: Condens. Matter 24, 424209 (2012).
     *

     Carrying out vdW-DF run using the following parameters:

     Nqs =      20    Nr_points =    1024   r_max =   100.000
     q_mesh =
               0.00001000     0.04494208     0.09755937     0.15916263
               0.23128650     0.31572767     0.41458969     0.53033537
               0.66584808     0.82450364     1.01025438     1.22772762
               1.48234092     1.78043706     2.12944203     2.53805004
               3.01644009     3.57652955     4.23227104     5.00000000

     Gradients computed in reciprocal space

     Starting wfc are   43 randomized atomic wfcs +    2 random wfc

     Self-consistent Calculation

     iteration #  1     ecut=    58.80 Ry     beta=0.10
     Davidson diagonalization with overlap
     ethr =  1.00E-02,  avg # of iterations =  3.8

[...]

     total energy              =    -536.29623851 Ry
     Harris-Foulkes estimate   =    -536.68421653 Ry
     estimated scf accuracy    <       7.00443067 Ry

[...]

     total energy              =    -535.09847593 Ry
     Harris-Foulkes estimate   =    -535.09847583 Ry
     estimated scf accuracy    <       0.00000002 Ry

     iteration # 20     ecut=    58.80 Ry     beta=0.10
     Davidson diagonalization with overlap
     ethr =  4.45E-11,  avg # of iterations =  1.0

     negative rho (up, down):  1.301E-01 0.000E+00

     End of self-consistent calculation

          k = 0.0000 0.0000 0.0000 (  3407 PWs)   bands (ev):

   -51.2653 -41.6630 -41.5127 -41.5127 -23.2889 -23.2889 -23.2889 -18.0576
   -18.0576 -18.0576 -17.7532 -17.7532 -17.7532 -17.5420 -17.5420 -17.5420
     8.9952  11.6362  11.6362  12.3818  12.5683  12.5683  12.5683  15.6046
    15.6046  15.6046  17.3755  17.3755  18.5226  18.5226  18.5226  18.6527
    18.6527  18.8654  18.8654  18.8654  18.8730  19.1622  19.1622  19.1622
    26.2313  27.0433  27.0433  27.4573  27.9123

[...]

          k = 0.1034-0.1241-0.1241 (  3368 PWs)   bands (ev):

[...]

          k =-0.1241-0.1241-0.1241 (  3328 PWs)   bands (ev):

   -51.2640 -41.5619 -41.5619 -41.5619 -23.3023 -23.3023 -23.3023 -18.2363
   -18.0137 -18.0137 -18.0137 -17.5791 -17.5791 -17.5791 -17.5485 -17.5485
    11.8606  11.8606  11.8606  12.3199  14.5882  14.5882  15.4298  15.4298
    15.4298  15.9224  15.9224  15.9224  16.0531  16.2108  16.2108  16.2108
    18.6024  18.6024  18.6141  18.6141  18.6141  18.8745  18.8745  18.8745
    23.6460  24.3104  24.3104  24.3104  29.8753

     the Fermi energy is    15.2784 ev

!    total energy              =    -535.09847636 Ry
     Harris-Foulkes estimate   =    -535.09847593 Ry
     estimated scf accuracy    <          2.3E-09 Ry

     The total energy is the sum of the following terms:

     one-electron contribution =    -149.36527495 Ry
     hartree contribution      =      97.37513727 Ry
     xc contribution           =     -89.49872966 Ry
     ewald contribution        =    -393.59333906 Ry
     smearing contrib. (-TS)   =      -0.01626996 Ry

     convergence has been achieved in  20 iterations

     Forces acting on atoms (Ry/au):

     negative rho (up, down):  1.301E-01 0.000E+00
     atom    1 type  1   force =     0.00000000    0.00000000    0.00000000
     atom    2 type  1   force =     0.00000000    0.00000000    0.00000000
     atom    3 type  1   force =     0.00000000    0.00000000   -0.00000000
     atom    4 type  2   force =     0.00000000   -0.00000000    0.00000000

     Total force =     0.000000     Total SCF correction =     0.000000
 !ASE

     General routines

     Parallel routines

   This run was terminated on:   1:26:41  26Oct2017

   JOB DONE.