     Program PWSCF v.5.1rc2 (svn rev. ) starts on 25Oct2017 at 23:56:36

     Current dimensions of program PWSCF are:
     Max number of different atomic species (ntypx) = 10
     Max number of k-points (npk) =  40000
     Max angular momentum in pseudopotentials (lmaxx) =  3

     IMPORTANT: XC functional enforced from input :
     Exchange-correlation      = BEEF-VDW ( 1  4 27 13 2)
     Any further DFT definition will be discarded
     Please, verify this is what you really want

     Subspace diagonalization in iterative solution of the eigenvalue problem:
     a serial algorithm will be used

     bravais-lattice index     =            0
     lattice parameter (alat)  =       1.8897  a.u.
     unit-cell volume          =     497.3588 (a.u.)^3
     number of atoms/cell      =            4
     number of atomic types    =            2
     number of electrons       =        72.00
     number of Kohn-Sham states=           56
     kinetic-energy cutoff     =      58.7989  Ry
     charge density cutoff     =     587.9892  Ry
     convergence threshold     =      7.3E-09
     mixing beta               =       0.1000
     number of iterations used =           10  local-TF  mixing
     Exchange-correlation      = BEEF-VDW ( 1  4 27 13 2)
     nstep                     =           50

     celldm(1)=   1.889726  celldm(2)=   0.000000  celldm(3)=   0.000000
     celldm(4)=   0.000000  celldm(5)=   0.000000  celldm(6)=   0.000000

     crystal axes: (cart. coord. in units of alat)
               a(1) = (   4.192674   0.000000   0.000000 )
               a(2) = (   0.000000   4.192674   0.000000 )
               a(3) = (   0.000000   0.000000   4.192674 )

     reciprocal axes: (cart. coord. in units 2 pi/alat)
               b(1) = (  0.238511  0.000000  0.000000 )
               b(2) = (  0.000000  0.238511  0.000000 )
               b(3) = (  0.000000  0.000000  0.238511 )

     PseudoPot. # 1 for Zn read from file:
     /home/vossj/suncat/psp/gbrv1.5pbe/Zn.UPF
     MD5 check sum: df62231357ef9e81f77b2b3087fa5675
     Pseudo is Ultrasoft, Zval = 20.0
     Generated by new atomic code, or converted to UPF format
     Using radial grid of  943 points,  6 beta functions with:
                l(1) =   0
                l(2) =   0
                l(3) =   1
                l(4) =   1
                l(5) =   2
                l(6) =   2
     Q(r) pseudized with  8 coefficients,  rinner =    1.100   1.100   1.100
                                                       1.100   1.100

     PseudoPot. # 2 for Hg read from file:
     /home/vossj/suncat/psp/gbrv1.5pbe/Hg.UPF
     MD5 check sum: 8f42caffe07f7fd9c0a564347f8c5498
     Pseudo is Ultrasoft + core correction, Zval = 12.0
     Generated by new atomic code, or converted to UPF format
     Using radial grid of  985 points,  6 beta functions with:
                l(1) =   0
                l(2) =   0
                l(3) =   1
                l(4) =   1
                l(5) =   2
                l(6) =   2
     Q(r) pseudized with  8 coefficients,  rinner =    2.000   2.000   2.000
                                                       2.000   2.000

     vdW kernel table read from file vdW_kernel_table
     MD5 check sum: 095c7af220d748ca6e76c0b4c6cfb241

     atomic species   valence    mass     pseudopotential
        Zn1           20.00    65.38000     Zn( 1.00)
        Hg1           12.00   200.59200     Hg( 1.00)

     48 Sym. Ops., with inversion, found (32 have fractional translation)

   Cartesian axes

     site n.     atom                  positions (alat units)
         1           Zn1 tau(   1) = (   0.0000000   0.0000000   0.0000000  )
         2           Zn1 tau(   2) = (   0.0000000   2.0963369   2.0963369  )
         3           Zn1 tau(   3) = (   2.0963369   0.0000000   2.0963369  )
         4           Hg1 tau(   4) = (   2.0963369   2.0963369   0.0000000  )

     number of k points=    84  Fermi-Dirac smearing, width (Ry)=  0.0073
                       cart. coord. in units 2pi/alat
        k(    1) = (   0.0000000   0.0000000   0.0000000), wk =   0.0011574
        k(    2) = (   0.0000000   0.0000000   0.0198759), wk =   0.0069444
        k(    3) = (   0.0000000   0.0000000   0.0397519), wk =   0.0069444
        k(    4) = (   0.0000000   0.0000000   0.0596278), wk =   0.0069444
        k(    5) = (   0.0000000   0.0000000   0.0795038), wk =   0.0069444
        k(    6) = (   0.0000000   0.0000000   0.0993797), wk =   0.0069444
        k(    7) = (   0.0000000   0.0000000  -0.1192556), wk =   0.0034722
        k(    8) = (   0.0000000   0.0198759   0.0198759), wk =   0.0138889
        k(    9) = (   0.0000000   0.0198759   0.0397519), wk =   0.0277778
        k(   10) = (   0.0000000   0.0198759   0.0596278), wk =   0.0277778
        k(   11) = (   0.0000000   0.0198759   0.0795038), wk =   0.0277778
        k(   12) = (   0.0000000   0.0198759   0.0993797), wk =   0.0277778
        k(   13) = (   0.0000000   0.0198759  -0.1192556), wk =   0.0138889
        k(   14) = (   0.0000000   0.0397519   0.0397519), wk =   0.0138889
        k(   15) = (   0.0000000   0.0397519   0.0596278), wk =   0.0277778
        k(   16) = (   0.0000000   0.0397519   0.0795038), wk =   0.0277778
        k(   17) = (   0.0000000   0.0397519   0.0993797), wk =   0.0277778
        k(   18) = (   0.0000000   0.0397519  -0.1192556), wk =   0.0138889
        k(   19) = (   0.0000000   0.0596278   0.0596278), wk =   0.0138889
        k(   20) = (   0.0000000   0.0596278   0.0795038), wk =   0.0277778
        k(   21) = (   0.0000000   0.0596278   0.0993797), wk =   0.0277778
        k(   22) = (   0.0000000   0.0596278  -0.1192556), wk =   0.0138889
        k(   23) = (   0.0000000   0.0795038   0.0795038), wk =   0.0138889
        k(   24) = (   0.0000000   0.0795038   0.0993797), wk =   0.0277778
        k(   25) = (   0.0000000   0.0795038  -0.1192556), wk =   0.0138889
        k(   26) = (   0.0000000   0.0993797   0.0993797), wk =   0.0138889
        k(   27) = (   0.0000000   0.0993797  -0.1192556), wk =   0.0138889
        k(   28) = (   0.0000000  -0.1192556  -0.1192556), wk =   0.0034722
        k(   29) = (   0.0198759   0.0198759   0.0198759), wk =   0.0092593
        k(   30) = (   0.0198759   0.0198759   0.0397519), wk =   0.0277778
        k(   31) = (   0.0198759   0.0198759   0.0596278), wk =   0.0277778
        k(   32) = (   0.0198759   0.0198759   0.0795038), wk =   0.0277778
        k(   33) = (   0.0198759   0.0198759   0.0993797), wk =   0.0277778
        k(   34) = (   0.0198759   0.0198759  -0.1192556), wk =   0.0138889
        k(   35) = (   0.0198759   0.0397519   0.0397519), wk =   0.0277778
        k(   36) = (   0.0198759   0.0397519   0.0596278), wk =   0.0555556
        k(   37) = (   0.0198759   0.0397519   0.0795038), wk =   0.0555556
        k(   38) = (   0.0198759   0.0397519   0.0993797), wk =   0.0555556
        k(   39) = (   0.0198759   0.0397519  -0.1192556), wk =   0.0277778
        k(   40) = (   0.0198759   0.0596278   0.0596278), wk =   0.0277778
        k(   41) = (   0.0198759   0.0596278   0.0795038), wk =   0.0555556
        k(   42) = (   0.0198759   0.0596278   0.0993797), wk =   0.0555556
        k(   43) = (   0.0198759   0.0596278  -0.1192556), wk =   0.0277778
        k(   44) = (   0.0198759   0.0795038   0.0795038), wk =   0.0277778
        k(   45) = (   0.0198759   0.0795038   0.0993797), wk =   0.0555556
        k(   46) = (   0.0198759   0.0795038  -0.1192556), wk =   0.0277778
        k(   47) = (   0.0198759   0.0993797   0.0993797), wk =   0.0277778
        k(   48) = (   0.0198759   0.0993797  -0.1192556), wk =   0.0277778
        k(   49) = (   0.0198759  -0.1192556  -0.1192556), wk =   0.0069444
        k(   50) = (   0.0397519   0.0397519   0.0397519), wk =   0.0092593
        k(   51) = (   0.0397519   0.0397519   0.0596278), wk =   0.0277778
        k(   52) = (   0.0397519   0.0397519   0.0795038), wk =   0.0277778
        k(   53) = (   0.0397519   0.0397519   0.0993797), wk =   0.0277778
        k(   54) = (   0.0397519   0.0397519  -0.1192556), wk =   0.0138889
        k(   55) = (   0.0397519   0.0596278   0.0596278), wk =   0.0277778
        k(   56) = (   0.0397519   0.0596278   0.0795038), wk =   0.0555556
        k(   57) = (   0.0397519   0.0596278   0.0993797), wk =   0.0555556
        k(   58) = (   0.0397519   0.0596278  -0.1192556), wk =   0.0277778
        k(   59) = (   0.0397519   0.0795038   0.0795038), wk =   0.0277778
        k(   60) = (   0.0397519   0.0795038   0.0993797), wk =   0.0555556
[...]
        k(   70) = (   0.0596278   0.0795038   0.0993797), wk =   0.0555556
        k(   71) = (   0.0596278   0.0795038  -0.1192556), wk =   0.0277778
        k(   72) = (   0.0596278   0.0993797   0.0993797), wk =   0.0277778
        k(   73) = (   0.0596278   0.0993797  -0.1192556), wk =   0.0277778
        k(   74) = (   0.0596278  -0.1192556  -0.1192556), wk =   0.0069444
        k(   75) = (   0.0795038   0.0795038   0.0795038), wk =   0.0092593
        k(   76) = (   0.0795038   0.0795038   0.0993797), wk =   0.0277778
        k(   77) = (   0.0795038   0.0795038  -0.1192556), wk =   0.0138889
        k(   78) = (   0.0795038   0.0993797   0.0993797), wk =   0.0277778
        k(   79) = (   0.0795038   0.0993797  -0.1192556), wk =   0.0277778
        k(   80) = (   0.0795038  -0.1192556  -0.1192556), wk =   0.0069444
        k(   81) = (   0.0993797   0.0993797   0.0993797), wk =   0.0092593
        k(   82) = (   0.0993797   0.0993797  -0.1192556), wk =   0.0138889
        k(   83) = (   0.0993797  -0.1192556  -0.1192556), wk =   0.0069444
        k(   84) = (  -0.1192556  -0.1192556  -0.1192556), wk =   0.0011574

     Largest allocated arrays     est. size (Mb)     dimensions
     Largest temporary arrays     est. size (Mb)     dimensions

     Initial potential from superposition of free atoms

     starting charge   71.99952, renormalised to   72.00000

     *
     * You are using vdW-DF for exchange-correlation in this calculation.
     * Please cite the following three references that made this development
     * possible:
     *
     *   M. Dion, H. Rydberg, E. Schroder, D. C. Langreth, and
     *   B. I. Lundqvist, Phys. Rev. Lett. 92, 246401 (2004).
     *
     *   T. Thonhauser, V. R. Cooper, S. Li, A. Puzder, P. Hyldgaard, and
     *   D. C. Langreth, Phys. Rev. B 76, 125112 (2007).
     *
     *   G. Roman-Perez and J. M. Soler, Phys. Rev. Lett. 103, 096102 (2009).
     *
     *
     * If you are using vdW-DF2, please also cite:
     *
     *   K. Lee, E. D. Murray, L. Kong, B. I. Lundqvist, and
     *   D. C. Langreth, Phys. Rev. B 82, 081101(R) (2010).
     *
     *
     * If you are calculating the stress with vdW-DF, please also cite:
     *
     *   R. Sabatini, E. Kucukbenli, B. Kolb, T. Thonhauser, and
     *   S. de Gironcoli, J. Phys.: Condens. Matter 24, 424209 (2012).
     *

     Carrying out vdW-DF run using the following parameters:

     Nqs =      20    Nr_points =    1024   r_max =   100.000
     q_mesh =
               0.00001000     0.04494208     0.09755937     0.15916263
               0.23128650     0.31572767     0.41458969     0.53033537
               0.66584808     0.82450364     1.01025438     1.22772762
               1.48234092     1.78043706     2.12944203     2.53805004
               3.01644009     3.57652955     4.23227104     5.00000000

     Gradients computed in reciprocal space

     Starting wfc are   48 randomized atomic wfcs +    8 random wfc

     Self-consistent Calculation

     iteration #  1     ecut=    58.80 Ry     beta=0.10
     Davidson diagonalization with overlap
     ethr =  1.00E-02,  avg # of iterations =  5.3

     Threshold (ethr) on eigenvalues was too large:
     Diagonalizing with lowered threshold

     Davidson diagonalization with overlap
     ethr =  4.18E-05,  avg # of iterations =  3.5

     total energy              =   -1497.42961011 Ry
     Harris-Foulkes estimate   =   -1497.43053099 Ry
     estimated scf accuracy    <       0.03005103 Ry

[...]

     total energy              =   -1497.42573491 Ry
     Harris-Foulkes estimate   =   -1497.42573452 Ry
     estimated scf accuracy    <       0.00000010 Ry

     iteration # 11     ecut=    58.80 Ry     beta=0.10
     Davidson diagonalization with overlap
     ethr =  1.32E-10,  avg # of iterations =  2.0

     End of self-consistent calculation

          k = 0.0000 0.0000 0.0000 (  3791 PWs)   bands (ev):

  -114.8287-114.8280-114.8280 -69.0157 -69.0157 -69.0157 -69.0143 -69.0143
   -69.0143 -69.0042 -69.0042 -69.0042   2.1638   3.3161   3.3161   3.4687
     3.4687   3.4687   3.7277   4.1171   4.1171   4.1171   4.4260   4.4260
     4.5807   4.6551   4.6551   4.6551   4.8463   4.8463   5.0512   5.0512
     5.0512  11.0783  11.0783  11.0783  12.3511  13.1597  13.1597  18.6590
    18.6590  18.6590  19.7842  19.7842  19.7842  23.3757  23.5673  23.5673
    23.5673  23.6436  23.6436  27.8361  27.8361  27.8361  27.8767  31.5824

[...]

          k = 0.0994-0.1193-0.1193 (  3788 PWs)   bands (ev):

[...]

          k =-0.1193-0.1193-0.1193 (  3840 PWs)   bands (ev):

  -114.8283-114.8283-114.8283 -69.0169 -69.0169 -69.0169 -69.0122 -69.0122
   -69.0122 -69.0097 -69.0027 -69.0027   3.3273   3.3273   3.3273   3.5645
     4.0006   4.0006   4.1205   4.1205   4.1205   4.1397   4.1397   4.1397
     4.5997   4.5997   4.5997   4.8312   4.8312   4.8312   4.9003   4.9003
     9.1663   9.4571   9.4571   9.4571   9.4607  10.4997  10.4997  10.4997
    24.1124  24.1124  24.1124  24.6175  24.6175  26.4890  26.4890  26.4890
    26.8495  26.8495  26.8495  27.1381  28.2684  28.2684  28.2684  28.9696

     the Fermi energy is    11.7353 ev

!    total energy              =   -1497.42573671 Ry
     Harris-Foulkes estimate   =   -1497.42573493 Ry
     estimated scf accuracy    <          3.2E-09 Ry

     The total energy is the sum of the following terms:

     one-electron contribution =   -1190.16861333 Ry
     hartree contribution      =     627.09476780 Ry
     xc contribution           =    -170.72289977 Ry
     ewald contribution        =    -763.62570952 Ry
     smearing contrib. (-TS)   =      -0.00328190 Ry

     convergence has been achieved in  11 iterations

     Forces acting on atoms (Ry/au):

     atom    1 type  1   force =     0.00000000    0.00000000    0.00000000
     atom    2 type  1   force =     0.00000000    0.00000000    0.00000000
     atom    3 type  1   force =     0.00000000    0.00000000    0.00000000
     atom    4 type  2   force =     0.00000000    0.00000000    0.00000000

     Total force =     0.000000     Total SCF correction =     0.000000
 !ASE

     General routines

     Parallel routines

   This run was terminated on:  23:57:39  25Oct2017

   JOB DONE.