     Program PWSCF v.5.1rc2 (svn rev. ) starts on 25Oct2017 at 11:41: 6

     Current dimensions of program PWSCF are:
     Max number of different atomic species (ntypx) = 10
     Max number of k-points (npk) =  40000
     Max angular momentum in pseudopotentials (lmaxx) =  3

     IMPORTANT: XC functional enforced from input :
     Exchange-correlation      = BEEF-VDW ( 1  4 27 13 2)
     Any further DFT definition will be discarded
     Please, verify this is what you really want

     Subspace diagonalization in iterative solution of the eigenvalue problem:
     a serial algorithm will be used

     bravais-lattice index     =            0
     lattice parameter (alat)  =       1.8897  a.u.
     unit-cell volume          =     759.7543 (a.u.)^3
     number of atoms/cell      =            4
     number of atomic types    =            2
     number of electrons       =        54.00
     number of Kohn-Sham states=           47
     kinetic-energy cutoff     =      58.7989  Ry
     charge density cutoff     =     587.9892  Ry
     convergence threshold     =      7.3E-09
     mixing beta               =       0.1000
     number of iterations used =           10  local-TF  mixing
     Exchange-correlation      = BEEF-VDW ( 1  4 27 13 2)
     nstep                     =           50

     celldm(1)=   1.889726  celldm(2)=   0.000000  celldm(3)=   0.000000
     celldm(4)=   0.000000  celldm(5)=   0.000000  celldm(6)=   0.000000

     crystal axes: (cart. coord. in units of alat)
               a(1) = (   4.828648   0.000000   0.000000 )
               a(2) = (   0.000000   4.828648   0.000000 )
               a(3) = (   0.000000   0.000000   4.828648 )

     reciprocal axes: (cart. coord. in units 2 pi/alat)
               b(1) = (  0.207097  0.000000  0.000000 )
               b(2) = (  0.000000  0.207097  0.000000 )
               b(3) = (  0.000000  0.000000  0.207097 )

     PseudoPot. # 1 for Pb read from file:
     /home/vossj/suncat/psp/gbrv1.5pbe/Pb.UPF
     MD5 check sum: 3d1c1779aa92214d1e8f3a7db79003e2
     Pseudo is Ultrasoft + core correction, Zval = 14.0
     Generated by new atomic code, or converted to UPF format
     Using radial grid of  899 points,  6 beta functions with:
                l(1) =   0
                l(2) =   0
                l(3) =   1
                l(4) =   1
                l(5) =   2
                l(6) =   2
     Q(r) pseudized with  6 coefficients,  rinner =    1.000   1.000   1.000
                                                       1.000   1.000

     PseudoPot. # 2 for Zr read from file:
     /home/vossj/suncat/psp/gbrv1.5pbe/Zr.UPF
     MD5 check sum: 5db81b1e868ab7776c4564c113de050b
     Pseudo is Ultrasoft + core correction, Zval = 12.0
     Generated by new atomic code, or converted to UPF format
     Using radial grid of  887 points,  6 beta functions with:
                l(1) =   0
                l(2) =   0
                l(3) =   1
                l(4) =   1
                l(5) =   2
                l(6) =   2
     Q(r) pseudized with  6 coefficients,  rinner =    1.200   1.200   1.200
                                                       1.200   1.200

     vdW kernel table read from file vdW_kernel_table
     MD5 check sum: 095c7af220d748ca6e76c0b4c6cfb241

     atomic species   valence    mass     pseudopotential
        Pb1           14.00   207.20000     Pb( 1.00)
        Zr1           12.00    91.22400     Zr( 1.00)

     48 Sym. Ops., with inversion, found (32 have fractional translation)

   Cartesian axes

     site n.     atom                  positions (alat units)
         1           Pb1 tau(   1) = (   0.0000000   0.0000000   0.0000000  )
         2           Pb1 tau(   2) = (   0.0000000   2.4143238   2.4143238  )
         3           Pb1 tau(   3) = (   2.4143238   0.0000000   2.4143238  )
         4           Zr1 tau(   4) = (   2.4143238   2.4143238   0.0000000  )

     number of k points=    84  Fermi-Dirac smearing, width (Ry)=  0.0073
                       cart. coord. in units 2pi/alat
        k(    1) = (   0.0000000   0.0000000   0.0000000), wk =   0.0011574
        k(    2) = (   0.0000000   0.0000000   0.0172581), wk =   0.0069444
        k(    3) = (   0.0000000   0.0000000   0.0345162), wk =   0.0069444
        k(    4) = (   0.0000000   0.0000000   0.0517743), wk =   0.0069444
        k(    5) = (   0.0000000   0.0000000   0.0690324), wk =   0.0069444
        k(    6) = (   0.0000000   0.0000000   0.0862906), wk =   0.0069444
        k(    7) = (   0.0000000   0.0000000  -0.1035487), wk =   0.0034722
        k(    8) = (   0.0000000   0.0172581   0.0172581), wk =   0.0138889
        k(    9) = (   0.0000000   0.0172581   0.0345162), wk =   0.0277778
        k(   10) = (   0.0000000   0.0172581   0.0517743), wk =   0.0277778
        k(   11) = (   0.0000000   0.0172581   0.0690324), wk =   0.0277778
        k(   12) = (   0.0000000   0.0172581   0.0862906), wk =   0.0277778
        k(   13) = (   0.0000000   0.0172581  -0.1035487), wk =   0.0138889
        k(   14) = (   0.0000000   0.0345162   0.0345162), wk =   0.0138889
        k(   15) = (   0.0000000   0.0345162   0.0517743), wk =   0.0277778
        k(   16) = (   0.0000000   0.0345162   0.0690324), wk =   0.0277778
        k(   17) = (   0.0000000   0.0345162   0.0862906), wk =   0.0277778
        k(   18) = (   0.0000000   0.0345162  -0.1035487), wk =   0.0138889
        k(   19) = (   0.0000000   0.0517743   0.0517743), wk =   0.0138889
        k(   20) = (   0.0000000   0.0517743   0.0690324), wk =   0.0277778
        k(   21) = (   0.0000000   0.0517743   0.0862906), wk =   0.0277778
        k(   22) = (   0.0000000   0.0517743  -0.1035487), wk =   0.0138889
        k(   23) = (   0.0000000   0.0690324   0.0690324), wk =   0.0138889
        k(   24) = (   0.0000000   0.0690324   0.0862906), wk =   0.0277778
        k(   25) = (   0.0000000   0.0690324  -0.1035487), wk =   0.0138889
        k(   26) = (   0.0000000   0.0862906   0.0862906), wk =   0.0138889
        k(   27) = (   0.0000000   0.0862906  -0.1035487), wk =   0.0138889
        k(   28) = (   0.0000000  -0.1035487  -0.1035487), wk =   0.0034722
        k(   29) = (   0.0172581   0.0172581   0.0172581), wk =   0.0092593
        k(   30) = (   0.0172581   0.0172581   0.0345162), wk =   0.0277778
        k(   31) = (   0.0172581   0.0172581   0.0517743), wk =   0.0277778
        k(   32) = (   0.0172581   0.0172581   0.0690324), wk =   0.0277778
        k(   33) = (   0.0172581   0.0172581   0.0862906), wk =   0.0277778
        k(   34) = (   0.0172581   0.0172581  -0.1035487), wk =   0.0138889
        k(   35) = (   0.0172581   0.0345162   0.0345162), wk =   0.0277778
        k(   36) = (   0.0172581   0.0345162   0.0517743), wk =   0.0555556
        k(   37) = (   0.0172581   0.0345162   0.0690324), wk =   0.0555556
        k(   38) = (   0.0172581   0.0345162   0.0862906), wk =   0.0555556
        k(   39) = (   0.0172581   0.0345162  -0.1035487), wk =   0.0277778
        k(   40) = (   0.0172581   0.0517743   0.0517743), wk =   0.0277778
        k(   41) = (   0.0172581   0.0517743   0.0690324), wk =   0.0555556
        k(   42) = (   0.0172581   0.0517743   0.0862906), wk =   0.0555556
        k(   43) = (   0.0172581   0.0517743  -0.1035487), wk =   0.0277778
        k(   44) = (   0.0172581   0.0690324   0.0690324), wk =   0.0277778
        k(   45) = (   0.0172581   0.0690324   0.0862906), wk =   0.0555556
        k(   46) = (   0.0172581   0.0690324  -0.1035487), wk =   0.0277778
        k(   47) = (   0.0172581   0.0862906   0.0862906), wk =   0.0277778
        k(   48) = (   0.0172581   0.0862906  -0.1035487), wk =   0.0277778
        k(   49) = (   0.0172581  -0.1035487  -0.1035487), wk =   0.0069444
        k(   50) = (   0.0345162   0.0345162   0.0345162), wk =   0.0092593
        k(   51) = (   0.0345162   0.0345162   0.0517743), wk =   0.0277778
        k(   52) = (   0.0345162   0.0345162   0.0690324), wk =   0.0277778
        k(   53) = (   0.0345162   0.0345162   0.0862906), wk =   0.0277778
        k(   54) = (   0.0345162   0.0345162  -0.1035487), wk =   0.0138889
        k(   55) = (   0.0345162   0.0517743   0.0517743), wk =   0.0277778
        k(   56) = (   0.0345162   0.0517743   0.0690324), wk =   0.0555556
        k(   57) = (   0.0345162   0.0517743   0.0862906), wk =   0.0555556
        k(   58) = (   0.0345162   0.0517743  -0.1035487), wk =   0.0277778
        k(   59) = (   0.0345162   0.0690324   0.0690324), wk =   0.0277778
        k(   60) = (   0.0345162   0.0690324   0.0862906), wk =   0.0555556
[...]
        k(   70) = (   0.0517743   0.0690324   0.0862906), wk =   0.0555556
        k(   71) = (   0.0517743   0.0690324  -0.1035487), wk =   0.0277778
        k(   72) = (   0.0517743   0.0862906   0.0862906), wk =   0.0277778
        k(   73) = (   0.0517743   0.0862906  -0.1035487), wk =   0.0277778
        k(   74) = (   0.0517743  -0.1035487  -0.1035487), wk =   0.0069444
        k(   75) = (   0.0690324   0.0690324   0.0690324), wk =   0.0092593
        k(   76) = (   0.0690324   0.0690324   0.0862906), wk =   0.0277778
        k(   77) = (   0.0690324   0.0690324  -0.1035487), wk =   0.0138889
        k(   78) = (   0.0690324   0.0862906   0.0862906), wk =   0.0277778
        k(   79) = (   0.0690324   0.0862906  -0.1035487), wk =   0.0277778
        k(   80) = (   0.0690324  -0.1035487  -0.1035487), wk =   0.0069444
        k(   81) = (   0.0862906   0.0862906   0.0862906), wk =   0.0092593
        k(   82) = (   0.0862906   0.0862906  -0.1035487), wk =   0.0138889
        k(   83) = (   0.0862906  -0.1035487  -0.1035487), wk =   0.0069444
        k(   84) = (  -0.1035487  -0.1035487  -0.1035487), wk =   0.0011574

     Largest allocated arrays     est. size (Mb)     dimensions
     Largest temporary arrays     est. size (Mb)     dimensions

     Initial potential from superposition of free atoms
     Check: negative starting charge=   -0.106630

     starting charge   53.99080, renormalised to   54.00000

     negative rho (up, down):  1.066E-01 0.000E+00

     *
     * You are using vdW-DF for exchange-correlation in this calculation.
     * Please cite the following three references that made this development
     * possible:
     *
     *   M. Dion, H. Rydberg, E. Schroder, D. C. Langreth, and
     *   B. I. Lundqvist, Phys. Rev. Lett. 92, 246401 (2004).
     *
     *   T. Thonhauser, V. R. Cooper, S. Li, A. Puzder, P. Hyldgaard, and
     *   D. C. Langreth, Phys. Rev. B 76, 125112 (2007).
     *
     *   G. Roman-Perez and J. M. Soler, Phys. Rev. Lett. 103, 096102 (2009).
     *
     *
     * If you are using vdW-DF2, please also cite:
     *
     *   K. Lee, E. D. Murray, L. Kong, B. I. Lundqvist, and
     *   D. C. Langreth, Phys. Rev. B 82, 081101(R) (2010).
     *
     *
     * If you are calculating the stress with vdW-DF, please also cite:
     *
     *   R. Sabatini, E. Kucukbenli, B. Kolb, T. Thonhauser, and
     *   S. de Gironcoli, J. Phys.: Condens. Matter 24, 424209 (2012).
     *

     Carrying out vdW-DF run using the following parameters:

     Nqs =      20    Nr_points =    1024   r_max =   100.000
     q_mesh =
               0.00001000     0.04494208     0.09755937     0.15916263
               0.23128650     0.31572767     0.41458969     0.53033537
               0.66584808     0.82450364     1.01025438     1.22772762
               1.48234092     1.78043706     2.12944203     2.53805004
               3.01644009     3.57652955     4.23227104     5.00000000

     Gradients computed in reciprocal space

     Starting wfc are   40 randomized atomic wfcs +    7 random wfc

     Self-consistent Calculation

     iteration #  1     ecut=    58.80 Ry     beta=0.10
     Davidson diagonalization with overlap
     ethr =  1.00E-02,  avg # of iterations =  4.9

     Threshold (ethr) on eigenvalues was too large:
     Diagonalizing with lowered threshold

     Davidson diagonalization with overlap
     c_bands:  2 eigenvalues not converged
     c_bands:  1 eigenvalues not converged
     c_bands:  1 eigenvalues not converged
     c_bands:  1 eigenvalues not converged
     ethr =  2.62E-05,  avg # of iterations = 13.7

[...]

     total energy              =    -597.80041583 Ry
     Harris-Foulkes estimate   =    -597.79765522 Ry
     estimated scf accuracy    <       0.01414989 Ry

[...]

     iteration #  4     ecut=    58.80 Ry     beta=0.10
     Davidson diagonalization with overlap
     c_bands:  2 eigenvalues not converged
     ethr =  1.57E-06,  avg # of iterations =  6.0

[...]

     total energy              =    -597.81039966 Ry
     Harris-Foulkes estimate   =    -597.81038173 Ry
     estimated scf accuracy    <       0.00000005 Ry

     iteration # 25     ecut=    58.80 Ry     beta=0.10
     Davidson diagonalization with overlap
     ethr =  1.95E-11,  avg # of iterations =  2.3

     negative rho (up, down):  1.131E-01 0.000E+00

     End of self-consistent calculation

          k = 0.0000 0.0000 0.0000 (  5743 PWs)   bands (ev):

   -38.1995 -16.1266 -16.1266 -16.1266  -5.3452  -5.3452  -5.3452  -5.3440
    -5.1508  -5.1508  -5.0401  -5.0401  -5.0401  -5.0180  -5.0180  -4.8610
    -4.8609  -4.8609  -4.8554   0.6965   5.4497   5.4497   9.4187   9.4187
     9.4187  12.5055  12.5055  12.5055  12.6770  12.6770  13.3200  14.3583
    14.3583  14.3583  16.5401  16.5401  16.5401  20.1576  20.6955  20.6955
    21.1590  21.1590  21.1590  21.9842  22.6897  22.6897  22.7049

[...]

          k = 0.0863-0.1035-0.1035 (  5812 PWs)   bands (ev):

[...]

          k =-0.1035-0.1035-0.1035 (  5832 PWs)   bands (ev):

   -38.1991 -16.1313 -16.1313 -16.1313  -5.2506  -5.2506  -5.2506  -5.1966
    -5.1846  -5.1846  -5.1846  -5.0542  -5.0542  -5.0542  -4.9956  -4.9955
    -4.8736  -4.8736  -4.8736   3.8417   3.8417   3.8417   7.6759   8.7364
     8.7364   8.7364  12.4868  13.0445  13.0445  13.4207  13.4207  13.4207
    18.1976  18.1976  18.1976  18.2401  18.2401  21.3624  21.3624  21.3624
    21.4859  22.5108  22.5108  22.5109  23.1947  23.1947  23.1947

     the Fermi energy is    12.2175 ev

!    total energy              =    -597.81047203 Ry
     Harris-Foulkes estimate   =    -597.81039967 Ry
     estimated scf accuracy    <          1.1E-10 Ry

     The total energy is the sum of the following terms:

     one-electron contribution =    -108.58786098 Ry
     hartree contribution      =      92.25912518 Ry
     xc contribution           =    -214.43757299 Ry
     ewald contribution        =    -367.03498449 Ry
     smearing contrib. (-TS)   =      -0.00917874 Ry

     convergence has been achieved in  25 iterations

     Forces acting on atoms (Ry/au):

     negative rho (up, down):  1.131E-01 0.000E+00
     atom    1 type  1   force =     0.00000000    0.00000000    0.00000000
     atom    2 type  1   force =     0.00000000    0.00000000    0.00000000
     atom    3 type  1   force =     0.00000000    0.00000000    0.00000000
     atom    4 type  2   force =     0.00000000    0.00000000    0.00000000

     Total force =     0.000000     Total SCF correction =     0.000000
 !ASE

     General routines

     Parallel routines

   This run was terminated on:  11:43:32  25Oct2017

   JOB DONE.