     Program PWSCF v.5.1rc2 (svn rev. ) starts on 25Oct2017 at 14:29:33

     Current dimensions of program PWSCF are:
     Max number of different atomic species (ntypx) = 10
     Max number of k-points (npk) =  40000
     Max angular momentum in pseudopotentials (lmaxx) =  3

     IMPORTANT: XC functional enforced from input :
     Exchange-correlation      = BEEF-VDW ( 1  4 27 13 2)
     Any further DFT definition will be discarded
     Please, verify this is what you really want

     Subspace diagonalization in iterative solution of the eigenvalue problem:
     a serial algorithm will be used

     bravais-lattice index     =            0
     lattice parameter (alat)  =       1.8897  a.u.
     unit-cell volume          =     490.1587 (a.u.)^3
     number of atoms/cell      =            4
     number of atomic types    =            2
     number of electrons       =        56.00
     number of Kohn-Sham states=           48
     kinetic-energy cutoff     =      58.7989  Ry
     charge density cutoff     =     587.9892  Ry
     convergence threshold     =      7.3E-09
     mixing beta               =       0.1000
     number of iterations used =           10  local-TF  mixing
     Exchange-correlation      = BEEF-VDW ( 1  4 27 13 2)
     nstep                     =           50

     celldm(1)=   1.889726  celldm(2)=   0.000000  celldm(3)=   0.000000
     celldm(4)=   0.000000  celldm(5)=   0.000000  celldm(6)=   0.000000

     crystal axes: (cart. coord. in units of alat)
               a(1) = (   4.172343   0.000000   0.000000 )
               a(2) = (   0.000000   4.172343   0.000000 )
               a(3) = (   0.000000   0.000000   4.172343 )

     reciprocal axes: (cart. coord. in units 2 pi/alat)
               b(1) = (  0.239673  0.000000  0.000000 )
               b(2) = (  0.000000  0.239673  0.000000 )
               b(3) = (  0.000000  0.000000  0.239673 )

     PseudoPot. # 1 for Ir read from file:
     /home/vossj/suncat/psp/gbrv1.5pbe/Ir.UPF
     MD5 check sum: 8836f839c3459d2b385c504ce6d91f2c
     Pseudo is Ultrasoft + core correction, Zval = 15.0
     Generated by new atomic code, or converted to UPF format
     Using radial grid of  983 points,  7 beta functions with:
                l(1) =   0
                l(2) =   0
                l(3) =   1
                l(4) =   1
                l(5) =   1
                l(6) =   2
                l(7) =   2
     Q(r) pseudized with  8 coefficients,  rinner =    1.400   1.400   1.400
                                                       1.400   1.400

     PseudoPot. # 2 for La read from file:
     /home/vossj/suncat/psp/gbrv1.5pbe/La.UPF
     MD5 check sum: 5937b0c7494ba0601a847275249473aa
     Pseudo is Ultrasoft + core correction, Zval = 11.0
     Generated by new atomic code, or converted to UPF format
     Using radial grid of  995 points,  8 beta functions with:
                l(1) =   0
                l(2) =   0
                l(3) =   1
                l(4) =   1
                l(5) =   2
                l(6) =   2
                l(7) =   3
                l(8) =   3
     Q(r) pseudized with  8 coefficients,  rinner =    1.700   1.700   1.700
                                                       1.700   1.700   1.700
                                                       1.700

     vdW kernel table read from file vdW_kernel_table
     MD5 check sum: 095c7af220d748ca6e76c0b4c6cfb241

     atomic species   valence    mass     pseudopotential
        Ir1           15.00   192.21700     Ir( 1.00)
        La1           11.00   138.90547     La( 1.00)

     48 Sym. Ops., with inversion, found (32 have fractional translation)

   Cartesian axes

     site n.     atom                  positions (alat units)
         1           Ir1 tau(   1) = (   0.0000000   0.0000000   0.0000000  )
         2           Ir1 tau(   2) = (   0.0000000   2.0861716   2.0861716  )
         3           Ir1 tau(   3) = (   2.0861716   0.0000000   2.0861716  )
         4           La1 tau(   4) = (   2.0861716   2.0861716   0.0000000  )

     number of k points=    84  Fermi-Dirac smearing, width (Ry)=  0.0073
                       cart. coord. in units 2pi/alat
        k(    1) = (   0.0000000   0.0000000   0.0000000), wk =   0.0011574
        k(    2) = (   0.0000000   0.0000000   0.0199728), wk =   0.0069444
        k(    3) = (   0.0000000   0.0000000   0.0399456), wk =   0.0069444
        k(    4) = (   0.0000000   0.0000000   0.0599184), wk =   0.0069444
        k(    5) = (   0.0000000   0.0000000   0.0798912), wk =   0.0069444
        k(    6) = (   0.0000000   0.0000000   0.0998639), wk =   0.0069444
        k(    7) = (   0.0000000   0.0000000  -0.1198367), wk =   0.0034722
        k(    8) = (   0.0000000   0.0199728   0.0199728), wk =   0.0138889
        k(    9) = (   0.0000000   0.0199728   0.0399456), wk =   0.0277778
        k(   10) = (   0.0000000   0.0199728   0.0599184), wk =   0.0277778
        k(   11) = (   0.0000000   0.0199728   0.0798912), wk =   0.0277778
        k(   12) = (   0.0000000   0.0199728   0.0998639), wk =   0.0277778
        k(   13) = (   0.0000000   0.0199728  -0.1198367), wk =   0.0138889
        k(   14) = (   0.0000000   0.0399456   0.0399456), wk =   0.0138889
        k(   15) = (   0.0000000   0.0399456   0.0599184), wk =   0.0277778
        k(   16) = (   0.0000000   0.0399456   0.0798912), wk =   0.0277778
        k(   17) = (   0.0000000   0.0399456   0.0998639), wk =   0.0277778
        k(   18) = (   0.0000000   0.0399456  -0.1198367), wk =   0.0138889
        k(   19) = (   0.0000000   0.0599184   0.0599184), wk =   0.0138889
        k(   20) = (   0.0000000   0.0599184   0.0798912), wk =   0.0277778
        k(   21) = (   0.0000000   0.0599184   0.0998639), wk =   0.0277778
        k(   22) = (   0.0000000   0.0599184  -0.1198367), wk =   0.0138889
        k(   23) = (   0.0000000   0.0798912   0.0798912), wk =   0.0138889
        k(   24) = (   0.0000000   0.0798912   0.0998639), wk =   0.0277778
        k(   25) = (   0.0000000   0.0798912  -0.1198367), wk =   0.0138889
        k(   26) = (   0.0000000   0.0998639   0.0998639), wk =   0.0138889
        k(   27) = (   0.0000000   0.0998639  -0.1198367), wk =   0.0138889
        k(   28) = (   0.0000000  -0.1198367  -0.1198367), wk =   0.0034722
        k(   29) = (   0.0199728   0.0199728   0.0199728), wk =   0.0092593
        k(   30) = (   0.0199728   0.0199728   0.0399456), wk =   0.0277778
        k(   31) = (   0.0199728   0.0199728   0.0599184), wk =   0.0277778
        k(   32) = (   0.0199728   0.0199728   0.0798912), wk =   0.0277778
        k(   33) = (   0.0199728   0.0199728   0.0998639), wk =   0.0277778
        k(   34) = (   0.0199728   0.0199728  -0.1198367), wk =   0.0138889
        k(   35) = (   0.0199728   0.0399456   0.0399456), wk =   0.0277778
        k(   36) = (   0.0199728   0.0399456   0.0599184), wk =   0.0555556
        k(   37) = (   0.0199728   0.0399456   0.0798912), wk =   0.0555556
        k(   38) = (   0.0199728   0.0399456   0.0998639), wk =   0.0555556
        k(   39) = (   0.0199728   0.0399456  -0.1198367), wk =   0.0277778
        k(   40) = (   0.0199728   0.0599184   0.0599184), wk =   0.0277778
        k(   41) = (   0.0199728   0.0599184   0.0798912), wk =   0.0555556
        k(   42) = (   0.0199728   0.0599184   0.0998639), wk =   0.0555556
        k(   43) = (   0.0199728   0.0599184  -0.1198367), wk =   0.0277778
        k(   44) = (   0.0199728   0.0798912   0.0798912), wk =   0.0277778
        k(   45) = (   0.0199728   0.0798912   0.0998639), wk =   0.0555556
        k(   46) = (   0.0199728   0.0798912  -0.1198367), wk =   0.0277778
        k(   47) = (   0.0199728   0.0998639   0.0998639), wk =   0.0277778
        k(   48) = (   0.0199728   0.0998639  -0.1198367), wk =   0.0277778
        k(   49) = (   0.0199728  -0.1198367  -0.1198367), wk =   0.0069444
        k(   50) = (   0.0399456   0.0399456   0.0399456), wk =   0.0092593
        k(   51) = (   0.0399456   0.0399456   0.0599184), wk =   0.0277778
        k(   52) = (   0.0399456   0.0399456   0.0798912), wk =   0.0277778
        k(   53) = (   0.0399456   0.0399456   0.0998639), wk =   0.0277778
        k(   54) = (   0.0399456   0.0399456  -0.1198367), wk =   0.0138889
        k(   55) = (   0.0399456   0.0599184   0.0599184), wk =   0.0277778
        k(   56) = (   0.0399456   0.0599184   0.0798912), wk =   0.0555556
        k(   57) = (   0.0399456   0.0599184   0.0998639), wk =   0.0555556
        k(   58) = (   0.0399456   0.0599184  -0.1198367), wk =   0.0277778
        k(   59) = (   0.0399456   0.0798912   0.0798912), wk =   0.0277778
        k(   60) = (   0.0399456   0.0798912   0.0998639), wk =   0.0555556
[...]
        k(   70) = (   0.0599184   0.0798912   0.0998639), wk =   0.0555556
        k(   71) = (   0.0599184   0.0798912  -0.1198367), wk =   0.0277778
        k(   72) = (   0.0599184   0.0998639   0.0998639), wk =   0.0277778
        k(   73) = (   0.0599184   0.0998639  -0.1198367), wk =   0.0277778
        k(   74) = (   0.0599184  -0.1198367  -0.1198367), wk =   0.0069444
        k(   75) = (   0.0798912   0.0798912   0.0798912), wk =   0.0092593
        k(   76) = (   0.0798912   0.0798912   0.0998639), wk =   0.0277778
        k(   77) = (   0.0798912   0.0798912  -0.1198367), wk =   0.0138889
        k(   78) = (   0.0798912   0.0998639   0.0998639), wk =   0.0277778
        k(   79) = (   0.0798912   0.0998639  -0.1198367), wk =   0.0277778
        k(   80) = (   0.0798912  -0.1198367  -0.1198367), wk =   0.0069444
        k(   81) = (   0.0998639   0.0998639   0.0998639), wk =   0.0092593
        k(   82) = (   0.0998639   0.0998639  -0.1198367), wk =   0.0138889
        k(   83) = (   0.0998639  -0.1198367  -0.1198367), wk =   0.0069444
        k(   84) = (  -0.1198367  -0.1198367  -0.1198367), wk =   0.0011574

     Largest allocated arrays     est. size (Mb)     dimensions
     Largest temporary arrays     est. size (Mb)     dimensions

     Initial potential from superposition of free atoms
     Check: negative starting charge=   -1.162898

     starting charge   54.46784, renormalised to   56.00000

     negative rho (up, down):  1.196E+00 0.000E+00

     *
     * You are using vdW-DF for exchange-correlation in this calculation.
     * Please cite the following three references that made this development
     * possible:
     *
     *   M. Dion, H. Rydberg, E. Schroder, D. C. Langreth, and
     *   B. I. Lundqvist, Phys. Rev. Lett. 92, 246401 (2004).
     *
     *   T. Thonhauser, V. R. Cooper, S. Li, A. Puzder, P. Hyldgaard, and
     *   D. C. Langreth, Phys. Rev. B 76, 125112 (2007).
     *
     *   G. Roman-Perez and J. M. Soler, Phys. Rev. Lett. 103, 096102 (2009).
     *
     *
     * If you are using vdW-DF2, please also cite:
     *
     *   K. Lee, E. D. Murray, L. Kong, B. I. Lundqvist, and
     *   D. C. Langreth, Phys. Rev. B 82, 081101(R) (2010).
     *
     *
     * If you are calculating the stress with vdW-DF, please also cite:
     *
     *   R. Sabatini, E. Kucukbenli, B. Kolb, T. Thonhauser, and
     *   S. de Gironcoli, J. Phys.: Condens. Matter 24, 424209 (2012).
     *

     Carrying out vdW-DF run using the following parameters:

     Nqs =      20    Nr_points =    1024   r_max =   100.000
     q_mesh =
               0.00001000     0.04494208     0.09755937     0.15916263
               0.23128650     0.31572767     0.41458969     0.53033537
               0.66584808     0.82450364     1.01025438     1.22772762
               1.48234092     1.78043706     2.12944203     2.53805004
               3.01644009     3.57652955     4.23227104     5.00000000

     Gradients computed in reciprocal space

     Starting wfc are   56 randomized atomic wfcs

     Self-consistent Calculation

     iteration #  1     ecut=    58.80 Ry     beta=0.10
     Davidson diagonalization with overlap
     ethr =  1.00E-02,  avg # of iterations =  3.3

[...]

     total energy              =    -654.71719966 Ry
     Harris-Foulkes estimate   =    -655.49084795 Ry
     estimated scf accuracy    <      13.33607968 Ry

[...]

     total energy              =    -654.16398580 Ry
     Harris-Foulkes estimate   =    -654.16397819 Ry
     estimated scf accuracy    <       0.00000004 Ry

     iteration # 14     ecut=    58.80 Ry     beta=0.10
     Davidson diagonalization with overlap
     ethr =  5.63E-11,  avg # of iterations =  1.6

     negative rho (up, down):  1.026E+00 0.000E+00

     End of self-consistent calculation

          k = 0.0000 0.0000 0.0000 (  3743 PWs)   bands (ev):

   -29.7635 -29.7635 -29.7635 -29.5983 -29.5983 -29.5983 -29.5446 -29.5446
   -29.5446 -11.9943   4.2437   4.2437   4.2437  11.8333  13.7877  13.7877
    14.4290  14.4290  14.4290  14.6342  17.1536  17.1536  17.1536  18.7970
    18.7970  19.7627  20.2291  20.2291  20.2291  22.1050  22.1050  22.1050
    22.9805  22.9805  22.9805  23.2650  23.7401  23.7401  24.4652  24.4652
    24.4652  27.2946  27.2946  27.2946  30.0419  30.0419  30.0419  30.2725

[...]

          k = 0.0999-0.1198-0.1198 (  3728 PWs)   bands (ev):

[...]

          k =-0.1198-0.1198-0.1198 (  3648 PWs)   bands (ev):

   -29.8571 -29.7088 -29.7088 -29.7088 -29.5898 -29.5898 -29.5234 -29.5234
   -29.5234 -11.9268   3.9635   3.9635   3.9635  13.5065  13.5065  13.5065
    15.4235  16.4284  16.4284  16.4284  17.1151  17.1151  17.1151  17.6349
    17.6349  18.8258  19.8245  19.8245  19.8245  22.0773  22.0773  22.0773
    22.3550  22.3550  22.3550  23.3429  23.3429  23.3429  23.6348  23.6348
    23.6348  23.6522  26.5187  26.5187  30.4142  30.4142  30.4142  30.7582

     the Fermi energy is    18.8682 ev

!    total energy              =    -654.16401836 Ry
     Harris-Foulkes estimate   =    -654.16398581 Ry
     estimated scf accuracy    <          1.0E-09 Ry

     The total energy is the sum of the following terms:

     one-electron contribution =     -64.84488226 Ry
     hartree contribution      =      77.20354226 Ry
     xc contribution           =    -207.18856453 Ry
     ewald contribution        =    -459.32522121 Ry
     smearing contrib. (-TS)   =      -0.00889261 Ry

     convergence has been achieved in  14 iterations

     Forces acting on atoms (Ry/au):

     negative rho (up, down):  1.026E+00 0.000E+00
     atom    1 type  1   force =     0.00000000    0.00000000   -0.00000000
     atom    2 type  1   force =     0.00000000    0.00000000    0.00000000
     atom    3 type  1   force =     0.00000000    0.00000000    0.00000000
     atom    4 type  2   force =     0.00000000    0.00000000    0.00000000

     Total force =     0.000000     Total SCF correction =     0.000000
 !ASE

     General routines

     Parallel routines

   This run was terminated on:  14:30:40  25Oct2017

   JOB DONE.