     Program PWSCF v.5.1rc2 (svn rev. ) starts on 26Oct2017 at  0:54:39

     Current dimensions of program PWSCF are:
     Max number of different atomic species (ntypx) = 10
     Max number of k-points (npk) =  40000
     Max angular momentum in pseudopotentials (lmaxx) =  3

     IMPORTANT: XC functional enforced from input :
     Exchange-correlation      = BEEF-VDW ( 1  4 27 13 2)
     Any further DFT definition will be discarded
     Please, verify this is what you really want

     Subspace diagonalization in iterative solution of the eigenvalue problem:
     a serial algorithm will be used

     bravais-lattice index     =            0
     lattice parameter (alat)  =       1.8897  a.u.
     unit-cell volume          =     489.1985 (a.u.)^3
     number of atoms/cell      =            4
     number of atomic types    =            2
     number of electrons       =        58.00
     number of Kohn-Sham states=           49
     kinetic-energy cutoff     =      58.7989  Ry
     charge density cutoff     =     587.9892  Ry
     convergence threshold     =      7.3E-09
     mixing beta               =       0.1000
     number of iterations used =           10  local-TF  mixing
     Exchange-correlation      = BEEF-VDW ( 1  4 27 13 2)
     nstep                     =           50

     celldm(1)=   1.889726  celldm(2)=   0.000000  celldm(3)=   0.000000
     celldm(4)=   0.000000  celldm(5)=   0.000000  celldm(6)=   0.000000

     crystal axes: (cart. coord. in units of alat)
               a(1) = (   4.169617   0.000000   0.000000 )
               a(2) = (   0.000000   4.169617   0.000000 )
               a(3) = (   0.000000   0.000000   4.169617 )

     reciprocal axes: (cart. coord. in units 2 pi/alat)
               b(1) = (  0.239830  0.000000  0.000000 )
               b(2) = (  0.000000  0.239830  0.000000 )
               b(3) = (  0.000000  0.000000  0.239830 )

     PseudoPot. # 1 for Ta read from file:
     /home/vossj/suncat/psp/gbrv1.5pbe/Ta.UPF
     MD5 check sum: f8bbe9446314a3b8ea5d9f3e3836c939
     Pseudo is Ultrasoft + core correction, Zval = 13.0
     Generated by new atomic code, or converted to UPF format
     Using radial grid of  921 points,  7 beta functions with:
                l(1) =   0
                l(2) =   0
                l(3) =   1
                l(4) =   1
                l(5) =   2
                l(6) =   2
                l(7) =   3
     Q(r) pseudized with  6 coefficients,  rinner =    1.300   1.300   1.300
                                                       1.300   1.300   1.300
                                                       1.300

     PseudoPot. # 2 for Ag read from file:
     /home/vossj/suncat/psp/gbrv1.5pbe/Ag.UPF
     MD5 check sum: d66d668201baa78d5eb5b04ef7011058
     Pseudo is Ultrasoft + core correction, Zval = 19.0
     Generated by new atomic code, or converted to UPF format
     Using radial grid of  887 points,  6 beta functions with:
                l(1) =   0
                l(2) =   0
                l(3) =   1
                l(4) =   1
                l(5) =   2
                l(6) =   2
     Q(r) pseudized with  6 coefficients,  rinner =    1.300   1.300   1.300
                                                       1.300   1.300

     vdW kernel table read from file vdW_kernel_table
     MD5 check sum: 095c7af220d748ca6e76c0b4c6cfb241

     atomic species   valence    mass     pseudopotential
        Ta1           13.00   180.94788     Ta( 1.00)
        Ag1           19.00   107.86820     Ag( 1.00)

     48 Sym. Ops., with inversion, found (32 have fractional translation)

   Cartesian axes

     site n.     atom                  positions (alat units)
         1           Ta1 tau(   1) = (   0.0000000   0.0000000   0.0000000  )
         2           Ta1 tau(   2) = (   0.0000000   2.0848086   2.0848086  )
         3           Ta1 tau(   3) = (   2.0848086   0.0000000   2.0848086  )
         4           Ag1 tau(   4) = (   2.0848086   2.0848086   0.0000000  )

     number of k points=    84  Fermi-Dirac smearing, width (Ry)=  0.0073
                       cart. coord. in units 2pi/alat
        k(    1) = (   0.0000000   0.0000000   0.0000000), wk =   0.0011574
        k(    2) = (   0.0000000   0.0000000   0.0199858), wk =   0.0069444
        k(    3) = (   0.0000000   0.0000000   0.0399717), wk =   0.0069444
        k(    4) = (   0.0000000   0.0000000   0.0599575), wk =   0.0069444
        k(    5) = (   0.0000000   0.0000000   0.0799434), wk =   0.0069444
        k(    6) = (   0.0000000   0.0000000   0.0999292), wk =   0.0069444
        k(    7) = (   0.0000000   0.0000000  -0.1199151), wk =   0.0034722
        k(    8) = (   0.0000000   0.0199858   0.0199858), wk =   0.0138889
        k(    9) = (   0.0000000   0.0199858   0.0399717), wk =   0.0277778
        k(   10) = (   0.0000000   0.0199858   0.0599575), wk =   0.0277778
        k(   11) = (   0.0000000   0.0199858   0.0799434), wk =   0.0277778
        k(   12) = (   0.0000000   0.0199858   0.0999292), wk =   0.0277778
        k(   13) = (   0.0000000   0.0199858  -0.1199151), wk =   0.0138889
        k(   14) = (   0.0000000   0.0399717   0.0399717), wk =   0.0138889
        k(   15) = (   0.0000000   0.0399717   0.0599575), wk =   0.0277778
        k(   16) = (   0.0000000   0.0399717   0.0799434), wk =   0.0277778
        k(   17) = (   0.0000000   0.0399717   0.0999292), wk =   0.0277778
        k(   18) = (   0.0000000   0.0399717  -0.1199151), wk =   0.0138889
        k(   19) = (   0.0000000   0.0599575   0.0599575), wk =   0.0138889
        k(   20) = (   0.0000000   0.0599575   0.0799434), wk =   0.0277778
        k(   21) = (   0.0000000   0.0599575   0.0999292), wk =   0.0277778
        k(   22) = (   0.0000000   0.0599575  -0.1199151), wk =   0.0138889
        k(   23) = (   0.0000000   0.0799434   0.0799434), wk =   0.0138889
        k(   24) = (   0.0000000   0.0799434   0.0999292), wk =   0.0277778
        k(   25) = (   0.0000000   0.0799434  -0.1199151), wk =   0.0138889
        k(   26) = (   0.0000000   0.0999292   0.0999292), wk =   0.0138889
        k(   27) = (   0.0000000   0.0999292  -0.1199151), wk =   0.0138889
        k(   28) = (   0.0000000  -0.1199151  -0.1199151), wk =   0.0034722
        k(   29) = (   0.0199858   0.0199858   0.0199858), wk =   0.0092593
        k(   30) = (   0.0199858   0.0199858   0.0399717), wk =   0.0277778
        k(   31) = (   0.0199858   0.0199858   0.0599575), wk =   0.0277778
        k(   32) = (   0.0199858   0.0199858   0.0799434), wk =   0.0277778
        k(   33) = (   0.0199858   0.0199858   0.0999292), wk =   0.0277778
        k(   34) = (   0.0199858   0.0199858  -0.1199151), wk =   0.0138889
        k(   35) = (   0.0199858   0.0399717   0.0399717), wk =   0.0277778
        k(   36) = (   0.0199858   0.0399717   0.0599575), wk =   0.0555556
        k(   37) = (   0.0199858   0.0399717   0.0799434), wk =   0.0555556
        k(   38) = (   0.0199858   0.0399717   0.0999292), wk =   0.0555556
        k(   39) = (   0.0199858   0.0399717  -0.1199151), wk =   0.0277778
        k(   40) = (   0.0199858   0.0599575   0.0599575), wk =   0.0277778
        k(   41) = (   0.0199858   0.0599575   0.0799434), wk =   0.0555556
        k(   42) = (   0.0199858   0.0599575   0.0999292), wk =   0.0555556
        k(   43) = (   0.0199858   0.0599575  -0.1199151), wk =   0.0277778
        k(   44) = (   0.0199858   0.0799434   0.0799434), wk =   0.0277778
        k(   45) = (   0.0199858   0.0799434   0.0999292), wk =   0.0555556
        k(   46) = (   0.0199858   0.0799434  -0.1199151), wk =   0.0277778
        k(   47) = (   0.0199858   0.0999292   0.0999292), wk =   0.0277778
        k(   48) = (   0.0199858   0.0999292  -0.1199151), wk =   0.0277778
        k(   49) = (   0.0199858  -0.1199151  -0.1199151), wk =   0.0069444
        k(   50) = (   0.0399717   0.0399717   0.0399717), wk =   0.0092593
        k(   51) = (   0.0399717   0.0399717   0.0599575), wk =   0.0277778
        k(   52) = (   0.0399717   0.0399717   0.0799434), wk =   0.0277778
        k(   53) = (   0.0399717   0.0399717   0.0999292), wk =   0.0277778
        k(   54) = (   0.0399717   0.0399717  -0.1199151), wk =   0.0138889
        k(   55) = (   0.0399717   0.0599575   0.0599575), wk =   0.0277778
        k(   56) = (   0.0399717   0.0599575   0.0799434), wk =   0.0555556
        k(   57) = (   0.0399717   0.0599575   0.0999292), wk =   0.0555556
        k(   58) = (   0.0399717   0.0599575  -0.1199151), wk =   0.0277778
        k(   59) = (   0.0399717   0.0799434   0.0799434), wk =   0.0277778
        k(   60) = (   0.0399717   0.0799434   0.0999292), wk =   0.0555556
[...]
        k(   70) = (   0.0599575   0.0799434   0.0999292), wk =   0.0555556
        k(   71) = (   0.0599575   0.0799434  -0.1199151), wk =   0.0277778
        k(   72) = (   0.0599575   0.0999292   0.0999292), wk =   0.0277778
        k(   73) = (   0.0599575   0.0999292  -0.1199151), wk =   0.0277778
        k(   74) = (   0.0599575  -0.1199151  -0.1199151), wk =   0.0069444
        k(   75) = (   0.0799434   0.0799434   0.0799434), wk =   0.0092593
        k(   76) = (   0.0799434   0.0799434   0.0999292), wk =   0.0277778
        k(   77) = (   0.0799434   0.0799434  -0.1199151), wk =   0.0138889
        k(   78) = (   0.0799434   0.0999292   0.0999292), wk =   0.0277778
        k(   79) = (   0.0799434   0.0999292  -0.1199151), wk =   0.0277778
        k(   80) = (   0.0799434  -0.1199151  -0.1199151), wk =   0.0069444
        k(   81) = (   0.0999292   0.0999292   0.0999292), wk =   0.0092593
        k(   82) = (   0.0999292   0.0999292  -0.1199151), wk =   0.0138889
        k(   83) = (   0.0999292  -0.1199151  -0.1199151), wk =   0.0069444
        k(   84) = (  -0.1199151  -0.1199151  -0.1199151), wk =   0.0011574

     Largest allocated arrays     est. size (Mb)     dimensions
     Largest temporary arrays     est. size (Mb)     dimensions

     Initial potential from superposition of free atoms
     Check: negative starting charge=   -0.283924

     starting charge   57.49662, renormalised to   58.00000

     negative rho (up, down):  2.864E-01 0.000E+00

     *
     * You are using vdW-DF for exchange-correlation in this calculation.
     * Please cite the following three references that made this development
     * possible:
     *
     *   M. Dion, H. Rydberg, E. Schroder, D. C. Langreth, and
     *   B. I. Lundqvist, Phys. Rev. Lett. 92, 246401 (2004).
     *
     *   T. Thonhauser, V. R. Cooper, S. Li, A. Puzder, P. Hyldgaard, and
     *   D. C. Langreth, Phys. Rev. B 76, 125112 (2007).
     *
     *   G. Roman-Perez and J. M. Soler, Phys. Rev. Lett. 103, 096102 (2009).
     *
     *
     * If you are using vdW-DF2, please also cite:
     *
     *   K. Lee, E. D. Murray, L. Kong, B. I. Lundqvist, and
     *   D. C. Langreth, Phys. Rev. B 82, 081101(R) (2010).
     *
     *
     * If you are calculating the stress with vdW-DF, please also cite:
     *
     *   R. Sabatini, E. Kucukbenli, B. Kolb, T. Thonhauser, and
     *   S. de Gironcoli, J. Phys.: Condens. Matter 24, 424209 (2012).
     *

     Carrying out vdW-DF run using the following parameters:

     Nqs =      20    Nr_points =    1024   r_max =   100.000
     q_mesh =
               0.00001000     0.04494208     0.09755937     0.15916263
               0.23128650     0.31572767     0.41458969     0.53033537
               0.66584808     0.82450364     1.01025438     1.22772762
               1.48234092     1.78043706     2.12944203     2.53805004
               3.01644009     3.57652955     4.23227104     5.00000000

     Gradients computed in reciprocal space

     Starting wfc are   52 randomized atomic wfcs

     Self-consistent Calculation

     iteration #  1     ecut=    58.80 Ry     beta=0.10
     Davidson diagonalization with overlap
     ethr =  1.00E-02,  avg # of iterations =  4.2

[...]

     total energy              =    -726.53723952 Ry
     Harris-Foulkes estimate   =    -726.62521010 Ry
     estimated scf accuracy    <       1.73083019 Ry

[...]

     total energy              =    -726.37632333 Ry
     Harris-Foulkes estimate   =    -726.37632227 Ry
     estimated scf accuracy    <       0.00000002 Ry

     iteration # 13     ecut=    58.80 Ry     beta=0.10
     Davidson diagonalization with overlap
     ethr =  2.62E-11,  avg # of iterations =  2.0

     negative rho (up, down):  3.040E-01 0.000E+00

     End of self-consistent calculation

          k = 0.0000 0.0000 0.0000 (  3743 PWs)   bands (ev):

   -74.7526 -50.1466 -50.0485 -50.0485 -38.2092 -38.2092 -38.2092 -16.8103
   -16.8103 -16.8103 -16.3971 -16.3971 -16.3971 -16.0705 -16.0705 -16.0705
     9.9006  11.9727  11.9727  12.4224  12.4224  12.4224  13.4742  16.3432
    16.3432  16.3432  17.0195  17.0195  20.4410  20.4410  20.4410  21.0131
    21.0131  21.0131  22.5751  22.5751  23.8219  24.5897  24.5897  24.5897
    28.1615  28.1615  28.1615  28.4236  29.7700  29.7700  29.9274  29.9274
    29.9274

[...]

          k = 0.0999-0.1199-0.1199 (  3720 PWs)   bands (ev):

[...]

          k =-0.1199-0.1199-0.1199 (  3648 PWs)   bands (ev):

   -74.7525 -50.0808 -50.0808 -50.0808 -38.2096 -38.2096 -38.2096 -17.0046
   -16.7832 -16.7832 -16.7832 -16.1514 -16.1514 -16.1514 -16.0550 -16.0550
    11.9961  11.9961  11.9961  13.1353  13.1353  13.1743  15.5212  15.5212
    15.5212  18.1624  18.1624  18.1624  18.2093  18.2093  18.2093  18.8788
    20.6327  20.6327  20.6327  21.7206  21.7206  23.8665  23.8665  23.8665
    26.6665  27.4353  27.4353  27.4353  30.4793  30.6002  30.6002  30.6002
    34.4007

     the Fermi energy is    18.0416 ev

!    total energy              =    -726.37632786 Ry
     Harris-Foulkes estimate   =    -726.37632333 Ry
     estimated scf accuracy    <          3.5E-10 Ry

     The total energy is the sum of the following terms:

     one-electron contribution =    -194.64427258 Ry
     hartree contribution      =     126.36944601 Ry
     xc contribution           =    -161.00564522 Ry
     ewald contribution        =    -497.08490722 Ry
     smearing contrib. (-TS)   =      -0.01094885 Ry

     convergence has been achieved in  13 iterations

     Forces acting on atoms (Ry/au):

     negative rho (up, down):  3.040E-01 0.000E+00
     atom    1 type  1   force =     0.00000000    0.00000000    0.00000000
     atom    2 type  1   force =     0.00000000   -0.00000000    0.00000000
     atom    3 type  1   force =     0.00000000    0.00000000    0.00000000
     atom    4 type  2   force =     0.00000000    0.00000000    0.00000000

     Total force =     0.000000     Total SCF correction =     0.000000
 !ASE

     General routines

     Parallel routines

   This run was terminated on:   0:55:44  26Oct2017

   JOB DONE.