     Program PWSCF v.5.1rc2 (svn rev. ) starts on 25Oct2017 at  7:39: 7

     Current dimensions of program PWSCF are:
     Max number of different atomic species (ntypx) = 10
     Max number of k-points (npk) =  40000
     Max angular momentum in pseudopotentials (lmaxx) =  3

     IMPORTANT: XC functional enforced from input :
     Exchange-correlation      = BEEF-VDW ( 1  4 27 13 2)
     Any further DFT definition will be discarded
     Please, verify this is what you really want

     Subspace diagonalization in iterative solution of the eigenvalue problem:
     a serial algorithm will be used

     bravais-lattice index     =            0
     lattice parameter (alat)  =       1.8897  a.u.
     unit-cell volume          =     462.9169 (a.u.)^3
     number of atoms/cell      =            4
     number of atomic types    =            2
     number of electrons       =        73.00
     number of Kohn-Sham states=           56
     kinetic-energy cutoff     =      58.7989  Ry
     charge density cutoff     =     587.9892  Ry
     convergence threshold     =      7.3E-09
     mixing beta               =       0.1000
     number of iterations used =           10  local-TF  mixing
     Exchange-correlation      = BEEF-VDW ( 1  4 27 13 2)
     nstep                     =           50

     celldm(1)=   1.889726  celldm(2)=   0.000000  celldm(3)=   0.000000
     celldm(4)=   0.000000  celldm(5)=   0.000000  celldm(6)=   0.000000

     crystal axes: (cart. coord. in units of alat)
               a(1) = (   4.093569   0.000000   0.000000 )
               a(2) = (   0.000000   4.093569   0.000000 )
               a(3) = (   0.000000   0.000000   4.093569 )

     reciprocal axes: (cart. coord. in units 2 pi/alat)
               b(1) = (  0.244286  0.000000  0.000000 )
               b(2) = (  0.000000  0.244286  0.000000 )
               b(3) = (  0.000000  0.000000  0.244286 )

     PseudoPot. # 1 for Ga read from file:
     /home/vossj/suncat/psp/gbrv1.5pbe/Ga.UPF
     MD5 check sum: ccd671392a58a050fbb373893b4fcd66
     Pseudo is Ultrasoft + core correction, Zval = 19.0
     Generated by new atomic code, or converted to UPF format
     Using radial grid of  871 points,  6 beta functions with:
                l(1) =   0
                l(2) =   0
                l(3) =   1
                l(4) =   1
                l(5) =   2
                l(6) =   2
     Q(r) pseudized with  8 coefficients,  rinner =    1.250   1.250   1.250
                                                       1.250   1.250

     PseudoPot. # 2 for Pd read from file:
     /home/vossj/suncat/psp/gbrv1.5pbe/Pd.UPF
     MD5 check sum: 2d733d2bc2cbfd217af676df1668a4bc
     Pseudo is Ultrasoft + core correction, Zval = 16.0
     Generated by new atomic code, or converted to UPF format
     Using radial grid of  887 points,  6 beta functions with:
                l(1) =   0
                l(2) =   0
                l(3) =   1
                l(4) =   1
                l(5) =   2
                l(6) =   2
     Q(r) pseudized with  8 coefficients,  rinner =    1.130   1.130   1.130
                                                       1.130   1.130

     vdW kernel table read from file vdW_kernel_table
     MD5 check sum: 095c7af220d748ca6e76c0b4c6cfb241

     atomic species   valence    mass     pseudopotential
        Ga1           19.00    69.72300     Ga( 1.00)
        Pd1           16.00   106.42000     Pd( 1.00)

     48 Sym. Ops., with inversion, found (32 have fractional translation)

   Cartesian axes

     site n.     atom                  positions (alat units)
         1           Ga1 tau(   1) = (   0.0000000   0.0000000   0.0000000  )
         2           Ga1 tau(   2) = (   0.0000000   2.0467847   2.0467847  )
         3           Ga1 tau(   3) = (   2.0467847   0.0000000   2.0467847  )
         4           Pd1 tau(   4) = (   2.0467847   2.0467847   0.0000000  )

     number of k points=    84  Fermi-Dirac smearing, width (Ry)=  0.0073
                       cart. coord. in units 2pi/alat
        k(    1) = (   0.0000000   0.0000000   0.0000000), wk =   0.0011574
        k(    2) = (   0.0000000   0.0000000   0.0203571), wk =   0.0069444
        k(    3) = (   0.0000000   0.0000000   0.0407143), wk =   0.0069444
        k(    4) = (   0.0000000   0.0000000   0.0610714), wk =   0.0069444
        k(    5) = (   0.0000000   0.0000000   0.0814285), wk =   0.0069444
        k(    6) = (   0.0000000   0.0000000   0.1017857), wk =   0.0069444
        k(    7) = (   0.0000000   0.0000000  -0.1221428), wk =   0.0034722
        k(    8) = (   0.0000000   0.0203571   0.0203571), wk =   0.0138889
        k(    9) = (   0.0000000   0.0203571   0.0407143), wk =   0.0277778
        k(   10) = (   0.0000000   0.0203571   0.0610714), wk =   0.0277778
        k(   11) = (   0.0000000   0.0203571   0.0814285), wk =   0.0277778
        k(   12) = (   0.0000000   0.0203571   0.1017857), wk =   0.0277778
        k(   13) = (   0.0000000   0.0203571  -0.1221428), wk =   0.0138889
        k(   14) = (   0.0000000   0.0407143   0.0407143), wk =   0.0138889
        k(   15) = (   0.0000000   0.0407143   0.0610714), wk =   0.0277778
        k(   16) = (   0.0000000   0.0407143   0.0814285), wk =   0.0277778
        k(   17) = (   0.0000000   0.0407143   0.1017857), wk =   0.0277778
        k(   18) = (   0.0000000   0.0407143  -0.1221428), wk =   0.0138889
        k(   19) = (   0.0000000   0.0610714   0.0610714), wk =   0.0138889
        k(   20) = (   0.0000000   0.0610714   0.0814285), wk =   0.0277778
        k(   21) = (   0.0000000   0.0610714   0.1017857), wk =   0.0277778
        k(   22) = (   0.0000000   0.0610714  -0.1221428), wk =   0.0138889
        k(   23) = (   0.0000000   0.0814285   0.0814285), wk =   0.0138889
        k(   24) = (   0.0000000   0.0814285   0.1017857), wk =   0.0277778
        k(   25) = (   0.0000000   0.0814285  -0.1221428), wk =   0.0138889
        k(   26) = (   0.0000000   0.1017857   0.1017857), wk =   0.0138889
        k(   27) = (   0.0000000   0.1017857  -0.1221428), wk =   0.0138889
        k(   28) = (   0.0000000  -0.1221428  -0.1221428), wk =   0.0034722
        k(   29) = (   0.0203571   0.0203571   0.0203571), wk =   0.0092593
        k(   30) = (   0.0203571   0.0203571   0.0407143), wk =   0.0277778
        k(   31) = (   0.0203571   0.0203571   0.0610714), wk =   0.0277778
        k(   32) = (   0.0203571   0.0203571   0.0814285), wk =   0.0277778
        k(   33) = (   0.0203571   0.0203571   0.1017857), wk =   0.0277778
        k(   34) = (   0.0203571   0.0203571  -0.1221428), wk =   0.0138889
        k(   35) = (   0.0203571   0.0407143   0.0407143), wk =   0.0277778
        k(   36) = (   0.0203571   0.0407143   0.0610714), wk =   0.0555556
        k(   37) = (   0.0203571   0.0407143   0.0814285), wk =   0.0555556
        k(   38) = (   0.0203571   0.0407143   0.1017857), wk =   0.0555556
        k(   39) = (   0.0203571   0.0407143  -0.1221428), wk =   0.0277778
        k(   40) = (   0.0203571   0.0610714   0.0610714), wk =   0.0277778
        k(   41) = (   0.0203571   0.0610714   0.0814285), wk =   0.0555556
        k(   42) = (   0.0203571   0.0610714   0.1017857), wk =   0.0555556
        k(   43) = (   0.0203571   0.0610714  -0.1221428), wk =   0.0277778
        k(   44) = (   0.0203571   0.0814285   0.0814285), wk =   0.0277778
        k(   45) = (   0.0203571   0.0814285   0.1017857), wk =   0.0555556
        k(   46) = (   0.0203571   0.0814285  -0.1221428), wk =   0.0277778
        k(   47) = (   0.0203571   0.1017857   0.1017857), wk =   0.0277778
        k(   48) = (   0.0203571   0.1017857  -0.1221428), wk =   0.0277778
        k(   49) = (   0.0203571  -0.1221428  -0.1221428), wk =   0.0069444
        k(   50) = (   0.0407143   0.0407143   0.0407143), wk =   0.0092593
        k(   51) = (   0.0407143   0.0407143   0.0610714), wk =   0.0277778
        k(   52) = (   0.0407143   0.0407143   0.0814285), wk =   0.0277778
        k(   53) = (   0.0407143   0.0407143   0.1017857), wk =   0.0277778
        k(   54) = (   0.0407143   0.0407143  -0.1221428), wk =   0.0138889
        k(   55) = (   0.0407143   0.0610714   0.0610714), wk =   0.0277778
        k(   56) = (   0.0407143   0.0610714   0.0814285), wk =   0.0555556
        k(   57) = (   0.0407143   0.0610714   0.1017857), wk =   0.0555556
        k(   58) = (   0.0407143   0.0610714  -0.1221428), wk =   0.0277778
        k(   59) = (   0.0407143   0.0814285   0.0814285), wk =   0.0277778
        k(   60) = (   0.0407143   0.0814285   0.1017857), wk =   0.0555556
[...]
        k(   70) = (   0.0610714   0.0814285   0.1017857), wk =   0.0555556
        k(   71) = (   0.0610714   0.0814285  -0.1221428), wk =   0.0277778
        k(   72) = (   0.0610714   0.1017857   0.1017857), wk =   0.0277778
        k(   73) = (   0.0610714   0.1017857  -0.1221428), wk =   0.0277778
        k(   74) = (   0.0610714  -0.1221428  -0.1221428), wk =   0.0069444
        k(   75) = (   0.0814285   0.0814285   0.0814285), wk =   0.0092593
        k(   76) = (   0.0814285   0.0814285   0.1017857), wk =   0.0277778
        k(   77) = (   0.0814285   0.0814285  -0.1221428), wk =   0.0138889
        k(   78) = (   0.0814285   0.1017857   0.1017857), wk =   0.0277778
        k(   79) = (   0.0814285   0.1017857  -0.1221428), wk =   0.0277778
        k(   80) = (   0.0814285  -0.1221428  -0.1221428), wk =   0.0069444
        k(   81) = (   0.1017857   0.1017857   0.1017857), wk =   0.0092593
        k(   82) = (   0.1017857   0.1017857  -0.1221428), wk =   0.0138889
        k(   83) = (   0.1017857  -0.1221428  -0.1221428), wk =   0.0069444
        k(   84) = (  -0.1221428  -0.1221428  -0.1221428), wk =   0.0011574

     Largest allocated arrays     est. size (Mb)     dimensions
     Largest temporary arrays     est. size (Mb)     dimensions

     Initial potential from superposition of free atoms
     Check: negative starting charge=   -0.076777

     starting charge   69.49999, renormalised to   73.00000

     negative rho (up, down):  8.064E-02 0.000E+00

     *
     * You are using vdW-DF for exchange-correlation in this calculation.
     * Please cite the following three references that made this development
     * possible:
     *
     *   M. Dion, H. Rydberg, E. Schroder, D. C. Langreth, and
     *   B. I. Lundqvist, Phys. Rev. Lett. 92, 246401 (2004).
     *
     *   T. Thonhauser, V. R. Cooper, S. Li, A. Puzder, P. Hyldgaard, and
     *   D. C. Langreth, Phys. Rev. B 76, 125112 (2007).
     *
     *   G. Roman-Perez and J. M. Soler, Phys. Rev. Lett. 103, 096102 (2009).
     *
     *
     * If you are using vdW-DF2, please also cite:
     *
     *   K. Lee, E. D. Murray, L. Kong, B. I. Lundqvist, and
     *   D. C. Langreth, Phys. Rev. B 82, 081101(R) (2010).
     *
     *
     * If you are calculating the stress with vdW-DF, please also cite:
     *
     *   R. Sabatini, E. Kucukbenli, B. Kolb, T. Thonhauser, and
     *   S. de Gironcoli, J. Phys.: Condens. Matter 24, 424209 (2012).
     *

     Carrying out vdW-DF run using the following parameters:

     Nqs =      20    Nr_points =    1024   r_max =   100.000
     q_mesh =
               0.00001000     0.04494208     0.09755937     0.15916263
               0.23128650     0.31572767     0.41458969     0.53033537
               0.66584808     0.82450364     1.01025438     1.22772762
               1.48234092     1.78043706     2.12944203     2.53805004
               3.01644009     3.57652955     4.23227104     5.00000000

     Gradients computed in reciprocal space

     Starting wfc are   48 randomized atomic wfcs +    8 random wfc

     Self-consistent Calculation

     iteration #  1     ecut=    58.80 Ry     beta=0.10
     Davidson diagonalization with overlap
     ethr =  1.00E-02,  avg # of iterations =  4.4

[...]

     total energy              =   -1452.84499293 Ry
     Harris-Foulkes estimate   =   -1454.41929567 Ry
     estimated scf accuracy    <      20.06834777 Ry

[...]

     total energy              =   -1449.64795531 Ry
     Harris-Foulkes estimate   =   -1449.64795374 Ry
     estimated scf accuracy    <       0.00000011 Ry

     iteration # 15     ecut=    58.80 Ry     beta=0.10
     Davidson diagonalization with overlap
     ethr =  1.45E-10,  avg # of iterations =  2.1

     negative rho (up, down):  7.998E-02 0.000E+00

     End of self-consistent calculation

          k = 0.0000 0.0000 0.0000 (  3575 PWs)   bands (ev):

   -81.5834 -81.5834 -81.5834 -81.5694 -81.5694 -81.5694 -81.5693 -81.5693
   -81.5693 -36.9737 -36.9737 -36.9737  -2.1544  -2.1387  -2.1387  -2.1387
    -2.0183  -2.0183  -1.8758  -1.8758  -1.8758  -1.8112  -1.8112  -1.7295
    -1.7015  -1.7015  -1.7015   2.3638   9.0658   9.0658  10.6625  10.6625
    10.6625  11.4039  11.4039  11.4039  13.4434  13.4434  15.3395  18.7076
    18.7076  18.7076  21.1036  21.1036  21.1036  24.0302  24.0302  24.0302
    24.4104  24.4104  26.2742  29.7409  29.7409  29.7409  29.8253  32.7225

[...]

          k = 0.1018-0.1221-0.1221 (  3504 PWs)   bands (ev):

[...]

          k =-0.1221-0.1221-0.1221 (  3544 PWs)   bands (ev):

   -81.5863 -81.5815 -81.5815 -81.5711 -81.5711 -81.5711 -81.5679 -81.5679
   -81.5679 -36.9750 -36.9750 -36.9750  -2.0638  -2.0638  -2.0638  -2.0559
    -1.9963  -1.9963  -1.9963  -1.8630  -1.8630  -1.8630  -1.8347  -1.8347
    -1.7280  -1.7280  -1.7280   7.3570   7.3570   7.3570   8.9406  10.2403
    10.2403  10.2403  10.9474  10.9474  12.3364  12.3364  12.3364  13.8026
    24.0511  24.0511  24.1355  24.1355  24.1355  28.3582  28.3582  28.3582
    28.5260  28.6642  28.6642  28.6642  29.0003  29.0003  29.0003  30.1378

     the Fermi energy is    13.3156 ev

!    total energy              =   -1449.64796194 Ry
     Harris-Foulkes estimate   =   -1449.64795533 Ry
     estimated scf accuracy    <          1.8E-10 Ry

     The total energy is the sum of the following terms:

     one-electron contribution =   -1030.74492939 Ry
     hartree contribution      =     554.62594660 Ry
     xc contribution           =    -181.95025947 Ry
     ewald contribution        =    -791.57444580 Ry
     smearing contrib. (-TS)   =      -0.00427389 Ry

     convergence has been achieved in  15 iterations

     Forces acting on atoms (Ry/au):

     negative rho (up, down):  7.998E-02 0.000E+00
     atom    1 type  1   force =     0.00000000    0.00000000    0.00000000
     atom    2 type  1   force =     0.00000000    0.00000000    0.00000000
     atom    3 type  1   force =     0.00000000    0.00000000    0.00000000
     atom    4 type  2   force =     0.00000000    0.00000000    0.00000000

     Total force =     0.000000     Total SCF correction =     0.000000
 !ASE

     General routines

     Parallel routines

   This run was terminated on:   7:40:23  25Oct2017

   JOB DONE.