     Program PWSCF v.5.1rc2 (svn rev. ) starts on 25Oct2017 at 22:51:25

     Current dimensions of program PWSCF are:
     Max number of different atomic species (ntypx) = 10
     Max number of k-points (npk) =  40000
     Max angular momentum in pseudopotentials (lmaxx) =  3

     IMPORTANT: XC functional enforced from input :
     Exchange-correlation      = BEEF-VDW ( 1  4 27 13 2)
     Any further DFT definition will be discarded
     Please, verify this is what you really want

     Subspace diagonalization in iterative solution of the eigenvalue problem:
     a serial algorithm will be used

     bravais-lattice index     =            0
     lattice parameter (alat)  =       1.8897  a.u.
     unit-cell volume          =     599.4145 (a.u.)^3
     number of atoms/cell      =            4
     number of atomic types    =            2
     number of electrons       =        57.00
     number of Kohn-Sham states=           48
     kinetic-energy cutoff     =      58.7989  Ry
     charge density cutoff     =     587.9892  Ry
     convergence threshold     =      7.3E-09
     mixing beta               =       0.1000
     number of iterations used =           10  local-TF  mixing
     Exchange-correlation      = BEEF-VDW ( 1  4 27 13 2)
     nstep                     =           50

     celldm(1)=   1.889726  celldm(2)=   0.000000  celldm(3)=   0.000000
     celldm(4)=   0.000000  celldm(5)=   0.000000  celldm(6)=   0.000000

     crystal axes: (cart. coord. in units of alat)
               a(1) = (   4.461801   0.000000   0.000000 )
               a(2) = (   0.000000   4.461801   0.000000 )
               a(3) = (   0.000000   0.000000   4.461801 )

     reciprocal axes: (cart. coord. in units 2 pi/alat)
               b(1) = (  0.224125  0.000000  0.000000 )
               b(2) = (  0.000000  0.224125  0.000000 )
               b(3) = (  0.000000  0.000000  0.224125 )

     PseudoPot. # 1 for Sn read from file:
     /home/vossj/suncat/psp/gbrv1.5pbe/Sn.UPF
     MD5 check sum: 469debedee59599fedebd795477fea03
     Pseudo is Ultrasoft + core correction, Zval = 14.0
     Generated by new atomic code, or converted to UPF format
     Using radial grid of  891 points,  6 beta functions with:
                l(1) =   0
                l(2) =   0
                l(3) =   1
                l(4) =   1
                l(5) =   2
                l(6) =   2
     Q(r) pseudized with  8 coefficients,  rinner =    1.350   1.350   1.350
                                                       1.350   1.350

     PseudoPot. # 2 for Tc read from file:
     /home/vossj/suncat/psp/gbrv1.5pbe/Tc.UPF
     MD5 check sum: 9eb49e5b028550b2339a02317eb7b844
     Pseudo is Ultrasoft + core correction, Zval = 15.0
     Generated by new atomic code, or converted to UPF format
     Using radial grid of  965 points,  6 beta functions with:
                l(1) =   0
                l(2) =   0
                l(3) =   1
                l(4) =   1
                l(5) =   2
                l(6) =   2
     Q(r) pseudized with  8 coefficients,  rinner =    1.300   1.300   1.300
                                                       1.300   1.300

     vdW kernel table read from file vdW_kernel_table
     MD5 check sum: 095c7af220d748ca6e76c0b4c6cfb241

     atomic species   valence    mass     pseudopotential
        Sn1           14.00   118.71000     Sn( 1.00)
        Tc1           15.00    97.90721     Tc( 1.00)

     48 Sym. Ops., with inversion, found (32 have fractional translation)

   Cartesian axes

     site n.     atom                  positions (alat units)
         1           Sn1 tau(   1) = (   0.0000000   0.0000000   0.0000000  )
         2           Sn1 tau(   2) = (   0.0000000   2.2309005   2.2309005  )
         3           Sn1 tau(   3) = (   2.2309005   0.0000000   2.2309005  )
         4           Tc1 tau(   4) = (   2.2309005   2.2309005   0.0000000  )

     number of k points=    84  Fermi-Dirac smearing, width (Ry)=  0.0073
                       cart. coord. in units 2pi/alat
        k(    1) = (   0.0000000   0.0000000   0.0000000), wk =   0.0011574
        k(    2) = (   0.0000000   0.0000000   0.0186771), wk =   0.0069444
        k(    3) = (   0.0000000   0.0000000   0.0373541), wk =   0.0069444
        k(    4) = (   0.0000000   0.0000000   0.0560312), wk =   0.0069444
        k(    5) = (   0.0000000   0.0000000   0.0747082), wk =   0.0069444
        k(    6) = (   0.0000000   0.0000000   0.0933853), wk =   0.0069444
        k(    7) = (   0.0000000   0.0000000  -0.1120624), wk =   0.0034722
        k(    8) = (   0.0000000   0.0186771   0.0186771), wk =   0.0138889
        k(    9) = (   0.0000000   0.0186771   0.0373541), wk =   0.0277778
        k(   10) = (   0.0000000   0.0186771   0.0560312), wk =   0.0277778
        k(   11) = (   0.0000000   0.0186771   0.0747082), wk =   0.0277778
        k(   12) = (   0.0000000   0.0186771   0.0933853), wk =   0.0277778
        k(   13) = (   0.0000000   0.0186771  -0.1120624), wk =   0.0138889
        k(   14) = (   0.0000000   0.0373541   0.0373541), wk =   0.0138889
        k(   15) = (   0.0000000   0.0373541   0.0560312), wk =   0.0277778
        k(   16) = (   0.0000000   0.0373541   0.0747082), wk =   0.0277778
        k(   17) = (   0.0000000   0.0373541   0.0933853), wk =   0.0277778
        k(   18) = (   0.0000000   0.0373541  -0.1120624), wk =   0.0138889
        k(   19) = (   0.0000000   0.0560312   0.0560312), wk =   0.0138889
        k(   20) = (   0.0000000   0.0560312   0.0747082), wk =   0.0277778
        k(   21) = (   0.0000000   0.0560312   0.0933853), wk =   0.0277778
        k(   22) = (   0.0000000   0.0560312  -0.1120624), wk =   0.0138889
        k(   23) = (   0.0000000   0.0747082   0.0747082), wk =   0.0138889
        k(   24) = (   0.0000000   0.0747082   0.0933853), wk =   0.0277778
        k(   25) = (   0.0000000   0.0747082  -0.1120624), wk =   0.0138889
        k(   26) = (   0.0000000   0.0933853   0.0933853), wk =   0.0138889
        k(   27) = (   0.0000000   0.0933853  -0.1120624), wk =   0.0138889
        k(   28) = (   0.0000000  -0.1120624  -0.1120624), wk =   0.0034722
        k(   29) = (   0.0186771   0.0186771   0.0186771), wk =   0.0092593
        k(   30) = (   0.0186771   0.0186771   0.0373541), wk =   0.0277778
        k(   31) = (   0.0186771   0.0186771   0.0560312), wk =   0.0277778
        k(   32) = (   0.0186771   0.0186771   0.0747082), wk =   0.0277778
        k(   33) = (   0.0186771   0.0186771   0.0933853), wk =   0.0277778
        k(   34) = (   0.0186771   0.0186771  -0.1120624), wk =   0.0138889
        k(   35) = (   0.0186771   0.0373541   0.0373541), wk =   0.0277778
        k(   36) = (   0.0186771   0.0373541   0.0560312), wk =   0.0555556
        k(   37) = (   0.0186771   0.0373541   0.0747082), wk =   0.0555556
        k(   38) = (   0.0186771   0.0373541   0.0933853), wk =   0.0555556
        k(   39) = (   0.0186771   0.0373541  -0.1120624), wk =   0.0277778
        k(   40) = (   0.0186771   0.0560312   0.0560312), wk =   0.0277778
        k(   41) = (   0.0186771   0.0560312   0.0747082), wk =   0.0555556
        k(   42) = (   0.0186771   0.0560312   0.0933853), wk =   0.0555556
        k(   43) = (   0.0186771   0.0560312  -0.1120624), wk =   0.0277778
        k(   44) = (   0.0186771   0.0747082   0.0747082), wk =   0.0277778
        k(   45) = (   0.0186771   0.0747082   0.0933853), wk =   0.0555556
        k(   46) = (   0.0186771   0.0747082  -0.1120624), wk =   0.0277778
        k(   47) = (   0.0186771   0.0933853   0.0933853), wk =   0.0277778
        k(   48) = (   0.0186771   0.0933853  -0.1120624), wk =   0.0277778
        k(   49) = (   0.0186771  -0.1120624  -0.1120624), wk =   0.0069444
        k(   50) = (   0.0373541   0.0373541   0.0373541), wk =   0.0092593
        k(   51) = (   0.0373541   0.0373541   0.0560312), wk =   0.0277778
        k(   52) = (   0.0373541   0.0373541   0.0747082), wk =   0.0277778
        k(   53) = (   0.0373541   0.0373541   0.0933853), wk =   0.0277778
        k(   54) = (   0.0373541   0.0373541  -0.1120624), wk =   0.0138889
        k(   55) = (   0.0373541   0.0560312   0.0560312), wk =   0.0277778
        k(   56) = (   0.0373541   0.0560312   0.0747082), wk =   0.0555556
        k(   57) = (   0.0373541   0.0560312   0.0933853), wk =   0.0555556
        k(   58) = (   0.0373541   0.0560312  -0.1120624), wk =   0.0277778
        k(   59) = (   0.0373541   0.0747082   0.0747082), wk =   0.0277778
        k(   60) = (   0.0373541   0.0747082   0.0933853), wk =   0.0555556
[...]
        k(   70) = (   0.0560312   0.0747082   0.0933853), wk =   0.0555556
        k(   71) = (   0.0560312   0.0747082  -0.1120624), wk =   0.0277778
        k(   72) = (   0.0560312   0.0933853   0.0933853), wk =   0.0277778
        k(   73) = (   0.0560312   0.0933853  -0.1120624), wk =   0.0277778
        k(   74) = (   0.0560312  -0.1120624  -0.1120624), wk =   0.0069444
        k(   75) = (   0.0747082   0.0747082   0.0747082), wk =   0.0092593
        k(   76) = (   0.0747082   0.0747082   0.0933853), wk =   0.0277778
        k(   77) = (   0.0747082   0.0747082  -0.1120624), wk =   0.0138889
        k(   78) = (   0.0747082   0.0933853   0.0933853), wk =   0.0277778
        k(   79) = (   0.0747082   0.0933853  -0.1120624), wk =   0.0277778
        k(   80) = (   0.0747082  -0.1120624  -0.1120624), wk =   0.0069444
        k(   81) = (   0.0933853   0.0933853   0.0933853), wk =   0.0092593
        k(   82) = (   0.0933853   0.0933853  -0.1120624), wk =   0.0138889
        k(   83) = (   0.0933853  -0.1120624  -0.1120624), wk =   0.0069444
        k(   84) = (  -0.1120624  -0.1120624  -0.1120624), wk =   0.0011574

     Largest allocated arrays     est. size (Mb)     dimensions
     Largest temporary arrays     est. size (Mb)     dimensions

     Check: negative/imaginary core charge=   -0.000002    0.000000

     Initial potential from superposition of free atoms
     Check: negative starting charge=   -0.125273

     starting charge   52.99984, renormalised to   57.00000

     negative rho (up, down):  1.347E-01 0.000E+00

     *
     * You are using vdW-DF for exchange-correlation in this calculation.
     * Please cite the following three references that made this development
     * possible:
     *
     *   M. Dion, H. Rydberg, E. Schroder, D. C. Langreth, and
     *   B. I. Lundqvist, Phys. Rev. Lett. 92, 246401 (2004).
     *
     *   T. Thonhauser, V. R. Cooper, S. Li, A. Puzder, P. Hyldgaard, and
     *   D. C. Langreth, Phys. Rev. B 76, 125112 (2007).
     *
     *   G. Roman-Perez and J. M. Soler, Phys. Rev. Lett. 103, 096102 (2009).
     *
     *
     * If you are using vdW-DF2, please also cite:
     *
     *   K. Lee, E. D. Murray, L. Kong, B. I. Lundqvist, and
     *   D. C. Langreth, Phys. Rev. B 82, 081101(R) (2010).
     *
     *
     * If you are calculating the stress with vdW-DF, please also cite:
     *
     *   R. Sabatini, E. Kucukbenli, B. Kolb, T. Thonhauser, and
     *   S. de Gironcoli, J. Phys.: Condens. Matter 24, 424209 (2012).
     *

     Carrying out vdW-DF run using the following parameters:

     Nqs =      20    Nr_points =    1024   r_max =   100.000
     q_mesh =
               0.00001000     0.04494208     0.09755937     0.15916263
               0.23128650     0.31572767     0.41458969     0.53033537
               0.66584808     0.82450364     1.01025438     1.22772762
               1.48234092     1.78043706     2.12944203     2.53805004
               3.01644009     3.57652955     4.23227104     5.00000000

     Gradients computed in reciprocal space

     Starting wfc are   40 randomized atomic wfcs +    8 random wfc

     Self-consistent Calculation

     iteration #  1     ecut=    58.80 Ry     beta=0.10
     Davidson diagonalization with overlap
     ethr =  1.00E-02,  avg # of iterations =  5.3

[...]

     total energy              =    -658.64356071 Ry
     Harris-Foulkes estimate   =    -658.95410432 Ry
     estimated scf accuracy    <       4.35108471 Ry

[...]

     iteration #  9     ecut=    58.80 Ry     beta=0.10
     Davidson diagonalization with overlap
     c_bands:  1 eigenvalues not converged
     ethr =  2.20E-06,  avg # of iterations =  2.9

[...]

     total energy              =    -657.30813245 Ry
     Harris-Foulkes estimate   =    -657.30812584 Ry
     estimated scf accuracy    <       0.00000069 Ry

     iteration # 16     ecut=    58.80 Ry     beta=0.10
     Davidson diagonalization with overlap
     ethr =  8.53E-10,  avg # of iterations =  2.1

     negative rho (up, down):  1.250E-01 0.000E+00

     End of self-consistent calculation

          k = 0.0000 0.0000 0.0000 (  4553 PWs)   bands (ev):

   -52.6220 -24.6694 -24.6694 -24.6694  -8.4585  -8.4585  -8.4585  -8.4529
    -8.2684  -8.2684  -8.1869  -8.1869  -8.1650  -8.1650  -8.1650  -8.0611
    -8.0611  -8.0611  -8.0369   2.1932   8.9069   8.9069  10.4440  10.4440
    10.4440  13.0557  13.0557  13.0557  14.1307  14.1307  14.6770  16.6180
    16.6180  16.6180  18.8923  18.8923  18.8923  22.3401  22.3401  22.3401
    22.8569  22.8569  23.8113  25.4433  26.6536  26.6536  26.6536  30.0825

[...]

          k = 0.0934-0.1121-0.1121 (  4616 PWs)   bands (ev):

[...]

          k =-0.1121-0.1121-0.1121 (  4632 PWs)   bands (ev):

   -52.6219 -24.6716 -24.6716 -24.6716  -8.3769  -8.3769  -8.3769  -8.3185
    -8.3185  -8.3185  -8.2840  -8.2105  -8.2105  -8.2105  -8.1283  -8.1283
    -8.0604  -8.0604  -8.0604   6.5866   6.5866   6.5866   8.1075   9.7614
     9.7614   9.7614  13.5173  13.5173  13.7620  14.2912  14.2912  14.2912
    21.0272  21.0272  21.3747  21.3747  21.3747  24.4597  24.7274  24.7274
    24.7274  25.9916  25.9916  25.9916  26.0184  26.0184  26.0184  26.8571

     the Fermi energy is    13.7692 ev

!    total energy              =    -657.30816279 Ry
     Harris-Foulkes estimate   =    -657.30813260 Ry
     estimated scf accuracy    <          1.1E-09 Ry

     The total energy is the sum of the following terms:

     one-electron contribution =    -181.72352947 Ry
     hartree contribution      =     133.18052151 Ry
     xc contribution           =    -166.87488006 Ry
     ewald contribution        =    -441.87974290 Ry
     smearing contrib. (-TS)   =      -0.01053187 Ry

     convergence has been achieved in  16 iterations

     Forces acting on atoms (Ry/au):

     negative rho (up, down):  1.250E-01 0.000E+00
     atom    1 type  1   force =     0.00000000    0.00000000    0.00000000
     atom    2 type  1   force =     0.00000000    0.00000000    0.00000000
     atom    3 type  1   force =     0.00000000    0.00000000    0.00000000
     atom    4 type  2   force =     0.00000000    0.00000000    0.00000000

     Total force =     0.000000     Total SCF correction =     0.000000
 !ASE

     General routines

     Parallel routines

   This run was terminated on:  22:52:47  25Oct2017

   JOB DONE.