     Program PWSCF v.5.1rc2 (svn rev. ) starts on 25Oct2017 at 14: 6:35

     Current dimensions of program PWSCF are:
     Max number of different atomic species (ntypx) = 10
     Max number of k-points (npk) =  40000
     Max angular momentum in pseudopotentials (lmaxx) =  3

     IMPORTANT: XC functional enforced from input :
     Exchange-correlation      = BEEF-VDW ( 1  4 27 13 2)
     Any further DFT definition will be discarded
     Please, verify this is what you really want

     Subspace diagonalization in iterative solution of the eigenvalue problem:
     a serial algorithm will be used

     bravais-lattice index     =            0
     lattice parameter (alat)  =       1.8897  a.u.
     unit-cell volume          =     590.4004 (a.u.)^3
     number of atoms/cell      =            4
     number of atomic types    =            2
     number of electrons       =        48.00
     number of Kohn-Sham states=           44
     kinetic-energy cutoff     =      58.7989  Ry
     charge density cutoff     =     587.9892  Ry
     convergence threshold     =      7.3E-09
     mixing beta               =       0.1000
     number of iterations used =           10  local-TF  mixing
     Exchange-correlation      = BEEF-VDW ( 1  4 27 13 2)
     nstep                     =           50

     celldm(1)=   1.889726  celldm(2)=   0.000000  celldm(3)=   0.000000
     celldm(4)=   0.000000  celldm(5)=   0.000000  celldm(6)=   0.000000

     crystal axes: (cart. coord. in units of alat)
               a(1) = (   4.439322   0.000000   0.000000 )
               a(2) = (   0.000000   4.439322   0.000000 )
               a(3) = (   0.000000   0.000000   4.439322 )

     reciprocal axes: (cart. coord. in units 2 pi/alat)
               b(1) = (  0.225260  0.000000  0.000000 )
               b(2) = (  0.000000  0.225260  0.000000 )
               b(3) = (  0.000000  0.000000  0.225260 )

     PseudoPot. # 1 for Zr read from file:
     /home/vossj/suncat/psp/gbrv1.5pbe/Zr.UPF
     MD5 check sum: 5db81b1e868ab7776c4564c113de050b
     Pseudo is Ultrasoft + core correction, Zval = 12.0
     Generated by new atomic code, or converted to UPF format
     Using radial grid of  887 points,  6 beta functions with:
                l(1) =   0
                l(2) =   0
                l(3) =   1
                l(4) =   1
                l(5) =   2
                l(6) =   2
     Q(r) pseudized with  6 coefficients,  rinner =    1.200   1.200   1.200
                                                       1.200   1.200

     PseudoPot. # 2 for Ti read from file:
     /home/vossj/suncat/psp/gbrv1.5pbe/Ti.UPF
     MD5 check sum: 88a00a6731bd790ddea75d31a80cb452
     Pseudo is Ultrasoft + core correction, Zval = 12.0
     Generated by new atomic code, or converted to UPF format
     Using radial grid of  851 points,  6 beta functions with:
                l(1) =   0
                l(2) =   0
                l(3) =   1
                l(4) =   1
                l(5) =   2
                l(6) =   2
     Q(r) pseudized with  6 coefficients,  rinner =    1.000   1.000   1.000
                                                       1.000   1.000

     vdW kernel table read from file vdW_kernel_table
     MD5 check sum: 095c7af220d748ca6e76c0b4c6cfb241

     atomic species   valence    mass     pseudopotential
        Zr1           12.00    91.22400     Zr( 1.00)
        Ti1           12.00    47.86700     Ti( 1.00)

     48 Sym. Ops., with inversion, found (32 have fractional translation)

   Cartesian axes

     site n.     atom                  positions (alat units)
         1           Zr1 tau(   1) = (   0.0000000   0.0000000   0.0000000  )
         2           Zr1 tau(   2) = (   0.0000000   2.2196611   2.2196611  )
         3           Zr1 tau(   3) = (   2.2196611   0.0000000   2.2196611  )
         4           Ti1 tau(   4) = (   2.2196611   2.2196611   0.0000000  )

     number of k points=    84  Fermi-Dirac smearing, width (Ry)=  0.0073
                       cart. coord. in units 2pi/alat
        k(    1) = (   0.0000000   0.0000000   0.0000000), wk =   0.0011574
        k(    2) = (   0.0000000   0.0000000   0.0187716), wk =   0.0069444
        k(    3) = (   0.0000000   0.0000000   0.0375433), wk =   0.0069444
        k(    4) = (   0.0000000   0.0000000   0.0563149), wk =   0.0069444
        k(    5) = (   0.0000000   0.0000000   0.0750865), wk =   0.0069444
        k(    6) = (   0.0000000   0.0000000   0.0938582), wk =   0.0069444
        k(    7) = (   0.0000000   0.0000000  -0.1126298), wk =   0.0034722
        k(    8) = (   0.0000000   0.0187716   0.0187716), wk =   0.0138889
        k(    9) = (   0.0000000   0.0187716   0.0375433), wk =   0.0277778
        k(   10) = (   0.0000000   0.0187716   0.0563149), wk =   0.0277778
        k(   11) = (   0.0000000   0.0187716   0.0750865), wk =   0.0277778
        k(   12) = (   0.0000000   0.0187716   0.0938582), wk =   0.0277778
        k(   13) = (   0.0000000   0.0187716  -0.1126298), wk =   0.0138889
        k(   14) = (   0.0000000   0.0375433   0.0375433), wk =   0.0138889
        k(   15) = (   0.0000000   0.0375433   0.0563149), wk =   0.0277778
        k(   16) = (   0.0000000   0.0375433   0.0750865), wk =   0.0277778
        k(   17) = (   0.0000000   0.0375433   0.0938582), wk =   0.0277778
        k(   18) = (   0.0000000   0.0375433  -0.1126298), wk =   0.0138889
        k(   19) = (   0.0000000   0.0563149   0.0563149), wk =   0.0138889
        k(   20) = (   0.0000000   0.0563149   0.0750865), wk =   0.0277778
        k(   21) = (   0.0000000   0.0563149   0.0938582), wk =   0.0277778
        k(   22) = (   0.0000000   0.0563149  -0.1126298), wk =   0.0138889
        k(   23) = (   0.0000000   0.0750865   0.0750865), wk =   0.0138889
        k(   24) = (   0.0000000   0.0750865   0.0938582), wk =   0.0277778
        k(   25) = (   0.0000000   0.0750865  -0.1126298), wk =   0.0138889
        k(   26) = (   0.0000000   0.0938582   0.0938582), wk =   0.0138889
        k(   27) = (   0.0000000   0.0938582  -0.1126298), wk =   0.0138889
        k(   28) = (   0.0000000  -0.1126298  -0.1126298), wk =   0.0034722
        k(   29) = (   0.0187716   0.0187716   0.0187716), wk =   0.0092593
        k(   30) = (   0.0187716   0.0187716   0.0375433), wk =   0.0277778
        k(   31) = (   0.0187716   0.0187716   0.0563149), wk =   0.0277778
        k(   32) = (   0.0187716   0.0187716   0.0750865), wk =   0.0277778
        k(   33) = (   0.0187716   0.0187716   0.0938582), wk =   0.0277778
        k(   34) = (   0.0187716   0.0187716  -0.1126298), wk =   0.0138889
        k(   35) = (   0.0187716   0.0375433   0.0375433), wk =   0.0277778
        k(   36) = (   0.0187716   0.0375433   0.0563149), wk =   0.0555556
        k(   37) = (   0.0187716   0.0375433   0.0750865), wk =   0.0555556
        k(   38) = (   0.0187716   0.0375433   0.0938582), wk =   0.0555556
        k(   39) = (   0.0187716   0.0375433  -0.1126298), wk =   0.0277778
        k(   40) = (   0.0187716   0.0563149   0.0563149), wk =   0.0277778
        k(   41) = (   0.0187716   0.0563149   0.0750865), wk =   0.0555556
        k(   42) = (   0.0187716   0.0563149   0.0938582), wk =   0.0555556
        k(   43) = (   0.0187716   0.0563149  -0.1126298), wk =   0.0277778
        k(   44) = (   0.0187716   0.0750865   0.0750865), wk =   0.0277778
        k(   45) = (   0.0187716   0.0750865   0.0938582), wk =   0.0555556
        k(   46) = (   0.0187716   0.0750865  -0.1126298), wk =   0.0277778
        k(   47) = (   0.0187716   0.0938582   0.0938582), wk =   0.0277778
        k(   48) = (   0.0187716   0.0938582  -0.1126298), wk =   0.0277778
        k(   49) = (   0.0187716  -0.1126298  -0.1126298), wk =   0.0069444
        k(   50) = (   0.0375433   0.0375433   0.0375433), wk =   0.0092593
        k(   51) = (   0.0375433   0.0375433   0.0563149), wk =   0.0277778
        k(   52) = (   0.0375433   0.0375433   0.0750865), wk =   0.0277778
        k(   53) = (   0.0375433   0.0375433   0.0938582), wk =   0.0277778
        k(   54) = (   0.0375433   0.0375433  -0.1126298), wk =   0.0138889
        k(   55) = (   0.0375433   0.0563149   0.0563149), wk =   0.0277778
        k(   56) = (   0.0375433   0.0563149   0.0750865), wk =   0.0555556
        k(   57) = (   0.0375433   0.0563149   0.0938582), wk =   0.0555556
        k(   58) = (   0.0375433   0.0563149  -0.1126298), wk =   0.0277778
        k(   59) = (   0.0375433   0.0750865   0.0750865), wk =   0.0277778
        k(   60) = (   0.0375433   0.0750865   0.0938582), wk =   0.0555556
[...]
        k(   70) = (   0.0563149   0.0750865   0.0938582), wk =   0.0555556
        k(   71) = (   0.0563149   0.0750865  -0.1126298), wk =   0.0277778
        k(   72) = (   0.0563149   0.0938582   0.0938582), wk =   0.0277778
        k(   73) = (   0.0563149   0.0938582  -0.1126298), wk =   0.0277778
        k(   74) = (   0.0563149  -0.1126298  -0.1126298), wk =   0.0069444
        k(   75) = (   0.0750865   0.0750865   0.0750865), wk =   0.0092593
        k(   76) = (   0.0750865   0.0750865   0.0938582), wk =   0.0277778
        k(   77) = (   0.0750865   0.0750865  -0.1126298), wk =   0.0138889
        k(   78) = (   0.0750865   0.0938582   0.0938582), wk =   0.0277778
        k(   79) = (   0.0750865   0.0938582  -0.1126298), wk =   0.0277778
        k(   80) = (   0.0750865  -0.1126298  -0.1126298), wk =   0.0069444
        k(   81) = (   0.0938582   0.0938582   0.0938582), wk =   0.0092593
        k(   82) = (   0.0938582   0.0938582  -0.1126298), wk =   0.0138889
        k(   83) = (   0.0938582  -0.1126298  -0.1126298), wk =   0.0069444
        k(   84) = (  -0.1126298  -0.1126298  -0.1126298), wk =   0.0011574

     Largest allocated arrays     est. size (Mb)     dimensions
     Largest temporary arrays     est. size (Mb)     dimensions

     Check: negative/imaginary core charge=   -0.000001    0.000000

     Initial potential from superposition of free atoms
     Check: negative starting charge=   -0.183914

     starting charge   46.99351, renormalised to   48.00000

     negative rho (up, down):  1.879E-01 0.000E+00

     *
     * You are using vdW-DF for exchange-correlation in this calculation.
     * Please cite the following three references that made this development
     * possible:
     *
     *   M. Dion, H. Rydberg, E. Schroder, D. C. Langreth, and
     *   B. I. Lundqvist, Phys. Rev. Lett. 92, 246401 (2004).
     *
     *   T. Thonhauser, V. R. Cooper, S. Li, A. Puzder, P. Hyldgaard, and
     *   D. C. Langreth, Phys. Rev. B 76, 125112 (2007).
     *
     *   G. Roman-Perez and J. M. Soler, Phys. Rev. Lett. 103, 096102 (2009).
     *
     *
     * If you are using vdW-DF2, please also cite:
     *
     *   K. Lee, E. D. Murray, L. Kong, B. I. Lundqvist, and
     *   D. C. Langreth, Phys. Rev. B 82, 081101(R) (2010).
     *
     *
     * If you are calculating the stress with vdW-DF, please also cite:
     *
     *   R. Sabatini, E. Kucukbenli, B. Kolb, T. Thonhauser, and
     *   S. de Gironcoli, J. Phys.: Condens. Matter 24, 424209 (2012).
     *

     Carrying out vdW-DF run using the following parameters:

     Nqs =      20    Nr_points =    1024   r_max =   100.000
     q_mesh =
               0.00001000     0.04494208     0.09755937     0.15916263
               0.23128650     0.31572767     0.41458969     0.53033537
               0.66584808     0.82450364     1.01025438     1.22772762
               1.48234092     1.78043706     2.12944203     2.53805004
               3.01644009     3.57652955     4.23227104     5.00000000

     Gradients computed in reciprocal space

     Starting wfc are   49 randomized atomic wfcs

     Self-consistent Calculation

     iteration #  1     ecut=    58.80 Ry     beta=0.10
     Davidson diagonalization with overlap
     ethr =  1.00E-02,  avg # of iterations =  3.7

[...]

     total energy              =    -419.37126044 Ry
     Harris-Foulkes estimate   =    -420.01120495 Ry
     estimated scf accuracy    <      13.22596731 Ry

[...]

     total energy              =    -419.24691463 Ry
     Harris-Foulkes estimate   =    -419.24691414 Ry
     estimated scf accuracy    <       0.00000002 Ry

     iteration # 19     ecut=    58.80 Ry     beta=0.10
     Davidson diagonalization with overlap
     ethr =  1.72E-11,  avg # of iterations =  1.8

     negative rho (up, down):  1.880E-01 0.000E+00

     End of self-consistent calculation

          k = 0.0000 0.0000 0.0000 (  4457 PWs)   bands (ev):

   -43.5120 -35.3146 -35.1415 -35.1413 -19.7230 -19.7230 -19.7230 -13.5934
   -13.5933 -13.5933 -13.1155 -13.1155 -13.1154 -12.8573 -12.8573 -12.8573
     8.0043  10.3556  10.9503  10.9504  11.5531  11.5531  11.5531  14.4583
    14.4583  14.4583  16.2180  16.2180  16.4960  16.4960  16.4960  17.8131
    17.8132  17.8132  18.1738  18.1739  19.0932  19.5726  19.5726  19.5727
    23.1389  23.1389  23.1389  24.9805

[...]

          k = 0.0939-0.1126-0.1126 (  4524 PWs)   bands (ev):

[...]

          k =-0.1126-0.1126-0.1126 (  4632 PWs)   bands (ev):

   -43.5115 -35.1983 -35.1981 -35.1981 -19.7280 -19.7280 -19.7280 -13.8728
   -13.5107 -13.5107 -13.5106 -12.8950 -12.8949 -12.8662 -12.8662 -12.8661
    10.3979  10.9035  10.9035  10.9035  14.2176  14.2176  14.2751  14.2752
    14.2752  14.4626  14.4626  14.4626  14.4882  14.4882  14.4882  14.9558
    17.5446  17.5447  17.5447  17.9463  17.9463  19.0562  19.0563  19.0563
    22.6497  23.0285  23.0285  23.0285

     the Fermi energy is    13.5849 ev

!    total energy              =    -419.24691706 Ry
     Harris-Foulkes estimate   =    -419.24691493 Ry
     estimated scf accuracy    <          4.0E-10 Ry

     The total energy is the sum of the following terms:

     one-electron contribution =     -97.46762199 Ry
     hartree contribution      =      67.12545243 Ry
     xc contribution           =     -74.08992666 Ry
     ewald contribution        =    -314.79890701 Ry
     smearing contrib. (-TS)   =      -0.01591384 Ry

     convergence has been achieved in  19 iterations

     Forces acting on atoms (Ry/au):

     negative rho (up, down):  1.880E-01 0.000E+00
     atom    1 type  1   force =     0.00000000    0.00000000    0.00000000
     atom    2 type  1   force =     0.00000000   -0.00000000    0.00000000
     atom    3 type  1   force =     0.00000000    0.00000000    0.00000000
     atom    4 type  2   force =     0.00000000    0.00000000   -0.00000000

     Total force =     0.000000     Total SCF correction =     0.000000
 !ASE

     General routines

     Parallel routines

   This run was terminated on:  14: 7:53  25Oct2017

   JOB DONE.