     Program PWSCF v.5.1rc2 (svn rev. ) starts on 25Oct2017 at 10:40: 3

     Current dimensions of program PWSCF are:
     Max number of different atomic species (ntypx) = 10
     Max number of k-points (npk) =  40000
     Max angular momentum in pseudopotentials (lmaxx) =  3

     IMPORTANT: XC functional enforced from input :
     Exchange-correlation      = BEEF-VDW ( 1  4 27 13 2)
     Any further DFT definition will be discarded
     Please, verify this is what you really want

     Subspace diagonalization in iterative solution of the eigenvalue problem:
     a serial algorithm will be used

     bravais-lattice index     =            0
     lattice parameter (alat)  =       1.8897  a.u.
     unit-cell volume          =     696.7581 (a.u.)^3
     number of atoms/cell      =            4
     number of atomic types    =            2
     number of electrons       =        57.00
     number of Kohn-Sham states=           48
     kinetic-energy cutoff     =      58.7989  Ry
     charge density cutoff     =     587.9892  Ry
     convergence threshold     =      7.3E-09
     mixing beta               =       0.1000
     number of iterations used =           10  local-TF  mixing
     Exchange-correlation      = BEEF-VDW ( 1  4 27 13 2)
     nstep                     =           50

     celldm(1)=   1.889726  celldm(2)=   0.000000  celldm(3)=   0.000000
     celldm(4)=   0.000000  celldm(5)=   0.000000  celldm(6)=   0.000000

     crystal axes: (cart. coord. in units of alat)
               a(1) = (   4.691321   0.000000   0.000000 )
               a(2) = (   0.000000   4.691321   0.000000 )
               a(3) = (   0.000000   0.000000   4.691321 )

     reciprocal axes: (cart. coord. in units 2 pi/alat)
               b(1) = (  0.213160  0.000000  0.000000 )
               b(2) = (  0.000000  0.213160  0.000000 )
               b(3) = (  0.000000  0.000000  0.213160 )

     PseudoPot. # 1 for Pb read from file:
     /home/vossj/suncat/psp/gbrv1.5pbe/Pb.UPF
     MD5 check sum: 3d1c1779aa92214d1e8f3a7db79003e2
     Pseudo is Ultrasoft + core correction, Zval = 14.0
     Generated by new atomic code, or converted to UPF format
     Using radial grid of  899 points,  6 beta functions with:
                l(1) =   0
                l(2) =   0
                l(3) =   1
                l(4) =   1
                l(5) =   2
                l(6) =   2
     Q(r) pseudized with  6 coefficients,  rinner =    1.000   1.000   1.000
                                                       1.000   1.000

     PseudoPot. # 2 for Ir read from file:
     /home/vossj/suncat/psp/gbrv1.5pbe/Ir.UPF
     MD5 check sum: 8836f839c3459d2b385c504ce6d91f2c
     Pseudo is Ultrasoft + core correction, Zval = 15.0
     Generated by new atomic code, or converted to UPF format
     Using radial grid of  983 points,  7 beta functions with:
                l(1) =   0
                l(2) =   0
                l(3) =   1
                l(4) =   1
                l(5) =   1
                l(6) =   2
                l(7) =   2
     Q(r) pseudized with  8 coefficients,  rinner =    1.400   1.400   1.400
                                                       1.400   1.400

     vdW kernel table read from file vdW_kernel_table
     MD5 check sum: 095c7af220d748ca6e76c0b4c6cfb241

     atomic species   valence    mass     pseudopotential
        Pb1           14.00   207.20000     Pb( 1.00)
        Ir1           15.00   192.21700     Ir( 1.00)

     48 Sym. Ops., with inversion, found (32 have fractional translation)

   Cartesian axes

     site n.     atom                  positions (alat units)
         1           Pb1 tau(   1) = (   0.0000000   0.0000000   0.0000000  )
         2           Pb1 tau(   2) = (   0.0000000   2.3456604   2.3456604  )
         3           Pb1 tau(   3) = (   2.3456604   0.0000000   2.3456604  )
         4           Ir1 tau(   4) = (   2.3456604   2.3456604   0.0000000  )

     number of k points=    84  Fermi-Dirac smearing, width (Ry)=  0.0073
                       cart. coord. in units 2pi/alat
        k(    1) = (   0.0000000   0.0000000   0.0000000), wk =   0.0011574
        k(    2) = (   0.0000000   0.0000000   0.0177633), wk =   0.0069444
        k(    3) = (   0.0000000   0.0000000   0.0355266), wk =   0.0069444
        k(    4) = (   0.0000000   0.0000000   0.0532899), wk =   0.0069444
        k(    5) = (   0.0000000   0.0000000   0.0710532), wk =   0.0069444
        k(    6) = (   0.0000000   0.0000000   0.0888165), wk =   0.0069444
        k(    7) = (   0.0000000   0.0000000  -0.1065798), wk =   0.0034722
        k(    8) = (   0.0000000   0.0177633   0.0177633), wk =   0.0138889
        k(    9) = (   0.0000000   0.0177633   0.0355266), wk =   0.0277778
        k(   10) = (   0.0000000   0.0177633   0.0532899), wk =   0.0277778
        k(   11) = (   0.0000000   0.0177633   0.0710532), wk =   0.0277778
        k(   12) = (   0.0000000   0.0177633   0.0888165), wk =   0.0277778
        k(   13) = (   0.0000000   0.0177633  -0.1065798), wk =   0.0138889
        k(   14) = (   0.0000000   0.0355266   0.0355266), wk =   0.0138889
        k(   15) = (   0.0000000   0.0355266   0.0532899), wk =   0.0277778
        k(   16) = (   0.0000000   0.0355266   0.0710532), wk =   0.0277778
        k(   17) = (   0.0000000   0.0355266   0.0888165), wk =   0.0277778
        k(   18) = (   0.0000000   0.0355266  -0.1065798), wk =   0.0138889
        k(   19) = (   0.0000000   0.0532899   0.0532899), wk =   0.0138889
        k(   20) = (   0.0000000   0.0532899   0.0710532), wk =   0.0277778
        k(   21) = (   0.0000000   0.0532899   0.0888165), wk =   0.0277778
        k(   22) = (   0.0000000   0.0532899  -0.1065798), wk =   0.0138889
        k(   23) = (   0.0000000   0.0710532   0.0710532), wk =   0.0138889
        k(   24) = (   0.0000000   0.0710532   0.0888165), wk =   0.0277778
        k(   25) = (   0.0000000   0.0710532  -0.1065798), wk =   0.0138889
        k(   26) = (   0.0000000   0.0888165   0.0888165), wk =   0.0138889
        k(   27) = (   0.0000000   0.0888165  -0.1065798), wk =   0.0138889
        k(   28) = (   0.0000000  -0.1065798  -0.1065798), wk =   0.0034722
        k(   29) = (   0.0177633   0.0177633   0.0177633), wk =   0.0092593
        k(   30) = (   0.0177633   0.0177633   0.0355266), wk =   0.0277778
        k(   31) = (   0.0177633   0.0177633   0.0532899), wk =   0.0277778
        k(   32) = (   0.0177633   0.0177633   0.0710532), wk =   0.0277778
        k(   33) = (   0.0177633   0.0177633   0.0888165), wk =   0.0277778
        k(   34) = (   0.0177633   0.0177633  -0.1065798), wk =   0.0138889
        k(   35) = (   0.0177633   0.0355266   0.0355266), wk =   0.0277778
        k(   36) = (   0.0177633   0.0355266   0.0532899), wk =   0.0555556
        k(   37) = (   0.0177633   0.0355266   0.0710532), wk =   0.0555556
        k(   38) = (   0.0177633   0.0355266   0.0888165), wk =   0.0555556
        k(   39) = (   0.0177633   0.0355266  -0.1065798), wk =   0.0277778
        k(   40) = (   0.0177633   0.0532899   0.0532899), wk =   0.0277778
        k(   41) = (   0.0177633   0.0532899   0.0710532), wk =   0.0555556
        k(   42) = (   0.0177633   0.0532899   0.0888165), wk =   0.0555556
        k(   43) = (   0.0177633   0.0532899  -0.1065798), wk =   0.0277778
        k(   44) = (   0.0177633   0.0710532   0.0710532), wk =   0.0277778
        k(   45) = (   0.0177633   0.0710532   0.0888165), wk =   0.0555556
        k(   46) = (   0.0177633   0.0710532  -0.1065798), wk =   0.0277778
        k(   47) = (   0.0177633   0.0888165   0.0888165), wk =   0.0277778
        k(   48) = (   0.0177633   0.0888165  -0.1065798), wk =   0.0277778
        k(   49) = (   0.0177633  -0.1065798  -0.1065798), wk =   0.0069444
        k(   50) = (   0.0355266   0.0355266   0.0355266), wk =   0.0092593
        k(   51) = (   0.0355266   0.0355266   0.0532899), wk =   0.0277778
        k(   52) = (   0.0355266   0.0355266   0.0710532), wk =   0.0277778
        k(   53) = (   0.0355266   0.0355266   0.0888165), wk =   0.0277778
        k(   54) = (   0.0355266   0.0355266  -0.1065798), wk =   0.0138889
        k(   55) = (   0.0355266   0.0532899   0.0532899), wk =   0.0277778
        k(   56) = (   0.0355266   0.0532899   0.0710532), wk =   0.0555556
        k(   57) = (   0.0355266   0.0532899   0.0888165), wk =   0.0555556
        k(   58) = (   0.0355266   0.0532899  -0.1065798), wk =   0.0277778
        k(   59) = (   0.0355266   0.0710532   0.0710532), wk =   0.0277778
        k(   60) = (   0.0355266   0.0710532   0.0888165), wk =   0.0555556
[...]
        k(   70) = (   0.0532899   0.0710532   0.0888165), wk =   0.0555556
        k(   71) = (   0.0532899   0.0710532  -0.1065798), wk =   0.0277778
        k(   72) = (   0.0532899   0.0888165   0.0888165), wk =   0.0277778
        k(   73) = (   0.0532899   0.0888165  -0.1065798), wk =   0.0277778
        k(   74) = (   0.0532899  -0.1065798  -0.1065798), wk =   0.0069444
        k(   75) = (   0.0710532   0.0710532   0.0710532), wk =   0.0092593
        k(   76) = (   0.0710532   0.0710532   0.0888165), wk =   0.0277778
        k(   77) = (   0.0710532   0.0710532  -0.1065798), wk =   0.0138889
        k(   78) = (   0.0710532   0.0888165   0.0888165), wk =   0.0277778
        k(   79) = (   0.0710532   0.0888165  -0.1065798), wk =   0.0277778
        k(   80) = (   0.0710532  -0.1065798  -0.1065798), wk =   0.0069444
        k(   81) = (   0.0888165   0.0888165   0.0888165), wk =   0.0092593
        k(   82) = (   0.0888165   0.0888165  -0.1065798), wk =   0.0138889
        k(   83) = (   0.0888165  -0.1065798  -0.1065798), wk =   0.0069444
        k(   84) = (  -0.1065798  -0.1065798  -0.1065798), wk =   0.0011574

     Largest allocated arrays     est. size (Mb)     dimensions
     Largest temporary arrays     est. size (Mb)     dimensions

     Initial potential from superposition of free atoms
     Check: negative starting charge=   -0.411675

     starting charge   56.49291, renormalised to   57.00000

     negative rho (up, down):  4.154E-01 0.000E+00

     *
     * You are using vdW-DF for exchange-correlation in this calculation.
     * Please cite the following three references that made this development
     * possible:
     *
     *   M. Dion, H. Rydberg, E. Schroder, D. C. Langreth, and
     *   B. I. Lundqvist, Phys. Rev. Lett. 92, 246401 (2004).
     *
     *   T. Thonhauser, V. R. Cooper, S. Li, A. Puzder, P. Hyldgaard, and
     *   D. C. Langreth, Phys. Rev. B 76, 125112 (2007).
     *
     *   G. Roman-Perez and J. M. Soler, Phys. Rev. Lett. 103, 096102 (2009).
     *
     *
     * If you are using vdW-DF2, please also cite:
     *
     *   K. Lee, E. D. Murray, L. Kong, B. I. Lundqvist, and
     *   D. C. Langreth, Phys. Rev. B 82, 081101(R) (2010).
     *
     *
     * If you are calculating the stress with vdW-DF, please also cite:
     *
     *   R. Sabatini, E. Kucukbenli, B. Kolb, T. Thonhauser, and
     *   S. de Gironcoli, J. Phys.: Condens. Matter 24, 424209 (2012).
     *

     Carrying out vdW-DF run using the following parameters:

     Nqs =      20    Nr_points =    1024   r_max =   100.000
     q_mesh =
               0.00001000     0.04494208     0.09755937     0.15916263
               0.23128650     0.31572767     0.41458969     0.53033537
               0.66584808     0.82450364     1.01025438     1.22772762
               1.48234092     1.78043706     2.12944203     2.53805004
               3.01644009     3.57652955     4.23227104     5.00000000

     Gradients computed in reciprocal space

     Starting wfc are   39 randomized atomic wfcs +    9 random wfc

     Self-consistent Calculation

     iteration #  1     ecut=    58.80 Ry     beta=0.10
     Davidson diagonalization with overlap
     ethr =  1.00E-02,  avg # of iterations =  4.5

     Threshold (ethr) on eigenvalues was too large:
     Diagonalizing with lowered threshold

     Davidson diagonalization with overlap
     c_bands:  2 eigenvalues not converged
     ethr =  3.44E-04,  avg # of iterations =  1.5

[...]

     total energy              =    -681.33329643 Ry
     Harris-Foulkes estimate   =    -681.34171425 Ry
     estimated scf accuracy    <       0.19876849 Ry

[...]

     iteration #  4     ecut=    58.80 Ry     beta=0.10
     Davidson diagonalization with overlap
     c_bands:  1 eigenvalues not converged
     ethr =  9.13E-05,  avg # of iterations =  1.5

[...]

     total energy              =    -681.30036514 Ry
     Harris-Foulkes estimate   =    -681.30035800 Ry
     estimated scf accuracy    <       0.00000002 Ry

     iteration # 29     ecut=    58.80 Ry     beta=0.10
     Davidson diagonalization with overlap
     ethr =  3.93E-11,  avg # of iterations =  1.9

     negative rho (up, down):  3.902E-01 0.000E+00

     End of self-consistent calculation

          k = 0.0000 0.0000 0.0000 (  5377 PWs)   bands (ev):

   -34.9053 -34.9053 -34.9053  -4.7169  -4.7169  -4.7169  -4.7060  -4.4833
    -4.4833  -4.3022  -4.3022  -4.3022  -4.2762  -4.2762  -4.1198  -4.1096
    -4.1096  -4.1096   1.1471   6.5768   6.5768  10.2208  10.2208  10.2208
    11.8414  11.8414  11.8414  12.1517  12.1517  12.8902  15.8940  15.8940
    15.8940  17.5658  17.5658  17.5658  20.6172  21.6528  21.6528  22.2531
    22.2531  22.2531  23.4376  23.4635  23.4635  23.9052  24.3500  24.3500

[...]

          k = 0.0888-0.1066-0.1066 (  5340 PWs)   bands (ev):

[...]

          k =-0.1066-0.1066-0.1066 (  5400 PWs)   bands (ev):

   -34.9055 -34.9055 -34.9055  -4.6056  -4.6056  -4.6056  -4.5216  -4.5216
    -4.5216  -4.5010  -4.3251  -4.3251  -4.3251  -4.2464  -4.2464  -4.1340
    -4.1340  -4.1340   4.7579   4.7579   4.7579   8.1309   9.6133   9.6133
     9.6133  11.7768  12.0918  12.0918  12.4455  12.4455  12.4455  19.6798
    19.6798  20.1871  20.1871  20.1871  22.9150  23.1569  23.1569  23.1569
    23.3642  23.3642  23.3642  24.3348  24.3348  24.3348  24.9187  24.9187

     the Fermi energy is    12.8367 ev

!    total energy              =    -681.30039557 Ry
     Harris-Foulkes estimate   =    -681.30036514 Ry
     estimated scf accuracy    <          3.1E-09 Ry

     The total energy is the sum of the following terms:

     one-electron contribution =    -115.49165607 Ry
     hartree contribution      =     102.52011406 Ry
     xc contribution           =    -248.06056434 Ry
     ewald contribution        =    -420.26107172 Ry
     smearing contrib. (-TS)   =      -0.00721750 Ry

     convergence has been achieved in  29 iterations

     Forces acting on atoms (Ry/au):

     negative rho (up, down):  3.902E-01 0.000E+00
     atom    1 type  1   force =     0.00000000    0.00000000   -0.00000000
     atom    2 type  1   force =     0.00000000    0.00000000    0.00000000
     atom    3 type  1   force =     0.00000000    0.00000000    0.00000000
     atom    4 type  2   force =     0.00000000    0.00000000    0.00000000

     Total force =     0.000000     Total SCF correction =     0.000000
 !ASE

     General routines

     Parallel routines

   This run was terminated on:  10:42:51  25Oct2017

   JOB DONE.