     Program PWSCF v.5.1rc2 (svn rev. ) starts on 17Feb2018 at 12:33:47

     Current dimensions of program PWSCF are:
     Max number of different atomic species (ntypx) = 10
     Max number of k-points (npk) =  40000
     Max angular momentum in pseudopotentials (lmaxx) =  3

     IMPORTANT: XC functional enforced from input :
     Exchange-correlation      = BEEF-VDW ( 1  4 27 13 2)
     Any further DFT definition will be discarded
     Please, verify this is what you really want

     Subspace diagonalization in iterative solution of the eigenvalue problem:
     a serial algorithm will be used

     bravais-lattice index     =            0
     lattice parameter (alat)  =       1.8897  a.u.
     unit-cell volume          =     767.2504 (a.u.)^3
     number of atoms/cell      =            4
     number of atomic types    =            2
     number of electrons       =        59.00
     number of Kohn-Sham states=           49
     kinetic-energy cutoff     =      58.7989  Ry
     charge density cutoff     =     587.9892  Ry
     convergence threshold     =      7.3E-09
     mixing beta               =       0.1000
     number of iterations used =           10  local-TF  mixing
     Exchange-correlation      = BEEF-VDW ( 1  4 27 13 2)
     nstep                     =           50

     celldm(1)=   1.889726  celldm(2)=   0.000000  celldm(3)=   0.000000
     celldm(4)=   0.000000  celldm(5)=   0.000000  celldm(6)=   0.000000

     crystal axes: (cart. coord. in units of alat)
               a(1) = (   4.844476   0.000000   0.000000 )
               a(2) = (   0.000000   4.844476   0.000000 )
               a(3) = (   0.000000   0.000000   4.844476 )

     reciprocal axes: (cart. coord. in units 2 pi/alat)
               b(1) = (  0.206421  0.000000  0.000000 )
               b(2) = (  0.000000  0.206421  0.000000 )
               b(3) = (  0.000000  0.000000  0.206421 )

     PseudoPot. # 1 for Bi read from file:
     /home/mamunm/src/pseudo/gbrv1.5pbe/Bi.UPF
     MD5 check sum: 81103212dc04adf40945787f699eab19
     Pseudo is Ultrasoft + core correction, Zval = 15.0
     Generated by new atomic code, or converted to UPF format
     Using radial grid of  899 points,  6 beta functions with:
                l(1) =   0
                l(2) =   0
                l(3) =   1
                l(4) =   1
                l(5) =   2
                l(6) =   2
     Q(r) pseudized with  6 coefficients,  rinner =    1.000   1.000   1.000
                                                       1.000   1.000

     PseudoPot. # 2 for Cr read from file:
     /home/mamunm/src/pseudo/gbrv1.5pbe/Cr.UPF
     MD5 check sum: 0d52af634a40206e4dee301ad30da4bf
     Pseudo is Ultrasoft + core correction, Zval = 14.0
     Generated by new atomic code, or converted to UPF format
     Using radial grid of  857 points,  6 beta functions with:
                l(1) =   0
                l(2) =   0
                l(3) =   1
                l(4) =   1
                l(5) =   2
                l(6) =   2
     Q(r) pseudized with  8 coefficients,  rinner =    0.950   0.950   0.950
                                                       0.950   0.950

     vdW kernel table read from file vdW_kernel_table
     MD5 check sum: 095c7af220d748ca6e76c0b4c6cfb241

     atomic species   valence    mass     pseudopotential
        Bi1           15.00   208.98040     Bi( 1.00)
        Cr1           14.00    51.99610     Cr( 1.00)

     48 Sym. Ops., with inversion, found (32 have fractional translation)

   Cartesian axes

     site n.     atom                  positions (alat units)
         1           Bi1 tau(   1) = (   0.0000000   0.0000000   0.0000000  )
         2           Bi1 tau(   2) = (   0.0000000   2.4222382   2.4222382  )
         3           Bi1 tau(   3) = (   2.4222382   0.0000000   2.4222382  )
         4           Cr1 tau(   4) = (   2.4222382   2.4222382   0.0000000  )

     number of k points=    84  Fermi-Dirac smearing, width (Ry)=  0.0073
                       cart. coord. in units 2pi/alat
        k(    1) = (   0.0000000   0.0000000   0.0000000), wk =   0.0011574
        k(    2) = (   0.0000000   0.0000000   0.0172017), wk =   0.0069444
        k(    3) = (   0.0000000   0.0000000   0.0344034), wk =   0.0069444
        k(    4) = (   0.0000000   0.0000000   0.0516052), wk =   0.0069444
        k(    5) = (   0.0000000   0.0000000   0.0688069), wk =   0.0069444
        k(    6) = (   0.0000000   0.0000000   0.0860086), wk =   0.0069444
        k(    7) = (   0.0000000   0.0000000  -0.1032103), wk =   0.0034722
        k(    8) = (   0.0000000   0.0172017   0.0172017), wk =   0.0138889
        k(    9) = (   0.0000000   0.0172017   0.0344034), wk =   0.0277778
        k(   10) = (   0.0000000   0.0172017   0.0516052), wk =   0.0277778
        k(   11) = (   0.0000000   0.0172017   0.0688069), wk =   0.0277778
        k(   12) = (   0.0000000   0.0172017   0.0860086), wk =   0.0277778
        k(   13) = (   0.0000000   0.0172017  -0.1032103), wk =   0.0138889
        k(   14) = (   0.0000000   0.0344034   0.0344034), wk =   0.0138889
        k(   15) = (   0.0000000   0.0344034   0.0516052), wk =   0.0277778
        k(   16) = (   0.0000000   0.0344034   0.0688069), wk =   0.0277778
        k(   17) = (   0.0000000   0.0344034   0.0860086), wk =   0.0277778
        k(   18) = (   0.0000000   0.0344034  -0.1032103), wk =   0.0138889
        k(   19) = (   0.0000000   0.0516052   0.0516052), wk =   0.0138889
        k(   20) = (   0.0000000   0.0516052   0.0688069), wk =   0.0277778
        k(   21) = (   0.0000000   0.0516052   0.0860086), wk =   0.0277778
        k(   22) = (   0.0000000   0.0516052  -0.1032103), wk =   0.0138889
        k(   23) = (   0.0000000   0.0688069   0.0688069), wk =   0.0138889
        k(   24) = (   0.0000000   0.0688069   0.0860086), wk =   0.0277778
        k(   25) = (   0.0000000   0.0688069  -0.1032103), wk =   0.0138889
        k(   26) = (   0.0000000   0.0860086   0.0860086), wk =   0.0138889
        k(   27) = (   0.0000000   0.0860086  -0.1032103), wk =   0.0138889
        k(   28) = (   0.0000000  -0.1032103  -0.1032103), wk =   0.0034722
        k(   29) = (   0.0172017   0.0172017   0.0172017), wk =   0.0092593
        k(   30) = (   0.0172017   0.0172017   0.0344034), wk =   0.0277778
        k(   31) = (   0.0172017   0.0172017   0.0516052), wk =   0.0277778
        k(   32) = (   0.0172017   0.0172017   0.0688069), wk =   0.0277778
        k(   33) = (   0.0172017   0.0172017   0.0860086), wk =   0.0277778
        k(   34) = (   0.0172017   0.0172017  -0.1032103), wk =   0.0138889
        k(   35) = (   0.0172017   0.0344034   0.0344034), wk =   0.0277778
        k(   36) = (   0.0172017   0.0344034   0.0516052), wk =   0.0555556
        k(   37) = (   0.0172017   0.0344034   0.0688069), wk =   0.0555556
        k(   38) = (   0.0172017   0.0344034   0.0860086), wk =   0.0555556
        k(   39) = (   0.0172017   0.0344034  -0.1032103), wk =   0.0277778
        k(   40) = (   0.0172017   0.0516052   0.0516052), wk =   0.0277778
        k(   41) = (   0.0172017   0.0516052   0.0688069), wk =   0.0555556
        k(   42) = (   0.0172017   0.0516052   0.0860086), wk =   0.0555556
        k(   43) = (   0.0172017   0.0516052  -0.1032103), wk =   0.0277778
        k(   44) = (   0.0172017   0.0688069   0.0688069), wk =   0.0277778
        k(   45) = (   0.0172017   0.0688069   0.0860086), wk =   0.0555556
        k(   46) = (   0.0172017   0.0688069  -0.1032103), wk =   0.0277778
        k(   47) = (   0.0172017   0.0860086   0.0860086), wk =   0.0277778
        k(   48) = (   0.0172017   0.0860086  -0.1032103), wk =   0.0277778
        k(   49) = (   0.0172017  -0.1032103  -0.1032103), wk =   0.0069444
        k(   50) = (   0.0344034   0.0344034   0.0344034), wk =   0.0092593
        k(   51) = (   0.0344034   0.0344034   0.0516052), wk =   0.0277778
        k(   52) = (   0.0344034   0.0344034   0.0688069), wk =   0.0277778
        k(   53) = (   0.0344034   0.0344034   0.0860086), wk =   0.0277778
        k(   54) = (   0.0344034   0.0344034  -0.1032103), wk =   0.0138889
        k(   55) = (   0.0344034   0.0516052   0.0516052), wk =   0.0277778
        k(   56) = (   0.0344034   0.0516052   0.0688069), wk =   0.0555556
        k(   57) = (   0.0344034   0.0516052   0.0860086), wk =   0.0555556
        k(   58) = (   0.0344034   0.0516052  -0.1032103), wk =   0.0277778
        k(   59) = (   0.0344034   0.0688069   0.0688069), wk =   0.0277778
        k(   60) = (   0.0344034   0.0688069   0.0860086), wk =   0.0555556
[...]
        k(   70) = (   0.0516052   0.0688069   0.0860086), wk =   0.0555556
        k(   71) = (   0.0516052   0.0688069  -0.1032103), wk =   0.0277778
        k(   72) = (   0.0516052   0.0860086   0.0860086), wk =   0.0277778
        k(   73) = (   0.0516052   0.0860086  -0.1032103), wk =   0.0277778
        k(   74) = (   0.0516052  -0.1032103  -0.1032103), wk =   0.0069444
        k(   75) = (   0.0688069   0.0688069   0.0688069), wk =   0.0092593
        k(   76) = (   0.0688069   0.0688069   0.0860086), wk =   0.0277778
        k(   77) = (   0.0688069   0.0688069  -0.1032103), wk =   0.0138889
        k(   78) = (   0.0688069   0.0860086   0.0860086), wk =   0.0277778
        k(   79) = (   0.0688069   0.0860086  -0.1032103), wk =   0.0277778
        k(   80) = (   0.0688069  -0.1032103  -0.1032103), wk =   0.0069444
        k(   81) = (   0.0860086   0.0860086   0.0860086), wk =   0.0092593
        k(   82) = (   0.0860086   0.0860086  -0.1032103), wk =   0.0138889
        k(   83) = (   0.0860086  -0.1032103  -0.1032103), wk =   0.0069444
        k(   84) = (  -0.1032103  -0.1032103  -0.1032103), wk =   0.0011574

     Largest allocated arrays     est. size (Mb)     dimensions
     Largest temporary arrays     est. size (Mb)     dimensions

     Check: negative/imaginary core charge=   -0.000002    0.000000

     Initial potential from superposition of free atoms
     Check: negative starting charge=   -0.128805

     starting charge   54.99986, renormalised to   59.00000

     negative rho (up, down):  1.382E-01 0.000E+00

     *
     * You are using vdW-DF for exchange-correlation in this calculation.
     * Please cite the following three references that made this development
     * possible:
     *
     *   M. Dion, H. Rydberg, E. Schroder, D. C. Langreth, and
     *   B. I. Lundqvist, Phys. Rev. Lett. 92, 246401 (2004).
     *
     *   T. Thonhauser, V. R. Cooper, S. Li, A. Puzder, P. Hyldgaard, and
     *   D. C. Langreth, Phys. Rev. B 76, 125112 (2007).
     *
     *   G. Roman-Perez and J. M. Soler, Phys. Rev. Lett. 103, 096102 (2009).
     *
     *
     * If you are using vdW-DF2, please also cite:
     *
     *   K. Lee, E. D. Murray, L. Kong, B. I. Lundqvist, and
     *   D. C. Langreth, Phys. Rev. B 82, 081101(R) (2010).
     *
     *
     * If you are calculating the stress with vdW-DF, please also cite:
     *
     *   R. Sabatini, E. Kucukbenli, B. Kolb, T. Thonhauser, and
     *   S. de Gironcoli, J. Phys.: Condens. Matter 24, 424209 (2012).
     *

     Carrying out vdW-DF run using the following parameters:

     Nqs =      20    Nr_points =    1024   r_max =   100.000
     q_mesh =
               0.00001000     0.04494208     0.09755937     0.15916263
               0.23128650     0.31572767     0.41458969     0.53033537
               0.66584808     0.82450364     1.01025438     1.22772762
               1.48234092     1.78043706     2.12944203     2.53805004
               3.01644009     3.57652955     4.23227104     5.00000000

     Gradients computed in reciprocal space

     Starting wfc are   37 randomized atomic wfcs +   12 random wfc

     Self-consistent Calculation

     iteration #  1     ecut=    58.80 Ry     beta=0.10
     Davidson diagonalization with overlap
     ethr =  1.00E-02,  avg # of iterations =  5.5

[...]

     total energy              =    -738.58843772 Ry
     Harris-Foulkes estimate   =    -738.99602674 Ry
     estimated scf accuracy    <       6.26861470 Ry

[...]

     total energy              =    -737.56834816 Ry
     Harris-Foulkes estimate   =    -737.56834428 Ry
     estimated scf accuracy    <       0.00000001 Ry

     iteration # 23     ecut=    58.80 Ry     beta=0.10
     Davidson diagonalization with overlap
     ethr =  2.54E-11,  avg # of iterations =  2.0

     negative rho (up, down):  1.355E-01 0.000E+00

     End of self-consistent calculation

          k = 0.0000 0.0000 0.0000 (  5743 PWs)   bands (ev):

   -60.0969 -31.4315 -31.4315 -31.4315 -12.0775 -12.0775 -12.0775 -12.0640
   -11.9432 -11.9431 -11.9041 -11.9040 -11.8782 -11.8782 -11.8782 -11.8153
   -11.8152 -11.8152 -11.7977  -1.7921   2.0755   2.0755   7.5983   7.5983
     7.5983  11.2699  11.2699  11.2982  11.2982  11.2982  11.3635  12.3810
    12.3810  12.3810  14.1493  14.1493  14.1493  17.3945  17.5542  17.5542
    18.2884  18.2884  18.2884  20.3943  20.3943  20.3943  21.6843  24.3555
    24.3555

[...]

          k = 0.0860-0.1032-0.1032 (  5868 PWs)   bands (ev):

[...]

          k =-0.1032-0.1032-0.1032 (  5904 PWs)   bands (ev):

   -60.0969 -31.4316 -31.4316 -31.4316 -12.0216 -12.0216 -12.0216 -11.9881
   -11.9881 -11.9881 -11.9469 -11.9126 -11.9126 -11.9126 -11.8560 -11.8560
   -11.8137 -11.8137 -11.8137   0.7630   0.7630   0.7631   5.8286   7.1528
     7.1529   7.1529  10.7641  11.4774  11.4774  11.5643  11.5643  11.5643
    15.4085  15.4085  15.7696  15.7696  15.7696  20.1110  20.1111  20.1111
    20.3494  20.3494  20.3494  20.7088  21.5968  21.5968  21.5968  22.1636
    22.1636

     the Fermi energy is    11.4535 ev

!    total energy              =    -737.56836254 Ry
     Harris-Foulkes estimate   =    -737.56834867 Ry
     estimated scf accuracy    <          5.4E-10 Ry

     The total energy is the sum of the following terms:

     one-electron contribution =    -226.96306395 Ry
     hartree contribution      =     148.41688602 Ry
     xc contribution           =    -222.97395906 Ry
     ewald contribution        =    -436.02222611 Ry
     smearing contrib. (-TS)   =      -0.02599944 Ry

     convergence has been achieved in  23 iterations

     Forces acting on atoms (Ry/au):

     negative rho (up, down):  1.355E-01 0.000E+00
     atom    1 type  1   force =     0.00000000    0.00000000    0.00000000
     atom    2 type  1   force =     0.00000000    0.00000000    0.00000000
     atom    3 type  1   force =     0.00000000    0.00000000    0.00000000
     atom    4 type  2   force =     0.00000000    0.00000000    0.00000000

     Total force =     0.000000     Total SCF correction =     0.000000
 !ASE

     General routines

     Parallel routines

   This run was terminated on:  12:36: 4  17Feb2018

   JOB DONE.