     Program PWSCF v.5.1rc2 (svn rev. ) starts on 17Feb2018 at 12:52:34

     Current dimensions of program PWSCF are:
     Max number of different atomic species (ntypx) = 10
     Max number of k-points (npk) =  40000
     Max angular momentum in pseudopotentials (lmaxx) =  3

     IMPORTANT: XC functional enforced from input :
     Exchange-correlation      = BEEF-VDW ( 1  4 27 13 2)
     Any further DFT definition will be discarded
     Please, verify this is what you really want

     Subspace diagonalization in iterative solution of the eigenvalue problem:
     a serial algorithm will be used

     bravais-lattice index     =            0
     lattice parameter (alat)  =       1.8897  a.u.
     unit-cell volume          =     755.3037 (a.u.)^3
     number of atoms/cell      =            4
     number of atomic types    =            2
     number of electrons       =        58.00
     number of Kohn-Sham states=           49
     kinetic-energy cutoff     =      58.7989  Ry
     charge density cutoff     =     587.9892  Ry
     convergence threshold     =      7.3E-09
     mixing beta               =       0.1000
     number of iterations used =           10  local-TF  mixing
     Exchange-correlation      = BEEF-VDW ( 1  4 27 13 2)
     nstep                     =           50

     celldm(1)=   1.889726  celldm(2)=   0.000000  celldm(3)=   0.000000
     celldm(4)=   0.000000  celldm(5)=   0.000000  celldm(6)=   0.000000

     crystal axes: (cart. coord. in units of alat)
               a(1) = (   4.819200   0.000000   0.000000 )
               a(2) = (   0.000000   4.819200   0.000000 )
               a(3) = (   0.000000   0.000000   4.819200 )

     reciprocal axes: (cart. coord. in units 2 pi/alat)
               b(1) = (  0.207503  0.000000  0.000000 )
               b(2) = (  0.000000  0.207503  0.000000 )
               b(3) = (  0.000000  0.000000  0.207503 )

     PseudoPot. # 1 for Bi read from file:
     /home/mamunm/src/pseudo/gbrv1.5pbe/Bi.UPF
     MD5 check sum: 81103212dc04adf40945787f699eab19
     Pseudo is Ultrasoft + core correction, Zval = 15.0
     Generated by new atomic code, or converted to UPF format
     Using radial grid of  899 points,  6 beta functions with:
                l(1) =   0
                l(2) =   0
                l(3) =   1
                l(4) =   1
                l(5) =   2
                l(6) =   2
     Q(r) pseudized with  6 coefficients,  rinner =    1.000   1.000   1.000
                                                       1.000   1.000

     PseudoPot. # 2 for Nb read from file:
     /home/mamunm/src/pseudo/gbrv1.5pbe/Nb.UPF
     MD5 check sum: 573aab8a2fa660278ed4a62cd769473f
     Pseudo is Ultrasoft + core correction, Zval = 13.0
     Generated by new atomic code, or converted to UPF format
     Using radial grid of  887 points,  6 beta functions with:
                l(1) =   0
                l(2) =   0
                l(3) =   1
                l(4) =   1
                l(5) =   2
                l(6) =   2
     Q(r) pseudized with  6 coefficients,  rinner =    1.000   1.000   1.000
                                                       1.000   1.000

     vdW kernel table read from file vdW_kernel_table
     MD5 check sum: 095c7af220d748ca6e76c0b4c6cfb241

     atomic species   valence    mass     pseudopotential
        Bi1           15.00   208.98040     Bi( 1.00)
        Nb1           13.00    92.90637     Nb( 1.00)

     48 Sym. Ops., with inversion, found (32 have fractional translation)

   Cartesian axes

     site n.     atom                  positions (alat units)
         1           Bi1 tau(   1) = (   0.0000000   0.0000000   0.0000000  )
         2           Bi1 tau(   2) = (   0.0000000   2.4096002   2.4096002  )
         3           Bi1 tau(   3) = (   2.4096002   0.0000000   2.4096002  )
         4           Nb1 tau(   4) = (   2.4096002   2.4096002   0.0000000  )

     number of k points=    84  Fermi-Dirac smearing, width (Ry)=  0.0073
                       cart. coord. in units 2pi/alat
        k(    1) = (   0.0000000   0.0000000   0.0000000), wk =   0.0011574
        k(    2) = (   0.0000000   0.0000000   0.0172919), wk =   0.0069444
        k(    3) = (   0.0000000   0.0000000   0.0345839), wk =   0.0069444
        k(    4) = (   0.0000000   0.0000000   0.0518758), wk =   0.0069444
        k(    5) = (   0.0000000   0.0000000   0.0691678), wk =   0.0069444
        k(    6) = (   0.0000000   0.0000000   0.0864597), wk =   0.0069444
        k(    7) = (   0.0000000   0.0000000  -0.1037516), wk =   0.0034722
        k(    8) = (   0.0000000   0.0172919   0.0172919), wk =   0.0138889
        k(    9) = (   0.0000000   0.0172919   0.0345839), wk =   0.0277778
        k(   10) = (   0.0000000   0.0172919   0.0518758), wk =   0.0277778
        k(   11) = (   0.0000000   0.0172919   0.0691678), wk =   0.0277778
        k(   12) = (   0.0000000   0.0172919   0.0864597), wk =   0.0277778
        k(   13) = (   0.0000000   0.0172919  -0.1037516), wk =   0.0138889
        k(   14) = (   0.0000000   0.0345839   0.0345839), wk =   0.0138889
        k(   15) = (   0.0000000   0.0345839   0.0518758), wk =   0.0277778
        k(   16) = (   0.0000000   0.0345839   0.0691678), wk =   0.0277778
        k(   17) = (   0.0000000   0.0345839   0.0864597), wk =   0.0277778
        k(   18) = (   0.0000000   0.0345839  -0.1037516), wk =   0.0138889
        k(   19) = (   0.0000000   0.0518758   0.0518758), wk =   0.0138889
        k(   20) = (   0.0000000   0.0518758   0.0691678), wk =   0.0277778
        k(   21) = (   0.0000000   0.0518758   0.0864597), wk =   0.0277778
        k(   22) = (   0.0000000   0.0518758  -0.1037516), wk =   0.0138889
        k(   23) = (   0.0000000   0.0691678   0.0691678), wk =   0.0138889
        k(   24) = (   0.0000000   0.0691678   0.0864597), wk =   0.0277778
        k(   25) = (   0.0000000   0.0691678  -0.1037516), wk =   0.0138889
        k(   26) = (   0.0000000   0.0864597   0.0864597), wk =   0.0138889
        k(   27) = (   0.0000000   0.0864597  -0.1037516), wk =   0.0138889
        k(   28) = (   0.0000000  -0.1037516  -0.1037516), wk =   0.0034722
        k(   29) = (   0.0172919   0.0172919   0.0172919), wk =   0.0092593
        k(   30) = (   0.0172919   0.0172919   0.0345839), wk =   0.0277778
        k(   31) = (   0.0172919   0.0172919   0.0518758), wk =   0.0277778
        k(   32) = (   0.0172919   0.0172919   0.0691678), wk =   0.0277778
        k(   33) = (   0.0172919   0.0172919   0.0864597), wk =   0.0277778
        k(   34) = (   0.0172919   0.0172919  -0.1037516), wk =   0.0138889
        k(   35) = (   0.0172919   0.0345839   0.0345839), wk =   0.0277778
        k(   36) = (   0.0172919   0.0345839   0.0518758), wk =   0.0555556
        k(   37) = (   0.0172919   0.0345839   0.0691678), wk =   0.0555556
        k(   38) = (   0.0172919   0.0345839   0.0864597), wk =   0.0555556
        k(   39) = (   0.0172919   0.0345839  -0.1037516), wk =   0.0277778
        k(   40) = (   0.0172919   0.0518758   0.0518758), wk =   0.0277778
        k(   41) = (   0.0172919   0.0518758   0.0691678), wk =   0.0555556
        k(   42) = (   0.0172919   0.0518758   0.0864597), wk =   0.0555556
        k(   43) = (   0.0172919   0.0518758  -0.1037516), wk =   0.0277778
        k(   44) = (   0.0172919   0.0691678   0.0691678), wk =   0.0277778
        k(   45) = (   0.0172919   0.0691678   0.0864597), wk =   0.0555556
        k(   46) = (   0.0172919   0.0691678  -0.1037516), wk =   0.0277778
        k(   47) = (   0.0172919   0.0864597   0.0864597), wk =   0.0277778
        k(   48) = (   0.0172919   0.0864597  -0.1037516), wk =   0.0277778
        k(   49) = (   0.0172919  -0.1037516  -0.1037516), wk =   0.0069444
        k(   50) = (   0.0345839   0.0345839   0.0345839), wk =   0.0092593
        k(   51) = (   0.0345839   0.0345839   0.0518758), wk =   0.0277778
        k(   52) = (   0.0345839   0.0345839   0.0691678), wk =   0.0277778
        k(   53) = (   0.0345839   0.0345839   0.0864597), wk =   0.0277778
        k(   54) = (   0.0345839   0.0345839  -0.1037516), wk =   0.0138889
        k(   55) = (   0.0345839   0.0518758   0.0518758), wk =   0.0277778
        k(   56) = (   0.0345839   0.0518758   0.0691678), wk =   0.0555556
        k(   57) = (   0.0345839   0.0518758   0.0864597), wk =   0.0555556
        k(   58) = (   0.0345839   0.0518758  -0.1037516), wk =   0.0277778
        k(   59) = (   0.0345839   0.0691678   0.0691678), wk =   0.0277778
        k(   60) = (   0.0345839   0.0691678   0.0864597), wk =   0.0555556
[...]
        k(   70) = (   0.0518758   0.0691678   0.0864597), wk =   0.0555556
        k(   71) = (   0.0518758   0.0691678  -0.1037516), wk =   0.0277778
        k(   72) = (   0.0518758   0.0864597   0.0864597), wk =   0.0277778
        k(   73) = (   0.0518758   0.0864597  -0.1037516), wk =   0.0277778
        k(   74) = (   0.0518758  -0.1037516  -0.1037516), wk =   0.0069444
        k(   75) = (   0.0691678   0.0691678   0.0691678), wk =   0.0092593
        k(   76) = (   0.0691678   0.0691678   0.0864597), wk =   0.0277778
        k(   77) = (   0.0691678   0.0691678  -0.1037516), wk =   0.0138889
        k(   78) = (   0.0691678   0.0864597   0.0864597), wk =   0.0277778
        k(   79) = (   0.0691678   0.0864597  -0.1037516), wk =   0.0277778
        k(   80) = (   0.0691678  -0.1037516  -0.1037516), wk =   0.0069444
        k(   81) = (   0.0864597   0.0864597   0.0864597), wk =   0.0092593
        k(   82) = (   0.0864597   0.0864597  -0.1037516), wk =   0.0138889
        k(   83) = (   0.0864597  -0.1037516  -0.1037516), wk =   0.0069444
        k(   84) = (  -0.1037516  -0.1037516  -0.1037516), wk =   0.0011574

     Largest allocated arrays     est. size (Mb)     dimensions
     Largest temporary arrays     est. size (Mb)     dimensions

     Initial potential from superposition of free atoms
     Check: negative starting charge=   -0.128087

     starting charge   54.99714, renormalised to   58.00000

     negative rho (up, down):  1.351E-01 0.000E+00

     *
     * You are using vdW-DF for exchange-correlation in this calculation.
     * Please cite the following three references that made this development
     * possible:
     *
     *   M. Dion, H. Rydberg, E. Schroder, D. C. Langreth, and
     *   B. I. Lundqvist, Phys. Rev. Lett. 92, 246401 (2004).
     *
     *   T. Thonhauser, V. R. Cooper, S. Li, A. Puzder, P. Hyldgaard, and
     *   D. C. Langreth, Phys. Rev. B 76, 125112 (2007).
     *
     *   G. Roman-Perez and J. M. Soler, Phys. Rev. Lett. 103, 096102 (2009).
     *
     *
     * If you are using vdW-DF2, please also cite:
     *
     *   K. Lee, E. D. Murray, L. Kong, B. I. Lundqvist, and
     *   D. C. Langreth, Phys. Rev. B 82, 081101(R) (2010).
     *
     *
     * If you are calculating the stress with vdW-DF, please also cite:
     *
     *   R. Sabatini, E. Kucukbenli, B. Kolb, T. Thonhauser, and
     *   S. de Gironcoli, J. Phys.: Condens. Matter 24, 424209 (2012).
     *

     Carrying out vdW-DF run using the following parameters:

     Nqs =      20    Nr_points =    1024   r_max =   100.000
     q_mesh =
               0.00001000     0.04494208     0.09755937     0.15916263
               0.23128650     0.31572767     0.41458969     0.53033537
               0.66584808     0.82450364     1.01025438     1.22772762
               1.48234092     1.78043706     2.12944203     2.53805004
               3.01644009     3.57652955     4.23227104     5.00000000

     Gradients computed in reciprocal space

     Starting wfc are   40 randomized atomic wfcs +    9 random wfc

     Self-consistent Calculation

     iteration #  1     ecut=    58.80 Ry     beta=0.10
     Davidson diagonalization with overlap
     ethr =  1.00E-02,  avg # of iterations =  5.5

[...]

     total energy              =    -680.65605339 Ry
     Harris-Foulkes estimate   =    -680.83205104 Ry
     estimated scf accuracy    <       3.11652813 Ry

[...]

     total energy              =    -679.92273586 Ry
     Harris-Foulkes estimate   =    -679.92272266 Ry
     estimated scf accuracy    <       0.00000005 Ry

     iteration # 17     ecut=    58.80 Ry     beta=0.10
     Davidson diagonalization with overlap
     ethr =  7.77E-11,  avg # of iterations =  2.0

     negative rho (up, down):  1.359E-01 0.000E+00

     End of self-consistent calculation

          k = 0.0000 0.0000 0.0000 (  5743 PWs)   bands (ev):

   -42.8071 -18.8157 -18.8156 -18.8156 -10.6072 -10.6071 -10.6071 -10.6011
   -10.4504 -10.4502 -10.4287 -10.4286 -10.3866 -10.3866 -10.3863 -10.3283
   -10.3281 -10.3281 -10.2920  -0.5292   3.4640   3.4641   8.9084   8.9084
     8.9084  12.7067  12.7067  12.7461  12.7461  12.7461  13.1642  13.6150
    13.6151  13.6151  15.7689  15.7689  15.7689  19.2540  20.3467  20.3467
    20.5176  20.5176  20.5176  22.4947  22.8269  22.8269  22.8269  27.1632
    27.1632

[...]

          k = 0.0865-0.1038-0.1038 (  5796 PWs)   bands (ev):

[...]

          k =-0.1038-0.1038-0.1038 (  5832 PWs)   bands (ev):

   -42.8069 -18.8181 -18.8181 -18.8181 -10.5502 -10.5502 -10.5502 -10.5050
   -10.5050 -10.5050 -10.4608 -10.4378 -10.4378 -10.4376 -10.3616 -10.3614
   -10.3161 -10.3161 -10.3160   2.0929   2.0929   2.0931   7.1146   8.4527
     8.4528   8.4528  12.5933  13.2522  13.2523  13.4290  13.4290  13.4290
    16.9113  16.9114  17.0796  17.0797  17.0797  21.7971  21.7971  21.7971
    21.8103  22.0251  22.0251  22.0251  23.4154  23.4154  23.4272  23.4272
    23.4273

     the Fermi energy is    12.9648 ev

!    total energy              =    -679.92279219 Ry
     Harris-Foulkes estimate   =    -679.92273602 Ry
     estimated scf accuracy    <          1.6E-09 Ry

     The total energy is the sum of the following terms:

     one-electron contribution =    -148.02273368 Ry
     hartree contribution      =     111.11118278 Ry
     xc contribution           =    -218.85521027 Ry
     ewald contribution        =    -424.14038047 Ry
     smearing contrib. (-TS)   =      -0.01565056 Ry

     convergence has been achieved in  17 iterations

     Forces acting on atoms (Ry/au):

     negative rho (up, down):  1.359E-01 0.000E+00
     atom    1 type  1   force =     0.00000000    0.00000000   -0.00000000
     atom    2 type  1   force =     0.00000000    0.00000000    0.00000000
     atom    3 type  1   force =     0.00000000    0.00000000   -0.00000000
     atom    4 type  2   force =     0.00000000    0.00000000    0.00000000

     Total force =     0.000000     Total SCF correction =     0.000000
 !ASE

     General routines

     Parallel routines

   This run was terminated on:  12:54:21  17Feb2018

   JOB DONE.