     Program PWSCF v.5.1rc2 (svn rev. ) starts on 25Oct2017 at 21:14:52

     Current dimensions of program PWSCF are:
     Max number of different atomic species (ntypx) = 10
     Max number of k-points (npk) =  40000
     Max angular momentum in pseudopotentials (lmaxx) =  3

     IMPORTANT: XC functional enforced from input :
     Exchange-correlation      = BEEF-VDW ( 1  4 27 13 2)
     Any further DFT definition will be discarded
     Please, verify this is what you really want

     Subspace diagonalization in iterative solution of the eigenvalue problem:
     a serial algorithm will be used

     bravais-lattice index     =            0
     lattice parameter (alat)  =       1.8897  a.u.
     unit-cell volume          =     397.3511 (a.u.)^3
     number of atoms/cell      =            4
     number of atomic types    =            2
     number of electrons       =        70.00
     number of Kohn-Sham states=           55
     kinetic-energy cutoff     =      58.7989  Ry
     charge density cutoff     =     587.9892  Ry
     convergence threshold     =      7.3E-09
     mixing beta               =       0.1000
     number of iterations used =           10  local-TF  mixing
     Exchange-correlation      = BEEF-VDW ( 1  4 27 13 2)
     nstep                     =           50

     celldm(1)=   1.889726  celldm(2)=   0.000000  celldm(3)=   0.000000
     celldm(4)=   0.000000  celldm(5)=   0.000000  celldm(6)=   0.000000

     crystal axes: (cart. coord. in units of alat)
               a(1) = (   3.890385   0.000000   0.000000 )
               a(2) = (   0.000000   3.890385   0.000000 )
               a(3) = (   0.000000   0.000000   3.890385 )

     reciprocal axes: (cart. coord. in units 2 pi/alat)
               b(1) = (  0.257044  0.000000  0.000000 )
               b(2) = (  0.000000  0.257044  0.000000 )
               b(3) = (  0.000000  0.000000  0.257044 )

     PseudoPot. # 1 for Cu read from file:
     /home/vossj/suncat/psp/gbrv1.5pbe/Cu.UPF
     MD5 check sum: 6e991ff952a84172a2a52a1c1e996048
     Pseudo is Ultrasoft + core correction, Zval = 19.0
     Generated by new atomic code, or converted to UPF format
     Using radial grid of  867 points,  6 beta functions with:
                l(1) =   0
                l(2) =   0
                l(3) =   1
                l(4) =   1
                l(5) =   2
                l(6) =   2
     Q(r) pseudized with  8 coefficients,  rinner =    1.150   1.150   1.150
                                                       1.150   1.150

     PseudoPot. # 2 for In read from file:
     /home/vossj/suncat/psp/gbrv1.5pbe/In.UPF
     MD5 check sum: 90777abd96fbb83f2e67db2a40c566b9
     Pseudo is Ultrasoft + core correction, Zval = 13.0
     Generated by new atomic code, or converted to UPF format
     Using radial grid of  889 points,  6 beta functions with:
                l(1) =   0
                l(2) =   0
                l(3) =   1
                l(4) =   1
                l(5) =   2
                l(6) =   2
     Q(r) pseudized with  6 coefficients,  rinner =    1.400   1.400   1.400
                                                       1.400   1.400

     vdW kernel table read from file vdW_kernel_table
     MD5 check sum: 095c7af220d748ca6e76c0b4c6cfb241

     atomic species   valence    mass     pseudopotential
        Cu1           19.00    63.54600     Cu( 1.00)
        In1           13.00   114.81800     In( 1.00)

     48 Sym. Ops., with inversion, found (32 have fractional translation)

   Cartesian axes

     site n.     atom                  positions (alat units)
         1           Cu1 tau(   1) = (   0.0000000   0.0000000   0.0000000  )
         2           Cu1 tau(   2) = (   0.0000000   1.9451926   1.9451926  )
         3           Cu1 tau(   3) = (   1.9451926   0.0000000   1.9451926  )
         4           In1 tau(   4) = (   1.9451926   1.9451926   0.0000000  )

     number of k points=    84  Fermi-Dirac smearing, width (Ry)=  0.0073
                       cart. coord. in units 2pi/alat
        k(    1) = (   0.0000000   0.0000000   0.0000000), wk =   0.0011574
        k(    2) = (   0.0000000   0.0000000   0.0214203), wk =   0.0069444
        k(    3) = (   0.0000000   0.0000000   0.0428407), wk =   0.0069444
        k(    4) = (   0.0000000   0.0000000   0.0642610), wk =   0.0069444
        k(    5) = (   0.0000000   0.0000000   0.0856813), wk =   0.0069444
        k(    6) = (   0.0000000   0.0000000   0.1071016), wk =   0.0069444
        k(    7) = (   0.0000000   0.0000000  -0.1285220), wk =   0.0034722
        k(    8) = (   0.0000000   0.0214203   0.0214203), wk =   0.0138889
        k(    9) = (   0.0000000   0.0214203   0.0428407), wk =   0.0277778
        k(   10) = (   0.0000000   0.0214203   0.0642610), wk =   0.0277778
        k(   11) = (   0.0000000   0.0214203   0.0856813), wk =   0.0277778
        k(   12) = (   0.0000000   0.0214203   0.1071016), wk =   0.0277778
        k(   13) = (   0.0000000   0.0214203  -0.1285220), wk =   0.0138889
        k(   14) = (   0.0000000   0.0428407   0.0428407), wk =   0.0138889
        k(   15) = (   0.0000000   0.0428407   0.0642610), wk =   0.0277778
        k(   16) = (   0.0000000   0.0428407   0.0856813), wk =   0.0277778
        k(   17) = (   0.0000000   0.0428407   0.1071016), wk =   0.0277778
        k(   18) = (   0.0000000   0.0428407  -0.1285220), wk =   0.0138889
        k(   19) = (   0.0000000   0.0642610   0.0642610), wk =   0.0138889
        k(   20) = (   0.0000000   0.0642610   0.0856813), wk =   0.0277778
        k(   21) = (   0.0000000   0.0642610   0.1071016), wk =   0.0277778
        k(   22) = (   0.0000000   0.0642610  -0.1285220), wk =   0.0138889
        k(   23) = (   0.0000000   0.0856813   0.0856813), wk =   0.0138889
        k(   24) = (   0.0000000   0.0856813   0.1071016), wk =   0.0277778
        k(   25) = (   0.0000000   0.0856813  -0.1285220), wk =   0.0138889
        k(   26) = (   0.0000000   0.1071016   0.1071016), wk =   0.0138889
        k(   27) = (   0.0000000   0.1071016  -0.1285220), wk =   0.0138889
        k(   28) = (   0.0000000  -0.1285220  -0.1285220), wk =   0.0034722
        k(   29) = (   0.0214203   0.0214203   0.0214203), wk =   0.0092593
        k(   30) = (   0.0214203   0.0214203   0.0428407), wk =   0.0277778
        k(   31) = (   0.0214203   0.0214203   0.0642610), wk =   0.0277778
        k(   32) = (   0.0214203   0.0214203   0.0856813), wk =   0.0277778
        k(   33) = (   0.0214203   0.0214203   0.1071016), wk =   0.0277778
        k(   34) = (   0.0214203   0.0214203  -0.1285220), wk =   0.0138889
        k(   35) = (   0.0214203   0.0428407   0.0428407), wk =   0.0277778
        k(   36) = (   0.0214203   0.0428407   0.0642610), wk =   0.0555556
        k(   37) = (   0.0214203   0.0428407   0.0856813), wk =   0.0555556
        k(   38) = (   0.0214203   0.0428407   0.1071016), wk =   0.0555556
        k(   39) = (   0.0214203   0.0428407  -0.1285220), wk =   0.0277778
        k(   40) = (   0.0214203   0.0642610   0.0642610), wk =   0.0277778
        k(   41) = (   0.0214203   0.0642610   0.0856813), wk =   0.0555556
        k(   42) = (   0.0214203   0.0642610   0.1071016), wk =   0.0555556
        k(   43) = (   0.0214203   0.0642610  -0.1285220), wk =   0.0277778
        k(   44) = (   0.0214203   0.0856813   0.0856813), wk =   0.0277778
        k(   45) = (   0.0214203   0.0856813   0.1071016), wk =   0.0555556
        k(   46) = (   0.0214203   0.0856813  -0.1285220), wk =   0.0277778
        k(   47) = (   0.0214203   0.1071016   0.1071016), wk =   0.0277778
        k(   48) = (   0.0214203   0.1071016  -0.1285220), wk =   0.0277778
        k(   49) = (   0.0214203  -0.1285220  -0.1285220), wk =   0.0069444
        k(   50) = (   0.0428407   0.0428407   0.0428407), wk =   0.0092593
        k(   51) = (   0.0428407   0.0428407   0.0642610), wk =   0.0277778
        k(   52) = (   0.0428407   0.0428407   0.0856813), wk =   0.0277778
        k(   53) = (   0.0428407   0.0428407   0.1071016), wk =   0.0277778
        k(   54) = (   0.0428407   0.0428407  -0.1285220), wk =   0.0138889
        k(   55) = (   0.0428407   0.0642610   0.0642610), wk =   0.0277778
        k(   56) = (   0.0428407   0.0642610   0.0856813), wk =   0.0555556
        k(   57) = (   0.0428407   0.0642610   0.1071016), wk =   0.0555556
        k(   58) = (   0.0428407   0.0642610  -0.1285220), wk =   0.0277778
        k(   59) = (   0.0428407   0.0856813   0.0856813), wk =   0.0277778
        k(   60) = (   0.0428407   0.0856813   0.1071016), wk =   0.0555556
[...]
        k(   70) = (   0.0642610   0.0856813   0.1071016), wk =   0.0555556
        k(   71) = (   0.0642610   0.0856813  -0.1285220), wk =   0.0277778
        k(   72) = (   0.0642610   0.1071016   0.1071016), wk =   0.0277778
        k(   73) = (   0.0642610   0.1071016  -0.1285220), wk =   0.0277778
        k(   74) = (   0.0642610  -0.1285220  -0.1285220), wk =   0.0069444
        k(   75) = (   0.0856813   0.0856813   0.0856813), wk =   0.0092593
        k(   76) = (   0.0856813   0.0856813   0.1071016), wk =   0.0277778
        k(   77) = (   0.0856813   0.0856813  -0.1285220), wk =   0.0138889
        k(   78) = (   0.0856813   0.1071016   0.1071016), wk =   0.0277778
        k(   79) = (   0.0856813   0.1071016  -0.1285220), wk =   0.0277778
        k(   80) = (   0.0856813  -0.1285220  -0.1285220), wk =   0.0069444
        k(   81) = (   0.1071016   0.1071016   0.1071016), wk =   0.0092593
        k(   82) = (   0.1071016   0.1071016  -0.1285220), wk =   0.0138889
        k(   83) = (   0.1071016  -0.1285220  -0.1285220), wk =   0.0069444
        k(   84) = (  -0.1285220  -0.1285220  -0.1285220), wk =   0.0011574

     Largest allocated arrays     est. size (Mb)     dimensions
     Largest temporary arrays     est. size (Mb)     dimensions

     Initial potential from superposition of free atoms

     starting charge   65.49999, renormalised to   70.00000

     *
     * You are using vdW-DF for exchange-correlation in this calculation.
     * Please cite the following three references that made this development
     * possible:
     *
     *   M. Dion, H. Rydberg, E. Schroder, D. C. Langreth, and
     *   B. I. Lundqvist, Phys. Rev. Lett. 92, 246401 (2004).
     *
     *   T. Thonhauser, V. R. Cooper, S. Li, A. Puzder, P. Hyldgaard, and
     *   D. C. Langreth, Phys. Rev. B 76, 125112 (2007).
     *
     *   G. Roman-Perez and J. M. Soler, Phys. Rev. Lett. 103, 096102 (2009).
     *
     *
     * If you are using vdW-DF2, please also cite:
     *
     *   K. Lee, E. D. Murray, L. Kong, B. I. Lundqvist, and
     *   D. C. Langreth, Phys. Rev. B 82, 081101(R) (2010).
     *
     *
     * If you are calculating the stress with vdW-DF, please also cite:
     *
     *   R. Sabatini, E. Kucukbenli, B. Kolb, T. Thonhauser, and
     *   S. de Gironcoli, J. Phys.: Condens. Matter 24, 424209 (2012).
     *

     Carrying out vdW-DF run using the following parameters:

     Nqs =      20    Nr_points =    1024   r_max =   100.000
     q_mesh =
               0.00001000     0.04494208     0.09755937     0.15916263
               0.23128650     0.31572767     0.41458969     0.53033537
               0.66584808     0.82450364     1.01025438     1.22772762
               1.48234092     1.78043706     2.12944203     2.53805004
               3.01644009     3.57652955     4.23227104     5.00000000

     Gradients computed in reciprocal space

     Starting wfc are   48 randomized atomic wfcs +    7 random wfc

     Self-consistent Calculation

     iteration #  1     ecut=    58.80 Ry     beta=0.10
     Davidson diagonalization with overlap
     ethr =  1.00E-02,  avg # of iterations =  4.4

     total energy              =   -1352.48993779 Ry
     Harris-Foulkes estimate   =   -1355.73445248 Ry
     estimated scf accuracy    <      42.90405305 Ry

[...]

     total energy              =   -1349.65442443 Ry
     Harris-Foulkes estimate   =   -1349.65441956 Ry
     estimated scf accuracy    <       0.00000002 Ry

     iteration # 14     ecut=    58.80 Ry     beta=0.10
     Davidson diagonalization with overlap
     ethr =  2.71E-11,  avg # of iterations =  2.0

     End of self-consistent calculation

          k = 0.0000 0.0000 0.0000 (  2969 PWs)   bands (ev):

   -98.6231 -98.6185 -98.6185 -56.0535 -56.0535 -56.0535 -56.0475 -56.0475
   -56.0475 -55.9476 -55.9476 -55.9476  -0.7732  -0.7732  -0.6831  -0.6831
    -0.6831   4.2978   9.6809  10.3608  10.3608  10.4427  10.4427  10.4427
    11.4379  11.4379  11.4379  11.8476  11.8476  11.9836  12.1973  12.1973
    12.1973  14.0768  14.0768  14.0768  17.8936  18.5256  18.5256  23.9027
    23.9027  23.9027  24.0434  24.0434  24.0434  28.4600  28.4600  28.4600
    29.2589  29.7702  29.7702  30.1735  32.3152  34.3249  34.3249

[...]

          k = 0.1071-0.1285-0.1285 (  3056 PWs)   bands (ev):

[...]

          k =-0.1285-0.1285-0.1285 (  3016 PWs)   bands (ev):

   -98.6201 -98.6201 -98.6201 -56.0620 -56.0620 -56.0620 -56.0371 -56.0371
   -56.0371 -55.9744 -55.9375 -55.9375  -0.7634  -0.7634  -0.7634  -0.5929
    -0.5929   8.1756  10.0683  10.0683  10.0683  10.9842  10.9842  10.9842
    11.5267  11.5267  11.5267  11.5636  11.5636  11.7126  11.7126  11.7126
    12.0571  12.0571  12.0571  13.1871  14.4411  15.7602  15.7602  15.7602
    29.5037  30.7259  30.7259  30.7259  30.8150  30.8150  30.8150  31.6860
    31.6860  31.6860  31.9387  32.3235  32.3235  34.9615  34.9615

     the Fermi energy is    14.2432 ev

!    total energy              =   -1349.65444505 Ry
     Harris-Foulkes estimate   =   -1349.65442443 Ry
     estimated scf accuracy    <          5.1E-09 Ry

     The total energy is the sum of the following terms:

     one-electron contribution =    -925.74268645 Ry
     hartree contribution      =     507.67742457 Ry
     xc contribution           =    -159.34487792 Ry
     ewald contribution        =    -772.24135321 Ry
     smearing contrib. (-TS)   =      -0.00295203 Ry

     convergence has been achieved in  14 iterations

     Forces acting on atoms (Ry/au):

     atom    1 type  1   force =     0.00000000   -0.00000000    0.00000000
     atom    2 type  1   force =     0.00000000    0.00000000    0.00000000
     atom    3 type  1   force =     0.00000000   -0.00000000    0.00000000
     atom    4 type  2   force =     0.00000000    0.00000000    0.00000000

     Total force =     0.000000     Total SCF correction =     0.000000
 !ASE

     General routines

     Parallel routines

   This run was terminated on:  21:15:59  25Oct2017

   JOB DONE.