     Program PWSCF v.5.1rc2 (svn rev. ) starts on 25Oct2017 at 16:10: 0

     Current dimensions of program PWSCF are:
     Max number of different atomic species (ntypx) = 10
     Max number of k-points (npk) =  40000
     Max angular momentum in pseudopotentials (lmaxx) =  3

     IMPORTANT: XC functional enforced from input :
     Exchange-correlation      = BEEF-VDW ( 1  4 27 13 2)
     Any further DFT definition will be discarded
     Please, verify this is what you really want

     Subspace diagonalization in iterative solution of the eigenvalue problem:
     a serial algorithm will be used

     bravais-lattice index     =            0
     lattice parameter (alat)  =       1.8897  a.u.
     unit-cell volume          =     511.3418 (a.u.)^3
     number of atoms/cell      =            4
     number of atomic types    =            2
     number of electrons       =        53.00
     number of Kohn-Sham states=           46
     kinetic-energy cutoff     =      58.7989  Ry
     charge density cutoff     =     587.9892  Ry
     convergence threshold     =      7.3E-09
     mixing beta               =       0.1000
     number of iterations used =           10  local-TF  mixing
     Exchange-correlation      = BEEF-VDW ( 1  4 27 13 2)
     nstep                     =           50

     celldm(1)=   1.889726  celldm(2)=   0.000000  celldm(3)=   0.000000
     celldm(4)=   0.000000  celldm(5)=   0.000000  celldm(6)=   0.000000

     crystal axes: (cart. coord. in units of alat)
               a(1) = (   4.231603   0.000000   0.000000 )
               a(2) = (   0.000000   4.231603   0.000000 )
               a(3) = (   0.000000   0.000000   4.231603 )

     reciprocal axes: (cart. coord. in units 2 pi/alat)
               b(1) = (  0.236317  0.000000  0.000000 )
               b(2) = (  0.000000  0.236317  0.000000 )
               b(3) = (  0.000000  0.000000  0.236317 )

     PseudoPot. # 1 for Nb read from file:
     /home/vossj/suncat/psp/gbrv1.5pbe/Nb.UPF
     MD5 check sum: 573aab8a2fa660278ed4a62cd769473f
     Pseudo is Ultrasoft + core correction, Zval = 13.0
     Generated by new atomic code, or converted to UPF format
     Using radial grid of  887 points,  6 beta functions with:
                l(1) =   0
                l(2) =   0
                l(3) =   1
                l(4) =   1
                l(5) =   2
                l(6) =   2
     Q(r) pseudized with  6 coefficients,  rinner =    1.000   1.000   1.000
                                                       1.000   1.000

     PseudoPot. # 2 for Sn read from file:
     /home/vossj/suncat/psp/gbrv1.5pbe/Sn.UPF
     MD5 check sum: 469debedee59599fedebd795477fea03
     Pseudo is Ultrasoft + core correction, Zval = 14.0
     Generated by new atomic code, or converted to UPF format
     Using radial grid of  891 points,  6 beta functions with:
                l(1) =   0
                l(2) =   0
                l(3) =   1
                l(4) =   1
                l(5) =   2
                l(6) =   2
     Q(r) pseudized with  8 coefficients,  rinner =    1.350   1.350   1.350
                                                       1.350   1.350

     vdW kernel table read from file vdW_kernel_table
     MD5 check sum: 095c7af220d748ca6e76c0b4c6cfb241

     atomic species   valence    mass     pseudopotential
        Nb1           13.00    92.90637     Nb( 1.00)
        Sn1           14.00   118.71000     Sn( 1.00)

     48 Sym. Ops., with inversion, found (32 have fractional translation)

   Cartesian axes

     site n.     atom                  positions (alat units)
         1           Nb1 tau(   1) = (   0.0000000   0.0000000   0.0000000  )
         2           Nb1 tau(   2) = (   0.0000000   2.1158014   2.1158014  )
         3           Nb1 tau(   3) = (   2.1158014   0.0000000   2.1158014  )
         4           Sn1 tau(   4) = (   2.1158014   2.1158014   0.0000000  )

     number of k points=    84  Fermi-Dirac smearing, width (Ry)=  0.0073
                       cart. coord. in units 2pi/alat
        k(    1) = (   0.0000000   0.0000000   0.0000000), wk =   0.0011574
        k(    2) = (   0.0000000   0.0000000   0.0196931), wk =   0.0069444
        k(    3) = (   0.0000000   0.0000000   0.0393862), wk =   0.0069444
        k(    4) = (   0.0000000   0.0000000   0.0590793), wk =   0.0069444
        k(    5) = (   0.0000000   0.0000000   0.0787724), wk =   0.0069444
        k(    6) = (   0.0000000   0.0000000   0.0984654), wk =   0.0069444
        k(    7) = (   0.0000000   0.0000000  -0.1181585), wk =   0.0034722
        k(    8) = (   0.0000000   0.0196931   0.0196931), wk =   0.0138889
        k(    9) = (   0.0000000   0.0196931   0.0393862), wk =   0.0277778
        k(   10) = (   0.0000000   0.0196931   0.0590793), wk =   0.0277778
        k(   11) = (   0.0000000   0.0196931   0.0787724), wk =   0.0277778
        k(   12) = (   0.0000000   0.0196931   0.0984654), wk =   0.0277778
        k(   13) = (   0.0000000   0.0196931  -0.1181585), wk =   0.0138889
        k(   14) = (   0.0000000   0.0393862   0.0393862), wk =   0.0138889
        k(   15) = (   0.0000000   0.0393862   0.0590793), wk =   0.0277778
        k(   16) = (   0.0000000   0.0393862   0.0787724), wk =   0.0277778
        k(   17) = (   0.0000000   0.0393862   0.0984654), wk =   0.0277778
        k(   18) = (   0.0000000   0.0393862  -0.1181585), wk =   0.0138889
        k(   19) = (   0.0000000   0.0590793   0.0590793), wk =   0.0138889
        k(   20) = (   0.0000000   0.0590793   0.0787724), wk =   0.0277778
        k(   21) = (   0.0000000   0.0590793   0.0984654), wk =   0.0277778
        k(   22) = (   0.0000000   0.0590793  -0.1181585), wk =   0.0138889
        k(   23) = (   0.0000000   0.0787724   0.0787724), wk =   0.0138889
        k(   24) = (   0.0000000   0.0787724   0.0984654), wk =   0.0277778
        k(   25) = (   0.0000000   0.0787724  -0.1181585), wk =   0.0138889
        k(   26) = (   0.0000000   0.0984654   0.0984654), wk =   0.0138889
        k(   27) = (   0.0000000   0.0984654  -0.1181585), wk =   0.0138889
        k(   28) = (   0.0000000  -0.1181585  -0.1181585), wk =   0.0034722
        k(   29) = (   0.0196931   0.0196931   0.0196931), wk =   0.0092593
        k(   30) = (   0.0196931   0.0196931   0.0393862), wk =   0.0277778
        k(   31) = (   0.0196931   0.0196931   0.0590793), wk =   0.0277778
        k(   32) = (   0.0196931   0.0196931   0.0787724), wk =   0.0277778
        k(   33) = (   0.0196931   0.0196931   0.0984654), wk =   0.0277778
        k(   34) = (   0.0196931   0.0196931  -0.1181585), wk =   0.0138889
        k(   35) = (   0.0196931   0.0393862   0.0393862), wk =   0.0277778
        k(   36) = (   0.0196931   0.0393862   0.0590793), wk =   0.0555556
        k(   37) = (   0.0196931   0.0393862   0.0787724), wk =   0.0555556
        k(   38) = (   0.0196931   0.0393862   0.0984654), wk =   0.0555556
        k(   39) = (   0.0196931   0.0393862  -0.1181585), wk =   0.0277778
        k(   40) = (   0.0196931   0.0590793   0.0590793), wk =   0.0277778
        k(   41) = (   0.0196931   0.0590793   0.0787724), wk =   0.0555556
        k(   42) = (   0.0196931   0.0590793   0.0984654), wk =   0.0555556
        k(   43) = (   0.0196931   0.0590793  -0.1181585), wk =   0.0277778
        k(   44) = (   0.0196931   0.0787724   0.0787724), wk =   0.0277778
        k(   45) = (   0.0196931   0.0787724   0.0984654), wk =   0.0555556
        k(   46) = (   0.0196931   0.0787724  -0.1181585), wk =   0.0277778
        k(   47) = (   0.0196931   0.0984654   0.0984654), wk =   0.0277778
        k(   48) = (   0.0196931   0.0984654  -0.1181585), wk =   0.0277778
        k(   49) = (   0.0196931  -0.1181585  -0.1181585), wk =   0.0069444
        k(   50) = (   0.0393862   0.0393862   0.0393862), wk =   0.0092593
        k(   51) = (   0.0393862   0.0393862   0.0590793), wk =   0.0277778
        k(   52) = (   0.0393862   0.0393862   0.0787724), wk =   0.0277778
        k(   53) = (   0.0393862   0.0393862   0.0984654), wk =   0.0277778
        k(   54) = (   0.0393862   0.0393862  -0.1181585), wk =   0.0138889
        k(   55) = (   0.0393862   0.0590793   0.0590793), wk =   0.0277778
        k(   56) = (   0.0393862   0.0590793   0.0787724), wk =   0.0555556
        k(   57) = (   0.0393862   0.0590793   0.0984654), wk =   0.0555556
        k(   58) = (   0.0393862   0.0590793  -0.1181585), wk =   0.0277778
        k(   59) = (   0.0393862   0.0787724   0.0787724), wk =   0.0277778
        k(   60) = (   0.0393862   0.0787724   0.0984654), wk =   0.0555556
[...]
        k(   70) = (   0.0590793   0.0787724   0.0984654), wk =   0.0555556
        k(   71) = (   0.0590793   0.0787724  -0.1181585), wk =   0.0277778
        k(   72) = (   0.0590793   0.0984654   0.0984654), wk =   0.0277778
        k(   73) = (   0.0590793   0.0984654  -0.1181585), wk =   0.0277778
        k(   74) = (   0.0590793  -0.1181585  -0.1181585), wk =   0.0069444
        k(   75) = (   0.0787724   0.0787724   0.0787724), wk =   0.0092593
        k(   76) = (   0.0787724   0.0787724   0.0984654), wk =   0.0277778
        k(   77) = (   0.0787724   0.0787724  -0.1181585), wk =   0.0138889
        k(   78) = (   0.0787724   0.0984654   0.0984654), wk =   0.0277778
        k(   79) = (   0.0787724   0.0984654  -0.1181585), wk =   0.0277778
        k(   80) = (   0.0787724  -0.1181585  -0.1181585), wk =   0.0069444
        k(   81) = (   0.0984654   0.0984654   0.0984654), wk =   0.0092593
        k(   82) = (   0.0984654   0.0984654  -0.1181585), wk =   0.0138889
        k(   83) = (   0.0984654  -0.1181585  -0.1181585), wk =   0.0069444
        k(   84) = (  -0.1181585  -0.1181585  -0.1181585), wk =   0.0011574

     Largest allocated arrays     est. size (Mb)     dimensions
     Largest temporary arrays     est. size (Mb)     dimensions

     Initial potential from superposition of free atoms

     starting charge   51.99176, renormalised to   53.00000

     *
     * You are using vdW-DF for exchange-correlation in this calculation.
     * Please cite the following three references that made this development
     * possible:
     *
     *   M. Dion, H. Rydberg, E. Schroder, D. C. Langreth, and
     *   B. I. Lundqvist, Phys. Rev. Lett. 92, 246401 (2004).
     *
     *   T. Thonhauser, V. R. Cooper, S. Li, A. Puzder, P. Hyldgaard, and
     *   D. C. Langreth, Phys. Rev. B 76, 125112 (2007).
     *
     *   G. Roman-Perez and J. M. Soler, Phys. Rev. Lett. 103, 096102 (2009).
     *
     *
     * If you are using vdW-DF2, please also cite:
     *
     *   K. Lee, E. D. Murray, L. Kong, B. I. Lundqvist, and
     *   D. C. Langreth, Phys. Rev. B 82, 081101(R) (2010).
     *
     *
     * If you are calculating the stress with vdW-DF, please also cite:
     *
     *   R. Sabatini, E. Kucukbenli, B. Kolb, T. Thonhauser, and
     *   S. de Gironcoli, J. Phys.: Condens. Matter 24, 424209 (2012).
     *

     Carrying out vdW-DF run using the following parameters:

     Nqs =      20    Nr_points =    1024   r_max =   100.000
     q_mesh =
               0.00001000     0.04494208     0.09755937     0.15916263
               0.23128650     0.31572767     0.41458969     0.53033537
               0.66584808     0.82450364     1.01025438     1.22772762
               1.48234092     1.78043706     2.12944203     2.53805004
               3.01644009     3.57652955     4.23227104     5.00000000

     Gradients computed in reciprocal space

     Starting wfc are   48 randomized atomic wfcs

     Self-consistent Calculation

     iteration #  1     ecut=    58.80 Ry     beta=0.10
     Davidson diagonalization with overlap
     ethr =  1.00E-02,  avg # of iterations =  4.9

     total energy              =    -516.67078325 Ry
     Harris-Foulkes estimate   =    -516.70895123 Ry
     estimated scf accuracy    <       0.70335240 Ry

[...]

     total energy              =    -516.47895884 Ry
     Harris-Foulkes estimate   =    -516.47895517 Ry
     estimated scf accuracy    <       0.00000003 Ry

     iteration # 12     ecut=    58.80 Ry     beta=0.10
     Davidson diagonalization with overlap
     ethr =  5.61E-11,  avg # of iterations =  2.0

     End of self-consistent calculation

          k = 0.0000 0.0000 0.0000 (  3887 PWs)   bands (ev):

   -38.1708 -37.9898 -37.9898 -14.4804 -14.4804 -14.4804 -14.0727 -14.0727
   -14.0727 -13.7012 -13.7012 -13.7012  -4.5533  -4.5533  -4.5533  -4.5480
    -4.5480   7.3277  12.6594  14.1122  14.1122  14.4762  14.4762  14.4762
    16.7696  16.7696  16.7696  18.2960  18.2960  18.2960  20.2198  20.2198
    21.1961  21.6121  21.8968  21.8968  21.8968  25.1223  25.1223  25.1223
    27.4297  27.4297  28.0267  28.0267  28.0267  28.7050

[...]

          k = 0.0985-0.1182-0.1182 (  3900 PWs)   bands (ev):

[...]

          k =-0.1182-0.1182-0.1182 (  3912 PWs)   bands (ev):

   -38.0489 -38.0489 -38.0489 -14.6313 -14.4875 -14.4875 -14.4875 -13.8194
   -13.8194 -13.8194 -13.6596 -13.6596  -4.5563  -4.5563  -4.5563  -4.5173
    -4.5173   8.7061  13.9743  13.9743  13.9743  14.8505  14.8505  14.8505
    16.6684  16.6684  16.6684  18.2246  18.2246  18.2246  18.3475  19.0094
    19.0094  20.3481  21.3035  21.3035  21.3035  25.4594  25.4594  25.4594
    27.8458  27.8458  27.8458  28.4911  30.2127  30.2127

     the Fermi energy is    16.8326 ev

!    total energy              =    -516.47897453 Ry
     Harris-Foulkes estimate   =    -516.47895884 Ry
     estimated scf accuracy    <          5.3E-09 Ry

     The total energy is the sum of the following terms:

     one-electron contribution =     -89.77562346 Ry
     hartree contribution      =      78.18858964 Ry
     xc contribution           =    -102.03294447 Ry
     ewald contribution        =    -402.84900997 Ry
     smearing contrib. (-TS)   =      -0.00998626 Ry

     convergence has been achieved in  12 iterations

     Forces acting on atoms (Ry/au):

     atom    1 type  1   force =     0.00000000    0.00000000    0.00000000
     atom    2 type  1   force =     0.00000000    0.00000000    0.00000000
     atom    3 type  1   force =     0.00000000    0.00000000    0.00000000
     atom    4 type  2   force =     0.00000000    0.00000000   -0.00000000

     Total force =     0.000000     Total SCF correction =     0.000000
 !ASE

     General routines

     Parallel routines

   This run was terminated on:  16:10:58  25Oct2017

   JOB DONE.