     Program PWSCF v.5.1rc2 (svn rev. ) starts on 25Oct2017 at 16: 3:37

     Current dimensions of program PWSCF are:
     Max number of different atomic species (ntypx) = 10
     Max number of k-points (npk) =  40000
     Max angular momentum in pseudopotentials (lmaxx) =  3

     IMPORTANT: XC functional enforced from input :
     Exchange-correlation      = BEEF-VDW ( 1  4 27 13 2)
     Any further DFT definition will be discarded
     Please, verify this is what you really want

     Subspace diagonalization in iterative solution of the eigenvalue problem:
     a serial algorithm will be used

     bravais-lattice index     =            0
     lattice parameter (alat)  =       1.8897  a.u.
     unit-cell volume          =     525.8507 (a.u.)^3
     number of atoms/cell      =            4
     number of atomic types    =            2
     number of electrons       =        53.00
     number of Kohn-Sham states=           46
     kinetic-energy cutoff     =      58.7989  Ry
     charge density cutoff     =     587.9892  Ry
     convergence threshold     =      7.3E-09
     mixing beta               =       0.1000
     number of iterations used =           10  local-TF  mixing
     Exchange-correlation      = BEEF-VDW ( 1  4 27 13 2)
     nstep                     =           50

     celldm(1)=   1.889726  celldm(2)=   0.000000  celldm(3)=   0.000000
     celldm(4)=   0.000000  celldm(5)=   0.000000  celldm(6)=   0.000000

     crystal axes: (cart. coord. in units of alat)
               a(1) = (   4.271253   0.000000   0.000000 )
               a(2) = (   0.000000   4.271253   0.000000 )
               a(3) = (   0.000000   0.000000   4.271253 )

     reciprocal axes: (cart. coord. in units 2 pi/alat)
               b(1) = (  0.234123  0.000000  0.000000 )
               b(2) = (  0.000000  0.234123  0.000000 )
               b(3) = (  0.000000  0.000000  0.234123 )

     PseudoPot. # 1 for Nb read from file:
     /home/vossj/suncat/psp/gbrv1.5pbe/Nb.UPF
     MD5 check sum: 573aab8a2fa660278ed4a62cd769473f
     Pseudo is Ultrasoft + core correction, Zval = 13.0
     Generated by new atomic code, or converted to UPF format
     Using radial grid of  887 points,  6 beta functions with:
                l(1) =   0
                l(2) =   0
                l(3) =   1
                l(4) =   1
                l(5) =   2
                l(6) =   2
     Q(r) pseudized with  6 coefficients,  rinner =    1.000   1.000   1.000
                                                       1.000   1.000

     PseudoPot. # 2 for Pb read from file:
     /home/vossj/suncat/psp/gbrv1.5pbe/Pb.UPF
     MD5 check sum: 3d1c1779aa92214d1e8f3a7db79003e2
     Pseudo is Ultrasoft + core correction, Zval = 14.0
     Generated by new atomic code, or converted to UPF format
     Using radial grid of  899 points,  6 beta functions with:
                l(1) =   0
                l(2) =   0
                l(3) =   1
                l(4) =   1
                l(5) =   2
                l(6) =   2
     Q(r) pseudized with  6 coefficients,  rinner =    1.000   1.000   1.000
                                                       1.000   1.000

     vdW kernel table read from file vdW_kernel_table
     MD5 check sum: 095c7af220d748ca6e76c0b4c6cfb241

     atomic species   valence    mass     pseudopotential
        Nb1           13.00    92.90637     Nb( 1.00)
        Pb1           14.00   207.20000     Pb( 1.00)

     48 Sym. Ops., with inversion, found (32 have fractional translation)

   Cartesian axes

     site n.     atom                  positions (alat units)
         1           Nb1 tau(   1) = (   0.0000000   0.0000000   0.0000000  )
         2           Nb1 tau(   2) = (   0.0000000   2.1356265   2.1356265  )
         3           Nb1 tau(   3) = (   2.1356265   0.0000000   2.1356265  )
         4           Pb1 tau(   4) = (   2.1356265   2.1356265   0.0000000  )

     number of k points=    84  Fermi-Dirac smearing, width (Ry)=  0.0073
                       cart. coord. in units 2pi/alat
        k(    1) = (   0.0000000   0.0000000   0.0000000), wk =   0.0011574
        k(    2) = (   0.0000000   0.0000000   0.0195103), wk =   0.0069444
        k(    3) = (   0.0000000   0.0000000   0.0390206), wk =   0.0069444
        k(    4) = (   0.0000000   0.0000000   0.0585308), wk =   0.0069444
        k(    5) = (   0.0000000   0.0000000   0.0780411), wk =   0.0069444
        k(    6) = (   0.0000000   0.0000000   0.0975514), wk =   0.0069444
        k(    7) = (   0.0000000   0.0000000  -0.1170617), wk =   0.0034722
        k(    8) = (   0.0000000   0.0195103   0.0195103), wk =   0.0138889
        k(    9) = (   0.0000000   0.0195103   0.0390206), wk =   0.0277778
        k(   10) = (   0.0000000   0.0195103   0.0585308), wk =   0.0277778
        k(   11) = (   0.0000000   0.0195103   0.0780411), wk =   0.0277778
        k(   12) = (   0.0000000   0.0195103   0.0975514), wk =   0.0277778
        k(   13) = (   0.0000000   0.0195103  -0.1170617), wk =   0.0138889
        k(   14) = (   0.0000000   0.0390206   0.0390206), wk =   0.0138889
        k(   15) = (   0.0000000   0.0390206   0.0585308), wk =   0.0277778
        k(   16) = (   0.0000000   0.0390206   0.0780411), wk =   0.0277778
        k(   17) = (   0.0000000   0.0390206   0.0975514), wk =   0.0277778
        k(   18) = (   0.0000000   0.0390206  -0.1170617), wk =   0.0138889
        k(   19) = (   0.0000000   0.0585308   0.0585308), wk =   0.0138889
        k(   20) = (   0.0000000   0.0585308   0.0780411), wk =   0.0277778
        k(   21) = (   0.0000000   0.0585308   0.0975514), wk =   0.0277778
        k(   22) = (   0.0000000   0.0585308  -0.1170617), wk =   0.0138889
        k(   23) = (   0.0000000   0.0780411   0.0780411), wk =   0.0138889
        k(   24) = (   0.0000000   0.0780411   0.0975514), wk =   0.0277778
        k(   25) = (   0.0000000   0.0780411  -0.1170617), wk =   0.0138889
        k(   26) = (   0.0000000   0.0975514   0.0975514), wk =   0.0138889
        k(   27) = (   0.0000000   0.0975514  -0.1170617), wk =   0.0138889
        k(   28) = (   0.0000000  -0.1170617  -0.1170617), wk =   0.0034722
        k(   29) = (   0.0195103   0.0195103   0.0195103), wk =   0.0092593
        k(   30) = (   0.0195103   0.0195103   0.0390206), wk =   0.0277778
        k(   31) = (   0.0195103   0.0195103   0.0585308), wk =   0.0277778
        k(   32) = (   0.0195103   0.0195103   0.0780411), wk =   0.0277778
        k(   33) = (   0.0195103   0.0195103   0.0975514), wk =   0.0277778
        k(   34) = (   0.0195103   0.0195103  -0.1170617), wk =   0.0138889
        k(   35) = (   0.0195103   0.0390206   0.0390206), wk =   0.0277778
        k(   36) = (   0.0195103   0.0390206   0.0585308), wk =   0.0555556
        k(   37) = (   0.0195103   0.0390206   0.0780411), wk =   0.0555556
        k(   38) = (   0.0195103   0.0390206   0.0975514), wk =   0.0555556
        k(   39) = (   0.0195103   0.0390206  -0.1170617), wk =   0.0277778
        k(   40) = (   0.0195103   0.0585308   0.0585308), wk =   0.0277778
        k(   41) = (   0.0195103   0.0585308   0.0780411), wk =   0.0555556
        k(   42) = (   0.0195103   0.0585308   0.0975514), wk =   0.0555556
        k(   43) = (   0.0195103   0.0585308  -0.1170617), wk =   0.0277778
        k(   44) = (   0.0195103   0.0780411   0.0780411), wk =   0.0277778
        k(   45) = (   0.0195103   0.0780411   0.0975514), wk =   0.0555556
        k(   46) = (   0.0195103   0.0780411  -0.1170617), wk =   0.0277778
        k(   47) = (   0.0195103   0.0975514   0.0975514), wk =   0.0277778
        k(   48) = (   0.0195103   0.0975514  -0.1170617), wk =   0.0277778
        k(   49) = (   0.0195103  -0.1170617  -0.1170617), wk =   0.0069444
        k(   50) = (   0.0390206   0.0390206   0.0390206), wk =   0.0092593
        k(   51) = (   0.0390206   0.0390206   0.0585308), wk =   0.0277778
        k(   52) = (   0.0390206   0.0390206   0.0780411), wk =   0.0277778
        k(   53) = (   0.0390206   0.0390206   0.0975514), wk =   0.0277778
        k(   54) = (   0.0390206   0.0390206  -0.1170617), wk =   0.0138889
        k(   55) = (   0.0390206   0.0585308   0.0585308), wk =   0.0277778
        k(   56) = (   0.0390206   0.0585308   0.0780411), wk =   0.0555556
        k(   57) = (   0.0390206   0.0585308   0.0975514), wk =   0.0555556
        k(   58) = (   0.0390206   0.0585308  -0.1170617), wk =   0.0277778
        k(   59) = (   0.0390206   0.0780411   0.0780411), wk =   0.0277778
        k(   60) = (   0.0390206   0.0780411   0.0975514), wk =   0.0555556
[...]
        k(   70) = (   0.0585308   0.0780411   0.0975514), wk =   0.0555556
        k(   71) = (   0.0585308   0.0780411  -0.1170617), wk =   0.0277778
        k(   72) = (   0.0585308   0.0975514   0.0975514), wk =   0.0277778
        k(   73) = (   0.0585308   0.0975514  -0.1170617), wk =   0.0277778
        k(   74) = (   0.0585308  -0.1170617  -0.1170617), wk =   0.0069444
        k(   75) = (   0.0780411   0.0780411   0.0780411), wk =   0.0092593
        k(   76) = (   0.0780411   0.0780411   0.0975514), wk =   0.0277778
        k(   77) = (   0.0780411   0.0780411  -0.1170617), wk =   0.0138889
        k(   78) = (   0.0780411   0.0975514   0.0975514), wk =   0.0277778
        k(   79) = (   0.0780411   0.0975514  -0.1170617), wk =   0.0277778
        k(   80) = (   0.0780411  -0.1170617  -0.1170617), wk =   0.0069444
        k(   81) = (   0.0975514   0.0975514   0.0975514), wk =   0.0092593
        k(   82) = (   0.0975514   0.0975514  -0.1170617), wk =   0.0138889
        k(   83) = (   0.0975514  -0.1170617  -0.1170617), wk =   0.0069444
        k(   84) = (  -0.1170617  -0.1170617  -0.1170617), wk =   0.0011574

     Largest allocated arrays     est. size (Mb)     dimensions
     Largest temporary arrays     est. size (Mb)     dimensions

     Initial potential from superposition of free atoms
     Check: negative starting charge=   -0.015048

     starting charge   52.98945, renormalised to   53.00000

     negative rho (up, down):  1.505E-02 0.000E+00

     *
     * You are using vdW-DF for exchange-correlation in this calculation.
     * Please cite the following three references that made this development
     * possible:
     *
     *   M. Dion, H. Rydberg, E. Schroder, D. C. Langreth, and
     *   B. I. Lundqvist, Phys. Rev. Lett. 92, 246401 (2004).
     *
     *   T. Thonhauser, V. R. Cooper, S. Li, A. Puzder, P. Hyldgaard, and
     *   D. C. Langreth, Phys. Rev. B 76, 125112 (2007).
     *
     *   G. Roman-Perez and J. M. Soler, Phys. Rev. Lett. 103, 096102 (2009).
     *
     *
     * If you are using vdW-DF2, please also cite:
     *
     *   K. Lee, E. D. Murray, L. Kong, B. I. Lundqvist, and
     *   D. C. Langreth, Phys. Rev. B 82, 081101(R) (2010).
     *
     *
     * If you are calculating the stress with vdW-DF, please also cite:
     *
     *   R. Sabatini, E. Kucukbenli, B. Kolb, T. Thonhauser, and
     *   S. de Gironcoli, J. Phys.: Condens. Matter 24, 424209 (2012).
     *

     Carrying out vdW-DF run using the following parameters:

     Nqs =      20    Nr_points =    1024   r_max =   100.000
     q_mesh =
               0.00001000     0.04494208     0.09755937     0.15916263
               0.23128650     0.31572767     0.41458969     0.53033537
               0.66584808     0.82450364     1.01025438     1.22772762
               1.48234092     1.78043706     2.12944203     2.53805004
               3.01644009     3.57652955     4.23227104     5.00000000

     Gradients computed in reciprocal space

     Starting wfc are   48 randomized atomic wfcs

     Self-consistent Calculation

     iteration #  1     ecut=    58.80 Ry     beta=0.10
     Davidson diagonalization with overlap
     ethr =  1.00E-02,  avg # of iterations =  4.6

     Threshold (ethr) on eigenvalues was too large:
     Diagonalizing with lowered threshold

     Davidson diagonalization with overlap
     ethr =  4.52E-04,  avg # of iterations =  1.3

[...]

     total energy              =    -521.75166848 Ry
     Harris-Foulkes estimate   =    -521.76029645 Ry
     estimated scf accuracy    <       0.24093963 Ry

[...]

     total energy              =    -521.70489010 Ry
     Harris-Foulkes estimate   =    -521.70483649 Ry
     estimated scf accuracy    <       0.00000010 Ry

     iteration # 10     ecut=    58.80 Ry     beta=0.10
     Davidson diagonalization with overlap
     ethr =  1.89E-10,  avg # of iterations =  3.0

     negative rho (up, down):  1.899E-02 0.000E+00

     End of self-consistent calculation

          k = 0.0000 0.0000 0.0000 (  3959 PWs)   bands (ev):

   -38.0081 -37.8462 -37.8462 -14.2954 -14.2954 -14.2954 -13.9355 -13.9355
   -13.9355 -13.5667 -13.5667 -13.5667  -0.0296  -0.0296  -0.0217  -0.0217
    -0.0217   6.5694  12.9379  14.5759  14.5759  14.8424  14.8424  14.8424
    17.0659  17.0659  17.0659  18.5583  18.5583  18.5583  20.3161  20.3161
    20.4795  21.1856  21.8961  21.8961  21.8961  25.2114  25.2114  25.2114
    27.6173  27.6173  27.6709  27.6709  27.6709  27.8700

[...]

          k = 0.0976-0.1171-0.1171 (  3980 PWs)   bands (ev):

[...]

          k =-0.1171-0.1171-0.1171 (  4032 PWs)   bands (ev):

   -37.8991 -37.8991 -37.8991 -14.4059 -14.3151 -14.3151 -14.3151 -13.7022
   -13.7022 -13.7022 -13.5158 -13.5158  -0.0334  -0.0334  -0.0334   0.0603
     0.0603   7.7445  14.3331  14.3331  14.3331  15.0999  15.0999  15.0999
    16.8220  16.8220  16.8220  18.4162  18.5139  18.5139  18.5139  19.2163
    19.2163  19.6547  21.3126  21.3126  21.3126  25.5042  25.5042  25.5042
    27.7158  27.7158  27.7158  27.8567  28.3738  30.4434

     the Fermi energy is    17.0443 ev

!    total energy              =    -521.70511819 Ry
     Harris-Foulkes estimate   =    -521.70489011 Ry
     estimated scf accuracy    <          3.5E-09 Ry

     The total energy is the sum of the following terms:

     one-electron contribution =     -67.31225470 Ry
     hartree contribution      =      67.54648970 Ry
     xc contribution           =    -122.82032526 Ry
     ewald contribution        =    -399.10935365 Ry
     smearing contrib. (-TS)   =      -0.00967429 Ry

     convergence has been achieved in  10 iterations

     Forces acting on atoms (Ry/au):

     negative rho (up, down):  1.899E-02 0.000E+00
     atom    1 type  1   force =     0.00000000    0.00000000    0.00000000
     atom    2 type  1   force =     0.00000000   -0.00000000    0.00000000
     atom    3 type  1   force =     0.00000000   -0.00000000   -0.00000000
     atom    4 type  2   force =     0.00000000    0.00000000   -0.00000000

     Total force =     0.000000     Total SCF correction =     0.000000
 !ASE

     General routines

     Parallel routines

   This run was terminated on:  16: 4:32  25Oct2017

   JOB DONE.