     Program PWSCF v.5.1rc2 (svn rev. ) starts on 25Oct2017 at 23:42:53

     Current dimensions of program PWSCF are:
     Max number of different atomic species (ntypx) = 10
     Max number of k-points (npk) =  40000
     Max angular momentum in pseudopotentials (lmaxx) =  3

     IMPORTANT: XC functional enforced from input :
     Exchange-correlation      = BEEF-VDW ( 1  4 27 13 2)
     Any further DFT definition will be discarded
     Please, verify this is what you really want

     Subspace diagonalization in iterative solution of the eigenvalue problem:
     a serial algorithm will be used

     bravais-lattice index     =            0
     lattice parameter (alat)  =       1.8897  a.u.
     unit-cell volume          =     436.5376 (a.u.)^3
     number of atoms/cell      =            4
     number of atomic types    =            2
     number of electrons       =        52.00
     number of Kohn-Sham states=           46
     kinetic-energy cutoff     =      58.7989  Ry
     charge density cutoff     =     587.9892  Ry
     convergence threshold     =      7.3E-09
     mixing beta               =       0.1000
     number of iterations used =           10  local-TF  mixing
     Exchange-correlation      = BEEF-VDW ( 1  4 27 13 2)
     nstep                     =           50

     celldm(1)=   1.889726  celldm(2)=   0.000000  celldm(3)=   0.000000
     celldm(4)=   0.000000  celldm(5)=   0.000000  celldm(6)=   0.000000

     crystal axes: (cart. coord. in units of alat)
               a(1) = (   4.014286   0.000000   0.000000 )
               a(2) = (   0.000000   4.014286   0.000000 )
               a(3) = (   0.000000   0.000000   4.014286 )

     reciprocal axes: (cart. coord. in units 2 pi/alat)
               b(1) = (  0.249110  0.000000  0.000000 )
               b(2) = (  0.000000  0.249110  0.000000 )
               b(3) = (  0.000000  0.000000  0.249110 )

     PseudoPot. # 1 for Ti read from file:
     /home/vossj/suncat/psp/gbrv1.5pbe/Ti.UPF
     MD5 check sum: 88a00a6731bd790ddea75d31a80cb452
     Pseudo is Ultrasoft + core correction, Zval = 12.0
     Generated by new atomic code, or converted to UPF format
     Using radial grid of  851 points,  6 beta functions with:
                l(1) =   0
                l(2) =   0
                l(3) =   1
                l(4) =   1
                l(5) =   2
                l(6) =   2
     Q(r) pseudized with  6 coefficients,  rinner =    1.000   1.000   1.000
                                                       1.000   1.000

     PseudoPot. # 2 for Ru read from file:
     /home/vossj/suncat/psp/gbrv1.5pbe/Ru.UPF
     MD5 check sum: 7158a806dd851261a58e6920c40ebe78
     Pseudo is Ultrasoft + core correction, Zval = 16.0
     Generated by new atomic code, or converted to UPF format
     Using radial grid of  967 points,  6 beta functions with:
                l(1) =   0
                l(2) =   0
                l(3) =   1
                l(4) =   1
                l(5) =   2
                l(6) =   2
     Q(r) pseudized with  8 coefficients,  rinner =    1.300   1.300   1.300
                                                       1.300   1.300

     vdW kernel table read from file vdW_kernel_table
     MD5 check sum: 095c7af220d748ca6e76c0b4c6cfb241

     atomic species   valence    mass     pseudopotential
        Ti1           12.00    47.86700     Ti( 1.00)
        Ru1           16.00   101.07000     Ru( 1.00)

     48 Sym. Ops., with inversion, found (32 have fractional translation)

   Cartesian axes

     site n.     atom                  positions (alat units)
         1           Ti1 tau(   1) = (   0.0000000   0.0000000   0.0000000  )
         2           Ti1 tau(   2) = (   0.0000000   2.0071431   2.0071431  )
         3           Ti1 tau(   3) = (   2.0071431   0.0000000   2.0071431  )
         4           Ru1 tau(   4) = (   2.0071431   2.0071431   0.0000000  )

     number of k points=    84  Fermi-Dirac smearing, width (Ry)=  0.0073
                       cart. coord. in units 2pi/alat
        k(    1) = (   0.0000000   0.0000000   0.0000000), wk =   0.0011574
        k(    2) = (   0.0000000   0.0000000   0.0207592), wk =   0.0069444
        k(    3) = (   0.0000000   0.0000000   0.0415184), wk =   0.0069444
        k(    4) = (   0.0000000   0.0000000   0.0622776), wk =   0.0069444
        k(    5) = (   0.0000000   0.0000000   0.0830368), wk =   0.0069444
        k(    6) = (   0.0000000   0.0000000   0.1037960), wk =   0.0069444
        k(    7) = (   0.0000000   0.0000000  -0.1245551), wk =   0.0034722
        k(    8) = (   0.0000000   0.0207592   0.0207592), wk =   0.0138889
        k(    9) = (   0.0000000   0.0207592   0.0415184), wk =   0.0277778
        k(   10) = (   0.0000000   0.0207592   0.0622776), wk =   0.0277778
        k(   11) = (   0.0000000   0.0207592   0.0830368), wk =   0.0277778
        k(   12) = (   0.0000000   0.0207592   0.1037960), wk =   0.0277778
        k(   13) = (   0.0000000   0.0207592  -0.1245551), wk =   0.0138889
        k(   14) = (   0.0000000   0.0415184   0.0415184), wk =   0.0138889
        k(   15) = (   0.0000000   0.0415184   0.0622776), wk =   0.0277778
        k(   16) = (   0.0000000   0.0415184   0.0830368), wk =   0.0277778
        k(   17) = (   0.0000000   0.0415184   0.1037960), wk =   0.0277778
        k(   18) = (   0.0000000   0.0415184  -0.1245551), wk =   0.0138889
        k(   19) = (   0.0000000   0.0622776   0.0622776), wk =   0.0138889
        k(   20) = (   0.0000000   0.0622776   0.0830368), wk =   0.0277778
        k(   21) = (   0.0000000   0.0622776   0.1037960), wk =   0.0277778
        k(   22) = (   0.0000000   0.0622776  -0.1245551), wk =   0.0138889
        k(   23) = (   0.0000000   0.0830368   0.0830368), wk =   0.0138889
        k(   24) = (   0.0000000   0.0830368   0.1037960), wk =   0.0277778
        k(   25) = (   0.0000000   0.0830368  -0.1245551), wk =   0.0138889
        k(   26) = (   0.0000000   0.1037960   0.1037960), wk =   0.0138889
        k(   27) = (   0.0000000   0.1037960  -0.1245551), wk =   0.0138889
        k(   28) = (   0.0000000  -0.1245551  -0.1245551), wk =   0.0034722
        k(   29) = (   0.0207592   0.0207592   0.0207592), wk =   0.0092593
        k(   30) = (   0.0207592   0.0207592   0.0415184), wk =   0.0277778
        k(   31) = (   0.0207592   0.0207592   0.0622776), wk =   0.0277778
        k(   32) = (   0.0207592   0.0207592   0.0830368), wk =   0.0277778
        k(   33) = (   0.0207592   0.0207592   0.1037960), wk =   0.0277778
        k(   34) = (   0.0207592   0.0207592  -0.1245551), wk =   0.0138889
        k(   35) = (   0.0207592   0.0415184   0.0415184), wk =   0.0277778
        k(   36) = (   0.0207592   0.0415184   0.0622776), wk =   0.0555556
        k(   37) = (   0.0207592   0.0415184   0.0830368), wk =   0.0555556
        k(   38) = (   0.0207592   0.0415184   0.1037960), wk =   0.0555556
        k(   39) = (   0.0207592   0.0415184  -0.1245551), wk =   0.0277778
        k(   40) = (   0.0207592   0.0622776   0.0622776), wk =   0.0277778
        k(   41) = (   0.0207592   0.0622776   0.0830368), wk =   0.0555556
        k(   42) = (   0.0207592   0.0622776   0.1037960), wk =   0.0555556
        k(   43) = (   0.0207592   0.0622776  -0.1245551), wk =   0.0277778
        k(   44) = (   0.0207592   0.0830368   0.0830368), wk =   0.0277778
        k(   45) = (   0.0207592   0.0830368   0.1037960), wk =   0.0555556
        k(   46) = (   0.0207592   0.0830368  -0.1245551), wk =   0.0277778
        k(   47) = (   0.0207592   0.1037960   0.1037960), wk =   0.0277778
        k(   48) = (   0.0207592   0.1037960  -0.1245551), wk =   0.0277778
        k(   49) = (   0.0207592  -0.1245551  -0.1245551), wk =   0.0069444
        k(   50) = (   0.0415184   0.0415184   0.0415184), wk =   0.0092593
        k(   51) = (   0.0415184   0.0415184   0.0622776), wk =   0.0277778
        k(   52) = (   0.0415184   0.0415184   0.0830368), wk =   0.0277778
        k(   53) = (   0.0415184   0.0415184   0.1037960), wk =   0.0277778
        k(   54) = (   0.0415184   0.0415184  -0.1245551), wk =   0.0138889
        k(   55) = (   0.0415184   0.0622776   0.0622776), wk =   0.0277778
        k(   56) = (   0.0415184   0.0622776   0.0830368), wk =   0.0555556
        k(   57) = (   0.0415184   0.0622776   0.1037960), wk =   0.0555556
        k(   58) = (   0.0415184   0.0622776  -0.1245551), wk =   0.0277778
        k(   59) = (   0.0415184   0.0830368   0.0830368), wk =   0.0277778
        k(   60) = (   0.0415184   0.0830368   0.1037960), wk =   0.0555556
[...]
        k(   70) = (   0.0622776   0.0830368   0.1037960), wk =   0.0555556
        k(   71) = (   0.0622776   0.0830368  -0.1245551), wk =   0.0277778
        k(   72) = (   0.0622776   0.1037960   0.1037960), wk =   0.0277778
        k(   73) = (   0.0622776   0.1037960  -0.1245551), wk =   0.0277778
        k(   74) = (   0.0622776  -0.1245551  -0.1245551), wk =   0.0069444
        k(   75) = (   0.0830368   0.0830368   0.0830368), wk =   0.0092593
        k(   76) = (   0.0830368   0.0830368   0.1037960), wk =   0.0277778
        k(   77) = (   0.0830368   0.0830368  -0.1245551), wk =   0.0138889
        k(   78) = (   0.0830368   0.1037960   0.1037960), wk =   0.0277778
        k(   79) = (   0.0830368   0.1037960  -0.1245551), wk =   0.0277778
        k(   80) = (   0.0830368  -0.1245551  -0.1245551), wk =   0.0069444
        k(   81) = (   0.1037960   0.1037960   0.1037960), wk =   0.0092593
        k(   82) = (   0.1037960   0.1037960  -0.1245551), wk =   0.0138889
        k(   83) = (   0.1037960  -0.1245551  -0.1245551), wk =   0.0069444
        k(   84) = (  -0.1245551  -0.1245551  -0.1245551), wk =   0.0011574

     Largest allocated arrays     est. size (Mb)     dimensions
     Largest temporary arrays     est. size (Mb)     dimensions

     Check: negative/imaginary core charge=   -0.000003    0.000000

     Initial potential from superposition of free atoms
     Check: negative starting charge=   -0.079270

     starting charge   47.99985, renormalised to   52.00000

     negative rho (up, down):  8.588E-02 0.000E+00

     *
     * You are using vdW-DF for exchange-correlation in this calculation.
     * Please cite the following three references that made this development
     * possible:
     *
     *   M. Dion, H. Rydberg, E. Schroder, D. C. Langreth, and
     *   B. I. Lundqvist, Phys. Rev. Lett. 92, 246401 (2004).
     *
     *   T. Thonhauser, V. R. Cooper, S. Li, A. Puzder, P. Hyldgaard, and
     *   D. C. Langreth, Phys. Rev. B 76, 125112 (2007).
     *
     *   G. Roman-Perez and J. M. Soler, Phys. Rev. Lett. 103, 096102 (2009).
     *
     *
     * If you are using vdW-DF2, please also cite:
     *
     *   K. Lee, E. D. Murray, L. Kong, B. I. Lundqvist, and
     *   D. C. Langreth, Phys. Rev. B 82, 081101(R) (2010).
     *
     *
     * If you are calculating the stress with vdW-DF, please also cite:
     *
     *   R. Sabatini, E. Kucukbenli, B. Kolb, T. Thonhauser, and
     *   S. de Gironcoli, J. Phys.: Condens. Matter 24, 424209 (2012).
     *

     Carrying out vdW-DF run using the following parameters:

     Nqs =      20    Nr_points =    1024   r_max =   100.000
     q_mesh =
               0.00001000     0.04494208     0.09755937     0.15916263
               0.23128650     0.31572767     0.41458969     0.53033537
               0.66584808     0.82450364     1.01025438     1.22772762
               1.48234092     1.78043706     2.12944203     2.53805004
               3.01644009     3.57652955     4.23227104     5.00000000

     Gradients computed in reciprocal space

     Starting wfc are   43 randomized atomic wfcs +    3 random wfc

     Self-consistent Calculation

     iteration #  1     ecut=    58.80 Ry     beta=0.10
     Davidson diagonalization with overlap
     ethr =  1.00E-02,  avg # of iterations =  3.9

[...]

     total energy              =    -556.36002730 Ry
     Harris-Foulkes estimate   =    -556.95426508 Ry
     estimated scf accuracy    <      11.23737103 Ry

[...]

     total energy              =    -554.95414776 Ry
     Harris-Foulkes estimate   =    -554.95414766 Ry
     estimated scf accuracy    <       0.00000001 Ry

     iteration # 20     ecut=    58.80 Ry     beta=0.10
     Davidson diagonalization with overlap
     ethr =  2.12E-11,  avg # of iterations =  1.1

     negative rho (up, down):  7.900E-02 0.000E+00

     End of self-consistent calculation

          k = 0.0000 0.0000 0.0000 (  3287 PWs)   bands (ev):

   -57.0823 -41.6511 -41.4945 -41.4945 -27.0438 -27.0438 -27.0438 -18.0517
   -18.0517 -18.0517 -17.7388 -17.7388 -17.7388 -17.5144 -17.5144 -17.5144
     9.0094  11.5461  11.5461  12.3681  12.4038  12.4038  12.4038  15.4555
    15.4555  15.4555  17.0438  17.0438  18.5337  18.5337  18.5337  18.5504
    18.5504  18.5677  18.5677  18.5677  18.9210  19.2211  19.2211  19.2211
    26.1621  26.8953  26.8953  27.8564  27.8568  27.8569

[...]

          k = 0.1038-0.1246-0.1246 (  3324 PWs)   bands (ev):

[...]

          k =-0.1246-0.1246-0.1246 (  3328 PWs)   bands (ev):

   -57.0817 -41.5456 -41.5456 -41.5456 -27.0506 -27.0506 -27.0506 -18.2210
   -18.0201 -18.0201 -18.0201 -17.5601 -17.5601 -17.5601 -17.5116 -17.5116
    11.7734  11.7734  11.7734  12.2485  14.1028  14.1028  15.2515  15.2515
    15.2515  15.9594  15.9594  15.9594  16.1660  16.2251  16.2251  16.2251
    18.3706  18.3706  18.3706  18.4257  18.4257  18.9276  18.9276  18.9276
    23.4401  24.2131  24.2131  24.2131  30.1507  30.1722

     the Fermi energy is    15.3421 ev

!    total energy              =    -554.95415612 Ry
     Harris-Foulkes estimate   =    -554.95414776 Ry
     estimated scf accuracy    <          5.6E-09 Ry

     The total energy is the sum of the following terms:

     one-electron contribution =    -165.85123884 Ry
     hartree contribution      =     106.28499035 Ry
     xc contribution           =     -83.23539664 Ry
     ewald contribution        =    -412.13612538 Ry
     smearing contrib. (-TS)   =      -0.01638561 Ry

     convergence has been achieved in  20 iterations

     Forces acting on atoms (Ry/au):

     negative rho (up, down):  7.900E-02 0.000E+00
     atom    1 type  1   force =     0.00000000    0.00000000    0.00000000
     atom    2 type  1   force =     0.00000000    0.00000000    0.00000000
     atom    3 type  1   force =     0.00000000    0.00000000    0.00000000
     atom    4 type  2   force =     0.00000000    0.00000000    0.00000000

     Total force =     0.000000     Total SCF correction =     0.000000
 !ASE

     General routines

     Parallel routines

   This run was terminated on:  23:44: 9  25Oct2017

   JOB DONE.