     Program PWSCF v.5.1rc2 (svn rev. ) starts on 31Oct2017 at 14: 7:29

     Current dimensions of program PWSCF are:
     Max number of different atomic species (ntypx) = 10
     Max number of k-points (npk) =  40000
     Max angular momentum in pseudopotentials (lmaxx) =  3

     IMPORTANT: XC functional enforced from input :
     Exchange-correlation      = BEEF-VDW ( 1  4 27 13 2)
     Any further DFT definition will be discarded
     Please, verify this is what you really want

     Subspace diagonalization in iterative solution of the eigenvalue problem:
     a serial algorithm will be used

     bravais-lattice index     =            0
     lattice parameter (alat)  =       1.8897  a.u.
     unit-cell volume          =     300.7282 (a.u.)^3
     number of atoms/cell      =            4
     number of atomic types    =            2
     number of electrons       =        54.00
     number of Kohn-Sham states=           47
     kinetic-energy cutoff     =      58.7989  Ry
     charge density cutoff     =     587.9892  Ry
     convergence threshold     =      7.3E-09
     mixing beta               =       0.1000
     number of iterations used =           10  local-TF  mixing
     Exchange-correlation      = BEEF-VDW ( 1  4 27 13 2)
     nstep                     =           50

     celldm(1)=   1.889726  celldm(2)=   0.000000  celldm(3)=   0.000000
     celldm(4)=   0.000000  celldm(5)=   0.000000  celldm(6)=   0.000000

     crystal axes: (cart. coord. in units of alat)
               a(1) = (   3.545350   0.000000   0.000000 )
               a(2) = (   0.000000   3.545350   0.000000 )
               a(3) = (   0.000000   0.000000   3.545350 )

     reciprocal axes: (cart. coord. in units 2 pi/alat)
               b(1) = (  0.282060  0.000000  0.000000 )
               b(2) = (  0.000000  0.282060  0.000000 )
               b(3) = (  0.000000  0.000000  0.282060 )

     PseudoPot. # 1 for Co read from file:
     /home/vossj/suncat/psp/gbrv1.5pbe/Co.UPF
     MD5 check sum: 5f91765df6ddd3222702df6e7b74a16d
     Pseudo is Ultrasoft + core correction, Zval = 17.0
     Generated by new atomic code, or converted to UPF format
     Using radial grid of  863 points,  6 beta functions with:
                l(1) =   0
                l(2) =   0
                l(3) =   1
                l(4) =   1
                l(5) =   2
                l(6) =   2
     Q(r) pseudized with  8 coefficients,  rinner =    1.200   1.200   1.200
                                                       1.200   1.200

     PseudoPot. # 2 for Al read from file:
     /home/vossj/suncat/psp/gbrv1.5pbe/Al.UPF
     MD5 check sum: 0a6289f5291fc8f409219462bc851e1f
     Pseudo is Ultrasoft + core correction, Zval =  3.0
     Generated by new atomic code, or converted to UPF format
     Using radial grid of  893 points,  3 beta functions with:
                l(1) =   0
                l(2) =   1
                l(3) =   2
     Q(r) pseudized with  8 coefficients,  rinner =    0.900   0.900   0.900
                                                       0.900   0.900

     vdW kernel table read from file vdW_kernel_table
     MD5 check sum: 095c7af220d748ca6e76c0b4c6cfb241

     atomic species   valence    mass     pseudopotential
        Co1           17.00    58.93319     Co( 1.00)
        Al1            3.00    26.98154     Al( 1.00)

     48 Sym. Ops., with inversion, found (32 have fractional translation)

   Cartesian axes

     site n.     atom                  positions (alat units)
         1           Co1 tau(   1) = (   0.0000000   0.0000000   0.0000000  )
         2           Co1 tau(   2) = (   0.0000000   1.7726752   1.7726752  )
         3           Co1 tau(   3) = (   1.7726752   0.0000000   1.7726752  )
         4           Al1 tau(   4) = (   1.7726752   1.7726752   0.0000000  )

     number of k points=    84  Fermi-Dirac smearing, width (Ry)=  0.0073
                       cart. coord. in units 2pi/alat
        k(    1) = (   0.0000000   0.0000000   0.0000000), wk =   0.0011574
        k(    2) = (   0.0000000   0.0000000   0.0235050), wk =   0.0069444
        k(    3) = (   0.0000000   0.0000000   0.0470099), wk =   0.0069444
        k(    4) = (   0.0000000   0.0000000   0.0705149), wk =   0.0069444
        k(    5) = (   0.0000000   0.0000000   0.0940199), wk =   0.0069444
        k(    6) = (   0.0000000   0.0000000   0.1175248), wk =   0.0069444
        k(    7) = (   0.0000000   0.0000000  -0.1410298), wk =   0.0034722
        k(    8) = (   0.0000000   0.0235050   0.0235050), wk =   0.0138889
        k(    9) = (   0.0000000   0.0235050   0.0470099), wk =   0.0277778
        k(   10) = (   0.0000000   0.0235050   0.0705149), wk =   0.0277778
        k(   11) = (   0.0000000   0.0235050   0.0940199), wk =   0.0277778
        k(   12) = (   0.0000000   0.0235050   0.1175248), wk =   0.0277778
        k(   13) = (   0.0000000   0.0235050  -0.1410298), wk =   0.0138889
        k(   14) = (   0.0000000   0.0470099   0.0470099), wk =   0.0138889
        k(   15) = (   0.0000000   0.0470099   0.0705149), wk =   0.0277778
        k(   16) = (   0.0000000   0.0470099   0.0940199), wk =   0.0277778
        k(   17) = (   0.0000000   0.0470099   0.1175248), wk =   0.0277778
        k(   18) = (   0.0000000   0.0470099  -0.1410298), wk =   0.0138889
        k(   19) = (   0.0000000   0.0705149   0.0705149), wk =   0.0138889
        k(   20) = (   0.0000000   0.0705149   0.0940199), wk =   0.0277778
        k(   21) = (   0.0000000   0.0705149   0.1175248), wk =   0.0277778
        k(   22) = (   0.0000000   0.0705149  -0.1410298), wk =   0.0138889
        k(   23) = (   0.0000000   0.0940199   0.0940199), wk =   0.0138889
        k(   24) = (   0.0000000   0.0940199   0.1175248), wk =   0.0277778
        k(   25) = (   0.0000000   0.0940199  -0.1410298), wk =   0.0138889
        k(   26) = (   0.0000000   0.1175248   0.1175248), wk =   0.0138889
        k(   27) = (   0.0000000   0.1175248  -0.1410298), wk =   0.0138889
        k(   28) = (   0.0000000  -0.1410298  -0.1410298), wk =   0.0034722
        k(   29) = (   0.0235050   0.0235050   0.0235050), wk =   0.0092593
        k(   30) = (   0.0235050   0.0235050   0.0470099), wk =   0.0277778
        k(   31) = (   0.0235050   0.0235050   0.0705149), wk =   0.0277778
        k(   32) = (   0.0235050   0.0235050   0.0940199), wk =   0.0277778
        k(   33) = (   0.0235050   0.0235050   0.1175248), wk =   0.0277778
        k(   34) = (   0.0235050   0.0235050  -0.1410298), wk =   0.0138889
        k(   35) = (   0.0235050   0.0470099   0.0470099), wk =   0.0277778
        k(   36) = (   0.0235050   0.0470099   0.0705149), wk =   0.0555556
        k(   37) = (   0.0235050   0.0470099   0.0940199), wk =   0.0555556
        k(   38) = (   0.0235050   0.0470099   0.1175248), wk =   0.0555556
        k(   39) = (   0.0235050   0.0470099  -0.1410298), wk =   0.0277778
        k(   40) = (   0.0235050   0.0705149   0.0705149), wk =   0.0277778
        k(   41) = (   0.0235050   0.0705149   0.0940199), wk =   0.0555556
        k(   42) = (   0.0235050   0.0705149   0.1175248), wk =   0.0555556
        k(   43) = (   0.0235050   0.0705149  -0.1410298), wk =   0.0277778
        k(   44) = (   0.0235050   0.0940199   0.0940199), wk =   0.0277778
        k(   45) = (   0.0235050   0.0940199   0.1175248), wk =   0.0555556
        k(   46) = (   0.0235050   0.0940199  -0.1410298), wk =   0.0277778
        k(   47) = (   0.0235050   0.1175248   0.1175248), wk =   0.0277778
        k(   48) = (   0.0235050   0.1175248  -0.1410298), wk =   0.0277778
        k(   49) = (   0.0235050  -0.1410298  -0.1410298), wk =   0.0069444
        k(   50) = (   0.0470099   0.0470099   0.0470099), wk =   0.0092593
        k(   51) = (   0.0470099   0.0470099   0.0705149), wk =   0.0277778
        k(   52) = (   0.0470099   0.0470099   0.0940199), wk =   0.0277778
        k(   53) = (   0.0470099   0.0470099   0.1175248), wk =   0.0277778
        k(   54) = (   0.0470099   0.0470099  -0.1410298), wk =   0.0138889
        k(   55) = (   0.0470099   0.0705149   0.0705149), wk =   0.0277778
        k(   56) = (   0.0470099   0.0705149   0.0940199), wk =   0.0555556
        k(   57) = (   0.0470099   0.0705149   0.1175248), wk =   0.0555556
        k(   58) = (   0.0470099   0.0705149  -0.1410298), wk =   0.0277778
        k(   59) = (   0.0470099   0.0940199   0.0940199), wk =   0.0277778
        k(   60) = (   0.0470099   0.0940199   0.1175248), wk =   0.0555556
[...]
        k(   70) = (   0.0705149   0.0940199   0.1175248), wk =   0.0555556
        k(   71) = (   0.0705149   0.0940199  -0.1410298), wk =   0.0277778
        k(   72) = (   0.0705149   0.1175248   0.1175248), wk =   0.0277778
        k(   73) = (   0.0705149   0.1175248  -0.1410298), wk =   0.0277778
        k(   74) = (   0.0705149  -0.1410298  -0.1410298), wk =   0.0069444
        k(   75) = (   0.0940199   0.0940199   0.0940199), wk =   0.0092593
        k(   76) = (   0.0940199   0.0940199   0.1175248), wk =   0.0277778
        k(   77) = (   0.0940199   0.0940199  -0.1410298), wk =   0.0138889
        k(   78) = (   0.0940199   0.1175248   0.1175248), wk =   0.0277778
        k(   79) = (   0.0940199   0.1175248  -0.1410298), wk =   0.0277778
        k(   80) = (   0.0940199  -0.1410298  -0.1410298), wk =   0.0069444
        k(   81) = (   0.1175248   0.1175248   0.1175248), wk =   0.0092593
        k(   82) = (   0.1175248   0.1175248  -0.1410298), wk =   0.0138889
        k(   83) = (   0.1175248  -0.1410298  -0.1410298), wk =   0.0069444
        k(   84) = (  -0.1410298  -0.1410298  -0.1410298), wk =   0.0011574

     Largest allocated arrays     est. size (Mb)     dimensions
     Largest temporary arrays     est. size (Mb)     dimensions

     Check: negative/imaginary core charge=   -0.000031    0.000000

     Initial potential from superposition of free atoms

     starting charge   50.99751, renormalised to   54.00000

     *
     * You are using vdW-DF for exchange-correlation in this calculation.
     * Please cite the following three references that made this development
     * possible:
     *
     *   M. Dion, H. Rydberg, E. Schroder, D. C. Langreth, and
     *   B. I. Lundqvist, Phys. Rev. Lett. 92, 246401 (2004).
     *
     *   T. Thonhauser, V. R. Cooper, S. Li, A. Puzder, P. Hyldgaard, and
     *   D. C. Langreth, Phys. Rev. B 76, 125112 (2007).
     *
     *   G. Roman-Perez and J. M. Soler, Phys. Rev. Lett. 103, 096102 (2009).
     *
     *
     * If you are using vdW-DF2, please also cite:
     *
     *   K. Lee, E. D. Murray, L. Kong, B. I. Lundqvist, and
     *   D. C. Langreth, Phys. Rev. B 82, 081101(R) (2010).
     *
     *
     * If you are calculating the stress with vdW-DF, please also cite:
     *
     *   R. Sabatini, E. Kucukbenli, B. Kolb, T. Thonhauser, and
     *   S. de Gironcoli, J. Phys.: Condens. Matter 24, 424209 (2012).
     *

     Carrying out vdW-DF run using the following parameters:

     Nqs =      20    Nr_points =    1024   r_max =   100.000
     q_mesh =
               0.00001000     0.04494208     0.09755937     0.15916263
               0.23128650     0.31572767     0.41458969     0.53033537
               0.66584808     0.82450364     1.01025438     1.22772762
               1.48234092     1.78043706     2.12944203     2.53805004
               3.01644009     3.57652955     4.23227104     5.00000000

     Gradients computed in reciprocal space

     Starting wfc are   43 randomized atomic wfcs +    4 random wfc

     Self-consistent Calculation

     iteration #  1     ecut=    58.80 Ry     beta=0.10
     Davidson diagonalization with overlap
     ethr =  1.00E-02,  avg # of iterations =  4.4

     total energy              =    -908.93301738 Ry
     Harris-Foulkes estimate   =    -911.29468218 Ry
     estimated scf accuracy    <      32.19531588 Ry

[...]

     negative rho (up, down):  1.646E-03 0.000E+00

[...]

     negative rho (up, down):  4.936E-04 0.000E+00

[...]

     total energy              =    -905.58826110 Ry
     Harris-Foulkes estimate   =    -905.58825938 Ry
     estimated scf accuracy    <       0.00000010 Ry

     iteration # 13     ecut=    58.80 Ry     beta=0.10
     Davidson diagonalization with overlap
     ethr =  1.77E-10,  avg # of iterations =  2.0

     End of self-consistent calculation

          k = 0.0000 0.0000 0.0000 (  2301 PWs)   bands (ev):

   -78.9477 -78.8978 -78.8978 -42.3317 -42.3317 -42.3317 -42.1956 -42.1956
   -42.1956 -42.1287 -42.1287 -42.1287   5.9664  11.4501  12.3768  12.3768
    12.7900  12.7900  12.7900  14.9851  14.9851  14.9851  15.8213  15.8213
    16.3384  16.5935  16.5935  16.5935  16.8884  16.8884  16.8884  23.2376
    23.2376  23.7219  28.2209  28.2209  28.2209  30.4070  30.4070  30.4070
    31.1881  31.1881  31.1881  35.9909  37.9691  37.9691  38.1058

[...]

          k = 0.1175-0.1410-0.1410 (  2296 PWs)   bands (ev):

[...]

          k =-0.1410-0.1410-0.1410 (  2320 PWs)   bands (ev):

   -78.9142 -78.9142 -78.9142 -42.4078 -42.3018 -42.3018 -42.3018 -42.1484
   -42.1484 -42.1256 -42.1256 -42.1256  10.0998  12.1167  12.1167  12.1167
    13.9250  13.9250  13.9250  14.2270  14.2270  14.2270  14.9473  14.9473
    14.9473  15.3375  15.3375  15.8869  16.3734  16.3734  16.3734  19.8535
    20.8507  20.8507  20.8507  34.1820  34.1820  35.5252  35.5252  35.5252
    36.9980  37.1031  37.1031  37.1031  38.6719  38.6719  38.6719

     the Fermi energy is    15.8076 ev

!    total energy              =    -905.58826871 Ry
     Harris-Foulkes estimate   =    -905.58826111 Ry
     estimated scf accuracy    <          4.0E-09 Ry

     The total energy is the sum of the following terms:

     one-electron contribution =    -568.06957140 Ry
     hartree contribution      =     316.84146567 Ry
     xc contribution           =    -105.99127090 Ry
     ewald contribution        =    -548.35198515 Ry
     smearing contrib. (-TS)   =      -0.01690694 Ry

     convergence has been achieved in  13 iterations

     Forces acting on atoms (Ry/au):

     atom    1 type  1   force =     0.00000000    0.00000000    0.00000000
     atom    2 type  1   force =     0.00000000    0.00000000    0.00000000
     atom    3 type  1   force =     0.00000000    0.00000000    0.00000000
     atom    4 type  2   force =     0.00000000    0.00000000    0.00000000

     Total force =     0.000000     Total SCF correction =     0.000000
 !ASE

     General routines

     Parallel routines

   This run was terminated on:  14: 8:14  31Oct2017

   JOB DONE.