     Program PWSCF v.5.1rc2 (svn rev. ) starts on 10Nov2017 at  7:18:44

     Current dimensions of program PWSCF are:
     Max number of different atomic species (ntypx) = 10
     Max number of k-points (npk) =  40000
     Max angular momentum in pseudopotentials (lmaxx) =  3

     IMPORTANT: XC functional enforced from input :
     Exchange-correlation      = BEEF-VDW ( 1  4 27 13 2)
     Any further DFT definition will be discarded
     Please, verify this is what you really want

     Subspace diagonalization in iterative solution of the eigenvalue problem:
     a serial algorithm will be used

     Generating pointlists ...
     new r_m :   0.4125 (alat units)  0.7795 (a.u.) for type    1
     new r_m :   0.4125 (alat units)  0.7795 (a.u.) for type    2

     bravais-lattice index     =            0
     lattice parameter (alat)  =       1.8897  a.u.
     unit-cell volume          =     367.8035 (a.u.)^3
     number of atoms/cell      =            4
     number of atomic types    =            2
     number of electrons       =        64.00
     number of Kohn-Sham states=           52
     kinetic-energy cutoff     =      58.7989  Ry
     charge density cutoff     =     587.9892  Ry
     convergence threshold     =      7.3E-07
     mixing beta               =       0.3000
     number of iterations used =           10  local-TF  mixing
     Exchange-correlation      = BEEF-VDW ( 1  4 27 13 2)
     nstep                     =           50

     celldm(1)=   1.889726  celldm(2)=   0.000000  celldm(3)=   0.000000
     celldm(4)=   0.000000  celldm(5)=   0.000000  celldm(6)=   0.000000

     crystal axes: (cart. coord. in units of alat)
               a(1) = (   3.791459   0.000000   0.000000 )
               a(2) = (   0.000000   3.791459   0.000000 )
               a(3) = (   0.000000   0.000000   3.791459 )

     reciprocal axes: (cart. coord. in units 2 pi/alat)
               b(1) = (  0.263751  0.000000  0.000000 )
               b(2) = (  0.000000  0.263751  0.000000 )
               b(3) = (  0.000000  0.000000  0.263751 )

     PseudoPot. # 1 for Os read from file:
     /home/vossj/suncat/psp/gbrv1.5pbe/Os.UPF
     MD5 check sum: a3fb40a04f0c37c25c34bbc47164c9a8
     Pseudo is Ultrasoft + core correction, Zval = 16.0
     Generated by new atomic code, or converted to UPF format
     Using radial grid of  983 points,  8 beta functions with:
                l(1) =   0
                l(2) =   0
                l(3) =   1
                l(4) =   1
                l(5) =   2
                l(6) =   2
                l(7) =   3
                l(8) =   3
     Q(r) pseudized with  8 coefficients,  rinner =    1.150   1.150   1.150
                                                       1.150   1.150   1.150
                                                       1.150

     PseudoPot. # 2 for Fe read from file:
     /home/vossj/suncat/psp/gbrv1.5pbe/Fe.UPF
     MD5 check sum: a130daea23fe5165f5d574ae7f82ed95
     Pseudo is Ultrasoft + core correction, Zval = 16.0
     Generated by new atomic code, or converted to UPF format
     Using radial grid of  861 points,  6 beta functions with:
                l(1) =   0
                l(2) =   0
                l(3) =   1
                l(4) =   1
                l(5) =   2
                l(6) =   2
     Q(r) pseudized with  8 coefficients,  rinner =    1.000   1.000   1.000
                                                       1.000   1.000

     vdW kernel table read from file vdW_kernel_table
     MD5 check sum: 095c7af220d748ca6e76c0b4c6cfb241

     atomic species   valence    mass     pseudopotential
        Os1           16.00   190.23000     Os( 1.00)
        Fe1           16.00    55.84500     Fe( 1.00)

     Starting magnetic structure
     atomic species   magnetization
        Os1          0.125
        Fe1          0.125

     48 Sym. Ops., with inversion, found (32 have fractional translation)

   Cartesian axes

     site n.     atom                  positions (alat units)
         1           Os1 tau(   1) = (   0.0000000   0.0000000   0.0000000  )
         2           Os1 tau(   2) = (   0.0000000   1.8957297   1.8957297  )
         3           Os1 tau(   3) = (   1.8957297   0.0000000   1.8957297  )
         4           Fe1 tau(   4) = (   1.8957297   1.8957297   0.0000000  )

     number of k points=    70  Fermi-Dirac smearing, width (Ry)=  0.0073
                       cart. coord. in units 2pi/alat
        k(    1) = (   0.0000000   0.0000000   0.0000000), wk =   0.0013717
        k(    2) = (   0.0000000   0.0000000   0.0293056), wk =   0.0082305
        k(    3) = (   0.0000000   0.0000000   0.0586113), wk =   0.0082305
        k(    4) = (   0.0000000   0.0000000   0.0879169), wk =   0.0082305
        k(    5) = (   0.0000000   0.0000000   0.1172225), wk =   0.0082305
        k(    6) = (   0.0000000   0.0293056   0.0293056), wk =   0.0164609
        k(    7) = (   0.0000000   0.0293056   0.0586113), wk =   0.0329218
        k(    8) = (   0.0000000   0.0293056   0.0879169), wk =   0.0329218
        k(    9) = (   0.0000000   0.0293056   0.1172225), wk =   0.0329218
        k(   10) = (   0.0000000   0.0586113   0.0586113), wk =   0.0164609
        k(   11) = (   0.0000000   0.0586113   0.0879169), wk =   0.0329218
        k(   12) = (   0.0000000   0.0586113   0.1172225), wk =   0.0329218
        k(   13) = (   0.0000000   0.0879169   0.0879169), wk =   0.0164609
        k(   14) = (   0.0000000   0.0879169   0.1172225), wk =   0.0329218
        k(   15) = (   0.0000000   0.1172225   0.1172225), wk =   0.0164609
        k(   16) = (   0.0293056   0.0293056   0.0293056), wk =   0.0109739
        k(   17) = (   0.0293056   0.0293056   0.0586113), wk =   0.0329218
        k(   18) = (   0.0293056   0.0293056   0.0879169), wk =   0.0329218
        k(   19) = (   0.0293056   0.0293056   0.1172225), wk =   0.0329218
        k(   20) = (   0.0293056   0.0586113   0.0586113), wk =   0.0329218
        k(   21) = (   0.0293056   0.0586113   0.0879169), wk =   0.0658436
        k(   22) = (   0.0293056   0.0586113   0.1172225), wk =   0.0658436
        k(   23) = (   0.0293056   0.0879169   0.0879169), wk =   0.0329218
        k(   24) = (   0.0293056   0.0879169   0.1172225), wk =   0.0658436
        k(   25) = (   0.0293056   0.1172225   0.1172225), wk =   0.0329218
        k(   26) = (   0.0586113   0.0586113   0.0586113), wk =   0.0109739
        k(   27) = (   0.0586113   0.0586113   0.0879169), wk =   0.0329218
        k(   28) = (   0.0586113   0.0586113   0.1172225), wk =   0.0329218
        k(   29) = (   0.0586113   0.0879169   0.0879169), wk =   0.0329218
        k(   30) = (   0.0586113   0.0879169   0.1172225), wk =   0.0658436
        k(   31) = (   0.0586113   0.1172225   0.1172225), wk =   0.0329218
        k(   32) = (   0.0879169   0.0879169   0.0879169), wk =   0.0109739
        k(   33) = (   0.0879169   0.0879169   0.1172225), wk =   0.0329218
        k(   34) = (   0.0879169   0.1172225   0.1172225), wk =   0.0329218
        k(   35) = (   0.1172225   0.1172225   0.1172225), wk =   0.0109739
        k(   36) = (   0.0000000   0.0000000   0.0000000), wk =   0.0013717
        k(   37) = (   0.0000000   0.0000000   0.0293056), wk =   0.0082305
        k(   38) = (   0.0000000   0.0000000   0.0586113), wk =   0.0082305
        k(   39) = (   0.0000000   0.0000000   0.0879169), wk =   0.0082305
        k(   40) = (   0.0000000   0.0000000   0.1172225), wk =   0.0082305
        k(   41) = (   0.0000000   0.0293056   0.0293056), wk =   0.0164609
        k(   42) = (   0.0000000   0.0293056   0.0586113), wk =   0.0329218
        k(   43) = (   0.0000000   0.0293056   0.0879169), wk =   0.0329218
        k(   44) = (   0.0000000   0.0293056   0.1172225), wk =   0.0329218
        k(   45) = (   0.0000000   0.0586113   0.0586113), wk =   0.0164609
        k(   46) = (   0.0000000   0.0586113   0.0879169), wk =   0.0329218
        k(   47) = (   0.0000000   0.0586113   0.1172225), wk =   0.0329218
        k(   48) = (   0.0000000   0.0879169   0.0879169), wk =   0.0164609
        k(   49) = (   0.0000000   0.0879169   0.1172225), wk =   0.0329218
        k(   50) = (   0.0000000   0.1172225   0.1172225), wk =   0.0164609
        k(   51) = (   0.0293056   0.0293056   0.0293056), wk =   0.0109739
        k(   52) = (   0.0293056   0.0293056   0.0586113), wk =   0.0329218
        k(   53) = (   0.0293056   0.0293056   0.0879169), wk =   0.0329218
        k(   54) = (   0.0293056   0.0293056   0.1172225), wk =   0.0329218
        k(   55) = (   0.0293056   0.0586113   0.0586113), wk =   0.0329218
        k(   56) = (   0.0293056   0.0586113   0.0879169), wk =   0.0658436
        k(   57) = (   0.0293056   0.0586113   0.1172225), wk =   0.0658436
        k(   58) = (   0.0293056   0.0879169   0.0879169), wk =   0.0329218
        k(   59) = (   0.0293056   0.0879169   0.1172225), wk =   0.0658436
        k(   60) = (   0.0293056   0.1172225   0.1172225), wk =   0.0329218
        k(   61) = (   0.0586113   0.0586113   0.0586113), wk =   0.0109739
        k(   62) = (   0.0586113   0.0586113   0.0879169), wk =   0.0329218
        k(   63) = (   0.0586113   0.0586113   0.1172225), wk =   0.0329218
        k(   64) = (   0.0586113   0.0879169   0.0879169), wk =   0.0329218
        k(   65) = (   0.0586113   0.0879169   0.1172225), wk =   0.0658436
        k(   66) = (   0.0586113   0.1172225   0.1172225), wk =   0.0329218
        k(   67) = (   0.0879169   0.0879169   0.0879169), wk =   0.0109739
        k(   68) = (   0.0879169   0.0879169   0.1172225), wk =   0.0329218
        k(   69) = (   0.0879169   0.1172225   0.1172225), wk =   0.0329218
        k(   70) = (   0.1172225   0.1172225   0.1172225), wk =   0.0109739

     Largest allocated arrays     est. size (Mb)     dimensions
     Largest temporary arrays     est. size (Mb)     dimensions

     Check: negative/imaginary core charge=   -0.000011    0.000000

     Initial potential from superposition of free atoms
     Check: negative starting charge=(component1):   -0.209830
     Check: negative starting charge=(component2):   -0.163201

     starting charge   61.49988, renormalised to   64.00000

     negative rho (up, down):  2.184E-01 1.698E-01

     *
     * You are using vdW-DF for exchange-correlation in this calculation.
     * Please cite the following three references that made this development
     * possible:
     *
     *   M. Dion, H. Rydberg, E. Schroder, D. C. Langreth, and
     *   B. I. Lundqvist, Phys. Rev. Lett. 92, 246401 (2004).
     *
     *   T. Thonhauser, V. R. Cooper, S. Li, A. Puzder, P. Hyldgaard, and
     *   D. C. Langreth, Phys. Rev. B 76, 125112 (2007).
     *
     *   G. Roman-Perez and J. M. Soler, Phys. Rev. Lett. 103, 096102 (2009).
     *
     *
     * If you are using vdW-DF2, please also cite:
     *
     *   K. Lee, E. D. Murray, L. Kong, B. I. Lundqvist, and
     *   D. C. Langreth, Phys. Rev. B 82, 081101(R) (2010).
     *
     *
     * If you are calculating the stress with vdW-DF, please also cite:
     *
     *   R. Sabatini, E. Kucukbenli, B. Kolb, T. Thonhauser, and
     *   S. de Gironcoli, J. Phys.: Condens. Matter 24, 424209 (2012).
     *

     Carrying out vdW-DF run using the following parameters:

     Nqs =      20    Nr_points =    1024   r_max =   100.000
     q_mesh =
               0.00001000     0.04494208     0.09755937     0.15916263
               0.23128650     0.31572767     0.41458969     0.53033537
               0.66584808     0.82450364     1.01025438     1.22772762
               1.48234092     1.78043706     2.12944203     2.53805004
               3.01644009     3.57652955     4.23227104     5.00000000

     Gradients computed in reciprocal space

     Starting wfc are   52 randomized atomic wfcs

     Self-consistent Calculation

     iteration #  1     ecut=    58.80 Ry     beta=0.30
     Davidson diagonalization with overlap
     ethr =  1.00E-02,  avg # of iterations =  4.3

[...]

     Magnetic moment per site:
     atom:    1    charge:    2.2557    magn:    0.2082    constr:    0.0000
     atom:    2    charge:    2.2557    magn:    0.2082    constr:    0.0000
     atom:    3    charge:    2.2557    magn:    0.2082    constr:    0.0000
     atom:    4    charge:    7.2565    magn:    0.7313    constr:    0.0000

     total energy              =    -850.86636157 Ry
     Harris-Foulkes estimate   =    -851.24668719 Ry
     estimated scf accuracy    <       3.06974000 Ry

     total magnetization       =     1.81 Bohr mag/cell
     absolute magnetization    =     1.88 Bohr mag/cell

[...]

     total energy              =    -850.82938410 Ry
     Harris-Foulkes estimate   =    -850.82938471 Ry
     estimated scf accuracy    <       0.00000176 Ry

[...]

     iteration # 15     ecut=    58.80 Ry     beta=0.30
     Davidson diagonalization with overlap
     ethr =  2.75E-09,  avg # of iterations =  1.9

     negative rho (up, down):  1.929E-01 1.853E-01

     Magnetic moment per site:
     atom:    1    charge:    2.1860    magn:   -0.0106    constr:    0.0000
     atom:    2    charge:    2.1860    magn:   -0.0106    constr:    0.0000
     atom:    3    charge:    2.1860    magn:   -0.0106    constr:    0.0000
     atom:    4    charge:    7.0711    magn:    0.6405    constr:    0.0000

     End of self-consistent calculation

 ------ SPIN UP ------------

          k = 0.0000 0.0000 0.0000 (  2801 PWs)   bands (ev):

   -64.4443 -63.2040 -63.0958 -63.0958 -30.4641 -30.4641 -30.4641 -22.8066
   -22.8066 -22.8066 -22.3065 -22.3065 -22.3065 -22.0493 -22.0493 -22.0493
    13.5143  16.2206  17.2591  17.2591  17.5606  17.5606  17.5606  21.1250
    21.1250  21.1250  22.9103  22.9103  24.8103  24.8103  24.8103  25.1717
    25.1717  26.0192  26.0192  26.0192  26.3307  27.0648  27.0648  27.0648
    35.1335  35.1335  35.1335  35.3573  35.3573  36.1077  37.2339  37.2339
    37.2339  38.5896  44.1700  44.1700

[...]

 ------ SPIN DOWN ----------

[...]

          k = 0.1172 0.1172 0.1172 (  2830 PWs)   bands (ev):

   -63.2061 -63.2029 -63.2029 -62.8057 -28.8757 -28.8757 -28.8753 -23.1690
   -22.7920 -22.7889 -22.7889 -22.2134 -22.2134 -22.1594 -22.1594 -22.1585
    16.7289  16.7701  16.9085  16.9085  20.5656  20.5656  20.7388  21.0557
    21.3252  21.3252  21.9981  21.9981  23.0251  23.0251  23.0590  23.2024
    25.1258  25.1258  25.4529  25.4529  25.5943  26.3151  26.5152  26.5152
    32.0615  32.0615  32.3868  33.4049  38.0573  38.2707  38.3618  38.3618
    42.5473  42.5473  42.5635  43.9165

     the Fermi energy is    23.6487 ev

!    total energy              =    -850.82938507 Ry
     Harris-Foulkes estimate   =    -850.82938529 Ry
     estimated scf accuracy    <       0.00000027 Ry

     The total energy is the sum of the following terms:

     one-electron contribution =    -187.42551994 Ry
     hartree contribution      =     138.47397019 Ry
     xc contribution           =    -146.59759001 Ry
     ewald contribution        =    -655.27101006 Ry
     smearing contrib. (-TS)   =      -0.00923525 Ry

     total magnetization       =     0.82 Bohr mag/cell
     absolute magnetization    =     1.91 Bohr mag/cell

     convergence has been achieved in  15 iterations

     Forces acting on atoms (Ry/au):

     negative rho (up, down):  1.929E-01 1.853E-01
     atom    1 type  1   force =     0.00000000    0.00000000   -0.00000000
     atom    2 type  1   force =     0.00000000   -0.00000000    0.00000000
     atom    3 type  1   force =     0.00000000    0.00000000    0.00000000
     atom    4 type  2   force =     0.00000000    0.00000000    0.00000000

     Total force =     0.000000     Total SCF correction =     0.000000
 !ASE

     General routines

     Parallel routines

   This run was terminated on:   7:19:39  10Nov2017

   JOB DONE.