     Program PWSCF v.5.1rc2 (svn rev. ) starts on 17Feb2018 at 12:37:36

     Current dimensions of program PWSCF are:
     Max number of different atomic species (ntypx) = 10
     Max number of k-points (npk) =  40000
     Max angular momentum in pseudopotentials (lmaxx) =  3

     IMPORTANT: XC functional enforced from input :
     Exchange-correlation      = BEEF-VDW ( 1  4 27 13 2)
     Any further DFT definition will be discarded
     Please, verify this is what you really want

     Subspace diagonalization in iterative solution of the eigenvalue problem:
     a serial algorithm will be used

     bravais-lattice index     =            0
     lattice parameter (alat)  =       1.8897  a.u.
     unit-cell volume          =     718.7359 (a.u.)^3
     number of atoms/cell      =            4
     number of atomic types    =            2
     number of electrons       =        60.00
     number of Kohn-Sham states=           50
     kinetic-energy cutoff     =      58.7989  Ry
     charge density cutoff     =     587.9892  Ry
     convergence threshold     =      7.3E-09
     mixing beta               =       0.1000
     number of iterations used =           10  local-TF  mixing
     Exchange-correlation      = BEEF-VDW ( 1  4 27 13 2)
     nstep                     =           50

     celldm(1)=   1.889726  celldm(2)=   0.000000  celldm(3)=   0.000000
     celldm(4)=   0.000000  celldm(5)=   0.000000  celldm(6)=   0.000000

     crystal axes: (cart. coord. in units of alat)
               a(1) = (   4.740137   0.000000   0.000000 )
               a(2) = (   0.000000   4.740137   0.000000 )
               a(3) = (   0.000000   0.000000   4.740137 )

     reciprocal axes: (cart. coord. in units 2 pi/alat)
               b(1) = (  0.210964  0.000000  0.000000 )
               b(2) = (  0.000000  0.210964  0.000000 )
               b(3) = (  0.000000  0.000000  0.210964 )

     PseudoPot. # 1 for Bi read from file:
     /home/mamunm/src/pseudo/gbrv1.5pbe/Bi.UPF
     MD5 check sum: 81103212dc04adf40945787f699eab19
     Pseudo is Ultrasoft + core correction, Zval = 15.0
     Generated by new atomic code, or converted to UPF format
     Using radial grid of  899 points,  6 beta functions with:
                l(1) =   0
                l(2) =   0
                l(3) =   1
                l(4) =   1
                l(5) =   2
                l(6) =   2
     Q(r) pseudized with  6 coefficients,  rinner =    1.000   1.000   1.000
                                                       1.000   1.000

     PseudoPot. # 2 for Ir read from file:
     /home/mamunm/src/pseudo/gbrv1.5pbe/Ir.UPF
     MD5 check sum: 8836f839c3459d2b385c504ce6d91f2c
     Pseudo is Ultrasoft + core correction, Zval = 15.0
     Generated by new atomic code, or converted to UPF format
     Using radial grid of  983 points,  7 beta functions with:
                l(1) =   0
                l(2) =   0
                l(3) =   1
                l(4) =   1
                l(5) =   1
                l(6) =   2
                l(7) =   2
     Q(r) pseudized with  8 coefficients,  rinner =    1.400   1.400   1.400
                                                       1.400   1.400

     vdW kernel table read from file vdW_kernel_table
     MD5 check sum: 095c7af220d748ca6e76c0b4c6cfb241

     atomic species   valence    mass     pseudopotential
        Bi1           15.00   208.98040     Bi( 1.00)
        Ir1           15.00   192.21700     Ir( 1.00)

     48 Sym. Ops., with inversion, found (32 have fractional translation)

   Cartesian axes

     site n.     atom                  positions (alat units)
         1           Bi1 tau(   1) = (   0.0000000   0.0000000   0.0000000  )
         2           Bi1 tau(   2) = (   0.0000000   2.3700686   2.3700686  )
         3           Bi1 tau(   3) = (   2.3700686   0.0000000   2.3700686  )
         4           Ir1 tau(   4) = (   2.3700686   2.3700686   0.0000000  )

     number of k points=    84  Fermi-Dirac smearing, width (Ry)=  0.0073
                       cart. coord. in units 2pi/alat
        k(    1) = (   0.0000000   0.0000000   0.0000000), wk =   0.0011574
        k(    2) = (   0.0000000   0.0000000   0.0175804), wk =   0.0069444
        k(    3) = (   0.0000000   0.0000000   0.0351607), wk =   0.0069444
        k(    4) = (   0.0000000   0.0000000   0.0527411), wk =   0.0069444
        k(    5) = (   0.0000000   0.0000000   0.0703215), wk =   0.0069444
        k(    6) = (   0.0000000   0.0000000   0.0879018), wk =   0.0069444
        k(    7) = (   0.0000000   0.0000000  -0.1054822), wk =   0.0034722
        k(    8) = (   0.0000000   0.0175804   0.0175804), wk =   0.0138889
        k(    9) = (   0.0000000   0.0175804   0.0351607), wk =   0.0277778
        k(   10) = (   0.0000000   0.0175804   0.0527411), wk =   0.0277778
        k(   11) = (   0.0000000   0.0175804   0.0703215), wk =   0.0277778
        k(   12) = (   0.0000000   0.0175804   0.0879018), wk =   0.0277778
        k(   13) = (   0.0000000   0.0175804  -0.1054822), wk =   0.0138889
        k(   14) = (   0.0000000   0.0351607   0.0351607), wk =   0.0138889
        k(   15) = (   0.0000000   0.0351607   0.0527411), wk =   0.0277778
        k(   16) = (   0.0000000   0.0351607   0.0703215), wk =   0.0277778
        k(   17) = (   0.0000000   0.0351607   0.0879018), wk =   0.0277778
        k(   18) = (   0.0000000   0.0351607  -0.1054822), wk =   0.0138889
        k(   19) = (   0.0000000   0.0527411   0.0527411), wk =   0.0138889
        k(   20) = (   0.0000000   0.0527411   0.0703215), wk =   0.0277778
        k(   21) = (   0.0000000   0.0527411   0.0879018), wk =   0.0277778
        k(   22) = (   0.0000000   0.0527411  -0.1054822), wk =   0.0138889
        k(   23) = (   0.0000000   0.0703215   0.0703215), wk =   0.0138889
        k(   24) = (   0.0000000   0.0703215   0.0879018), wk =   0.0277778
        k(   25) = (   0.0000000   0.0703215  -0.1054822), wk =   0.0138889
        k(   26) = (   0.0000000   0.0879018   0.0879018), wk =   0.0138889
        k(   27) = (   0.0000000   0.0879018  -0.1054822), wk =   0.0138889
        k(   28) = (   0.0000000  -0.1054822  -0.1054822), wk =   0.0034722
        k(   29) = (   0.0175804   0.0175804   0.0175804), wk =   0.0092593
        k(   30) = (   0.0175804   0.0175804   0.0351607), wk =   0.0277778
        k(   31) = (   0.0175804   0.0175804   0.0527411), wk =   0.0277778
        k(   32) = (   0.0175804   0.0175804   0.0703215), wk =   0.0277778
        k(   33) = (   0.0175804   0.0175804   0.0879018), wk =   0.0277778
        k(   34) = (   0.0175804   0.0175804  -0.1054822), wk =   0.0138889
        k(   35) = (   0.0175804   0.0351607   0.0351607), wk =   0.0277778
        k(   36) = (   0.0175804   0.0351607   0.0527411), wk =   0.0555556
        k(   37) = (   0.0175804   0.0351607   0.0703215), wk =   0.0555556
        k(   38) = (   0.0175804   0.0351607   0.0879018), wk =   0.0555556
        k(   39) = (   0.0175804   0.0351607  -0.1054822), wk =   0.0277778
        k(   40) = (   0.0175804   0.0527411   0.0527411), wk =   0.0277778
        k(   41) = (   0.0175804   0.0527411   0.0703215), wk =   0.0555556
        k(   42) = (   0.0175804   0.0527411   0.0879018), wk =   0.0555556
        k(   43) = (   0.0175804   0.0527411  -0.1054822), wk =   0.0277778
        k(   44) = (   0.0175804   0.0703215   0.0703215), wk =   0.0277778
        k(   45) = (   0.0175804   0.0703215   0.0879018), wk =   0.0555556
        k(   46) = (   0.0175804   0.0703215  -0.1054822), wk =   0.0277778
        k(   47) = (   0.0175804   0.0879018   0.0879018), wk =   0.0277778
        k(   48) = (   0.0175804   0.0879018  -0.1054822), wk =   0.0277778
        k(   49) = (   0.0175804  -0.1054822  -0.1054822), wk =   0.0069444
        k(   50) = (   0.0351607   0.0351607   0.0351607), wk =   0.0092593
        k(   51) = (   0.0351607   0.0351607   0.0527411), wk =   0.0277778
        k(   52) = (   0.0351607   0.0351607   0.0703215), wk =   0.0277778
        k(   53) = (   0.0351607   0.0351607   0.0879018), wk =   0.0277778
        k(   54) = (   0.0351607   0.0351607  -0.1054822), wk =   0.0138889
        k(   55) = (   0.0351607   0.0527411   0.0527411), wk =   0.0277778
        k(   56) = (   0.0351607   0.0527411   0.0703215), wk =   0.0555556
        k(   57) = (   0.0351607   0.0527411   0.0879018), wk =   0.0555556
        k(   58) = (   0.0351607   0.0527411  -0.1054822), wk =   0.0277778
        k(   59) = (   0.0351607   0.0703215   0.0703215), wk =   0.0277778
        k(   60) = (   0.0351607   0.0703215   0.0879018), wk =   0.0555556
[...]
        k(   70) = (   0.0527411   0.0703215   0.0879018), wk =   0.0555556
        k(   71) = (   0.0527411   0.0703215  -0.1054822), wk =   0.0277778
        k(   72) = (   0.0527411   0.0879018   0.0879018), wk =   0.0277778
        k(   73) = (   0.0527411   0.0879018  -0.1054822), wk =   0.0277778
        k(   74) = (   0.0527411  -0.1054822  -0.1054822), wk =   0.0069444
        k(   75) = (   0.0703215   0.0703215   0.0703215), wk =   0.0092593
        k(   76) = (   0.0703215   0.0703215   0.0879018), wk =   0.0277778
        k(   77) = (   0.0703215   0.0703215  -0.1054822), wk =   0.0138889
        k(   78) = (   0.0703215   0.0879018   0.0879018), wk =   0.0277778
        k(   79) = (   0.0703215   0.0879018  -0.1054822), wk =   0.0277778
        k(   80) = (   0.0703215  -0.1054822  -0.1054822), wk =   0.0069444
        k(   81) = (   0.0879018   0.0879018   0.0879018), wk =   0.0092593
        k(   82) = (   0.0879018   0.0879018  -0.1054822), wk =   0.0138889
        k(   83) = (   0.0879018  -0.1054822  -0.1054822), wk =   0.0069444
        k(   84) = (  -0.1054822  -0.1054822  -0.1054822), wk =   0.0011574

     Largest allocated arrays     est. size (Mb)     dimensions
     Largest temporary arrays     est. size (Mb)     dimensions

     Initial potential from superposition of free atoms
     Check: negative starting charge=   -0.494266

     starting charge   56.49984, renormalised to   60.00000

     negative rho (up, down):  5.249E-01 0.000E+00

     *
     * You are using vdW-DF for exchange-correlation in this calculation.
     * Please cite the following three references that made this development
     * possible:
     *
     *   M. Dion, H. Rydberg, E. Schroder, D. C. Langreth, and
     *   B. I. Lundqvist, Phys. Rev. Lett. 92, 246401 (2004).
     *
     *   T. Thonhauser, V. R. Cooper, S. Li, A. Puzder, P. Hyldgaard, and
     *   D. C. Langreth, Phys. Rev. B 76, 125112 (2007).
     *
     *   G. Roman-Perez and J. M. Soler, Phys. Rev. Lett. 103, 096102 (2009).
     *
     *
     * If you are using vdW-DF2, please also cite:
     *
     *   K. Lee, E. D. Murray, L. Kong, B. I. Lundqvist, and
     *   D. C. Langreth, Phys. Rev. B 82, 081101(R) (2010).
     *
     *
     * If you are calculating the stress with vdW-DF, please also cite:
     *
     *   R. Sabatini, E. Kucukbenli, B. Kolb, T. Thonhauser, and
     *   S. de Gironcoli, J. Phys.: Condens. Matter 24, 424209 (2012).
     *

     Carrying out vdW-DF run using the following parameters:

     Nqs =      20    Nr_points =    1024   r_max =   100.000
     q_mesh =
               0.00001000     0.04494208     0.09755937     0.15916263
               0.23128650     0.31572767     0.41458969     0.53033537
               0.66584808     0.82450364     1.01025438     1.22772762
               1.48234092     1.78043706     2.12944203     2.53805004
               3.01644009     3.57652955     4.23227104     5.00000000

     Gradients computed in reciprocal space

     Starting wfc are   39 randomized atomic wfcs +   11 random wfc

     Self-consistent Calculation

     iteration #  1     ecut=    58.80 Ry     beta=0.10
     Davidson diagonalization with overlap
     ethr =  1.00E-02,  avg # of iterations =  5.8

[...]

     total energy              =    -745.76212960 Ry
     Harris-Foulkes estimate   =    -746.22233881 Ry
     estimated scf accuracy    <       8.37461815 Ry

[...]

     total energy              =    -744.74117623 Ry
     Harris-Foulkes estimate   =    -744.74115970 Ry
     estimated scf accuracy    <       0.00000015 Ry

     iteration # 16     ecut=    58.80 Ry     beta=0.10
     Davidson diagonalization with overlap
     ethr =  2.48E-10,  avg # of iterations =  1.4

     negative rho (up, down):  4.715E-01 0.000E+00

     End of self-consistent calculation

          k = 0.0000 0.0000 0.0000 (  5449 PWs)   bands (ev):

   -34.5931 -34.5931 -34.5931 -10.3071 -10.3071 -10.3071 -10.2738 -10.1745
   -10.1744 -10.0798 -10.0798 -10.0797 -10.0722 -10.0721  -9.9954  -9.9831
    -9.9831  -9.9831  -0.2995   4.0396   4.0397   9.3408   9.3408   9.3408
    12.0934  12.0934  12.0934  12.1894  12.1894  12.5092  14.4431  14.4431
    14.4431  16.3932  16.3932  16.3932  19.3999  20.7540  20.7540  21.0367
    21.0368  21.0368  23.3178  23.3178  23.3178  23.6514  25.5611  28.0524
    28.0524  28.0524

[...]

          k = 0.0879-0.1055-0.1055 (  5496 PWs)   bands (ev):

[...]

          k =-0.1055-0.1055-0.1055 (  5520 PWs)   bands (ev):

   -34.5934 -34.5934 -34.5934 -10.2332 -10.2332 -10.2332 -10.2103 -10.2103
   -10.2103 -10.1666 -10.0898 -10.0898 -10.0897 -10.0527 -10.0526  -9.9994
    -9.9994  -9.9993   2.5534   2.5534   2.5534   7.3505   8.9467   8.9468
     8.9468  11.7204  12.4053  12.4053  12.5632  12.5632  12.5632  17.6721
    17.6721  18.1377  18.1378  18.1378  22.6689  22.6815  22.6815  22.6815
    22.9528  22.9528  22.9528  23.9926  23.9926  23.9926  24.5696  24.5696
    24.5697  25.5591

     the Fermi energy is    13.3289 ev

!    total energy              =    -744.74124680 Ry
     Harris-Foulkes estimate   =    -744.74117628 Ry
     estimated scf accuracy    <          2.2E-09 Ry

     The total energy is the sum of the following terms:

     one-electron contribution =    -149.87439025 Ry
     hartree contribution      =     117.60177363 Ry
     xc contribution           =    -251.80492958 Ry
     ewald contribution        =    -460.65840669 Ry
     smearing contrib. (-TS)   =      -0.00529391 Ry

     convergence has been achieved in  16 iterations

     Forces acting on atoms (Ry/au):

     negative rho (up, down):  4.715E-01 0.000E+00
     atom    1 type  1   force =     0.00000000    0.00000000    0.00000000
     atom    2 type  1   force =     0.00000000    0.00000000    0.00000000
     atom    3 type  1   force =     0.00000000    0.00000000   -0.00000000
     atom    4 type  2   force =     0.00000000    0.00000000    0.00000000

     Total force =     0.000000     Total SCF correction =     0.000000
 !ASE

     General routines

     Parallel routines

   This run was terminated on:  12:39:21  17Feb2018

   JOB DONE.