     Program PWSCF v.5.1rc2 (svn rev. ) starts on  8Nov2017 at 14: 9:32

     Current dimensions of program PWSCF are:
     Max number of different atomic species (ntypx) = 10
     Max number of k-points (npk) =  40000
     Max angular momentum in pseudopotentials (lmaxx) =  3

     IMPORTANT: XC functional enforced from input :
     Exchange-correlation      = BEEF-VDW ( 1  4 27 13 2)
     Any further DFT definition will be discarded
     Please, verify this is what you really want

     Subspace diagonalization in iterative solution of the eigenvalue problem:
     a serial algorithm will be used

     bravais-lattice index     =            0
     lattice parameter (alat)  =       1.8897  a.u.
     unit-cell volume          =     988.4426 (a.u.)^3
     number of atoms/cell      =            4
     number of atomic types    =            2
     number of electrons       =        48.00
     number of Kohn-Sham states=           44
     kinetic-energy cutoff     =      58.7989  Ry
     charge density cutoff     =     587.9892  Ry
     convergence threshold     =      7.3E-07
     mixing beta               =       0.3000
     number of iterations used =           10  local-TF  mixing
     Exchange-correlation      = BEEF-VDW ( 1  4 27 13 2)
     nstep                     =           50

     celldm(1)=   1.889726  celldm(2)=   0.000000  celldm(3)=   0.000000
     celldm(4)=   0.000000  celldm(5)=   0.000000  celldm(6)=   0.000000

     crystal axes: (cart. coord. in units of alat)
               a(1) = (   5.271307   0.000000   0.000000 )
               a(2) = (   0.000000   5.271307   0.000000 )
               a(3) = (   0.000000   0.000000   5.271307 )

     reciprocal axes: (cart. coord. in units 2 pi/alat)
               b(1) = (  0.189706  0.000000  0.000000 )
               b(2) = (  0.000000  0.189706  0.000000 )
               b(3) = (  0.000000  0.000000  0.189706 )

     PseudoPot. # 1 for Hg read from file:
     /home/vossj/suncat/psp/gbrv1.5pbe/Hg.UPF
     MD5 check sum: 8f42caffe07f7fd9c0a564347f8c5498
     Pseudo is Ultrasoft + core correction, Zval = 12.0
     Generated by new atomic code, or converted to UPF format
     Using radial grid of  985 points,  6 beta functions with:
                l(1) =   0
                l(2) =   0
                l(3) =   1
                l(4) =   1
                l(5) =   2
                l(6) =   2
     Q(r) pseudized with  8 coefficients,  rinner =    2.000   2.000   2.000
                                                       2.000   2.000

     PseudoPot. # 2 for Cd read from file:
     /home/vossj/suncat/psp/gbrv1.5pbe/Cd.UPF
     MD5 check sum: 17164a7926edb8e0dc231208abae86a6
     Pseudo is Ultrasoft + core correction, Zval = 12.0
     Generated by new atomic code, or converted to UPF format
     Using radial grid of  889 points,  6 beta functions with:
                l(1) =   0
                l(2) =   0
                l(3) =   1
                l(4) =   1
                l(5) =   2
                l(6) =   2
     Q(r) pseudized with  6 coefficients,  rinner =    1.000   1.000   1.000
                                                       1.000   1.000

     vdW kernel table read from file vdW_kernel_table
     MD5 check sum: 095c7af220d748ca6e76c0b4c6cfb241

     atomic species   valence    mass     pseudopotential
        Hg1           12.00   200.59200     Hg( 1.00)
        Cd1           12.00   112.41400     Cd( 1.00)

     48 Sym. Ops., with inversion, found (32 have fractional translation)

   Cartesian axes

     site n.     atom                  positions (alat units)
         1           Hg1 tau(   1) = (   0.0000000   0.0000000   0.0000000  )
         2           Hg1 tau(   2) = (   0.0000000   2.6356533   2.6356533  )
         3           Hg1 tau(   3) = (   2.6356533   0.0000000   2.6356533  )
         4           Cd1 tau(   4) = (   2.6356533   2.6356533   0.0000000  )

     number of k points=    56  Fermi-Dirac smearing, width (Ry)=  0.0073
                       cart. coord. in units 2pi/alat
        k(    1) = (   0.0000000   0.0000000   0.0000000), wk =   0.0015026
        k(    2) = (   0.0000000   0.0000000   0.0172460), wk =   0.0090158
        k(    3) = (   0.0000000   0.0000000   0.0344921), wk =   0.0090158
        k(    4) = (   0.0000000   0.0000000   0.0517381), wk =   0.0090158
        k(    5) = (   0.0000000   0.0000000   0.0689841), wk =   0.0090158
        k(    6) = (   0.0000000   0.0000000   0.0862301), wk =   0.0090158
        k(    7) = (   0.0000000   0.0172460   0.0172460), wk =   0.0180316
        k(    8) = (   0.0000000   0.0172460   0.0344921), wk =   0.0360631
        k(    9) = (   0.0000000   0.0172460   0.0517381), wk =   0.0360631
        k(   10) = (   0.0000000   0.0172460   0.0689841), wk =   0.0360631
        k(   11) = (   0.0000000   0.0172460   0.0862301), wk =   0.0360631
        k(   12) = (   0.0000000   0.0344921   0.0344921), wk =   0.0180316
        k(   13) = (   0.0000000   0.0344921   0.0517381), wk =   0.0360631
        k(   14) = (   0.0000000   0.0344921   0.0689841), wk =   0.0360631
        k(   15) = (   0.0000000   0.0344921   0.0862301), wk =   0.0360631
        k(   16) = (   0.0000000   0.0517381   0.0517381), wk =   0.0180316
        k(   17) = (   0.0000000   0.0517381   0.0689841), wk =   0.0360631
        k(   18) = (   0.0000000   0.0517381   0.0862301), wk =   0.0360631
        k(   19) = (   0.0000000   0.0689841   0.0689841), wk =   0.0180316
        k(   20) = (   0.0000000   0.0689841   0.0862301), wk =   0.0360631
        k(   21) = (   0.0000000   0.0862301   0.0862301), wk =   0.0180316
        k(   22) = (   0.0172460   0.0172460   0.0172460), wk =   0.0120210
        k(   23) = (   0.0172460   0.0172460   0.0344921), wk =   0.0360631
        k(   24) = (   0.0172460   0.0172460   0.0517381), wk =   0.0360631
        k(   25) = (   0.0172460   0.0172460   0.0689841), wk =   0.0360631
        k(   26) = (   0.0172460   0.0172460   0.0862301), wk =   0.0360631
        k(   27) = (   0.0172460   0.0344921   0.0344921), wk =   0.0360631
        k(   28) = (   0.0172460   0.0344921   0.0517381), wk =   0.0721262
        k(   29) = (   0.0172460   0.0344921   0.0689841), wk =   0.0721262
        k(   30) = (   0.0172460   0.0344921   0.0862301), wk =   0.0721262
        k(   31) = (   0.0172460   0.0517381   0.0517381), wk =   0.0360631
        k(   32) = (   0.0172460   0.0517381   0.0689841), wk =   0.0721262
        k(   33) = (   0.0172460   0.0517381   0.0862301), wk =   0.0721262
        k(   34) = (   0.0172460   0.0689841   0.0689841), wk =   0.0360631
        k(   35) = (   0.0172460   0.0689841   0.0862301), wk =   0.0721262
        k(   36) = (   0.0172460   0.0862301   0.0862301), wk =   0.0360631
        k(   37) = (   0.0344921   0.0344921   0.0344921), wk =   0.0120210
        k(   38) = (   0.0344921   0.0344921   0.0517381), wk =   0.0360631
        k(   39) = (   0.0344921   0.0344921   0.0689841), wk =   0.0360631
        k(   40) = (   0.0344921   0.0344921   0.0862301), wk =   0.0360631
        k(   41) = (   0.0344921   0.0517381   0.0517381), wk =   0.0360631
        k(   42) = (   0.0344921   0.0517381   0.0689841), wk =   0.0721262
        k(   43) = (   0.0344921   0.0517381   0.0862301), wk =   0.0721262
        k(   44) = (   0.0344921   0.0689841   0.0689841), wk =   0.0360631
        k(   45) = (   0.0344921   0.0689841   0.0862301), wk =   0.0721262
        k(   46) = (   0.0344921   0.0862301   0.0862301), wk =   0.0360631
        k(   47) = (   0.0517381   0.0517381   0.0517381), wk =   0.0120210
        k(   48) = (   0.0517381   0.0517381   0.0689841), wk =   0.0360631
        k(   49) = (   0.0517381   0.0517381   0.0862301), wk =   0.0360631
        k(   50) = (   0.0517381   0.0689841   0.0689841), wk =   0.0360631
        k(   51) = (   0.0517381   0.0689841   0.0862301), wk =   0.0721262
        k(   52) = (   0.0517381   0.0862301   0.0862301), wk =   0.0360631
        k(   53) = (   0.0689841   0.0689841   0.0689841), wk =   0.0120210
        k(   54) = (   0.0689841   0.0689841   0.0862301), wk =   0.0360631
        k(   55) = (   0.0689841   0.0862301   0.0862301), wk =   0.0360631
        k(   56) = (   0.0862301   0.0862301   0.0862301), wk =   0.0120210

     Largest allocated arrays     est. size (Mb)     dimensions
     Largest temporary arrays     est. size (Mb)     dimensions

     Initial potential from superposition of free atoms
     Check: negative starting charge=   -0.020429

     starting charge   47.49978, renormalised to   48.00000

     negative rho (up, down):  2.064E-02 0.000E+00

     *
     * You are using vdW-DF for exchange-correlation in this calculation.
     * Please cite the following three references that made this development
     * possible:
     *
     *   M. Dion, H. Rydberg, E. Schroder, D. C. Langreth, and
     *   B. I. Lundqvist, Phys. Rev. Lett. 92, 246401 (2004).
     *
     *   T. Thonhauser, V. R. Cooper, S. Li, A. Puzder, P. Hyldgaard, and
     *   D. C. Langreth, Phys. Rev. B 76, 125112 (2007).
     *
     *   G. Roman-Perez and J. M. Soler, Phys. Rev. Lett. 103, 096102 (2009).
     *
     *
     * If you are using vdW-DF2, please also cite:
     *
     *   K. Lee, E. D. Murray, L. Kong, B. I. Lundqvist, and
     *   D. C. Langreth, Phys. Rev. B 82, 081101(R) (2010).
     *
     *
     * If you are calculating the stress with vdW-DF, please also cite:
     *
     *   R. Sabatini, E. Kucukbenli, B. Kolb, T. Thonhauser, and
     *   S. de Gironcoli, J. Phys.: Condens. Matter 24, 424209 (2012).
     *

     Carrying out vdW-DF run using the following parameters:

     Nqs =      20    Nr_points =    1024   r_max =   100.000
     q_mesh =
               0.00001000     0.04494208     0.09755937     0.15916263
               0.23128650     0.31572767     0.41458969     0.53033537
               0.66584808     0.82450364     1.01025438     1.22772762
               1.48234092     1.78043706     2.12944203     2.53805004
               3.01644009     3.57652955     4.23227104     5.00000000

     Gradients computed in reciprocal space

     Starting wfc are   36 randomized atomic wfcs +    8 random wfc

     Self-consistent Calculation

     iteration #  1     ecut=    58.80 Ry     beta=0.30
     Davidson diagonalization with overlap
     ethr =  1.00E-02,  avg # of iterations =  5.0

     Threshold (ethr) on eigenvalues was too large:
     Diagonalizing with lowered threshold

     Davidson diagonalization with overlap
     ethr =  2.71E-04,  avg # of iterations =  1.4

[...]

     total energy              =    -443.47593972 Ry
     Harris-Foulkes estimate   =    -443.49186568 Ry
     estimated scf accuracy    <       0.12962685 Ry

[...]

     total energy              =    -443.44453621 Ry
     Harris-Foulkes estimate   =    -443.44452919 Ry
     estimated scf accuracy    <       0.00000730 Ry

     iteration #  8     ecut=    58.80 Ry     beta=0.30
     Davidson diagonalization with overlap
     ethr =  1.52E-08,  avg # of iterations =  2.3

     negative rho (up, down):  2.077E-02 0.000E+00

     End of self-consistent calculation

          k = 0.0000 0.0000 0.0000 (  7497 PWs)   bands (ev):

    -2.7737  -2.7737  -2.7644  -2.7644  -2.7644  -1.1881  -1.1199  -1.1199
    -1.1199  -0.9742  -0.9742  -0.7261  -0.7261  -0.7261  -0.6605  -0.6187
    -0.6187  -0.5177  -0.4413  -0.4413  -0.4413   4.2107   4.2107   5.3681
     6.1879   6.1879   6.1879  10.9676  10.9676  10.9676  11.0542  11.0542
    11.0542  13.9438  13.9438  14.5345  15.2667  15.2667  15.2667  15.9775
    15.9776  15.9776  17.7177  19.9553

[...]

          k = 0.0862 0.0862 0.0862 (  7550 PWs)   bands (ev):

    -2.7765  -2.7765  -2.7764  -2.7360  -2.7360  -1.1439  -1.0691  -1.0584
    -1.0584  -0.9399  -0.9399  -0.9313  -0.7076  -0.6964  -0.6964  -0.6811
    -0.6811  -0.5095  -0.5095  -0.4981   2.7073   2.8961   2.8961   4.0462
     5.3540   5.3540   5.4595   5.6702  13.9205  14.0310  14.0310  14.1697
    14.1697  14.2890  14.4076  14.4076  16.9016  16.9016  16.9525  17.1472
    18.0494  18.1853  18.1853  18.7665

     the Fermi energy is     5.2682 ev

!    total energy              =    -443.44454725 Ry
     Harris-Foulkes estimate   =    -443.44453789 Ry
     estimated scf accuracy    <       0.00000036 Ry

     The total energy is the sum of the following terms:

     one-electron contribution =    -113.39999140 Ry
     hartree contribution      =      96.98607650 Ry
     xc contribution           =    -161.91656625 Ry
     ewald contribution        =    -265.11335698 Ry
     smearing contrib. (-TS)   =      -0.00070912 Ry

     convergence has been achieved in   8 iterations

     Forces acting on atoms (Ry/au):

     negative rho (up, down):  2.077E-02 0.000E+00
     atom    1 type  1   force =     0.00000000    0.00000000    0.00000000
     atom    2 type  1   force =     0.00000000    0.00000000    0.00000000
     atom    3 type  1   force =     0.00000000    0.00000000    0.00000000
     atom    4 type  2   force =     0.00000000    0.00000000    0.00000000

     Total force =     0.000000     Total SCF correction =     0.000000
 !ASE

     General routines

     Parallel routines

   This run was terminated on:  14:10:26   8Nov2017

   JOB DONE.