     Program PWSCF v.5.1rc2 (svn rev. ) starts on 25Oct2017 at  8: 4:53

     Current dimensions of program PWSCF are:
     Max number of different atomic species (ntypx) = 10
     Max number of k-points (npk) =  40000
     Max angular momentum in pseudopotentials (lmaxx) =  3

     IMPORTANT: XC functional enforced from input :
     Exchange-correlation      = BEEF-VDW ( 1  4 27 13 2)
     Any further DFT definition will be discarded
     Please, verify this is what you really want

     Subspace diagonalization in iterative solution of the eigenvalue problem:
     a serial algorithm will be used

     bravais-lattice index     =            0
     lattice parameter (alat)  =       1.8897  a.u.
     unit-cell volume          =     601.1628 (a.u.)^3
     number of atoms/cell      =            4
     number of atomic types    =            2
     number of electrons       =        55.00
     number of Kohn-Sham states=           47
     kinetic-energy cutoff     =      58.7989  Ry
     charge density cutoff     =     587.9892  Ry
     convergence threshold     =      7.3E-09
     mixing beta               =       0.1000
     number of iterations used =           10  local-TF  mixing
     Exchange-correlation      = BEEF-VDW ( 1  4 27 13 2)
     nstep                     =           50

     celldm(1)=   1.889726  celldm(2)=   0.000000  celldm(3)=   0.000000
     celldm(4)=   0.000000  celldm(5)=   0.000000  celldm(6)=   0.000000

     crystal axes: (cart. coord. in units of alat)
               a(1) = (   4.466135   0.000000   0.000000 )
               a(2) = (   0.000000   4.466135   0.000000 )
               a(3) = (   0.000000   0.000000   4.466135 )

     reciprocal axes: (cart. coord. in units 2 pi/alat)
               b(1) = (  0.223907  0.000000  0.000000 )
               b(2) = (  0.000000  0.223907  0.000000 )
               b(3) = (  0.000000  0.000000  0.223907 )

     PseudoPot. # 1 for Hg read from file:
     /home/vossj/suncat/psp/gbrv1.5pbe/Hg.UPF
     MD5 check sum: 8f42caffe07f7fd9c0a564347f8c5498
     Pseudo is Ultrasoft + core correction, Zval = 12.0
     Generated by new atomic code, or converted to UPF format
     Using radial grid of  985 points,  6 beta functions with:
                l(1) =   0
                l(2) =   0
                l(3) =   1
                l(4) =   1
                l(5) =   2
                l(6) =   2
     Q(r) pseudized with  8 coefficients,  rinner =    2.000   2.000   2.000
                                                       2.000   2.000

     PseudoPot. # 2 for Cu read from file:
     /home/vossj/suncat/psp/gbrv1.5pbe/Cu.UPF
     MD5 check sum: 6e991ff952a84172a2a52a1c1e996048
     Pseudo is Ultrasoft + core correction, Zval = 19.0
     Generated by new atomic code, or converted to UPF format
     Using radial grid of  867 points,  6 beta functions with:
                l(1) =   0
                l(2) =   0
                l(3) =   1
                l(4) =   1
                l(5) =   2
                l(6) =   2
     Q(r) pseudized with  8 coefficients,  rinner =    1.150   1.150   1.150
                                                       1.150   1.150

     vdW kernel table read from file vdW_kernel_table
     MD5 check sum: 095c7af220d748ca6e76c0b4c6cfb241

     atomic species   valence    mass     pseudopotential
        Hg1           12.00   200.59200     Hg( 1.00)
        Cu1           19.00    63.54600     Cu( 1.00)

     48 Sym. Ops., with inversion, found (32 have fractional translation)

   Cartesian axes

     site n.     atom                  positions (alat units)
         1           Hg1 tau(   1) = (   0.0000000   0.0000000   0.0000000  )
         2           Hg1 tau(   2) = (   0.0000000   2.2330675   2.2330675  )
         3           Hg1 tau(   3) = (   2.2330675   0.0000000   2.2330675  )
         4           Cu1 tau(   4) = (   2.2330675   2.2330675   0.0000000  )

     number of k points=    84  Fermi-Dirac smearing, width (Ry)=  0.0073
                       cart. coord. in units 2pi/alat
        k(    1) = (   0.0000000   0.0000000   0.0000000), wk =   0.0011574
        k(    2) = (   0.0000000   0.0000000   0.0186589), wk =   0.0069444
        k(    3) = (   0.0000000   0.0000000   0.0373179), wk =   0.0069444
        k(    4) = (   0.0000000   0.0000000   0.0559768), wk =   0.0069444
        k(    5) = (   0.0000000   0.0000000   0.0746357), wk =   0.0069444
        k(    6) = (   0.0000000   0.0000000   0.0932947), wk =   0.0069444
        k(    7) = (   0.0000000   0.0000000  -0.1119536), wk =   0.0034722
        k(    8) = (   0.0000000   0.0186589   0.0186589), wk =   0.0138889
        k(    9) = (   0.0000000   0.0186589   0.0373179), wk =   0.0277778
        k(   10) = (   0.0000000   0.0186589   0.0559768), wk =   0.0277778
        k(   11) = (   0.0000000   0.0186589   0.0746357), wk =   0.0277778
        k(   12) = (   0.0000000   0.0186589   0.0932947), wk =   0.0277778
        k(   13) = (   0.0000000   0.0186589  -0.1119536), wk =   0.0138889
        k(   14) = (   0.0000000   0.0373179   0.0373179), wk =   0.0138889
        k(   15) = (   0.0000000   0.0373179   0.0559768), wk =   0.0277778
        k(   16) = (   0.0000000   0.0373179   0.0746357), wk =   0.0277778
        k(   17) = (   0.0000000   0.0373179   0.0932947), wk =   0.0277778
        k(   18) = (   0.0000000   0.0373179  -0.1119536), wk =   0.0138889
        k(   19) = (   0.0000000   0.0559768   0.0559768), wk =   0.0138889
        k(   20) = (   0.0000000   0.0559768   0.0746357), wk =   0.0277778
        k(   21) = (   0.0000000   0.0559768   0.0932947), wk =   0.0277778
        k(   22) = (   0.0000000   0.0559768  -0.1119536), wk =   0.0138889
        k(   23) = (   0.0000000   0.0746357   0.0746357), wk =   0.0138889
        k(   24) = (   0.0000000   0.0746357   0.0932947), wk =   0.0277778
        k(   25) = (   0.0000000   0.0746357  -0.1119536), wk =   0.0138889
        k(   26) = (   0.0000000   0.0932947   0.0932947), wk =   0.0138889
        k(   27) = (   0.0000000   0.0932947  -0.1119536), wk =   0.0138889
        k(   28) = (   0.0000000  -0.1119536  -0.1119536), wk =   0.0034722
        k(   29) = (   0.0186589   0.0186589   0.0186589), wk =   0.0092593
        k(   30) = (   0.0186589   0.0186589   0.0373179), wk =   0.0277778
        k(   31) = (   0.0186589   0.0186589   0.0559768), wk =   0.0277778
        k(   32) = (   0.0186589   0.0186589   0.0746357), wk =   0.0277778
        k(   33) = (   0.0186589   0.0186589   0.0932947), wk =   0.0277778
        k(   34) = (   0.0186589   0.0186589  -0.1119536), wk =   0.0138889
        k(   35) = (   0.0186589   0.0373179   0.0373179), wk =   0.0277778
        k(   36) = (   0.0186589   0.0373179   0.0559768), wk =   0.0555556
        k(   37) = (   0.0186589   0.0373179   0.0746357), wk =   0.0555556
        k(   38) = (   0.0186589   0.0373179   0.0932947), wk =   0.0555556
        k(   39) = (   0.0186589   0.0373179  -0.1119536), wk =   0.0277778
        k(   40) = (   0.0186589   0.0559768   0.0559768), wk =   0.0277778
        k(   41) = (   0.0186589   0.0559768   0.0746357), wk =   0.0555556
        k(   42) = (   0.0186589   0.0559768   0.0932947), wk =   0.0555556
        k(   43) = (   0.0186589   0.0559768  -0.1119536), wk =   0.0277778
        k(   44) = (   0.0186589   0.0746357   0.0746357), wk =   0.0277778
        k(   45) = (   0.0186589   0.0746357   0.0932947), wk =   0.0555556
        k(   46) = (   0.0186589   0.0746357  -0.1119536), wk =   0.0277778
        k(   47) = (   0.0186589   0.0932947   0.0932947), wk =   0.0277778
        k(   48) = (   0.0186589   0.0932947  -0.1119536), wk =   0.0277778
        k(   49) = (   0.0186589  -0.1119536  -0.1119536), wk =   0.0069444
        k(   50) = (   0.0373179   0.0373179   0.0373179), wk =   0.0092593
        k(   51) = (   0.0373179   0.0373179   0.0559768), wk =   0.0277778
        k(   52) = (   0.0373179   0.0373179   0.0746357), wk =   0.0277778
        k(   53) = (   0.0373179   0.0373179   0.0932947), wk =   0.0277778
        k(   54) = (   0.0373179   0.0373179  -0.1119536), wk =   0.0138889
        k(   55) = (   0.0373179   0.0559768   0.0559768), wk =   0.0277778
        k(   56) = (   0.0373179   0.0559768   0.0746357), wk =   0.0555556
        k(   57) = (   0.0373179   0.0559768   0.0932947), wk =   0.0555556
        k(   58) = (   0.0373179   0.0559768  -0.1119536), wk =   0.0277778
        k(   59) = (   0.0373179   0.0746357   0.0746357), wk =   0.0277778
        k(   60) = (   0.0373179   0.0746357   0.0932947), wk =   0.0555556
[...]
        k(   70) = (   0.0559768   0.0746357   0.0932947), wk =   0.0555556
        k(   71) = (   0.0559768   0.0746357  -0.1119536), wk =   0.0277778
        k(   72) = (   0.0559768   0.0932947   0.0932947), wk =   0.0277778
        k(   73) = (   0.0559768   0.0932947  -0.1119536), wk =   0.0277778
        k(   74) = (   0.0559768  -0.1119536  -0.1119536), wk =   0.0069444
        k(   75) = (   0.0746357   0.0746357   0.0746357), wk =   0.0092593
        k(   76) = (   0.0746357   0.0746357   0.0932947), wk =   0.0277778
        k(   77) = (   0.0746357   0.0746357  -0.1119536), wk =   0.0138889
        k(   78) = (   0.0746357   0.0932947   0.0932947), wk =   0.0277778
        k(   79) = (   0.0746357   0.0932947  -0.1119536), wk =   0.0277778
        k(   80) = (   0.0746357  -0.1119536  -0.1119536), wk =   0.0069444
        k(   81) = (   0.0932947   0.0932947   0.0932947), wk =   0.0092593
        k(   82) = (   0.0932947   0.0932947  -0.1119536), wk =   0.0138889
        k(   83) = (   0.0932947  -0.1119536  -0.1119536), wk =   0.0069444
        k(   84) = (  -0.1119536  -0.1119536  -0.1119536), wk =   0.0011574

     Largest allocated arrays     est. size (Mb)     dimensions
     Largest temporary arrays     est. size (Mb)     dimensions

     Initial potential from superposition of free atoms

     starting charge   53.99982, renormalised to   55.00000

     *
     * You are using vdW-DF for exchange-correlation in this calculation.
     * Please cite the following three references that made this development
     * possible:
     *
     *   M. Dion, H. Rydberg, E. Schroder, D. C. Langreth, and
     *   B. I. Lundqvist, Phys. Rev. Lett. 92, 246401 (2004).
     *
     *   T. Thonhauser, V. R. Cooper, S. Li, A. Puzder, P. Hyldgaard, and
     *   D. C. Langreth, Phys. Rev. B 76, 125112 (2007).
     *
     *   G. Roman-Perez and J. M. Soler, Phys. Rev. Lett. 103, 096102 (2009).
     *
     *
     * If you are using vdW-DF2, please also cite:
     *
     *   K. Lee, E. D. Murray, L. Kong, B. I. Lundqvist, and
     *   D. C. Langreth, Phys. Rev. B 82, 081101(R) (2010).
     *
     *
     * If you are calculating the stress with vdW-DF, please also cite:
     *
     *   R. Sabatini, E. Kucukbenli, B. Kolb, T. Thonhauser, and
     *   S. de Gironcoli, J. Phys.: Condens. Matter 24, 424209 (2012).
     *

     Carrying out vdW-DF run using the following parameters:

     Nqs =      20    Nr_points =    1024   r_max =   100.000
     q_mesh =
               0.00001000     0.04494208     0.09755937     0.15916263
               0.23128650     0.31572767     0.41458969     0.53033537
               0.66584808     0.82450364     1.01025438     1.22772762
               1.48234092     1.78043706     2.12944203     2.53805004
               3.01644009     3.57652955     4.23227104     5.00000000

     Gradients computed in reciprocal space

     Starting wfc are   40 randomized atomic wfcs +    7 random wfc

     Self-consistent Calculation

     iteration #  1     ecut=    58.80 Ry     beta=0.10
     Davidson diagonalization with overlap
     ethr =  1.00E-02,  avg # of iterations =  5.3

     total energy              =    -732.58793404 Ry
     Harris-Foulkes estimate   =    -732.66394540 Ry
     estimated scf accuracy    <       1.65237671 Ry

[...]

     total energy              =    -732.20809867 Ry
     Harris-Foulkes estimate   =    -732.20809701 Ry
     estimated scf accuracy    <       0.00000006 Ry

     iteration # 15     ecut=    58.80 Ry     beta=0.10
     Davidson diagonalization with overlap
     ethr =  7.71E-11,  avg # of iterations =  2.0

     End of self-consistent calculation

          k = 0.0000 0.0000 0.0000 (  4625 PWs)   bands (ev):

  -101.1270 -58.5498 -58.5498 -58.5498   1.9960   2.7273   2.8498   2.8498
     2.8498   3.1371   3.1371   4.0154   4.0154   4.0154   4.3868   4.3868
     4.7398   4.9038   4.9038   4.9038   8.5765   8.5765   8.8078   8.8078
     8.8078  11.0189  11.0189  11.0189  11.6326  11.6326  13.4439  18.1759
    18.1759  18.1759  18.4777  18.4777  18.4777  22.6606  22.6606  23.1978
    24.1509  24.1509  24.1509  24.9542  26.1110  26.1110  26.1110

[...]

          k = 0.0933-0.1120-0.1120 (  4632 PWs)   bands (ev):

[...]

          k =-0.1120-0.1120-0.1120 (  4632 PWs)   bands (ev):

  -101.1270 -58.5498 -58.5498 -58.5498   2.8028   2.8028   2.8028   2.8592
     3.4896   3.4896   3.4896   4.0222   4.0222   4.0222   4.2172   4.2172
     4.7596   4.7596   4.7596   8.0773   8.0773   8.0773   8.7859   8.7859
     9.2259   9.6772   9.6772   9.6772   9.8170   9.8170   9.8170  11.6030
    23.3518  23.3518  23.3518  23.7334  23.7334  23.9770  24.3282  24.3282
    24.3282  24.3772  24.3772  24.3772  28.0341  28.0341  28.6557

     the Fermi energy is    10.8184 ev

!    total energy              =    -732.20810566 Ry
     Harris-Foulkes estimate   =    -732.20809868 Ry
     estimated scf accuracy    <          3.2E-09 Ry

     The total energy is the sum of the following terms:

     one-electron contribution =    -390.69048840 Ry
     hartree contribution      =     240.52251489 Ry
     xc contribution           =    -161.38947609 Ry
     ewald contribution        =    -420.64702490 Ry
     smearing contrib. (-TS)   =      -0.00363117 Ry

     convergence has been achieved in  15 iterations

     Forces acting on atoms (Ry/au):

     atom    1 type  1   force =     0.00000000    0.00000000    0.00000000
     atom    2 type  1   force =     0.00000000    0.00000000    0.00000000
     atom    3 type  1   force =     0.00000000    0.00000000    0.00000000
     atom    4 type  2   force =     0.00000000    0.00000000    0.00000000

     Total force =     0.000000     Total SCF correction =     0.000000
 !ASE

     General routines

     Parallel routines

   This run was terminated on:   8: 6:18  25Oct2017

   JOB DONE.