     Program PWSCF v.5.1rc2 (svn rev. ) starts on 25Oct2017 at 13:46: 4

     Current dimensions of program PWSCF are:
     Max number of different atomic species (ntypx) = 10
     Max number of k-points (npk) =  40000
     Max angular momentum in pseudopotentials (lmaxx) =  3

     IMPORTANT: XC functional enforced from input :
     Exchange-correlation      = BEEF-VDW ( 1  4 27 13 2)
     Any further DFT definition will be discarded
     Please, verify this is what you really want

     Subspace diagonalization in iterative solution of the eigenvalue problem:
     a serial algorithm will be used

     bravais-lattice index     =            0
     lattice parameter (alat)  =       1.8897  a.u.
     unit-cell volume          =     755.4537 (a.u.)^3
     number of atoms/cell      =            4
     number of atomic types    =            2
     number of electrons       =        48.00
     number of Kohn-Sham states=           44
     kinetic-energy cutoff     =      58.7989  Ry
     charge density cutoff     =     587.9892  Ry
     convergence threshold     =      7.3E-09
     mixing beta               =       0.1000
     number of iterations used =           10  local-TF  mixing
     Exchange-correlation      = BEEF-VDW ( 1  4 27 13 2)
     nstep                     =           50

     celldm(1)=   1.889726  celldm(2)=   0.000000  celldm(3)=   0.000000
     celldm(4)=   0.000000  celldm(5)=   0.000000  celldm(6)=   0.000000

     crystal axes: (cart. coord. in units of alat)
               a(1) = (   4.819520   0.000000   0.000000 )
               a(2) = (   0.000000   4.819520   0.000000 )
               a(3) = (   0.000000   0.000000   4.819520 )

     reciprocal axes: (cart. coord. in units 2 pi/alat)
               b(1) = (  0.207490  0.000000  0.000000 )
               b(2) = (  0.000000  0.207490  0.000000 )
               b(3) = (  0.000000  0.000000  0.207490 )

     PseudoPot. # 1 for La read from file:
     /home/vossj/suncat/psp/gbrv1.5pbe/La.UPF
     MD5 check sum: 5937b0c7494ba0601a847275249473aa
     Pseudo is Ultrasoft + core correction, Zval = 11.0
     Generated by new atomic code, or converted to UPF format
     Using radial grid of  995 points,  8 beta functions with:
                l(1) =   0
                l(2) =   0
                l(3) =   1
                l(4) =   1
                l(5) =   2
                l(6) =   2
                l(7) =   3
                l(8) =   3
     Q(r) pseudized with  8 coefficients,  rinner =    1.700   1.700   1.700
                                                       1.700   1.700   1.700
                                                       1.700

     PseudoPot. # 2 for Re read from file:
     /home/vossj/suncat/psp/gbrv1.5pbe/Re.UPF
     MD5 check sum: 85f993410f3e006da9d71c142b4ad953
     Pseudo is Ultrasoft + core correction, Zval = 15.0
     Generated by new atomic code, or converted to UPF format
     Using radial grid of  981 points,  8 beta functions with:
                l(1) =   0
                l(2) =   0
                l(3) =   1
                l(4) =   1
                l(5) =   2
                l(6) =   2
                l(7) =   3
                l(8) =   3
     Q(r) pseudized with  8 coefficients,  rinner =    1.150   1.150   1.150
                                                       1.150   1.150   1.150
                                                       1.150

     vdW kernel table read from file vdW_kernel_table
     MD5 check sum: 095c7af220d748ca6e76c0b4c6cfb241

     atomic species   valence    mass     pseudopotential
        La1           11.00   138.90547     La( 1.00)
        Re1           15.00   186.20700     Re( 1.00)

     48 Sym. Ops., with inversion, found (32 have fractional translation)

   Cartesian axes

     site n.     atom                  positions (alat units)
         1           La1 tau(   1) = (   0.0000000   0.0000000   0.0000000  )
         2           La1 tau(   2) = (   0.0000000   2.4097598   2.4097598  )
         3           La1 tau(   3) = (   2.4097598   0.0000000   2.4097598  )
         4           Re1 tau(   4) = (   2.4097598   2.4097598   0.0000000  )

     number of k points=    84  Fermi-Dirac smearing, width (Ry)=  0.0073
                       cart. coord. in units 2pi/alat
        k(    1) = (   0.0000000   0.0000000   0.0000000), wk =   0.0011574
        k(    2) = (   0.0000000   0.0000000   0.0172908), wk =   0.0069444
        k(    3) = (   0.0000000   0.0000000   0.0345816), wk =   0.0069444
        k(    4) = (   0.0000000   0.0000000   0.0518724), wk =   0.0069444
        k(    5) = (   0.0000000   0.0000000   0.0691632), wk =   0.0069444
        k(    6) = (   0.0000000   0.0000000   0.0864540), wk =   0.0069444
        k(    7) = (   0.0000000   0.0000000  -0.1037448), wk =   0.0034722
        k(    8) = (   0.0000000   0.0172908   0.0172908), wk =   0.0138889
        k(    9) = (   0.0000000   0.0172908   0.0345816), wk =   0.0277778
        k(   10) = (   0.0000000   0.0172908   0.0518724), wk =   0.0277778
        k(   11) = (   0.0000000   0.0172908   0.0691632), wk =   0.0277778
        k(   12) = (   0.0000000   0.0172908   0.0864540), wk =   0.0277778
        k(   13) = (   0.0000000   0.0172908  -0.1037448), wk =   0.0138889
        k(   14) = (   0.0000000   0.0345816   0.0345816), wk =   0.0138889
        k(   15) = (   0.0000000   0.0345816   0.0518724), wk =   0.0277778
        k(   16) = (   0.0000000   0.0345816   0.0691632), wk =   0.0277778
        k(   17) = (   0.0000000   0.0345816   0.0864540), wk =   0.0277778
        k(   18) = (   0.0000000   0.0345816  -0.1037448), wk =   0.0138889
        k(   19) = (   0.0000000   0.0518724   0.0518724), wk =   0.0138889
        k(   20) = (   0.0000000   0.0518724   0.0691632), wk =   0.0277778
        k(   21) = (   0.0000000   0.0518724   0.0864540), wk =   0.0277778
        k(   22) = (   0.0000000   0.0518724  -0.1037448), wk =   0.0138889
        k(   23) = (   0.0000000   0.0691632   0.0691632), wk =   0.0138889
        k(   24) = (   0.0000000   0.0691632   0.0864540), wk =   0.0277778
        k(   25) = (   0.0000000   0.0691632  -0.1037448), wk =   0.0138889
        k(   26) = (   0.0000000   0.0864540   0.0864540), wk =   0.0138889
        k(   27) = (   0.0000000   0.0864540  -0.1037448), wk =   0.0138889
        k(   28) = (   0.0000000  -0.1037448  -0.1037448), wk =   0.0034722
        k(   29) = (   0.0172908   0.0172908   0.0172908), wk =   0.0092593
        k(   30) = (   0.0172908   0.0172908   0.0345816), wk =   0.0277778
        k(   31) = (   0.0172908   0.0172908   0.0518724), wk =   0.0277778
        k(   32) = (   0.0172908   0.0172908   0.0691632), wk =   0.0277778
        k(   33) = (   0.0172908   0.0172908   0.0864540), wk =   0.0277778
        k(   34) = (   0.0172908   0.0172908  -0.1037448), wk =   0.0138889
        k(   35) = (   0.0172908   0.0345816   0.0345816), wk =   0.0277778
        k(   36) = (   0.0172908   0.0345816   0.0518724), wk =   0.0555556
        k(   37) = (   0.0172908   0.0345816   0.0691632), wk =   0.0555556
        k(   38) = (   0.0172908   0.0345816   0.0864540), wk =   0.0555556
        k(   39) = (   0.0172908   0.0345816  -0.1037448), wk =   0.0277778
        k(   40) = (   0.0172908   0.0518724   0.0518724), wk =   0.0277778
        k(   41) = (   0.0172908   0.0518724   0.0691632), wk =   0.0555556
        k(   42) = (   0.0172908   0.0518724   0.0864540), wk =   0.0555556
        k(   43) = (   0.0172908   0.0518724  -0.1037448), wk =   0.0277778
        k(   44) = (   0.0172908   0.0691632   0.0691632), wk =   0.0277778
        k(   45) = (   0.0172908   0.0691632   0.0864540), wk =   0.0555556
        k(   46) = (   0.0172908   0.0691632  -0.1037448), wk =   0.0277778
        k(   47) = (   0.0172908   0.0864540   0.0864540), wk =   0.0277778
        k(   48) = (   0.0172908   0.0864540  -0.1037448), wk =   0.0277778
        k(   49) = (   0.0172908  -0.1037448  -0.1037448), wk =   0.0069444
        k(   50) = (   0.0345816   0.0345816   0.0345816), wk =   0.0092593
        k(   51) = (   0.0345816   0.0345816   0.0518724), wk =   0.0277778
        k(   52) = (   0.0345816   0.0345816   0.0691632), wk =   0.0277778
        k(   53) = (   0.0345816   0.0345816   0.0864540), wk =   0.0277778
        k(   54) = (   0.0345816   0.0345816  -0.1037448), wk =   0.0138889
        k(   55) = (   0.0345816   0.0518724   0.0518724), wk =   0.0277778
        k(   56) = (   0.0345816   0.0518724   0.0691632), wk =   0.0555556
        k(   57) = (   0.0345816   0.0518724   0.0864540), wk =   0.0555556
        k(   58) = (   0.0345816   0.0518724  -0.1037448), wk =   0.0277778
        k(   59) = (   0.0345816   0.0691632   0.0691632), wk =   0.0277778
        k(   60) = (   0.0345816   0.0691632   0.0864540), wk =   0.0555556
[...]
        k(   70) = (   0.0518724   0.0691632   0.0864540), wk =   0.0555556
        k(   71) = (   0.0518724   0.0691632  -0.1037448), wk =   0.0277778
        k(   72) = (   0.0518724   0.0864540   0.0864540), wk =   0.0277778
        k(   73) = (   0.0518724   0.0864540  -0.1037448), wk =   0.0277778
        k(   74) = (   0.0518724  -0.1037448  -0.1037448), wk =   0.0069444
        k(   75) = (   0.0691632   0.0691632   0.0691632), wk =   0.0092593
        k(   76) = (   0.0691632   0.0691632   0.0864540), wk =   0.0277778
        k(   77) = (   0.0691632   0.0691632  -0.1037448), wk =   0.0138889
        k(   78) = (   0.0691632   0.0864540   0.0864540), wk =   0.0277778
        k(   79) = (   0.0691632   0.0864540  -0.1037448), wk =   0.0277778
        k(   80) = (   0.0691632  -0.1037448  -0.1037448), wk =   0.0069444
        k(   81) = (   0.0864540   0.0864540   0.0864540), wk =   0.0092593
        k(   82) = (   0.0864540   0.0864540  -0.1037448), wk =   0.0138889
        k(   83) = (   0.0864540  -0.1037448  -0.1037448), wk =   0.0069444
        k(   84) = (  -0.1037448  -0.1037448  -0.1037448), wk =   0.0011574

     Largest allocated arrays     est. size (Mb)     dimensions
     Largest temporary arrays     est. size (Mb)     dimensions

     Initial potential from superposition of free atoms
     Check: negative starting charge=   -0.332508

     starting charge   47.40375, renormalised to   48.00000

     negative rho (up, down):  3.367E-01 0.000E+00

     *
     * You are using vdW-DF for exchange-correlation in this calculation.
     * Please cite the following three references that made this development
     * possible:
     *
     *   M. Dion, H. Rydberg, E. Schroder, D. C. Langreth, and
     *   B. I. Lundqvist, Phys. Rev. Lett. 92, 246401 (2004).
     *
     *   T. Thonhauser, V. R. Cooper, S. Li, A. Puzder, P. Hyldgaard, and
     *   D. C. Langreth, Phys. Rev. B 76, 125112 (2007).
     *
     *   G. Roman-Perez and J. M. Soler, Phys. Rev. Lett. 103, 096102 (2009).
     *
     *
     * If you are using vdW-DF2, please also cite:
     *
     *   K. Lee, E. D. Murray, L. Kong, B. I. Lundqvist, and
     *   D. C. Langreth, Phys. Rev. B 82, 081101(R) (2010).
     *
     *
     * If you are calculating the stress with vdW-DF, please also cite:
     *
     *   R. Sabatini, E. Kucukbenli, B. Kolb, T. Thonhauser, and
     *   S. de Gironcoli, J. Phys.: Condens. Matter 24, 424209 (2012).
     *

     Carrying out vdW-DF run using the following parameters:

     Nqs =      20    Nr_points =    1024   r_max =   100.000
     q_mesh =
               0.00001000     0.04494208     0.09755937     0.15916263
               0.23128650     0.31572767     0.41458969     0.53033537
               0.66584808     0.82450364     1.01025438     1.22772762
               1.48234092     1.78043706     2.12944203     2.53805004
               3.01644009     3.57652955     4.23227104     5.00000000

     Gradients computed in reciprocal space

     Starting wfc are   73 randomized atomic wfcs

     Self-consistent Calculation

     iteration #  1     ecut=    58.80 Ry     beta=0.10
     Davidson diagonalization with overlap
     ethr =  1.00E-02,  avg # of iterations =  2.0

     Threshold (ethr) on eigenvalues was too large:
     Diagonalizing with lowered threshold

     Davidson diagonalization with overlap
     ethr =  1.66E-04,  avg # of iterations =  2.9

[...]

     total energy              =    -504.19793258 Ry
     Harris-Foulkes estimate   =    -504.20144867 Ry
     estimated scf accuracy    <       0.08189569 Ry

[...]

     total energy              =    -504.18093527 Ry
     Harris-Foulkes estimate   =    -504.18092517 Ry
     estimated scf accuracy    <       0.00000006 Ry

     iteration # 19     ecut=    58.80 Ry     beta=0.10
     Davidson diagonalization with overlap
     ethr =  3.70E-11,  avg # of iterations =  2.2

     negative rho (up, down):  2.535E-01 0.000E+00

     End of self-consistent calculation

          k = 0.0000 0.0000 0.0000 (  5743 PWs)   bands (ev):

   -65.4216 -27.1074 -27.1074 -27.1074 -18.7339 -18.1942 -18.1942  -3.1011
    -3.1011  -3.1011  -1.8081  -1.8081  -1.8081  -1.2379  -1.2379  -1.2379
     9.7040  11.2379  11.6637  11.6637  12.0142  12.0142  12.0142  14.9653
    14.9653  14.9653  15.8824  16.1682  16.1682  16.1682  16.4255  16.4255
    16.4255  16.5283  16.5283  16.5283  16.7798  16.7798  16.7798  16.8060
    16.8060  16.9537  16.9537  16.9538

[...]

          k = 0.0865-0.1037-0.1037 (  5796 PWs)   bands (ev):

[...]

          k =-0.1037-0.1037-0.1037 (  5832 PWs)   bands (ev):

   -65.4216 -27.1081 -27.1081 -27.1081 -18.3708 -18.3708 -18.3708  -3.8526
    -2.8881  -2.8881  -2.8881  -1.3624  -1.3624  -1.1617  -1.1617  -1.1617
    10.2185  12.1619  12.1619  12.1619  13.8792  13.8792  14.6446  14.6446
    14.6446  15.5997  15.8250  15.8250  15.8250  15.8618  15.8618  15.8618
    16.1802  16.1802  16.1802  16.3997  16.3997  16.6855  16.6855  16.6855
    16.9566  16.9567  16.9568  17.0877

     the Fermi energy is    14.2551 ev

!    total energy              =    -504.18097848 Ry
     Harris-Foulkes estimate   =    -504.18093535 Ry
     estimated scf accuracy    <          1.5E-09 Ry

     The total energy is the sum of the following terms:

     one-electron contribution =     -56.84758992 Ry
     hartree contribution      =      52.34111590 Ry
     xc contribution           =    -206.72793893 Ry
     ewald contribution        =    -292.93622859 Ry
     smearing contrib. (-TS)   =      -0.01033694 Ry

     convergence has been achieved in  19 iterations

     Forces acting on atoms (Ry/au):

     negative rho (up, down):  2.535E-01 0.000E+00
     atom    1 type  1   force =     0.00000000   -0.00000000    0.00000000
     atom    2 type  1   force =     0.00000000    0.00000000    0.00000000
     atom    3 type  1   force =     0.00000000    0.00000000    0.00000000
     atom    4 type  2   force =     0.00000000    0.00000000    0.00000000

     Total force =     0.000000     Total SCF correction =     0.000000
 !ASE

     General routines

     Parallel routines

   This run was terminated on:  13:48: 2  25Oct2017

   JOB DONE.