     Program PWSCF v.5.1rc2 (svn rev. ) starts on 25Oct2017 at 23:55:12

     Current dimensions of program PWSCF are:
     Max number of different atomic species (ntypx) = 10
     Max number of k-points (npk) =  40000
     Max angular momentum in pseudopotentials (lmaxx) =  3

     IMPORTANT: XC functional enforced from input :
     Exchange-correlation      = BEEF-VDW ( 1  4 27 13 2)
     Any further DFT definition will be discarded
     Please, verify this is what you really want

     Subspace diagonalization in iterative solution of the eigenvalue problem:
     a serial algorithm will be used

     bravais-lattice index     =            0
     lattice parameter (alat)  =       1.8897  a.u.
     unit-cell volume          =     447.0821 (a.u.)^3
     number of atoms/cell      =            4
     number of atomic types    =            2
     number of electrons       =        58.00
     number of Kohn-Sham states=           49
     kinetic-energy cutoff     =      58.7989  Ry
     charge density cutoff     =     587.9892  Ry
     convergence threshold     =      7.3E-09
     mixing beta               =       0.1000
     number of iterations used =           10  local-TF  mixing
     Exchange-correlation      = BEEF-VDW ( 1  4 27 13 2)
     nstep                     =           50

     celldm(1)=   1.889726  celldm(2)=   0.000000  celldm(3)=   0.000000
     celldm(4)=   0.000000  celldm(5)=   0.000000  celldm(6)=   0.000000

     crystal axes: (cart. coord. in units of alat)
               a(1) = (   4.046351   0.000000   0.000000 )
               a(2) = (   0.000000   4.046351   0.000000 )
               a(3) = (   0.000000   0.000000   4.046351 )

     reciprocal axes: (cart. coord. in units 2 pi/alat)
               b(1) = (  0.247136  0.000000  0.000000 )
               b(2) = (  0.000000  0.247136  0.000000 )
               b(3) = (  0.000000  0.000000  0.247136 )

     PseudoPot. # 1 for Re read from file:
     /home/vossj/suncat/psp/gbrv1.5pbe/Re.UPF
     MD5 check sum: 85f993410f3e006da9d71c142b4ad953
     Pseudo is Ultrasoft + core correction, Zval = 15.0
     Generated by new atomic code, or converted to UPF format
     Using radial grid of  981 points,  8 beta functions with:
                l(1) =   0
                l(2) =   0
                l(3) =   1
                l(4) =   1
                l(5) =   2
                l(6) =   2
                l(7) =   3
                l(8) =   3
     Q(r) pseudized with  8 coefficients,  rinner =    1.150   1.150   1.150
                                                       1.150   1.150   1.150
                                                       1.150

     PseudoPot. # 2 for Tl read from file:
     /home/vossj/suncat/psp/gbrv1.5pbe/Tl.UPF
     MD5 check sum: b76cf1f7e72655a2b2c53cf6385d7059
     Pseudo is Ultrasoft + core correction, Zval = 13.0
     Generated by new atomic code, or converted to UPF format
     Using radial grid of  899 points,  6 beta functions with:
                l(1) =   0
                l(2) =   0
                l(3) =   1
                l(4) =   1
                l(5) =   2
                l(6) =   2
     Q(r) pseudized with  6 coefficients,  rinner =    1.100   1.100   1.100
                                                       1.100   1.100

     vdW kernel table read from file vdW_kernel_table
     MD5 check sum: 095c7af220d748ca6e76c0b4c6cfb241

     atomic species   valence    mass     pseudopotential
        Re1           15.00   186.20700     Re( 1.00)
        Tl1           13.00   204.38000     Tl( 1.00)

     48 Sym. Ops., with inversion, found (32 have fractional translation)

   Cartesian axes

     site n.     atom                  positions (alat units)
         1           Re1 tau(   1) = (   0.0000000   0.0000000   0.0000000  )
         2           Re1 tau(   2) = (   0.0000000   2.0231756   2.0231756  )
         3           Re1 tau(   3) = (   2.0231756   0.0000000   2.0231756  )
         4           Tl1 tau(   4) = (   2.0231756   2.0231756   0.0000000  )

     number of k points=    84  Fermi-Dirac smearing, width (Ry)=  0.0073
                       cart. coord. in units 2pi/alat
        k(    1) = (   0.0000000   0.0000000   0.0000000), wk =   0.0011574
        k(    2) = (   0.0000000   0.0000000   0.0205947), wk =   0.0069444
        k(    3) = (   0.0000000   0.0000000   0.0411894), wk =   0.0069444
        k(    4) = (   0.0000000   0.0000000   0.0617841), wk =   0.0069444
        k(    5) = (   0.0000000   0.0000000   0.0823787), wk =   0.0069444
        k(    6) = (   0.0000000   0.0000000   0.1029734), wk =   0.0069444
        k(    7) = (   0.0000000   0.0000000  -0.1235681), wk =   0.0034722
        k(    8) = (   0.0000000   0.0205947   0.0205947), wk =   0.0138889
        k(    9) = (   0.0000000   0.0205947   0.0411894), wk =   0.0277778
        k(   10) = (   0.0000000   0.0205947   0.0617841), wk =   0.0277778
        k(   11) = (   0.0000000   0.0205947   0.0823787), wk =   0.0277778
        k(   12) = (   0.0000000   0.0205947   0.1029734), wk =   0.0277778
        k(   13) = (   0.0000000   0.0205947  -0.1235681), wk =   0.0138889
        k(   14) = (   0.0000000   0.0411894   0.0411894), wk =   0.0138889
        k(   15) = (   0.0000000   0.0411894   0.0617841), wk =   0.0277778
        k(   16) = (   0.0000000   0.0411894   0.0823787), wk =   0.0277778
        k(   17) = (   0.0000000   0.0411894   0.1029734), wk =   0.0277778
        k(   18) = (   0.0000000   0.0411894  -0.1235681), wk =   0.0138889
        k(   19) = (   0.0000000   0.0617841   0.0617841), wk =   0.0138889
        k(   20) = (   0.0000000   0.0617841   0.0823787), wk =   0.0277778
        k(   21) = (   0.0000000   0.0617841   0.1029734), wk =   0.0277778
        k(   22) = (   0.0000000   0.0617841  -0.1235681), wk =   0.0138889
        k(   23) = (   0.0000000   0.0823787   0.0823787), wk =   0.0138889
        k(   24) = (   0.0000000   0.0823787   0.1029734), wk =   0.0277778
        k(   25) = (   0.0000000   0.0823787  -0.1235681), wk =   0.0138889
        k(   26) = (   0.0000000   0.1029734   0.1029734), wk =   0.0138889
        k(   27) = (   0.0000000   0.1029734  -0.1235681), wk =   0.0138889
        k(   28) = (   0.0000000  -0.1235681  -0.1235681), wk =   0.0034722
        k(   29) = (   0.0205947   0.0205947   0.0205947), wk =   0.0092593
        k(   30) = (   0.0205947   0.0205947   0.0411894), wk =   0.0277778
        k(   31) = (   0.0205947   0.0205947   0.0617841), wk =   0.0277778
        k(   32) = (   0.0205947   0.0205947   0.0823787), wk =   0.0277778
        k(   33) = (   0.0205947   0.0205947   0.1029734), wk =   0.0277778
        k(   34) = (   0.0205947   0.0205947  -0.1235681), wk =   0.0138889
        k(   35) = (   0.0205947   0.0411894   0.0411894), wk =   0.0277778
        k(   36) = (   0.0205947   0.0411894   0.0617841), wk =   0.0555556
        k(   37) = (   0.0205947   0.0411894   0.0823787), wk =   0.0555556
        k(   38) = (   0.0205947   0.0411894   0.1029734), wk =   0.0555556
        k(   39) = (   0.0205947   0.0411894  -0.1235681), wk =   0.0277778
        k(   40) = (   0.0205947   0.0617841   0.0617841), wk =   0.0277778
        k(   41) = (   0.0205947   0.0617841   0.0823787), wk =   0.0555556
        k(   42) = (   0.0205947   0.0617841   0.1029734), wk =   0.0555556
        k(   43) = (   0.0205947   0.0617841  -0.1235681), wk =   0.0277778
        k(   44) = (   0.0205947   0.0823787   0.0823787), wk =   0.0277778
        k(   45) = (   0.0205947   0.0823787   0.1029734), wk =   0.0555556
        k(   46) = (   0.0205947   0.0823787  -0.1235681), wk =   0.0277778
        k(   47) = (   0.0205947   0.1029734   0.1029734), wk =   0.0277778
        k(   48) = (   0.0205947   0.1029734  -0.1235681), wk =   0.0277778
        k(   49) = (   0.0205947  -0.1235681  -0.1235681), wk =   0.0069444
        k(   50) = (   0.0411894   0.0411894   0.0411894), wk =   0.0092593
        k(   51) = (   0.0411894   0.0411894   0.0617841), wk =   0.0277778
        k(   52) = (   0.0411894   0.0411894   0.0823787), wk =   0.0277778
        k(   53) = (   0.0411894   0.0411894   0.1029734), wk =   0.0277778
        k(   54) = (   0.0411894   0.0411894  -0.1235681), wk =   0.0138889
        k(   55) = (   0.0411894   0.0617841   0.0617841), wk =   0.0277778
        k(   56) = (   0.0411894   0.0617841   0.0823787), wk =   0.0555556
        k(   57) = (   0.0411894   0.0617841   0.1029734), wk =   0.0555556
        k(   58) = (   0.0411894   0.0617841  -0.1235681), wk =   0.0277778
        k(   59) = (   0.0411894   0.0823787   0.0823787), wk =   0.0277778
        k(   60) = (   0.0411894   0.0823787   0.1029734), wk =   0.0555556
[...]
        k(   70) = (   0.0617841   0.0823787   0.1029734), wk =   0.0555556
        k(   71) = (   0.0617841   0.0823787  -0.1235681), wk =   0.0277778
        k(   72) = (   0.0617841   0.1029734   0.1029734), wk =   0.0277778
        k(   73) = (   0.0617841   0.1029734  -0.1235681), wk =   0.0277778
        k(   74) = (   0.0617841  -0.1235681  -0.1235681), wk =   0.0069444
        k(   75) = (   0.0823787   0.0823787   0.0823787), wk =   0.0092593
        k(   76) = (   0.0823787   0.0823787   0.1029734), wk =   0.0277778
        k(   77) = (   0.0823787   0.0823787  -0.1235681), wk =   0.0138889
        k(   78) = (   0.0823787   0.1029734   0.1029734), wk =   0.0277778
        k(   79) = (   0.0823787   0.1029734  -0.1235681), wk =   0.0277778
        k(   80) = (   0.0823787  -0.1235681  -0.1235681), wk =   0.0069444
        k(   81) = (   0.1029734   0.1029734   0.1029734), wk =   0.0092593
        k(   82) = (   0.1029734   0.1029734  -0.1235681), wk =   0.0138889
        k(   83) = (   0.1029734  -0.1235681  -0.1235681), wk =   0.0069444
        k(   84) = (  -0.1235681  -0.1235681  -0.1235681), wk =   0.0011574

     Largest allocated arrays     est. size (Mb)     dimensions
     Largest temporary arrays     est. size (Mb)     dimensions

     Initial potential from superposition of free atoms
     Check: negative starting charge=   -0.433907

     starting charge   56.49500, renormalised to   58.00000

     negative rho (up, down):  4.455E-01 0.000E+00

     *
     * You are using vdW-DF for exchange-correlation in this calculation.
     * Please cite the following three references that made this development
     * possible:
     *
     *   M. Dion, H. Rydberg, E. Schroder, D. C. Langreth, and
     *   B. I. Lundqvist, Phys. Rev. Lett. 92, 246401 (2004).
     *
     *   T. Thonhauser, V. R. Cooper, S. Li, A. Puzder, P. Hyldgaard, and
     *   D. C. Langreth, Phys. Rev. B 76, 125112 (2007).
     *
     *   G. Roman-Perez and J. M. Soler, Phys. Rev. Lett. 103, 096102 (2009).
     *
     *
     * If you are using vdW-DF2, please also cite:
     *
     *   K. Lee, E. D. Murray, L. Kong, B. I. Lundqvist, and
     *   D. C. Langreth, Phys. Rev. B 82, 081101(R) (2010).
     *
     *
     * If you are calculating the stress with vdW-DF, please also cite:
     *
     *   R. Sabatini, E. Kucukbenli, B. Kolb, T. Thonhauser, and
     *   S. de Gironcoli, J. Phys.: Condens. Matter 24, 424209 (2012).
     *

     Carrying out vdW-DF run using the following parameters:

     Nqs =      20    Nr_points =    1024   r_max =   100.000
     q_mesh =
               0.00001000     0.04494208     0.09755937     0.15916263
               0.23128650     0.31572767     0.41458969     0.53033537
               0.66584808     0.82450364     1.01025438     1.22772762
               1.48234092     1.78043706     2.12944203     2.53805004
               3.01644009     3.57652955     4.23227104     5.00000000

     Gradients computed in reciprocal space

     Starting wfc are   48 randomized atomic wfcs +    1 random wfc

     Self-consistent Calculation

     iteration #  1     ecut=    58.80 Ry     beta=0.10
     Davidson diagonalization with overlap
     ethr =  1.00E-02,  avg # of iterations =  4.6

     Threshold (ethr) on eigenvalues was too large:
     Diagonalizing with lowered threshold

     Davidson diagonalization with overlap
     ethr =  8.93E-04,  avg # of iterations =  1.0

[...]

     total energy              =    -723.26943353 Ry
     Harris-Foulkes estimate   =    -723.29893438 Ry
     estimated scf accuracy    <       0.51839100 Ry

[...]

     total energy              =    -723.10989232 Ry
     Harris-Foulkes estimate   =    -723.10988742 Ry
     estimated scf accuracy    <          9.1E-09 Ry

     iteration # 19     ecut=    58.80 Ry     beta=0.10
     Davidson diagonalization with overlap
     ethr =  1.57E-11,  avg # of iterations =  1.7

     negative rho (up, down):  4.597E-01 0.000E+00

     End of self-consistent calculation

          k = 0.0000 0.0000 0.0000 (  3407 PWs)   bands (ev):

   -59.4062 -59.3401 -59.3401 -21.3389 -21.3389 -21.3389 -21.0536 -21.0536
   -21.0536 -20.7869 -20.7869 -20.7869   8.5757   8.5757   8.7140   8.7140
     8.7140   9.9280  14.9049  17.2985  17.2985  17.2985  17.4565  17.4565
    21.4439  21.4439  21.4439  21.4501  21.4501  21.4501  23.0131  23.0131
    24.0852  24.8799  24.8799  24.8799  26.2384  30.0736  30.0736  30.0736
    30.8584  30.8584  31.8335  31.8335  31.8335  33.6709  38.5618  38.5619
    39.5754

[...]

          k = 0.1030-0.1236-0.1236 (  3408 PWs)   bands (ev):

[...]

          k =-0.1236-0.1236-0.1236 (  3448 PWs)   bands (ev):

   -59.3619 -59.3619 -59.3619 -21.4462 -21.3345 -21.3345 -21.3345 -20.8707
   -20.8707 -20.8707 -20.7646 -20.7646   8.6003   8.6003   8.6003   9.0131
     9.0131  12.3435  16.4324  16.4324  16.4324  19.0715  19.0715  19.0715
    19.1861  19.1861  19.1861  21.1280  21.2677  21.2677  21.2677  22.0792
    22.0792  24.2161  24.2161  24.2161  24.7811  28.2669  28.2669  28.2669
    33.0995  33.0995  33.0995  33.4787  36.6442  36.6442  36.6442  38.6692
    39.0430

     the Fermi energy is    21.4295 ev

!    total energy              =    -723.10991320 Ry
     Harris-Foulkes estimate   =    -723.10989232 Ry
     estimated scf accuracy    <          4.0E-09 Ry

     The total energy is the sum of the following terms:

     one-electron contribution =     -67.95749049 Ry
     hartree contribution      =      76.64626086 Ry
     xc contribution           =    -226.63262359 Ry
     ewald contribution        =    -505.15080176 Ry
     smearing contrib. (-TS)   =      -0.01525823 Ry

     convergence has been achieved in  19 iterations

     Forces acting on atoms (Ry/au):

     negative rho (up, down):  4.597E-01 0.000E+00
     atom    1 type  1   force =     0.00000000    0.00000000    0.00000000
     atom    2 type  1   force =     0.00000000    0.00000000    0.00000000
     atom    3 type  1   force =     0.00000000    0.00000000    0.00000000
     atom    4 type  2   force =     0.00000000    0.00000000    0.00000000

     Total force =     0.000000     Total SCF correction =     0.000000
 !ASE

     General routines

     Parallel routines

   This run was terminated on:  23:56:39  25Oct2017

   JOB DONE.