     Program PWSCF v.5.1rc2 (svn rev. ) starts on 25Oct2017 at 20:24: 7

     Current dimensions of program PWSCF are:
     Max number of different atomic species (ntypx) = 10
     Max number of k-points (npk) =  40000
     Max angular momentum in pseudopotentials (lmaxx) =  3

     IMPORTANT: XC functional enforced from input :
     Exchange-correlation      = BEEF-VDW ( 1  4 27 13 2)
     Any further DFT definition will be discarded
     Please, verify this is what you really want

     Subspace diagonalization in iterative solution of the eigenvalue problem:
     a serial algorithm will be used

     bravais-lattice index     =            0
     lattice parameter (alat)  =       1.8897  a.u.
     unit-cell volume          =     343.4633 (a.u.)^3
     number of atoms/cell      =            4
     number of atomic types    =            2
     number of electrons       =        60.00
     number of Kohn-Sham states=           50
     kinetic-energy cutoff     =      58.7989  Ry
     charge density cutoff     =     587.9892  Ry
     convergence threshold     =      7.3E-09
     mixing beta               =       0.1000
     number of iterations used =           10  local-TF  mixing
     Exchange-correlation      = BEEF-VDW ( 1  4 27 13 2)
     nstep                     =           50

     celldm(1)=   1.889726  celldm(2)=   0.000000  celldm(3)=   0.000000
     celldm(4)=   0.000000  celldm(5)=   0.000000  celldm(6)=   0.000000

     crystal axes: (cart. coord. in units of alat)
               a(1) = (   3.705907   0.000000   0.000000 )
               a(2) = (   0.000000   3.705907   0.000000 )
               a(3) = (   0.000000   0.000000   3.705907 )

     reciprocal axes: (cart. coord. in units 2 pi/alat)
               b(1) = (  0.269839  0.000000  0.000000 )
               b(2) = (  0.000000  0.269839  0.000000 )
               b(3) = (  0.000000  0.000000  0.269839 )

     PseudoPot. # 1 for Cu read from file:
     /home/vossj/suncat/psp/gbrv1.5pbe/Cu.UPF
     MD5 check sum: 6e991ff952a84172a2a52a1c1e996048
     Pseudo is Ultrasoft + core correction, Zval = 19.0
     Generated by new atomic code, or converted to UPF format
     Using radial grid of  867 points,  6 beta functions with:
                l(1) =   0
                l(2) =   0
                l(3) =   1
                l(4) =   1
                l(5) =   2
                l(6) =   2
     Q(r) pseudized with  8 coefficients,  rinner =    1.150   1.150   1.150
                                                       1.150   1.150

     PseudoPot. # 2 for Al read from file:
     /home/vossj/suncat/psp/gbrv1.5pbe/Al.UPF
     MD5 check sum: 0a6289f5291fc8f409219462bc851e1f
     Pseudo is Ultrasoft + core correction, Zval =  3.0
     Generated by new atomic code, or converted to UPF format
     Using radial grid of  893 points,  3 beta functions with:
                l(1) =   0
                l(2) =   1
                l(3) =   2
     Q(r) pseudized with  8 coefficients,  rinner =    0.900   0.900   0.900
                                                       0.900   0.900

     vdW kernel table read from file vdW_kernel_table
     MD5 check sum: 095c7af220d748ca6e76c0b4c6cfb241

     atomic species   valence    mass     pseudopotential
        Cu1           19.00    63.54600     Cu( 1.00)
        Al1            3.00    26.98154     Al( 1.00)

     48 Sym. Ops., with inversion, found (32 have fractional translation)

   Cartesian axes

     site n.     atom                  positions (alat units)
         1           Cu1 tau(   1) = (   0.0000000   0.0000000   0.0000000  )
         2           Cu1 tau(   2) = (   0.0000000   1.8529537   1.8529537  )
         3           Cu1 tau(   3) = (   1.8529537   0.0000000   1.8529537  )
         4           Al1 tau(   4) = (   1.8529537   1.8529537   0.0000000  )

     number of k points=    84  Fermi-Dirac smearing, width (Ry)=  0.0073
                       cart. coord. in units 2pi/alat
        k(    1) = (   0.0000000   0.0000000   0.0000000), wk =   0.0011574
        k(    2) = (   0.0000000   0.0000000   0.0224866), wk =   0.0069444
        k(    3) = (   0.0000000   0.0000000   0.0449732), wk =   0.0069444
        k(    4) = (   0.0000000   0.0000000   0.0674599), wk =   0.0069444
        k(    5) = (   0.0000000   0.0000000   0.0899465), wk =   0.0069444
        k(    6) = (   0.0000000   0.0000000   0.1124331), wk =   0.0069444
        k(    7) = (   0.0000000   0.0000000  -0.1349197), wk =   0.0034722
        k(    8) = (   0.0000000   0.0224866   0.0224866), wk =   0.0138889
        k(    9) = (   0.0000000   0.0224866   0.0449732), wk =   0.0277778
        k(   10) = (   0.0000000   0.0224866   0.0674599), wk =   0.0277778
        k(   11) = (   0.0000000   0.0224866   0.0899465), wk =   0.0277778
        k(   12) = (   0.0000000   0.0224866   0.1124331), wk =   0.0277778
        k(   13) = (   0.0000000   0.0224866  -0.1349197), wk =   0.0138889
        k(   14) = (   0.0000000   0.0449732   0.0449732), wk =   0.0138889
        k(   15) = (   0.0000000   0.0449732   0.0674599), wk =   0.0277778
        k(   16) = (   0.0000000   0.0449732   0.0899465), wk =   0.0277778
        k(   17) = (   0.0000000   0.0449732   0.1124331), wk =   0.0277778
        k(   18) = (   0.0000000   0.0449732  -0.1349197), wk =   0.0138889
        k(   19) = (   0.0000000   0.0674599   0.0674599), wk =   0.0138889
        k(   20) = (   0.0000000   0.0674599   0.0899465), wk =   0.0277778
        k(   21) = (   0.0000000   0.0674599   0.1124331), wk =   0.0277778
        k(   22) = (   0.0000000   0.0674599  -0.1349197), wk =   0.0138889
        k(   23) = (   0.0000000   0.0899465   0.0899465), wk =   0.0138889
        k(   24) = (   0.0000000   0.0899465   0.1124331), wk =   0.0277778
        k(   25) = (   0.0000000   0.0899465  -0.1349197), wk =   0.0138889
        k(   26) = (   0.0000000   0.1124331   0.1124331), wk =   0.0138889
        k(   27) = (   0.0000000   0.1124331  -0.1349197), wk =   0.0138889
        k(   28) = (   0.0000000  -0.1349197  -0.1349197), wk =   0.0034722
        k(   29) = (   0.0224866   0.0224866   0.0224866), wk =   0.0092593
        k(   30) = (   0.0224866   0.0224866   0.0449732), wk =   0.0277778
        k(   31) = (   0.0224866   0.0224866   0.0674599), wk =   0.0277778
        k(   32) = (   0.0224866   0.0224866   0.0899465), wk =   0.0277778
        k(   33) = (   0.0224866   0.0224866   0.1124331), wk =   0.0277778
        k(   34) = (   0.0224866   0.0224866  -0.1349197), wk =   0.0138889
        k(   35) = (   0.0224866   0.0449732   0.0449732), wk =   0.0277778
        k(   36) = (   0.0224866   0.0449732   0.0674599), wk =   0.0555556
        k(   37) = (   0.0224866   0.0449732   0.0899465), wk =   0.0555556
        k(   38) = (   0.0224866   0.0449732   0.1124331), wk =   0.0555556
        k(   39) = (   0.0224866   0.0449732  -0.1349197), wk =   0.0277778
        k(   40) = (   0.0224866   0.0674599   0.0674599), wk =   0.0277778
        k(   41) = (   0.0224866   0.0674599   0.0899465), wk =   0.0555556
        k(   42) = (   0.0224866   0.0674599   0.1124331), wk =   0.0555556
        k(   43) = (   0.0224866   0.0674599  -0.1349197), wk =   0.0277778
        k(   44) = (   0.0224866   0.0899465   0.0899465), wk =   0.0277778
        k(   45) = (   0.0224866   0.0899465   0.1124331), wk =   0.0555556
        k(   46) = (   0.0224866   0.0899465  -0.1349197), wk =   0.0277778
        k(   47) = (   0.0224866   0.1124331   0.1124331), wk =   0.0277778
        k(   48) = (   0.0224866   0.1124331  -0.1349197), wk =   0.0277778
        k(   49) = (   0.0224866  -0.1349197  -0.1349197), wk =   0.0069444
        k(   50) = (   0.0449732   0.0449732   0.0449732), wk =   0.0092593
        k(   51) = (   0.0449732   0.0449732   0.0674599), wk =   0.0277778
        k(   52) = (   0.0449732   0.0449732   0.0899465), wk =   0.0277778
        k(   53) = (   0.0449732   0.0449732   0.1124331), wk =   0.0277778
        k(   54) = (   0.0449732   0.0449732  -0.1349197), wk =   0.0138889
        k(   55) = (   0.0449732   0.0674599   0.0674599), wk =   0.0277778
        k(   56) = (   0.0449732   0.0674599   0.0899465), wk =   0.0555556
        k(   57) = (   0.0449732   0.0674599   0.1124331), wk =   0.0555556
        k(   58) = (   0.0449732   0.0674599  -0.1349197), wk =   0.0277778
        k(   59) = (   0.0449732   0.0899465   0.0899465), wk =   0.0277778
        k(   60) = (   0.0449732   0.0899465   0.1124331), wk =   0.0555556
[...]
        k(   70) = (   0.0674599   0.0899465   0.1124331), wk =   0.0555556
        k(   71) = (   0.0674599   0.0899465  -0.1349197), wk =   0.0277778
        k(   72) = (   0.0674599   0.1124331   0.1124331), wk =   0.0277778
        k(   73) = (   0.0674599   0.1124331  -0.1349197), wk =   0.0277778
        k(   74) = (   0.0674599  -0.1349197  -0.1349197), wk =   0.0069444
        k(   75) = (   0.0899465   0.0899465   0.0899465), wk =   0.0092593
        k(   76) = (   0.0899465   0.0899465   0.1124331), wk =   0.0277778
        k(   77) = (   0.0899465   0.0899465  -0.1349197), wk =   0.0138889
        k(   78) = (   0.0899465   0.1124331   0.1124331), wk =   0.0277778
        k(   79) = (   0.0899465   0.1124331  -0.1349197), wk =   0.0277778
        k(   80) = (   0.0899465  -0.1349197  -0.1349197), wk =   0.0069444
        k(   81) = (   0.1124331   0.1124331   0.1124331), wk =   0.0092593
        k(   82) = (   0.1124331   0.1124331  -0.1349197), wk =   0.0138889
        k(   83) = (   0.1124331  -0.1349197  -0.1349197), wk =   0.0069444
        k(   84) = (  -0.1349197  -0.1349197  -0.1349197), wk =   0.0011574

     Largest allocated arrays     est. size (Mb)     dimensions
     Largest temporary arrays     est. size (Mb)     dimensions

     Initial potential from superposition of free atoms

     starting charge   56.99753, renormalised to   60.00000

     *
     * You are using vdW-DF for exchange-correlation in this calculation.
     * Please cite the following three references that made this development
     * possible:
     *
     *   M. Dion, H. Rydberg, E. Schroder, D. C. Langreth, and
     *   B. I. Lundqvist, Phys. Rev. Lett. 92, 246401 (2004).
     *
     *   T. Thonhauser, V. R. Cooper, S. Li, A. Puzder, P. Hyldgaard, and
     *   D. C. Langreth, Phys. Rev. B 76, 125112 (2007).
     *
     *   G. Roman-Perez and J. M. Soler, Phys. Rev. Lett. 103, 096102 (2009).
     *
     *
     * If you are using vdW-DF2, please also cite:
     *
     *   K. Lee, E. D. Murray, L. Kong, B. I. Lundqvist, and
     *   D. C. Langreth, Phys. Rev. B 82, 081101(R) (2010).
     *
     *
     * If you are calculating the stress with vdW-DF, please also cite:
     *
     *   R. Sabatini, E. Kucukbenli, B. Kolb, T. Thonhauser, and
     *   S. de Gironcoli, J. Phys.: Condens. Matter 24, 424209 (2012).
     *

     Carrying out vdW-DF run using the following parameters:

     Nqs =      20    Nr_points =    1024   r_max =   100.000
     q_mesh =
               0.00001000     0.04494208     0.09755937     0.15916263
               0.23128650     0.31572767     0.41458969     0.53033537
               0.66584808     0.82450364     1.01025438     1.22772762
               1.48234092     1.78043706     2.12944203     2.53805004
               3.01644009     3.57652955     4.23227104     5.00000000

     Gradients computed in reciprocal space

     Starting wfc are   43 randomized atomic wfcs +    7 random wfc

     Self-consistent Calculation

     iteration #  1     ecut=    58.80 Ry     beta=0.10
     Davidson diagonalization with overlap
     ethr =  1.00E-02,  avg # of iterations =  4.5

     total energy              =   -1223.16725216 Ry
     Harris-Foulkes estimate   =   -1224.70994671 Ry
     estimated scf accuracy    <      20.20248891 Ry

[...]

     negative rho (up, down):  1.091E-05 0.000E+00

[...]

     negative rho (up, down):  2.124E-06 0.000E+00

[...]

     total energy              =   -1221.81121543 Ry
     Harris-Foulkes estimate   =   -1221.81121147 Ry
     estimated scf accuracy    <          7.4E-09 Ry

     iteration # 14     ecut=    58.80 Ry     beta=0.10
     Davidson diagonalization with overlap
     ethr =  1.23E-11,  avg # of iterations =  3.0

     End of self-consistent calculation

          k = 0.0000 0.0000 0.0000 (  2601 PWs)   bands (ev):

   -99.4411 -99.4315 -99.4315 -56.8631 -56.8631 -56.8631 -56.8491 -56.8491
   -56.8491 -56.7503 -56.7503 -56.7503   3.4310   8.5524   9.1073   9.1073
     9.3471   9.3471   9.3471  10.6253  10.6253  10.6253  11.1815  11.1815
    11.4018  11.6314  11.6314  11.6314  13.4760  13.4760  13.4760  17.9093
    17.9093  18.3187  23.7925  23.7925  23.7925  25.2207  25.2207  25.2207
    26.3975  26.3975  26.3975  30.4692  30.4734  30.4734  34.5521  35.9885
    35.9885  35.9885

[...]

          k = 0.1124-0.1349-0.1349 (  2576 PWs)   bands (ev):

[...]

          k =-0.1349-0.1349-0.1349 (  2608 PWs)   bands (ev):

   -99.4347 -99.4347 -99.4347 -56.8756 -56.8756 -56.8756 -56.8305 -56.8305
   -56.8305 -56.8020 -56.7350 -56.7350   7.4771   8.8442   8.8442   8.8442
    10.1678  10.1678  10.1678  10.6956  10.6956  10.6956  10.8201  10.8201
    10.9193  10.9193  10.9193  11.4704  11.4704  11.4704  12.5054  14.6828
    15.3343  15.3343  15.3343  29.9100  29.9100  30.5750  30.5750  30.5750
    33.0764  33.0764  33.0764  33.3418  33.3418  33.3418  33.4640  33.5226
    33.5226  33.5226

     the Fermi energy is    13.6906 ev

!    total energy              =   -1221.81123201 Ry
     Harris-Foulkes estimate   =   -1221.81121543 Ry
     estimated scf accuracy    <          5.9E-09 Ry

     The total energy is the sum of the following terms:

     one-electron contribution =    -956.66117344 Ry
     hartree contribution      =     510.48093433 Ry
     xc contribution           =    -124.59363796 Ry
     ewald contribution        =    -651.03458821 Ry
     smearing contrib. (-TS)   =      -0.00276673 Ry

     convergence has been achieved in  14 iterations

     Forces acting on atoms (Ry/au):

     atom    1 type  1   force =     0.00000000    0.00000000    0.00000000
     atom    2 type  1   force =     0.00000000   -0.00000000    0.00000000
     atom    3 type  1   force =     0.00000000    0.00000000    0.00000000
     atom    4 type  2   force =     0.00000000    0.00000000    0.00000000

     Total force =     0.000000     Total SCF correction =     0.000000
 !ASE

     General routines

     Parallel routines

   This run was terminated on:  20:25: 2  25Oct2017

   JOB DONE.