     Program PWSCF v.5.1rc2 (svn rev. ) starts on 27Jan2018 at 12:15:16

     Current dimensions of program PWSCF are:
     Max number of different atomic species (ntypx) = 10
     Max number of k-points (npk) =  40000
     Max angular momentum in pseudopotentials (lmaxx) =  3

     IMPORTANT: XC functional enforced from input :
     Exchange-correlation      = BEEF-VDW ( 1  4 27 13 2)
     Any further DFT definition will be discarded
     Please, verify this is what you really want

     Subspace diagonalization in iterative solution of the eigenvalue problem:
     a serial algorithm will be used

     Found symmetry operation: I + ( -0.5000 -0.5000 -0.5000)
     This is a supercell, fractional translations are disabled

     bravais-lattice index     =            0
     lattice parameter (alat)  =       1.8897  a.u.
     unit-cell volume          =     350.6638 (a.u.)^3
     number of atoms/cell      =            2
     number of atomic types    =            1
     number of electrons       =        26.00
     number of Kohn-Sham states=           23
     kinetic-energy cutoff     =      58.7989  Ry
     charge density cutoff     =     587.9892  Ry
     convergence threshold     =      7.3E-07
     mixing beta               =       0.2000
     number of iterations used =           10  plain     mixing
     Exchange-correlation      = BEEF-VDW ( 1  4 27 13 2)

     celldm(1)=   1.889726  celldm(2)=   0.000000  celldm(3)=   0.000000
     celldm(4)=   0.000000  celldm(5)=   0.000000  celldm(6)=   0.000000

     crystal axes: (cart. coord. in units of alat)
               a(1) = (   3.731626   0.000000   0.000000 )
               a(2) = (   0.000000   3.731626   0.000000 )
               a(3) = (   0.000000   0.000000   3.731626 )

     reciprocal axes: (cart. coord. in units 2 pi/alat)
               b(1) = (  0.267980  0.000000  0.000000 )
               b(2) = (  0.000000  0.267980  0.000000 )
               b(3) = (  0.000000  0.000000  0.267980 )

     PseudoPot. # 1 for Nb read from file:
     /home/vossj/suncat/psp/gbrv1.5pbe/Nb.UPF
     MD5 check sum: 573aab8a2fa660278ed4a62cd769473f
     Pseudo is Ultrasoft + core correction, Zval = 13.0
     Generated by new atomic code, or converted to UPF format
     Using radial grid of  887 points,  6 beta functions with:
                l(1) =   0
                l(2) =   0
                l(3) =   1
                l(4) =   1
                l(5) =   2
                l(6) =   2
     Q(r) pseudized with  6 coefficients,  rinner =    1.000   1.000   1.000
                                                       1.000   1.000

     vdW kernel table read from file vdW_kernel_table
     MD5 check sum: 095c7af220d748ca6e76c0b4c6cfb241

     atomic species   valence    mass     pseudopotential
        Nb1           13.00    92.90637     Nb( 1.00)

     48 Sym. Ops., with inversion, found

   Cartesian axes

     site n.     atom                  positions (alat units)
         1           Nb1 tau(   1) = (   0.0000000   0.0000000   0.0000000  )
         2           Nb1 tau(   2) = (   1.8658130   1.8658130   1.8658130  )

     number of k points=    84  Fermi-Dirac smearing, width (Ry)=  0.0073
                       cart. coord. in units 2pi/alat
        k(    1) = (   0.0000000   0.0000000   0.0000000), wk =   0.0011574
        k(    2) = (   0.0000000   0.0000000   0.0223316), wk =   0.0069444
        k(    3) = (   0.0000000   0.0000000   0.0446633), wk =   0.0069444
        k(    4) = (   0.0000000   0.0000000   0.0669949), wk =   0.0069444
        k(    5) = (   0.0000000   0.0000000   0.0893266), wk =   0.0069444
        k(    6) = (   0.0000000   0.0000000   0.1116582), wk =   0.0069444
        k(    7) = (   0.0000000   0.0000000  -0.1339898), wk =   0.0034722
        k(    8) = (   0.0000000   0.0223316   0.0223316), wk =   0.0138889
        k(    9) = (   0.0000000   0.0223316   0.0446633), wk =   0.0277778
        k(   10) = (   0.0000000   0.0223316   0.0669949), wk =   0.0277778
        k(   11) = (   0.0000000   0.0223316   0.0893266), wk =   0.0277778
        k(   12) = (   0.0000000   0.0223316   0.1116582), wk =   0.0277778
        k(   13) = (   0.0000000   0.0223316  -0.1339898), wk =   0.0138889
        k(   14) = (   0.0000000   0.0446633   0.0446633), wk =   0.0138889
        k(   15) = (   0.0000000   0.0446633   0.0669949), wk =   0.0277778
        k(   16) = (   0.0000000   0.0446633   0.0893266), wk =   0.0277778
        k(   17) = (   0.0000000   0.0446633   0.1116582), wk =   0.0277778
        k(   18) = (   0.0000000   0.0446633  -0.1339898), wk =   0.0138889
        k(   19) = (   0.0000000   0.0669949   0.0669949), wk =   0.0138889
        k(   20) = (   0.0000000   0.0669949   0.0893266), wk =   0.0277778
        k(   21) = (   0.0000000   0.0669949   0.1116582), wk =   0.0277778
        k(   22) = (   0.0000000   0.0669949  -0.1339898), wk =   0.0138889
        k(   23) = (   0.0000000   0.0893266   0.0893266), wk =   0.0138889
        k(   24) = (   0.0000000   0.0893266   0.1116582), wk =   0.0277778
        k(   25) = (   0.0000000   0.0893266  -0.1339898), wk =   0.0138889
        k(   26) = (   0.0000000   0.1116582   0.1116582), wk =   0.0138889
        k(   27) = (   0.0000000   0.1116582  -0.1339898), wk =   0.0138889
        k(   28) = (   0.0000000  -0.1339898  -0.1339898), wk =   0.0034722
        k(   29) = (   0.0223316   0.0223316   0.0223316), wk =   0.0092593
        k(   30) = (   0.0223316   0.0223316   0.0446633), wk =   0.0277778
        k(   31) = (   0.0223316   0.0223316   0.0669949), wk =   0.0277778
        k(   32) = (   0.0223316   0.0223316   0.0893266), wk =   0.0277778
        k(   33) = (   0.0223316   0.0223316   0.1116582), wk =   0.0277778
        k(   34) = (   0.0223316   0.0223316  -0.1339898), wk =   0.0138889
        k(   35) = (   0.0223316   0.0446633   0.0446633), wk =   0.0277778
        k(   36) = (   0.0223316   0.0446633   0.0669949), wk =   0.0555556
        k(   37) = (   0.0223316   0.0446633   0.0893266), wk =   0.0555556
        k(   38) = (   0.0223316   0.0446633   0.1116582), wk =   0.0555556
        k(   39) = (   0.0223316   0.0446633  -0.1339898), wk =   0.0277778
        k(   40) = (   0.0223316   0.0669949   0.0669949), wk =   0.0277778
        k(   41) = (   0.0223316   0.0669949   0.0893266), wk =   0.0555556
        k(   42) = (   0.0223316   0.0669949   0.1116582), wk =   0.0555556
        k(   43) = (   0.0223316   0.0669949  -0.1339898), wk =   0.0277778
        k(   44) = (   0.0223316   0.0893266   0.0893266), wk =   0.0277778
        k(   45) = (   0.0223316   0.0893266   0.1116582), wk =   0.0555556
        k(   46) = (   0.0223316   0.0893266  -0.1339898), wk =   0.0277778
        k(   47) = (   0.0223316   0.1116582   0.1116582), wk =   0.0277778
        k(   48) = (   0.0223316   0.1116582  -0.1339898), wk =   0.0277778
        k(   49) = (   0.0223316  -0.1339898  -0.1339898), wk =   0.0069444
        k(   50) = (   0.0446633   0.0446633   0.0446633), wk =   0.0092593
        k(   51) = (   0.0446633   0.0446633   0.0669949), wk =   0.0277778
        k(   52) = (   0.0446633   0.0446633   0.0893266), wk =   0.0277778
        k(   53) = (   0.0446633   0.0446633   0.1116582), wk =   0.0277778
        k(   54) = (   0.0446633   0.0446633  -0.1339898), wk =   0.0138889
        k(   55) = (   0.0446633   0.0669949   0.0669949), wk =   0.0277778
        k(   56) = (   0.0446633   0.0669949   0.0893266), wk =   0.0555556
        k(   57) = (   0.0446633   0.0669949   0.1116582), wk =   0.0555556
        k(   58) = (   0.0446633   0.0669949  -0.1339898), wk =   0.0277778
        k(   59) = (   0.0446633   0.0893266   0.0893266), wk =   0.0277778
        k(   60) = (   0.0446633   0.0893266   0.1116582), wk =   0.0555556
[...]
        k(   70) = (   0.0669949   0.0893266   0.1116582), wk =   0.0555556
        k(   71) = (   0.0669949   0.0893266  -0.1339898), wk =   0.0277778
        k(   72) = (   0.0669949   0.1116582   0.1116582), wk =   0.0277778
        k(   73) = (   0.0669949   0.1116582  -0.1339898), wk =   0.0277778
        k(   74) = (   0.0669949  -0.1339898  -0.1339898), wk =   0.0069444
        k(   75) = (   0.0893266   0.0893266   0.0893266), wk =   0.0092593
        k(   76) = (   0.0893266   0.0893266   0.1116582), wk =   0.0277778
        k(   77) = (   0.0893266   0.0893266  -0.1339898), wk =   0.0138889
        k(   78) = (   0.0893266   0.1116582   0.1116582), wk =   0.0277778
        k(   79) = (   0.0893266   0.1116582  -0.1339898), wk =   0.0277778
        k(   80) = (   0.0893266  -0.1339898  -0.1339898), wk =   0.0069444
        k(   81) = (   0.1116582   0.1116582   0.1116582), wk =   0.0092593
        k(   82) = (   0.1116582   0.1116582  -0.1339898), wk =   0.0138889
        k(   83) = (   0.1116582  -0.1339898  -0.1339898), wk =   0.0069444
        k(   84) = (  -0.1339898  -0.1339898  -0.1339898), wk =   0.0011574

     Largest allocated arrays     est. size (Mb)     dimensions
     Largest temporary arrays     est. size (Mb)     dimensions

     Initial potential from superposition of free atoms

     starting charge   25.99453, renormalised to   26.00000

     *
     * You are using vdW-DF for exchange-correlation in this calculation.
     * Please cite the following three references that made this development
     * possible:
     *
     *   M. Dion, H. Rydberg, E. Schroder, D. C. Langreth, and
     *   B. I. Lundqvist, Phys. Rev. Lett. 92, 246401 (2004).
     *
     *   T. Thonhauser, V. R. Cooper, S. Li, A. Puzder, P. Hyldgaard, and
     *   D. C. Langreth, Phys. Rev. B 76, 125112 (2007).
     *
     *   G. Roman-Perez and J. M. Soler, Phys. Rev. Lett. 103, 096102 (2009).
     *
     *
     * If you are using vdW-DF2, please also cite:
     *
     *   K. Lee, E. D. Murray, L. Kong, B. I. Lundqvist, and
     *   D. C. Langreth, Phys. Rev. B 82, 081101(R) (2010).
     *
     *
     * If you are calculating the stress with vdW-DF, please also cite:
     *
     *   R. Sabatini, E. Kucukbenli, B. Kolb, T. Thonhauser, and
     *   S. de Gironcoli, J. Phys.: Condens. Matter 24, 424209 (2012).
     *

     Carrying out vdW-DF run using the following parameters:

     Nqs =      20    Nr_points =    1024   r_max =   100.000
     q_mesh =
               0.00001000     0.04494208     0.09755937     0.15916263
               0.23128650     0.31572767     0.41458969     0.53033537
               0.66584808     0.82450364     1.01025438     1.22772762
               1.48234092     1.78043706     2.12944203     2.53805004
               3.01644009     3.57652955     4.23227104     5.00000000

     Gradients computed in reciprocal space

     Starting wfc are   26 randomized atomic wfcs

     Self-consistent Calculation

     iteration #  1     ecut=    58.80 Ry     beta=0.20
     Davidson diagonalization with overlap
     ethr =  1.00E-02,  avg # of iterations =  3.5

     Threshold (ethr) on eigenvalues was too large:
     Diagonalizing with lowered threshold

     Davidson diagonalization with overlap
     ethr =  9.26E-04,  avg # of iterations =  1.2

     total energy              =    -237.03782901 Ry
     Harris-Foulkes estimate   =    -237.08906168 Ry
     estimated scf accuracy    <       0.24768942 Ry

[...]

     total energy              =    -237.02149238 Ry
     Harris-Foulkes estimate   =    -237.02149730 Ry
     estimated scf accuracy    <       0.00001535 Ry

     iteration #  8     ecut=    58.80 Ry     beta=0.20
     Davidson diagonalization with overlap
     ethr =  5.90E-08,  avg # of iterations =  2.0

     End of self-consistent calculation

          k = 0.0000 0.0000 0.0000 (  2721 PWs)   bands (ev):

   -44.0406 -43.9537 -20.0326 -20.0326 -20.0326 -19.7532 -19.7532 -19.7532
     6.3158   9.1901   9.1901  11.5669  11.5669  11.5669  13.4144  13.4144
    14.6134  14.6134  14.6134  17.8448  17.8448  17.8448  23.6856

[...]

          k = 0.1117-0.1340-0.1340 (  2652 PWs)   bands (ev):

[...]

          k =-0.1340-0.1340-0.1340 (  2608 PWs)   bands (ev):

   -43.9882 -43.9881 -19.9428 -19.9428 -19.9428 -19.9428 -19.9428 -19.9428
    10.4565  10.4565  10.4565  10.4565  10.4565  10.4565  13.7951  13.7951
    13.7951  13.7951  17.4211  17.4211  19.5411  19.5411  19.5411

     the Fermi energy is    11.2942 ev

!    total energy              =    -237.02149710 Ry
     Harris-Foulkes estimate   =    -237.02149554 Ry
     estimated scf accuracy    <       0.00000041 Ry

     The total energy is the sum of the following terms:

     one-electron contribution =     -64.70320693 Ry
     hartree contribution      =      39.74624253 Ry
     xc contribution           =     -37.62033557 Ry
     ewald contribution        =    -174.43339799 Ry
     smearing contrib. (-TS)   =      -0.01079914 Ry

     convergence has been achieved in   8 iterations

     Forces acting on atoms (Ry/au):

     atom    1 type  1   force =     0.00000000    0.00000000   -0.00000000
     atom    2 type  1   force =     0.00000000    0.00000000    0.00000000

     Total force =     0.000000     Total SCF correction =     0.000000

     General routines

     Parallel routines

   This run was terminated on:  12:15:30  27Jan2018

   JOB DONE.