     Program PWSCF v.5.1rc2 (svn rev. ) starts on 25Oct2017 at 17: 4: 1

     Current dimensions of program PWSCF are:
     Max number of different atomic species (ntypx) = 10
     Max number of k-points (npk) =  40000
     Max angular momentum in pseudopotentials (lmaxx) =  3

     IMPORTANT: XC functional enforced from input :
     Exchange-correlation      = BEEF-VDW ( 1  4 27 13 2)
     Any further DFT definition will be discarded
     Please, verify this is what you really want

     Subspace diagonalization in iterative solution of the eigenvalue problem:
     a serial algorithm will be used

     bravais-lattice index     =            0
     lattice parameter (alat)  =       1.8897  a.u.
     unit-cell volume          =     479.2826 (a.u.)^3
     number of atoms/cell      =            4
     number of atomic types    =            2
     number of electrons       =        59.00
     number of Kohn-Sham states=           49
     kinetic-energy cutoff     =      58.7989  Ry
     charge density cutoff     =     587.9892  Ry
     convergence threshold     =      7.3E-09
     mixing beta               =       0.1000
     number of iterations used =           10  local-TF  mixing
     Exchange-correlation      = BEEF-VDW ( 1  4 27 13 2)
     nstep                     =           50

     celldm(1)=   1.889726  celldm(2)=   0.000000  celldm(3)=   0.000000
     celldm(4)=   0.000000  celldm(5)=   0.000000  celldm(6)=   0.000000

     crystal axes: (cart. coord. in units of alat)
               a(1) = (   4.141252   0.000000   0.000000 )
               a(2) = (   0.000000   4.141252   0.000000 )
               a(3) = (   0.000000   0.000000   4.141252 )

     reciprocal axes: (cart. coord. in units 2 pi/alat)
               b(1) = (  0.241473  0.000000  0.000000 )
               b(2) = (  0.000000  0.241473  0.000000 )
               b(3) = (  0.000000  0.000000  0.241473 )

     PseudoPot. # 1 for Ru read from file:
     /home/vossj/suncat/psp/gbrv1.5pbe/Ru.UPF
     MD5 check sum: 7158a806dd851261a58e6920c40ebe78
     Pseudo is Ultrasoft + core correction, Zval = 16.0
     Generated by new atomic code, or converted to UPF format
     Using radial grid of  967 points,  6 beta functions with:
                l(1) =   0
                l(2) =   0
                l(3) =   1
                l(4) =   1
                l(5) =   2
                l(6) =   2
     Q(r) pseudized with  8 coefficients,  rinner =    1.300   1.300   1.300
                                                       1.300   1.300

     PseudoPot. # 2 for La read from file:
     /home/vossj/suncat/psp/gbrv1.5pbe/La.UPF
     MD5 check sum: 5937b0c7494ba0601a847275249473aa
     Pseudo is Ultrasoft + core correction, Zval = 11.0
     Generated by new atomic code, or converted to UPF format
     Using radial grid of  995 points,  8 beta functions with:
                l(1) =   0
                l(2) =   0
                l(3) =   1
                l(4) =   1
                l(5) =   2
                l(6) =   2
                l(7) =   3
                l(8) =   3
     Q(r) pseudized with  8 coefficients,  rinner =    1.700   1.700   1.700
                                                       1.700   1.700   1.700
                                                       1.700

     vdW kernel table read from file vdW_kernel_table
     MD5 check sum: 095c7af220d748ca6e76c0b4c6cfb241

     atomic species   valence    mass     pseudopotential
        Ru1           16.00   101.07000     Ru( 1.00)
        La1           11.00   138.90547     La( 1.00)

     48 Sym. Ops., with inversion, found (32 have fractional translation)

   Cartesian axes

     site n.     atom                  positions (alat units)
         1           Ru1 tau(   1) = (   0.0000000   0.0000000   0.0000000  )
         2           Ru1 tau(   2) = (   0.0000000   2.0706261   2.0706261  )
         3           Ru1 tau(   3) = (   2.0706261   0.0000000   2.0706261  )
         4           La1 tau(   4) = (   2.0706261   2.0706261   0.0000000  )

     number of k points=    84  Fermi-Dirac smearing, width (Ry)=  0.0073
                       cart. coord. in units 2pi/alat
        k(    1) = (   0.0000000   0.0000000   0.0000000), wk =   0.0011574
        k(    2) = (   0.0000000   0.0000000   0.0201227), wk =   0.0069444
        k(    3) = (   0.0000000   0.0000000   0.0402455), wk =   0.0069444
        k(    4) = (   0.0000000   0.0000000   0.0603682), wk =   0.0069444
        k(    5) = (   0.0000000   0.0000000   0.0804910), wk =   0.0069444
        k(    6) = (   0.0000000   0.0000000   0.1006137), wk =   0.0069444
        k(    7) = (   0.0000000   0.0000000  -0.1207364), wk =   0.0034722
        k(    8) = (   0.0000000   0.0201227   0.0201227), wk =   0.0138889
        k(    9) = (   0.0000000   0.0201227   0.0402455), wk =   0.0277778
        k(   10) = (   0.0000000   0.0201227   0.0603682), wk =   0.0277778
        k(   11) = (   0.0000000   0.0201227   0.0804910), wk =   0.0277778
        k(   12) = (   0.0000000   0.0201227   0.1006137), wk =   0.0277778
        k(   13) = (   0.0000000   0.0201227  -0.1207364), wk =   0.0138889
        k(   14) = (   0.0000000   0.0402455   0.0402455), wk =   0.0138889
        k(   15) = (   0.0000000   0.0402455   0.0603682), wk =   0.0277778
        k(   16) = (   0.0000000   0.0402455   0.0804910), wk =   0.0277778
        k(   17) = (   0.0000000   0.0402455   0.1006137), wk =   0.0277778
        k(   18) = (   0.0000000   0.0402455  -0.1207364), wk =   0.0138889
        k(   19) = (   0.0000000   0.0603682   0.0603682), wk =   0.0138889
        k(   20) = (   0.0000000   0.0603682   0.0804910), wk =   0.0277778
        k(   21) = (   0.0000000   0.0603682   0.1006137), wk =   0.0277778
        k(   22) = (   0.0000000   0.0603682  -0.1207364), wk =   0.0138889
        k(   23) = (   0.0000000   0.0804910   0.0804910), wk =   0.0138889
        k(   24) = (   0.0000000   0.0804910   0.1006137), wk =   0.0277778
        k(   25) = (   0.0000000   0.0804910  -0.1207364), wk =   0.0138889
        k(   26) = (   0.0000000   0.1006137   0.1006137), wk =   0.0138889
        k(   27) = (   0.0000000   0.1006137  -0.1207364), wk =   0.0138889
        k(   28) = (   0.0000000  -0.1207364  -0.1207364), wk =   0.0034722
        k(   29) = (   0.0201227   0.0201227   0.0201227), wk =   0.0092593
        k(   30) = (   0.0201227   0.0201227   0.0402455), wk =   0.0277778
        k(   31) = (   0.0201227   0.0201227   0.0603682), wk =   0.0277778
        k(   32) = (   0.0201227   0.0201227   0.0804910), wk =   0.0277778
        k(   33) = (   0.0201227   0.0201227   0.1006137), wk =   0.0277778
        k(   34) = (   0.0201227   0.0201227  -0.1207364), wk =   0.0138889
        k(   35) = (   0.0201227   0.0402455   0.0402455), wk =   0.0277778
        k(   36) = (   0.0201227   0.0402455   0.0603682), wk =   0.0555556
        k(   37) = (   0.0201227   0.0402455   0.0804910), wk =   0.0555556
        k(   38) = (   0.0201227   0.0402455   0.1006137), wk =   0.0555556
        k(   39) = (   0.0201227   0.0402455  -0.1207364), wk =   0.0277778
        k(   40) = (   0.0201227   0.0603682   0.0603682), wk =   0.0277778
        k(   41) = (   0.0201227   0.0603682   0.0804910), wk =   0.0555556
        k(   42) = (   0.0201227   0.0603682   0.1006137), wk =   0.0555556
        k(   43) = (   0.0201227   0.0603682  -0.1207364), wk =   0.0277778
        k(   44) = (   0.0201227   0.0804910   0.0804910), wk =   0.0277778
        k(   45) = (   0.0201227   0.0804910   0.1006137), wk =   0.0555556
        k(   46) = (   0.0201227   0.0804910  -0.1207364), wk =   0.0277778
        k(   47) = (   0.0201227   0.1006137   0.1006137), wk =   0.0277778
        k(   48) = (   0.0201227   0.1006137  -0.1207364), wk =   0.0277778
        k(   49) = (   0.0201227  -0.1207364  -0.1207364), wk =   0.0069444
        k(   50) = (   0.0402455   0.0402455   0.0402455), wk =   0.0092593
        k(   51) = (   0.0402455   0.0402455   0.0603682), wk =   0.0277778
        k(   52) = (   0.0402455   0.0402455   0.0804910), wk =   0.0277778
        k(   53) = (   0.0402455   0.0402455   0.1006137), wk =   0.0277778
        k(   54) = (   0.0402455   0.0402455  -0.1207364), wk =   0.0138889
        k(   55) = (   0.0402455   0.0603682   0.0603682), wk =   0.0277778
        k(   56) = (   0.0402455   0.0603682   0.0804910), wk =   0.0555556
        k(   57) = (   0.0402455   0.0603682   0.1006137), wk =   0.0555556
        k(   58) = (   0.0402455   0.0603682  -0.1207364), wk =   0.0277778
        k(   59) = (   0.0402455   0.0804910   0.0804910), wk =   0.0277778
        k(   60) = (   0.0402455   0.0804910   0.1006137), wk =   0.0555556
[...]
        k(   70) = (   0.0603682   0.0804910   0.1006137), wk =   0.0555556
        k(   71) = (   0.0603682   0.0804910  -0.1207364), wk =   0.0277778
        k(   72) = (   0.0603682   0.1006137   0.1006137), wk =   0.0277778
        k(   73) = (   0.0603682   0.1006137  -0.1207364), wk =   0.0277778
        k(   74) = (   0.0603682  -0.1207364  -0.1207364), wk =   0.0069444
        k(   75) = (   0.0804910   0.0804910   0.0804910), wk =   0.0092593
        k(   76) = (   0.0804910   0.0804910   0.1006137), wk =   0.0277778
        k(   77) = (   0.0804910   0.0804910  -0.1207364), wk =   0.0138889
        k(   78) = (   0.0804910   0.1006137   0.1006137), wk =   0.0277778
        k(   79) = (   0.0804910   0.1006137  -0.1207364), wk =   0.0277778
        k(   80) = (   0.0804910  -0.1207364  -0.1207364), wk =   0.0069444
        k(   81) = (   0.1006137   0.1006137   0.1006137), wk =   0.0092593
        k(   82) = (   0.1006137   0.1006137  -0.1207364), wk =   0.0138889
        k(   83) = (   0.1006137  -0.1207364  -0.1207364), wk =   0.0069444
        k(   84) = (  -0.1207364  -0.1207364  -0.1207364), wk =   0.0011574

     Largest allocated arrays     est. size (Mb)     dimensions
     Largest temporary arrays     est. size (Mb)     dimensions

     Initial potential from superposition of free atoms
     Check: negative starting charge=   -0.292461

     starting charge   55.96788, renormalised to   59.00000

     negative rho (up, down):  3.083E-01 0.000E+00

     *
     * You are using vdW-DF for exchange-correlation in this calculation.
     * Please cite the following three references that made this development
     * possible:
     *
     *   M. Dion, H. Rydberg, E. Schroder, D. C. Langreth, and
     *   B. I. Lundqvist, Phys. Rev. Lett. 92, 246401 (2004).
     *
     *   T. Thonhauser, V. R. Cooper, S. Li, A. Puzder, P. Hyldgaard, and
     *   D. C. Langreth, Phys. Rev. B 76, 125112 (2007).
     *
     *   G. Roman-Perez and J. M. Soler, Phys. Rev. Lett. 103, 096102 (2009).
     *
     *
     * If you are using vdW-DF2, please also cite:
     *
     *   K. Lee, E. D. Murray, L. Kong, B. I. Lundqvist, and
     *   D. C. Langreth, Phys. Rev. B 82, 081101(R) (2010).
     *
     *
     * If you are calculating the stress with vdW-DF, please also cite:
     *
     *   R. Sabatini, E. Kucukbenli, B. Kolb, T. Thonhauser, and
     *   S. de Gironcoli, J. Phys.: Condens. Matter 24, 424209 (2012).
     *

     Carrying out vdW-DF run using the following parameters:

     Nqs =      20    Nr_points =    1024   r_max =   100.000
     q_mesh =
               0.00001000     0.04494208     0.09755937     0.15916263
               0.23128650     0.31572767     0.41458969     0.53033537
               0.66584808     0.82450364     1.01025438     1.22772762
               1.48234092     1.78043706     2.12944203     2.53805004
               3.01644009     3.57652955     4.23227104     5.00000000

     Gradients computed in reciprocal space

     Starting wfc are   59 randomized atomic wfcs

     Self-consistent Calculation

     iteration #  1     ecut=    58.80 Ry     beta=0.10
     Davidson diagonalization with overlap
     ethr =  1.00E-02,  avg # of iterations =  2.5

[...]

     total energy              =    -690.24225113 Ry
     Harris-Foulkes estimate   =    -690.64081655 Ry
     estimated scf accuracy    <       6.82231806 Ry

[...]

     total energy              =    -689.38482031 Ry
     Harris-Foulkes estimate   =    -689.38481582 Ry
     estimated scf accuracy    <          8.6E-09 Ry

     iteration # 15     ecut=    58.80 Ry     beta=0.10
     Davidson diagonalization with overlap
     ethr =  1.38E-11,  avg # of iterations =  1.0

     negative rho (up, down):  2.601E-01 0.000E+00

     End of self-consistent calculation

          k = 0.0000 0.0000 0.0000 (  3743 PWs)   bands (ev):

   -53.7552 -53.6979 -53.6979 -23.8820 -23.8820 -23.8820 -23.6483 -23.6483
   -23.6483 -23.5812 -23.5812 -23.5812 -12.5256   3.7383   3.7383   3.7383
    13.1563  14.0524  14.0524  14.6948  14.6948  14.6948  14.9120  17.3265
    17.3265  17.3265  18.8624  18.8624  19.7440  20.1437  20.1437  20.1437
    22.0638  22.0638  22.0638  22.5609  22.5609  22.5609  22.7778  23.7568
    23.7568  24.4178  24.4178  24.4178  26.6690  26.6690  26.6690  30.3493
    30.3493

[...]

          k = 0.1006-0.1207-0.1207 (  3624 PWs)   bands (ev):

[...]

          k =-0.1207-0.1207-0.1207 (  3648 PWs)   bands (ev):

   -53.7167 -53.7167 -53.7167 -24.0143 -23.8068 -23.8068 -23.8068 -23.6453
   -23.6453 -23.5462 -23.5462 -23.5462 -12.4618   3.4580   3.4580   3.4580
    14.2457  14.2457  14.2457  15.6822  16.6972  16.6972  16.6972  17.2841
    17.2841  17.2841  17.7425  17.7425  19.0653  19.7922  19.7922  19.7922
    21.9670  21.9670  21.9670  22.7221  22.7221  22.7221  22.8742  22.8742
    22.8742  23.2149  23.4580  23.4580  23.4580  25.9949  25.9949  31.2971
    31.2971

     the Fermi energy is    18.3501 ev

!    total energy              =    -689.38483944 Ry
     Harris-Foulkes estimate   =    -689.38482031 Ry
     estimated scf accuracy    <          5.5E-09 Ry

     The total energy is the sum of the following terms:

     one-electron contribution =    -160.65282639 Ry
     hartree contribution      =     118.35522344 Ry
     xc contribution           =    -131.82312513 Ry
     ewald contribution        =    -515.24911077 Ry
     smearing contrib. (-TS)   =      -0.01500058 Ry

     convergence has been achieved in  15 iterations

     Forces acting on atoms (Ry/au):

     negative rho (up, down):  2.601E-01 0.000E+00
     atom    1 type  1   force =     0.00000000    0.00000000    0.00000000
     atom    2 type  1   force =     0.00000000   -0.00000000    0.00000000
     atom    3 type  1   force =     0.00000000    0.00000000    0.00000000
     atom    4 type  2   force =     0.00000000    0.00000000    0.00000000

     Total force =     0.000000     Total SCF correction =     0.000000
 !ASE

     General routines

     Parallel routines

   This run was terminated on:  17: 5:16  25Oct2017

   JOB DONE.