     Program PWSCF v.5.1rc2 (svn rev. ) starts on 18Feb2018 at 16:19:38

     Current dimensions of program PWSCF are:
     Max number of different atomic species (ntypx) = 10
     Max number of k-points (npk) =  40000
     Max angular momentum in pseudopotentials (lmaxx) =  3

     IMPORTANT: XC functional enforced from input :
     Exchange-correlation      = BEEF-VDW ( 1  4 27 13 2)
     Any further DFT definition will be discarded
     Please, verify this is what you really want

     Subspace diagonalization in iterative solution of the eigenvalue problem:
     a serial algorithm will be used

     bravais-lattice index     =            0
     lattice parameter (alat)  =       1.8897  a.u.
     unit-cell volume          =     455.5499 (a.u.)^3
     number of atoms/cell      =            4
     number of atomic types    =            2
     number of electrons       =        63.00
     number of Kohn-Sham states=           51
     kinetic-energy cutoff     =      58.7989  Ry
     charge density cutoff     =     587.9892  Ry
     convergence threshold     =      7.3E-09
     mixing beta               =       0.1000
     number of iterations used =           10  local-TF  mixing
     Exchange-correlation      = BEEF-VDW ( 1  4 27 13 2)
     nstep                     =           50

     celldm(1)=   1.889726  celldm(2)=   0.000000  celldm(3)=   0.000000
     celldm(4)=   0.000000  celldm(5)=   0.000000  celldm(6)=   0.000000

     crystal axes: (cart. coord. in units of alat)
               a(1) = (   4.071738   0.000000   0.000000 )
               a(2) = (   0.000000   4.071738   0.000000 )
               a(3) = (   0.000000   0.000000   4.071738 )

     reciprocal axes: (cart. coord. in units 2 pi/alat)
               b(1) = (  0.245595  0.000000  0.000000 )
               b(2) = (  0.000000  0.245595  0.000000 )
               b(3) = (  0.000000  0.000000  0.245595 )

     PseudoPot. # 1 for Os read from file:
     /home/mamunm/src/pseudo/gbrv1.5pbe/Os.UPF
     MD5 check sum: a3fb40a04f0c37c25c34bbc47164c9a8
     Pseudo is Ultrasoft + core correction, Zval = 16.0
     Generated by new atomic code, or converted to UPF format
     Using radial grid of  983 points,  8 beta functions with:
                l(1) =   0
                l(2) =   0
                l(3) =   1
                l(4) =   1
                l(5) =   2
                l(6) =   2
                l(7) =   3
                l(8) =   3
     Q(r) pseudized with  8 coefficients,  rinner =    1.150   1.150   1.150
                                                       1.150   1.150   1.150
                                                       1.150

     PseudoPot. # 2 for Bi read from file:
     /home/mamunm/src/pseudo/gbrv1.5pbe/Bi.UPF
     MD5 check sum: 81103212dc04adf40945787f699eab19
     Pseudo is Ultrasoft + core correction, Zval = 15.0
     Generated by new atomic code, or converted to UPF format
     Using radial grid of  899 points,  6 beta functions with:
                l(1) =   0
                l(2) =   0
                l(3) =   1
                l(4) =   1
                l(5) =   2
                l(6) =   2
     Q(r) pseudized with  6 coefficients,  rinner =    1.000   1.000   1.000
                                                       1.000   1.000

     vdW kernel table read from file vdW_kernel_table
     MD5 check sum: 095c7af220d748ca6e76c0b4c6cfb241

     atomic species   valence    mass     pseudopotential
        Os1           16.00   190.23000     Os( 1.00)
        Bi1           15.00   208.98040     Bi( 1.00)

     48 Sym. Ops., with inversion, found (32 have fractional translation)

   Cartesian axes

     site n.     atom                  positions (alat units)
         1           Os1 tau(   1) = (   0.0000000   0.0000000   0.0000000  )
         2           Os1 tau(   2) = (   0.0000000   2.0358689   2.0358689  )
         3           Os1 tau(   3) = (   2.0358689   0.0000000   2.0358689  )
         4           Bi1 tau(   4) = (   2.0358689   2.0358689   0.0000000  )

     number of k points=    84  Fermi-Dirac smearing, width (Ry)=  0.0073
                       cart. coord. in units 2pi/alat
        k(    1) = (   0.0000000   0.0000000   0.0000000), wk =   0.0011574
        k(    2) = (   0.0000000   0.0000000   0.0204663), wk =   0.0069444
        k(    3) = (   0.0000000   0.0000000   0.0409326), wk =   0.0069444
        k(    4) = (   0.0000000   0.0000000   0.0613988), wk =   0.0069444
        k(    5) = (   0.0000000   0.0000000   0.0818651), wk =   0.0069444
        k(    6) = (   0.0000000   0.0000000   0.1023314), wk =   0.0069444
        k(    7) = (   0.0000000   0.0000000  -0.1227977), wk =   0.0034722
        k(    8) = (   0.0000000   0.0204663   0.0204663), wk =   0.0138889
        k(    9) = (   0.0000000   0.0204663   0.0409326), wk =   0.0277778
        k(   10) = (   0.0000000   0.0204663   0.0613988), wk =   0.0277778
        k(   11) = (   0.0000000   0.0204663   0.0818651), wk =   0.0277778
        k(   12) = (   0.0000000   0.0204663   0.1023314), wk =   0.0277778
        k(   13) = (   0.0000000   0.0204663  -0.1227977), wk =   0.0138889
        k(   14) = (   0.0000000   0.0409326   0.0409326), wk =   0.0138889
        k(   15) = (   0.0000000   0.0409326   0.0613988), wk =   0.0277778
        k(   16) = (   0.0000000   0.0409326   0.0818651), wk =   0.0277778
        k(   17) = (   0.0000000   0.0409326   0.1023314), wk =   0.0277778
        k(   18) = (   0.0000000   0.0409326  -0.1227977), wk =   0.0138889
        k(   19) = (   0.0000000   0.0613988   0.0613988), wk =   0.0138889
        k(   20) = (   0.0000000   0.0613988   0.0818651), wk =   0.0277778
        k(   21) = (   0.0000000   0.0613988   0.1023314), wk =   0.0277778
        k(   22) = (   0.0000000   0.0613988  -0.1227977), wk =   0.0138889
        k(   23) = (   0.0000000   0.0818651   0.0818651), wk =   0.0138889
        k(   24) = (   0.0000000   0.0818651   0.1023314), wk =   0.0277778
        k(   25) = (   0.0000000   0.0818651  -0.1227977), wk =   0.0138889
        k(   26) = (   0.0000000   0.1023314   0.1023314), wk =   0.0138889
        k(   27) = (   0.0000000   0.1023314  -0.1227977), wk =   0.0138889
        k(   28) = (   0.0000000  -0.1227977  -0.1227977), wk =   0.0034722
        k(   29) = (   0.0204663   0.0204663   0.0204663), wk =   0.0092593
        k(   30) = (   0.0204663   0.0204663   0.0409326), wk =   0.0277778
        k(   31) = (   0.0204663   0.0204663   0.0613988), wk =   0.0277778
        k(   32) = (   0.0204663   0.0204663   0.0818651), wk =   0.0277778
        k(   33) = (   0.0204663   0.0204663   0.1023314), wk =   0.0277778
        k(   34) = (   0.0204663   0.0204663  -0.1227977), wk =   0.0138889
        k(   35) = (   0.0204663   0.0409326   0.0409326), wk =   0.0277778
        k(   36) = (   0.0204663   0.0409326   0.0613988), wk =   0.0555556
        k(   37) = (   0.0204663   0.0409326   0.0818651), wk =   0.0555556
        k(   38) = (   0.0204663   0.0409326   0.1023314), wk =   0.0555556
        k(   39) = (   0.0204663   0.0409326  -0.1227977), wk =   0.0277778
        k(   40) = (   0.0204663   0.0613988   0.0613988), wk =   0.0277778
        k(   41) = (   0.0204663   0.0613988   0.0818651), wk =   0.0555556
        k(   42) = (   0.0204663   0.0613988   0.1023314), wk =   0.0555556
        k(   43) = (   0.0204663   0.0613988  -0.1227977), wk =   0.0277778
        k(   44) = (   0.0204663   0.0818651   0.0818651), wk =   0.0277778
        k(   45) = (   0.0204663   0.0818651   0.1023314), wk =   0.0555556
        k(   46) = (   0.0204663   0.0818651  -0.1227977), wk =   0.0277778
        k(   47) = (   0.0204663   0.1023314   0.1023314), wk =   0.0277778
        k(   48) = (   0.0204663   0.1023314  -0.1227977), wk =   0.0277778
        k(   49) = (   0.0204663  -0.1227977  -0.1227977), wk =   0.0069444
        k(   50) = (   0.0409326   0.0409326   0.0409326), wk =   0.0092593
        k(   51) = (   0.0409326   0.0409326   0.0613988), wk =   0.0277778
        k(   52) = (   0.0409326   0.0409326   0.0818651), wk =   0.0277778
        k(   53) = (   0.0409326   0.0409326   0.1023314), wk =   0.0277778
        k(   54) = (   0.0409326   0.0409326  -0.1227977), wk =   0.0138889
        k(   55) = (   0.0409326   0.0613988   0.0613988), wk =   0.0277778
        k(   56) = (   0.0409326   0.0613988   0.0818651), wk =   0.0555556
        k(   57) = (   0.0409326   0.0613988   0.1023314), wk =   0.0555556
        k(   58) = (   0.0409326   0.0613988  -0.1227977), wk =   0.0277778
        k(   59) = (   0.0409326   0.0818651   0.0818651), wk =   0.0277778
        k(   60) = (   0.0409326   0.0818651   0.1023314), wk =   0.0555556
[...]
        k(   70) = (   0.0613988   0.0818651   0.1023314), wk =   0.0555556
        k(   71) = (   0.0613988   0.0818651  -0.1227977), wk =   0.0277778
        k(   72) = (   0.0613988   0.1023314   0.1023314), wk =   0.0277778
        k(   73) = (   0.0613988   0.1023314  -0.1227977), wk =   0.0277778
        k(   74) = (   0.0613988  -0.1227977  -0.1227977), wk =   0.0069444
        k(   75) = (   0.0818651   0.0818651   0.0818651), wk =   0.0092593
        k(   76) = (   0.0818651   0.0818651   0.1023314), wk =   0.0277778
        k(   77) = (   0.0818651   0.0818651  -0.1227977), wk =   0.0138889
        k(   78) = (   0.0818651   0.1023314   0.1023314), wk =   0.0277778
        k(   79) = (   0.0818651   0.1023314  -0.1227977), wk =   0.0277778
        k(   80) = (   0.0818651  -0.1227977  -0.1227977), wk =   0.0069444
        k(   81) = (   0.1023314   0.1023314   0.1023314), wk =   0.0092593
        k(   82) = (   0.1023314   0.1023314  -0.1227977), wk =   0.0138889
        k(   83) = (   0.1023314  -0.1227977  -0.1227977), wk =   0.0069444
        k(   84) = (  -0.1227977  -0.1227977  -0.1227977), wk =   0.0011574

     Largest allocated arrays     est. size (Mb)     dimensions
     Largest temporary arrays     est. size (Mb)     dimensions

     Initial potential from superposition of free atoms
     Check: negative starting charge=   -0.413150

     starting charge   60.49985, renormalised to   63.00000

     negative rho (up, down):  4.302E-01 0.000E+00

     *
     * You are using vdW-DF for exchange-correlation in this calculation.
     * Please cite the following three references that made this development
     * possible:
     *
     *   M. Dion, H. Rydberg, E. Schroder, D. C. Langreth, and
     *   B. I. Lundqvist, Phys. Rev. Lett. 92, 246401 (2004).
     *
     *   T. Thonhauser, V. R. Cooper, S. Li, A. Puzder, P. Hyldgaard, and
     *   D. C. Langreth, Phys. Rev. B 76, 125112 (2007).
     *
     *   G. Roman-Perez and J. M. Soler, Phys. Rev. Lett. 103, 096102 (2009).
     *
     *
     * If you are using vdW-DF2, please also cite:
     *
     *   K. Lee, E. D. Murray, L. Kong, B. I. Lundqvist, and
     *   D. C. Langreth, Phys. Rev. B 82, 081101(R) (2010).
     *
     *
     * If you are calculating the stress with vdW-DF, please also cite:
     *
     *   R. Sabatini, E. Kucukbenli, B. Kolb, T. Thonhauser, and
     *   S. de Gironcoli, J. Phys.: Condens. Matter 24, 424209 (2012).
     *

     Carrying out vdW-DF run using the following parameters:

     Nqs =      20    Nr_points =    1024   r_max =   100.000
     q_mesh =
               0.00001000     0.04494208     0.09755937     0.15916263
               0.23128650     0.31572767     0.41458969     0.53033537
               0.66584808     0.82450364     1.01025438     1.22772762
               1.48234092     1.78043706     2.12944203     2.53805004
               3.01644009     3.57652955     4.23227104     5.00000000

     Gradients computed in reciprocal space

     Starting wfc are   48 randomized atomic wfcs +    3 random wfc

     Self-consistent Calculation

     iteration #  1     ecut=    58.80 Ry     beta=0.10
     Davidson diagonalization with overlap
     ethr =  1.00E-02,  avg # of iterations =  4.3

[...]

     total energy              =    -786.60813688 Ry
     Harris-Foulkes estimate   =    -786.65840687 Ry
     estimated scf accuracy    <       0.74315999 Ry

[...]

     total energy              =    -786.34533131 Ry
     Harris-Foulkes estimate   =    -786.34532762 Ry
     estimated scf accuracy    <       0.00000004 Ry

     iteration # 13     ecut=    58.80 Ry     beta=0.10
     Davidson diagonalization with overlap
     ethr =  5.90E-11,  avg # of iterations =  2.0

     negative rho (up, down):  4.025E-01 0.000E+00

     End of self-consistent calculation

          k = 0.0000 0.0000 0.0000 (  3431 PWs)   bands (ev):

   -64.6693 -64.6277 -64.6277 -24.1578 -24.1578 -24.1578 -23.9022 -23.9022
   -23.9022 -23.7821 -23.7821 -23.7821  -1.9621  -1.9621  -1.9413  -1.9413
    -1.9413   7.8922  15.0432  16.8911  16.8911  17.1666  17.1666  17.1666
    19.7835  19.7835  19.7835  20.7109  20.7109  20.7109  22.3016  22.3016
    22.3762  23.4013  24.0144  24.0144  24.0144  28.9272  28.9272  28.9272
    29.5028  29.5028  31.4176  31.4176  31.4176  33.8310  38.2366  38.2366
    38.4169  38.4169  38.4169

[...]

          k = 0.1023-0.1228-0.1228 (  3488 PWs)   bands (ev):

[...]

          k =-0.1228-0.1228-0.1228 (  3448 PWs)   bands (ev):

   -64.6414 -64.6414 -64.6414 -24.2988 -24.0996 -24.0996 -24.0996 -23.8231
   -23.8231 -23.7717 -23.7717 -23.7717  -1.9561  -1.9561  -1.9561  -1.8987
    -1.8987   9.4710  16.2315  16.2315  16.2315  17.6793  17.6793  17.6793
    19.1316  19.1316  19.1316  20.5627  20.5627  20.5627  21.2825  21.3480
    21.3480  21.9215  23.4781  23.4781  23.4781  27.0940  27.0940  27.0940
    32.7359  32.7359  32.7359  33.8523  35.0914  35.0914  35.0914  37.6470
    37.6470  37.6470  39.1814

     the Fermi energy is    21.4509 ev

!    total energy              =    -786.34534681 Ry
     Harris-Foulkes estimate   =    -786.34533131 Ry
     estimated scf accuracy    <          2.7E-09 Ry

     The total energy is the sum of the following terms:

     one-electron contribution =    -113.01687924 Ry
     hartree contribution      =     101.28281825 Ry
     xc contribution           =    -183.12645286 Ry
     ewald contribution        =    -591.46646411 Ry
     smearing contrib. (-TS)   =      -0.01836885 Ry

     convergence has been achieved in  13 iterations

     Forces acting on atoms (Ry/au):

     negative rho (up, down):  4.025E-01 0.000E+00
     atom    1 type  1   force =     0.00000000    0.00000000    0.00000000
     atom    2 type  1   force =     0.00000000    0.00000000    0.00000000
     atom    3 type  1   force =     0.00000000    0.00000000    0.00000000
     atom    4 type  2   force =     0.00000000    0.00000000    0.00000000

     Total force =     0.000000     Total SCF correction =     0.000000
 !ASE

     General routines

     Parallel routines

   This run was terminated on:  16:20:52  18Feb2018

   JOB DONE.