     Program PWSCF v.5.1rc2 (svn rev. ) starts on 25Oct2017 at  9:38:14

     Current dimensions of program PWSCF are:
     Max number of different atomic species (ntypx) = 10
     Max number of k-points (npk) =  40000
     Max angular momentum in pseudopotentials (lmaxx) =  3

     IMPORTANT: XC functional enforced from input :
     Exchange-correlation      = BEEF-VDW ( 1  4 27 13 2)
     Any further DFT definition will be discarded
     Please, verify this is what you really want

     Subspace diagonalization in iterative solution of the eigenvalue problem:
     a serial algorithm will be used

     bravais-lattice index     =            0
     lattice parameter (alat)  =       1.8897  a.u.
     unit-cell volume          =     402.2102 (a.u.)^3
     number of atoms/cell      =            4
     number of atomic types    =            2
     number of electrons       =        67.00
     number of Kohn-Sham states=           53
     kinetic-energy cutoff     =      58.7989  Ry
     charge density cutoff     =     587.9892  Ry
     convergence threshold     =      7.3E-09
     mixing beta               =       0.1000
     number of iterations used =           10  local-TF  mixing
     Exchange-correlation      = BEEF-VDW ( 1  4 27 13 2)
     nstep                     =           50

     celldm(1)=   1.889726  celldm(2)=   0.000000  celldm(3)=   0.000000
     celldm(4)=   0.000000  celldm(5)=   0.000000  celldm(6)=   0.000000

     crystal axes: (cart. coord. in units of alat)
               a(1) = (   3.906179   0.000000   0.000000 )
               a(2) = (   0.000000   3.906179   0.000000 )
               a(3) = (   0.000000   0.000000   3.906179 )

     reciprocal axes: (cart. coord. in units 2 pi/alat)
               b(1) = (  0.256005  0.000000  0.000000 )
               b(2) = (  0.000000  0.256005  0.000000 )
               b(3) = (  0.000000  0.000000  0.256005 )

     PseudoPot. # 1 for Pd read from file:
     /home/vossj/suncat/psp/gbrv1.5pbe/Pd.UPF
     MD5 check sum: 2d733d2bc2cbfd217af676df1668a4bc
     Pseudo is Ultrasoft + core correction, Zval = 16.0
     Generated by new atomic code, or converted to UPF format
     Using radial grid of  887 points,  6 beta functions with:
                l(1) =   0
                l(2) =   0
                l(3) =   1
                l(4) =   1
                l(5) =   2
                l(6) =   2
     Q(r) pseudized with  8 coefficients,  rinner =    1.130   1.130   1.130
                                                       1.130   1.130

     PseudoPot. # 2 for Cu read from file:
     /home/vossj/suncat/psp/gbrv1.5pbe/Cu.UPF
     MD5 check sum: 6e991ff952a84172a2a52a1c1e996048
     Pseudo is Ultrasoft + core correction, Zval = 19.0
     Generated by new atomic code, or converted to UPF format
     Using radial grid of  867 points,  6 beta functions with:
                l(1) =   0
                l(2) =   0
                l(3) =   1
                l(4) =   1
                l(5) =   2
                l(6) =   2
     Q(r) pseudized with  8 coefficients,  rinner =    1.150   1.150   1.150
                                                       1.150   1.150

     vdW kernel table read from file vdW_kernel_table
     MD5 check sum: 095c7af220d748ca6e76c0b4c6cfb241

     atomic species   valence    mass     pseudopotential
        Pd1           16.00   106.42000     Pd( 1.00)
        Cu1           19.00    63.54600     Cu( 1.00)

     48 Sym. Ops., with inversion, found (32 have fractional translation)

   Cartesian axes

     site n.     atom                  positions (alat units)
         1           Pd1 tau(   1) = (   0.0000000   0.0000000   0.0000000  )
         2           Pd1 tau(   2) = (   0.0000000   1.9530896   1.9530896  )
         3           Pd1 tau(   3) = (   1.9530896   0.0000000   1.9530896  )
         4           Cu1 tau(   4) = (   1.9530896   1.9530896   0.0000000  )

     number of k points=    84  Fermi-Dirac smearing, width (Ry)=  0.0073
                       cart. coord. in units 2pi/alat
        k(    1) = (   0.0000000   0.0000000   0.0000000), wk =   0.0011574
        k(    2) = (   0.0000000   0.0000000   0.0213337), wk =   0.0069444
        k(    3) = (   0.0000000   0.0000000   0.0426674), wk =   0.0069444
        k(    4) = (   0.0000000   0.0000000   0.0640012), wk =   0.0069444
        k(    5) = (   0.0000000   0.0000000   0.0853349), wk =   0.0069444
        k(    6) = (   0.0000000   0.0000000   0.1066686), wk =   0.0069444
        k(    7) = (   0.0000000   0.0000000  -0.1280023), wk =   0.0034722
        k(    8) = (   0.0000000   0.0213337   0.0213337), wk =   0.0138889
        k(    9) = (   0.0000000   0.0213337   0.0426674), wk =   0.0277778
        k(   10) = (   0.0000000   0.0213337   0.0640012), wk =   0.0277778
        k(   11) = (   0.0000000   0.0213337   0.0853349), wk =   0.0277778
        k(   12) = (   0.0000000   0.0213337   0.1066686), wk =   0.0277778
        k(   13) = (   0.0000000   0.0213337  -0.1280023), wk =   0.0138889
        k(   14) = (   0.0000000   0.0426674   0.0426674), wk =   0.0138889
        k(   15) = (   0.0000000   0.0426674   0.0640012), wk =   0.0277778
        k(   16) = (   0.0000000   0.0426674   0.0853349), wk =   0.0277778
        k(   17) = (   0.0000000   0.0426674   0.1066686), wk =   0.0277778
        k(   18) = (   0.0000000   0.0426674  -0.1280023), wk =   0.0138889
        k(   19) = (   0.0000000   0.0640012   0.0640012), wk =   0.0138889
        k(   20) = (   0.0000000   0.0640012   0.0853349), wk =   0.0277778
        k(   21) = (   0.0000000   0.0640012   0.1066686), wk =   0.0277778
        k(   22) = (   0.0000000   0.0640012  -0.1280023), wk =   0.0138889
        k(   23) = (   0.0000000   0.0853349   0.0853349), wk =   0.0138889
        k(   24) = (   0.0000000   0.0853349   0.1066686), wk =   0.0277778
        k(   25) = (   0.0000000   0.0853349  -0.1280023), wk =   0.0138889
        k(   26) = (   0.0000000   0.1066686   0.1066686), wk =   0.0138889
        k(   27) = (   0.0000000   0.1066686  -0.1280023), wk =   0.0138889
        k(   28) = (   0.0000000  -0.1280023  -0.1280023), wk =   0.0034722
        k(   29) = (   0.0213337   0.0213337   0.0213337), wk =   0.0092593
        k(   30) = (   0.0213337   0.0213337   0.0426674), wk =   0.0277778
        k(   31) = (   0.0213337   0.0213337   0.0640012), wk =   0.0277778
        k(   32) = (   0.0213337   0.0213337   0.0853349), wk =   0.0277778
        k(   33) = (   0.0213337   0.0213337   0.1066686), wk =   0.0277778
        k(   34) = (   0.0213337   0.0213337  -0.1280023), wk =   0.0138889
        k(   35) = (   0.0213337   0.0426674   0.0426674), wk =   0.0277778
        k(   36) = (   0.0213337   0.0426674   0.0640012), wk =   0.0555556
        k(   37) = (   0.0213337   0.0426674   0.0853349), wk =   0.0555556
        k(   38) = (   0.0213337   0.0426674   0.1066686), wk =   0.0555556
        k(   39) = (   0.0213337   0.0426674  -0.1280023), wk =   0.0277778
        k(   40) = (   0.0213337   0.0640012   0.0640012), wk =   0.0277778
        k(   41) = (   0.0213337   0.0640012   0.0853349), wk =   0.0555556
        k(   42) = (   0.0213337   0.0640012   0.1066686), wk =   0.0555556
        k(   43) = (   0.0213337   0.0640012  -0.1280023), wk =   0.0277778
        k(   44) = (   0.0213337   0.0853349   0.0853349), wk =   0.0277778
        k(   45) = (   0.0213337   0.0853349   0.1066686), wk =   0.0555556
        k(   46) = (   0.0213337   0.0853349  -0.1280023), wk =   0.0277778
        k(   47) = (   0.0213337   0.1066686   0.1066686), wk =   0.0277778
        k(   48) = (   0.0213337   0.1066686  -0.1280023), wk =   0.0277778
        k(   49) = (   0.0213337  -0.1280023  -0.1280023), wk =   0.0069444
        k(   50) = (   0.0426674   0.0426674   0.0426674), wk =   0.0092593
        k(   51) = (   0.0426674   0.0426674   0.0640012), wk =   0.0277778
        k(   52) = (   0.0426674   0.0426674   0.0853349), wk =   0.0277778
        k(   53) = (   0.0426674   0.0426674   0.1066686), wk =   0.0277778
        k(   54) = (   0.0426674   0.0426674  -0.1280023), wk =   0.0138889
        k(   55) = (   0.0426674   0.0640012   0.0640012), wk =   0.0277778
        k(   56) = (   0.0426674   0.0640012   0.0853349), wk =   0.0555556
        k(   57) = (   0.0426674   0.0640012   0.1066686), wk =   0.0555556
        k(   58) = (   0.0426674   0.0640012  -0.1280023), wk =   0.0277778
        k(   59) = (   0.0426674   0.0853349   0.0853349), wk =   0.0277778
        k(   60) = (   0.0426674   0.0853349   0.1066686), wk =   0.0555556
[...]
        k(   70) = (   0.0640012   0.0853349   0.1066686), wk =   0.0555556
        k(   71) = (   0.0640012   0.0853349  -0.1280023), wk =   0.0277778
        k(   72) = (   0.0640012   0.1066686   0.1066686), wk =   0.0277778
        k(   73) = (   0.0640012   0.1066686  -0.1280023), wk =   0.0277778
        k(   74) = (   0.0640012  -0.1280023  -0.1280023), wk =   0.0069444
        k(   75) = (   0.0853349   0.0853349   0.0853349), wk =   0.0092593
        k(   76) = (   0.0853349   0.0853349   0.1066686), wk =   0.0277778
        k(   77) = (   0.0853349   0.0853349  -0.1280023), wk =   0.0138889
        k(   78) = (   0.0853349   0.1066686   0.1066686), wk =   0.0277778
        k(   79) = (   0.0853349   0.1066686  -0.1280023), wk =   0.0277778
        k(   80) = (   0.0853349  -0.1280023  -0.1280023), wk =   0.0069444
        k(   81) = (   0.1066686   0.1066686   0.1066686), wk =   0.0092593
        k(   82) = (   0.1066686   0.1066686  -0.1280023), wk =   0.0138889
        k(   83) = (   0.1066686  -0.1280023  -0.1280023), wk =   0.0069444
        k(   84) = (  -0.1280023  -0.1280023  -0.1280023), wk =   0.0011574

     Largest allocated arrays     est. size (Mb)     dimensions
     Largest temporary arrays     est. size (Mb)     dimensions

     Initial potential from superposition of free atoms
     Check: negative starting charge=   -0.233658

     starting charge   64.49998, renormalised to   67.00000

     negative rho (up, down):  2.427E-01 0.000E+00

     *
     * You are using vdW-DF for exchange-correlation in this calculation.
     * Please cite the following three references that made this development
     * possible:
     *
     *   M. Dion, H. Rydberg, E. Schroder, D. C. Langreth, and
     *   B. I. Lundqvist, Phys. Rev. Lett. 92, 246401 (2004).
     *
     *   T. Thonhauser, V. R. Cooper, S. Li, A. Puzder, P. Hyldgaard, and
     *   D. C. Langreth, Phys. Rev. B 76, 125112 (2007).
     *
     *   G. Roman-Perez and J. M. Soler, Phys. Rev. Lett. 103, 096102 (2009).
     *
     *
     * If you are using vdW-DF2, please also cite:
     *
     *   K. Lee, E. D. Murray, L. Kong, B. I. Lundqvist, and
     *   D. C. Langreth, Phys. Rev. B 82, 081101(R) (2010).
     *
     *
     * If you are calculating the stress with vdW-DF, please also cite:
     *
     *   R. Sabatini, E. Kucukbenli, B. Kolb, T. Thonhauser, and
     *   S. de Gironcoli, J. Phys.: Condens. Matter 24, 424209 (2012).
     *

     Carrying out vdW-DF run using the following parameters:

     Nqs =      20    Nr_points =    1024   r_max =   100.000
     q_mesh =
               0.00001000     0.04494208     0.09755937     0.15916263
               0.23128650     0.31572767     0.41458969     0.53033537
               0.66584808     0.82450364     1.01025438     1.22772762
               1.48234092     1.78043706     2.12944203     2.53805004
               3.01644009     3.57652955     4.23227104     5.00000000

     Gradients computed in reciprocal space

     Starting wfc are   49 randomized atomic wfcs +    4 random wfc

     Self-consistent Calculation

     iteration #  1     ecut=    58.80 Ry     beta=0.10
     Davidson diagonalization with overlap
     ethr =  1.00E-02,  avg # of iterations =  4.2

[...]

     total energy              =   -1005.57475282 Ry
     Harris-Foulkes estimate   =   -1006.01005723 Ry
     estimated scf accuracy    <       6.68577508 Ry

[...]

     total energy              =   -1004.40260932 Ry
     Harris-Foulkes estimate   =   -1004.40260733 Ry
     estimated scf accuracy    <       0.00000022 Ry

     iteration # 15     ecut=    58.80 Ry     beta=0.10
     Davidson diagonalization with overlap
     ethr =  2.79E-10,  avg # of iterations =  1.1

     negative rho (up, down):  2.446E-01 0.000E+00

     End of self-consistent calculation

          k = 0.0000 0.0000 0.0000 (  3071 PWs)   bands (ev):

   -95.3785 -52.7800 -52.7800 -52.7800 -33.5757 -33.5757 -33.5757 -33.3879
   -33.3879 -33.3879 -33.3142 -33.3142 -33.3142   9.4349  11.1822  11.9533
    11.9533  11.9762  11.9762  11.9762  13.9735  13.9735  13.9735  15.0465
    15.0465  15.9042  15.9042  15.9042  15.9293  15.9293  16.4211  16.7371
    16.7371  16.7371  19.5475  19.5475  19.5475  25.2058  26.2474  26.2474
    28.7172  28.7172  28.7172  30.5283  30.5283  30.5283  35.2809  36.0485
    36.3115  36.3115  36.3115  37.6186  37.6186

[...]

          k = 0.1067-0.1280-0.1280 (  3072 PWs)   bands (ev):

[...]

          k =-0.1280-0.1280-0.1280 (  3112 PWs)   bands (ev):

   -95.3785 -52.7802 -52.7802 -52.7802 -33.6865 -33.5196 -33.5196 -33.5196
   -33.3557 -33.3557 -33.2987 -33.2987 -33.2987  11.1512  11.8450  11.8450
    11.8450  13.6982  13.6982  13.6982  13.9256  13.9256  13.9256  14.1083
    14.1083  15.7796  15.7796  15.7796  15.8898  15.8898  16.4397  16.4397
    16.4397  17.1990  17.1990  17.1990  17.7526  21.7450  23.0451  23.0451
    23.0451  34.2104  34.3469  34.3469  34.3469  35.8933  35.8933  35.8933
    38.3543  39.2277  39.2277  39.2277  39.8947

     the Fermi energy is    16.4067 ev

!    total energy              =   -1004.40261808 Ry
     Harris-Foulkes estimate   =   -1004.40260934 Ry
     estimated scf accuracy    <          9.2E-10 Ry

     The total energy is the sum of the following terms:

     one-electron contribution =    -439.08669472 Ry
     hartree contribution      =     271.52759034 Ry
     xc contribution           =    -137.71989725 Ry
     ewald contribution        =    -699.11334644 Ry
     smearing contrib. (-TS)   =      -0.01027001 Ry

     convergence has been achieved in  15 iterations

     Forces acting on atoms (Ry/au):

     negative rho (up, down):  2.446E-01 0.000E+00
     atom    1 type  1   force =     0.00000000    0.00000000    0.00000000
     atom    2 type  1   force =     0.00000000    0.00000000   -0.00000000
     atom    3 type  1   force =     0.00000000    0.00000000    0.00000000
     atom    4 type  2   force =     0.00000000    0.00000000    0.00000000

     Total force =     0.000000     Total SCF correction =     0.000000
 !ASE

     General routines

     Parallel routines

   This run was terminated on:   9:39:19  25Oct2017

   JOB DONE.