     Program PWSCF v.5.1rc2 (svn rev. ) starts on 31Oct2017 at 16:31:18

     Current dimensions of program PWSCF are:
     Max number of different atomic species (ntypx) = 10
     Max number of k-points (npk) =  40000
     Max angular momentum in pseudopotentials (lmaxx) =  3

     IMPORTANT: XC functional enforced from input :
     Exchange-correlation      = BEEF-VDW ( 1  4 27 13 2)
     Any further DFT definition will be discarded
     Please, verify this is what you really want

     Subspace diagonalization in iterative solution of the eigenvalue problem:
     a serial algorithm will be used

     bravais-lattice index     =            0
     lattice parameter (alat)  =       1.8897  a.u.
     unit-cell volume          =     306.7296 (a.u.)^3
     number of atoms/cell      =            4
     number of atomic types    =            2
     number of electrons       =        67.00
     number of Kohn-Sham states=           53
     kinetic-energy cutoff     =      58.7989  Ry
     charge density cutoff     =     587.9892  Ry
     convergence threshold     =      7.3E-09
     mixing beta               =       0.1000
     number of iterations used =           10  local-TF  mixing
     Exchange-correlation      = BEEF-VDW ( 1  4 27 13 2)
     nstep                     =           50

     celldm(1)=   1.889726  celldm(2)=   0.000000  celldm(3)=   0.000000
     celldm(4)=   0.000000  celldm(5)=   0.000000  celldm(6)=   0.000000

     crystal axes: (cart. coord. in units of alat)
               a(1) = (   3.568779   0.000000   0.000000 )
               a(2) = (   0.000000   3.568779   0.000000 )
               a(3) = (   0.000000   0.000000   3.568779 )

     reciprocal axes: (cart. coord. in units 2 pi/alat)
               b(1) = (  0.280208  0.000000  0.000000 )
               b(2) = (  0.000000  0.280208  0.000000 )
               b(3) = (  0.000000  0.000000  0.280208 )

     PseudoPot. # 1 for Co read from file:
     /home/vossj/suncat/psp/gbrv1.5pbe/Co.UPF
     MD5 check sum: 5f91765df6ddd3222702df6e7b74a16d
     Pseudo is Ultrasoft + core correction, Zval = 17.0
     Generated by new atomic code, or converted to UPF format
     Using radial grid of  863 points,  6 beta functions with:
                l(1) =   0
                l(2) =   0
                l(3) =   1
                l(4) =   1
                l(5) =   2
                l(6) =   2
     Q(r) pseudized with  8 coefficients,  rinner =    1.200   1.200   1.200
                                                       1.200   1.200

     PseudoPot. # 2 for Ru read from file:
     /home/vossj/suncat/psp/gbrv1.5pbe/Ru.UPF
     MD5 check sum: 7158a806dd851261a58e6920c40ebe78
     Pseudo is Ultrasoft + core correction, Zval = 16.0
     Generated by new atomic code, or converted to UPF format
     Using radial grid of  967 points,  6 beta functions with:
                l(1) =   0
                l(2) =   0
                l(3) =   1
                l(4) =   1
                l(5) =   2
                l(6) =   2
     Q(r) pseudized with  8 coefficients,  rinner =    1.300   1.300   1.300
                                                       1.300   1.300

     vdW kernel table read from file vdW_kernel_table
     MD5 check sum: 095c7af220d748ca6e76c0b4c6cfb241

     atomic species   valence    mass     pseudopotential
        Co1           17.00    58.93319     Co( 1.00)
        Ru1           16.00   101.07000     Ru( 1.00)

     48 Sym. Ops., with inversion, found (32 have fractional translation)

   Cartesian axes

     site n.     atom                  positions (alat units)
         1           Co1 tau(   1) = (   0.0000000   0.0000000   0.0000000  )
         2           Co1 tau(   2) = (   0.0000000   1.7843897   1.7843897  )
         3           Co1 tau(   3) = (   1.7843897   0.0000000   1.7843897  )
         4           Ru1 tau(   4) = (   1.7843897   1.7843897   0.0000000  )

     number of k points=    84  Fermi-Dirac smearing, width (Ry)=  0.0073
                       cart. coord. in units 2pi/alat
        k(    1) = (   0.0000000   0.0000000   0.0000000), wk =   0.0011574
        k(    2) = (   0.0000000   0.0000000   0.0233507), wk =   0.0069444
        k(    3) = (   0.0000000   0.0000000   0.0467013), wk =   0.0069444
        k(    4) = (   0.0000000   0.0000000   0.0700520), wk =   0.0069444
        k(    5) = (   0.0000000   0.0000000   0.0934026), wk =   0.0069444
        k(    6) = (   0.0000000   0.0000000   0.1167533), wk =   0.0069444
        k(    7) = (   0.0000000   0.0000000  -0.1401039), wk =   0.0034722
        k(    8) = (   0.0000000   0.0233507   0.0233507), wk =   0.0138889
        k(    9) = (   0.0000000   0.0233507   0.0467013), wk =   0.0277778
        k(   10) = (   0.0000000   0.0233507   0.0700520), wk =   0.0277778
        k(   11) = (   0.0000000   0.0233507   0.0934026), wk =   0.0277778
        k(   12) = (   0.0000000   0.0233507   0.1167533), wk =   0.0277778
        k(   13) = (   0.0000000   0.0233507  -0.1401039), wk =   0.0138889
        k(   14) = (   0.0000000   0.0467013   0.0467013), wk =   0.0138889
        k(   15) = (   0.0000000   0.0467013   0.0700520), wk =   0.0277778
        k(   16) = (   0.0000000   0.0467013   0.0934026), wk =   0.0277778
        k(   17) = (   0.0000000   0.0467013   0.1167533), wk =   0.0277778
        k(   18) = (   0.0000000   0.0467013  -0.1401039), wk =   0.0138889
        k(   19) = (   0.0000000   0.0700520   0.0700520), wk =   0.0138889
        k(   20) = (   0.0000000   0.0700520   0.0934026), wk =   0.0277778
        k(   21) = (   0.0000000   0.0700520   0.1167533), wk =   0.0277778
        k(   22) = (   0.0000000   0.0700520  -0.1401039), wk =   0.0138889
        k(   23) = (   0.0000000   0.0934026   0.0934026), wk =   0.0138889
        k(   24) = (   0.0000000   0.0934026   0.1167533), wk =   0.0277778
        k(   25) = (   0.0000000   0.0934026  -0.1401039), wk =   0.0138889
        k(   26) = (   0.0000000   0.1167533   0.1167533), wk =   0.0138889
        k(   27) = (   0.0000000   0.1167533  -0.1401039), wk =   0.0138889
        k(   28) = (   0.0000000  -0.1401039  -0.1401039), wk =   0.0034722
        k(   29) = (   0.0233507   0.0233507   0.0233507), wk =   0.0092593
        k(   30) = (   0.0233507   0.0233507   0.0467013), wk =   0.0277778
        k(   31) = (   0.0233507   0.0233507   0.0700520), wk =   0.0277778
        k(   32) = (   0.0233507   0.0233507   0.0934026), wk =   0.0277778
        k(   33) = (   0.0233507   0.0233507   0.1167533), wk =   0.0277778
        k(   34) = (   0.0233507   0.0233507  -0.1401039), wk =   0.0138889
        k(   35) = (   0.0233507   0.0467013   0.0467013), wk =   0.0277778
        k(   36) = (   0.0233507   0.0467013   0.0700520), wk =   0.0555556
        k(   37) = (   0.0233507   0.0467013   0.0934026), wk =   0.0555556
        k(   38) = (   0.0233507   0.0467013   0.1167533), wk =   0.0555556
        k(   39) = (   0.0233507   0.0467013  -0.1401039), wk =   0.0277778
        k(   40) = (   0.0233507   0.0700520   0.0700520), wk =   0.0277778
        k(   41) = (   0.0233507   0.0700520   0.0934026), wk =   0.0555556
        k(   42) = (   0.0233507   0.0700520   0.1167533), wk =   0.0555556
        k(   43) = (   0.0233507   0.0700520  -0.1401039), wk =   0.0277778
        k(   44) = (   0.0233507   0.0934026   0.0934026), wk =   0.0277778
        k(   45) = (   0.0233507   0.0934026   0.1167533), wk =   0.0555556
        k(   46) = (   0.0233507   0.0934026  -0.1401039), wk =   0.0277778
        k(   47) = (   0.0233507   0.1167533   0.1167533), wk =   0.0277778
        k(   48) = (   0.0233507   0.1167533  -0.1401039), wk =   0.0277778
        k(   49) = (   0.0233507  -0.1401039  -0.1401039), wk =   0.0069444
        k(   50) = (   0.0467013   0.0467013   0.0467013), wk =   0.0092593
        k(   51) = (   0.0467013   0.0467013   0.0700520), wk =   0.0277778
        k(   52) = (   0.0467013   0.0467013   0.0934026), wk =   0.0277778
        k(   53) = (   0.0467013   0.0467013   0.1167533), wk =   0.0277778
        k(   54) = (   0.0467013   0.0467013  -0.1401039), wk =   0.0138889
        k(   55) = (   0.0467013   0.0700520   0.0700520), wk =   0.0277778
        k(   56) = (   0.0467013   0.0700520   0.0934026), wk =   0.0555556
        k(   57) = (   0.0467013   0.0700520   0.1167533), wk =   0.0555556
        k(   58) = (   0.0467013   0.0700520  -0.1401039), wk =   0.0277778
        k(   59) = (   0.0467013   0.0934026   0.0934026), wk =   0.0277778
        k(   60) = (   0.0467013   0.0934026   0.1167533), wk =   0.0555556
[...]
        k(   70) = (   0.0700520   0.0934026   0.1167533), wk =   0.0555556
        k(   71) = (   0.0700520   0.0934026  -0.1401039), wk =   0.0277778
        k(   72) = (   0.0700520   0.1167533   0.1167533), wk =   0.0277778
        k(   73) = (   0.0700520   0.1167533  -0.1401039), wk =   0.0277778
        k(   74) = (   0.0700520  -0.1401039  -0.1401039), wk =   0.0069444
        k(   75) = (   0.0934026   0.0934026   0.0934026), wk =   0.0092593
        k(   76) = (   0.0934026   0.0934026   0.1167533), wk =   0.0277778
        k(   77) = (   0.0934026   0.0934026  -0.1401039), wk =   0.0138889
        k(   78) = (   0.0934026   0.1167533   0.1167533), wk =   0.0277778
        k(   79) = (   0.0934026   0.1167533  -0.1401039), wk =   0.0277778
        k(   80) = (   0.0934026  -0.1401039  -0.1401039), wk =   0.0069444
        k(   81) = (   0.1167533   0.1167533   0.1167533), wk =   0.0092593
        k(   82) = (   0.1167533   0.1167533  -0.1401039), wk =   0.0138889
        k(   83) = (   0.1167533  -0.1401039  -0.1401039), wk =   0.0069444
        k(   84) = (  -0.1401039  -0.1401039  -0.1401039), wk =   0.0011574

     Largest allocated arrays     est. size (Mb)     dimensions
     Largest temporary arrays     est. size (Mb)     dimensions

     Check: negative/imaginary core charge=   -0.000036    0.000000

     Initial potential from superposition of free atoms
     Check: negative starting charge=   -0.075098

     starting charge   62.99996, renormalised to   67.00000

     negative rho (up, down):  7.987E-02 0.000E+00

     *
     * You are using vdW-DF for exchange-correlation in this calculation.
     * Please cite the following three references that made this development
     * possible:
     *
     *   M. Dion, H. Rydberg, E. Schroder, D. C. Langreth, and
     *   B. I. Lundqvist, Phys. Rev. Lett. 92, 246401 (2004).
     *
     *   T. Thonhauser, V. R. Cooper, S. Li, A. Puzder, P. Hyldgaard, and
     *   D. C. Langreth, Phys. Rev. B 76, 125112 (2007).
     *
     *   G. Roman-Perez and J. M. Soler, Phys. Rev. Lett. 103, 096102 (2009).
     *
     *
     * If you are using vdW-DF2, please also cite:
     *
     *   K. Lee, E. D. Murray, L. Kong, B. I. Lundqvist, and
     *   D. C. Langreth, Phys. Rev. B 82, 081101(R) (2010).
     *
     *
     * If you are calculating the stress with vdW-DF, please also cite:
     *
     *   R. Sabatini, E. Kucukbenli, B. Kolb, T. Thonhauser, and
     *   S. de Gironcoli, J. Phys.: Condens. Matter 24, 424209 (2012).
     *

     Carrying out vdW-DF run using the following parameters:

     Nqs =      20    Nr_points =    1024   r_max =   100.000
     q_mesh =
               0.00001000     0.04494208     0.09755937     0.15916263
               0.23128650     0.31572767     0.41458969     0.53033537
               0.66584808     0.82450364     1.01025438     1.22772762
               1.48234092     1.78043706     2.12944203     2.53805004
               3.01644009     3.57652955     4.23227104     5.00000000

     Gradients computed in reciprocal space

     Starting wfc are   52 randomized atomic wfcs +    1 random wfc

     Self-consistent Calculation

     iteration #  1     ecut=    58.80 Ry     beta=0.10
     Davidson diagonalization with overlap
     ethr =  1.00E-02,  avg # of iterations =  4.2

[...]

     total energy              =   -1097.36559647 Ry
     Harris-Foulkes estimate   =   -1099.74321693 Ry
     estimated scf accuracy    <      32.84968979 Ry

[...]

     total energy              =   -1093.76112150 Ry
     Harris-Foulkes estimate   =   -1093.76112141 Ry
     estimated scf accuracy    <       0.00000002 Ry

     iteration # 27     ecut=    58.80 Ry     beta=0.10
     Davidson diagonalization with overlap
     ethr =  2.95E-11,  avg # of iterations =  1.0

     negative rho (up, down):  7.751E-02 0.000E+00

     End of self-consistent calculation

          k = 0.0000 0.0000 0.0000 (  2325 PWs)   bands (ev):

   -75.1874 -75.1418 -75.1418 -53.1579 -38.5522 -38.5522 -38.5522 -38.4572
   -38.4572 -38.4572 -38.3488 -38.3488 -38.3488 -23.1084 -23.1084 -23.1084
    11.3964  14.3679  14.3679  15.4313  15.4313  15.4313  15.6792  18.0263
    18.0263  18.0263  19.3823  19.3823  20.0466  20.3416  20.3416  20.3416
    20.7747  20.7747  21.3923  21.3923  21.3923  22.9599  22.9599  22.9599
    30.8201  31.6729  31.6729  33.3110  33.3110  33.3110  36.4097  36.4097
    36.4097  40.2047  41.2797  41.2797  41.2797

[...]

          k = 0.1168-0.1401-0.1401 (  2336 PWs)   bands (ev):

[...]

          k =-0.1401-0.1401-0.1401 (  2320 PWs)   bands (ev):

   -75.1568 -75.1568 -75.1568 -53.1550 -38.5747 -38.5580 -38.5580 -38.5580
   -38.3923 -38.3923 -38.3923 -38.3341 -38.3341 -23.1276 -23.1276 -23.1276
    14.5185  14.5185  14.5185  15.7448  17.6127  17.6127  17.9710  17.9710
    17.9710  18.0247  18.0247  18.0247  19.6891  20.1102  20.1102  20.1102
    20.4088  20.4088  20.4088  20.7490  20.7490  20.7490  20.8541  20.8541
    27.9308  27.9308  27.9308  28.2259  39.0548  39.0548  39.0548  39.7431
    41.8860  41.8860  41.8860  44.0862  44.0862

     the Fermi energy is    19.9744 ev

!    total energy              =   -1093.76112190 Ry
     Harris-Foulkes estimate   =   -1093.76112151 Ry
     estimated scf accuracy    <          9.8E-10 Ry

     The total energy is the sum of the following terms:

     one-electron contribution =    -499.77943283 Ry
     hartree contribution      =     297.46670321 Ry
     xc contribution           =    -128.22598006 Ry
     ewald contribution        =    -763.20293658 Ry
     smearing contrib. (-TS)   =      -0.01947564 Ry

     convergence has been achieved in  27 iterations

     Forces acting on atoms (Ry/au):

     negative rho (up, down):  7.751E-02 0.000E+00
     atom    1 type  1   force =     0.00000000    0.00000000    0.00000000
     atom    2 type  1   force =     0.00000000    0.00000000   -0.00000000
     atom    3 type  1   force =     0.00000000   -0.00000000    0.00000000
     atom    4 type  2   force =     0.00000000    0.00000000    0.00000000

     Total force =     0.000000     Total SCF correction =     0.000000
 !ASE

     General routines

     Parallel routines

   This run was terminated on:  16:32:49  31Oct2017

   JOB DONE.