     Program PWSCF v.5.1rc2 (svn rev. ) starts on 26Oct2017 at  2:16:18

     Current dimensions of program PWSCF are:
     Max number of different atomic species (ntypx) = 10
     Max number of k-points (npk) =  40000
     Max angular momentum in pseudopotentials (lmaxx) =  3

     IMPORTANT: XC functional enforced from input :
     Exchange-correlation      = BEEF-VDW ( 1  4 27 13 2)
     Any further DFT definition will be discarded
     Please, verify this is what you really want

     Subspace diagonalization in iterative solution of the eigenvalue problem:
     a serial algorithm will be used

     bravais-lattice index     =            0
     lattice parameter (alat)  =       1.8897  a.u.
     unit-cell volume          =     696.5418 (a.u.)^3
     number of atoms/cell      =            4
     number of atomic types    =            2
     number of electrons       =        51.00
     number of Kohn-Sham states=           45
     kinetic-energy cutoff     =      58.7989  Ry
     charge density cutoff     =     587.9892  Ry
     convergence threshold     =      7.3E-09
     mixing beta               =       0.1000
     number of iterations used =           10  local-TF  mixing
     Exchange-correlation      = BEEF-VDW ( 1  4 27 13 2)
     nstep                     =           50

     celldm(1)=   1.889726  celldm(2)=   0.000000  celldm(3)=   0.000000
     celldm(4)=   0.000000  celldm(5)=   0.000000  celldm(6)=   0.000000

     crystal axes: (cart. coord. in units of alat)
               a(1) = (   4.690835   0.000000   0.000000 )
               a(2) = (   0.000000   4.690835   0.000000 )
               a(3) = (   0.000000   0.000000   4.690835 )

     reciprocal axes: (cart. coord. in units 2 pi/alat)
               b(1) = (  0.213182  0.000000  0.000000 )
               b(2) = (  0.000000  0.213182  0.000000 )
               b(3) = (  0.000000  0.000000  0.213182 )

     PseudoPot. # 1 for Tl read from file:
     /home/vossj/suncat/psp/gbrv1.5pbe/Tl.UPF
     MD5 check sum: b76cf1f7e72655a2b2c53cf6385d7059
     Pseudo is Ultrasoft + core correction, Zval = 13.0
     Generated by new atomic code, or converted to UPF format
     Using radial grid of  899 points,  6 beta functions with:
                l(1) =   0
                l(2) =   0
                l(3) =   1
                l(4) =   1
                l(5) =   2
                l(6) =   2
     Q(r) pseudized with  6 coefficients,  rinner =    1.100   1.100   1.100
                                                       1.100   1.100

     PseudoPot. # 2 for Hf read from file:
     /home/vossj/suncat/psp/gbrv1.5pbe/Hf.UPF
     MD5 check sum: 8ee9378dfe14276e333edf04c5e4aa26
     Pseudo is Ultrasoft + core correction, Zval = 12.0
     Generated by new atomic code, or converted to UPF format
     Using radial grid of  921 points,  8 beta functions with:
                l(1) =   0
                l(2) =   0
                l(3) =   0
                l(4) =   1
                l(5) =   1
                l(6) =   2
                l(7) =   2
                l(8) =   3
     Q(r) pseudized with  6 coefficients,  rinner =    1.200   1.200   1.200
                                                       1.200   1.200   1.200
                                                       1.200

     vdW kernel table read from file vdW_kernel_table
     MD5 check sum: 095c7af220d748ca6e76c0b4c6cfb241

     atomic species   valence    mass     pseudopotential
        Tl1           13.00   204.38000     Tl( 1.00)
        Hf1           12.00   178.49000     Hf( 1.00)

     48 Sym. Ops., with inversion, found (32 have fractional translation)

   Cartesian axes

     site n.     atom                  positions (alat units)
         1           Tl1 tau(   1) = (   0.0000000   0.0000000   0.0000000  )
         2           Tl1 tau(   2) = (   0.0000000   2.3454177   2.3454177  )
         3           Tl1 tau(   3) = (   2.3454177   0.0000000   2.3454177  )
         4           Hf1 tau(   4) = (   2.3454177   2.3454177   0.0000000  )

     number of k points=    84  Fermi-Dirac smearing, width (Ry)=  0.0073
                       cart. coord. in units 2pi/alat
        k(    1) = (   0.0000000   0.0000000   0.0000000), wk =   0.0011574
        k(    2) = (   0.0000000   0.0000000   0.0177651), wk =   0.0069444
        k(    3) = (   0.0000000   0.0000000   0.0355303), wk =   0.0069444
        k(    4) = (   0.0000000   0.0000000   0.0532954), wk =   0.0069444
        k(    5) = (   0.0000000   0.0000000   0.0710605), wk =   0.0069444
        k(    6) = (   0.0000000   0.0000000   0.0888257), wk =   0.0069444
        k(    7) = (   0.0000000   0.0000000  -0.1065908), wk =   0.0034722
        k(    8) = (   0.0000000   0.0177651   0.0177651), wk =   0.0138889
        k(    9) = (   0.0000000   0.0177651   0.0355303), wk =   0.0277778
        k(   10) = (   0.0000000   0.0177651   0.0532954), wk =   0.0277778
        k(   11) = (   0.0000000   0.0177651   0.0710605), wk =   0.0277778
        k(   12) = (   0.0000000   0.0177651   0.0888257), wk =   0.0277778
        k(   13) = (   0.0000000   0.0177651  -0.1065908), wk =   0.0138889
        k(   14) = (   0.0000000   0.0355303   0.0355303), wk =   0.0138889
        k(   15) = (   0.0000000   0.0355303   0.0532954), wk =   0.0277778
        k(   16) = (   0.0000000   0.0355303   0.0710605), wk =   0.0277778
        k(   17) = (   0.0000000   0.0355303   0.0888257), wk =   0.0277778
        k(   18) = (   0.0000000   0.0355303  -0.1065908), wk =   0.0138889
        k(   19) = (   0.0000000   0.0532954   0.0532954), wk =   0.0138889
        k(   20) = (   0.0000000   0.0532954   0.0710605), wk =   0.0277778
        k(   21) = (   0.0000000   0.0532954   0.0888257), wk =   0.0277778
        k(   22) = (   0.0000000   0.0532954  -0.1065908), wk =   0.0138889
        k(   23) = (   0.0000000   0.0710605   0.0710605), wk =   0.0138889
        k(   24) = (   0.0000000   0.0710605   0.0888257), wk =   0.0277778
        k(   25) = (   0.0000000   0.0710605  -0.1065908), wk =   0.0138889
        k(   26) = (   0.0000000   0.0888257   0.0888257), wk =   0.0138889
        k(   27) = (   0.0000000   0.0888257  -0.1065908), wk =   0.0138889
        k(   28) = (   0.0000000  -0.1065908  -0.1065908), wk =   0.0034722
        k(   29) = (   0.0177651   0.0177651   0.0177651), wk =   0.0092593
        k(   30) = (   0.0177651   0.0177651   0.0355303), wk =   0.0277778
        k(   31) = (   0.0177651   0.0177651   0.0532954), wk =   0.0277778
        k(   32) = (   0.0177651   0.0177651   0.0710605), wk =   0.0277778
        k(   33) = (   0.0177651   0.0177651   0.0888257), wk =   0.0277778
        k(   34) = (   0.0177651   0.0177651  -0.1065908), wk =   0.0138889
        k(   35) = (   0.0177651   0.0355303   0.0355303), wk =   0.0277778
        k(   36) = (   0.0177651   0.0355303   0.0532954), wk =   0.0555556
        k(   37) = (   0.0177651   0.0355303   0.0710605), wk =   0.0555556
        k(   38) = (   0.0177651   0.0355303   0.0888257), wk =   0.0555556
        k(   39) = (   0.0177651   0.0355303  -0.1065908), wk =   0.0277778
        k(   40) = (   0.0177651   0.0532954   0.0532954), wk =   0.0277778
        k(   41) = (   0.0177651   0.0532954   0.0710605), wk =   0.0555556
        k(   42) = (   0.0177651   0.0532954   0.0888257), wk =   0.0555556
        k(   43) = (   0.0177651   0.0532954  -0.1065908), wk =   0.0277778
        k(   44) = (   0.0177651   0.0710605   0.0710605), wk =   0.0277778
        k(   45) = (   0.0177651   0.0710605   0.0888257), wk =   0.0555556
        k(   46) = (   0.0177651   0.0710605  -0.1065908), wk =   0.0277778
        k(   47) = (   0.0177651   0.0888257   0.0888257), wk =   0.0277778
        k(   48) = (   0.0177651   0.0888257  -0.1065908), wk =   0.0277778
        k(   49) = (   0.0177651  -0.1065908  -0.1065908), wk =   0.0069444
        k(   50) = (   0.0355303   0.0355303   0.0355303), wk =   0.0092593
        k(   51) = (   0.0355303   0.0355303   0.0532954), wk =   0.0277778
        k(   52) = (   0.0355303   0.0355303   0.0710605), wk =   0.0277778
        k(   53) = (   0.0355303   0.0355303   0.0888257), wk =   0.0277778
        k(   54) = (   0.0355303   0.0355303  -0.1065908), wk =   0.0138889
        k(   55) = (   0.0355303   0.0532954   0.0532954), wk =   0.0277778
        k(   56) = (   0.0355303   0.0532954   0.0710605), wk =   0.0555556
        k(   57) = (   0.0355303   0.0532954   0.0888257), wk =   0.0555556
        k(   58) = (   0.0355303   0.0532954  -0.1065908), wk =   0.0277778
        k(   59) = (   0.0355303   0.0710605   0.0710605), wk =   0.0277778
        k(   60) = (   0.0355303   0.0710605   0.0888257), wk =   0.0555556
[...]
        k(   70) = (   0.0532954   0.0710605   0.0888257), wk =   0.0555556
        k(   71) = (   0.0532954   0.0710605  -0.1065908), wk =   0.0277778
        k(   72) = (   0.0532954   0.0888257   0.0888257), wk =   0.0277778
        k(   73) = (   0.0532954   0.0888257  -0.1065908), wk =   0.0277778
        k(   74) = (   0.0532954  -0.1065908  -0.1065908), wk =   0.0069444
        k(   75) = (   0.0710605   0.0710605   0.0710605), wk =   0.0092593
        k(   76) = (   0.0710605   0.0710605   0.0888257), wk =   0.0277778
        k(   77) = (   0.0710605   0.0710605  -0.1065908), wk =   0.0138889
        k(   78) = (   0.0710605   0.0888257   0.0888257), wk =   0.0277778
        k(   79) = (   0.0710605   0.0888257  -0.1065908), wk =   0.0277778
        k(   80) = (   0.0710605  -0.1065908  -0.1065908), wk =   0.0069444
        k(   81) = (   0.0888257   0.0888257   0.0888257), wk =   0.0092593
        k(   82) = (   0.0888257   0.0888257  -0.1065908), wk =   0.0138889
        k(   83) = (   0.0888257  -0.1065908  -0.1065908), wk =   0.0069444
        k(   84) = (  -0.1065908  -0.1065908  -0.1065908), wk =   0.0011574

     Largest allocated arrays     est. size (Mb)     dimensions
     Largest temporary arrays     est. size (Mb)     dimensions

     Initial potential from superposition of free atoms
     Check: negative starting charge=   -0.255563

     starting charge   48.98540, renormalised to   51.00000

     negative rho (up, down):  2.661E-01 0.000E+00

     *
     * You are using vdW-DF for exchange-correlation in this calculation.
     * Please cite the following three references that made this development
     * possible:
     *
     *   M. Dion, H. Rydberg, E. Schroder, D. C. Langreth, and
     *   B. I. Lundqvist, Phys. Rev. Lett. 92, 246401 (2004).
     *
     *   T. Thonhauser, V. R. Cooper, S. Li, A. Puzder, P. Hyldgaard, and
     *   D. C. Langreth, Phys. Rev. B 76, 125112 (2007).
     *
     *   G. Roman-Perez and J. M. Soler, Phys. Rev. Lett. 103, 096102 (2009).
     *
     *
     * If you are using vdW-DF2, please also cite:
     *
     *   K. Lee, E. D. Murray, L. Kong, B. I. Lundqvist, and
     *   D. C. Langreth, Phys. Rev. B 82, 081101(R) (2010).
     *
     *
     * If you are calculating the stress with vdW-DF, please also cite:
     *
     *   R. Sabatini, E. Kucukbenli, B. Kolb, T. Thonhauser, and
     *   S. de Gironcoli, J. Phys.: Condens. Matter 24, 424209 (2012).
     *

     Carrying out vdW-DF run using the following parameters:

     Nqs =      20    Nr_points =    1024   r_max =   100.000
     q_mesh =
               0.00001000     0.04494208     0.09755937     0.15916263
               0.23128650     0.31572767     0.41458969     0.53033537
               0.66584808     0.82450364     1.01025438     1.22772762
               1.48234092     1.78043706     2.12944203     2.53805004
               3.01644009     3.57652955     4.23227104     5.00000000

     Gradients computed in reciprocal space

     Starting wfc are   40 randomized atomic wfcs +    5 random wfc

     Self-consistent Calculation

     iteration #  1     ecut=    58.80 Ry     beta=0.10
     Davidson diagonalization with overlap
     ethr =  1.00E-02,  avg # of iterations =  4.9

[...]

     total energy              =    -601.26772570 Ry
     Harris-Foulkes estimate   =    -601.32484657 Ry
     estimated scf accuracy    <       1.11374550 Ry

[...]

     total energy              =    -600.93679936 Ry
     Harris-Foulkes estimate   =    -600.93672439 Ry
     estimated scf accuracy    <       0.00000001 Ry

     iteration # 17     ecut=    58.80 Ry     beta=0.10
     Davidson diagonalization with overlap
     ethr =  1.56E-11,  avg # of iterations =  2.9

     negative rho (up, down):  2.754E-01 0.000E+00

     End of self-consistent calculation

          k = 0.0000 0.0000 0.0000 (  5377 PWs)   bands (ev):

   -51.4489 -19.9006 -19.9006 -19.9006  -0.0103   0.0547   0.0548   0.0548
     0.3205   0.3208   0.6287   0.6287   0.6291   0.7773   0.7776   1.0326
     1.0720   1.0723   1.0723   2.1767   8.4408   8.4409  10.8255  10.8255
    10.8255  13.4604  13.4604  13.4604  14.0023  14.1532  14.1532  16.5637
    16.5637  16.5637  18.4413  18.4413  18.4414  22.4858  23.1547  23.1548
    23.2887  23.9619  23.9620  23.9620  25.0687

[...]

          k = 0.0888-0.1066-0.1066 (  5340 PWs)   bands (ev):

[...]

          k =-0.1066-0.1066-0.1066 (  5400 PWs)   bands (ev):

   -51.4488 -19.9043 -19.9043 -19.9043   0.1818   0.1819   0.1820   0.1820
     0.3883   0.3883   0.3884   0.6378   0.6378   0.6382   0.7281   0.7284
     1.0199   1.0199   1.0200   6.5407   6.5407   6.5409   9.0594   9.8110
     9.8112   9.8112  12.3973  13.8956  13.8956  14.7810  14.7810  14.7811
    21.1652  21.1654  21.1654  21.3111  21.3112  22.6519  22.6520  22.6520
    22.8411  25.0471  25.0472  25.0472  26.6200

     the Fermi energy is    12.3984 ev

!    total energy              =    -600.93711822 Ry
     Harris-Foulkes estimate   =    -600.93679940 Ry
     estimated scf accuracy    <          6.3E-09 Ry

     The total energy is the sum of the following terms:

     one-electron contribution =     -69.39060796 Ry
     hartree contribution      =      74.42012841 Ry
     xc contribution           =    -269.44720616 Ry
     ewald contribution        =    -336.51455524 Ry
     smearing contrib. (-TS)   =      -0.00487726 Ry

     convergence has been achieved in  17 iterations

     Forces acting on atoms (Ry/au):

     negative rho (up, down):  2.754E-01 0.000E+00
     atom    1 type  1   force =     0.00000000    0.00000000    0.00000000
     atom    2 type  1   force =     0.00000000    0.00000000    0.00000000
     atom    3 type  1   force =     0.00000000    0.00000000    0.00000000
     atom    4 type  2   force =     0.00000000    0.00000000    0.00000000

     Total force =     0.000000     Total SCF correction =     0.000000
 !ASE

     General routines

     Parallel routines

   This run was terminated on:   2:17:52  26Oct2017

   JOB DONE.