     Program PWSCF v.5.1rc2 (svn rev. ) starts on 25Oct2017 at  4:48:40

     Current dimensions of program PWSCF are:
     Max number of different atomic species (ntypx) = 10
     Max number of k-points (npk) =  40000
     Max angular momentum in pseudopotentials (lmaxx) =  3

     IMPORTANT: XC functional enforced from input :
     Exchange-correlation      = BEEF-VDW ( 1  4 27 13 2)
     Any further DFT definition will be discarded
     Please, verify this is what you really want

     Subspace diagonalization in iterative solution of the eigenvalue problem:
     a serial algorithm will be used

     bravais-lattice index     =            0
     lattice parameter (alat)  =       1.8897  a.u.
     unit-cell volume          =     589.6304 (a.u.)^3
     number of atoms/cell      =            4
     number of atomic types    =            2
     number of electrons       =        49.00
     number of Kohn-Sham states=           44
     kinetic-energy cutoff     =      58.7989  Ry
     charge density cutoff     =     587.9892  Ry
     convergence threshold     =      7.3E-09
     mixing beta               =       0.1000
     number of iterations used =           10  local-TF  mixing
     Exchange-correlation      = BEEF-VDW ( 1  4 27 13 2)
     nstep                     =           50

     celldm(1)=   1.889726  celldm(2)=   0.000000  celldm(3)=   0.000000
     celldm(4)=   0.000000  celldm(5)=   0.000000  celldm(6)=   0.000000

     crystal axes: (cart. coord. in units of alat)
               a(1) = (   4.437392   0.000000   0.000000 )
               a(2) = (   0.000000   4.437392   0.000000 )
               a(3) = (   0.000000   0.000000   4.437392 )

     reciprocal axes: (cart. coord. in units 2 pi/alat)
               b(1) = (  0.225358  0.000000  0.000000 )
               b(2) = (  0.000000  0.225358  0.000000 )
               b(3) = (  0.000000  0.000000  0.225358 )

     PseudoPot. # 1 for Hf read from file:
     /home/vossj/suncat/psp/gbrv1.5pbe/Hf.UPF
     MD5 check sum: 8ee9378dfe14276e333edf04c5e4aa26
     Pseudo is Ultrasoft + core correction, Zval = 12.0
     Generated by new atomic code, or converted to UPF format
     Using radial grid of  921 points,  8 beta functions with:
                l(1) =   0
                l(2) =   0
                l(3) =   0
                l(4) =   1
                l(5) =   1
                l(6) =   2
                l(7) =   2
                l(8) =   3
     Q(r) pseudized with  6 coefficients,  rinner =    1.200   1.200   1.200
                                                       1.200   1.200   1.200
                                                       1.200

     PseudoPot. # 2 for In read from file:
     /home/vossj/suncat/psp/gbrv1.5pbe/In.UPF
     MD5 check sum: 90777abd96fbb83f2e67db2a40c566b9
     Pseudo is Ultrasoft + core correction, Zval = 13.0
     Generated by new atomic code, or converted to UPF format
     Using radial grid of  889 points,  6 beta functions with:
                l(1) =   0
                l(2) =   0
                l(3) =   1
                l(4) =   1
                l(5) =   2
                l(6) =   2
     Q(r) pseudized with  6 coefficients,  rinner =    1.400   1.400   1.400
                                                       1.400   1.400

     vdW kernel table read from file vdW_kernel_table
     MD5 check sum: 095c7af220d748ca6e76c0b4c6cfb241

     atomic species   valence    mass     pseudopotential
        Hf1           12.00   178.49000     Hf( 1.00)
        In1           13.00   114.81800     In( 1.00)

     48 Sym. Ops., with inversion, found (32 have fractional translation)

   Cartesian axes

     site n.     atom                  positions (alat units)
         1           Hf1 tau(   1) = (   0.0000000   0.0000000   0.0000000  )
         2           Hf1 tau(   2) = (   0.0000000   2.2186958   2.2186958  )
         3           Hf1 tau(   3) = (   2.2186958   0.0000000   2.2186958  )
         4           In1 tau(   4) = (   2.2186958   2.2186958   0.0000000  )

     number of k points=    84  Fermi-Dirac smearing, width (Ry)=  0.0073
                       cart. coord. in units 2pi/alat
        k(    1) = (   0.0000000   0.0000000   0.0000000), wk =   0.0011574
        k(    2) = (   0.0000000   0.0000000   0.0187798), wk =   0.0069444
        k(    3) = (   0.0000000   0.0000000   0.0375596), wk =   0.0069444
        k(    4) = (   0.0000000   0.0000000   0.0563394), wk =   0.0069444
        k(    5) = (   0.0000000   0.0000000   0.0751192), wk =   0.0069444
        k(    6) = (   0.0000000   0.0000000   0.0938990), wk =   0.0069444
        k(    7) = (   0.0000000   0.0000000  -0.1126788), wk =   0.0034722
        k(    8) = (   0.0000000   0.0187798   0.0187798), wk =   0.0138889
        k(    9) = (   0.0000000   0.0187798   0.0375596), wk =   0.0277778
        k(   10) = (   0.0000000   0.0187798   0.0563394), wk =   0.0277778
        k(   11) = (   0.0000000   0.0187798   0.0751192), wk =   0.0277778
        k(   12) = (   0.0000000   0.0187798   0.0938990), wk =   0.0277778
        k(   13) = (   0.0000000   0.0187798  -0.1126788), wk =   0.0138889
        k(   14) = (   0.0000000   0.0375596   0.0375596), wk =   0.0138889
        k(   15) = (   0.0000000   0.0375596   0.0563394), wk =   0.0277778
        k(   16) = (   0.0000000   0.0375596   0.0751192), wk =   0.0277778
        k(   17) = (   0.0000000   0.0375596   0.0938990), wk =   0.0277778
        k(   18) = (   0.0000000   0.0375596  -0.1126788), wk =   0.0138889
        k(   19) = (   0.0000000   0.0563394   0.0563394), wk =   0.0138889
        k(   20) = (   0.0000000   0.0563394   0.0751192), wk =   0.0277778
        k(   21) = (   0.0000000   0.0563394   0.0938990), wk =   0.0277778
        k(   22) = (   0.0000000   0.0563394  -0.1126788), wk =   0.0138889
        k(   23) = (   0.0000000   0.0751192   0.0751192), wk =   0.0138889
        k(   24) = (   0.0000000   0.0751192   0.0938990), wk =   0.0277778
        k(   25) = (   0.0000000   0.0751192  -0.1126788), wk =   0.0138889
        k(   26) = (   0.0000000   0.0938990   0.0938990), wk =   0.0138889
        k(   27) = (   0.0000000   0.0938990  -0.1126788), wk =   0.0138889
        k(   28) = (   0.0000000  -0.1126788  -0.1126788), wk =   0.0034722
        k(   29) = (   0.0187798   0.0187798   0.0187798), wk =   0.0092593
        k(   30) = (   0.0187798   0.0187798   0.0375596), wk =   0.0277778
        k(   31) = (   0.0187798   0.0187798   0.0563394), wk =   0.0277778
        k(   32) = (   0.0187798   0.0187798   0.0751192), wk =   0.0277778
        k(   33) = (   0.0187798   0.0187798   0.0938990), wk =   0.0277778
        k(   34) = (   0.0187798   0.0187798  -0.1126788), wk =   0.0138889
        k(   35) = (   0.0187798   0.0375596   0.0375596), wk =   0.0277778
        k(   36) = (   0.0187798   0.0375596   0.0563394), wk =   0.0555556
        k(   37) = (   0.0187798   0.0375596   0.0751192), wk =   0.0555556
        k(   38) = (   0.0187798   0.0375596   0.0938990), wk =   0.0555556
        k(   39) = (   0.0187798   0.0375596  -0.1126788), wk =   0.0277778
        k(   40) = (   0.0187798   0.0563394   0.0563394), wk =   0.0277778
        k(   41) = (   0.0187798   0.0563394   0.0751192), wk =   0.0555556
        k(   42) = (   0.0187798   0.0563394   0.0938990), wk =   0.0555556
        k(   43) = (   0.0187798   0.0563394  -0.1126788), wk =   0.0277778
        k(   44) = (   0.0187798   0.0751192   0.0751192), wk =   0.0277778
        k(   45) = (   0.0187798   0.0751192   0.0938990), wk =   0.0555556
        k(   46) = (   0.0187798   0.0751192  -0.1126788), wk =   0.0277778
        k(   47) = (   0.0187798   0.0938990   0.0938990), wk =   0.0277778
        k(   48) = (   0.0187798   0.0938990  -0.1126788), wk =   0.0277778
        k(   49) = (   0.0187798  -0.1126788  -0.1126788), wk =   0.0069444
        k(   50) = (   0.0375596   0.0375596   0.0375596), wk =   0.0092593
        k(   51) = (   0.0375596   0.0375596   0.0563394), wk =   0.0277778
        k(   52) = (   0.0375596   0.0375596   0.0751192), wk =   0.0277778
        k(   53) = (   0.0375596   0.0375596   0.0938990), wk =   0.0277778
        k(   54) = (   0.0375596   0.0375596  -0.1126788), wk =   0.0138889
        k(   55) = (   0.0375596   0.0563394   0.0563394), wk =   0.0277778
        k(   56) = (   0.0375596   0.0563394   0.0751192), wk =   0.0555556
        k(   57) = (   0.0375596   0.0563394   0.0938990), wk =   0.0555556
        k(   58) = (   0.0375596   0.0563394  -0.1126788), wk =   0.0277778
        k(   59) = (   0.0375596   0.0751192   0.0751192), wk =   0.0277778
        k(   60) = (   0.0375596   0.0751192   0.0938990), wk =   0.0555556
[...]
        k(   70) = (   0.0563394   0.0751192   0.0938990), wk =   0.0555556
        k(   71) = (   0.0563394   0.0751192  -0.1126788), wk =   0.0277778
        k(   72) = (   0.0563394   0.0938990   0.0938990), wk =   0.0277778
        k(   73) = (   0.0563394   0.0938990  -0.1126788), wk =   0.0277778
        k(   74) = (   0.0563394  -0.1126788  -0.1126788), wk =   0.0069444
        k(   75) = (   0.0751192   0.0751192   0.0751192), wk =   0.0092593
        k(   76) = (   0.0751192   0.0751192   0.0938990), wk =   0.0277778
        k(   77) = (   0.0751192   0.0751192  -0.1126788), wk =   0.0138889
        k(   78) = (   0.0751192   0.0938990   0.0938990), wk =   0.0277778
        k(   79) = (   0.0751192   0.0938990  -0.1126788), wk =   0.0277778
        k(   80) = (   0.0751192  -0.1126788  -0.1126788), wk =   0.0069444
        k(   81) = (   0.0938990   0.0938990   0.0938990), wk =   0.0092593
        k(   82) = (   0.0938990   0.0938990  -0.1126788), wk =   0.0138889
        k(   83) = (   0.0938990  -0.1126788  -0.1126788), wk =   0.0069444
        k(   84) = (  -0.1126788  -0.1126788  -0.1126788), wk =   0.0011574

     Largest allocated arrays     est. size (Mb)     dimensions
     Largest temporary arrays     est. size (Mb)     dimensions

     Initial potential from superposition of free atoms
     Check: negative starting charge=   -0.324005

     starting charge   41.49999, renormalised to   49.00000

     negative rho (up, down):  3.826E-01 0.000E+00

     *
     * You are using vdW-DF for exchange-correlation in this calculation.
     * Please cite the following three references that made this development
     * possible:
     *
     *   M. Dion, H. Rydberg, E. Schroder, D. C. Langreth, and
     *   B. I. Lundqvist, Phys. Rev. Lett. 92, 246401 (2004).
     *
     *   T. Thonhauser, V. R. Cooper, S. Li, A. Puzder, P. Hyldgaard, and
     *   D. C. Langreth, Phys. Rev. B 76, 125112 (2007).
     *
     *   G. Roman-Perez and J. M. Soler, Phys. Rev. Lett. 103, 096102 (2009).
     *
     *
     * If you are using vdW-DF2, please also cite:
     *
     *   K. Lee, E. D. Murray, L. Kong, B. I. Lundqvist, and
     *   D. C. Langreth, Phys. Rev. B 82, 081101(R) (2010).
     *
     *
     * If you are calculating the stress with vdW-DF, please also cite:
     *
     *   R. Sabatini, E. Kucukbenli, B. Kolb, T. Thonhauser, and
     *   S. de Gironcoli, J. Phys.: Condens. Matter 24, 424209 (2012).
     *

     Carrying out vdW-DF run using the following parameters:

     Nqs =      20    Nr_points =    1024   r_max =   100.000
     q_mesh =
               0.00001000     0.04494208     0.09755937     0.15916263
               0.23128650     0.31572767     0.41458969     0.53033537
               0.66584808     0.82450364     1.01025438     1.22772762
               1.48234092     1.78043706     2.12944203     2.53805004
               3.01644009     3.57652955     4.23227104     5.00000000

     Gradients computed in reciprocal space

     Starting wfc are   48 randomized atomic wfcs

     Self-consistent Calculation

     iteration #  1     ecut=    58.80 Ry     beta=0.10
     Davidson diagonalization with overlap
     ethr =  1.00E-02,  avg # of iterations =  3.9

[...]

     total energy              =    -620.85149670 Ry
     Harris-Foulkes estimate   =    -621.96270849 Ry
     estimated scf accuracy    <      18.68176475 Ry

[...]

     total energy              =    -616.62153106 Ry
     Harris-Foulkes estimate   =    -616.62153077 Ry
     estimated scf accuracy    <       0.00000002 Ry

     iteration # 15     ecut=    58.80 Ry     beta=0.10
     Davidson diagonalization with overlap
     ethr =  3.91E-11,  avg # of iterations =  2.0

     negative rho (up, down):  3.517E-01 0.000E+00

     End of self-consistent calculation

          k = 0.0000 0.0000 0.0000 (  4457 PWs)   bands (ev):

   -48.0625 -47.9964 -47.9960 -16.8640 -16.8640 -16.8640 -16.5785 -16.5785
   -16.5783 -16.2613 -16.2610 -16.2610  -0.2345  -0.2345  -0.2279  -0.2278
    -0.2278   5.7047  10.4084  12.2443  12.2445  12.9408  12.9408  12.9409
    14.7487  14.7487  14.7488  17.0877  17.0880  17.0880  19.1801  19.1803
    19.3808  20.3665  21.1261  21.1261  21.1264  21.9027  21.9027  21.9027
    24.3236  24.3237  24.3821  24.3821

[...]

          k = 0.0939-0.1127-0.1127 (  4524 PWs)   bands (ev):

[...]

          k =-0.1127-0.1127-0.1127 (  4416 PWs)   bands (ev):

   -48.0184 -48.0179 -48.0179 -16.9448 -16.8814 -16.8814 -16.8811 -16.3883
   -16.3883 -16.3880 -16.2137 -16.2133  -0.2444  -0.2444  -0.2444  -0.1683
    -0.1682   8.0549  11.4192  11.4193  11.4193  12.8409  12.8409  12.8410
    14.9352  15.2441  15.2443  15.2443  16.7860  16.7864  16.7864  17.8768
    17.8771  19.3515  20.4433  20.4433  20.4433  22.8104  22.8104  22.8104
    24.9569  24.9569  24.9569  25.3494

     the Fermi energy is    14.2059 ev

!    total energy              =    -616.62153428 Ry
     Harris-Foulkes estimate   =    -616.62153297 Ry
     estimated scf accuracy    <          5.1E-09 Ry

     The total energy is the sum of the following terms:

     one-electron contribution =     -85.96145594 Ry
     hartree contribution      =      69.21907931 Ry
     xc contribution           =    -271.47467538 Ry
     ewald contribution        =    -328.39656392 Ry
     smearing contrib. (-TS)   =      -0.00791834 Ry

     convergence has been achieved in  15 iterations

     Forces acting on atoms (Ry/au):

     negative rho (up, down):  3.517E-01 0.000E+00
     atom    1 type  1   force =     0.00000000    0.00000000    0.00000000
     atom    2 type  1   force =     0.00000000    0.00000000    0.00000000
     atom    3 type  1   force =     0.00000000    0.00000000    0.00000000
     atom    4 type  2   force =     0.00000000    0.00000000    0.00000000

     Total force =     0.000000     Total SCF correction =     0.000000
 !ASE

     General routines

     Parallel routines

   This run was terminated on:   4:49:56  25Oct2017

   JOB DONE.