     Program PWSCF v.5.1rc2 (svn rev. 11289) starts on 18Dec2018 at 16:52: 1

     Current dimensions of program PWSCF are:
     Max number of different atomic species (ntypx) = 10
     Max number of k-points (npk) =  40000
     Max angular momentum in pseudopotentials (lmaxx) =  3
     Presently stress not available with electric field

     IMPORTANT: XC functional enforced from input :
     Exchange-correlation      = BEEF-VDW ( 1  4 27 13 2)
     Any further DFT definition will be discarded
     Please, verify this is what you really want

     Subspace diagonalization in iterative solution of the eigenvalue problem:
     a serial algorithm will be used

     Found symmetry operation: I + ( -0.5000 -0.5000  0.0000)
     This is a supercell, fractional translations are disabled

     Generating pointlists ...
     new r_m :   0.4125 (alat units)  0.7795 (a.u.) for type    1
     new r_m :   0.4125 (alat units)  0.7795 (a.u.) for type    2

     bravais-lattice index     =            0
     lattice parameter (alat)  =       1.8897  a.u.
     unit-cell volume          =    5370.8444 (a.u.)^3
     number of atoms/cell      =           12
     number of atomic types    =            2
     number of electrons       =       174.00
     number of Kohn-Sham states=          117
     kinetic-energy cutoff     =      36.7493  Ry
     charge density cutoff     =     367.4932  Ry
     convergence threshold     =      1.0E-06
     mixing beta               =       0.1000
     number of iterations used =           10  plain     mixing
     Exchange-correlation      = BEEF-VDW ( 1  4 27 13 2)
     nstep                     =           50

     celldm(1)=   1.889726  celldm(2)=   0.000000  celldm(3)=   0.000000
     celldm(4)=   0.000000  celldm(5)=   0.000000  celldm(6)=   0.000000

     crystal axes: (cart. coord. in units of alat)
               a(1) = (   5.994076   0.000000   0.000000 )
               a(2) = (   2.756213   5.322803   0.000000 )
               a(3) = (   0.000000   0.000000  24.944991 )

     reciprocal axes: (cart. coord. in units 2 pi/alat)
               b(1) = (  0.166831 -0.086387  0.000000 )
               b(2) = (  0.000000  0.187871  0.000000 )
               b(3) = (  0.000000  0.000000  0.040088 )

     PseudoPot. # 1 for Mn read from file:
     /afs/slac.stanford.edu/u/if/mamunm/psp/gbrv1.5pbe/Mn.UPF
     MD5 check sum: 82ef2b46521d7a7d9e736dc3972e4928
     Pseudo is Ultrasoft + core correction, Zval = 15.0
     Generated by new atomic code, or converted to UPF format
     Using radial grid of  859 points,  6 beta functions with:
                l(1) =   0
                l(2) =   0
                l(3) =   1
                l(4) =   1
                l(5) =   2
                l(6) =   2
     Q(r) pseudized with  8 coefficients,  rinner =    0.950   0.950   0.950
                                                       0.950   0.950

     PseudoPot. # 2 for Sn read from file:
     /afs/slac.stanford.edu/u/if/mamunm/psp/gbrv1.5pbe/Sn.UPF
     MD5 check sum: 469debedee59599fedebd795477fea03
     Pseudo is Ultrasoft + core correction, Zval = 14.0
     Generated by new atomic code, or converted to UPF format
     Using radial grid of  891 points,  6 beta functions with:
                l(1) =   0
                l(2) =   0
                l(3) =   1
                l(4) =   1
                l(5) =   2
                l(6) =   2
     Q(r) pseudized with  8 coefficients,  rinner =    1.350   1.350   1.350
                                                       1.350   1.350

     vdW kernel table read from file vdW_kernel_table
     MD5 check sum: 095c7af220d748ca6e76c0b4c6cfb241

     atomic species   valence    mass     pseudopotential
        Mn1           15.00    54.93804     Mn( 1.00)
        Sn1           14.00   118.71000     Sn( 1.00)

     Starting magnetic structure
     atomic species   magnetization
        Mn1          0.133
        Sn1          0.143

     No symmetry found

   Cartesian axes

     site n.     atom                  positions (alat units)
         1           Mn1 tau(   1) = (   0.0000000   0.0000000  10.0000000  )
         2           Mn1 tau(   2) = (   4.3751446   2.6614015  10.0000000  )
         3           Sn1 tau(   3) = (   2.9970379   0.0000000  10.0000000  )
         4           Sn1 tau(   4) = (   1.3781067   2.6614015  10.0000000  )
         5           Mn1 tau(   5) = (   5.9940757   3.6461977  12.4724956  )
         6           Mn1 tau(   6) = (   1.6189311   0.9847962  12.4724956  )
         7           Sn1 tau(   7) = (   2.9970379   3.6461977  12.4724956  )
         8           Sn1 tau(   8) = (   4.6159690   0.9847962  12.4724956  )
         9           Mn1 tau(   9) = (   3.2378623   1.9695924  14.9449911  )
        10           Mn1 tau(  10) = (   7.6130069   4.6309939  14.9449911  )
        11           Sn1 tau(  11) = (   6.2349002   1.9695924  14.9449911  )
        12           Sn1 tau(  12) = (   4.6159690   4.6309939  14.9449911  )

     number of k points=    40  Fermi-Dirac smearing, width (Ry)=  0.0110
                       cart. coord. in units 2pi/alat
        k(    1) = (   0.0000000   0.0000000   0.0000000), wk =   0.0277778
        k(    2) = (   0.0000000   0.0313118   0.0000000), wk =   0.0555556
        k(    3) = (   0.0000000   0.0626236   0.0000000), wk =   0.0555556
        k(    4) = (   0.0000000  -0.0939355   0.0000000), wk =   0.0277778
        k(    5) = (   0.0278052  -0.0143979   0.0000000), wk =   0.0555556
        k(    6) = (   0.0278052   0.0169139   0.0000000), wk =   0.0555556
        k(    7) = (   0.0278052   0.0482258   0.0000000), wk =   0.0555556
        k(    8) = (   0.0278052  -0.1083334   0.0000000), wk =   0.0555556
        k(    9) = (   0.0278052  -0.0770215   0.0000000), wk =   0.0555556
        k(   10) = (   0.0278052  -0.0457097   0.0000000), wk =   0.0555556
        k(   11) = (   0.0556105  -0.0287958   0.0000000), wk =   0.0555556
        k(   12) = (   0.0556105   0.0025160   0.0000000), wk =   0.0555556
        k(   13) = (   0.0556105   0.0338279   0.0000000), wk =   0.0555556
        k(   14) = (   0.0556105  -0.1227313   0.0000000), wk =   0.0555556
        k(   15) = (   0.0556105  -0.0914194   0.0000000), wk =   0.0555556
        k(   16) = (   0.0556105  -0.0601076   0.0000000), wk =   0.0555556
        k(   17) = (  -0.0834157   0.0431937   0.0000000), wk =   0.0277778
        k(   18) = (  -0.0834157   0.0745055   0.0000000), wk =   0.0555556
        k(   19) = (  -0.0834157   0.1058173   0.0000000), wk =   0.0555556
        k(   20) = (  -0.0834157  -0.0507418   0.0000000), wk =   0.0277778
        k(   21) = (   0.0000000   0.0000000   0.0000000), wk =   0.0277778
        k(   22) = (   0.0000000   0.0313118   0.0000000), wk =   0.0555556
        k(   23) = (   0.0000000   0.0626236   0.0000000), wk =   0.0555556
        k(   24) = (   0.0000000  -0.0939355   0.0000000), wk =   0.0277778
        k(   25) = (   0.0278052  -0.0143979   0.0000000), wk =   0.0555556
        k(   26) = (   0.0278052   0.0169139   0.0000000), wk =   0.0555556
        k(   27) = (   0.0278052   0.0482258   0.0000000), wk =   0.0555556
        k(   28) = (   0.0278052  -0.1083334   0.0000000), wk =   0.0555556
        k(   29) = (   0.0278052  -0.0770215   0.0000000), wk =   0.0555556
        k(   30) = (   0.0278052  -0.0457097   0.0000000), wk =   0.0555556
        k(   31) = (   0.0556105  -0.0287958   0.0000000), wk =   0.0555556
        k(   32) = (   0.0556105   0.0025160   0.0000000), wk =   0.0555556
        k(   33) = (   0.0556105   0.0338279   0.0000000), wk =   0.0555556
        k(   34) = (   0.0556105  -0.1227313   0.0000000), wk =   0.0555556
        k(   35) = (   0.0556105  -0.0914194   0.0000000), wk =   0.0555556
        k(   36) = (   0.0556105  -0.0601076   0.0000000), wk =   0.0555556
        k(   37) = (  -0.0834157   0.0431937   0.0000000), wk =   0.0277778
        k(   38) = (  -0.0834157   0.0745055   0.0000000), wk =   0.0555556
        k(   39) = (  -0.0834157   0.1058173   0.0000000), wk =   0.0555556
        k(   40) = (  -0.0834157  -0.0507418   0.0000000), wk =   0.0277778

     Largest allocated arrays     est. size (Mb)     dimensions
     Largest temporary arrays     est. size (Mb)     dimensions

     Check: negative/imaginary core charge=   -0.000005    0.000000

     Initial potential from superposition of free atoms
     Check: negative starting charge=(component1):   -0.001482
     Check: negative starting charge=(component2):   -0.001130

     starting charge  164.99922, renormalised to  174.00000

     negative rho (up, down):  1.563E-03 1.192E-03

     *
     * You are using vdW-DF for exchange-correlation in this calculation.
     * Please cite the following three references that made this development
     * possible:
     *
     *   M. Dion, H. Rydberg, E. Schroder, D. C. Langreth, and
     *   B. I. Lundqvist, Phys. Rev. Lett. 92, 246401 (2004).
     *
     *   T. Thonhauser, V. R. Cooper, S. Li, A. Puzder, P. Hyldgaard, and
     *   D. C. Langreth, Phys. Rev. B 76, 125112 (2007).
     *
     *   G. Roman-Perez and J. M. Soler, Phys. Rev. Lett. 103, 096102 (2009).
     *
     *
     * If you are using vdW-DF2, please also cite:
     *
     *   K. Lee, E. D. Murray, L. Kong, B. I. Lundqvist, and
     *   D. C. Langreth, Phys. Rev. B 82, 081101(R) (2010).
     *
     *
     * If you are calculating the stress with vdW-DF, please also cite:
     *
     *   R. Sabatini, E. Kucukbenli, B. Kolb, T. Thonhauser, and
     *   S. de Gironcoli, J. Phys.: Condens. Matter 24, 424209 (2012).
     *

     Carrying out vdW-DF run using the following parameters:

     Nqs =      20    Nr_points =    1024   r_max =   100.000
     q_mesh =
               0.00001000     0.04494208     0.09755937     0.15916263
               0.23128650     0.31572767     0.41458969     0.53033537
               0.66584808     0.82450364     1.01025438     1.22772762
               1.48234092     1.78043706     2.12944203     2.53805004
               3.01644009     3.57652955     4.23227104     5.00000000

     Gradients computed in reciprocal space

     Adding external electric field

     Computed dipole along edir(3) :
        Dipole                0.0000 Ry au,          0.0000 Debye
        Dipole field          0.0000 Ry au

        Potential amp.       -0.0000 Ry
        Total length         45.9607 bohr

[...]

     Starting wfc are  132 randomized atomic wfcs

     Self-consistent Calculation

     iteration #  1     ecut=    36.75 Ry     beta=0.10
     Davidson diagonalization with overlap
     ethr =  1.00E-02,  avg # of iterations =  7.9

[...]

     Magnetic moment per site:
     atom:    1    charge:    6.0959    magn:    0.7773    constr:    0.0000
     atom:    2    charge:    6.0959    magn:    0.7773    constr:    0.0000
     atom:    3    charge:    3.6440    magn:    0.4751    constr:    0.0000
     atom:    4    charge:    3.6440    magn:    0.4751    constr:    0.0000
     atom:    5    charge:    6.1106    magn:    0.7818    constr:    0.0000
     atom:    6    charge:    6.1106    magn:    0.7818    constr:    0.0000
[...]
     /afs/slac.stanford.edu/u/if/mamunm/psp/gbrv1.5pbe/Sn.UPF
     MD5 check sum: 469debedee59599fedebd795477fea03
     Pseudo is Ultrasoft + core correction, Zval = 14.0
     Generated by new atomic code, or converted to UPF format
     Using radial grid of  891 points,  6 beta functions with:
                l(1) =   0
                l(2) =   0
                l(3) =   1
                l(4) =   1
                l(5) =   2
                l(6) =   2
     Q(r) pseudized with  8 coefficients,  rinner =    1.350   1.350   1.350
                                                       1.350   1.350

     vdW kernel table read from file vdW_kernel_table
     MD5 check sum: 095c7af220d748ca6e76c0b4c6cfb241

     atomic species   valence    mass     pseudopotential
        Mn1           15.00    54.93804     Mn( 1.00)
        Sn1           14.00   118.71000     Sn( 1.00)

     Starting magnetic structure
     atomic species   magnetization
        Mn1          0.133
        Sn1          0.143

     No symmetry found

   Cartesian axes

     site n.     atom                  positions (alat units)
         1           Mn1 tau(   1) = (   0.0000000   0.0000000  10.0000000  )
         2           Mn1 tau(   2) = (   4.3751446   2.6614015  10.0000000  )
         3           Sn1 tau(   3) = (   2.9970379   0.0000000  10.0000000  )
         4           Sn1 tau(   4) = (   1.3781067   2.6614015  10.0000000  )
         5           Mn1 tau(   5) = (   5.9940757   3.6461977  12.4724956  )
         6           Mn1 tau(   6) = (   1.6189311   0.9847962  12.4724956  )
         7           Sn1 tau(   7) = (   2.9970379   3.6461977  12.4724956  )
         8           Sn1 tau(   8) = (   4.6159690   0.9847962  12.4724956  )
         9           Mn1 tau(   9) = (   3.0995165   1.8854230  14.7631245  )
        10           Mn1 tau(  10) = (   7.4751264   4.5471217  14.7627657  )
        11           Sn1 tau(  11) = (   6.1834784   1.9385815  15.1159805  )
        12           Sn1 tau(  12) = (   4.5647474   4.5995802  15.1159583  )

     number of k points=    40  Fermi-Dirac smearing, width (Ry)=  0.0110
                       cart. coord. in units 2pi/alat
        k(    1) = (   0.0000000   0.0000000   0.0000000), wk =   0.0277778
        k(    2) = (   0.0000000   0.0313118   0.0000000), wk =   0.0555556
        k(    3) = (   0.0000000   0.0626236   0.0000000), wk =   0.0555556
        k(    4) = (   0.0000000  -0.0939355   0.0000000), wk =   0.0277778
        k(    5) = (   0.0278052  -0.0143979   0.0000000), wk =   0.0555556
        k(    6) = (   0.0278052   0.0169139   0.0000000), wk =   0.0555556
        k(    7) = (   0.0278052   0.0482258   0.0000000), wk =   0.0555556
        k(    8) = (   0.0278052  -0.1083334   0.0000000), wk =   0.0555556
        k(    9) = (   0.0278052  -0.0770215   0.0000000), wk =   0.0555556
        k(   10) = (   0.0278052  -0.0457097   0.0000000), wk =   0.0555556
        k(   11) = (   0.0556105  -0.0287958   0.0000000), wk =   0.0555556
        k(   12) = (   0.0556105   0.0025160   0.0000000), wk =   0.0555556
        k(   13) = (   0.0556105   0.0338279   0.0000000), wk =   0.0555556
        k(   14) = (   0.0556105  -0.1227313   0.0000000), wk =   0.0555556
        k(   15) = (   0.0556105  -0.0914194   0.0000000), wk =   0.0555556
        k(   16) = (   0.0556105  -0.0601076   0.0000000), wk =   0.0555556
        k(   17) = (  -0.0834157   0.0431937   0.0000000), wk =   0.0277778
        k(   18) = (  -0.0834157   0.0745055   0.0000000), wk =   0.0555556
        k(   19) = (  -0.0834157   0.1058173   0.0000000), wk =   0.0555556
        k(   20) = (  -0.0834157  -0.0507418   0.0000000), wk =   0.0277778
        k(   21) = (   0.0000000   0.0000000   0.0000000), wk =   0.0277778
        k(   22) = (   0.0000000   0.0313118   0.0000000), wk =   0.0555556
        k(   23) = (   0.0000000   0.0626236   0.0000000), wk =   0.0555556
        k(   24) = (   0.0000000  -0.0939355   0.0000000), wk =   0.0277778
        k(   25) = (   0.0278052  -0.0143979   0.0000000), wk =   0.0555556
        k(   26) = (   0.0278052   0.0169139   0.0000000), wk =   0.0555556
        k(   27) = (   0.0278052   0.0482258   0.0000000), wk =   0.0555556
        k(   28) = (   0.0278052  -0.1083334   0.0000000), wk =   0.0555556
        k(   29) = (   0.0278052  -0.0770215   0.0000000), wk =   0.0555556
        k(   30) = (   0.0278052  -0.0457097   0.0000000), wk =   0.0555556
        k(   31) = (   0.0556105  -0.0287958   0.0000000), wk =   0.0555556
        k(   32) = (   0.0556105   0.0025160   0.0000000), wk =   0.0555556
        k(   33) = (   0.0556105   0.0338279   0.0000000), wk =   0.0555556
        k(   34) = (   0.0556105  -0.1227313   0.0000000), wk =   0.0555556
        k(   35) = (   0.0556105  -0.0914194   0.0000000), wk =   0.0555556
        k(   36) = (   0.0556105  -0.0601076   0.0000000), wk =   0.0555556
        k(   37) = (  -0.0834157   0.0431937   0.0000000), wk =   0.0277778
        k(   38) = (  -0.0834157   0.0745055   0.0000000), wk =   0.0555556
        k(   39) = (  -0.0834157   0.1058173   0.0000000), wk =   0.0555556
        k(   40) = (  -0.0834157  -0.0507418   0.0000000), wk =   0.0277778

     Largest allocated arrays     est. size (Mb)     dimensions
     Largest temporary arrays     est. size (Mb)     dimensions

     Check: negative/imaginary core charge=   -0.000005    0.000000

     Initial potential from superposition of free atoms
     Check: negative starting charge=(component1):   -0.001491
     Check: negative starting charge=(component2):   -0.001137

     starting charge  164.99922, renormalised to  174.00000

[...]

     *
     * You are using vdW-DF for exchange-correlation in this calculation.
     * Please cite the following three references that made this development
     * possible:
     *
     *   M. Dion, H. Rydberg, E. Schroder, D. C. Langreth, and
     *   B. I. Lundqvist, Phys. Rev. Lett. 92, 246401 (2004).
     *
     *   T. Thonhauser, V. R. Cooper, S. Li, A. Puzder, P. Hyldgaard, and
     *   D. C. Langreth, Phys. Rev. B 76, 125112 (2007).
     *
     *   G. Roman-Perez and J. M. Soler, Phys. Rev. Lett. 103, 096102 (2009).
     *
     *
     * If you are using vdW-DF2, please also cite:
     *
     *   K. Lee, E. D. Murray, L. Kong, B. I. Lundqvist, and
     *   D. C. Langreth, Phys. Rev. B 82, 081101(R) (2010).
     *
     *
     * If you are calculating the stress with vdW-DF, please also cite:
     *
     *   R. Sabatini, E. Kucukbenli, B. Kolb, T. Thonhauser, and
     *   S. de Gironcoli, J. Phys.: Condens. Matter 24, 424209 (2012).
     *

     Carrying out vdW-DF run using the following parameters:

     Nqs =      20    Nr_points =    1024   r_max =   100.000
     q_mesh =
               0.00001000     0.04494208     0.09755937     0.15916263
               0.23128650     0.31572767     0.41458969     0.53033537
               0.66584808     0.82450364     1.01025438     1.22772762
               1.48234092     1.78043706     2.12944203     2.53805004
               3.01644009     3.57652955     4.23227104     5.00000000

     Gradients computed in reciprocal space

[...]

     Starting wfc are  132 randomized atomic wfcs

     Self-consistent Calculation

[...]

     iteration # 19     ecut=    36.75 Ry     beta=0.10
     Davidson diagonalization with overlap
     c_bands:  1 eigenvalues not converged
     ethr =  4.14E-07,  avg # of iterations =  5.5

[...]

     total energy              =   -2236.81063506 Ry
     Harris-Foulkes estimate   =   -2236.81063295 Ry
     estimated scf accuracy    <       0.00000228 Ry

[...]

     iteration # 27     ecut=    36.75 Ry     beta=0.10
     Davidson diagonalization with overlap
     ethr =  1.31E-09,  avg # of iterations =  2.1

[...]

     negative rho (up, down):  1.586E-03 1.296E-03

[...]

     Adding external electric field

     Computed dipole along edir(3) :
        Dipole               -0.0150 Ry au,         -0.0382 Debye
        Dipole field         -0.0000 Ry au

        Potential amp.        0.0032 Ry
        Total length         45.9607 bohr

     Magnetic moment per site:
     atom:    1    charge:    6.0115    magn:    1.5402    constr:    0.0000
     atom:    2    charge:    6.0115    magn:    1.5402    constr:    0.0000
     atom:    3    charge:    3.5100    magn:   -0.0029    constr:    0.0000
     atom:    4    charge:    3.5100    magn:   -0.0029    constr:    0.0000
     atom:    5    charge:    6.0089    magn:    1.4180    constr:    0.0000
     atom:    6    charge:    6.0087    magn:    1.4180    constr:    0.0000
     atom:    7    charge:    3.5148    magn:   -0.0016    constr:    0.0000
     atom:    8    charge:    3.5148    magn:   -0.0016    constr:    0.0000
     atom:    9    charge:    6.0232    magn:    1.5028    constr:    0.0000
     atom:   10    charge:    6.0233    magn:    1.5027    constr:    0.0000
     atom:   11    charge:    3.5169    magn:   -0.0029    constr:    0.0000
     atom:   12    charge:    3.5168    magn:   -0.0029    constr:    0.0000

     End of self-consistent calculation

 ------ SPIN UP ------------

[...]

 ------ SPIN DOWN ----------

[...]

          k = 0.0556-0.0601 0.0000 ( 20190 PWs)   bands (ev):

[...]

          k =-0.0834-0.0507 0.0000 ( 20238 PWs)   bands (ev):

   -76.3534 -76.3507 -76.2772 -76.2745 -76.2646 -76.2619 -45.2020 -45.1983
   -45.1576 -45.1539 -45.1387 -45.1342 -45.1322 -45.1290 -45.1250 -45.0847
   -45.0711 -45.0665 -45.0626 -45.0536 -45.0307 -45.0136 -45.0091 -45.0058
   -21.1736 -21.0833 -21.0400 -20.9992 -20.9985 -20.9838 -20.9758 -20.9756
   -20.9327 -20.9145 -20.8935 -20.8659 -20.8256 -20.8165 -20.7808 -20.7699
   -20.7289 -20.7263 -20.7220 -20.7174 -20.7167 -20.7154 -20.7118 -20.7096
   -20.7011 -20.6836 -20.6764 -20.6668 -20.6111 -20.6051  -8.7065  -7.8905
    -7.0577  -6.2752  -4.9552  -4.4539  -4.2166  -3.3384  -3.3145  -2.8267
    -2.5309  -2.0983  -1.1806  -0.7105  -0.6750  -0.6355  -0.4036  -0.0762
     0.6217   0.8306   0.9129   1.0172   1.2847   1.5714   1.7913   1.8251
     1.8473   1.8910   1.9631   1.9766   2.0447   2.0753   2.0760   2.1536
     2.3182   2.3737   2.3982   2.4088   2.4920   2.6231   2.9012   3.0808
     3.1145   3.1591   3.1836   3.2689   4.0102   4.0474   4.2462   4.2842
     4.5325   4.7158   4.9769   5.0337   5.4127   5.4582   5.5033   5.5861
     5.9871   6.1490   6.2023   6.3755   6.5297

     the Fermi energy is     0.9355 ev

!    total energy              =   -2236.81063808 Ry
     Harris-Foulkes estimate   =   -2236.81063580 Ry
     estimated scf accuracy    <       0.00000083 Ry

     The total energy is the sum of the following terms:

     one-electron contribution =  -14391.19885644 Ry
     hartree contribution      =    7224.89663209 Ry
     xc contribution           =    -433.31782132 Ry
     ewald contribution        =    5362.86295237 Ry
     electric field correction =       0.00000053 Ry
     smearing contrib. (-TS)   =      -0.05354531 Ry

     total magnetization       =    22.68 Bohr mag/cell
     absolute magnetization    =    24.49 Bohr mag/cell

     convergence has been achieved in  27 iterations

 BEEF-vdW xc energy contributions
           1 :   -379.906375435165
           2 :    345.863886112722
           3 :   -288.981445386774
           4 :    225.877670066716
           5 :   -171.073813369172
           6 :    132.019281577205
           7 :   -108.463615175154
           8 :    95.1866298853868
           9 :   -85.8556582883468
          10 :    76.0486353519956
          11 :   -64.5041149762508
          12 :    52.6140864340277
          13 :   -42.8245933699272
          14 :    36.8515366264110
          15 :   -34.5886928926865
          16 :    34.2237632419300
          17 :   -33.4396846129805
          18 :    30.8840607321338
          19 :   -26.9042107504632
          20 :    23.0727225050042
          21 :   -20.9322137480259
          22 :    20.9057542516450
          23 :   -22.1069031527401
          24 :    23.0543999802113
          25 :   -22.6897856913242
          26 :    20.9860757451630
          27 :   -18.8229400888087
          28 :    17.3095796064388
          29 :   -17.0530289663980
          30 :    17.8249293522154
          31 :   -33.4757000549847
          32 :   -24.0952374243109

     Forces acting on atoms (Ry/au):

     negative rho (up, down):  1.586E-03 1.296E-03
     atom    1 type  1   force =     0.00772606    0.00469912    0.01022957
     atom    2 type  1   force =     0.00771824    0.00469463    0.01024019
     atom    3 type  2   force =    -0.00745773   -0.00450375   -0.01754909
     atom    4 type  2   force =    -0.00743063   -0.00455219   -0.01754940
     atom    5 type  1   force =    -0.00450314   -0.00273921    0.00384135
     atom    6 type  1   force =    -0.00451229   -0.00274395    0.00384539
     atom    7 type  2   force =     0.00473932    0.00288108    0.00089151
     atom    8 type  2   force =     0.00473925    0.00288415    0.00089158
     atom    9 type  1   force =     0.00003605    0.00002184    0.00111250
     atom   10 type  1   force =     0.00000206    0.00000197    0.00116724
     atom   11 type  2   force =    -0.00049765   -0.00037750    0.00143909
     atom   12 type  2   force =    -0.00055952   -0.00026620    0.00144008

     Total force =     0.036008     Total SCF correction =     0.003652
     SCF correction compared to forces is large: reduce conv_thr to get better values

     entering subroutine stress ...

     negative rho (up, down):  1.586E-03 1.296E-03
          total   stress  (Ry/bohr**3)                   (kbar)     P=  -10.21
  -0.00012776  -0.00004403  -0.00000324        -18.79     -6.48     -0.48
  -0.00004403  -0.00008216  -0.00000197         -6.48    -12.09     -0.29
  -0.00000324  -0.00000197   0.00000168         -0.48     -0.29      0.25

 !ASE

     Writing output data file calc.save

     General routines

     Parallel routines

   This run was terminated on:   1:43:56  19Dec2018

   JOB DONE.
Job  /afs/slac/g/suncat/bin/suncat-tsmpirun -x LD_LIBRARY_PATH -wdir /scratch/qe530230_aXl5Q pw.x -in pw.inp

TID   HOST_NAME   COMMAND_LINE            STATUS            TERMINATION_TIME
00000 suncat2068 pw.x -in pw.inp   Done                     12/19/2018 01:43:56
00001 suncat2068 pw.x -in pw.inp   Done                     12/19/2018 01:43:56
00002 suncat2068 pw.x -in pw.inp   Done                     12/19/2018 01:43:56
00003 suncat2068 pw.x -in pw.inp   Done                     12/19/2018 01:43:56
00004 suncat2068 pw.x -in pw.inp   Done                     12/19/2018 01:43:56
00005 suncat2068 pw.x -in pw.inp   Done                     12/19/2018 01:43:56
00006 suncat2068 pw.x -in pw.inp   Done                     12/19/2018 01:43:56
00007 suncat2068 pw.x -in pw.inp   Done                     12/19/2018 01:43:56
00008 suncat2068 pw.x -in pw.inp   Done                     12/19/2018 01:43:56
00009 suncat2068 pw.x -in pw.inp   Done                     12/19/2018 01:43:56
00010 suncat2068 pw.x -in pw.inp   Done                     12/19/2018 01:43:56
00011 suncat2068 pw.x -in pw.inp   Done                     12/19/2018 01:43:56
00012 suncat2068 pw.x -in pw.inp   Done                     12/19/2018 01:43:56
00013 suncat2068 pw.x -in pw.inp   Done                     12/19/2018 01:43:56
00014 suncat2068 pw.x -in pw.inp   Done                     12/19/2018 01:43:56
00015 suncat2068 pw.x -in pw.inp   Done                     12/19/2018 01:43:56
00016 suncat2067 pw.x -in pw.inp   Done                     12/19/2018 01:43:56
00017 suncat2067 pw.x -in pw.inp   Done                     12/19/2018 01:43:56
00018 suncat2067 pw.x -in pw.inp   Done                     12/19/2018 01:43:56
00019 suncat2067 pw.x -in pw.inp   Done                     12/19/2018 01:43:56
00020 suncat2067 pw.x -in pw.inp   Done                     12/19/2018 01:43:56
00021 suncat2067 pw.x -in pw.inp   Done                     12/19/2018 01:43:56
00022 suncat2067 pw.x -in pw.inp   Done                     12/19/2018 01:43:56
00023 suncat2067 pw.x -in pw.inp   Done                     12/19/2018 01:43:56
00024 suncat2067 pw.x -in pw.inp   Done                     12/19/2018 01:43:56
00025 suncat2067 pw.x -in pw.inp   Done                     12/19/2018 01:43:56
00026 suncat2067 pw.x -in pw.inp   Done                     12/19/2018 01:43:56
00027 suncat2067 pw.x -in pw.inp   Done                     12/19/2018 01:43:56
00028 suncat2067 pw.x -in pw.inp   Done                     12/19/2018 01:43:56
00029 suncat2067 pw.x -in pw.inp   Done                     12/19/2018 01:43:56
00030 suncat2067 pw.x -in pw.inp   Done                     12/19/2018 01:43:56
00031 suncat2067 pw.x -in pw.inp   Done                     12/19/2018 01:43:56