     Program PWSCF v.5.1rc2 (svn rev. 11289) starts on 24Dec2018 at 19: 7:48

     Current dimensions of program PWSCF are:
     Max number of different atomic species (ntypx) = 10
     Max number of k-points (npk) =  40000
     Max angular momentum in pseudopotentials (lmaxx) =  3
     Presently stress not available with electric field

     IMPORTANT: XC functional enforced from input :
     Exchange-correlation      = BEEF-VDW ( 1  4 27 13 2)
     Any further DFT definition will be discarded
     Please, verify this is what you really want

     Subspace diagonalization in iterative solution of the eigenvalue problem:
     a serial algorithm will be used

     Found symmetry operation: I + (  0.5000 -0.5000  0.0000)
     This is a supercell, fractional translations are disabled

     bravais-lattice index     =            0
     lattice parameter (alat)  =       1.8897  a.u.
     unit-cell volume          =    6349.1123 (a.u.)^3
     number of atoms/cell      =           12
     number of atomic types    =            2
     number of electrons       =       198.00
     number of Kohn-Sham states=          129
     kinetic-energy cutoff     =      36.7493  Ry
     charge density cutoff     =     367.4932  Ry
     convergence threshold     =      1.0E-06
     mixing beta               =       0.1000
     number of iterations used =           10  plain     mixing
     Exchange-correlation      = BEEF-VDW ( 1  4 27 13 2)
     nstep                     =           50

     celldm(1)=   1.889726  celldm(2)=   0.000000  celldm(3)=   0.000000
     celldm(4)=   0.000000  celldm(5)=   0.000000  celldm(6)=   0.000000

     crystal axes: (cart. coord. in units of alat)
               a(1) = (   6.372719   0.000000   0.000000 )
               a(2) = (   2.549098   5.840690   0.000000 )
               a(3) = (   0.000000   0.000000  25.277114 )

     reciprocal axes: (cart. coord. in units 2 pi/alat)
               b(1) = (  0.156919 -0.068485  0.000000 )
               b(2) = (  0.000000  0.171213  0.000000 )
               b(3) = (  0.000000  0.000000  0.039561 )

     PseudoPot. # 1 for Ga read from file:
     /afs/slac.stanford.edu/u/if/mamunm/psp/gbrv1.5pbe/Ga.UPF
     MD5 check sum: ccd671392a58a050fbb373893b4fcd66
     Pseudo is Ultrasoft + core correction, Zval = 19.0
     Generated by new atomic code, or converted to UPF format
     Using radial grid of  871 points,  6 beta functions with:
                l(1) =   0
                l(2) =   0
                l(3) =   1
                l(4) =   1
                l(5) =   2
                l(6) =   2
     Q(r) pseudized with  8 coefficients,  rinner =    1.250   1.250   1.250
                                                       1.250   1.250

     PseudoPot. # 2 for Sn read from file:
     /afs/slac.stanford.edu/u/if/mamunm/psp/gbrv1.5pbe/Sn.UPF
     MD5 check sum: 469debedee59599fedebd795477fea03
     Pseudo is Ultrasoft + core correction, Zval = 14.0
     Generated by new atomic code, or converted to UPF format
     Using radial grid of  891 points,  6 beta functions with:
                l(1) =   0
                l(2) =   0
                l(3) =   1
                l(4) =   1
                l(5) =   2
                l(6) =   2
     Q(r) pseudized with  8 coefficients,  rinner =    1.350   1.350   1.350
                                                       1.350   1.350

     vdW kernel table read from file vdW_kernel_table
     MD5 check sum: 095c7af220d748ca6e76c0b4c6cfb241

     atomic species   valence    mass     pseudopotential
        Ga1           19.00    69.72300     Ga( 1.00)
        Sn1           14.00   118.71000     Sn( 1.00)

     No symmetry found

   Cartesian axes

     site n.     atom                  positions (alat units)
         1           Ga1 tau(   1) = (   0.0000000   0.0000000  10.0000000  )
         2           Ga1 tau(   2) = (   4.4609085   2.9203448  10.0000000  )
         3           Sn1 tau(   3) = (   3.1863597   0.0000000  10.0000000  )
         4           Sn1 tau(   4) = (   1.2745488   2.9203448  10.0000000  )
         5           Ga1 tau(   5) = (   6.3727195   4.1719166  12.6385568  )
         6           Ga1 tau(   6) = (   1.9118110   1.2515718  12.6385568  )
         7           Sn1 tau(   7) = (   3.1863597   4.1719166  12.6385568  )
         8           Sn1 tau(   8) = (   5.0981707   1.2515718  12.6385568  )
         9           Ga1 tau(   9) = (   3.8236219   2.5031436  15.2771135  )
        10           Ga1 tau(  10) = (   8.2845304   5.4234884  15.2771135  )
        11           Sn1 tau(  11) = (   7.0099817   2.5031436  15.2771135  )
        12           Sn1 tau(  12) = (   5.0981707   5.4234884  15.2771135  )

     number of k points=    20  Fermi-Dirac smearing, width (Ry)=  0.0110
                       cart. coord. in units 2pi/alat
        k(    1) = (   0.0000000   0.0000000   0.0000000), wk =   0.0555556
        k(    2) = (   0.0000000   0.0285354   0.0000000), wk =   0.1111111
        k(    3) = (   0.0000000   0.0570709   0.0000000), wk =   0.1111111
        k(    4) = (   0.0000000  -0.0856063   0.0000000), wk =   0.0555556
        k(    5) = (   0.0261531  -0.0114142   0.0000000), wk =   0.1111111
        k(    6) = (   0.0261531   0.0171212   0.0000000), wk =   0.1111111
        k(    7) = (   0.0261531   0.0456567   0.0000000), wk =   0.1111111
        k(    8) = (   0.0261531  -0.0970206   0.0000000), wk =   0.1111111
        k(    9) = (   0.0261531  -0.0684851   0.0000000), wk =   0.1111111
        k(   10) = (   0.0261531  -0.0399497   0.0000000), wk =   0.1111111
        k(   11) = (   0.0523063  -0.0228284   0.0000000), wk =   0.1111111
        k(   12) = (   0.0523063   0.0057070   0.0000000), wk =   0.1111111
        k(   13) = (   0.0523063   0.0342424   0.0000000), wk =   0.1111111
        k(   14) = (   0.0523063  -0.1084348   0.0000000), wk =   0.1111111
        k(   15) = (   0.0523063  -0.0798993   0.0000000), wk =   0.1111111
        k(   16) = (   0.0523063  -0.0513639   0.0000000), wk =   0.1111111
        k(   17) = (  -0.0784594   0.0342427   0.0000000), wk =   0.0555556
        k(   18) = (  -0.0784594   0.0627781   0.0000000), wk =   0.1111111
        k(   19) = (  -0.0784594   0.0913135   0.0000000), wk =   0.1111111
        k(   20) = (  -0.0784594  -0.0513637   0.0000000), wk =   0.0555556

     Largest allocated arrays     est. size (Mb)     dimensions
     Largest temporary arrays     est. size (Mb)     dimensions

     Initial potential from superposition of free atoms
     Check: negative starting charge=   -0.001495

     starting charge  185.99972, renormalised to  198.00000

     negative rho (up, down):  1.592E-03 0.000E+00

     *
     * You are using vdW-DF for exchange-correlation in this calculation.
     * Please cite the following three references that made this development
     * possible:
     *
     *   M. Dion, H. Rydberg, E. Schroder, D. C. Langreth, and
     *   B. I. Lundqvist, Phys. Rev. Lett. 92, 246401 (2004).
     *
     *   T. Thonhauser, V. R. Cooper, S. Li, A. Puzder, P. Hyldgaard, and
     *   D. C. Langreth, Phys. Rev. B 76, 125112 (2007).
     *
     *   G. Roman-Perez and J. M. Soler, Phys. Rev. Lett. 103, 096102 (2009).
     *
     *
     * If you are using vdW-DF2, please also cite:
     *
     *   K. Lee, E. D. Murray, L. Kong, B. I. Lundqvist, and
     *   D. C. Langreth, Phys. Rev. B 82, 081101(R) (2010).
     *
     *
     * If you are calculating the stress with vdW-DF, please also cite:
     *
     *   R. Sabatini, E. Kucukbenli, B. Kolb, T. Thonhauser, and
     *   S. de Gironcoli, J. Phys.: Condens. Matter 24, 424209 (2012).
     *

     Carrying out vdW-DF run using the following parameters:

     Nqs =      20    Nr_points =    1024   r_max =   100.000
     q_mesh =
               0.00001000     0.04494208     0.09755937     0.15916263
               0.23128650     0.31572767     0.41458969     0.53033537
               0.66584808     0.82450364     1.01025438     1.22772762
               1.48234092     1.78043706     2.12944203     2.53805004
               3.01644009     3.57652955     4.23227104     5.00000000

     Gradients computed in reciprocal space

     Adding external electric field

     Computed dipole along edir(3) :
        Dipole               -0.0000 Ry au,         -0.0000 Debye
        Dipole field         -0.0000 Ry au

        Potential amp.        0.0000 Ry
        Total length         46.5727 bohr

     Starting wfc are  126 randomized atomic wfcs +    3 random wfc

     Self-consistent Calculation

     iteration #  1     ecut=    36.75 Ry     beta=0.10
     Davidson diagonalization with overlap
     ethr =  1.00E-02,  avg # of iterations = 10.6

[...]

     total energy              =   -3390.96170233 Ry
     Harris-Foulkes estimate   =   -3489.55496597 Ry
     estimated scf accuracy    <     546.13811934 Ry

[...]

     End of self-consistent calculation

          k = 0.0000 0.0000 0.0000 ( 23955 PWs)   bands (ev):

   -94.4804 -94.4803 -94.4802 -94.4801 -94.4619 -94.4618 -94.4617 -94.4615
   -94.4488 -94.4487 -94.4485 -94.4484 -94.3642 -94.3642 -94.3583 -94.3580
   -94.3458 -94.3457 -21.6250 -21.6214 -21.5987 -21.5964 -21.5787 -21.5779
   -21.5765 -21.5757 -21.5722 -21.5716 -21.5711 -21.5693 -21.5655 -21.5654
   -21.5649 -21.5646 -21.5436 -21.5433 -21.5184 -21.5156 -21.5098 -21.4889
   -21.4755 -21.4587 -21.4575 -21.4540 -21.4431 -21.4420 -21.4410 -21.4074
   -14.8197 -14.8173 -14.8103 -14.8078 -14.7967 -14.7953 -14.7930 -14.7913
   -14.7896 -14.7891 -14.7856 -14.7833 -14.7829 -14.7823 -14.7820 -14.7804
   -14.7630 -14.7628 -14.7456 -14.7440 -14.7113 -14.7091 -14.6929 -14.6862
   -14.6826 -14.6770 -14.6712 -14.6698 -14.6638 -14.6423  -9.8124  -8.5694
    -6.7727  -6.0359  -5.8361  -5.2324  -4.9983  -4.9413  -4.8468  -4.1374
    -4.0224  -3.0072  -3.0065  -2.7343  -2.5473  -2.3402  -1.9515  -1.8272
    -1.5152  -1.4509  -1.1641  -0.5603   0.4673   1.3202   1.7980   2.1394
     2.3386   2.3561   2.7572   2.8799   3.4979   3.5516   3.6978   3.7104
     4.2278   4.3098   4.5762   5.1173   5.2710   5.3244   5.6386   5.8074
     5.9118   5.9277   5.9608   6.1165   6.2321   6.3964   6.4491   6.5765
     6.6765

[...]

          k =-0.0785 0.0342 0.0000 ( 23890 PWs)   bands (ev):

[...]

     the Fermi energy is     0.4072 ev

!    total energy              =   -3463.66072701 Ry
     Harris-Foulkes estimate   =   -3463.66072474 Ry
     estimated scf accuracy    <       0.00000088 Ry

     The total energy is the sum of the following terms:

     one-electron contribution =  -17019.25678642 Ry
     hartree contribution      =    8542.79461139 Ry
     xc contribution           =    -564.91840141 Ry
     ewald contribution        =    5577.75550992 Ry
     electric field correction =       0.00000000 Ry
     smearing contrib. (-TS)   =      -0.03566048 Ry

     convergence has been achieved in  16 iterations

 BEEF-vdW xc energy contributions
           1 :   -501.051072390261
           2 :    456.599651342316
           3 :   -381.683393617092
           4 :    297.705355238751
           5 :   -224.241646316868
           6 :    171.848382929680
[...]
     Pseudo is Ultrasoft + core correction, Zval = 19.0
     Generated by new atomic code, or converted to UPF format
     Using radial grid of  871 points,  6 beta functions with:
                l(1) =   0
                l(2) =   0
                l(3) =   1
                l(4) =   1
                l(5) =   2
                l(6) =   2
     Q(r) pseudized with  8 coefficients,  rinner =    1.250   1.250   1.250
                                                       1.250   1.250

     PseudoPot. # 2 for Sn read from file:
     /afs/slac.stanford.edu/u/if/mamunm/psp/gbrv1.5pbe/Sn.UPF
     MD5 check sum: 469debedee59599fedebd795477fea03
     Pseudo is Ultrasoft + core correction, Zval = 14.0
     Generated by new atomic code, or converted to UPF format
     Using radial grid of  891 points,  6 beta functions with:
                l(1) =   0
                l(2) =   0
                l(3) =   1
                l(4) =   1
                l(5) =   2
                l(6) =   2
     Q(r) pseudized with  8 coefficients,  rinner =    1.350   1.350   1.350
                                                       1.350   1.350

     vdW kernel table read from file vdW_kernel_table
     MD5 check sum: 095c7af220d748ca6e76c0b4c6cfb241

     atomic species   valence    mass     pseudopotential
        Ga1           19.00    69.72300     Ga( 1.00)
        Sn1           14.00   118.71000     Sn( 1.00)

     No symmetry found

   Cartesian axes

     site n.     atom                  positions (alat units)
         1           Ga1 tau(   1) = (   0.0000000   0.0000000  10.0000000  )
         2           Ga1 tau(   2) = (   4.4609085   2.9203448  10.0000000  )
         3           Sn1 tau(   3) = (   3.1863597   0.0000000  10.0000000  )
         4           Sn1 tau(   4) = (   1.2745488   2.9203448  10.0000000  )
         5           Ga1 tau(   5) = (   6.3727195   4.1719166  12.6385568  )
         6           Ga1 tau(   6) = (   1.9118110   1.2515718  12.6385568  )
         7           Sn1 tau(   7) = (   3.1863597   4.1719166  12.6385568  )
         8           Sn1 tau(   8) = (   5.0981707   1.2515718  12.6385568  )
         9           Ga1 tau(   9) = (   3.5135869   2.3001240  15.1307555  )
        10           Ga1 tau(  10) = (   7.9434639   5.2004785  15.1262974  )
        11           Sn1 tau(  11) = (   6.7227067   2.3016655  15.1661201  )
        12           Sn1 tau(  12) = (   4.7983873   5.2408423  15.1660401  )

     number of k points=    20  Fermi-Dirac smearing, width (Ry)=  0.0110
                       cart. coord. in units 2pi/alat
        k(    1) = (   0.0000000   0.0000000   0.0000000), wk =   0.0555556
        k(    2) = (   0.0000000   0.0285354   0.0000000), wk =   0.1111111
        k(    3) = (   0.0000000   0.0570709   0.0000000), wk =   0.1111111
        k(    4) = (   0.0000000  -0.0856063   0.0000000), wk =   0.0555556
        k(    5) = (   0.0261531  -0.0114142   0.0000000), wk =   0.1111111
        k(    6) = (   0.0261531   0.0171212   0.0000000), wk =   0.1111111
        k(    7) = (   0.0261531   0.0456567   0.0000000), wk =   0.1111111
        k(    8) = (   0.0261531  -0.0970206   0.0000000), wk =   0.1111111
        k(    9) = (   0.0261531  -0.0684851   0.0000000), wk =   0.1111111
        k(   10) = (   0.0261531  -0.0399497   0.0000000), wk =   0.1111111
        k(   11) = (   0.0523063  -0.0228284   0.0000000), wk =   0.1111111
        k(   12) = (   0.0523063   0.0057070   0.0000000), wk =   0.1111111
        k(   13) = (   0.0523063   0.0342424   0.0000000), wk =   0.1111111
        k(   14) = (   0.0523063  -0.1084348   0.0000000), wk =   0.1111111
        k(   15) = (   0.0523063  -0.0798993   0.0000000), wk =   0.1111111
        k(   16) = (   0.0523063  -0.0513639   0.0000000), wk =   0.1111111
        k(   17) = (  -0.0784594   0.0342427   0.0000000), wk =   0.0555556
        k(   18) = (  -0.0784594   0.0627781   0.0000000), wk =   0.1111111
        k(   19) = (  -0.0784594   0.0913135   0.0000000), wk =   0.1111111
        k(   20) = (  -0.0784594  -0.0513637   0.0000000), wk =   0.0555556

     Largest allocated arrays     est. size (Mb)     dimensions
     Largest temporary arrays     est. size (Mb)     dimensions

     Initial potential from superposition of free atoms
     Check: negative starting charge=   -0.001528

     starting charge  185.99972, renormalised to  198.00000

[...]

     *
     * You are using vdW-DF for exchange-correlation in this calculation.
     * Please cite the following three references that made this development
     * possible:
     *
     *   M. Dion, H. Rydberg, E. Schroder, D. C. Langreth, and
     *   B. I. Lundqvist, Phys. Rev. Lett. 92, 246401 (2004).
     *
     *   T. Thonhauser, V. R. Cooper, S. Li, A. Puzder, P. Hyldgaard, and
     *   D. C. Langreth, Phys. Rev. B 76, 125112 (2007).
     *
     *   G. Roman-Perez and J. M. Soler, Phys. Rev. Lett. 103, 096102 (2009).
     *
     *
     * If you are using vdW-DF2, please also cite:
     *
     *   K. Lee, E. D. Murray, L. Kong, B. I. Lundqvist, and
     *   D. C. Langreth, Phys. Rev. B 82, 081101(R) (2010).
     *
     *
     * If you are calculating the stress with vdW-DF, please also cite:
     *
     *   R. Sabatini, E. Kucukbenli, B. Kolb, T. Thonhauser, and
     *   S. de Gironcoli, J. Phys.: Condens. Matter 24, 424209 (2012).
     *

     Carrying out vdW-DF run using the following parameters:

     Nqs =      20    Nr_points =    1024   r_max =   100.000
     q_mesh =
               0.00001000     0.04494208     0.09755937     0.15916263
               0.23128650     0.31572767     0.41458969     0.53033537
               0.66584808     0.82450364     1.01025438     1.22772762
               1.48234092     1.78043706     2.12944203     2.53805004
               3.01644009     3.57652955     4.23227104     5.00000000

     Gradients computed in reciprocal space

[...]

     Starting wfc are  126 randomized atomic wfcs +    3 random wfc

     Self-consistent Calculation

[...]

     total energy              =   -3463.66787511 Ry
     Harris-Foulkes estimate   =   -3463.66787464 Ry
     estimated scf accuracy    <       0.00000233 Ry

     iteration # 16     ecut=    36.75 Ry     beta=0.10
     Davidson diagonalization with overlap
     ethr =  1.18E-09,  avg # of iterations =  2.5

[...]

     negative rho (up, down):  7.945E-04 0.000E+00

     Adding external electric field

     Computed dipole along edir(3) :
        Dipole               -0.0286 Ry au,         -0.0726 Debye
        Dipole field         -0.0001 Ry au

        Potential amp.        0.0053 Ry
        Total length         46.5727 bohr

     End of self-consistent calculation

[...]

          k = 0.0523-0.0514 0.0000 ( 23910 PWs)   bands (ev):

[...]

          k =-0.0785-0.0514 0.0000 ( 23872 PWs)   bands (ev):

   -94.4932 -94.4925 -94.4753 -94.4750 -94.4610 -94.4606 -94.4399 -94.4357
   -94.4281 -94.4243 -94.4158 -94.4119 -94.3873 -94.3865 -94.3855 -94.3851
   -94.3694 -94.3692 -21.6428 -21.6286 -21.6148 -21.5997 -21.5931 -21.5911
   -21.5880 -21.5877 -21.5834 -21.5826 -21.5759 -21.5756 -21.5737 -21.5658
   -21.5649 -21.5591 -21.5579 -21.5417 -21.5326 -21.5288 -21.5161 -21.5137
   -21.4969 -21.4789 -21.4765 -21.4749 -21.4637 -21.4559 -21.4534 -21.4238
   -14.8320 -14.8222 -14.8072 -14.8065 -14.8013 -14.7964 -14.7961 -14.7960
   -14.7885 -14.7790 -14.7772 -14.7665 -14.7663 -14.7639 -14.7602 -14.7581
   -14.7560 -14.7482 -14.7367 -14.7364 -14.7326 -14.7182 -14.7155 -14.7066
   -14.7059 -14.7038 -14.6895 -14.6878 -14.6844 -14.6619  -8.8006  -8.5480
    -7.5926  -7.2261  -6.8023  -6.4214  -6.0045  -5.2090  -5.1181  -4.9739
    -4.5053  -3.4271  -1.2231  -1.1573  -0.8830  -0.6687  -0.5463  -0.4508
    -0.4139   0.4478   0.9419   1.0214   1.0617   1.4749   1.5781   2.1149
     2.1150   2.2263   2.3245   2.6905   2.8241   3.0728   3.3894   3.5384
     3.6716   3.7206   3.7620   3.8808   4.2144   4.2401   4.5232   4.6846
     4.9265   4.9512   5.0607   5.0912   5.2571   5.4817   5.5889   5.6476
     5.8527

     the Fermi energy is     0.3785 ev

!    total energy              =   -3463.66787864 Ry
     Harris-Foulkes estimate   =   -3463.66787542 Ry
     estimated scf accuracy    <       0.00000037 Ry

     The total energy is the sum of the following terms:

     one-electron contribution =  -17303.83180507 Ry
     hartree contribution      =    8685.07220197 Ry
     xc contribution           =    -565.02205773 Ry
     ewald contribution        =    5720.14622102 Ry
     electric field correction =       0.00000162 Ry
     smearing contrib. (-TS)   =      -0.03244044 Ry

     convergence has been achieved in  16 iterations

 BEEF-vdW xc energy contributions
           1 :   -501.158171502804
           2 :    456.760968775085
           3 :   -381.915938523715
           4 :    297.971861809158
           5 :   -224.471449268297
           6 :    171.983026430845
           7 :   -140.113229536618
           8 :    120.894089944386
           9 :   -104.991892030384
          10 :    87.0197050742554
          11 :   -67.2927274163146
          12 :    49.7900707792848
          13 :   -38.3344430772526
          14 :    33.6949378550614
          15 :   -33.2726509941033
          16 :    33.1057567449907
          17 :   -30.4947776822258
          18 :    25.4178807705977
          19 :   -19.9896287867975
          20 :    16.6123135413181
          21 :   -16.2427330266476
          22 :    17.9086695904887
          23 :   -19.6110007761863
          24 :    19.7894066925692
          25 :   -18.2706974077356
          26 :    16.1290275894148
          27 :   -14.7228836934162
          28 :    14.6995296760728
          29 :   -15.6625601595124
          30 :    16.6262378476259
          31 :   -40.0881319350815
          32 :   -28.1966015295673

     Forces acting on atoms (Ry/au):

     negative rho (up, down):  7.945E-04 0.000E+00
     atom    1 type  1   force =     0.00190744    0.00124961    0.00372080
     atom    2 type  1   force =     0.00190962    0.00124922    0.00365599
     atom    3 type  2   force =     0.00017040    0.00023934    0.01138053
     atom    4 type  2   force =     0.00028906    0.00006206    0.01137640
     atom    5 type  1   force =     0.00074593    0.00048553   -0.00473729
     atom    6 type  1   force =     0.00084226    0.00055632   -0.00502276
     atom    7 type  2   force =    -0.00260101   -0.00170405   -0.01052970
     atom    8 type  2   force =    -0.00259846   -0.00169514   -0.01053145
     atom    9 type  1   force =    -0.00123500   -0.00080677    0.00099057
     atom   10 type  1   force =    -0.00005654   -0.00004455    0.00093705
     atom   11 type  2   force =     0.00049209   -0.00006739   -0.00062413
     atom   12 type  2   force =     0.00013420    0.00047583   -0.00061600

     Total force =     0.024343     Total SCF correction =     0.001504

     entering subroutine stress ...

     negative rho (up, down):  7.945E-04 0.000E+00
          total   stress  (Ry/bohr**3)                   (kbar)     P=   -4.44
  -0.00002761   0.00000598  -0.00000390         -4.06      0.88     -0.57
   0.00000598  -0.00003283  -0.00000256          0.88     -4.83     -0.38
  -0.00000390  -0.00000256  -0.00003010         -0.57     -0.38     -4.43

 !ASE

     Writing output data file calc.save

     General routines

     Parallel routines

   This run was terminated on:   1: 4: 1  25Dec2018

   JOB DONE.
Job  /afs/slac/g/suncat/bin/suncat-tsmpirun -x LD_LIBRARY_PATH -wdir /scratch/qe108982_BGVff pw.x -in pw.inp

TID   HOST_NAME   COMMAND_LINE            STATUS            TERMINATION_TIME
00000 suncat0163 pw.x -in pw.inp   Done                     12/25/2018 01:04:01
00001 suncat0163 pw.x -in pw.inp   Done                     12/25/2018 01:04:01
00002 suncat0163 pw.x -in pw.inp   Done                     12/25/2018 01:04:01
00003 suncat0163 pw.x -in pw.inp   Done                     12/25/2018 01:04:01
00004 suncat0163 pw.x -in pw.inp   Done                     12/25/2018 01:04:01
00005 suncat0163 pw.x -in pw.inp   Done                     12/25/2018 01:04:01
00006 suncat0163 pw.x -in pw.inp   Done                     12/25/2018 01:04:01
00007 suncat0163 pw.x -in pw.inp   Done                     12/25/2018 01:04:01
00008 suncat0162 pw.x -in pw.inp   Done                     12/25/2018 01:04:01
00009 suncat0162 pw.x -in pw.inp   Done                     12/25/2018 01:04:01
00010 suncat0162 pw.x -in pw.inp   Done                     12/25/2018 01:04:01
00011 suncat0162 pw.x -in pw.inp   Done                     12/25/2018 01:04:01
00012 suncat0162 pw.x -in pw.inp   Done                     12/25/2018 01:04:01
00013 suncat0162 pw.x -in pw.inp   Done                     12/25/2018 01:04:01
00014 suncat0162 pw.x -in pw.inp   Done                     12/25/2018 01:04:01
00015 suncat0162 pw.x -in pw.inp   Done                     12/25/2018 01:04:01
00016 suncat0145 pw.x -in pw.inp   Done                     12/25/2018 01:04:01
00017 suncat0145 pw.x -in pw.inp   Done                     12/25/2018 01:04:01
00018 suncat0145 pw.x -in pw.inp   Done                     12/25/2018 01:04:01
00019 suncat0145 pw.x -in pw.inp   Done                     12/25/2018 01:04:01
00020 suncat0145 pw.x -in pw.inp   Done                     12/25/2018 01:04:01
00021 suncat0145 pw.x -in pw.inp   Done                     12/25/2018 01:04:01
00022 suncat0145 pw.x -in pw.inp   Done                     12/25/2018 01:04:01
00023 suncat0145 pw.x -in pw.inp   Done                     12/25/2018 01:04:01
00024 suncat0144 pw.x -in pw.inp   Done                     12/25/2018 01:04:01
00025 suncat0144 pw.x -in pw.inp   Done                     12/25/2018 01:04:01
00026 suncat0144 pw.x -in pw.inp   Done                     12/25/2018 01:04:01
00027 suncat0144 pw.x -in pw.inp   Done                     12/25/2018 01:04:01
00028 suncat0144 pw.x -in pw.inp   Done                     12/25/2018 01:04:01
00029 suncat0144 pw.x -in pw.inp   Done                     12/25/2018 01:04:01
00030 suncat0144 pw.x -in pw.inp   Done                     12/25/2018 01:04:01
00031 suncat0144 pw.x -in pw.inp   Done                     12/25/2018 01:04:01
00032 suncat0133 pw.x -in pw.inp   Done                     12/25/2018 01:04:01
00033 suncat0133 pw.x -in pw.inp   Done                     12/25/2018 01:04:01
00034 suncat0133 pw.x -in pw.inp   Done                     12/25/2018 01:04:01
00035 suncat0133 pw.x -in pw.inp   Done                     12/25/2018 01:04:01
00036 suncat0133 pw.x -in pw.inp   Done                     12/25/2018 01:04:01
00037 suncat0133 pw.x -in pw.inp   Done                     12/25/2018 01:04:01
00038 suncat0133 pw.x -in pw.inp   Done                     12/25/2018 01:04:01
00039 suncat0133 pw.x -in pw.inp   Done                     12/25/2018 01:04:01
00040 suncat0132 pw.x -in pw.inp   Done                     12/25/2018 01:04:01
00041 suncat0132 pw.x -in pw.inp   Done                     12/25/2018 01:04:01
00042 suncat0132 pw.x -in pw.inp   Done                     12/25/2018 01:04:01
00043 suncat0132 pw.x -in pw.inp   Done                     12/25/2018 01:04:01
00044 suncat0132 pw.x -in pw.inp   Done                     12/25/2018 01:04:01
00045 suncat0132 pw.x -in pw.inp   Done                     12/25/2018 01:04:01
00046 suncat0132 pw.x -in pw.inp   Done                     12/25/2018 01:04:01
00047 suncat0132 pw.x -in pw.inp   Done                     12/25/2018 01:04:01
00048 suncat0131 pw.x -in pw.inp   Done                     12/25/2018 01:04:01
00049 suncat0131 pw.x -in pw.inp   Done                     12/25/2018 01:04:01
00050 suncat0131 pw.x -in pw.inp   Done                     12/25/2018 01:04:01
00051 suncat0131 pw.x -in pw.inp   Done                     12/25/2018 01:04:01
00052 suncat0131 pw.x -in pw.inp   Done                     12/25/2018 01:04:01
00053 suncat0131 pw.x -in pw.inp   Done                     12/25/2018 01:04:01
00054 suncat0131 pw.x -in pw.inp   Done                     12/25/2018 01:04:01
00055 suncat0131 pw.x -in pw.inp   Done                     12/25/2018 01:04:01
00056 suncat0130 pw.x -in pw.inp   Done                     12/25/2018 01:04:01
00057 suncat0130 pw.x -in pw.inp   Done                     12/25/2018 01:04:01
00058 suncat0130 pw.x -in pw.inp   Done                     12/25/2018 01:04:01
00059 suncat0130 pw.x -in pw.inp   Done                     12/25/2018 01:04:01
00060 suncat0130 pw.x -in pw.inp   Done                     12/25/2018 01:04:01
00061 suncat0130 pw.x -in pw.inp   Done                     12/25/2018 01:04:01
00062 suncat0130 pw.x -in pw.inp   Done                     12/25/2018 01:04:01
00063 suncat0130 pw.x -in pw.inp   Done                     12/25/2018 01:04:01