     Program PWSCF v.5.1rc2 (svn rev. 11289) starts on 18Dec2018 at 20:27:59

     Current dimensions of program PWSCF are:
     Max number of different atomic species (ntypx) = 10
     Max number of k-points (npk) =  40000
     Max angular momentum in pseudopotentials (lmaxx) =  3
     Presently stress not available with electric field

     IMPORTANT: XC functional enforced from input :
     Exchange-correlation      = BEEF-VDW ( 1  4 27 13 2)
     Any further DFT definition will be discarded
     Please, verify this is what you really want

     Subspace diagonalization in iterative solution of the eigenvalue problem:
     a serial algorithm will be used

     Found symmetry operation: I + (  0.5000  0.5000  0.0000)
     This is a supercell, fractional translations are disabled

     bravais-lattice index     =            0
     lattice parameter (alat)  =       1.8897  a.u.
     unit-cell volume          =    4667.2629 (a.u.)^3
     number of atoms/cell      =           12
     number of atomic types    =            2
     number of electrons       =       174.00
     number of Kohn-Sham states=          117
     kinetic-energy cutoff     =      36.7493  Ry
     charge density cutoff     =     367.4932  Ry
     convergence threshold     =      1.0E-06
     mixing beta               =       0.1000
     number of iterations used =           10  plain     mixing
     Exchange-correlation      = BEEF-VDW ( 1  4 27 13 2)
     nstep                     =           50

     celldm(1)=   1.889726  celldm(2)=   0.000000  celldm(3)=   0.000000
     celldm(4)=   0.000000  celldm(5)=   0.000000  celldm(6)=   0.000000

     crystal axes: (cart. coord. in units of alat)
               a(1) = (   5.519834   0.000000   0.000000 )
               a(2) = (   2.108937   5.101074   0.000000 )
               a(3) = (   0.000000   0.000000  24.562804 )

     reciprocal axes: (cart. coord. in units 2 pi/alat)
               b(1) = (  0.181165 -0.074899  0.000000 )
               b(2) = (  0.000000  0.196037  0.000000 )
               b(3) = (  0.000000  0.000000  0.040712 )

     PseudoPot. # 1 for Nb read from file:
     /afs/slac.stanford.edu/u/if/mamunm/psp/gbrv1.5pbe/Nb.UPF
     MD5 check sum: 573aab8a2fa660278ed4a62cd769473f
     Pseudo is Ultrasoft + core correction, Zval = 13.0
     Generated by new atomic code, or converted to UPF format
     Using radial grid of  887 points,  6 beta functions with:
                l(1) =   0
                l(2) =   0
                l(3) =   1
                l(4) =   1
                l(5) =   2
                l(6) =   2
     Q(r) pseudized with  6 coefficients,  rinner =    1.000   1.000   1.000
                                                       1.000   1.000

     PseudoPot. # 2 for Ru read from file:
     /afs/slac.stanford.edu/u/if/mamunm/psp/gbrv1.5pbe/Ru.UPF
     MD5 check sum: 7158a806dd851261a58e6920c40ebe78
     Pseudo is Ultrasoft + core correction, Zval = 16.0
     Generated by new atomic code, or converted to UPF format
     Using radial grid of  967 points,  6 beta functions with:
                l(1) =   0
                l(2) =   0
                l(3) =   1
                l(4) =   1
                l(5) =   2
                l(6) =   2
     Q(r) pseudized with  8 coefficients,  rinner =    1.300   1.300   1.300
                                                       1.300   1.300

     vdW kernel table read from file vdW_kernel_table
     MD5 check sum: 095c7af220d748ca6e76c0b4c6cfb241

     atomic species   valence    mass     pseudopotential
        Nb1           13.00    92.90637     Nb( 1.00)
        Ru1           16.00   101.07000     Ru( 1.00)

     No symmetry found

   Cartesian axes

     site n.     atom                  positions (alat units)
         1           Nb1 tau(   1) = (   0.0000000   0.0000000  10.0000000  )
         2           Nb1 tau(   2) = (   3.8143855   2.5505372  10.0000000  )
         3           Ru1 tau(   3) = (   2.7599172   0.0000000  10.0000000  )
         4           Ru1 tau(   4) = (   1.0544683   2.5505372  10.0000000  )
         5           Nb1 tau(   5) = (   5.5198345   3.6909072  12.2814022  )
         6           Nb1 tau(   6) = (   1.7054490   1.1403701  12.2814022  )
         7           Ru1 tau(   7) = (   2.7599172   3.6909072  12.2814022  )
         8           Ru1 tau(   8) = (   4.4653662   1.1403701  12.2814022  )
         9           Nb1 tau(   9) = (   3.4108980   2.2807401  14.5628044  )
        10           Nb1 tau(  10) = (   7.2252835   4.8312773  14.5628044  )
        11           Ru1 tau(  11) = (   6.1708152   2.2807401  14.5628044  )
        12           Ru1 tau(  12) = (   4.4653662   4.8312773  14.5628044  )

     number of k points=    20  Fermi-Dirac smearing, width (Ry)=  0.0110
                       cart. coord. in units 2pi/alat
        k(    1) = (   0.0000000   0.0000000   0.0000000), wk =   0.0555556
        k(    2) = (   0.0000000   0.0326729   0.0000000), wk =   0.1111111
        k(    3) = (   0.0000000   0.0653457   0.0000000), wk =   0.1111111
        k(    4) = (   0.0000000  -0.0980186   0.0000000), wk =   0.0555556
        k(    5) = (   0.0301941  -0.0124832   0.0000000), wk =   0.1111111
        k(    6) = (   0.0301941   0.0201897   0.0000000), wk =   0.1111111
        k(    7) = (   0.0301941   0.0528626   0.0000000), wk =   0.1111111
        k(    8) = (   0.0301941  -0.1105017   0.0000000), wk =   0.1111111
        k(    9) = (   0.0301941  -0.0778289   0.0000000), wk =   0.1111111
        k(   10) = (   0.0301941  -0.0451560   0.0000000), wk =   0.1111111
        k(   11) = (   0.0603883  -0.0249663   0.0000000), wk =   0.1111111
        k(   12) = (   0.0603883   0.0077065   0.0000000), wk =   0.1111111
        k(   13) = (   0.0603883   0.0403794   0.0000000), wk =   0.1111111
        k(   14) = (   0.0603883  -0.1229849   0.0000000), wk =   0.1111111
        k(   15) = (   0.0603883  -0.0903120   0.0000000), wk =   0.1111111
        k(   16) = (   0.0603883  -0.0576392   0.0000000), wk =   0.1111111
        k(   17) = (  -0.0905824   0.0374495   0.0000000), wk =   0.0555556
        k(   18) = (  -0.0905824   0.0701223   0.0000000), wk =   0.1111111
        k(   19) = (  -0.0905824   0.1027952   0.0000000), wk =   0.1111111
        k(   20) = (  -0.0905824  -0.0605691   0.0000000), wk =   0.0555556

     Largest allocated arrays     est. size (Mb)     dimensions
     Largest temporary arrays     est. size (Mb)     dimensions

     Initial potential from superposition of free atoms
     Check: negative starting charge=   -0.440786

     starting charge  167.98351, renormalised to  174.00000

     negative rho (up, down):  4.566E-01 0.000E+00

     *
     * You are using vdW-DF for exchange-correlation in this calculation.
     * Please cite the following three references that made this development
     * possible:
     *
     *   M. Dion, H. Rydberg, E. Schroder, D. C. Langreth, and
     *   B. I. Lundqvist, Phys. Rev. Lett. 92, 246401 (2004).
     *
     *   T. Thonhauser, V. R. Cooper, S. Li, A. Puzder, P. Hyldgaard, and
     *   D. C. Langreth, Phys. Rev. B 76, 125112 (2007).
     *
     *   G. Roman-Perez and J. M. Soler, Phys. Rev. Lett. 103, 096102 (2009).
     *
     *
     * If you are using vdW-DF2, please also cite:
     *
     *   K. Lee, E. D. Murray, L. Kong, B. I. Lundqvist, and
     *   D. C. Langreth, Phys. Rev. B 82, 081101(R) (2010).
     *
     *
     * If you are calculating the stress with vdW-DF, please also cite:
     *
     *   R. Sabatini, E. Kucukbenli, B. Kolb, T. Thonhauser, and
     *   S. de Gironcoli, J. Phys.: Condens. Matter 24, 424209 (2012).
     *

     Carrying out vdW-DF run using the following parameters:

     Nqs =      20    Nr_points =    1024   r_max =   100.000
     q_mesh =
               0.00001000     0.04494208     0.09755937     0.15916263
               0.23128650     0.31572767     0.41458969     0.53033537
               0.66584808     0.82450364     1.01025438     1.22772762
               1.48234092     1.78043706     2.12944203     2.53805004
               3.01644009     3.57652955     4.23227104     5.00000000

     Gradients computed in reciprocal space

     Adding external electric field

     Computed dipole along edir(3) :
        Dipole               -0.0000 Ry au,         -0.0000 Debye
        Dipole field         -0.0000 Ry au

        Potential amp.        0.0000 Ry
        Total length         45.2565 bohr

     Starting wfc are  156 randomized atomic wfcs

     Self-consistent Calculation

     iteration #  1     ecut=    36.75 Ry     beta=0.10
     Davidson diagonalization with overlap
     ethr =  1.00E-02,  avg # of iterations =  4.0

[...]

     total energy              =   -1882.93403506 Ry
     Harris-Foulkes estimate   =   -1883.83030894 Ry
     estimated scf accuracy    <       5.91367594 Ry

[...]

     End of self-consistent calculation

          k = 0.0000 0.0000 0.0000 ( 17491 PWs)   bands (ev):

   -70.8414 -70.8308 -70.2976 -70.2976 -70.2872 -70.2872 -53.4832 -53.4641
   -53.4447 -53.4318 -53.4204 -53.4086 -40.9220 -40.8161 -40.8018 -40.8000
   -40.7846 -40.7718 -40.3593 -40.3564 -40.3419 -40.3379 -40.3327 -40.3286
   -40.2098 -40.2054 -40.1945 -40.1937 -40.1834 -40.1830 -29.6822 -29.6388
   -29.6089 -29.5913 -29.5787 -29.5568 -29.5082 -29.4970 -29.4515 -29.4015
   -29.3980 -29.3702 -29.3653 -29.2977 -29.2433 -29.2317 -29.1426 -29.1371
    -4.1081  -2.7482  -2.6096  -2.5701  -2.5343  -2.4752  -2.3902  -2.3444
    -2.2357  -2.1860  -1.6879  -1.5511  -1.5108  -1.5090  -1.4614  -0.6664
    -0.6622  -0.6573  -0.6468  -0.5286  -0.4410  -0.2233   0.0795   0.2200
     0.3317   0.5102   0.8422   1.1835   1.2960   1.4159   1.4649   1.5254
     1.7779   2.0559   2.4649   2.5946   2.7203   2.7444   2.7468   2.8568
     2.9592   2.9870   3.1486   3.1830   3.3000   3.6628   3.6655   3.7323
     3.7812   3.8222   3.9197   4.3377   4.3415   4.3579   4.4823   4.5629
     4.6438   4.8035   4.8140   4.8593   5.3035   5.7056   5.7873   5.7941
     5.8003   5.9714   6.0541   6.1117   6.2168

[...]

          k =-0.0906 0.0374 0.0000 ( 17576 PWs)   bands (ev):

[...]

     the Fermi energy is     2.2119 ev

!    total energy              =   -1882.00345504 Ry
     Harris-Foulkes estimate   =   -1882.00345502 Ry
     estimated scf accuracy    <       0.00000029 Ry

     The total energy is the sum of the following terms:

     one-electron contribution =  -16021.63404458 Ry
     hartree contribution      =    8005.59824967 Ry
     xc contribution           =    -275.11029277 Ry
     ewald contribution        =    6409.22120130 Ry
     electric field correction =       0.00000000 Ry
     smearing contrib. (-TS)   =      -0.07856866 Ry

     convergence has been achieved in  17 iterations

 BEEF-vdW xc energy contributions
           1 :   -237.547332885140
           2 :    217.284650591639
           3 :   -182.390567207705
           4 :    141.775324723067
           5 :   -104.327267102724
           6 :    76.0663141650232
           7 :   -58.8057355354257
           8 :    50.5394650512331
           9 :   -47.1093565448429
          10 :    44.2788670743012
[...]
00031 suncat2049 pw.x -in pw.inp   Done                     12/18/2018 20:32:11

[...]

   This run was terminated on:  20:50: 7  18Dec2018

[...]

     Program PWSCF v.5.1rc2 (svn rev. 11289) starts on 18Dec2018 at 20:54:37

[...]

   This run was terminated on:  20:58:59  18Dec2018

[...]

     Program PWSCF v.5.1rc2 (svn rev. 11289) starts on 18Dec2018 at 20:59: 5

[...]

   This run was terminated on:  21: 3:23  18Dec2018

[...]

     Program PWSCF v.5.1rc2 (svn rev. 11289) starts on 18Dec2018 at 21: 3:29

     Current dimensions of program PWSCF are:
     Max number of different atomic species (ntypx) = 10
     Max number of k-points (npk) =  40000
     Max angular momentum in pseudopotentials (lmaxx) =  3
     Presently stress not available with electric field

     IMPORTANT: XC functional enforced from input :
     Exchange-correlation      = BEEF-VDW ( 1  4 27 13 2)
     Any further DFT definition will be discarded
     Please, verify this is what you really want

     Subspace diagonalization in iterative solution of the eigenvalue problem:
     a serial algorithm will be used

     Found symmetry operation: I + (  0.5000  0.5000  0.0000)
     This is a supercell, fractional translations are disabled

     bravais-lattice index     =            0
     lattice parameter (alat)  =       1.8897  a.u.
     unit-cell volume          =    4667.2629 (a.u.)^3
     number of atoms/cell      =           12
     number of atomic types    =            2
     number of electrons       =       174.00
     number of Kohn-Sham states=          117
     kinetic-energy cutoff     =      36.7493  Ry
     charge density cutoff     =     367.4932  Ry
     convergence threshold     =      1.0E-06
     mixing beta               =       0.1000
     number of iterations used =           10  plain     mixing
     Exchange-correlation      = BEEF-VDW ( 1  4 27 13 2)
     nstep                     =           50

     celldm(1)=   1.889726  celldm(2)=   0.000000  celldm(3)=   0.000000
     celldm(4)=   0.000000  celldm(5)=   0.000000  celldm(6)=   0.000000

     crystal axes: (cart. coord. in units of alat)
               a(1) = (   5.519834   0.000000   0.000000 )
               a(2) = (   2.108937   5.101074   0.000000 )
               a(3) = (   0.000000   0.000000  24.562804 )

     reciprocal axes: (cart. coord. in units 2 pi/alat)
               b(1) = (  0.181165 -0.074899  0.000000 )
               b(2) = (  0.000000  0.196037  0.000000 )
               b(3) = (  0.000000  0.000000  0.040712 )

     PseudoPot. # 1 for Nb read from file:
     /afs/slac.stanford.edu/u/if/mamunm/psp/gbrv1.5pbe/Nb.UPF
     MD5 check sum: 573aab8a2fa660278ed4a62cd769473f
     Pseudo is Ultrasoft + core correction, Zval = 13.0
     Generated by new atomic code, or converted to UPF format
     Using radial grid of  887 points,  6 beta functions with:
                l(1) =   0
                l(2) =   0
                l(3) =   1
                l(4) =   1
                l(5) =   2
                l(6) =   2
     Q(r) pseudized with  6 coefficients,  rinner =    1.000   1.000   1.000
                                                       1.000   1.000

     PseudoPot. # 2 for Ru read from file:
     /afs/slac.stanford.edu/u/if/mamunm/psp/gbrv1.5pbe/Ru.UPF
     MD5 check sum: 7158a806dd851261a58e6920c40ebe78
     Pseudo is Ultrasoft + core correction, Zval = 16.0
     Generated by new atomic code, or converted to UPF format
     Using radial grid of  967 points,  6 beta functions with:
                l(1) =   0
                l(2) =   0
                l(3) =   1
                l(4) =   1
                l(5) =   2
                l(6) =   2
     Q(r) pseudized with  8 coefficients,  rinner =    1.300   1.300   1.300
                                                       1.300   1.300

     vdW kernel table read from file vdW_kernel_table
     MD5 check sum: 095c7af220d748ca6e76c0b4c6cfb241

     atomic species   valence    mass     pseudopotential
        Nb1           13.00    92.90637     Nb( 1.00)
        Ru1           16.00   101.07000     Ru( 1.00)

     No symmetry found

   Cartesian axes

     site n.     atom                  positions (alat units)
         1           Nb1 tau(   1) = (   0.0000000   0.0000000  10.0000000  )
         2           Nb1 tau(   2) = (   3.8143855   2.5505372  10.0000000  )
         3           Ru1 tau(   3) = (   2.7599172   0.0000000  10.0000000  )
         4           Ru1 tau(   4) = (   1.0544683   2.5505372  10.0000000  )
         5           Nb1 tau(   5) = (   5.5198345   3.6909072  12.2814022  )
         6           Nb1 tau(   6) = (   1.7054490   1.1403701  12.2814022  )
         7           Ru1 tau(   7) = (   2.7599172   3.6909072  12.2814022  )
         8           Ru1 tau(   8) = (   4.4653662   1.1403701  12.2814022  )
         9           Nb1 tau(   9) = (   3.6393005   2.4334644  14.5678088  )
        10           Nb1 tau(  10) = (   7.4536838   4.9840013  14.5678090  )
        11           Ru1 tau(  11) = (   6.4093601   2.4402491  14.3661809  )
        12           Ru1 tau(  12) = (   4.7039217   4.9907874  14.3661815  )

     number of k points=    20  Fermi-Dirac smearing, width (Ry)=  0.0110
                       cart. coord. in units 2pi/alat
        k(    1) = (   0.0000000   0.0000000   0.0000000), wk =   0.0555556
        k(    2) = (   0.0000000   0.0326729   0.0000000), wk =   0.1111111
        k(    3) = (   0.0000000   0.0653457   0.0000000), wk =   0.1111111
        k(    4) = (   0.0000000  -0.0980186   0.0000000), wk =   0.0555556
        k(    5) = (   0.0301941  -0.0124832   0.0000000), wk =   0.1111111
        k(    6) = (   0.0301941   0.0201897   0.0000000), wk =   0.1111111
        k(    7) = (   0.0301941   0.0528626   0.0000000), wk =   0.1111111
        k(    8) = (   0.0301941  -0.1105017   0.0000000), wk =   0.1111111
        k(    9) = (   0.0301941  -0.0778289   0.0000000), wk =   0.1111111
        k(   10) = (   0.0301941  -0.0451560   0.0000000), wk =   0.1111111
        k(   11) = (   0.0603883  -0.0249663   0.0000000), wk =   0.1111111
        k(   12) = (   0.0603883   0.0077065   0.0000000), wk =   0.1111111
        k(   13) = (   0.0603883   0.0403794   0.0000000), wk =   0.1111111
        k(   14) = (   0.0603883  -0.1229849   0.0000000), wk =   0.1111111
        k(   15) = (   0.0603883  -0.0903120   0.0000000), wk =   0.1111111
        k(   16) = (   0.0603883  -0.0576392   0.0000000), wk =   0.1111111
        k(   17) = (  -0.0905824   0.0374495   0.0000000), wk =   0.0555556
        k(   18) = (  -0.0905824   0.0701223   0.0000000), wk =   0.1111111
        k(   19) = (  -0.0905824   0.1027952   0.0000000), wk =   0.1111111
        k(   20) = (  -0.0905824  -0.0605691   0.0000000), wk =   0.0555556

     Largest allocated arrays     est. size (Mb)     dimensions
     Largest temporary arrays     est. size (Mb)     dimensions

     Initial potential from superposition of free atoms
     Check: negative starting charge=   -0.440413

     starting charge  167.98351, renormalised to  174.00000

[...]

     *
     * You are using vdW-DF for exchange-correlation in this calculation.
     * Please cite the following three references that made this development
     * possible:
     *
     *   M. Dion, H. Rydberg, E. Schroder, D. C. Langreth, and
     *   B. I. Lundqvist, Phys. Rev. Lett. 92, 246401 (2004).
     *
     *   T. Thonhauser, V. R. Cooper, S. Li, A. Puzder, P. Hyldgaard, and
     *   D. C. Langreth, Phys. Rev. B 76, 125112 (2007).
     *
     *   G. Roman-Perez and J. M. Soler, Phys. Rev. Lett. 103, 096102 (2009).
     *
     *
     * If you are using vdW-DF2, please also cite:
     *
     *   K. Lee, E. D. Murray, L. Kong, B. I. Lundqvist, and
     *   D. C. Langreth, Phys. Rev. B 82, 081101(R) (2010).
     *
     *
     * If you are calculating the stress with vdW-DF, please also cite:
     *
     *   R. Sabatini, E. Kucukbenli, B. Kolb, T. Thonhauser, and
     *   S. de Gironcoli, J. Phys.: Condens. Matter 24, 424209 (2012).
     *

     Carrying out vdW-DF run using the following parameters:

     Nqs =      20    Nr_points =    1024   r_max =   100.000
     q_mesh =
               0.00001000     0.04494208     0.09755937     0.15916263
               0.23128650     0.31572767     0.41458969     0.53033537
               0.66584808     0.82450364     1.01025438     1.22772762
               1.48234092     1.78043706     2.12944203     2.53805004
               3.01644009     3.57652955     4.23227104     5.00000000

     Gradients computed in reciprocal space

[...]

     Starting wfc are  156 randomized atomic wfcs

     Self-consistent Calculation

[...]

     total energy              =   -1882.03399624 Ry
     Harris-Foulkes estimate   =   -1882.03399602 Ry
     estimated scf accuracy    <       0.00000134 Ry

     iteration # 18     ecut=    36.75 Ry     beta=0.10
     Davidson diagonalization with overlap
     ethr =  7.70E-10,  avg # of iterations =  2.1

[...]

     negative rho (up, down):  4.574E-01 0.000E+00

     Adding external electric field

     Computed dipole along edir(3) :
        Dipole                0.0806 Ry au,          0.2048 Debye
        Dipole field          0.0002 Ry au

        Potential amp.       -0.0196 Ry
        Total length         45.2565 bohr

     End of self-consistent calculation

[...]

          k = 0.0604-0.0576 0.0000 ( 17568 PWs)   bands (ev):

[...]

          k =-0.0906-0.0606 0.0000 ( 17584 PWs)   bands (ev):

   -70.7883 -70.7779 -70.3573 -70.3466 -70.1947 -70.1844 -53.4268 -53.3972
   -53.3869 -53.3553 -53.3496 -53.3069 -40.8670 -40.7530 -40.7385 -40.7379
   -40.7297 -40.7237 -40.4209 -40.3535 -40.3439 -40.3139 -40.3047 -40.2768
   -40.2371 -40.2285 -40.2263 -40.1037 -40.0911 -40.0860 -29.6580 -29.6052
   -29.5361 -29.5219 -29.5125 -29.4949 -29.4820 -29.4564 -29.4057 -29.3644
   -29.3430 -29.3213 -29.2800 -29.2311 -29.2180 -29.1868 -29.0788 -29.0355
    -2.4122  -2.2699  -1.7799  -1.6765  -1.5711  -1.4438  -1.4244  -1.3161
    -1.2399  -1.1094  -1.1083  -0.8799  -0.7472  -0.6727  -0.5915  -0.5858
    -0.5701  -0.2017  -0.1258   0.0095   0.1254   0.2362   0.2780   0.2879
     0.4546   0.6532   0.7213   0.7478   0.7749   0.9592   0.9594   1.1704
     1.1930   1.1941   1.2762   1.3014   1.4805   1.5157   1.5242   1.7729
     1.8698   1.9177   2.1469   2.2361   2.4042   2.5206   2.5985   2.9718
     2.9740   3.1663   3.2200   3.2280   3.4751   3.5200   3.7498   3.7577
     3.9621   4.2691   4.5057   4.6405   4.8314   4.8409   4.9670   5.0916
     5.6643   5.8174   6.0207   6.4904   7.0873

     the Fermi energy is     2.3108 ev

!    total energy              =   -1882.03399626 Ry
     Harris-Foulkes estimate   =   -1882.03399550 Ry
     estimated scf accuracy    <       0.00000068 Ry

     The total energy is the sum of the following terms:

     one-electron contribution =  -16260.08468359 Ry
     hartree contribution      =    8125.11101665 Ry
     xc contribution           =    -275.27278962 Ry
     ewald contribution        =    6528.28005708 Ry
     electric field correction =       0.00001749 Ry
     smearing contrib. (-TS)   =      -0.06761426 Ry

     convergence has been achieved in  18 iterations

 BEEF-vdW xc energy contributions
           1 :   -237.716775098889
           2 :    217.532135711392
           3 :   -182.746399275897
           4 :    142.196003295507
           5 :   -104.707793626253
           6 :    76.2913529596577
           7 :   -58.8154314455615
           8 :    50.3684446633490
           9 :   -46.8722416098902
          10 :    44.1103157496276
          11 :   -39.3526074189635
          12 :    32.0230708913278
          13 :   -23.3374081620684
          14 :    15.2593698684470
          15 :   -9.37144864515966
          16 :    6.17270243885841
          17 :   -5.03825211272130
          18 :    4.71820678699015
          19 :   -4.04080474985420
          20 :    2.45061502727873
          21 :  -0.162299006603348
          22 :   -2.08326484072450
          23 :    3.48045436723902
          24 :   -3.58890617568096
          25 :    2.52540070633376
          26 :  -0.859227763477008
          27 :  -0.698641743617259
          28 :    1.63078882591850
          29 :   -1.80925681259208
          30 :    1.47721485425694
          31 :   -25.7467471446738
          32 :   -19.5172370903426

     Forces acting on atoms (Ry/au):

     negative rho (up, down):  4.574E-01 0.000E+00
     atom    1 type  1   force =    -0.01423782   -0.00952006   -0.01350463
     atom    2 type  1   force =    -0.01423752   -0.00952031   -0.01350454
     atom    3 type  2   force =     0.00310891    0.00207884    0.04187037
     atom    4 type  2   force =     0.00310864    0.00207846    0.04187068
     atom    5 type  1   force =     0.00821136    0.00549117   -0.02893854
     atom    6 type  1   force =     0.00821195    0.00549053   -0.02893818
     atom    7 type  2   force =     0.00292191    0.00195363   -0.00046609
     atom    8 type  2   force =     0.00292080    0.00195317   -0.00046659
     atom    9 type  1   force =    -0.00024354   -0.00016238    0.00060275
     atom   10 type  1   force =    -0.00024299   -0.00016298    0.00060278
     atom   11 type  2   force =     0.00023953    0.00015958    0.00043583
     atom   12 type  2   force =     0.00023875    0.00016035    0.00043616

     Total force =     0.079889     Total SCF correction =     0.006810

     entering subroutine stress ...

     negative rho (up, down):  4.574E-01 0.000E+00
          total   stress  (Ry/bohr**3)                   (kbar)     P=  -20.74
  -0.00019814  -0.00003376   0.00002065        -29.15     -4.97      3.04
  -0.00003376  -0.00017023   0.00001381         -4.97    -25.04      2.03
   0.00002065   0.00001381  -0.00005459          3.04      2.03     -8.03

 !ASE

     Writing output data file calc.save

     General routines

     Parallel routines

   This run was terminated on:  21: 7:52  18Dec2018

   JOB DONE.
Job  /afs/slac/g/suncat/bin/suncat-tsmpirun -x LD_LIBRARY_PATH -wdir /scratch/qe530314_0CUNc pw.x -in pw.inp

TID   HOST_NAME   COMMAND_LINE            STATUS            TERMINATION_TIME
00000 suncat2050 pw.x -in pw.inp   Done                     12/18/2018 21:07:52
00001 suncat2050 pw.x -in pw.inp   Done                     12/18/2018 21:07:52
00002 suncat2050 pw.x -in pw.inp   Done                     12/18/2018 21:07:52
00003 suncat2050 pw.x -in pw.inp   Done                     12/18/2018 21:07:52
00004 suncat2050 pw.x -in pw.inp   Done                     12/18/2018 21:07:52
00005 suncat2050 pw.x -in pw.inp   Done                     12/18/2018 21:07:52
00006 suncat2050 pw.x -in pw.inp   Done                     12/18/2018 21:07:52
00007 suncat2050 pw.x -in pw.inp   Done                     12/18/2018 21:07:52
00008 suncat2050 pw.x -in pw.inp   Done                     12/18/2018 21:07:52
00009 suncat2050 pw.x -in pw.inp   Done                     12/18/2018 21:07:52
00010 suncat2050 pw.x -in pw.inp   Done                     12/18/2018 21:07:52
00011 suncat2050 pw.x -in pw.inp   Done                     12/18/2018 21:07:52
00012 suncat2050 pw.x -in pw.inp   Done                     12/18/2018 21:07:52
00013 suncat2050 pw.x -in pw.inp   Done                     12/18/2018 21:07:52
00014 suncat2050 pw.x -in pw.inp   Done                     12/18/2018 21:07:52
00015 suncat2050 pw.x -in pw.inp   Done                     12/18/2018 21:07:52
00016 suncat2049 pw.x -in pw.inp   Done                     12/18/2018 21:07:52
00017 suncat2049 pw.x -in pw.inp   Done                     12/18/2018 21:07:52
00018 suncat2049 pw.x -in pw.inp   Done                     12/18/2018 21:07:52
00019 suncat2049 pw.x -in pw.inp   Done                     12/18/2018 21:07:52
00020 suncat2049 pw.x -in pw.inp   Done                     12/18/2018 21:07:52
00021 suncat2049 pw.x -in pw.inp   Done                     12/18/2018 21:07:52
00022 suncat2049 pw.x -in pw.inp   Done                     12/18/2018 21:07:52
00023 suncat2049 pw.x -in pw.inp   Done                     12/18/2018 21:07:52
00024 suncat2049 pw.x -in pw.inp   Done                     12/18/2018 21:07:52
00025 suncat2049 pw.x -in pw.inp   Done                     12/18/2018 21:07:52
00026 suncat2049 pw.x -in pw.inp   Done                     12/18/2018 21:07:52
00027 suncat2049 pw.x -in pw.inp   Done                     12/18/2018 21:07:52
00028 suncat2049 pw.x -in pw.inp   Done                     12/18/2018 21:07:52
00029 suncat2049 pw.x -in pw.inp   Done                     12/18/2018 21:07:52
00030 suncat2049 pw.x -in pw.inp   Done                     12/18/2018 21:07:52
00031 suncat2049 pw.x -in pw.inp   Done                     12/18/2018 21:07:52