     Program PWSCF v.5.1rc2 (svn rev. 11289) starts on 18Dec2018 at 18:49: 1

     Current dimensions of program PWSCF are:
     Max number of different atomic species (ntypx) = 10
     Max number of k-points (npk) =  40000
     Max angular momentum in pseudopotentials (lmaxx) =  3
     Presently stress not available with electric field

     IMPORTANT: XC functional enforced from input :
     Exchange-correlation      = BEEF-VDW ( 1  4 27 13 2)
     Any further DFT definition will be discarded
     Please, verify this is what you really want

     Subspace diagonalization in iterative solution of the eigenvalue problem:
     a serial algorithm will be used

     Found symmetry operation: I + ( -0.5000  0.5000  0.0000)
     This is a supercell, fractional translations are disabled

     bravais-lattice index     =            0
     lattice parameter (alat)  =       1.8897  a.u.
     unit-cell volume          =    4414.7769 (a.u.)^3
     number of atoms/cell      =           12
     number of atomic types    =            2
     number of electrons       =       180.00
     number of Kohn-Sham states=          120
     kinetic-energy cutoff     =      36.7493  Ry
     charge density cutoff     =     367.4932  Ry
     convergence threshold     =      1.0E-06
     mixing beta               =       0.1000
     number of iterations used =           10  plain     mixing
     Exchange-correlation      = BEEF-VDW ( 1  4 27 13 2)
     nstep                     =           50

     celldm(1)=   1.889726  celldm(2)=   0.000000  celldm(3)=   0.000000
     celldm(4)=   0.000000  celldm(5)=   0.000000  celldm(6)=   0.000000

     crystal axes: (cart. coord. in units of alat)
               a(1) = (   5.540618   0.000000   0.000000 )
               a(2) = (   2.744210   4.813290   0.000000 )
               a(3) = (   0.000000   0.000000  24.530814 )

     reciprocal axes: (cart. coord. in units 2 pi/alat)
               b(1) = (  0.180485 -0.102900  0.000000 )
               b(2) = (  0.000000  0.207758  0.000000 )
               b(3) = (  0.000000  0.000000  0.040765 )

     PseudoPot. # 1 for Mo read from file:
     /afs/slac.stanford.edu/u/if/mamunm/psp/gbrv1.5pbe/Mo.UPF
     MD5 check sum: 30c4dcd161f5d35cd49bb5239c51a633
     Pseudo is Ultrasoft + core correction, Zval = 14.0
     Generated by new atomic code, or converted to UPF format
     Using radial grid of  889 points,  6 beta functions with:
                l(1) =   0
                l(2) =   0
                l(3) =   1
                l(4) =   1
                l(5) =   2
                l(6) =   2
     Q(r) pseudized with  6 coefficients,  rinner =    1.000   1.000   1.000
                                                       1.000   1.000

     PseudoPot. # 2 for Os read from file:
     /afs/slac.stanford.edu/u/if/mamunm/psp/gbrv1.5pbe/Os.UPF
     MD5 check sum: a3fb40a04f0c37c25c34bbc47164c9a8
     Pseudo is Ultrasoft + core correction, Zval = 16.0
     Generated by new atomic code, or converted to UPF format
     Using radial grid of  983 points,  8 beta functions with:
                l(1) =   0
                l(2) =   0
                l(3) =   1
                l(4) =   1
                l(5) =   2
                l(6) =   2
                l(7) =   3
                l(8) =   3
     Q(r) pseudized with  8 coefficients,  rinner =    1.150   1.150   1.150
                                                       1.150   1.150   1.150
                                                       1.150

     vdW kernel table read from file vdW_kernel_table
     MD5 check sum: 095c7af220d748ca6e76c0b4c6cfb241

     atomic species   valence    mass     pseudopotential
        Mo1           14.00    95.95000     Mo( 1.00)
        Os1           16.00   190.23000     Os( 1.00)

     No symmetry found

   Cartesian axes

     site n.     atom                  positions (alat units)
         1           Mo1 tau(   1) = (   0.0000000   0.0000000  10.0000000  )
         2           Mo1 tau(   2) = (   4.1424137   2.4066449  10.0000000  )
         3           Os1 tau(   3) = (   2.7703089   0.0000000  10.0000000  )
         4           Os1 tau(   4) = (   1.3721048   2.4066449  10.0000000  )
         5           Mo1 tau(   5) = (   5.5406177   3.2189686  12.2654072  )
         6           Mo1 tau(   6) = (   1.3982041   0.8123237  12.2654072  )
         7           Os1 tau(   7) = (   2.7703089   3.2189686  12.2654072  )
         8           Os1 tau(   8) = (   4.1685129   0.8123237  12.2654072  )
         9           Mo1 tau(   9) = (   2.7964081   1.6246473  14.5308144  )
        10           Mo1 tau(  10) = (   6.9388218   4.0312922  14.5308144  )
        11           Os1 tau(  11) = (   5.5667170   1.6246473  14.5308144  )
        12           Os1 tau(  12) = (   4.1685129   4.0312922  14.5308144  )

     number of k points=    20  Fermi-Dirac smearing, width (Ry)=  0.0110
                       cart. coord. in units 2pi/alat
        k(    1) = (   0.0000000   0.0000000   0.0000000), wk =   0.0555556
        k(    2) = (   0.0000000   0.0346264   0.0000000), wk =   0.1111111
        k(    3) = (   0.0000000   0.0692527   0.0000000), wk =   0.1111111
        k(    4) = (   0.0000000  -0.1038791   0.0000000), wk =   0.0555556
        k(    5) = (   0.0300809  -0.0171501   0.0000000), wk =   0.1111111
        k(    6) = (   0.0300809   0.0174763   0.0000000), wk =   0.1111111
        k(    7) = (   0.0300809   0.0521026   0.0000000), wk =   0.1111111
        k(    8) = (   0.0300809  -0.1210291   0.0000000), wk =   0.1111111
        k(    9) = (   0.0300809  -0.0864028   0.0000000), wk =   0.1111111
        k(   10) = (   0.0300809  -0.0517764   0.0000000), wk =   0.1111111
        k(   11) = (   0.0601618  -0.0343001   0.0000000), wk =   0.1111111
        k(   12) = (   0.0601618   0.0003262   0.0000000), wk =   0.1111111
        k(   13) = (   0.0601618   0.0349526   0.0000000), wk =   0.1111111
        k(   14) = (   0.0601618  -0.1381792   0.0000000), wk =   0.1111111
        k(   15) = (   0.0601618  -0.1035528   0.0000000), wk =   0.1111111
        k(   16) = (   0.0601618  -0.0689265   0.0000000), wk =   0.1111111
        k(   17) = (  -0.0902426   0.0514502   0.0000000), wk =   0.0555556
        k(   18) = (  -0.0902426   0.0860766   0.0000000), wk =   0.1111111
        k(   19) = (  -0.0902426   0.1207029   0.0000000), wk =   0.1111111
        k(   20) = (  -0.0902426  -0.0524289   0.0000000), wk =   0.0555556

     Largest allocated arrays     est. size (Mb)     dimensions
     Largest temporary arrays     est. size (Mb)     dimensions

     Initial potential from superposition of free atoms
     Check: negative starting charge=   -0.750107

     starting charge  176.99340, renormalised to  180.00000

     negative rho (up, down):  7.628E-01 0.000E+00

     *
     * You are using vdW-DF for exchange-correlation in this calculation.
     * Please cite the following three references that made this development
     * possible:
     *
     *   M. Dion, H. Rydberg, E. Schroder, D. C. Langreth, and
     *   B. I. Lundqvist, Phys. Rev. Lett. 92, 246401 (2004).
     *
     *   T. Thonhauser, V. R. Cooper, S. Li, A. Puzder, P. Hyldgaard, and
     *   D. C. Langreth, Phys. Rev. B 76, 125112 (2007).
     *
     *   G. Roman-Perez and J. M. Soler, Phys. Rev. Lett. 103, 096102 (2009).
     *
     *
     * If you are using vdW-DF2, please also cite:
     *
     *   K. Lee, E. D. Murray, L. Kong, B. I. Lundqvist, and
     *   D. C. Langreth, Phys. Rev. B 82, 081101(R) (2010).
     *
     *
     * If you are calculating the stress with vdW-DF, please also cite:
     *
     *   R. Sabatini, E. Kucukbenli, B. Kolb, T. Thonhauser, and
     *   S. de Gironcoli, J. Phys.: Condens. Matter 24, 424209 (2012).
     *

     Carrying out vdW-DF run using the following parameters:

     Nqs =      20    Nr_points =    1024   r_max =   100.000
     q_mesh =
               0.00001000     0.04494208     0.09755937     0.15916263
               0.23128650     0.31572767     0.41458969     0.53033537
               0.66584808     0.82450364     1.01025438     1.22772762
               1.48234092     1.78043706     2.12944203     2.53805004
               3.01644009     3.57652955     4.23227104     5.00000000

     Gradients computed in reciprocal space

     Adding external electric field

     Computed dipole along edir(3) :
        Dipole               -0.0000 Ry au,         -0.0000 Debye
        Dipole field         -0.0000 Ry au

        Potential amp.        0.0000 Ry
        Total length         45.1976 bohr

     Starting wfc are  156 randomized atomic wfcs

     Self-consistent Calculation

     iteration #  1     ecut=    36.75 Ry     beta=0.10
     Davidson diagonalization with overlap
     ethr =  1.00E-02,  avg # of iterations =  2.0

[...]

     total energy              =   -2038.39511577 Ry
     Harris-Foulkes estimate   =   -2038.84133127 Ry
     estimated scf accuracy    <       2.70414669 Ry

[...]

     End of self-consistent calculation

          k = 0.0000 0.0000 0.0000 ( 16591 PWs)   bands (ev):

   -83.9140 -83.8920 -83.5962 -83.5960 -83.5743 -83.5741 -58.6955 -58.6089
   -58.6067 -58.5971 -58.5226 -58.5117 -43.3871 -43.2978 -43.2508 -43.1769
   -43.1297 -43.0601 -43.0586 -42.9673 -42.9168 -42.8760 -42.8657 -42.8326
   -42.8278 -42.8243 -42.7863 -42.7798 -42.6456 -42.6452 -33.0825 -32.9379
   -32.8827 -32.8704 -32.8514 -32.7395 -32.7387 -32.6647 -32.6537 -32.6301
   -32.5802 -32.5536 -32.5064 -32.3823 -32.3212 -32.3106 -32.1307 -32.1264
    -5.2291  -3.5907  -3.4004  -3.0776  -2.9557  -2.8404  -2.8005  -2.4397
    -2.4269  -2.2531  -2.1842  -2.1427  -1.9782  -1.8784  -1.8063  -0.7346
    -0.6362  -0.4580   0.1742   0.1801   0.1917   0.4099   0.5624   0.7502
     1.0825   1.0832   1.1481   1.1707   1.2928   1.4223   1.4371   1.6785
     1.7901   1.8552   2.0012   2.0621   2.8072   2.8827   2.8965   3.0119
     3.1009   3.2258   3.3193   3.4812   3.6504   4.0843   4.1407   4.3339
     4.5457   4.5856   4.7409   4.7592   4.9017   4.9034   5.2404   5.2879
     5.3339   5.3943   5.4546   5.8127   5.9424   5.9727   6.2019   6.2714
     6.3671   6.4924   6.6267   6.8132   6.9458   6.9949   7.0037   7.1365

[...]

          k =-0.0902 0.0515 0.0000 ( 16614 PWs)   bands (ev):

[...]

     the Fermi energy is     2.6262 ev

!    total energy              =   -2038.39119916 Ry
     Harris-Foulkes estimate   =   -2038.39119467 Ry
     estimated scf accuracy    <       0.00000055 Ry

     The total energy is the sum of the following terms:

     one-electron contribution =  -18006.88767703 Ry
     hartree contribution      =    8991.39079364 Ry
     xc contribution           =    -351.98700218 Ry
     ewald contribution        =    7329.17007888 Ry
     electric field correction =       0.00000000 Ry
     smearing contrib. (-TS)   =      -0.07739246 Ry

     convergence has been achieved in  15 iterations

 BEEF-vdW xc energy contributions
           1 :   -306.358159408593
           2 :    282.554967796143
           3 :   -240.961971133537
           4 :    191.332383722995
           5 :   -143.898234555391
           6 :    106.358015680241
[...]

     Program PWSCF v.5.1rc2 (svn rev. 11289) starts on 18Dec2018 at 18:53:32

[...]

   This run was terminated on:  18:58:15  18Dec2018

[...]

     Program PWSCF v.5.1rc2 (svn rev. 11289) starts on 18Dec2018 at 18:58:21

[...]

   This run was terminated on:  19: 3: 1  18Dec2018

[...]

     Program PWSCF v.5.1rc2 (svn rev. 11289) starts on 18Dec2018 at 19: 3: 6

     Current dimensions of program PWSCF are:
     Max number of different atomic species (ntypx) = 10
     Max number of k-points (npk) =  40000
     Max angular momentum in pseudopotentials (lmaxx) =  3
     Presently stress not available with electric field

     IMPORTANT: XC functional enforced from input :
     Exchange-correlation      = BEEF-VDW ( 1  4 27 13 2)
     Any further DFT definition will be discarded
     Please, verify this is what you really want

     Subspace diagonalization in iterative solution of the eigenvalue problem:
     a serial algorithm will be used

     Found symmetry operation: I + ( -0.5000  0.5000  0.0000)
     This is a supercell, fractional translations are disabled

     bravais-lattice index     =            0
     lattice parameter (alat)  =       1.8897  a.u.
     unit-cell volume          =    4414.7769 (a.u.)^3
     number of atoms/cell      =           12
     number of atomic types    =            2
     number of electrons       =       180.00
     number of Kohn-Sham states=          120
     kinetic-energy cutoff     =      36.7493  Ry
     charge density cutoff     =     367.4932  Ry
     convergence threshold     =      1.0E-06
     mixing beta               =       0.1000
     number of iterations used =           10  plain     mixing
     Exchange-correlation      = BEEF-VDW ( 1  4 27 13 2)
     nstep                     =           50

     celldm(1)=   1.889726  celldm(2)=   0.000000  celldm(3)=   0.000000
     celldm(4)=   0.000000  celldm(5)=   0.000000  celldm(6)=   0.000000

     crystal axes: (cart. coord. in units of alat)
               a(1) = (   5.540618   0.000000   0.000000 )
               a(2) = (   2.744210   4.813290   0.000000 )
               a(3) = (   0.000000   0.000000  24.530814 )

     reciprocal axes: (cart. coord. in units 2 pi/alat)
               b(1) = (  0.180485 -0.102900  0.000000 )
               b(2) = (  0.000000  0.207758  0.000000 )
               b(3) = (  0.000000  0.000000  0.040765 )

     PseudoPot. # 1 for Mo read from file:
     /afs/slac.stanford.edu/u/if/mamunm/psp/gbrv1.5pbe/Mo.UPF
     MD5 check sum: 30c4dcd161f5d35cd49bb5239c51a633
     Pseudo is Ultrasoft + core correction, Zval = 14.0
     Generated by new atomic code, or converted to UPF format
     Using radial grid of  889 points,  6 beta functions with:
                l(1) =   0
                l(2) =   0
                l(3) =   1
                l(4) =   1
                l(5) =   2
                l(6) =   2
     Q(r) pseudized with  6 coefficients,  rinner =    1.000   1.000   1.000
                                                       1.000   1.000

     PseudoPot. # 2 for Os read from file:
     /afs/slac.stanford.edu/u/if/mamunm/psp/gbrv1.5pbe/Os.UPF
     MD5 check sum: a3fb40a04f0c37c25c34bbc47164c9a8
     Pseudo is Ultrasoft + core correction, Zval = 16.0
     Generated by new atomic code, or converted to UPF format
     Using radial grid of  983 points,  8 beta functions with:
                l(1) =   0
                l(2) =   0
                l(3) =   1
                l(4) =   1
                l(5) =   2
                l(6) =   2
                l(7) =   3
                l(8) =   3
     Q(r) pseudized with  8 coefficients,  rinner =    1.150   1.150   1.150
                                                       1.150   1.150   1.150
                                                       1.150

     vdW kernel table read from file vdW_kernel_table
     MD5 check sum: 095c7af220d748ca6e76c0b4c6cfb241

     atomic species   valence    mass     pseudopotential
        Mo1           14.00    95.95000     Mo( 1.00)
        Os1           16.00   190.23000     Os( 1.00)

     No symmetry found

   Cartesian axes

     site n.     atom                  positions (alat units)
         1           Mo1 tau(   1) = (   0.0000000   0.0000000  10.0000000  )
         2           Mo1 tau(   2) = (   4.1424137   2.4066449  10.0000000  )
         3           Os1 tau(   3) = (   2.7703089   0.0000000  10.0000000  )
         4           Os1 tau(   4) = (   1.3721048   2.4066449  10.0000000  )
         5           Mo1 tau(   5) = (   5.5406177   3.2189686  12.2654072  )
         6           Mo1 tau(   6) = (   1.3982041   0.8123237  12.2654072  )
         7           Os1 tau(   7) = (   2.7703089   3.2189686  12.2654072  )
         8           Os1 tau(   8) = (   4.1685129   0.8123237  12.2654072  )
         9           Mo1 tau(   9) = (   2.8015642   1.6276440  14.4220493  )
        10           Mo1 tau(  10) = (   6.9439754   4.0342871  14.4220493  )
        11           Os1 tau(  11) = (   5.5559597   1.6183957  14.4311857  )
        12           Os1 tau(  12) = (   4.1577525   4.0250423  14.4311851  )

     number of k points=    20  Fermi-Dirac smearing, width (Ry)=  0.0110
                       cart. coord. in units 2pi/alat
        k(    1) = (   0.0000000   0.0000000   0.0000000), wk =   0.0555556
        k(    2) = (   0.0000000   0.0346264   0.0000000), wk =   0.1111111
        k(    3) = (   0.0000000   0.0692527   0.0000000), wk =   0.1111111
        k(    4) = (   0.0000000  -0.1038791   0.0000000), wk =   0.0555556
        k(    5) = (   0.0300809  -0.0171501   0.0000000), wk =   0.1111111
        k(    6) = (   0.0300809   0.0174763   0.0000000), wk =   0.1111111
        k(    7) = (   0.0300809   0.0521026   0.0000000), wk =   0.1111111
        k(    8) = (   0.0300809  -0.1210291   0.0000000), wk =   0.1111111
        k(    9) = (   0.0300809  -0.0864028   0.0000000), wk =   0.1111111
        k(   10) = (   0.0300809  -0.0517764   0.0000000), wk =   0.1111111
        k(   11) = (   0.0601618  -0.0343001   0.0000000), wk =   0.1111111
        k(   12) = (   0.0601618   0.0003262   0.0000000), wk =   0.1111111
        k(   13) = (   0.0601618   0.0349526   0.0000000), wk =   0.1111111
        k(   14) = (   0.0601618  -0.1381792   0.0000000), wk =   0.1111111
        k(   15) = (   0.0601618  -0.1035528   0.0000000), wk =   0.1111111
        k(   16) = (   0.0601618  -0.0689265   0.0000000), wk =   0.1111111
        k(   17) = (  -0.0902426   0.0514502   0.0000000), wk =   0.0555556
        k(   18) = (  -0.0902426   0.0860766   0.0000000), wk =   0.1111111
        k(   19) = (  -0.0902426   0.1207029   0.0000000), wk =   0.1111111
        k(   20) = (  -0.0902426  -0.0524289   0.0000000), wk =   0.0555556

     Largest allocated arrays     est. size (Mb)     dimensions
     Largest temporary arrays     est. size (Mb)     dimensions

     Initial potential from superposition of free atoms
     Check: negative starting charge=   -0.750515

     starting charge  176.99340, renormalised to  180.00000

[...]

     *
     * You are using vdW-DF for exchange-correlation in this calculation.
     * Please cite the following three references that made this development
     * possible:
     *
     *   M. Dion, H. Rydberg, E. Schroder, D. C. Langreth, and
     *   B. I. Lundqvist, Phys. Rev. Lett. 92, 246401 (2004).
     *
     *   T. Thonhauser, V. R. Cooper, S. Li, A. Puzder, P. Hyldgaard, and
     *   D. C. Langreth, Phys. Rev. B 76, 125112 (2007).
     *
     *   G. Roman-Perez and J. M. Soler, Phys. Rev. Lett. 103, 096102 (2009).
     *
     *
     * If you are using vdW-DF2, please also cite:
     *
     *   K. Lee, E. D. Murray, L. Kong, B. I. Lundqvist, and
     *   D. C. Langreth, Phys. Rev. B 82, 081101(R) (2010).
     *
     *
     * If you are calculating the stress with vdW-DF, please also cite:
     *
     *   R. Sabatini, E. Kucukbenli, B. Kolb, T. Thonhauser, and
     *   S. de Gironcoli, J. Phys.: Condens. Matter 24, 424209 (2012).
     *

     Carrying out vdW-DF run using the following parameters:

     Nqs =      20    Nr_points =    1024   r_max =   100.000
     q_mesh =
               0.00001000     0.04494208     0.09755937     0.15916263
               0.23128650     0.31572767     0.41458969     0.53033537
               0.66584808     0.82450364     1.01025438     1.22772762
               1.48234092     1.78043706     2.12944203     2.53805004
               3.01644009     3.57652955     4.23227104     5.00000000

     Gradients computed in reciprocal space

[...]

     Starting wfc are  156 randomized atomic wfcs

     Self-consistent Calculation

[...]

     total energy              =   -2038.40456039 Ry
     Harris-Foulkes estimate   =   -2038.40455940 Ry
     estimated scf accuracy    <       0.00000320 Ry

     iteration # 17     ecut=    36.75 Ry     beta=0.10
     Davidson diagonalization with overlap
     ethr =  9.68E-10,  avg # of iterations =  2.0

[...]

     negative rho (up, down):  7.592E-01 0.000E+00

     Adding external electric field

     Computed dipole along edir(3) :
        Dipole                0.0328 Ry au,          0.0835 Debye
        Dipole field          0.0001 Ry au

        Potential amp.       -0.0084 Ry
        Total length         45.1976 bohr

     End of self-consistent calculation

[...]

          k = 0.0602-0.0689 0.0000 ( 16636 PWs)   bands (ev):

[...]

          k =-0.0902-0.0524 0.0000 ( 16620 PWs)   bands (ev):

   -83.9188 -83.8967 -83.5743 -83.5648 -83.5524 -83.5429 -58.6618 -58.6121
   -58.5728 -58.5247 -58.4970 -58.4091 -43.4096 -43.3228 -43.2791 -43.1837
   -43.1418 -43.0391 -43.0345 -42.9914 -42.8994 -42.8569 -42.8309 -42.8068
   -42.7931 -42.7924 -42.7656 -42.7541 -42.6264 -42.6248 -33.0742 -32.9760
   -32.8983 -32.8746 -32.8135 -32.7411 -32.7086 -32.6424 -32.6305 -32.6180
   -32.5612 -32.5361 -32.4760 -32.2936 -32.2931 -32.2184 -32.1394 -32.0491
    -3.9276  -3.2520  -2.3518  -2.1593  -2.1364  -2.0433  -1.9746  -1.7743
    -1.6451  -1.4043  -1.3646  -1.1638  -1.1003  -0.9023  -0.8595  -0.7227
    -0.6065  -0.3992  -0.2127  -0.1700   0.2145   0.3237   0.4917   0.6600
     0.6763   0.7838   0.7916   0.8283   0.8420   1.1433   1.1465   1.2192
     1.2523   1.3435   1.4488   1.5036   1.5323   1.6177   1.6446   1.7575
     1.9250   2.1383   2.5522   2.6317   2.6658   2.8308   3.0593   3.1347
     3.3715   3.4889   3.5001   3.6454   3.8147   3.8256   4.0185   4.2174
     4.4813   4.6857   4.7433   5.0827   5.1978   5.5872   5.7505   5.8677
     6.2323   6.4167   7.0634   7.5439   7.7425   7.9968   8.2589   8.3475

     the Fermi energy is     2.6452 ev

!    total energy              =   -2038.40456343 Ry
     Harris-Foulkes estimate   =   -2038.40456059 Ry
     estimated scf accuracy    <       0.00000022 Ry

     The total energy is the sum of the following terms:

     one-electron contribution =  -18276.35358792 Ry
     hartree contribution      =    9126.25257303 Ry
     xc contribution           =    -352.25900855 Ry
     ewald contribution        =    7464.02997036 Ry
     electric field correction =       0.00000307 Ry
     smearing contrib. (-TS)   =      -0.07451342 Ry

     convergence has been achieved in  17 iterations

 BEEF-vdW xc energy contributions
           1 :   -306.632647733713
           2 :    282.920989556117
           3 :   -241.454982117275
           4 :    191.904523820737
           5 :   -144.434523961027
           6 :    106.729194707384
           7 :   -82.2615081041799
           8 :    70.1595932687279
           9 :   -66.4696086672558
          10 :    66.1415909543151
          11 :   -64.9517385444842
          12 :    60.7026837467369
          13 :   -53.4352262845483
          14 :    44.7697483418354
          15 :   -36.8070336111207
          16 :    31.0901764382094
          17 :   -28.0289208333436
          18 :    26.9243099614357
          19 :   -26.4724367051782
          20 :    25.4387343780724
          21 :   -23.1843862900744
          22 :    19.8365088147044
          23 :   -16.0901038379754
          24 :    12.7857712874422
          25 :   -10.4901122443023
          26 :    9.26436591367508
          27 :   -8.70172806593672
          28 :    8.17805000187889
          29 :   -7.17501569034334
          30 :    5.51353647344388
          31 :   -31.0047669044741
          32 :   -23.7256594664368

     Forces acting on atoms (Ry/au):

     negative rho (up, down):  7.592E-01 0.000E+00
     atom    1 type  1   force =    -0.00346104   -0.00201062    0.02197326
     atom    2 type  1   force =    -0.00346105   -0.00201081    0.02197337
     atom    3 type  2   force =     0.00418908    0.00243369    0.01920849
     atom    4 type  2   force =     0.00418977    0.00243426    0.01920820
     atom    5 type  1   force =     0.00241626    0.00140379   -0.01788663
     atom    6 type  1   force =     0.00241634    0.00140405   -0.01788669
     atom    7 type  2   force =    -0.00275015   -0.00159942   -0.02345061
     atom    8 type  2   force =    -0.00275164   -0.00159724   -0.02345007
     atom    9 type  1   force =    -0.00078539   -0.00045655    0.00013789
     atom   10 type  1   force =    -0.00078575   -0.00045621    0.00013794
     atom   11 type  2   force =     0.00039181    0.00022695    0.00001717
     atom   12 type  2   force =     0.00039175    0.00022810    0.00001767

     Total force =     0.059668     Total SCF correction =     0.002488

     entering subroutine stress ...

     negative rho (up, down):  7.592E-01 0.000E+00
          total   stress  (Ry/bohr**3)                   (kbar)     P=  -24.29
  -0.00019609   0.00001354  -0.00000149        -28.85      1.99     -0.22
   0.00001354  -0.00021153  -0.00000087          1.99    -31.12     -0.13
  -0.00000149  -0.00000087  -0.00008772         -0.22     -0.13    -12.90

 !ASE

     Writing output data file calc.save

     General routines

     Parallel routines

   This run was terminated on:  19: 7:49  18Dec2018

   JOB DONE.
Job  /afs/slac/g/suncat/bin/suncat-tsmpirun -x LD_LIBRARY_PATH -wdir /scratch/qe530262_W6xO9 pw.x -in pw.inp

TID   HOST_NAME   COMMAND_LINE            STATUS            TERMINATION_TIME
00000 suncat2050 pw.x -in pw.inp   Done                     12/18/2018 19:07:49
00001 suncat2050 pw.x -in pw.inp   Done                     12/18/2018 19:07:49
00002 suncat2050 pw.x -in pw.inp   Done                     12/18/2018 19:07:49
00003 suncat2050 pw.x -in pw.inp   Done                     12/18/2018 19:07:49
00004 suncat2050 pw.x -in pw.inp   Done                     12/18/2018 19:07:49
00005 suncat2050 pw.x -in pw.inp   Done                     12/18/2018 19:07:49
00006 suncat2050 pw.x -in pw.inp   Done                     12/18/2018 19:07:49
00007 suncat2050 pw.x -in pw.inp   Done                     12/18/2018 19:07:49
00008 suncat2050 pw.x -in pw.inp   Done                     12/18/2018 19:07:49
00009 suncat2050 pw.x -in pw.inp   Done                     12/18/2018 19:07:49
00010 suncat2050 pw.x -in pw.inp   Done                     12/18/2018 19:07:49
00011 suncat2050 pw.x -in pw.inp   Done                     12/18/2018 19:07:49
00012 suncat2050 pw.x -in pw.inp   Done                     12/18/2018 19:07:49
00013 suncat2050 pw.x -in pw.inp   Done                     12/18/2018 19:07:49
00014 suncat2050 pw.x -in pw.inp   Done                     12/18/2018 19:07:49
00015 suncat2050 pw.x -in pw.inp   Done                     12/18/2018 19:07:49
00016 suncat2049 pw.x -in pw.inp   Done                     12/18/2018 19:07:49
00017 suncat2049 pw.x -in pw.inp   Done                     12/18/2018 19:07:49
00018 suncat2049 pw.x -in pw.inp   Done                     12/18/2018 19:07:49
00019 suncat2049 pw.x -in pw.inp   Done                     12/18/2018 19:07:49
00020 suncat2049 pw.x -in pw.inp   Done                     12/18/2018 19:07:49
00021 suncat2049 pw.x -in pw.inp   Done                     12/18/2018 19:07:49
00022 suncat2049 pw.x -in pw.inp   Done                     12/18/2018 19:07:49
00023 suncat2049 pw.x -in pw.inp   Done                     12/18/2018 19:07:49
00024 suncat2049 pw.x -in pw.inp   Done                     12/18/2018 19:07:49
00025 suncat2049 pw.x -in pw.inp   Done                     12/18/2018 19:07:49
00026 suncat2049 pw.x -in pw.inp   Done                     12/18/2018 19:07:49
00027 suncat2049 pw.x -in pw.inp   Done                     12/18/2018 19:07:49
00028 suncat2049 pw.x -in pw.inp   Done                     12/18/2018 19:07:49
00029 suncat2049 pw.x -in pw.inp   Done                     12/18/2018 19:07:49
00030 suncat2049 pw.x -in pw.inp   Done                     12/18/2018 19:07:49
00031 suncat2049 pw.x -in pw.inp   Done                     12/18/2018 19:07:49