     Program PWSCF v.5.1rc2 (svn rev. 11289) starts on 18Dec2018 at 18: 1:30

     Current dimensions of program PWSCF are:
     Max number of different atomic species (ntypx) = 10
     Max number of k-points (npk) =  40000
     Max angular momentum in pseudopotentials (lmaxx) =  3
     Presently stress not available with electric field

     IMPORTANT: XC functional enforced from input :
     Exchange-correlation      = BEEF-VDW ( 1  4 27 13 2)
     Any further DFT definition will be discarded
     Please, verify this is what you really want

     Subspace diagonalization in iterative solution of the eigenvalue problem:
     a serial algorithm will be used

     Found symmetry operation: I + ( -0.5000 -0.5000  0.0000)
     This is a supercell, fractional translations are disabled

     bravais-lattice index     =            0
     lattice parameter (alat)  =       1.8897  a.u.
     unit-cell volume          =    4185.3546 (a.u.)^3
     number of atoms/cell      =           12
     number of atomic types    =            2
     number of electrons       =       114.00
     number of Kohn-Sham states=           87
     kinetic-energy cutoff     =      36.7493  Ry
     charge density cutoff     =     367.4932  Ry
     convergence threshold     =      1.0E-06
     mixing beta               =       0.1000
     number of iterations used =           10  plain     mixing
     Exchange-correlation      = BEEF-VDW ( 1  4 27 13 2)
     nstep                     =           50

     celldm(1)=   1.889726  celldm(2)=   0.000000  celldm(3)=   0.000000
     celldm(4)=   0.000000  celldm(5)=   0.000000  celldm(6)=   0.000000

     crystal axes: (cart. coord. in units of alat)
               a(1) = (   5.209207   0.000000   0.000000 )
               a(2) = (   1.744197   4.908524   0.000000 )
               a(3) = (   0.000000   0.000000  24.255661 )

     reciprocal axes: (cart. coord. in units 2 pi/alat)
               b(1) = (  0.191968 -0.068214  0.000000 )
               b(2) = (  0.000000  0.203727  0.000000 )
               b(3) = (  0.000000  0.000000  0.041227 )

     PseudoPot. # 1 for Al read from file:
     /afs/slac.stanford.edu/u/if/mamunm/psp/gbrv1.5pbe/Al.UPF
     MD5 check sum: 0a6289f5291fc8f409219462bc851e1f
     Pseudo is Ultrasoft + core correction, Zval =  3.0
     Generated by new atomic code, or converted to UPF format
     Using radial grid of  893 points,  3 beta functions with:
                l(1) =   0
                l(2) =   1
                l(3) =   2
     Q(r) pseudized with  8 coefficients,  rinner =    0.900   0.900   0.900
                                                       0.900   0.900

     PseudoPot. # 2 for Ru read from file:
     /afs/slac.stanford.edu/u/if/mamunm/psp/gbrv1.5pbe/Ru.UPF
     MD5 check sum: 7158a806dd851261a58e6920c40ebe78
     Pseudo is Ultrasoft + core correction, Zval = 16.0
     Generated by new atomic code, or converted to UPF format
     Using radial grid of  967 points,  6 beta functions with:
                l(1) =   0
                l(2) =   0
                l(3) =   1
                l(4) =   1
                l(5) =   2
                l(6) =   2
     Q(r) pseudized with  8 coefficients,  rinner =    1.300   1.300   1.300
                                                       1.300   1.300

     vdW kernel table read from file vdW_kernel_table
     MD5 check sum: 095c7af220d748ca6e76c0b4c6cfb241

     atomic species   valence    mass     pseudopotential
        Al1            3.00    26.98154     Al( 1.00)
        Ru1           16.00   101.07000     Ru( 1.00)

     No symmetry found

   Cartesian axes

     site n.     atom                  positions (alat units)
         1           Al1 tau(   1) = (   0.0000000   0.0000000  10.0000000  )
         2           Al1 tau(   2) = (   3.4767018   2.4542622  10.0000000  )
         3           Ru1 tau(   3) = (   2.6046033   0.0000000  10.0000000  )
         4           Ru1 tau(   4) = (   0.8720984   2.4542622  10.0000000  )
         5           Al1 tau(   5) = (   5.2092067   3.6772665  12.1278307  )
         6           Al1 tau(   6) = (   1.7325049   1.2230043  12.1278307  )
         7           Ru1 tau(   7) = (   2.6046033   3.6772665  12.1278307  )
         8           Ru1 tau(   8) = (   4.3371082   1.2230043  12.1278307  )
         9           Al1 tau(   9) = (   3.4650098   2.4460086  14.2556613  )
        10           Al1 tau(  10) = (   6.9417116   4.9002708  14.2556613  )
        11           Ru1 tau(  11) = (   6.0696131   2.4460086  14.2556613  )
        12           Ru1 tau(  12) = (   4.3371082   4.9002708  14.2556613  )

     number of k points=    20  Fermi-Dirac smearing, width (Ry)=  0.0110
                       cart. coord. in units 2pi/alat
        k(    1) = (   0.0000000   0.0000000   0.0000000), wk =   0.0555556
        k(    2) = (   0.0000000   0.0339545   0.0000000), wk =   0.1111111
        k(    3) = (   0.0000000   0.0679091   0.0000000), wk =   0.1111111
        k(    4) = (   0.0000000  -0.1018636   0.0000000), wk =   0.0555556
        k(    5) = (   0.0319946  -0.0113690   0.0000000), wk =   0.1111111
        k(    6) = (   0.0319946   0.0225856   0.0000000), wk =   0.1111111
        k(    7) = (   0.0319946   0.0565401   0.0000000), wk =   0.1111111
        k(    8) = (   0.0319946  -0.1132326   0.0000000), wk =   0.1111111
        k(    9) = (   0.0319946  -0.0792781   0.0000000), wk =   0.1111111
        k(   10) = (   0.0319946  -0.0453235   0.0000000), wk =   0.1111111
        k(   11) = (   0.0639893  -0.0227380   0.0000000), wk =   0.1111111
        k(   12) = (   0.0639893   0.0112166   0.0000000), wk =   0.1111111
        k(   13) = (   0.0639893   0.0451711   0.0000000), wk =   0.1111111
        k(   14) = (   0.0639893  -0.1246016   0.0000000), wk =   0.1111111
        k(   15) = (   0.0639893  -0.0906470   0.0000000), wk =   0.1111111
        k(   16) = (   0.0639893  -0.0566925   0.0000000), wk =   0.1111111
        k(   17) = (  -0.0959839   0.0341070   0.0000000), wk =   0.0555556
        k(   18) = (  -0.0959839   0.0680615   0.0000000), wk =   0.1111111
        k(   19) = (  -0.0959839   0.1020160   0.0000000), wk =   0.1111111
        k(   20) = (  -0.0959839  -0.0677567   0.0000000), wk =   0.0555556

     Largest allocated arrays     est. size (Mb)     dimensions
     Largest temporary arrays     est. size (Mb)     dimensions

     Initial potential from superposition of free atoms
     Check: negative starting charge=   -0.433323

     starting charge  107.98511, renormalised to  114.00000

     negative rho (up, down):  4.575E-01 0.000E+00

     *
     * You are using vdW-DF for exchange-correlation in this calculation.
     * Please cite the following three references that made this development
     * possible:
     *
     *   M. Dion, H. Rydberg, E. Schroder, D. C. Langreth, and
     *   B. I. Lundqvist, Phys. Rev. Lett. 92, 246401 (2004).
     *
     *   T. Thonhauser, V. R. Cooper, S. Li, A. Puzder, P. Hyldgaard, and
     *   D. C. Langreth, Phys. Rev. B 76, 125112 (2007).
     *
     *   G. Roman-Perez and J. M. Soler, Phys. Rev. Lett. 103, 096102 (2009).
     *
     *
     * If you are using vdW-DF2, please also cite:
     *
     *   K. Lee, E. D. Murray, L. Kong, B. I. Lundqvist, and
     *   D. C. Langreth, Phys. Rev. B 82, 081101(R) (2010).
     *
     *
     * If you are calculating the stress with vdW-DF, please also cite:
     *
     *   R. Sabatini, E. Kucukbenli, B. Kolb, T. Thonhauser, and
     *   S. de Gironcoli, J. Phys.: Condens. Matter 24, 424209 (2012).
     *

     Carrying out vdW-DF run using the following parameters:

     Nqs =      20    Nr_points =    1024   r_max =   100.000
     q_mesh =
               0.00001000     0.04494208     0.09755937     0.15916263
               0.23128650     0.31572767     0.41458969     0.53033537
               0.66584808     0.82450364     1.01025438     1.22772762
               1.48234092     1.78043706     2.12944203     2.53805004
               3.01644009     3.57652955     4.23227104     5.00000000

     Gradients computed in reciprocal space

     Adding external electric field

     Computed dipole along edir(3) :
        Dipole                0.0000 Ry au,          0.0000 Debye
        Dipole field          0.0000 Ry au

        Potential amp.       -0.0000 Ry
        Total length         44.6906 bohr

     Starting wfc are  102 randomized atomic wfcs

     Self-consistent Calculation

     iteration #  1     ecut=    36.75 Ry     beta=0.10
     Davidson diagonalization with overlap
     ethr =  1.00E-02,  avg # of iterations =  7.8

[...]

     total energy              =   -1212.88633785 Ry
     Harris-Foulkes estimate   =   -1215.22662617 Ry
     estimated scf accuracy    <      14.01928770 Ry

[...]

     End of self-consistent calculation

          k = 0.0000 0.0000 0.0000 ( 15725 PWs)   bands (ev):

   -71.5669 -71.5522 -71.3828 -71.3823 -71.3689 -71.3688 -41.6433 -41.6152
   -41.6064 -41.5939 -41.5774 -41.4962 -41.4959 -41.4577 -41.3869 -41.3682
   -41.3669 -41.3486 -41.3474 -41.3354 -41.3324 -41.3161 -41.3153 -41.3118
    -8.2769  -6.4414  -5.2372  -5.1354  -4.8005  -4.3240  -2.8353  -2.7348
    -2.5652  -2.4098  -2.3070  -2.3021  -2.1574  -1.8231  -1.6570  -1.3795
    -1.2727  -0.8271  -0.8103  -0.6862  -0.5467  -0.4103  -0.3921  -0.3420
    -0.3175  -0.2789  -0.0028   0.1899   0.2794   0.3199   0.3231   0.3457
     0.5066   0.5438   0.6289   0.7037   0.9185   1.3581   1.5378   2.3541
     2.4664   3.4697   4.0123   4.0693   4.4346   4.6072   5.3895   5.3898
     5.4231   5.8581   6.0021   6.0224   6.2442   6.5412   6.7047   6.9262
     7.2609   7.5448   7.5978   7.9120   8.3411   8.4010   8.4246

[...]

          k =-0.0960 0.0341 0.0000 ( 15714 PWs)   bands (ev):

[...]

     the Fermi energy is     0.5804 ev

!    total energy              =   -1212.28709711 Ry
     Harris-Foulkes estimate   =   -1212.28709987 Ry
     estimated scf accuracy    <       0.00000020 Ry

     The total energy is the sum of the following terms:

     one-electron contribution =   -8030.81004505 Ry
     hartree contribution      =    4016.50523651 Ry
     xc contribution           =    -188.47717362 Ry
     ewald contribution        =    2990.55579590 Ry
     electric field correction =       0.00000000 Ry
     smearing contrib. (-TS)   =      -0.06091086 Ry

     convergence has been achieved in  15 iterations

 BEEF-vdW xc energy contributions
           1 :   -162.315364087639
           2 :    147.758817009899
           3 :   -123.111334084196
           4 :    95.1515537428554
           5 :   -70.1372926218644
           6 :    51.7773317553312
           7 :   -40.7164868797723
           8 :    35.3382440188080
           9 :   -33.1183942111211
          10 :    31.7636566839213
          11 :   -29.7946686870786
          12 :    26.6545936412465
          13 :   -22.5730415422275
          14 :    18.3135158058925
          15 :   -14.8129230615600
          16 :    12.7451816640852
          17 :   -12.1711792117238
          18 :    12.4863042497583
          19 :   -12.7410963805930
          20 :    12.1642961490135
          21 :   -10.5672819160737
[...]
00027 suncat0091 pw.x -in pw.inp   Done                     12/18/2018 18:10:01
00028 suncat0091 pw.x -in pw.inp   Done                     12/18/2018 18:10:01
00029 suncat0091 pw.x -in pw.inp   Done                     12/18/2018 18:10:01
00030 suncat0091 pw.x -in pw.inp   Done                     12/18/2018 18:10:01
00031 suncat0091 pw.x -in pw.inp   Done                     12/18/2018 18:10:01

     Program PWSCF v.5.1rc2 (svn rev. 11289) starts on 18Dec2018 at 18:10: 7

[...]

     Total force =     0.016293     Total SCF correction =     0.002562
     SCF correction compared to forces is large: reduce conv_thr to get better values

[...]

   This run was terminated on:  18:18:43  18Dec2018

[...]

     Program PWSCF v.5.1rc2 (svn rev. 11289) starts on 18Dec2018 at 18:18:49

     Current dimensions of program PWSCF are:
     Max number of different atomic species (ntypx) = 10
     Max number of k-points (npk) =  40000
     Max angular momentum in pseudopotentials (lmaxx) =  3
     Presently stress not available with electric field

     IMPORTANT: XC functional enforced from input :
     Exchange-correlation      = BEEF-VDW ( 1  4 27 13 2)
     Any further DFT definition will be discarded
     Please, verify this is what you really want

     Subspace diagonalization in iterative solution of the eigenvalue problem:
     a serial algorithm will be used

     Found symmetry operation: I + ( -0.5000 -0.5000  0.0000)
     This is a supercell, fractional translations are disabled

     bravais-lattice index     =            0
     lattice parameter (alat)  =       1.8897  a.u.
     unit-cell volume          =    4185.3546 (a.u.)^3
     number of atoms/cell      =           12
     number of atomic types    =            2
     number of electrons       =       114.00
     number of Kohn-Sham states=           87
     kinetic-energy cutoff     =      36.7493  Ry
     charge density cutoff     =     367.4932  Ry
     convergence threshold     =      1.0E-06
     mixing beta               =       0.1000
     number of iterations used =           10  plain     mixing
     Exchange-correlation      = BEEF-VDW ( 1  4 27 13 2)
     nstep                     =           50

     celldm(1)=   1.889726  celldm(2)=   0.000000  celldm(3)=   0.000000
     celldm(4)=   0.000000  celldm(5)=   0.000000  celldm(6)=   0.000000

     crystal axes: (cart. coord. in units of alat)
               a(1) = (   5.209207   0.000000   0.000000 )
               a(2) = (   1.744197   4.908524   0.000000 )
               a(3) = (   0.000000   0.000000  24.255661 )

     reciprocal axes: (cart. coord. in units 2 pi/alat)
               b(1) = (  0.191968 -0.068214  0.000000 )
               b(2) = (  0.000000  0.203727  0.000000 )
               b(3) = (  0.000000  0.000000  0.041227 )

     PseudoPot. # 1 for Al read from file:
     /afs/slac.stanford.edu/u/if/mamunm/psp/gbrv1.5pbe/Al.UPF
     MD5 check sum: 0a6289f5291fc8f409219462bc851e1f
     Pseudo is Ultrasoft + core correction, Zval =  3.0
     Generated by new atomic code, or converted to UPF format
     Using radial grid of  893 points,  3 beta functions with:
                l(1) =   0
                l(2) =   1
                l(3) =   2
     Q(r) pseudized with  8 coefficients,  rinner =    0.900   0.900   0.900
                                                       0.900   0.900

     PseudoPot. # 2 for Ru read from file:
     /afs/slac.stanford.edu/u/if/mamunm/psp/gbrv1.5pbe/Ru.UPF
     MD5 check sum: 7158a806dd851261a58e6920c40ebe78
     Pseudo is Ultrasoft + core correction, Zval = 16.0
     Generated by new atomic code, or converted to UPF format
     Using radial grid of  967 points,  6 beta functions with:
                l(1) =   0
                l(2) =   0
                l(3) =   1
                l(4) =   1
                l(5) =   2
                l(6) =   2
     Q(r) pseudized with  8 coefficients,  rinner =    1.300   1.300   1.300
                                                       1.300   1.300

     vdW kernel table read from file vdW_kernel_table
     MD5 check sum: 095c7af220d748ca6e76c0b4c6cfb241

     atomic species   valence    mass     pseudopotential
        Al1            3.00    26.98154     Al( 1.00)
        Ru1           16.00   101.07000     Ru( 1.00)

     No symmetry found

   Cartesian axes

     site n.     atom                  positions (alat units)
         1           Al1 tau(   1) = (   0.0000000   0.0000000  10.0000000  )
         2           Al1 tau(   2) = (   3.4767018   2.4542622  10.0000000  )
         3           Ru1 tau(   3) = (   2.6046033   0.0000000  10.0000000  )
         4           Ru1 tau(   4) = (   0.8720984   2.4542622  10.0000000  )
         5           Al1 tau(   5) = (   5.2092067   3.6772665  12.1278307  )
         6           Al1 tau(   6) = (   1.7325049   1.2230043  12.1278307  )
         7           Ru1 tau(   7) = (   2.6046033   3.6772665  12.1278307  )
         8           Ru1 tau(   8) = (   4.3371082   1.2230043  12.1278307  )
         9           Al1 tau(   9) = (   3.4662692   2.4468952  14.2430148  )
        10           Al1 tau(  10) = (   6.9429684   4.9011606  14.2430145  )
        11           Ru1 tau(  11) = (   6.0711300   2.4470808  14.2205704  )
        12           Ru1 tau(  12) = (   4.3386264   4.9013415  14.2205803  )

     number of k points=    20  Fermi-Dirac smearing, width (Ry)=  0.0110
                       cart. coord. in units 2pi/alat
        k(    1) = (   0.0000000   0.0000000   0.0000000), wk =   0.0555556
        k(    2) = (   0.0000000   0.0339545   0.0000000), wk =   0.1111111
        k(    3) = (   0.0000000   0.0679091   0.0000000), wk =   0.1111111
        k(    4) = (   0.0000000  -0.1018636   0.0000000), wk =   0.0555556
        k(    5) = (   0.0319946  -0.0113690   0.0000000), wk =   0.1111111
        k(    6) = (   0.0319946   0.0225856   0.0000000), wk =   0.1111111
        k(    7) = (   0.0319946   0.0565401   0.0000000), wk =   0.1111111
        k(    8) = (   0.0319946  -0.1132326   0.0000000), wk =   0.1111111
        k(    9) = (   0.0319946  -0.0792781   0.0000000), wk =   0.1111111
        k(   10) = (   0.0319946  -0.0453235   0.0000000), wk =   0.1111111
        k(   11) = (   0.0639893  -0.0227380   0.0000000), wk =   0.1111111
        k(   12) = (   0.0639893   0.0112166   0.0000000), wk =   0.1111111
        k(   13) = (   0.0639893   0.0451711   0.0000000), wk =   0.1111111
        k(   14) = (   0.0639893  -0.1246016   0.0000000), wk =   0.1111111
        k(   15) = (   0.0639893  -0.0906470   0.0000000), wk =   0.1111111
        k(   16) = (   0.0639893  -0.0566925   0.0000000), wk =   0.1111111
        k(   17) = (  -0.0959839   0.0341070   0.0000000), wk =   0.0555556
        k(   18) = (  -0.0959839   0.0680615   0.0000000), wk =   0.1111111
        k(   19) = (  -0.0959839   0.1020160   0.0000000), wk =   0.1111111
        k(   20) = (  -0.0959839  -0.0677567   0.0000000), wk =   0.0555556

     Largest allocated arrays     est. size (Mb)     dimensions
     Largest temporary arrays     est. size (Mb)     dimensions

     Initial potential from superposition of free atoms
     Check: negative starting charge=   -0.430596

     starting charge  107.98511, renormalised to  114.00000

[...]

     *
     * You are using vdW-DF for exchange-correlation in this calculation.
     * Please cite the following three references that made this development
     * possible:
     *
     *   M. Dion, H. Rydberg, E. Schroder, D. C. Langreth, and
     *   B. I. Lundqvist, Phys. Rev. Lett. 92, 246401 (2004).
     *
     *   T. Thonhauser, V. R. Cooper, S. Li, A. Puzder, P. Hyldgaard, and
     *   D. C. Langreth, Phys. Rev. B 76, 125112 (2007).
     *
     *   G. Roman-Perez and J. M. Soler, Phys. Rev. Lett. 103, 096102 (2009).
     *
     *
     * If you are using vdW-DF2, please also cite:
     *
     *   K. Lee, E. D. Murray, L. Kong, B. I. Lundqvist, and
     *   D. C. Langreth, Phys. Rev. B 82, 081101(R) (2010).
     *
     *
     * If you are calculating the stress with vdW-DF, please also cite:
     *
     *   R. Sabatini, E. Kucukbenli, B. Kolb, T. Thonhauser, and
     *   S. de Gironcoli, J. Phys.: Condens. Matter 24, 424209 (2012).
     *

     Carrying out vdW-DF run using the following parameters:

     Nqs =      20    Nr_points =    1024   r_max =   100.000
     q_mesh =
               0.00001000     0.04494208     0.09755937     0.15916263
               0.23128650     0.31572767     0.41458969     0.53033537
               0.66584808     0.82450364     1.01025438     1.22772762
               1.48234092     1.78043706     2.12944203     2.53805004
               3.01644009     3.57652955     4.23227104     5.00000000

     Gradients computed in reciprocal space

[...]

     Starting wfc are  102 randomized atomic wfcs

     Self-consistent Calculation

[...]

     total energy              =   -1212.28781092 Ry
     Harris-Foulkes estimate   =   -1212.28781219 Ry
     estimated scf accuracy    <       0.00000388 Ry

     iteration # 16     ecut=    36.75 Ry     beta=0.10
     Davidson diagonalization with overlap
     ethr =  3.40E-09,  avg # of iterations =  1.0

[...]

     negative rho (up, down):  4.450E-01 0.000E+00

     Adding external electric field

     Computed dipole along edir(3) :
        Dipole                0.0039 Ry au,          0.0100 Debye
        Dipole field          0.0000 Ry au

        Potential amp.       -0.0011 Ry
        Total length         44.6906 bohr

     End of self-consistent calculation

[...]

          k = 0.0640-0.0567 0.0000 ( 15769 PWs)   bands (ev):

[...]

          k =-0.0960-0.0678 0.0000 ( 15646 PWs)   bands (ev):

   -71.5698 -71.5563 -71.3795 -71.3782 -71.3655 -71.3641 -41.6502 -41.6337
   -41.6045 -41.6007 -41.5776 -41.4962 -41.4901 -41.4609 -41.3795 -41.3635
   -41.3581 -41.3526 -41.3454 -41.3296 -41.3287 -41.3159 -41.3153 -41.3105
    -6.3250  -6.1221  -4.8462  -4.6072  -4.4826  -4.4428  -4.3687  -3.6272
    -3.5181  -3.2168  -3.0210  -2.5809  -2.4702  -2.0130  -1.8649  -1.7014
    -1.6831  -1.6488  -1.5866  -1.4378  -0.9045  -0.8281  -0.7639  -0.7353
    -0.7248  -0.3789  -0.0436  -0.0111   0.3310   0.4352   0.5098   0.6918
     0.8841   1.1126   1.2405   1.2422   1.4383   2.4193   2.7928   3.0464
     3.1330   3.8051   3.8337   3.9625   4.7950   4.8978   5.7972   5.9020
     6.0231   6.3981   6.4446   6.8321   7.1281   7.3629   7.4676   7.6994
     8.0409   8.3031   8.3924   8.3956   8.4292   8.4573   8.4808

     the Fermi energy is     0.5824 ev

!    total energy              =   -1212.28780868 Ry
     Harris-Foulkes estimate   =   -1212.28781107 Ry
     estimated scf accuracy    <       0.00000093 Ry

     The total energy is the sum of the following terms:

     one-electron contribution =   -8064.56556046 Ry
     hartree contribution      =    4033.39675804 Ry
     xc contribution           =    -188.51461640 Ry
     ewald contribution        =    3007.45662198 Ry
     electric field correction =       0.00000005 Ry
     smearing contrib. (-TS)   =      -0.06101188 Ry

     convergence has been achieved in  16 iterations

 BEEF-vdW xc energy contributions
           1 :   -162.353827737456
           2 :    147.811808112437
           3 :   -123.180822301883
           4 :    95.2241145036534
           5 :   -70.1927728858011
           6 :    51.8017995081116
           7 :   -40.7099166862826
           8 :    35.3127740097725
           9 :   -33.0904200233520
          10 :    31.7461799959932
          11 :   -29.7939013340936
          12 :    26.6700702785034
          13 :   -22.5984975569691
          14 :    18.3378420031806
          15 :   -14.8229921758921
          16 :    12.7318696843373
          17 :   -12.1361535624209
          18 :    12.4439859841335
          19 :   -12.7122390785685
          20 :    12.1638330484614
          21 :   -10.5944850288990
          22 :    8.42301595906184
          23 :   -6.38182746742211
          24 :    5.06965588297504
          25 :   -4.64667482632120
          26 :    4.82358302481785
          27 :   -5.09514774771412
          28 :    5.03439371948224
          29 :   -4.47400457358782
          30 :    3.51587412109836
          31 :   -17.7930943994850
          32 :   -13.3974975759403

     Forces acting on atoms (Ry/au):

     negative rho (up, down):  4.450E-01 0.000E+00
     atom    1 type  1   force =    -0.00009247   -0.00006524    0.00210669
     atom    2 type  1   force =    -0.00009238   -0.00006532    0.00210662
     atom    3 type  2   force =    -0.00037564   -0.00026535    0.00967018
     atom    4 type  2   force =    -0.00037599   -0.00026506    0.00967287
     atom    5 type  1   force =     0.00003356    0.00002336   -0.00629358
     atom    6 type  1   force =     0.00003312    0.00002367   -0.00629342
     atom    7 type  2   force =     0.00003913    0.00002821   -0.00477116
     atom    8 type  2   force =     0.00004214    0.00002924   -0.00477120
     atom    9 type  1   force =     0.00014413    0.00010232   -0.00081932
     atom   10 type  1   force =     0.00014501    0.00010173   -0.00081933
     atom   11 type  2   force =     0.00025003    0.00017626    0.00010721
     atom   12 type  2   force =     0.00024937    0.00017618    0.00010445

     Total force =     0.017966     Total SCF correction =     0.004901
     SCF correction compared to forces is large: reduce conv_thr to get better values

     entering subroutine stress ...

     negative rho (up, down):  4.450E-01 0.000E+00
          total   stress  (Ry/bohr**3)                   (kbar)     P=  -15.61
  -0.00015260  -0.00001791   0.00000165        -22.45     -2.64      0.24
  -0.00001791  -0.00013987   0.00000117         -2.64    -20.58      0.17
   0.00000165   0.00000117  -0.00002595          0.24      0.17     -3.82

 !ASE

     Writing output data file calc.save

     General routines

     Parallel routines

   This run was terminated on:  18:27:51  18Dec2018

   JOB DONE.
Job  /afs/slac/g/suncat/bin/suncat-tsmpirun -x LD_LIBRARY_PATH -wdir /scratch/qe529609_raSQZ pw.x -in pw.inp

TID   HOST_NAME   COMMAND_LINE            STATUS            TERMINATION_TIME
00000 suncat0094 pw.x -in pw.inp   Done                     12/18/2018 18:27:51
00001 suncat0094 pw.x -in pw.inp   Done                     12/18/2018 18:27:51
00002 suncat0094 pw.x -in pw.inp   Done                     12/18/2018 18:27:51
00003 suncat0094 pw.x -in pw.inp   Done                     12/18/2018 18:27:51
00004 suncat0094 pw.x -in pw.inp   Done                     12/18/2018 18:27:51
00005 suncat0094 pw.x -in pw.inp   Done                     12/18/2018 18:27:51
00006 suncat0094 pw.x -in pw.inp   Done                     12/18/2018 18:27:51
00007 suncat0094 pw.x -in pw.inp   Done                     12/18/2018 18:27:51
00008 suncat0093 pw.x -in pw.inp   Done                     12/18/2018 18:27:51
00009 suncat0093 pw.x -in pw.inp   Done                     12/18/2018 18:27:51
00010 suncat0093 pw.x -in pw.inp   Done                     12/18/2018 18:27:51
00011 suncat0093 pw.x -in pw.inp   Done                     12/18/2018 18:27:51
00012 suncat0093 pw.x -in pw.inp   Done                     12/18/2018 18:27:51
00013 suncat0093 pw.x -in pw.inp   Done                     12/18/2018 18:27:51
00014 suncat0093 pw.x -in pw.inp   Done                     12/18/2018 18:27:51
00015 suncat0093 pw.x -in pw.inp   Done                     12/18/2018 18:27:51
00016 suncat0092 pw.x -in pw.inp   Done                     12/18/2018 18:27:51
00017 suncat0092 pw.x -in pw.inp   Done                     12/18/2018 18:27:51
00018 suncat0092 pw.x -in pw.inp   Done                     12/18/2018 18:27:51
00019 suncat0092 pw.x -in pw.inp   Done                     12/18/2018 18:27:51
00020 suncat0092 pw.x -in pw.inp   Done                     12/18/2018 18:27:51
00021 suncat0092 pw.x -in pw.inp   Done                     12/18/2018 18:27:51
00022 suncat0092 pw.x -in pw.inp   Done                     12/18/2018 18:27:51
00023 suncat0092 pw.x -in pw.inp   Done                     12/18/2018 18:27:51
00024 suncat0091 pw.x -in pw.inp   Done                     12/18/2018 18:27:51
00025 suncat0091 pw.x -in pw.inp   Done                     12/18/2018 18:27:51
00026 suncat0091 pw.x -in pw.inp   Done                     12/18/2018 18:27:51
00027 suncat0091 pw.x -in pw.inp   Done                     12/18/2018 18:27:51
00028 suncat0091 pw.x -in pw.inp   Done                     12/18/2018 18:27:51
00029 suncat0091 pw.x -in pw.inp   Done                     12/18/2018 18:27:51
00030 suncat0091 pw.x -in pw.inp   Done                     12/18/2018 18:27:51
00031 suncat0091 pw.x -in pw.inp   Done                     12/18/2018 18:27:51