     Program PWSCF v.5.1rc2 (svn rev. 11289) starts on 29Dec2018 at 20:16:35

     Current dimensions of program PWSCF are:
     Max number of different atomic species (ntypx) = 10
     Max number of k-points (npk) =  40000
     Max angular momentum in pseudopotentials (lmaxx) =  3
     Presently stress not available with electric field

     IMPORTANT: XC functional enforced from input :
     Exchange-correlation      = BEEF-VDW ( 1  4 27 13 2)
     Any further DFT definition will be discarded
     Please, verify this is what you really want

     Subspace diagonalization in iterative solution of the eigenvalue problem:
     a serial algorithm will be used

     Found symmetry operation: I + ( -0.5000  0.0000  0.0000)
     This is a supercell, fractional translations are disabled

     bravais-lattice index     =            0
     lattice parameter (alat)  =       1.8897  a.u.
     unit-cell volume          =    4381.3740 (a.u.)^3
     number of atoms/cell      =           12
     number of atomic types    =            2
     number of electrons       =       186.00
     number of Kohn-Sham states=          123
     kinetic-energy cutoff     =      36.7493  Ry
     charge density cutoff     =     367.4932  Ry
     convergence threshold     =      1.0E-06
     mixing beta               =       0.1000
     number of iterations used =           10  plain     mixing
     Exchange-correlation      = BEEF-VDW ( 1  4 27 13 2)
     nstep                     =           50

     celldm(1)=   1.889726  celldm(2)=   0.000000  celldm(3)=   0.000000
     celldm(4)=   0.000000  celldm(5)=   0.000000  celldm(6)=   0.000000

     crystal axes: (cart. coord. in units of alat)
               a(1) = (   5.387702   0.000000   0.000000 )
               a(2) = (  -2.693851   4.917176   0.000000 )
               a(3) = (   0.000000   0.000000  24.507242 )

     reciprocal axes: (cart. coord. in units 2 pi/alat)
               b(1) = (  0.185608  0.101684  0.000000 )
               b(2) = (  0.000000  0.203369  0.000000 )
               b(3) = (  0.000000  0.000000  0.040804 )

     PseudoPot. # 1 for Tc read from file:
     /afs/slac.stanford.edu/u/if/mamunm/psp/gbrv1.5pbe/Tc.UPF
     MD5 check sum: 9eb49e5b028550b2339a02317eb7b844
     Pseudo is Ultrasoft + core correction, Zval = 15.0
     Generated by new atomic code, or converted to UPF format
     Using radial grid of  965 points,  6 beta functions with:
                l(1) =   0
                l(2) =   0
                l(3) =   1
                l(4) =   1
                l(5) =   2
                l(6) =   2
     Q(r) pseudized with  8 coefficients,  rinner =    1.300   1.300   1.300
                                                       1.300   1.300

     PseudoPot. # 2 for Pd read from file:
     /afs/slac.stanford.edu/u/if/mamunm/psp/gbrv1.5pbe/Pd.UPF
     MD5 check sum: 2d733d2bc2cbfd217af676df1668a4bc
     Pseudo is Ultrasoft + core correction, Zval = 16.0
     Generated by new atomic code, or converted to UPF format
     Using radial grid of  887 points,  6 beta functions with:
                l(1) =   0
                l(2) =   0
                l(3) =   1
                l(4) =   1
                l(5) =   2
                l(6) =   2
     Q(r) pseudized with  8 coefficients,  rinner =    1.130   1.130   1.130
                                                       1.130   1.130

     vdW kernel table read from file vdW_kernel_table
     MD5 check sum: 095c7af220d748ca6e76c0b4c6cfb241

     atomic species   valence    mass     pseudopotential
        Tc1           15.00    97.90721     Tc( 1.00)
        Pd1           16.00   106.42000     Pd( 1.00)

     No symmetry found

   Cartesian axes

     site n.     atom                  positions (alat units)
         1           Tc1 tau(   1) = (   0.0000000   0.0000000  10.0000000  )
         2           Tc1 tau(   2) = (   2.6938508   0.0000000  10.0000000  )
         3           Pd1 tau(   3) = (   1.3469254   2.4585880  10.0000000  )
         4           Pd1 tau(   4) = (  -1.3469254   2.4585880  10.0000000  )
         5           Tc1 tau(   5) = (   2.6938508   1.4758129  12.2536211  )
         6           Tc1 tau(   6) = (  -0.0000000   1.4758129  12.2536211  )
         7           Pd1 tau(   7) = (  -1.3469254   3.9344009  12.2536211  )
         8           Pd1 tau(   8) = (   1.3469254   3.9344009  12.2536211  )
         9           Tc1 tau(   9) = (   0.0000000   2.9516259  14.5072422  )
        10           Tc1 tau(  10) = (   2.6938508   2.9516259  14.5072422  )
        11           Pd1 tau(  11) = (   4.0407761   0.4930379  14.5072422  )
        12           Pd1 tau(  12) = (   1.3469254   0.4930379  14.5072422  )

     number of k points=    20  Fermi-Dirac smearing, width (Ry)=  0.0110
                       cart. coord. in units 2pi/alat
        k(    1) = (   0.0000000   0.0000000   0.0000000), wk =   0.0555556
        k(    2) = (   0.0000000   0.0338948   0.0000000), wk =   0.1111111
        k(    3) = (   0.0000000   0.0677896   0.0000000), wk =   0.1111111
        k(    4) = (   0.0000000  -0.1016844   0.0000000), wk =   0.0555556
        k(    5) = (   0.0309347   0.0169474   0.0000000), wk =   0.1111111
        k(    6) = (   0.0309347   0.0508422   0.0000000), wk =   0.1111111
        k(    7) = (   0.0309347   0.0847370   0.0000000), wk =   0.1111111
        k(    8) = (   0.0309347  -0.0847370   0.0000000), wk =   0.1111111
        k(    9) = (   0.0309347  -0.0508422   0.0000000), wk =   0.1111111
        k(   10) = (   0.0309347  -0.0169474   0.0000000), wk =   0.1111111
        k(   11) = (   0.0618693   0.0338948   0.0000000), wk =   0.1111111
        k(   12) = (   0.0618693   0.0677896   0.0000000), wk =   0.1111111
        k(   13) = (   0.0618693   0.1016844   0.0000000), wk =   0.1111111
        k(   14) = (   0.0618693  -0.0677896   0.0000000), wk =   0.1111111
        k(   15) = (   0.0618693  -0.0338948   0.0000000), wk =   0.1111111
        k(   16) = (   0.0618693   0.0000000   0.0000000), wk =   0.1111111
        k(   17) = (  -0.0928040  -0.0508422   0.0000000), wk =   0.0555556
        k(   18) = (  -0.0928040  -0.0169474   0.0000000), wk =   0.1111111
        k(   19) = (  -0.0928040   0.0169474   0.0000000), wk =   0.1111111
        k(   20) = (  -0.0928040  -0.1525266   0.0000000), wk =   0.0555556

     Largest allocated arrays     est. size (Mb)     dimensions
     Largest temporary arrays     est. size (Mb)     dimensions

     Check: negative/imaginary core charge=   -0.000013    0.000000

     Initial potential from superposition of free atoms
     Check: negative starting charge=   -1.211141

     starting charge  176.99979, renormalised to  186.00000

     negative rho (up, down):  1.273E+00 0.000E+00

     *
     * You are using vdW-DF for exchange-correlation in this calculation.
     * Please cite the following three references that made this development
     * possible:
     *
     *   M. Dion, H. Rydberg, E. Schroder, D. C. Langreth, and
     *   B. I. Lundqvist, Phys. Rev. Lett. 92, 246401 (2004).
     *
     *   T. Thonhauser, V. R. Cooper, S. Li, A. Puzder, P. Hyldgaard, and
     *   D. C. Langreth, Phys. Rev. B 76, 125112 (2007).
     *
     *   G. Roman-Perez and J. M. Soler, Phys. Rev. Lett. 103, 096102 (2009).
     *
     *
     * If you are using vdW-DF2, please also cite:
     *
     *   K. Lee, E. D. Murray, L. Kong, B. I. Lundqvist, and
     *   D. C. Langreth, Phys. Rev. B 82, 081101(R) (2010).
     *
     *
     * If you are calculating the stress with vdW-DF, please also cite:
     *
     *   R. Sabatini, E. Kucukbenli, B. Kolb, T. Thonhauser, and
     *   S. de Gironcoli, J. Phys.: Condens. Matter 24, 424209 (2012).
     *

     Carrying out vdW-DF run using the following parameters:

     Nqs =      20    Nr_points =    1024   r_max =   100.000
     q_mesh =
               0.00001000     0.04494208     0.09755937     0.15916263
               0.23128650     0.31572767     0.41458969     0.53033537
               0.66584808     0.82450364     1.01025438     1.22772762
               1.48234092     1.78043706     2.12944203     2.53805004
               3.01644009     3.57652955     4.23227104     5.00000000

     Gradients computed in reciprocal space

     Adding external electric field

     Computed dipole along edir(3) :
        Dipole               -0.0000 Ry au,         -0.0000 Debye
        Dipole field         -0.0000 Ry au

        Potential amp.        0.0000 Ry
        Total length         45.1542 bohr

     Starting wfc are  150 randomized atomic wfcs

     Self-consistent Calculation

     iteration #  1     ecut=    36.75 Ry     beta=0.10
     Davidson diagonalization with overlap
     ethr =  1.00E-02,  avg # of iterations =  7.3

[...]

     total energy              =   -2238.24923524 Ry
     Harris-Foulkes estimate   =   -2260.35484828 Ry
     estimated scf accuracy    <     125.85614015 Ry

[...]

     End of self-consistent calculation

          k = 0.0000 0.0000 0.0000 ( 16473 PWs)   bands (ev):

   -65.6565 -65.5749 -65.2239 -65.2217 -65.1421 -65.1401 -49.0381 -48.9920
   -48.9644 -48.8932 -48.8658 -48.7749 -48.6797 -48.6795 -48.6604 -48.6545
   -48.6332 -48.6272 -48.4379 -48.4216 -48.4171 -48.4169 -48.4128 -48.3966
   -37.9376 -37.7407 -37.6575 -37.6428 -37.5673 -37.5418 -37.5375 -37.2337
   -37.2287 -37.2268 -37.1802 -37.1567 -37.1535 -37.1029 -37.0607 -36.9909
   -36.8300 -36.8285  -4.8276  -3.5978  -3.5648  -3.5211  -3.5081  -3.4232
    -3.3578  -3.2523  -3.2101  -3.0624  -3.0510  -3.0096  -2.8333  -2.7762
    -2.6398  -1.9212  -1.8043  -1.7188  -1.5651  -1.5612  -1.1893  -1.0779
    -0.9480  -0.8751  -0.8181  -0.6843  -0.6617  -0.6412  -0.5239  -0.3629
    -0.3212  -0.3106  -0.1109   0.3409   0.4004   0.4273   0.5984   0.6428
     0.8931   0.9437   1.0886   1.3456   1.4127   1.6292   1.6809   1.6893
     1.6996   1.9709   2.1803   2.3079   2.3403   2.5024   2.5612   2.8158
     2.8433   2.8733   3.0339   3.0472   3.3559   3.4283   3.5201   3.6017
     3.6207   3.7837   4.0080   4.0348   4.2875   5.0767   5.4032   5.8237
     5.8493   6.0864   6.1428   6.2359   6.3635   6.5479   7.4584   8.3213
     8.8223   8.8422   9.2224

[...]

          k =-0.0928-0.0508 0.0000 ( 16520 PWs)   bands (ev):

[...]

     the Fermi energy is     1.7804 ev

!    total energy              =   -2250.19258783 Ry
     Harris-Foulkes estimate   =   -2250.19257948 Ry
     estimated scf accuracy    <       0.00000081 Ry

     The total energy is the sum of the following terms:

     one-electron contribution =  -19568.94174157 Ry
     hartree contribution      =    9806.11006764 Ry
     xc contribution           =    -393.23647205 Ry
     ewald contribution        =    7905.96873040 Ry
     electric field correction =       0.00000001 Ry
     smearing contrib. (-TS)   =      -0.09317226 Ry

     convergence has been achieved in  20 iterations

 BEEF-vdW xc energy contributions
           1 :   -343.580968567648
           2 :    315.103812223264
           3 :   -265.371650181004
           4 :    205.914599136035
           5 :   -148.562186841868
           6 :    101.797849073478
           7 :   -68.9400411918807
[...]
                l(1) =   0
                l(2) =   0
                l(3) =   1
                l(4) =   1
                l(5) =   2
                l(6) =   2
     Q(r) pseudized with  8 coefficients,  rinner =    1.300   1.300   1.300
                                                       1.300   1.300

     PseudoPot. # 2 for Pd read from file:
     /afs/slac.stanford.edu/u/if/mamunm/psp/gbrv1.5pbe/Pd.UPF
     MD5 check sum: 2d733d2bc2cbfd217af676df1668a4bc
     Pseudo is Ultrasoft + core correction, Zval = 16.0
     Generated by new atomic code, or converted to UPF format
     Using radial grid of  887 points,  6 beta functions with:
                l(1) =   0
                l(2) =   0
                l(3) =   1
                l(4) =   1
                l(5) =   2
                l(6) =   2
     Q(r) pseudized with  8 coefficients,  rinner =    1.130   1.130   1.130
                                                       1.130   1.130

     vdW kernel table read from file vdW_kernel_table
     MD5 check sum: 095c7af220d748ca6e76c0b4c6cfb241

     atomic species   valence    mass     pseudopotential
        Tc1           15.00    97.90721     Tc( 1.00)
        Pd1           16.00   106.42000     Pd( 1.00)

     No symmetry found

   Cartesian axes

     site n.     atom                  positions (alat units)
         1           Tc1 tau(   1) = (   0.0000000   0.0000000  10.0000000  )
         2           Tc1 tau(   2) = (   2.6938508   0.0000000  10.0000000  )
         3           Pd1 tau(   3) = (   1.3469254   2.4585880  10.0000000  )
         4           Pd1 tau(   4) = (  -1.3469254   2.4585880  10.0000000  )
         5           Tc1 tau(   5) = (   2.6938508   1.4758129  12.2536211  )
         6           Tc1 tau(   6) = (  -0.0000000   1.4758129  12.2536211  )
         7           Pd1 tau(   7) = (  -1.3469254   3.9344009  12.2536211  )
         8           Pd1 tau(   8) = (   1.3469254   3.9344009  12.2536211  )
         9           Tc1 tau(   9) = (  -0.0000447   2.9208833  14.3614083  )
        10           Tc1 tau(  10) = (   2.6938056   2.9208802  14.3613971  )
        11           Pd1 tau(  11) = (   4.0407401   0.5587050  14.5321904  )
        12           Pd1 tau(  12) = (   1.3468291   0.5587051  14.5321895  )

     number of k points=    20  Fermi-Dirac smearing, width (Ry)=  0.0110
                       cart. coord. in units 2pi/alat
        k(    1) = (   0.0000000   0.0000000   0.0000000), wk =   0.0555556
        k(    2) = (   0.0000000   0.0338948   0.0000000), wk =   0.1111111
        k(    3) = (   0.0000000   0.0677896   0.0000000), wk =   0.1111111
        k(    4) = (   0.0000000  -0.1016844   0.0000000), wk =   0.0555556
        k(    5) = (   0.0309347   0.0169474   0.0000000), wk =   0.1111111
        k(    6) = (   0.0309347   0.0508422   0.0000000), wk =   0.1111111
        k(    7) = (   0.0309347   0.0847370   0.0000000), wk =   0.1111111
        k(    8) = (   0.0309347  -0.0847370   0.0000000), wk =   0.1111111
        k(    9) = (   0.0309347  -0.0508422   0.0000000), wk =   0.1111111
        k(   10) = (   0.0309347  -0.0169474   0.0000000), wk =   0.1111111
        k(   11) = (   0.0618693   0.0338948   0.0000000), wk =   0.1111111
        k(   12) = (   0.0618693   0.0677896   0.0000000), wk =   0.1111111
        k(   13) = (   0.0618693   0.1016844   0.0000000), wk =   0.1111111
        k(   14) = (   0.0618693  -0.0677896   0.0000000), wk =   0.1111111
        k(   15) = (   0.0618693  -0.0338948   0.0000000), wk =   0.1111111
        k(   16) = (   0.0618693   0.0000000   0.0000000), wk =   0.1111111
        k(   17) = (  -0.0928040  -0.0508422   0.0000000), wk =   0.0555556
        k(   18) = (  -0.0928040  -0.0169474   0.0000000), wk =   0.1111111
        k(   19) = (  -0.0928040   0.0169474   0.0000000), wk =   0.1111111
        k(   20) = (  -0.0928040  -0.1525266   0.0000000), wk =   0.0555556

     Largest allocated arrays     est. size (Mb)     dimensions
     Largest temporary arrays     est. size (Mb)     dimensions

     Check: negative/imaginary core charge=   -0.000013    0.000000

     Initial potential from superposition of free atoms
     Check: negative starting charge=   -1.209613

     starting charge  176.99979, renormalised to  186.00000

[...]

     *
     * You are using vdW-DF for exchange-correlation in this calculation.
     * Please cite the following three references that made this development
     * possible:
     *
     *   M. Dion, H. Rydberg, E. Schroder, D. C. Langreth, and
     *   B. I. Lundqvist, Phys. Rev. Lett. 92, 246401 (2004).
     *
     *   T. Thonhauser, V. R. Cooper, S. Li, A. Puzder, P. Hyldgaard, and
     *   D. C. Langreth, Phys. Rev. B 76, 125112 (2007).
     *
     *   G. Roman-Perez and J. M. Soler, Phys. Rev. Lett. 103, 096102 (2009).
     *
     *
     * If you are using vdW-DF2, please also cite:
     *
     *   K. Lee, E. D. Murray, L. Kong, B. I. Lundqvist, and
     *   D. C. Langreth, Phys. Rev. B 82, 081101(R) (2010).
     *
     *
     * If you are calculating the stress with vdW-DF, please also cite:
     *
     *   R. Sabatini, E. Kucukbenli, B. Kolb, T. Thonhauser, and
     *   S. de Gironcoli, J. Phys.: Condens. Matter 24, 424209 (2012).
     *

     Carrying out vdW-DF run using the following parameters:

     Nqs =      20    Nr_points =    1024   r_max =   100.000
     q_mesh =
               0.00001000     0.04494208     0.09755937     0.15916263
               0.23128650     0.31572767     0.41458969     0.53033537
               0.66584808     0.82450364     1.01025438     1.22772762
               1.48234092     1.78043706     2.12944203     2.53805004
               3.01644009     3.57652955     4.23227104     5.00000000

     Gradients computed in reciprocal space

[...]

     Starting wfc are  150 randomized atomic wfcs

     Self-consistent Calculation

[...]

     iteration # 13     ecut=    36.75 Ry     beta=0.10
     Davidson diagonalization with overlap
     c_bands:  1 eigenvalues not converged
     ethr =  7.46E-06,  avg # of iterations =  2.5

[...]

     total energy              =   -2250.20609817 Ry
     Harris-Foulkes estimate   =   -2250.20609712 Ry
     estimated scf accuracy    <       0.00000243 Ry

     iteration # 22     ecut=    36.75 Ry     beta=0.10
     Davidson diagonalization with overlap
     ethr =  1.31E-09,  avg # of iterations =  1.0

[...]

     negative rho (up, down):  1.268E+00 0.000E+00

     Adding external electric field

     Computed dipole along edir(3) :
        Dipole               -0.0003 Ry au,         -0.0007 Debye
        Dipole field         -0.0000 Ry au

        Potential amp.        0.0001 Ry
        Total length         45.1542 bohr

     End of self-consistent calculation

[...]

          k = 0.0619 0.0000 0.0000 ( 16488 PWs)   bands (ev):

[...]

          k =-0.0928-0.1525 0.0000 ( 16520 PWs)   bands (ev):

   -65.6377 -65.6376 -65.2353 -65.2353 -65.1637 -65.1637 -49.0792 -49.0792
   -48.9943 -48.9943 -48.9345 -48.9345 -48.6438 -48.6438 -48.6212 -48.6212
   -48.5518 -48.5518 -48.5481 -48.5481 -48.4163 -48.4163 -48.3913 -48.3913
   -37.8148 -37.8147 -37.6425 -37.6425 -37.6003 -37.6003 -37.2653 -37.2653
   -37.2254 -37.2254 -37.1825 -37.1825 -37.1775 -37.1775 -37.1647 -37.1647
   -36.9997 -36.9997  -3.4096  -3.4096  -2.8647  -2.8647  -2.7925  -2.7924
    -2.5709  -2.5708  -2.5018  -2.5018  -2.3795  -2.3795  -2.0405  -2.0405
    -1.9977  -1.9977  -1.7796  -1.7796  -1.4486  -1.4485  -1.4172  -1.4172
    -1.0529  -1.0528  -0.9325  -0.9324  -0.8289  -0.8289  -0.7961  -0.7960
    -0.6008  -0.6007  -0.3787  -0.3787  -0.3191  -0.3191  -0.0522  -0.0522
     0.4068   0.4068   0.5148   0.5149   0.8897   0.8897   1.1874   1.1874
     1.2878   1.2879   1.3382   1.3382   1.4474   1.4474   1.5736   1.5736
     1.6762   1.6762   2.1437   2.1437   2.5163   2.5163   2.8285   2.8285
     3.1056   3.1056   4.5189   4.5190   5.0365   5.0365   5.8150   5.8150
     6.5271   6.5272   7.5189   7.5189   7.6925   7.6925   8.0708   8.0708
     8.1739   8.1739   9.3868

     the Fermi energy is     1.7714 ev

!    total energy              =   -2250.20610376 Ry
     Harris-Foulkes estimate   =   -2250.20609829 Ry
     estimated scf accuracy    <       0.00000046 Ry

     The total energy is the sum of the following terms:

     one-electron contribution =  -19727.41503061 Ry
     hartree contribution      =    9885.17814291 Ry
     xc contribution           =    -393.38801014 Ry
     ewald contribution        =    7985.50991355 Ry
     electric field correction =       0.00000000 Ry
     smearing contrib. (-TS)   =      -0.09111948 Ry

     convergence has been achieved in  22 iterations

 BEEF-vdW xc energy contributions
           1 :   -343.736184450353
           2 :    315.314309694875
           3 :   -265.657353677044
           4 :    206.242459075184
           5 :   -148.854901892999
           6 :    101.970248512761
           7 :   -68.9448205377931
           8 :    48.3269141457747
           9 :   -35.8396245443461
          10 :    26.8988636020269
          11 :   -18.5952323844452
          12 :    10.4189317238469
          13 :   -3.72528580553927
          14 :   0.425081944619023
          15 :   -1.66632542953766
          16 :    7.10099491545367
          17 :   -14.9915437216054
          18 :    22.9595327179242
          19 :   -28.9430334730563
          20 :    31.8806073366837
          21 :   -31.8637842452572
          22 :    29.7714236744217
          23 :   -26.6588594126574
          24 :    23.2362947416412
          25 :   -19.6812989298330
          26 :    15.8120311245813
          27 :   -11.4642552273640
          28 :    6.81576008628116
          29 :   -2.46980779060550
          30 :  -0.746429842202986
          31 :   -33.0251283917515
          32 :   -24.3482413515462

     Forces acting on atoms (Ry/au):

     negative rho (up, down):  1.268E+00 0.000E+00
     atom    1 type  1   force =    -0.00001022    0.01330681    0.02678280
     atom    2 type  1   force =    -0.00001005    0.01329693    0.02678304
     atom    3 type  2   force =    -0.00000076   -0.02309994   -0.01104330
     atom    4 type  2   force =     0.00000359   -0.02309947   -0.01104395
     atom    5 type  1   force =     0.00000751   -0.00298251   -0.00542009
     atom    6 type  1   force =     0.00000730   -0.00298034   -0.00541986
     atom    7 type  2   force =    -0.00000069    0.01308353   -0.00997710
     atom    8 type  2   force =    -0.00000527    0.01308355   -0.00997700
     atom    9 type  1   force =    -0.00000120    0.00100836    0.00088352
     atom   10 type  1   force =    -0.00000110    0.00101207    0.00086607
     atom   11 type  2   force =    -0.00001536   -0.00131435   -0.00121722
     atom   12 type  2   force =     0.00002626   -0.00131464   -0.00121692

     Total force =     0.061054     Total SCF correction =     0.003026

     entering subroutine stress ...

     negative rho (up, down):  1.268E+00 0.000E+00
          total   stress  (Ry/bohr**3)                   (kbar)     P=  -16.22
  -0.00012668  -0.00000000   0.00000002        -18.64     -0.00      0.00
  -0.00000000  -0.00015606   0.00001748         -0.00    -22.96      2.57
   0.00000002   0.00001748  -0.00004811          0.00      2.57     -7.08

 !ASE

     Writing output data file calc.save

     General routines

     Parallel routines

   This run was terminated on:  21: 8:51  29Dec2018

   JOB DONE.
Job  /afs/slac/g/suncat/bin/suncat-tsmpirun -x LD_LIBRARY_PATH -wdir /scratch/qe387722_bQBuI pw.x -in pw.inp

TID   HOST_NAME   COMMAND_LINE            STATUS            TERMINATION_TIME
00000 suncat0068 pw.x -in pw.inp   Done                     12/29/2018 21:08:51
00001 suncat0068 pw.x -in pw.inp   Done                     12/29/2018 21:08:51
00002 suncat0068 pw.x -in pw.inp   Done                     12/29/2018 21:08:51
00003 suncat0068 pw.x -in pw.inp   Done                     12/29/2018 21:08:51
00004 suncat0068 pw.x -in pw.inp   Done                     12/29/2018 21:08:51
00005 suncat0068 pw.x -in pw.inp   Done                     12/29/2018 21:08:51
00006 suncat0068 pw.x -in pw.inp   Done                     12/29/2018 21:08:51
00007 suncat0068 pw.x -in pw.inp   Done                     12/29/2018 21:08:51
00008 suncat0059 pw.x -in pw.inp   Done                     12/29/2018 21:08:51
00009 suncat0059 pw.x -in pw.inp   Done                     12/29/2018 21:08:51
00010 suncat0059 pw.x -in pw.inp   Done                     12/29/2018 21:08:51
00011 suncat0059 pw.x -in pw.inp   Done                     12/29/2018 21:08:51
00012 suncat0059 pw.x -in pw.inp   Done                     12/29/2018 21:08:51
00013 suncat0059 pw.x -in pw.inp   Done                     12/29/2018 21:08:51
00014 suncat0059 pw.x -in pw.inp   Done                     12/29/2018 21:08:51
00015 suncat0059 pw.x -in pw.inp   Done                     12/29/2018 21:08:51
00016 suncat0031 pw.x -in pw.inp   Done                     12/29/2018 21:08:51
00017 suncat0031 pw.x -in pw.inp   Done                     12/29/2018 21:08:51
00018 suncat0031 pw.x -in pw.inp   Done                     12/29/2018 21:08:51
00019 suncat0031 pw.x -in pw.inp   Done                     12/29/2018 21:08:51
00020 suncat0031 pw.x -in pw.inp   Done                     12/29/2018 21:08:51
00021 suncat0031 pw.x -in pw.inp   Done                     12/29/2018 21:08:51
00022 suncat0031 pw.x -in pw.inp   Done                     12/29/2018 21:08:51
00023 suncat0031 pw.x -in pw.inp   Done                     12/29/2018 21:08:51
00024 suncat0030 pw.x -in pw.inp   Done                     12/29/2018 21:08:51
00025 suncat0030 pw.x -in pw.inp   Done                     12/29/2018 21:08:51
00026 suncat0030 pw.x -in pw.inp   Done                     12/29/2018 21:08:51
00027 suncat0030 pw.x -in pw.inp   Done                     12/29/2018 21:08:51
00028 suncat0030 pw.x -in pw.inp   Done                     12/29/2018 21:08:51
00029 suncat0030 pw.x -in pw.inp   Done                     12/29/2018 21:08:51
00030 suncat0030 pw.x -in pw.inp   Done                     12/29/2018 21:08:51
00031 suncat0030 pw.x -in pw.inp   Done                     12/29/2018 21:08:51
00032 suncat0280 pw.x -in pw.inp   Done                     12/29/2018 21:08:51
00033 suncat0280 pw.x -in pw.inp   Done                     12/29/2018 21:08:51
00034 suncat0280 pw.x -in pw.inp   Done                     12/29/2018 21:08:51
00035 suncat0280 pw.x -in pw.inp   Done                     12/29/2018 21:08:51
00036 suncat0280 pw.x -in pw.inp   Done                     12/29/2018 21:08:51
00037 suncat0280 pw.x -in pw.inp   Done                     12/29/2018 21:08:51
00038 suncat0280 pw.x -in pw.inp   Done                     12/29/2018 21:08:51
00039 suncat0280 pw.x -in pw.inp   Done                     12/29/2018 21:08:51
00040 suncat0279 pw.x -in pw.inp   Done                     12/29/2018 21:08:51
00041 suncat0279 pw.x -in pw.inp   Done                     12/29/2018 21:08:51
00042 suncat0279 pw.x -in pw.inp   Done                     12/29/2018 21:08:51
00043 suncat0279 pw.x -in pw.inp   Done                     12/29/2018 21:08:51
00044 suncat0279 pw.x -in pw.inp   Done                     12/29/2018 21:08:51
00045 suncat0279 pw.x -in pw.inp   Done                     12/29/2018 21:08:51
00046 suncat0279 pw.x -in pw.inp   Done                     12/29/2018 21:08:51
00047 suncat0279 pw.x -in pw.inp   Done                     12/29/2018 21:08:51
00048 suncat0278 pw.x -in pw.inp   Done                     12/29/2018 21:08:51
00049 suncat0278 pw.x -in pw.inp   Done                     12/29/2018 21:08:51
00050 suncat0278 pw.x -in pw.inp   Done                     12/29/2018 21:08:51
00051 suncat0278 pw.x -in pw.inp   Done                     12/29/2018 21:08:51
00052 suncat0278 pw.x -in pw.inp   Done                     12/29/2018 21:08:51
00053 suncat0278 pw.x -in pw.inp   Done                     12/29/2018 21:08:51
00054 suncat0278 pw.x -in pw.inp   Done                     12/29/2018 21:08:51
00055 suncat0278 pw.x -in pw.inp   Done                     12/29/2018 21:08:51
00056 suncat0099 pw.x -in pw.inp   Done                     12/29/2018 21:08:51
00057 suncat0099 pw.x -in pw.inp   Done                     12/29/2018 21:08:51
00058 suncat0099 pw.x -in pw.inp   Done                     12/29/2018 21:08:51
00059 suncat0099 pw.x -in pw.inp   Done                     12/29/2018 21:08:51
00060 suncat0099 pw.x -in pw.inp   Done                     12/29/2018 21:08:51
00061 suncat0099 pw.x -in pw.inp   Done                     12/29/2018 21:08:51
00062 suncat0099 pw.x -in pw.inp   Done                     12/29/2018 21:08:51
00063 suncat0099 pw.x -in pw.inp   Done                     12/29/2018 21:08:51