     Program PWSCF v.5.1rc2 (svn rev. 11289) starts on 19Dec2018 at  7:46:34

     Current dimensions of program PWSCF are:
     Max number of different atomic species (ntypx) = 10
     Max number of k-points (npk) =  40000
     Max angular momentum in pseudopotentials (lmaxx) =  3
     Presently stress not available with electric field

     IMPORTANT: XC functional enforced from input :
     Exchange-correlation      = BEEF-VDW ( 1  4 27 13 2)
     Any further DFT definition will be discarded
     Please, verify this is what you really want

     Subspace diagonalization in iterative solution of the eigenvalue problem:
     a serial algorithm will be used

     Found symmetry operation: I + (  0.5000  0.0000  0.0000)
     This is a supercell, fractional translations are disabled

     bravais-lattice index     =            0
     lattice parameter (alat)  =       1.8897  a.u.
     unit-cell volume          =    4707.7690 (a.u.)^3
     number of atoms/cell      =           12
     number of atomic types    =            2
     number of electrons       =       156.00
     number of Kohn-Sham states=          108
     kinetic-energy cutoff     =      36.7493  Ry
     charge density cutoff     =     367.4932  Ry
     convergence threshold     =      1.0E-06
     mixing beta               =       0.1000
     number of iterations used =           10  plain     mixing
     Exchange-correlation      = BEEF-VDW ( 1  4 27 13 2)
     nstep                     =           50

     celldm(1)=   1.889726  celldm(2)=   0.000000  celldm(3)=   0.000000
     celldm(4)=   0.000000  celldm(5)=   0.000000  celldm(6)=   0.000000

     crystal axes: (cart. coord. in units of alat)
               a(1) = (   5.305113   0.000000   0.000000 )
               a(2) = (  -2.652556   5.344303   0.000000 )
               a(3) = (   0.000000   0.000000  24.605538 )

     reciprocal axes: (cart. coord. in units 2 pi/alat)
               b(1) = (  0.188497  0.093558  0.000000 )
               b(2) = (  0.000000  0.187115  0.000000 )
               b(3) = (  0.000000  0.000000  0.040641 )

     PseudoPot. # 1 for Ti read from file:
     /afs/slac.stanford.edu/u/if/mamunm/psp/gbrv1.5pbe/Ti.UPF
     MD5 check sum: 88a00a6731bd790ddea75d31a80cb452
     Pseudo is Ultrasoft + core correction, Zval = 12.0
     Generated by new atomic code, or converted to UPF format
     Using radial grid of  851 points,  6 beta functions with:
                l(1) =   0
                l(2) =   0
                l(3) =   1
                l(4) =   1
                l(5) =   2
                l(6) =   2
     Q(r) pseudized with  6 coefficients,  rinner =    1.000   1.000   1.000
                                                       1.000   1.000

     PseudoPot. # 2 for Mo read from file:
     /afs/slac.stanford.edu/u/if/mamunm/psp/gbrv1.5pbe/Mo.UPF
     MD5 check sum: 30c4dcd161f5d35cd49bb5239c51a633
     Pseudo is Ultrasoft + core correction, Zval = 14.0
     Generated by new atomic code, or converted to UPF format
     Using radial grid of  889 points,  6 beta functions with:
                l(1) =   0
                l(2) =   0
                l(3) =   1
                l(4) =   1
                l(5) =   2
                l(6) =   2
     Q(r) pseudized with  6 coefficients,  rinner =    1.000   1.000   1.000
                                                       1.000   1.000

     vdW kernel table read from file vdW_kernel_table
     MD5 check sum: 095c7af220d748ca6e76c0b4c6cfb241

     atomic species   valence    mass     pseudopotential
        Ti1           12.00    47.86700     Ti( 1.00)
        Mo1           14.00    95.95000     Mo( 1.00)

     No symmetry found

   Cartesian axes

     site n.     atom                  positions (alat units)
         1           Ti1 tau(   1) = (   0.0000000   0.0000000  10.0000000  )
         2           Ti1 tau(   2) = (   2.6525565   0.0000000  10.0000000  )
         3           Mo1 tau(   3) = (   1.3262782   2.6721513  10.0000000  )
         4           Mo1 tau(   4) = (  -1.3262782   2.6721513  10.0000000  )
         5           Ti1 tau(   5) = (   2.6525565   1.3165526  12.3027690  )
         6           Ti1 tau(   6) = (   0.0000000   1.3165526  12.3027690  )
         7           Mo1 tau(   7) = (  -1.3262782   3.9887040  12.3027690  )
         8           Mo1 tau(   8) = (   1.3262782   3.9887040  12.3027690  )
         9           Ti1 tau(   9) = (   0.0000000   2.6331053  14.6055379  )
        10           Ti1 tau(  10) = (   2.6525565   2.6331053  14.6055379  )
        11           Mo1 tau(  11) = (   1.3262782   5.3052566  14.6055379  )
        12           Mo1 tau(  12) = (  -1.3262782   5.3052566  14.6055379  )

     number of k points=    20  Fermi-Dirac smearing, width (Ry)=  0.0110
                       cart. coord. in units 2pi/alat
        k(    1) = (   0.0000000   0.0000000   0.0000000), wk =   0.0555556
        k(    2) = (   0.0000000   0.0311859   0.0000000), wk =   0.1111111
        k(    3) = (   0.0000000   0.0623717   0.0000000), wk =   0.1111111
        k(    4) = (   0.0000000  -0.0935576   0.0000000), wk =   0.0555556
        k(    5) = (   0.0314162   0.0155929   0.0000000), wk =   0.1111111
        k(    6) = (   0.0314162   0.0467788   0.0000000), wk =   0.1111111
        k(    7) = (   0.0314162   0.0779646   0.0000000), wk =   0.1111111
        k(    8) = (   0.0314162  -0.0779646   0.0000000), wk =   0.1111111
        k(    9) = (   0.0314162  -0.0467788   0.0000000), wk =   0.1111111
        k(   10) = (   0.0314162  -0.0155929   0.0000000), wk =   0.1111111
        k(   11) = (   0.0628325   0.0311859   0.0000000), wk =   0.1111111
        k(   12) = (   0.0628325   0.0623717   0.0000000), wk =   0.1111111
        k(   13) = (   0.0628325   0.0935576   0.0000000), wk =   0.1111111
        k(   14) = (   0.0628325  -0.0623717   0.0000000), wk =   0.1111111
        k(   15) = (   0.0628325  -0.0311859   0.0000000), wk =   0.1111111
        k(   16) = (   0.0628325   0.0000000   0.0000000), wk =   0.1111111
        k(   17) = (  -0.0942487  -0.0467788   0.0000000), wk =   0.0555556
        k(   18) = (  -0.0942487  -0.0155929   0.0000000), wk =   0.1111111
        k(   19) = (  -0.0942487   0.0155929   0.0000000), wk =   0.1111111
        k(   20) = (  -0.0942487  -0.1403364   0.0000000), wk =   0.0555556

     Largest allocated arrays     est. size (Mb)     dimensions
     Largest temporary arrays     est. size (Mb)     dimensions

     Check: negative/imaginary core charge=   -0.000004    0.000000

     Initial potential from superposition of free atoms
     Check: negative starting charge=   -0.010658

     starting charge  149.99335, renormalised to  156.00000

     negative rho (up, down):  1.108E-02 0.000E+00

     *
     * You are using vdW-DF for exchange-correlation in this calculation.
     * Please cite the following three references that made this development
     * possible:
     *
     *   M. Dion, H. Rydberg, E. Schroder, D. C. Langreth, and
     *   B. I. Lundqvist, Phys. Rev. Lett. 92, 246401 (2004).
     *
     *   T. Thonhauser, V. R. Cooper, S. Li, A. Puzder, P. Hyldgaard, and
     *   D. C. Langreth, Phys. Rev. B 76, 125112 (2007).
     *
     *   G. Roman-Perez and J. M. Soler, Phys. Rev. Lett. 103, 096102 (2009).
     *
     *
     * If you are using vdW-DF2, please also cite:
     *
     *   K. Lee, E. D. Murray, L. Kong, B. I. Lundqvist, and
     *   D. C. Langreth, Phys. Rev. B 82, 081101(R) (2010).
     *
     *
     * If you are calculating the stress with vdW-DF, please also cite:
     *
     *   R. Sabatini, E. Kucukbenli, B. Kolb, T. Thonhauser, and
     *   S. de Gironcoli, J. Phys.: Condens. Matter 24, 424209 (2012).
     *

     Carrying out vdW-DF run using the following parameters:

     Nqs =      20    Nr_points =    1024   r_max =   100.000
     q_mesh =
               0.00001000     0.04494208     0.09755937     0.15916263
               0.23128650     0.31572767     0.41458969     0.53033537
               0.66584808     0.82450364     1.01025438     1.22772762
               1.48234092     1.78043706     2.12944203     2.53805004
               3.01644009     3.57652955     4.23227104     5.00000000

     Gradients computed in reciprocal space

     Adding external electric field

     Computed dipole along edir(3) :
        Dipole               -0.0000 Ry au,         -0.0000 Debye
        Dipole field         -0.0000 Ry au

        Potential amp.        0.0000 Ry
        Total length         45.3353 bohr

     Starting wfc are  138 randomized atomic wfcs

     Self-consistent Calculation

     iteration #  1     ecut=    36.75 Ry     beta=0.10
     Davidson diagonalization with overlap
     ethr =  1.00E-02,  avg # of iterations =  3.0

[...]

     total energy              =   -1552.24786476 Ry
     Harris-Foulkes estimate   =   -1563.61634165 Ry
     estimated scf accuracy    <      62.87442646 Ry

[...]

     End of self-consistent calculation

          k = 0.0000 0.0000 0.0000 ( 17711 PWs)   bands (ev):

   -59.6239 -59.4727 -59.4514 -59.4342 -59.3022 -59.2861 -55.5430 -55.5357
   -55.4329 -55.4259 -55.3317 -55.2220 -34.2073 -34.0305 -33.9861 -33.9713
   -33.8644 -33.6641 -33.5390 -33.5026 -33.4885 -33.4810 -33.4008 -33.3322
   -33.3169 -33.1676 -33.0480 -33.0291 -32.8250 -32.8176 -32.0167 -32.0159
   -31.9936 -31.9114 -31.8695 -31.8638 -31.7740 -31.7077 -31.6901 -31.6478
   -31.6276 -31.5264 -31.4586 -31.4053 -31.3321 -31.2750 -31.2717 -31.1292
    -4.2568  -2.8560  -2.6683  -2.2860  -2.1683  -2.1108  -1.7770  -1.5236
    -1.4882  -1.4353  -1.3984  -1.3254  -1.2824  -1.0667  -0.8289  -0.7000
    -0.3124  -0.1064   0.1539   0.2299   0.3675   0.8140   0.9458   1.0413
     1.0799   1.3084   1.4955   1.6965   1.7525   1.8744   1.9915   2.1222
     2.2888   2.4873   2.5067   2.5287   2.5618   2.6827   2.6901   2.9276
     2.9818   3.0484   3.0678   3.3111   3.3853   3.6748   3.7078   3.7535
     3.7662   3.8647   4.1135   4.2144   4.3140   4.4221   4.5280   4.6074
     4.7148   4.7611   4.8971   4.9386

[...]

          k =-0.0942-0.0468 0.0000 ( 17686 PWs)   bands (ev):

[...]

     the Fermi energy is     1.4511 ev

!    total energy              =   -1558.93015385 Ry
     Harris-Foulkes estimate   =   -1558.93015261 Ry
     estimated scf accuracy    <       0.00000043 Ry

     The total energy is the sum of the following terms:

     one-electron contribution =  -12824.16224154 Ry
     hartree contribution      =    6400.82241036 Ry
     xc contribution           =    -232.45275503 Ry
     ewald contribution        =    5096.97313537 Ry
     electric field correction =       0.00000000 Ry
     smearing contrib. (-TS)   =      -0.11070302 Ry

     convergence has been achieved in  21 iterations

 BEEF-vdW xc energy contributions
           1 :   -199.778802461860
           2 :    180.575464756230
           3 :   -148.382443859895
           4 :    112.594182688064
           5 :   -81.7108438145131
           6 :    60.2964952520663
           7 :   -48.2888287314153
           8 :    42.4515814944863
           9 :   -38.7797673207686
          10 :    34.4675659839021
          11 :   -28.6712557154434
[...]

[...]

   This run was terminated on:   8: 2:36  19Dec2018

[...]

     Program PWSCF v.5.1rc2 (svn rev. 11289) starts on 19Dec2018 at  8: 2:42

[...]

   This run was terminated on:   8: 8:20  19Dec2018

[...]

     Program PWSCF v.5.1rc2 (svn rev. 11289) starts on 19Dec2018 at  8: 8:26

[...]

   This run was terminated on:   8:14: 4  19Dec2018

[...]

     Program PWSCF v.5.1rc2 (svn rev. 11289) starts on 19Dec2018 at  8:25: 1

[...]

     Program PWSCF v.5.1rc2 (svn rev. 11289) starts on 19Dec2018 at  8:30:19

     Current dimensions of program PWSCF are:
     Max number of different atomic species (ntypx) = 10
     Max number of k-points (npk) =  40000
     Max angular momentum in pseudopotentials (lmaxx) =  3
     Presently stress not available with electric field

     IMPORTANT: XC functional enforced from input :
     Exchange-correlation      = BEEF-VDW ( 1  4 27 13 2)
     Any further DFT definition will be discarded
     Please, verify this is what you really want

     Subspace diagonalization in iterative solution of the eigenvalue problem:
     a serial algorithm will be used

     Found symmetry operation: I + (  0.5000  0.0000  0.0000)
     This is a supercell, fractional translations are disabled

     bravais-lattice index     =            0
     lattice parameter (alat)  =       1.8897  a.u.
     unit-cell volume          =    4707.7690 (a.u.)^3
     number of atoms/cell      =           12
     number of atomic types    =            2
     number of electrons       =       156.00
     number of Kohn-Sham states=          108
     kinetic-energy cutoff     =      36.7493  Ry
     charge density cutoff     =     367.4932  Ry
     convergence threshold     =      1.0E-06
     mixing beta               =       0.1000
     number of iterations used =           10  plain     mixing
     Exchange-correlation      = BEEF-VDW ( 1  4 27 13 2)
     nstep                     =           50

     celldm(1)=   1.889726  celldm(2)=   0.000000  celldm(3)=   0.000000
     celldm(4)=   0.000000  celldm(5)=   0.000000  celldm(6)=   0.000000

     crystal axes: (cart. coord. in units of alat)
               a(1) = (   5.305113   0.000000   0.000000 )
               a(2) = (  -2.652556   5.344303   0.000000 )
               a(3) = (   0.000000   0.000000  24.605538 )

     reciprocal axes: (cart. coord. in units 2 pi/alat)
               b(1) = (  0.188497  0.093558  0.000000 )
               b(2) = (  0.000000  0.187115  0.000000 )
               b(3) = (  0.000000  0.000000  0.040641 )

     PseudoPot. # 1 for Ti read from file:
     /afs/slac.stanford.edu/u/if/mamunm/psp/gbrv1.5pbe/Ti.UPF
     MD5 check sum: 88a00a6731bd790ddea75d31a80cb452
     Pseudo is Ultrasoft + core correction, Zval = 12.0
     Generated by new atomic code, or converted to UPF format
     Using radial grid of  851 points,  6 beta functions with:
                l(1) =   0
                l(2) =   0
                l(3) =   1
                l(4) =   1
                l(5) =   2
                l(6) =   2
     Q(r) pseudized with  6 coefficients,  rinner =    1.000   1.000   1.000
                                                       1.000   1.000

     PseudoPot. # 2 for Mo read from file:
     /afs/slac.stanford.edu/u/if/mamunm/psp/gbrv1.5pbe/Mo.UPF
     MD5 check sum: 30c4dcd161f5d35cd49bb5239c51a633
     Pseudo is Ultrasoft + core correction, Zval = 14.0
     Generated by new atomic code, or converted to UPF format
     Using radial grid of  889 points,  6 beta functions with:
                l(1) =   0
                l(2) =   0
                l(3) =   1
                l(4) =   1
                l(5) =   2
                l(6) =   2
     Q(r) pseudized with  6 coefficients,  rinner =    1.000   1.000   1.000
                                                       1.000   1.000

     vdW kernel table read from file vdW_kernel_table
     MD5 check sum: 095c7af220d748ca6e76c0b4c6cfb241

     atomic species   valence    mass     pseudopotential
        Ti1           12.00    47.86700     Ti( 1.00)
        Mo1           14.00    95.95000     Mo( 1.00)

     No symmetry found

   Cartesian axes

     site n.     atom                  positions (alat units)
         1           Ti1 tau(   1) = (   0.0000000   0.0000000  10.0000000  )
         2           Ti1 tau(   2) = (   2.6525565   0.0000000  10.0000000  )
         3           Mo1 tau(   3) = (   1.3262782   2.6721513  10.0000000  )
         4           Mo1 tau(   4) = (  -1.3262782   2.6721513  10.0000000  )
         5           Ti1 tau(   5) = (   2.6525565   1.3165526  12.3027690  )
         6           Ti1 tau(   6) = (   0.0000000   1.3165526  12.3027690  )
         7           Mo1 tau(   7) = (  -1.3262782   3.9887040  12.3027690  )
         8           Mo1 tau(   8) = (   1.3262782   3.9887040  12.3027690  )
         9           Ti1 tau(   9) = (   0.0001186   2.7055711  14.6907665  )
        10           Ti1 tau(  10) = (   2.6526759   2.7055743  14.6907444  )
        11           Mo1 tau(  11) = (   3.9787590   0.0136851  14.4817303  )
        12           Mo1 tau(  12) = (   1.3261884   0.0136860  14.4817249  )

     number of k points=    20  Fermi-Dirac smearing, width (Ry)=  0.0110
                       cart. coord. in units 2pi/alat
        k(    1) = (   0.0000000   0.0000000   0.0000000), wk =   0.0555556
        k(    2) = (   0.0000000   0.0311859   0.0000000), wk =   0.1111111
        k(    3) = (   0.0000000   0.0623717   0.0000000), wk =   0.1111111
        k(    4) = (   0.0000000  -0.0935576   0.0000000), wk =   0.0555556
        k(    5) = (   0.0314162   0.0155929   0.0000000), wk =   0.1111111
        k(    6) = (   0.0314162   0.0467788   0.0000000), wk =   0.1111111
        k(    7) = (   0.0314162   0.0779646   0.0000000), wk =   0.1111111
        k(    8) = (   0.0314162  -0.0779646   0.0000000), wk =   0.1111111
        k(    9) = (   0.0314162  -0.0467788   0.0000000), wk =   0.1111111
        k(   10) = (   0.0314162  -0.0155929   0.0000000), wk =   0.1111111
        k(   11) = (   0.0628325   0.0311859   0.0000000), wk =   0.1111111
        k(   12) = (   0.0628325   0.0623717   0.0000000), wk =   0.1111111
        k(   13) = (   0.0628325   0.0935576   0.0000000), wk =   0.1111111
        k(   14) = (   0.0628325  -0.0623717   0.0000000), wk =   0.1111111
        k(   15) = (   0.0628325  -0.0311859   0.0000000), wk =   0.1111111
        k(   16) = (   0.0628325   0.0000000   0.0000000), wk =   0.1111111
        k(   17) = (  -0.0942487  -0.0467788   0.0000000), wk =   0.0555556
        k(   18) = (  -0.0942487  -0.0155929   0.0000000), wk =   0.1111111
        k(   19) = (  -0.0942487   0.0155929   0.0000000), wk =   0.1111111
        k(   20) = (  -0.0942487  -0.1403364   0.0000000), wk =   0.0555556

     Largest allocated arrays     est. size (Mb)     dimensions
     Largest temporary arrays     est. size (Mb)     dimensions

     Check: negative/imaginary core charge=   -0.000004    0.000000

     Initial potential from superposition of free atoms
     Check: negative starting charge=   -0.010534

     starting charge  149.99335, renormalised to  156.00000

[...]

     *
     * You are using vdW-DF for exchange-correlation in this calculation.
     * Please cite the following three references that made this development
     * possible:
     *
     *   M. Dion, H. Rydberg, E. Schroder, D. C. Langreth, and
     *   B. I. Lundqvist, Phys. Rev. Lett. 92, 246401 (2004).
     *
     *   T. Thonhauser, V. R. Cooper, S. Li, A. Puzder, P. Hyldgaard, and
     *   D. C. Langreth, Phys. Rev. B 76, 125112 (2007).
     *
     *   G. Roman-Perez and J. M. Soler, Phys. Rev. Lett. 103, 096102 (2009).
     *
     *
     * If you are using vdW-DF2, please also cite:
     *
     *   K. Lee, E. D. Murray, L. Kong, B. I. Lundqvist, and
     *   D. C. Langreth, Phys. Rev. B 82, 081101(R) (2010).
     *
     *
     * If you are calculating the stress with vdW-DF, please also cite:
     *
     *   R. Sabatini, E. Kucukbenli, B. Kolb, T. Thonhauser, and
     *   S. de Gironcoli, J. Phys.: Condens. Matter 24, 424209 (2012).
     *

     Carrying out vdW-DF run using the following parameters:

     Nqs =      20    Nr_points =    1024   r_max =   100.000
     q_mesh =
               0.00001000     0.04494208     0.09755937     0.15916263
               0.23128650     0.31572767     0.41458969     0.53033537
               0.66584808     0.82450364     1.01025438     1.22772762
               1.48234092     1.78043706     2.12944203     2.53805004
               3.01644009     3.57652955     4.23227104     5.00000000

     Gradients computed in reciprocal space

[...]

     Starting wfc are  138 randomized atomic wfcs

     Self-consistent Calculation

[...]

     total energy              =   -1558.93885737 Ry
     Harris-Foulkes estimate   =   -1558.93885635 Ry
     estimated scf accuracy    <       0.00000147 Ry

     iteration # 21     ecut=    36.75 Ry     beta=0.10
     Davidson diagonalization with overlap
     ethr =  9.44E-10,  avg # of iterations =  3.0

[...]

     negative rho (up, down):  7.700E-03 0.000E+00

     Adding external electric field

     Computed dipole along edir(3) :
        Dipole                0.0485 Ry au,          0.1233 Debye
        Dipole field          0.0001 Ry au

        Potential amp.       -0.0117 Ry
        Total length         45.3353 bohr

     End of self-consistent calculation

[...]

          k = 0.0628 0.0000 0.0000 ( 17648 PWs)   bands (ev):

[...]

          k =-0.0942-0.1403 0.0000 ( 17686 PWs)   bands (ev):

   -59.4998 -59.4998 -59.3184 -59.3184 -59.2726 -59.2726 -55.4945 -55.4944
   -55.4258 -55.4258 -55.2414 -55.2413 -33.9599 -33.9599 -33.5830 -33.5830
   -33.5182 -33.5182 -33.4133 -33.4133 -33.3673 -33.3673 -33.3415 -33.3415
   -33.3345 -33.3344 -33.3049 -33.3049 -32.9940 -32.9940 -31.9180 -31.9179
   -31.8116 -31.8116 -31.6808 -31.6807 -31.6331 -31.6329 -31.6241 -31.6241
   -31.5954 -31.5954 -31.4697 -31.4696 -31.4570 -31.4570 -31.3628 -31.3627
    -2.5092  -2.5092  -1.5684  -1.5684  -1.3675  -1.3675  -1.1001  -1.1001
    -0.8844  -0.8844  -0.4927  -0.4927  -0.2157  -0.2157  -0.1261  -0.1261
     0.1003   0.1003   0.3241   0.3242   0.5194   0.5194   0.8833   0.8833
     0.9241   0.9241   1.0491   1.0491   1.3046   1.3046   1.5324   1.5324
     1.6519   1.6520   1.7332   1.7332   2.0014   2.0015   2.4294   2.4295
     2.6827   2.6827   2.7726   2.7726   3.0099   3.0099   3.1363   3.1363
     3.2380   3.2380   3.3235   3.3235   3.4212   3.4212   3.5873   3.5874
     3.9159   3.9160   4.3058   4.3058

     the Fermi energy is     1.5113 ev

!    total energy              =   -1558.93885941 Ry
     Harris-Foulkes estimate   =   -1558.93885791 Ry
     estimated scf accuracy    <       0.00000098 Ry

     The total energy is the sum of the following terms:

     one-electron contribution =  -12871.45686815 Ry
     hartree contribution      =    6424.71501182 Ry
     xc contribution           =    -232.50493308 Ry
     ewald contribution        =    5120.41697264 Ry
     electric field correction =       0.00000628 Ry
     smearing contrib. (-TS)   =      -0.10904893 Ry

     convergence has been achieved in  21 iterations

 BEEF-vdW xc energy contributions
           1 :   -199.832303621256
           2 :    180.651151626178
           3 :   -148.493042414108
           4 :    112.730719812492
           5 :   -81.8366844089817
           6 :    60.3621101430973
           7 :   -48.2644514973271
           8 :    42.3510706569620
           9 :   -38.6534677893504
          10 :    34.3699451504900
          11 :   -28.6304550564151
          12 :    22.0886312359120
          13 :   -15.9312164814225
          14 :    10.9976162050897
          15 :   -7.45302123017353
          16 :    4.99056611372424
          17 :   -3.23228091024242
          18 :    1.97098073855878
          19 :   -1.15015987373911
          20 :   0.716130238817584
          21 :  -0.548297826027408
          22 :   0.530175947969781
          23 :  -0.668968409211033
          24 :    1.11575675054337
          25 :   -2.03828159644493
          26 :    3.42896110427480
          27 :   -5.00542022764864
          28 :    6.30066253229626
          29 :   -6.90711874682421
          30 :    6.71125832416882
          31 :   -21.9883550913561
          32 :   -16.2907320996406

     Forces acting on atoms (Ry/au):

     negative rho (up, down):  7.700E-03 0.000E+00
     atom    1 type  1   force =     0.00000167   -0.00738516   -0.01535179
     atom    2 type  1   force =     0.00000132   -0.00738661   -0.01535039
     atom    3 type  2   force =    -0.00000403   -0.00256726    0.02487884
     atom    4 type  2   force =    -0.00000356   -0.00256711    0.02487888
     atom    5 type  1   force =     0.00000480    0.01261396   -0.00067119
     atom    6 type  1   force =     0.00000575    0.01261813   -0.00066472
     atom    7 type  2   force =     0.00000672   -0.00287350   -0.00829064
     atom    8 type  2   force =     0.00000286   -0.00287355   -0.00829041
     atom    9 type  1   force =    -0.00000660    0.00044016   -0.00076615
     atom   10 type  1   force =    -0.00000719    0.00044132   -0.00076597
     atom   11 type  2   force =    -0.00000123   -0.00023036    0.00019647
     atom   12 type  2   force =    -0.00000049   -0.00023001    0.00019706

     Total force =     0.048026     Total SCF correction =     0.002781

     entering subroutine stress ...

     negative rho (up, down):  7.700E-03 0.000E+00
          total   stress  (Ry/bohr**3)                   (kbar)     P=  -18.02
  -0.00017932  -0.00000002   0.00000000        -26.38     -0.00      0.00
  -0.00000002  -0.00016804   0.00001898         -0.00    -24.72      2.79
   0.00000000   0.00001898  -0.00002018          0.00      2.79     -2.97

 !ASE

     Writing output data file calc.save

     General routines

     Parallel routines

   This run was terminated on:   8:35:27  19Dec2018

   JOB DONE.
Job  /afs/slac/g/suncat/bin/suncat-tsmpirun -x LD_LIBRARY_PATH -wdir /scratch/qe530691_njKcV pw.x -in pw.inp

TID   HOST_NAME   COMMAND_LINE            STATUS            TERMINATION_TIME
00000 suncat2058 pw.x -in pw.inp   Done                     12/19/2018 08:35:27
00001 suncat2058 pw.x -in pw.inp   Done                     12/19/2018 08:35:27
00002 suncat2058 pw.x -in pw.inp   Done                     12/19/2018 08:35:27
00003 suncat2058 pw.x -in pw.inp   Done                     12/19/2018 08:35:27
00004 suncat2058 pw.x -in pw.inp   Done                     12/19/2018 08:35:27
00005 suncat2058 pw.x -in pw.inp   Done                     12/19/2018 08:35:27
00006 suncat2058 pw.x -in pw.inp   Done                     12/19/2018 08:35:27
00007 suncat2058 pw.x -in pw.inp   Done                     12/19/2018 08:35:27
00008 suncat2058 pw.x -in pw.inp   Done                     12/19/2018 08:35:27
00009 suncat2058 pw.x -in pw.inp   Done                     12/19/2018 08:35:27
00010 suncat2058 pw.x -in pw.inp   Done                     12/19/2018 08:35:27
00011 suncat2058 pw.x -in pw.inp   Done                     12/19/2018 08:35:27
00012 suncat2058 pw.x -in pw.inp   Done                     12/19/2018 08:35:27
00013 suncat2058 pw.x -in pw.inp   Done                     12/19/2018 08:35:27
00014 suncat2058 pw.x -in pw.inp   Done                     12/19/2018 08:35:27
00015 suncat2058 pw.x -in pw.inp   Done                     12/19/2018 08:35:27
00016 suncat2057 pw.x -in pw.inp   Done                     12/19/2018 08:35:27
00017 suncat2057 pw.x -in pw.inp   Done                     12/19/2018 08:35:27
00018 suncat2057 pw.x -in pw.inp   Done                     12/19/2018 08:35:27
00019 suncat2057 pw.x -in pw.inp   Done                     12/19/2018 08:35:27
00020 suncat2057 pw.x -in pw.inp   Done                     12/19/2018 08:35:27
00021 suncat2057 pw.x -in pw.inp   Done                     12/19/2018 08:35:27
00022 suncat2057 pw.x -in pw.inp   Done                     12/19/2018 08:35:27
00023 suncat2057 pw.x -in pw.inp   Done                     12/19/2018 08:35:27
00024 suncat2057 pw.x -in pw.inp   Done                     12/19/2018 08:35:27
00025 suncat2057 pw.x -in pw.inp   Done                     12/19/2018 08:35:27
00026 suncat2057 pw.x -in pw.inp   Done                     12/19/2018 08:35:27
00027 suncat2057 pw.x -in pw.inp   Done                     12/19/2018 08:35:27
00028 suncat2057 pw.x -in pw.inp   Done                     12/19/2018 08:35:27
00029 suncat2057 pw.x -in pw.inp   Done                     12/19/2018 08:35:27
00030 suncat2057 pw.x -in pw.inp   Done                     12/19/2018 08:35:27
00031 suncat2057 pw.x -in pw.inp   Done                     12/19/2018 08:35:27