     Program PWSCF v.5.1rc2 (svn rev. 11289) starts on 19Dec2018 at  1:11: 0

     Current dimensions of program PWSCF are:
     Max number of different atomic species (ntypx) = 10
     Max number of k-points (npk) =  40000
     Max angular momentum in pseudopotentials (lmaxx) =  3
     Presently stress not available with electric field

     IMPORTANT: XC functional enforced from input :
     Exchange-correlation      = BEEF-VDW ( 1  4 27 13 2)
     Any further DFT definition will be discarded
     Please, verify this is what you really want

     Subspace diagonalization in iterative solution of the eigenvalue problem:
     a serial algorithm will be used

     Found symmetry operation: I + ( -0.5000  0.0000  0.0000)
     This is a supercell, fractional translations are disabled

     bravais-lattice index     =            0
     lattice parameter (alat)  =       1.8897  a.u.
     unit-cell volume          =    4392.8145 (a.u.)^3
     number of atoms/cell      =           12
     number of atomic types    =            2
     number of electrons       =       192.00
     number of Kohn-Sham states=          126
     kinetic-energy cutoff     =      36.7493  Ry
     charge density cutoff     =     367.4932  Ry
     convergence threshold     =      1.0E-06
     mixing beta               =       0.1000
     number of iterations used =           10  plain     mixing
     Exchange-correlation      = BEEF-VDW ( 1  4 27 13 2)
     nstep                     =           50

     celldm(1)=   1.889726  celldm(2)=   0.000000  celldm(3)=   0.000000
     celldm(4)=   0.000000  celldm(5)=   0.000000  celldm(6)=   0.000000

     crystal axes: (cart. coord. in units of alat)
               a(1) = (   5.501872   0.000000   0.000000 )
               a(2) = (  -2.750936   4.825177   0.000000 )
               a(3) = (   0.000000   0.000000  24.520121 )

     reciprocal axes: (cart. coord. in units 2 pi/alat)
               b(1) = (  0.181756  0.103623  0.000000 )
               b(2) = (  0.000000  0.207246  0.000000 )
               b(3) = (  0.000000  0.000000  0.040783 )

     PseudoPot. # 1 for Os read from file:
     /afs/slac.stanford.edu/u/if/mamunm/psp/gbrv1.5pbe/Os.UPF
     MD5 check sum: a3fb40a04f0c37c25c34bbc47164c9a8
     Pseudo is Ultrasoft + core correction, Zval = 16.0
     Generated by new atomic code, or converted to UPF format
     Using radial grid of  983 points,  8 beta functions with:
                l(1) =   0
                l(2) =   0
                l(3) =   1
                l(4) =   1
                l(5) =   2
                l(6) =   2
                l(7) =   3
                l(8) =   3
     Q(r) pseudized with  8 coefficients,  rinner =    1.150   1.150   1.150
                                                       1.150   1.150   1.150
                                                       1.150

     PseudoPot. # 2 for Pt read from file:
     /afs/slac.stanford.edu/u/if/mamunm/psp/gbrv1.5pbe/Pt.UPF
     MD5 check sum: f09d6de1a584b5a045c4fc126da2d0c4
     Pseudo is Ultrasoft + core correction, Zval = 16.0
     Generated by new atomic code, or converted to UPF format
     Using radial grid of  985 points,  6 beta functions with:
                l(1) =   0
                l(2) =   0
                l(3) =   1
                l(4) =   1
                l(5) =   2
                l(6) =   2
     Q(r) pseudized with  8 coefficients,  rinner =    1.300   1.300   1.300
                                                       1.300   1.300

     vdW kernel table read from file vdW_kernel_table
     MD5 check sum: 095c7af220d748ca6e76c0b4c6cfb241

     atomic species   valence    mass     pseudopotential
        Os1           16.00   190.23000     Os( 1.00)
        Pt1           16.00   195.08400     Pt( 1.00)

     No symmetry found

   Cartesian axes

     site n.     atom                  positions (alat units)
         1           Os1 tau(   1) = (   0.0000000   0.0000000  10.0000000  )
         2           Os1 tau(   2) = (   2.7509358   0.0000000  10.0000000  )
         3           Pt1 tau(   3) = (   1.3754679   2.4125883  10.0000000  )
         4           Pt1 tau(   4) = (  -1.3754679   2.4125883  10.0000000  )
         5           Os1 tau(   5) = (   2.7509358   1.5683670  12.2600603  )
         6           Os1 tau(   6) = (   0.0000000   1.5683670  12.2600603  )
         7           Pt1 tau(   7) = (  -1.3754679   3.9809553  12.2600603  )
         8           Pt1 tau(   8) = (   1.3754679   3.9809553  12.2600603  )
         9           Os1 tau(   9) = (  -0.0000000   3.1367341  14.5201207  )
        10           Os1 tau(  10) = (   2.7509358   3.1367341  14.5201207  )
        11           Pt1 tau(  11) = (   4.1264037   0.7241458  14.5201207  )
        12           Pt1 tau(  12) = (   1.3754679   0.7241458  14.5201207  )

     number of k points=    20  Fermi-Dirac smearing, width (Ry)=  0.0110
                       cart. coord. in units 2pi/alat
        k(    1) = (   0.0000000   0.0000000   0.0000000), wk =   0.0555556
        k(    2) = (   0.0000000   0.0345411   0.0000000), wk =   0.1111111
        k(    3) = (   0.0000000   0.0690821   0.0000000), wk =   0.1111111
        k(    4) = (   0.0000000  -0.1036232   0.0000000), wk =   0.0555556
        k(    5) = (   0.0302927   0.0172705   0.0000000), wk =   0.1111111
        k(    6) = (   0.0302927   0.0518116   0.0000000), wk =   0.1111111
        k(    7) = (   0.0302927   0.0863526   0.0000000), wk =   0.1111111
        k(    8) = (   0.0302927  -0.0863526   0.0000000), wk =   0.1111111
        k(    9) = (   0.0302927  -0.0518116   0.0000000), wk =   0.1111111
        k(   10) = (   0.0302927  -0.0172705   0.0000000), wk =   0.1111111
        k(   11) = (   0.0605854   0.0345411   0.0000000), wk =   0.1111111
        k(   12) = (   0.0605854   0.0690821   0.0000000), wk =   0.1111111
        k(   13) = (   0.0605854   0.1036232   0.0000000), wk =   0.1111111
        k(   14) = (   0.0605854  -0.0690821   0.0000000), wk =   0.1111111
        k(   15) = (   0.0605854  -0.0345411   0.0000000), wk =   0.1111111
        k(   16) = (   0.0605854   0.0000000   0.0000000), wk =   0.1111111
        k(   17) = (  -0.0908782  -0.0518116   0.0000000), wk =   0.0555556
        k(   18) = (  -0.0908782  -0.0172705   0.0000000), wk =   0.1111111
        k(   19) = (  -0.0908782   0.0172705   0.0000000), wk =   0.1111111
        k(   20) = (  -0.0908782  -0.1554347   0.0000000), wk =   0.0555556

     Largest allocated arrays     est. size (Mb)     dimensions
     Largest temporary arrays     est. size (Mb)     dimensions

     Initial potential from superposition of free atoms
     Check: negative starting charge=   -1.847407

     starting charge  185.99971, renormalised to  192.00000

     negative rho (up, down):  1.907E+00 0.000E+00

     *
     * You are using vdW-DF for exchange-correlation in this calculation.
     * Please cite the following three references that made this development
     * possible:
     *
     *   M. Dion, H. Rydberg, E. Schroder, D. C. Langreth, and
     *   B. I. Lundqvist, Phys. Rev. Lett. 92, 246401 (2004).
     *
     *   T. Thonhauser, V. R. Cooper, S. Li, A. Puzder, P. Hyldgaard, and
     *   D. C. Langreth, Phys. Rev. B 76, 125112 (2007).
     *
     *   G. Roman-Perez and J. M. Soler, Phys. Rev. Lett. 103, 096102 (2009).
     *
     *
     * If you are using vdW-DF2, please also cite:
     *
     *   K. Lee, E. D. Murray, L. Kong, B. I. Lundqvist, and
     *   D. C. Langreth, Phys. Rev. B 82, 081101(R) (2010).
     *
     *
     * If you are calculating the stress with vdW-DF, please also cite:
     *
     *   R. Sabatini, E. Kucukbenli, B. Kolb, T. Thonhauser, and
     *   S. de Gironcoli, J. Phys.: Condens. Matter 24, 424209 (2012).
     *

     Carrying out vdW-DF run using the following parameters:

     Nqs =      20    Nr_points =    1024   r_max =   100.000
     q_mesh =
               0.00001000     0.04494208     0.09755937     0.15916263
               0.23128650     0.31572767     0.41458969     0.53033537
               0.66584808     0.82450364     1.01025438     1.22772762
               1.48234092     1.78043706     2.12944203     2.53805004
               3.01644009     3.57652955     4.23227104     5.00000000

     Gradients computed in reciprocal space

     Adding external electric field

     Computed dipole along edir(3) :
        Dipole                0.0000 Ry au,          0.0000 Debye
        Dipole field          0.0000 Ry au

        Potential amp.       -0.0000 Ry
        Total length         45.1779 bohr

     Starting wfc are  150 randomized atomic wfcs

     Self-consistent Calculation

     iteration #  1     ecut=    36.75 Ry     beta=0.10
     Davidson diagonalization with overlap
     ethr =  1.00E-02,  avg # of iterations =  7.3

[...]

     total energy              =   -2471.31089660 Ry
     Harris-Foulkes estimate   =   -2476.43065779 Ry
     estimated scf accuracy    <      29.37861829 Ry

[...]

     End of self-consistent calculation

          k = 0.0000 0.0000 0.0000 ( 16487 PWs)   bands (ev):

   -84.5979 -84.5725 -84.1213 -84.1211 -84.0958 -84.0956 -51.2649 -51.1878
   -51.1597 -51.0987 -51.0715 -51.0003 -50.8158 -50.8149 -50.7470 -50.7419
   -50.7193 -50.7139 -50.5528 -50.5528 -50.5031 -50.4926 -50.4787 -50.4675
   -44.0073 -43.9390 -43.8940 -43.8711 -43.8300 -43.6419 -43.6388 -43.5536
   -43.3762 -43.3715 -43.3340 -43.3305 -43.3298 -43.2847 -43.2837 -43.2421
   -43.1884 -43.1876  -7.0079  -5.1388  -4.7292  -4.4546  -4.3957  -4.3181
    -4.1809  -4.1292  -4.0199  -3.6478  -3.6094  -3.6038  -3.4576  -3.4120
    -3.2632  -2.1303  -1.9394  -1.7874  -1.7308  -1.5514  -1.4208  -1.2230
    -1.0751  -1.0598  -0.8855  -0.8213  -0.7844  -0.5516  -0.5090  -0.4272
    -0.3960  -0.3497  -0.1574   0.1320   0.4756   0.7391   0.8622   0.9820
     1.0720   1.1590   1.2459   1.5537   1.5822   1.7727   2.0084   2.1204
     2.2333   2.7035   2.7147   2.7244   2.8397   2.9231   3.0303   3.0531
     3.2128   3.2486   3.4049   3.4236   3.5272   3.5544   3.5582   3.5645
     3.9051   3.9367   4.0293   4.2844   4.5006   5.3596   5.4820   5.5819
     5.6871   5.8130   6.1656   7.0211   7.2628   7.6491   8.5642   8.7642
     8.7814   8.8488   8.8744   9.3530   9.3682   9.4077

[...]

          k =-0.0909-0.0518 0.0000 ( 16554 PWs)   bands (ev):

[...]

     the Fermi energy is     2.4251 ev

!    total energy              =   -2472.54316469 Ry
     Harris-Foulkes estimate   =   -2472.54315727 Ry
     estimated scf accuracy    <       0.00000099 Ry

     The total energy is the sum of the following terms:

     one-electron contribution =  -20582.72021856 Ry
     hartree contribution      =   10298.85577584 Ry
     xc contribution           =    -583.47889340 Ry
     ewald contribution        =    8394.89320322 Ry
     electric field correction =       0.00000000 Ry
     smearing contrib. (-TS)   =      -0.09303180 Ry

     convergence has been achieved in  16 iterations

 BEEF-vdW xc energy contributions
           1 :   -516.307669154478
           2 :    479.814932670322
           3 :   -414.688083205040
           4 :    333.955642888846
[...]
00030 suncat2023 pw.x -in pw.inp   Done                     12/19/2018 01:26:11
00031 suncat2023 pw.x -in pw.inp   Done                     12/19/2018 01:26:11

     Program PWSCF v.5.1rc2 (svn rev. 11289) starts on 19Dec2018 at  1:26:19

[...]

     Program PWSCF v.5.1rc2 (svn rev. 11289) starts on 19Dec2018 at  1:58:19

     Current dimensions of program PWSCF are:
     Max number of different atomic species (ntypx) = 10
     Max number of k-points (npk) =  40000
     Max angular momentum in pseudopotentials (lmaxx) =  3
     Presently stress not available with electric field

     IMPORTANT: XC functional enforced from input :
     Exchange-correlation      = BEEF-VDW ( 1  4 27 13 2)
     Any further DFT definition will be discarded
     Please, verify this is what you really want

     Subspace diagonalization in iterative solution of the eigenvalue problem:
     a serial algorithm will be used

     Found symmetry operation: I + ( -0.5000  0.0000  0.0000)
     This is a supercell, fractional translations are disabled

     bravais-lattice index     =            0
     lattice parameter (alat)  =       1.8897  a.u.
     unit-cell volume          =    4392.8145 (a.u.)^3
     number of atoms/cell      =           12
     number of atomic types    =            2
     number of electrons       =       192.00
     number of Kohn-Sham states=          126
     kinetic-energy cutoff     =      36.7493  Ry
     charge density cutoff     =     367.4932  Ry
     convergence threshold     =      1.0E-06
     mixing beta               =       0.1000
     number of iterations used =           10  plain     mixing
     Exchange-correlation      = BEEF-VDW ( 1  4 27 13 2)
     nstep                     =           50

     celldm(1)=   1.889726  celldm(2)=   0.000000  celldm(3)=   0.000000
     celldm(4)=   0.000000  celldm(5)=   0.000000  celldm(6)=   0.000000

     crystal axes: (cart. coord. in units of alat)
               a(1) = (   5.501872   0.000000   0.000000 )
               a(2) = (  -2.750936   4.825177   0.000000 )
               a(3) = (   0.000000   0.000000  24.520121 )

     reciprocal axes: (cart. coord. in units 2 pi/alat)
               b(1) = (  0.181756  0.103623  0.000000 )
               b(2) = (  0.000000  0.207246  0.000000 )
               b(3) = (  0.000000  0.000000  0.040783 )

     PseudoPot. # 1 for Os read from file:
     /afs/slac.stanford.edu/u/if/mamunm/psp/gbrv1.5pbe/Os.UPF
     MD5 check sum: a3fb40a04f0c37c25c34bbc47164c9a8
     Pseudo is Ultrasoft + core correction, Zval = 16.0
     Generated by new atomic code, or converted to UPF format
     Using radial grid of  983 points,  8 beta functions with:
                l(1) =   0
                l(2) =   0
                l(3) =   1
                l(4) =   1
                l(5) =   2
                l(6) =   2
                l(7) =   3
                l(8) =   3
     Q(r) pseudized with  8 coefficients,  rinner =    1.150   1.150   1.150
                                                       1.150   1.150   1.150
                                                       1.150

     PseudoPot. # 2 for Pt read from file:
     /afs/slac.stanford.edu/u/if/mamunm/psp/gbrv1.5pbe/Pt.UPF
     MD5 check sum: f09d6de1a584b5a045c4fc126da2d0c4
     Pseudo is Ultrasoft + core correction, Zval = 16.0
     Generated by new atomic code, or converted to UPF format
     Using radial grid of  985 points,  6 beta functions with:
                l(1) =   0
                l(2) =   0
                l(3) =   1
                l(4) =   1
                l(5) =   2
                l(6) =   2
     Q(r) pseudized with  8 coefficients,  rinner =    1.300   1.300   1.300
                                                       1.300   1.300

     vdW kernel table read from file vdW_kernel_table
     MD5 check sum: 095c7af220d748ca6e76c0b4c6cfb241

     atomic species   valence    mass     pseudopotential
        Os1           16.00   190.23000     Os( 1.00)
        Pt1           16.00   195.08400     Pt( 1.00)

     No symmetry found

   Cartesian axes

     site n.     atom                  positions (alat units)
         1           Os1 tau(   1) = (   0.0000000   0.0000000  10.0000000  )
         2           Os1 tau(   2) = (   2.7509358   0.0000000  10.0000000  )
         3           Pt1 tau(   3) = (   1.3754679   2.4125883  10.0000000  )
         4           Pt1 tau(   4) = (  -1.3754679   2.4125883  10.0000000  )
         5           Os1 tau(   5) = (   2.7509358   1.5683670  12.2600603  )
         6           Os1 tau(   6) = (   0.0000000   1.5683670  12.2600603  )
         7           Pt1 tau(   7) = (  -1.3754679   3.9809553  12.2600603  )
         8           Pt1 tau(   8) = (   1.3754679   3.9809553  12.2600603  )
         9           Os1 tau(   9) = (   0.0000067   3.0873722  14.4194277  )
        10           Os1 tau(  10) = (   2.7509511   3.0873796  14.4194372  )
        11           Pt1 tau(  11) = (   4.1263961   0.7627775  14.5230516  )
        12           Pt1 tau(  12) = (   1.3754590   0.7627802  14.5230513  )

     number of k points=    20  Fermi-Dirac smearing, width (Ry)=  0.0110
                       cart. coord. in units 2pi/alat
        k(    1) = (   0.0000000   0.0000000   0.0000000), wk =   0.0555556
        k(    2) = (   0.0000000   0.0345411   0.0000000), wk =   0.1111111
        k(    3) = (   0.0000000   0.0690821   0.0000000), wk =   0.1111111
        k(    4) = (   0.0000000  -0.1036232   0.0000000), wk =   0.0555556
        k(    5) = (   0.0302927   0.0172705   0.0000000), wk =   0.1111111
        k(    6) = (   0.0302927   0.0518116   0.0000000), wk =   0.1111111
        k(    7) = (   0.0302927   0.0863526   0.0000000), wk =   0.1111111
        k(    8) = (   0.0302927  -0.0863526   0.0000000), wk =   0.1111111
        k(    9) = (   0.0302927  -0.0518116   0.0000000), wk =   0.1111111
        k(   10) = (   0.0302927  -0.0172705   0.0000000), wk =   0.1111111
        k(   11) = (   0.0605854   0.0345411   0.0000000), wk =   0.1111111
        k(   12) = (   0.0605854   0.0690821   0.0000000), wk =   0.1111111
        k(   13) = (   0.0605854   0.1036232   0.0000000), wk =   0.1111111
        k(   14) = (   0.0605854  -0.0690821   0.0000000), wk =   0.1111111
        k(   15) = (   0.0605854  -0.0345411   0.0000000), wk =   0.1111111
        k(   16) = (   0.0605854   0.0000000   0.0000000), wk =   0.1111111
        k(   17) = (  -0.0908782  -0.0518116   0.0000000), wk =   0.0555556
        k(   18) = (  -0.0908782  -0.0172705   0.0000000), wk =   0.1111111
        k(   19) = (  -0.0908782   0.0172705   0.0000000), wk =   0.1111111
        k(   20) = (  -0.0908782  -0.1554347   0.0000000), wk =   0.0555556

     Largest allocated arrays     est. size (Mb)     dimensions
     Largest temporary arrays     est. size (Mb)     dimensions

     Initial potential from superposition of free atoms
     Check: negative starting charge=   -1.848733

     starting charge  185.99971, renormalised to  192.00000

[...]

     *
     * You are using vdW-DF for exchange-correlation in this calculation.
     * Please cite the following three references that made this development
     * possible:
     *
     *   M. Dion, H. Rydberg, E. Schroder, D. C. Langreth, and
     *   B. I. Lundqvist, Phys. Rev. Lett. 92, 246401 (2004).
     *
     *   T. Thonhauser, V. R. Cooper, S. Li, A. Puzder, P. Hyldgaard, and
     *   D. C. Langreth, Phys. Rev. B 76, 125112 (2007).
     *
     *   G. Roman-Perez and J. M. Soler, Phys. Rev. Lett. 103, 096102 (2009).
     *
     *
     * If you are using vdW-DF2, please also cite:
     *
     *   K. Lee, E. D. Murray, L. Kong, B. I. Lundqvist, and
     *   D. C. Langreth, Phys. Rev. B 82, 081101(R) (2010).
     *
     *
     * If you are calculating the stress with vdW-DF, please also cite:
     *
     *   R. Sabatini, E. Kucukbenli, B. Kolb, T. Thonhauser, and
     *   S. de Gironcoli, J. Phys.: Condens. Matter 24, 424209 (2012).
     *

     Carrying out vdW-DF run using the following parameters:

     Nqs =      20    Nr_points =    1024   r_max =   100.000
     q_mesh =
               0.00001000     0.04494208     0.09755937     0.15916263
               0.23128650     0.31572767     0.41458969     0.53033537
               0.66584808     0.82450364     1.01025438     1.22772762
               1.48234092     1.78043706     2.12944203     2.53805004
               3.01644009     3.57652955     4.23227104     5.00000000

     Gradients computed in reciprocal space

[...]

     Starting wfc are  150 randomized atomic wfcs

     Self-consistent Calculation

[...]

     total energy              =   -2472.55389464 Ry
     Harris-Foulkes estimate   =   -2472.55389327 Ry
     estimated scf accuracy    <       0.00000318 Ry

     iteration # 16     ecut=    36.75 Ry     beta=0.10
     Davidson diagonalization with overlap
     ethr =  1.66E-09,  avg # of iterations =  2.0

[...]

     negative rho (up, down):  1.798E+00 0.000E+00

     Adding external electric field

     Computed dipole along edir(3) :
        Dipole                0.0113 Ry au,          0.0287 Debye
        Dipole field          0.0000 Ry au

        Potential amp.       -0.0029 Ry
        Total length         45.1779 bohr

     End of self-consistent calculation

[...]

          k = 0.0606 0.0000 0.0000 ( 16512 PWs)   bands (ev):

[...]

          k =-0.0909-0.1554 0.0000 ( 16554 PWs)   bands (ev):

   -84.6015 -84.6015 -84.1610 -84.1610 -84.0507 -84.0506 -51.2105 -51.2105
   -51.1558 -51.1558 -51.0858 -51.0858 -50.7086 -50.7086 -50.7014 -50.7014
   -50.6660 -50.6660 -50.6606 -50.6606 -50.4693 -50.4693 -50.4565 -50.4565
   -43.9819 -43.9819 -43.8724 -43.8724 -43.7927 -43.7927 -43.4575 -43.4575
   -43.4213 -43.4213 -43.3686 -43.3685 -43.3461 -43.3461 -43.3027 -43.3026
   -43.2177 -43.2176  -5.2097  -5.2097  -3.7456  -3.7456  -3.4450  -3.4450
    -3.3825  -3.3825  -3.2924  -3.2924  -2.8126  -2.8126  -2.4793  -2.4792
    -2.3874  -2.3874  -2.1266  -2.1266  -1.8132  -1.8132  -1.6516  -1.6516
    -1.1558  -1.1558  -1.0359  -1.0359  -0.9529  -0.9529  -0.8271  -0.8271
    -0.6952  -0.6952  -0.3448  -0.3448  -0.2241  -0.2241  -0.0694  -0.0694
     0.0356   0.0356   0.4034   0.4034   0.8950   0.8950   1.2687   1.2687
     1.3481   1.3481   1.5257   1.5257   1.7127   1.7127   1.8030   1.8030
     2.0833   2.0833   2.4074   2.4074   2.7077   2.7077   3.2323   3.2323
     3.5933   3.5933   4.5553   4.5553   5.3154   5.3154   6.0244   6.0244
     7.0930   7.0930   7.8068   7.8068   8.5413   8.5413   9.1335   9.1335
     9.2112   9.2112  10.2813  10.2813  10.3435  10.3435

     the Fermi energy is     2.4517 ev

!    total energy              =   -2472.55390236 Ry
     Harris-Foulkes estimate   =   -2472.55389513 Ry
     estimated scf accuracy    <       0.00000067 Ry

     The total energy is the sum of the following terms:

     one-electron contribution =  -20727.15737140 Ry
     hartree contribution      =   10371.06644436 Ry
     xc contribution           =    -583.61845455 Ry
     ewald contribution        =    8467.24496588 Ry
     electric field correction =       0.00000037 Ry
     smearing contrib. (-TS)   =      -0.08948700 Ry

     convergence has been achieved in  16 iterations

 BEEF-vdW xc energy contributions
           1 :   -516.449369618992
           2 :    480.007130359821
           3 :   -414.953607374570
           4 :    334.273486954154
           5 :   -252.192285444545
           6 :    180.419148695790
           7 :   -125.665721797325
           8 :    88.9904628498376
           9 :   -66.9353430482113
          10 :    53.8048680584066
          11 :   -44.1351405577227
          12 :    34.4541655748482
          13 :   -23.8661535532283
          14 :    13.5049974286201
          15 :   -5.32571494764341
          16 :   0.842212724592855
          17 :  -0.330519753527710
          18 :    2.73081975800255
          19 :   -6.16907640070747
          20 :    8.77096834382451
          21 :   -9.37739317028650
          22 :    7.87023676364129
          23 :   -5.03271603531721
          24 :    2.06776152070097
          25 :  -2.510953987564335E-002
          26 :  -0.615711945638623
          27 :   5.351409731292733E-002
          28 :    1.03392057841074
          29 :   -1.86797150682219
          30 :    1.93402695463578
          31 :   -44.8751493355849
          32 :   -33.6647446892302

     Forces acting on atoms (Ry/au):

     negative rho (up, down):  1.798E+00 0.000E+00
     atom    1 type  1   force =    -0.00000211    0.01979129    0.02633890
     atom    2 type  1   force =    -0.00000193    0.01979253    0.02634042
     atom    3 type  2   force =     0.00000098   -0.02277615   -0.00500709
     atom    4 type  2   force =     0.00000078   -0.02277608   -0.00500717
     atom    5 type  1   force =     0.00000131   -0.00568475   -0.00980037
     atom    6 type  1   force =     0.00000123   -0.00571367   -0.00982691
     atom    7 type  2   force =     0.00000477    0.01064122   -0.01125720
     atom    8 type  2   force =    -0.00000010    0.01064077   -0.01125598
     atom    9 type  1   force =    -0.00000020   -0.00126326   -0.00001415
     atom   10 type  1   force =     0.00000097   -0.00126570   -0.00001376
     atom   11 type  2   force =    -0.00000311   -0.00069346   -0.00024828
     atom   12 type  2   force =    -0.00000258   -0.00069276   -0.00024840

     Total force =     0.063249     Total SCF correction =     0.003340

     entering subroutine stress ...

     negative rho (up, down):  1.798E+00 0.000E+00
          total   stress  (Ry/bohr**3)                   (kbar)     P=  -26.48
  -0.00026731   0.00000000  -0.00000000        -39.32      0.00     -0.00
   0.00000000  -0.00021448   0.00000192          0.00    -31.55      0.28
  -0.00000000   0.00000192  -0.00005820         -0.00      0.28     -8.56

 !ASE

     Writing output data file calc.save

     General routines

     Parallel routines

   This run was terminated on:   2:13:41  19Dec2018

   JOB DONE.
Job  /afs/slac/g/suncat/bin/suncat-tsmpirun -x LD_LIBRARY_PATH -wdir /scratch/qe530404_bns21 pw.x -in pw.inp

TID   HOST_NAME   COMMAND_LINE            STATUS            TERMINATION_TIME
00000 suncat2024 pw.x -in pw.inp   Done                     12/19/2018 02:13:41
00001 suncat2024 pw.x -in pw.inp   Done                     12/19/2018 02:13:41
00002 suncat2024 pw.x -in pw.inp   Done                     12/19/2018 02:13:41
00003 suncat2024 pw.x -in pw.inp   Done                     12/19/2018 02:13:41
00004 suncat2024 pw.x -in pw.inp   Done                     12/19/2018 02:13:41
00005 suncat2024 pw.x -in pw.inp   Done                     12/19/2018 02:13:41
00006 suncat2024 pw.x -in pw.inp   Done                     12/19/2018 02:13:41
00007 suncat2024 pw.x -in pw.inp   Done                     12/19/2018 02:13:41
00008 suncat2024 pw.x -in pw.inp   Done                     12/19/2018 02:13:41
00009 suncat2024 pw.x -in pw.inp   Done                     12/19/2018 02:13:41
00010 suncat2024 pw.x -in pw.inp   Done                     12/19/2018 02:13:41
00011 suncat2024 pw.x -in pw.inp   Done                     12/19/2018 02:13:41
00012 suncat2024 pw.x -in pw.inp   Done                     12/19/2018 02:13:41
00013 suncat2024 pw.x -in pw.inp   Done                     12/19/2018 02:13:41
00014 suncat2024 pw.x -in pw.inp   Done                     12/19/2018 02:13:41
00015 suncat2024 pw.x -in pw.inp   Done                     12/19/2018 02:13:41
00016 suncat2023 pw.x -in pw.inp   Done                     12/19/2018 02:13:41
00017 suncat2023 pw.x -in pw.inp   Done                     12/19/2018 02:13:41
00018 suncat2023 pw.x -in pw.inp   Done                     12/19/2018 02:13:41
00019 suncat2023 pw.x -in pw.inp   Done                     12/19/2018 02:13:41
00020 suncat2023 pw.x -in pw.inp   Done                     12/19/2018 02:13:41
00021 suncat2023 pw.x -in pw.inp   Done                     12/19/2018 02:13:41
00022 suncat2023 pw.x -in pw.inp   Done                     12/19/2018 02:13:41
00023 suncat2023 pw.x -in pw.inp   Done                     12/19/2018 02:13:41
00024 suncat2023 pw.x -in pw.inp   Done                     12/19/2018 02:13:41
00025 suncat2023 pw.x -in pw.inp   Done                     12/19/2018 02:13:41
00026 suncat2023 pw.x -in pw.inp   Done                     12/19/2018 02:13:41
00027 suncat2023 pw.x -in pw.inp   Done                     12/19/2018 02:13:41
00028 suncat2023 pw.x -in pw.inp   Done                     12/19/2018 02:13:41
00029 suncat2023 pw.x -in pw.inp   Done                     12/19/2018 02:13:41
00030 suncat2023 pw.x -in pw.inp   Done                     12/19/2018 02:13:41
00031 suncat2023 pw.x -in pw.inp   Done                     12/19/2018 02:13:41