     Program PWSCF v.5.1rc2 (svn rev. 11289) starts on 25Dec2018 at  4:56:59

     Current dimensions of program PWSCF are:
     Max number of different atomic species (ntypx) = 10
     Max number of k-points (npk) =  40000
     Max angular momentum in pseudopotentials (lmaxx) =  3
     Presently stress not available with electric field

     IMPORTANT: XC functional enforced from input :
     Exchange-correlation      = BEEF-VDW ( 1  4 27 13 2)
     Any further DFT definition will be discarded
     Please, verify this is what you really want

     Subspace diagonalization in iterative solution of the eigenvalue problem:
     a serial algorithm will be used

     Found symmetry operation: I + ( -0.5000 -0.5000  0.0000)
     This is a supercell, fractional translations are disabled

     bravais-lattice index     =            0
     lattice parameter (alat)  =       1.8897  a.u.
     unit-cell volume          =    4298.9161 (a.u.)^3
     number of atoms/cell      =           12
     number of atomic types    =            2
     number of electrons       =       210.00
     number of Kohn-Sham states=          135
     kinetic-energy cutoff     =      36.7493  Ry
     charge density cutoff     =     367.4932  Ry
     convergence threshold     =      1.0E-06
     mixing beta               =       0.1000
     number of iterations used =           10  plain     mixing
     Exchange-correlation      = BEEF-VDW ( 1  4 27 13 2)
     nstep                     =           50

     celldm(1)=   1.889726  celldm(2)=   0.000000  celldm(3)=   0.000000
     celldm(4)=   0.000000  celldm(5)=   0.000000  celldm(6)=   0.000000

     crystal axes: (cart. coord. in units of alat)
               a(1) = (   5.273506   0.000000   0.000000 )
               a(2) = (   1.764502   4.969547   0.000000 )
               a(3) = (   0.000000   0.000000  24.307823 )

     reciprocal axes: (cart. coord. in units 2 pi/alat)
               b(1) = (  0.189627 -0.067330  0.000000 )
               b(2) = (  0.000000  0.201226  0.000000 )
               b(3) = (  0.000000  0.000000  0.041139 )

     PseudoPot. # 1 for Zn read from file:
     /afs/slac.stanford.edu/u/if/mamunm/psp/gbrv1.5pbe/Zn.UPF
     MD5 check sum: df62231357ef9e81f77b2b3087fa5675
     Pseudo is Ultrasoft, Zval = 20.0
     Generated by new atomic code, or converted to UPF format
     Using radial grid of  943 points,  6 beta functions with:
                l(1) =   0
                l(2) =   0
                l(3) =   1
                l(4) =   1
                l(5) =   2
                l(6) =   2
     Q(r) pseudized with  8 coefficients,  rinner =    1.100   1.100   1.100
                                                       1.100   1.100

     PseudoPot. # 2 for Ir read from file:
     /afs/slac.stanford.edu/u/if/mamunm/psp/gbrv1.5pbe/Ir.UPF
     MD5 check sum: 8836f839c3459d2b385c504ce6d91f2c
     Pseudo is Ultrasoft + core correction, Zval = 15.0
     Generated by new atomic code, or converted to UPF format
     Using radial grid of  983 points,  7 beta functions with:
                l(1) =   0
                l(2) =   0
                l(3) =   1
                l(4) =   1
                l(5) =   1
                l(6) =   2
                l(7) =   2
     Q(r) pseudized with  8 coefficients,  rinner =    1.400   1.400   1.400
                                                       1.400   1.400

     vdW kernel table read from file vdW_kernel_table
     MD5 check sum: 095c7af220d748ca6e76c0b4c6cfb241

     atomic species   valence    mass     pseudopotential
        Zn1           20.00    65.38000     Zn( 1.00)
        Ir1           15.00   192.21700     Ir( 1.00)

     No symmetry found

   Cartesian axes

     site n.     atom                  positions (alat units)
         1           Zn1 tau(   1) = (   0.0000000   0.0000000  10.0000000  )
         2           Zn1 tau(   2) = (   3.5190039   2.4847737  10.0000000  )
         3           Ir1 tau(   3) = (   2.6367531   0.0000000  10.0000000  )
         4           Ir1 tau(   4) = (   0.8822508   2.4847737  10.0000000  )
         5           Zn1 tau(   5) = (   5.2735062   3.7236303  12.1539115  )
         6           Zn1 tau(   6) = (   1.7545023   1.2388566  12.1539115  )
         7           Ir1 tau(   7) = (   2.6367531   3.7236303  12.1539115  )
         8           Ir1 tau(   8) = (   4.3912554   1.2388566  12.1539115  )
         9           Zn1 tau(   9) = (   3.5090046   2.4777132  14.3078230  )
        10           Zn1 tau(  10) = (   7.0280085   4.9624869  14.3078230  )
        11           Ir1 tau(  11) = (   6.1457577   2.4777132  14.3078230  )
        12           Ir1 tau(  12) = (   4.3912554   4.9624869  14.3078230  )

     number of k points=    20  Fermi-Dirac smearing, width (Ry)=  0.0110
                       cart. coord. in units 2pi/alat
        k(    1) = (   0.0000000   0.0000000   0.0000000), wk =   0.0555556
        k(    2) = (   0.0000000   0.0335376   0.0000000), wk =   0.1111111
        k(    3) = (   0.0000000   0.0670752   0.0000000), wk =   0.1111111
        k(    4) = (   0.0000000  -0.1006128   0.0000000), wk =   0.0555556
        k(    5) = (   0.0316045  -0.0112216   0.0000000), wk =   0.1111111
        k(    6) = (   0.0316045   0.0223160   0.0000000), wk =   0.1111111
        k(    7) = (   0.0316045   0.0558536   0.0000000), wk =   0.1111111
        k(    8) = (   0.0316045  -0.1118344   0.0000000), wk =   0.1111111
        k(    9) = (   0.0316045  -0.0782968   0.0000000), wk =   0.1111111
        k(   10) = (   0.0316045  -0.0447592   0.0000000), wk =   0.1111111
        k(   11) = (   0.0632091  -0.0224432   0.0000000), wk =   0.1111111
        k(   12) = (   0.0632091   0.0110944   0.0000000), wk =   0.1111111
        k(   13) = (   0.0632091   0.0446320   0.0000000), wk =   0.1111111
        k(   14) = (   0.0632091  -0.1230560   0.0000000), wk =   0.1111111
        k(   15) = (   0.0632091  -0.0895184   0.0000000), wk =   0.1111111
        k(   16) = (   0.0632091  -0.0559808   0.0000000), wk =   0.1111111
        k(   17) = (  -0.0948136   0.0336648   0.0000000), wk =   0.0555556
        k(   18) = (  -0.0948136   0.0672024   0.0000000), wk =   0.1111111
        k(   19) = (  -0.0948136   0.1007400   0.0000000), wk =   0.1111111
        k(   20) = (  -0.0948136  -0.0669480   0.0000000), wk =   0.0555556

     Largest allocated arrays     est. size (Mb)     dimensions
     Largest temporary arrays     est. size (Mb)     dimensions

     Initial potential from superposition of free atoms
     Check: negative starting charge=   -2.170901

     starting charge  206.99896, renormalised to  210.00000

     negative rho (up, down):  2.202E+00 0.000E+00

     *
     * You are using vdW-DF for exchange-correlation in this calculation.
     * Please cite the following three references that made this development
     * possible:
     *
     *   M. Dion, H. Rydberg, E. Schroder, D. C. Langreth, and
     *   B. I. Lundqvist, Phys. Rev. Lett. 92, 246401 (2004).
     *
     *   T. Thonhauser, V. R. Cooper, S. Li, A. Puzder, P. Hyldgaard, and
     *   D. C. Langreth, Phys. Rev. B 76, 125112 (2007).
     *
     *   G. Roman-Perez and J. M. Soler, Phys. Rev. Lett. 103, 096102 (2009).
     *
     *
     * If you are using vdW-DF2, please also cite:
     *
     *   K. Lee, E. D. Murray, L. Kong, B. I. Lundqvist, and
     *   D. C. Langreth, Phys. Rev. B 82, 081101(R) (2010).
     *
     *
     * If you are calculating the stress with vdW-DF, please also cite:
     *
     *   R. Sabatini, E. Kucukbenli, B. Kolb, T. Thonhauser, and
     *   S. de Gironcoli, J. Phys.: Condens. Matter 24, 424209 (2012).
     *

     Carrying out vdW-DF run using the following parameters:

     Nqs =      20    Nr_points =    1024   r_max =   100.000
     q_mesh =
               0.00001000     0.04494208     0.09755937     0.15916263
               0.23128650     0.31572767     0.41458969     0.53033537
               0.66584808     0.82450364     1.01025438     1.22772762
               1.48234092     1.78043706     2.12944203     2.53805004
               3.01644009     3.57652955     4.23227104     5.00000000

     Gradients computed in reciprocal space

     Adding external electric field

     Computed dipole along edir(3) :
        Dipole                0.0000 Ry au,          0.0000 Debye
        Dipole field          0.0000 Ry au

        Potential amp.       -0.0000 Ry
        Total length         44.7867 bohr

     Starting wfc are  150 randomized atomic wfcs

     Self-consistent Calculation

     iteration #  1     ecut=    36.75 Ry     beta=0.10
     Davidson diagonalization with overlap
     ethr =  1.00E-02,  avg # of iterations =  7.5

[...]

     total energy              =   -3876.78950196 Ry
     Harris-Foulkes estimate   =   -3878.25004950 Ry
     estimated scf accuracy    <       8.73745557 Ry

[...]

     End of self-consistent calculation

          k = 0.0000 0.0000 0.0000 ( 16233 PWs)   bands (ev):

  -124.5198-124.5197-124.5029-124.5028-124.5028-124.5027 -78.7229 -78.7225
   -78.7011 -78.6983 -78.6980 -78.6978 -78.6978 -78.6975 -78.6951 -78.6948
   -78.6859 -78.6857 -78.6829 -78.6827 -78.6741 -78.6740 -78.6737 -78.6735
   -47.4399 -47.4246 -47.4190 -47.4155 -47.4099 -47.3195 -47.1700 -47.1698
   -47.0746 -47.0703 -47.0650 -47.0588 -47.0520 -47.0518 -47.0191 -47.0143
   -47.0078 -47.0027  -7.8640  -6.2605  -6.2067  -6.1891  -6.1099  -6.0923
    -6.0090  -5.9996  -5.9876  -5.9700  -5.9115  -5.8202  -5.7258  -5.7207
    -5.7145  -5.7089  -5.6740  -5.6705  -5.6157  -5.6027  -5.5543  -5.5493
    -5.5008  -5.4731  -5.4390  -5.3584  -5.3504  -5.3108  -5.2142  -5.1722
    -5.1420  -5.0335  -3.6949  -3.6741  -3.4250  -3.1344  -1.9652  -1.7871
    -1.6865  -1.6423  -1.5770  -1.5701  -1.3299  -1.1261  -0.7658  -0.4736
    -0.4222  -0.4128  -0.1196  -0.1156   0.1529   0.1912   0.4701   0.5169
     0.5709   0.6390   0.7235   0.9229   0.9722   1.0588   1.1027   1.1204
     1.2115   1.3106   1.6739   1.6962   1.7245   2.0877   2.5481   2.9261
     2.9428   4.7661   5.2153   5.3003   5.5327   5.5880   5.5948   5.7962
     5.9468   6.6634   6.8552   6.9518   6.9940   7.4434   7.7011   7.9087
     8.2339   9.0209   9.2522   9.2556   9.2901   9.6320   9.7368

[...]

          k =-0.0948 0.0337 0.0000 ( 16184 PWs)   bands (ev):

[...]

     the Fermi energy is     1.1282 ev

!    total energy              =   -3876.52980659 Ry
     Harris-Foulkes estimate   =   -3876.52980474 Ry
     estimated scf accuracy    <       0.00000024 Ry

     The total energy is the sum of the following terms:

     one-electron contribution =  -27360.80409101 Ry
     hartree contribution      =   13691.06368787 Ry
     xc contribution           =    -572.81367264 Ry
     ewald contribution        =   10366.08967022 Ry
     electric field correction =       0.00000000 Ry
     smearing contrib. (-TS)   =      -0.06540102 Ry

     convergence has been achieved in  16 iterations

 BEEF-vdW xc energy contributions
           1 :   -508.200092948135
           2 :    467.284646326994
           3 :   -396.440122395050
           4 :    312.921976651350
           5 :   -233.554833682859
[...]
                l(4) =   1
                l(5) =   2
                l(6) =   2
     Q(r) pseudized with  8 coefficients,  rinner =    1.100   1.100   1.100
                                                       1.100   1.100

     PseudoPot. # 2 for Ir read from file:
     /afs/slac.stanford.edu/u/if/mamunm/psp/gbrv1.5pbe/Ir.UPF
     MD5 check sum: 8836f839c3459d2b385c504ce6d91f2c
     Pseudo is Ultrasoft + core correction, Zval = 15.0
     Generated by new atomic code, or converted to UPF format
     Using radial grid of  983 points,  7 beta functions with:
                l(1) =   0
                l(2) =   0
                l(3) =   1
                l(4) =   1
                l(5) =   1
                l(6) =   2
                l(7) =   2
     Q(r) pseudized with  8 coefficients,  rinner =    1.400   1.400   1.400
                                                       1.400   1.400

     vdW kernel table read from file vdW_kernel_table
     MD5 check sum: 095c7af220d748ca6e76c0b4c6cfb241

     atomic species   valence    mass     pseudopotential
        Zn1           20.00    65.38000     Zn( 1.00)
        Ir1           15.00   192.21700     Ir( 1.00)

     No symmetry found

   Cartesian axes

     site n.     atom                  positions (alat units)
         1           Zn1 tau(   1) = (   0.0000000   0.0000000  10.0000000  )
         2           Zn1 tau(   2) = (   3.5190039   2.4847737  10.0000000  )
         3           Ir1 tau(   3) = (   2.6367531   0.0000000  10.0000000  )
         4           Ir1 tau(   4) = (   0.8822508   2.4847737  10.0000000  )
         5           Zn1 tau(   5) = (   5.2735062   3.7236303  12.1539115  )
         6           Zn1 tau(   6) = (   1.7545023   1.2388566  12.1539115  )
         7           Ir1 tau(   7) = (   2.6367531   3.7236303  12.1539115  )
         8           Ir1 tau(   8) = (   4.3912554   1.2388566  12.1539115  )
         9           Zn1 tau(   9) = (   3.5096578   2.4781540  14.4606751  )
        10           Zn1 tau(  10) = (   7.0286419   4.9629511  14.4606793  )
        11           Ir1 tau(  11) = (   6.1459918   2.4778802  14.1996979  )
        12           Ir1 tau(  12) = (   4.3914945   4.9626525  14.1997037  )

     number of k points=    20  Fermi-Dirac smearing, width (Ry)=  0.0110
                       cart. coord. in units 2pi/alat
        k(    1) = (   0.0000000   0.0000000   0.0000000), wk =   0.0555556
        k(    2) = (   0.0000000   0.0335376   0.0000000), wk =   0.1111111
        k(    3) = (   0.0000000   0.0670752   0.0000000), wk =   0.1111111
        k(    4) = (   0.0000000  -0.1006128   0.0000000), wk =   0.0555556
        k(    5) = (   0.0316045  -0.0112216   0.0000000), wk =   0.1111111
        k(    6) = (   0.0316045   0.0223160   0.0000000), wk =   0.1111111
        k(    7) = (   0.0316045   0.0558536   0.0000000), wk =   0.1111111
        k(    8) = (   0.0316045  -0.1118344   0.0000000), wk =   0.1111111
        k(    9) = (   0.0316045  -0.0782968   0.0000000), wk =   0.1111111
        k(   10) = (   0.0316045  -0.0447592   0.0000000), wk =   0.1111111
        k(   11) = (   0.0632091  -0.0224432   0.0000000), wk =   0.1111111
        k(   12) = (   0.0632091   0.0110944   0.0000000), wk =   0.1111111
        k(   13) = (   0.0632091   0.0446320   0.0000000), wk =   0.1111111
        k(   14) = (   0.0632091  -0.1230560   0.0000000), wk =   0.1111111
        k(   15) = (   0.0632091  -0.0895184   0.0000000), wk =   0.1111111
        k(   16) = (   0.0632091  -0.0559808   0.0000000), wk =   0.1111111
        k(   17) = (  -0.0948136   0.0336648   0.0000000), wk =   0.0555556
        k(   18) = (  -0.0948136   0.0672024   0.0000000), wk =   0.1111111
        k(   19) = (  -0.0948136   0.1007400   0.0000000), wk =   0.1111111
        k(   20) = (  -0.0948136  -0.0669480   0.0000000), wk =   0.0555556

     Largest allocated arrays     est. size (Mb)     dimensions
     Largest temporary arrays     est. size (Mb)     dimensions

     Initial potential from superposition of free atoms
     Check: negative starting charge=   -2.169627

     starting charge  206.99896, renormalised to  210.00000

[...]

     *
     * You are using vdW-DF for exchange-correlation in this calculation.
     * Please cite the following three references that made this development
     * possible:
     *
     *   M. Dion, H. Rydberg, E. Schroder, D. C. Langreth, and
     *   B. I. Lundqvist, Phys. Rev. Lett. 92, 246401 (2004).
     *
     *   T. Thonhauser, V. R. Cooper, S. Li, A. Puzder, P. Hyldgaard, and
     *   D. C. Langreth, Phys. Rev. B 76, 125112 (2007).
     *
     *   G. Roman-Perez and J. M. Soler, Phys. Rev. Lett. 103, 096102 (2009).
     *
     *
     * If you are using vdW-DF2, please also cite:
     *
     *   K. Lee, E. D. Murray, L. Kong, B. I. Lundqvist, and
     *   D. C. Langreth, Phys. Rev. B 82, 081101(R) (2010).
     *
     *
     * If you are calculating the stress with vdW-DF, please also cite:
     *
     *   R. Sabatini, E. Kucukbenli, B. Kolb, T. Thonhauser, and
     *   S. de Gironcoli, J. Phys.: Condens. Matter 24, 424209 (2012).
     *

     Carrying out vdW-DF run using the following parameters:

     Nqs =      20    Nr_points =    1024   r_max =   100.000
     q_mesh =
               0.00001000     0.04494208     0.09755937     0.15916263
               0.23128650     0.31572767     0.41458969     0.53033537
               0.66584808     0.82450364     1.01025438     1.22772762
               1.48234092     1.78043706     2.12944203     2.53805004
               3.01644009     3.57652955     4.23227104     5.00000000

     Gradients computed in reciprocal space

[...]

     Starting wfc are  150 randomized atomic wfcs

     Self-consistent Calculation

[...]

     iteration #  9     ecut=    36.75 Ry     beta=0.10
     Davidson diagonalization with overlap
     c_bands:  1 eigenvalues not converged
     ethr =  4.78E-06,  avg # of iterations =  2.9

[...]

     total energy              =   -3876.54404466 Ry
     Harris-Foulkes estimate   =   -3876.54403995 Ry
     estimated scf accuracy    <       0.00000489 Ry

     iteration # 16     ecut=    36.75 Ry     beta=0.10
     Davidson diagonalization with overlap
     ethr =  2.33E-09,  avg # of iterations =  2.9

[...]

     negative rho (up, down):  1.981E+00 0.000E+00

     Adding external electric field

     Computed dipole along edir(3) :
        Dipole                0.0211 Ry au,          0.0537 Debye
        Dipole field          0.0001 Ry au

        Potential amp.       -0.0055 Ry
        Total length         44.7867 bohr

     End of self-consistent calculation

[...]

          k = 0.0632-0.0560 0.0000 ( 16185 PWs)   bands (ev):

[...]

          k =-0.0948-0.0669 0.0000 ( 16088 PWs)   bands (ev):

  -124.4815-124.4814-124.4765-124.4764-124.4622-124.4621 -78.6812 -78.6810
   -78.6738 -78.6735 -78.6625 -78.6593 -78.6592 -78.6591 -78.6578 -78.6560
   -78.6556 -78.6547 -78.6456 -78.6441 -78.6440 -78.6424 -78.6335 -78.6333
   -47.3938 -47.3852 -47.3798 -47.3730 -47.3572 -47.2644 -47.2007 -47.1346
   -47.0923 -47.0819 -47.0815 -47.0419 -47.0381 -47.0332 -47.0271 -47.0161
   -46.9762 -46.9664  -6.0836  -5.9475  -5.8308  -5.8304  -5.7732  -5.7238
    -5.7056  -5.6986  -5.6953  -5.6822  -5.6618  -5.5909  -5.5666  -5.5545
    -5.5215  -5.5152  -5.5095  -5.5079  -5.5018  -5.4433  -5.4287  -5.4092
    -5.3783  -5.3741  -5.3299  -5.3156  -5.2890  -5.2677  -5.1780  -5.1074
    -5.1052  -4.7754  -4.0247  -3.9611  -3.3538  -3.2291  -2.8860  -2.7933
    -2.6584  -2.2744  -2.1970  -1.8683  -1.8575  -1.7646  -1.6852  -1.6317
    -1.2014  -0.9686  -0.8896  -0.7403  -0.5533  -0.4621  -0.3933  -0.3449
    -0.2766  -0.0467   0.2757   0.5652   0.8877   0.9721   1.0162   1.0746
     1.3648   1.4430   1.5676   1.7650   1.7730   2.9606   3.4485   3.5936
     4.0283   4.5121   5.0310   5.1510   6.2152   6.8356   6.9087   7.2458
     7.4825   7.6827   7.7458   7.8542   7.9395   8.3053   8.6669   8.8100
     8.9060   8.9877   9.2102   9.2348   9.5488   9.7798   9.7888

     the Fermi energy is     1.1559 ev

!    total energy              =   -3876.54404432 Ry
     Harris-Foulkes estimate   =   -3876.54404502 Ry
     estimated scf accuracy    <       0.00000048 Ry

     The total energy is the sum of the following terms:

     one-electron contribution =  -27206.14416130 Ry
     hartree contribution      =   13613.96856380 Ry
     xc contribution           =    -572.79313617 Ry
     ewald contribution        =   10288.49081279 Ry
     electric field correction =       0.00000131 Ry
     smearing contrib. (-TS)   =      -0.06612475 Ry

     convergence has been achieved in  16 iterations

 BEEF-vdW xc energy contributions
           1 :   -508.182667419107
           2 :    467.267440592839
           3 :   -396.420673695750
           4 :    312.894801625032
           5 :   -233.512149985276
           6 :    169.219275389673
           7 :   -123.060095861345
           8 :    91.7848768123492
           9 :   -69.5548110156943
          10 :    51.4696685291345
          11 :   -35.2696431730991
          12 :    20.9546971006961
          13 :   -9.30440774230817
          14 :   0.617779624511172
          15 :    5.57041952029908
          16 :   -9.96430667686991
          17 :    12.8942863583212
          18 :   -14.2253941796696
          19 :    13.8215123393330
          20 :   -12.0941407095019
          21 :    10.0954622586809
          22 :   -9.01168384821824
          23 :    9.41800812547342
          24 :   -10.8743031313661
          25 :    12.1945760056379
          26 :   -12.2275024989724
          27 :    10.6116743408414
          28 :   -7.99562908751534
          29 :    5.59446930675358
          30 :   -4.41133853550753
          31 :   -41.5218973290242
          32 :   -29.8961845955363

     Forces acting on atoms (Ry/au):

     negative rho (up, down):  1.981E+00 0.000E+00
     atom    1 type  1   force =    -0.00006861   -0.00004654   -0.02194687
     atom    2 type  1   force =    -0.00006883   -0.00005065   -0.02194604
     atom    3 type  2   force =     0.00003483    0.00002495    0.03112403
     atom    4 type  2   force =     0.00003475    0.00002406    0.03112316
     atom    5 type  1   force =     0.00011093    0.00007147   -0.02136076
     atom    6 type  1   force =     0.00010445    0.00008138   -0.02136139
     atom    7 type  2   force =    -0.00015094   -0.00010666    0.01346432
     atom    8 type  2   force =    -0.00014984   -0.00010595    0.01346162
     atom    9 type  1   force =     0.00001555    0.00001610    0.00007512
     atom   10 type  1   force =     0.00002194    0.00001078    0.00007440
     atom   11 type  2   force =     0.00006112    0.00004173   -0.00135274
     atom   12 type  2   force =     0.00005466    0.00003934   -0.00135485

     Total force =     0.064649     Total SCF correction =     0.001103

     entering subroutine stress ...

     negative rho (up, down):  1.981E+00 0.000E+00
          total   stress  (Ry/bohr**3)                   (kbar)     P=  -21.10
  -0.00017913   0.00001424  -0.00000002        -26.35      2.09     -0.00
   0.00001424  -0.00018924  -0.00000001          2.09    -27.84     -0.00
  -0.00000002  -0.00000001  -0.00006185         -0.00     -0.00     -9.10

 !ASE

     Writing output data file calc.save

     General routines

     Parallel routines

   This run was terminated on:   6:40:33  25Dec2018

   JOB DONE.
Job  /afs/slac/g/suncat/bin/suncat-tsmpirun -x LD_LIBRARY_PATH -wdir /scratch/qe109217_HHoSj pw.x -in pw.inp

TID   HOST_NAME   COMMAND_LINE            STATUS            TERMINATION_TIME
00000 suncat0108 pw.x -in pw.inp   Done                     12/25/2018 06:40:33
00001 suncat0108 pw.x -in pw.inp   Done                     12/25/2018 06:40:33
00002 suncat0108 pw.x -in pw.inp   Done                     12/25/2018 06:40:33
00003 suncat0108 pw.x -in pw.inp   Done                     12/25/2018 06:40:33
00004 suncat0108 pw.x -in pw.inp   Done                     12/25/2018 06:40:33
00005 suncat0108 pw.x -in pw.inp   Done                     12/25/2018 06:40:33
00006 suncat0108 pw.x -in pw.inp   Done                     12/25/2018 06:40:33
00007 suncat0108 pw.x -in pw.inp   Done                     12/25/2018 06:40:33
00008 suncat0107 pw.x -in pw.inp   Done                     12/25/2018 06:40:33
00009 suncat0107 pw.x -in pw.inp   Done                     12/25/2018 06:40:33
00010 suncat0107 pw.x -in pw.inp   Done                     12/25/2018 06:40:33
00011 suncat0107 pw.x -in pw.inp   Done                     12/25/2018 06:40:33
00012 suncat0107 pw.x -in pw.inp   Done                     12/25/2018 06:40:33
00013 suncat0107 pw.x -in pw.inp   Done                     12/25/2018 06:40:33
00014 suncat0107 pw.x -in pw.inp   Done                     12/25/2018 06:40:33
00015 suncat0107 pw.x -in pw.inp   Done                     12/25/2018 06:40:33
00016 suncat0106 pw.x -in pw.inp   Done                     12/25/2018 06:40:33
00017 suncat0106 pw.x -in pw.inp   Done                     12/25/2018 06:40:33
00018 suncat0106 pw.x -in pw.inp   Done                     12/25/2018 06:40:33
00019 suncat0106 pw.x -in pw.inp   Done                     12/25/2018 06:40:33
00020 suncat0106 pw.x -in pw.inp   Done                     12/25/2018 06:40:33
00021 suncat0106 pw.x -in pw.inp   Done                     12/25/2018 06:40:33
00022 suncat0106 pw.x -in pw.inp   Done                     12/25/2018 06:40:33
00023 suncat0106 pw.x -in pw.inp   Done                     12/25/2018 06:40:33
00024 suncat0105 pw.x -in pw.inp   Done                     12/25/2018 06:40:33
00025 suncat0105 pw.x -in pw.inp   Done                     12/25/2018 06:40:33
00026 suncat0105 pw.x -in pw.inp   Done                     12/25/2018 06:40:33
00027 suncat0105 pw.x -in pw.inp   Done                     12/25/2018 06:40:33
00028 suncat0105 pw.x -in pw.inp   Done                     12/25/2018 06:40:33
00029 suncat0105 pw.x -in pw.inp   Done                     12/25/2018 06:40:33
00030 suncat0105 pw.x -in pw.inp   Done                     12/25/2018 06:40:33
00031 suncat0105 pw.x -in pw.inp   Done                     12/25/2018 06:40:33
00032 suncat0238 pw.x -in pw.inp   Done                     12/25/2018 06:40:33
00033 suncat0238 pw.x -in pw.inp   Done                     12/25/2018 06:40:33
00034 suncat0238 pw.x -in pw.inp   Done                     12/25/2018 06:40:33
00035 suncat0238 pw.x -in pw.inp   Done                     12/25/2018 06:40:33
00036 suncat0238 pw.x -in pw.inp   Done                     12/25/2018 06:40:33
00037 suncat0238 pw.x -in pw.inp   Done                     12/25/2018 06:40:33
00038 suncat0238 pw.x -in pw.inp   Done                     12/25/2018 06:40:33
00039 suncat0238 pw.x -in pw.inp   Done                     12/25/2018 06:40:33
00040 suncat0237 pw.x -in pw.inp   Done                     12/25/2018 06:40:33
00041 suncat0237 pw.x -in pw.inp   Done                     12/25/2018 06:40:33
00042 suncat0237 pw.x -in pw.inp   Done                     12/25/2018 06:40:33
00043 suncat0237 pw.x -in pw.inp   Done                     12/25/2018 06:40:33
00044 suncat0237 pw.x -in pw.inp   Done                     12/25/2018 06:40:33
00045 suncat0237 pw.x -in pw.inp   Done                     12/25/2018 06:40:33
00046 suncat0237 pw.x -in pw.inp   Done                     12/25/2018 06:40:33
00047 suncat0237 pw.x -in pw.inp   Done                     12/25/2018 06:40:33
00048 suncat0236 pw.x -in pw.inp   Done                     12/25/2018 06:40:33
00049 suncat0236 pw.x -in pw.inp   Done                     12/25/2018 06:40:33
00050 suncat0236 pw.x -in pw.inp   Done                     12/25/2018 06:40:33
00051 suncat0236 pw.x -in pw.inp   Done                     12/25/2018 06:40:33
00052 suncat0236 pw.x -in pw.inp   Done                     12/25/2018 06:40:33
00053 suncat0236 pw.x -in pw.inp   Done                     12/25/2018 06:40:33
00054 suncat0236 pw.x -in pw.inp   Done                     12/25/2018 06:40:33
00055 suncat0236 pw.x -in pw.inp   Done                     12/25/2018 06:40:33
00056 suncat0235 pw.x -in pw.inp   Done                     12/25/2018 06:40:33
00057 suncat0235 pw.x -in pw.inp   Done                     12/25/2018 06:40:33
00058 suncat0235 pw.x -in pw.inp   Done                     12/25/2018 06:40:33
00059 suncat0235 pw.x -in pw.inp   Done                     12/25/2018 06:40:33
00060 suncat0235 pw.x -in pw.inp   Done                     12/25/2018 06:40:33
00061 suncat0235 pw.x -in pw.inp   Done                     12/25/2018 06:40:33
00062 suncat0235 pw.x -in pw.inp   Done                     12/25/2018 06:40:33
00063 suncat0235 pw.x -in pw.inp   Done                     12/25/2018 06:40:33