     Program PWSCF v.5.1rc2 (svn rev. 11289) starts on 18Dec2018 at 16:49:45

     Current dimensions of program PWSCF are:
     Max number of different atomic species (ntypx) = 10
     Max number of k-points (npk) =  40000
     Max angular momentum in pseudopotentials (lmaxx) =  3
     Presently stress not available with electric field

     IMPORTANT: XC functional enforced from input :
     Exchange-correlation      = BEEF-VDW ( 1  4 27 13 2)
     Any further DFT definition will be discarded
     Please, verify this is what you really want

     Subspace diagonalization in iterative solution of the eigenvalue problem:
     a serial algorithm will be used

     Found symmetry operation: I + ( -0.5000  0.0000  0.0000)
     This is a supercell, fractional translations are disabled

     bravais-lattice index     =            0
     lattice parameter (alat)  =       1.8897  a.u.
     unit-cell volume          =    5128.6007 (a.u.)^3
     number of atoms/cell      =           12
     number of atomic types    =            2
     number of electrons       =       180.00
     number of Kohn-Sham states=          120
     kinetic-energy cutoff     =      36.7493  Ry
     charge density cutoff     =     367.4932  Ry
     convergence threshold     =      1.0E-06
     mixing beta               =       0.1000
     number of iterations used =           10  plain     mixing
     Exchange-correlation      = BEEF-VDW ( 1  4 27 13 2)
     nstep                     =           50

     celldm(1)=   1.889726  celldm(2)=   0.000000  celldm(3)=   0.000000
     celldm(4)=   0.000000  celldm(5)=   0.000000  celldm(6)=   0.000000

     crystal axes: (cart. coord. in units of alat)
               a(1) = (   5.921884   0.000000   0.000000 )
               a(2) = (  -2.960942   5.163994   0.000000 )
               a(3) = (   0.000000   0.000000  24.851729 )

     reciprocal axes: (cart. coord. in units 2 pi/alat)
               b(1) = (  0.168865  0.096824  0.000000 )
               b(2) = (  0.000000  0.193649  0.000000 )
               b(3) = (  0.000000  0.000000  0.040239 )

     PseudoPot. # 1 for Ag read from file:
     /afs/slac.stanford.edu/u/if/mamunm/psp/gbrv1.5pbe/Ag.UPF
     MD5 check sum: d66d668201baa78d5eb5b04ef7011058
     Pseudo is Ultrasoft + core correction, Zval = 19.0
     Generated by new atomic code, or converted to UPF format
     Using radial grid of  887 points,  6 beta functions with:
                l(1) =   0
                l(2) =   0
                l(3) =   1
                l(4) =   1
                l(5) =   2
                l(6) =   2
     Q(r) pseudized with  6 coefficients,  rinner =    1.300   1.300   1.300
                                                       1.300   1.300

     PseudoPot. # 2 for Au read from file:
     /afs/slac.stanford.edu/u/if/mamunm/psp/gbrv1.5pbe/Au.UPF
     MD5 check sum: 9d7f43293ad2c663164586bc4b293ffc
     Pseudo is Ultrasoft + core correction, Zval = 11.0
     Generated by new atomic code, or converted to UPF format
     Using radial grid of  985 points,  7 beta functions with:
                l(1) =   0
                l(2) =   0
                l(3) =   1
                l(4) =   1
                l(5) =   2
                l(6) =   2
                l(7) =   3
     Q(r) pseudized with  6 coefficients,  rinner =    1.900   1.900   1.900
                                                       1.900   1.900   1.900
                                                       1.900

     vdW kernel table read from file vdW_kernel_table
     MD5 check sum: 095c7af220d748ca6e76c0b4c6cfb241

     atomic species   valence    mass     pseudopotential
        Ag1           19.00   107.86820     Ag( 1.00)
        Au1           11.00   196.96657     Au( 1.00)

     No symmetry found

   Cartesian axes

     site n.     atom                  positions (alat units)
         1           Ag1 tau(   1) = (   0.0000000   0.0000000  10.0000000  )
         2           Ag1 tau(   2) = (   2.9609422   0.0000000  10.0000000  )
         3           Au1 tau(   3) = (   1.4804711   2.5819972  10.0000000  )
         4           Au1 tau(   4) = (  -1.4804711   2.5819972  10.0000000  )
         5           Ag1 tau(   5) = (   2.9609422   1.6977514  12.4258645  )
         6           Ag1 tau(   6) = (   0.0000000   1.6977514  12.4258645  )
         7           Au1 tau(   7) = (  -1.4804711   4.2797486  12.4258645  )
         8           Au1 tau(   8) = (   1.4804711   4.2797486  12.4258645  )
         9           Ag1 tau(   9) = (   0.0000000   3.3955028  14.8517291  )
        10           Ag1 tau(  10) = (   2.9609422   3.3955028  14.8517291  )
        11           Au1 tau(  11) = (   4.4414133   0.8135057  14.8517291  )
        12           Au1 tau(  12) = (   1.4804711   0.8135057  14.8517291  )

     number of k points=    20  Fermi-Dirac smearing, width (Ry)=  0.0110
                       cart. coord. in units 2pi/alat
        k(    1) = (   0.0000000   0.0000000   0.0000000), wk =   0.0555556
        k(    2) = (   0.0000000   0.0322748   0.0000000), wk =   0.1111111
        k(    3) = (   0.0000000   0.0645495   0.0000000), wk =   0.1111111
        k(    4) = (   0.0000000  -0.0968243   0.0000000), wk =   0.0555556
        k(    5) = (   0.0281442   0.0161374   0.0000000), wk =   0.1111111
        k(    6) = (   0.0281442   0.0484121   0.0000000), wk =   0.1111111
        k(    7) = (   0.0281442   0.0806869   0.0000000), wk =   0.1111111
        k(    8) = (   0.0281442  -0.0806869   0.0000000), wk =   0.1111111
        k(    9) = (   0.0281442  -0.0484121   0.0000000), wk =   0.1111111
        k(   10) = (   0.0281442  -0.0161374   0.0000000), wk =   0.1111111
        k(   11) = (   0.0562884   0.0322748   0.0000000), wk =   0.1111111
        k(   12) = (   0.0562884   0.0645495   0.0000000), wk =   0.1111111
        k(   13) = (   0.0562884   0.0968243   0.0000000), wk =   0.1111111
        k(   14) = (   0.0562884  -0.0645495   0.0000000), wk =   0.1111111
        k(   15) = (   0.0562884  -0.0322748   0.0000000), wk =   0.1111111
        k(   16) = (   0.0562884   0.0000000   0.0000000), wk =   0.1111111
        k(   17) = (  -0.0844326  -0.0484121   0.0000000), wk =   0.0555556
        k(   18) = (  -0.0844326  -0.0161374   0.0000000), wk =   0.1111111
        k(   19) = (  -0.0844326   0.0161374   0.0000000), wk =   0.1111111
        k(   20) = (  -0.0844326  -0.1452364   0.0000000), wk =   0.0555556

     Largest allocated arrays     est. size (Mb)     dimensions
     Largest temporary arrays     est. size (Mb)     dimensions

     Check: negative/imaginary core charge=   -0.000002    0.000000

     Initial potential from superposition of free atoms
     Check: negative starting charge=   -0.001596

     starting charge  176.99898, renormalised to  180.00000

     negative rho (up, down):  1.623E-03 0.000E+00

     *
     * You are using vdW-DF for exchange-correlation in this calculation.
     * Please cite the following three references that made this development
     * possible:
     *
     *   M. Dion, H. Rydberg, E. Schroder, D. C. Langreth, and
     *   B. I. Lundqvist, Phys. Rev. Lett. 92, 246401 (2004).
     *
     *   T. Thonhauser, V. R. Cooper, S. Li, A. Puzder, P. Hyldgaard, and
     *   D. C. Langreth, Phys. Rev. B 76, 125112 (2007).
     *
     *   G. Roman-Perez and J. M. Soler, Phys. Rev. Lett. 103, 096102 (2009).
     *
     *
     * If you are using vdW-DF2, please also cite:
     *
     *   K. Lee, E. D. Murray, L. Kong, B. I. Lundqvist, and
     *   D. C. Langreth, Phys. Rev. B 82, 081101(R) (2010).
     *
     *
     * If you are calculating the stress with vdW-DF, please also cite:
     *
     *   R. Sabatini, E. Kucukbenli, B. Kolb, T. Thonhauser, and
     *   S. de Gironcoli, J. Phys.: Condens. Matter 24, 424209 (2012).
     *

     Carrying out vdW-DF run using the following parameters:

     Nqs =      20    Nr_points =    1024   r_max =   100.000
     q_mesh =
               0.00001000     0.04494208     0.09755937     0.15916263
               0.23128650     0.31572767     0.41458969     0.53033537
               0.66584808     0.82450364     1.01025438     1.22772762
               1.48234092     1.78043706     2.12944203     2.53805004
               3.01644009     3.57652955     4.23227104     5.00000000

     Gradients computed in reciprocal space

     Adding external electric field

     Computed dipole along edir(3) :
        Dipole                0.0000 Ry au,          0.0000 Debye
        Dipole field          0.0000 Ry au

        Potential amp.       -0.0000 Ry
        Total length         45.7889 bohr

     Starting wfc are  132 randomized atomic wfcs

     Self-consistent Calculation

     iteration #  1     ecut=    36.75 Ry     beta=0.10
     Davidson diagonalization with overlap
     ethr =  1.00E-02,  avg # of iterations =  7.8

[...]

     total energy              =   -2480.49142031 Ry
     Harris-Foulkes estimate   =   -2481.08004444 Ry
     estimated scf accuracy    <       3.59633727 Ry

[...]

     End of self-consistent calculation

          k = 0.0000 0.0000 0.0000 ( 19291 PWs)   bands (ev):

   -91.2195 -91.2155 -91.0071 -91.0070 -91.0031 -91.0031 -54.7655 -54.7302
   -54.7248 -54.7039 -54.7005 -54.6951 -54.5541 -54.5540 -54.5063 -54.5045
   -54.5008 -54.4992 -54.4927 -54.4926 -54.4886 -54.4881 -54.4834 -54.4828
    -6.6755  -5.4071  -5.3931  -5.2598  -5.1247  -5.1216  -5.0769  -4.9519
    -4.9393  -4.8477  -4.8192  -4.7776  -4.7020  -4.6160  -4.5647  -3.9689
    -3.8921  -3.8413  -3.8262  -3.7974  -3.7967  -3.7202  -3.6921  -3.6915
    -3.5053  -3.4916  -3.4716  -3.4177  -3.3443  -3.3375  -3.3339  -3.1934
    -3.0361  -2.8221  -2.7815  -2.7473  -2.7149  -2.6649  -2.5760  -2.4695
    -2.4433  -2.3705  -2.2679  -2.2376  -2.2315  -2.2055  -2.0191  -1.9876
    -1.9548  -1.8587  -1.8435  -1.7898  -1.7784  -1.7661  -1.7530  -1.7034
    -1.6693  -1.5055  -1.4958  -1.4658  -1.3126  -1.1571  -0.7084   1.2353
     1.2540   1.2674   1.3484   1.7743   1.9695   2.2155   2.2730   2.3289
     2.5358   3.4826   4.0702   4.5713   4.7506   4.9269   5.0878   5.1461
     5.2376   5.3011   5.6751   5.8458   6.3203   6.4683   6.7962   8.5035
     8.5223   8.5727   8.6943   8.7588   8.7965   8.9121   9.4106   9.8353

[...]

          k =-0.0844-0.0484 0.0000 ( 19310 PWs)   bands (ev):

[...]

     the Fermi energy is     0.6599 ev

!    total energy              =   -2480.19339009 Ry
     Harris-Foulkes estimate   =   -2480.19339035 Ry
     estimated scf accuracy    <       0.00000031 Ry

     The total energy is the sum of the following terms:

     one-electron contribution =  -15964.93650135 Ry
     hartree contribution      =    8025.34900124 Ry
     xc contribution           =    -564.60525533 Ry
     ewald contribution        =    6024.02197521 Ry
     electric field correction =       0.00000000 Ry
     smearing contrib. (-TS)   =      -0.02260985 Ry

     convergence has been achieved in  14 iterations

 BEEF-vdW xc energy contributions
           1 :   -499.855008029602
           2 :    460.916855296819
           3 :   -393.044515573895
           4 :    312.068216593074
           5 :   -233.815419297200
[...]

[...]

     Program PWSCF v.5.1rc2 (svn rev. 11289) starts on 18Dec2018 at 17:43:41

[...]

   This run was terminated on:  17:57: 1  18Dec2018

[...]

     Program PWSCF v.5.1rc2 (svn rev. 11289) starts on 18Dec2018 at 17:57: 9

     Current dimensions of program PWSCF are:
     Max number of different atomic species (ntypx) = 10
     Max number of k-points (npk) =  40000
     Max angular momentum in pseudopotentials (lmaxx) =  3
     Presently stress not available with electric field

     IMPORTANT: XC functional enforced from input :
     Exchange-correlation      = BEEF-VDW ( 1  4 27 13 2)
     Any further DFT definition will be discarded
     Please, verify this is what you really want

     Subspace diagonalization in iterative solution of the eigenvalue problem:
     a serial algorithm will be used

     Found symmetry operation: I + ( -0.5000  0.0000  0.0000)
     This is a supercell, fractional translations are disabled

     bravais-lattice index     =            0
     lattice parameter (alat)  =       1.8897  a.u.
     unit-cell volume          =    5128.6007 (a.u.)^3
     number of atoms/cell      =           12
     number of atomic types    =            2
     number of electrons       =       180.00
     number of Kohn-Sham states=          120
     kinetic-energy cutoff     =      36.7493  Ry
     charge density cutoff     =     367.4932  Ry
     convergence threshold     =      1.0E-06
     mixing beta               =       0.1000
     number of iterations used =           10  plain     mixing
     Exchange-correlation      = BEEF-VDW ( 1  4 27 13 2)
     nstep                     =           50

     celldm(1)=   1.889726  celldm(2)=   0.000000  celldm(3)=   0.000000
     celldm(4)=   0.000000  celldm(5)=   0.000000  celldm(6)=   0.000000

     crystal axes: (cart. coord. in units of alat)
               a(1) = (   5.921884   0.000000   0.000000 )
               a(2) = (  -2.960942   5.163994   0.000000 )
               a(3) = (   0.000000   0.000000  24.851729 )

     reciprocal axes: (cart. coord. in units 2 pi/alat)
               b(1) = (  0.168865  0.096824  0.000000 )
               b(2) = (  0.000000  0.193649  0.000000 )
               b(3) = (  0.000000  0.000000  0.040239 )

     PseudoPot. # 1 for Ag read from file:
     /afs/slac.stanford.edu/u/if/mamunm/psp/gbrv1.5pbe/Ag.UPF
     MD5 check sum: d66d668201baa78d5eb5b04ef7011058
     Pseudo is Ultrasoft + core correction, Zval = 19.0
     Generated by new atomic code, or converted to UPF format
     Using radial grid of  887 points,  6 beta functions with:
                l(1) =   0
                l(2) =   0
                l(3) =   1
                l(4) =   1
                l(5) =   2
                l(6) =   2
     Q(r) pseudized with  6 coefficients,  rinner =    1.300   1.300   1.300
                                                       1.300   1.300

     PseudoPot. # 2 for Au read from file:
     /afs/slac.stanford.edu/u/if/mamunm/psp/gbrv1.5pbe/Au.UPF
     MD5 check sum: 9d7f43293ad2c663164586bc4b293ffc
     Pseudo is Ultrasoft + core correction, Zval = 11.0
     Generated by new atomic code, or converted to UPF format
     Using radial grid of  985 points,  7 beta functions with:
                l(1) =   0
                l(2) =   0
                l(3) =   1
                l(4) =   1
                l(5) =   2
                l(6) =   2
                l(7) =   3
     Q(r) pseudized with  6 coefficients,  rinner =    1.900   1.900   1.900
                                                       1.900   1.900   1.900
                                                       1.900

     vdW kernel table read from file vdW_kernel_table
     MD5 check sum: 095c7af220d748ca6e76c0b4c6cfb241

     atomic species   valence    mass     pseudopotential
        Ag1           19.00   107.86820     Ag( 1.00)
        Au1           11.00   196.96657     Au( 1.00)

     No symmetry found

   Cartesian axes

     site n.     atom                  positions (alat units)
         1           Ag1 tau(   1) = (   0.0000000   0.0000000  10.0000000  )
         2           Ag1 tau(   2) = (   2.9609422   0.0000000  10.0000000  )
         3           Au1 tau(   3) = (   1.4804711   2.5819972  10.0000000  )
         4           Au1 tau(   4) = (  -1.4804711   2.5819972  10.0000000  )
         5           Ag1 tau(   5) = (   2.9609422   1.6977514  12.4258645  )
         6           Ag1 tau(   6) = (   0.0000000   1.6977514  12.4258645  )
         7           Au1 tau(   7) = (  -1.4804711   4.2797486  12.4258645  )
         8           Au1 tau(   8) = (   1.4804711   4.2797486  12.4258645  )
         9           Ag1 tau(   9) = (   0.0000027   3.3995693  14.8930154  )
        10           Ag1 tau(  10) = (   2.9609432   3.3995805  14.8930199  )
        11           Au1 tau(  11) = (   4.4414310   0.8325068  14.8671544  )
        12           Au1 tau(  12) = (   1.4804674   0.8325109  14.8671562  )

     number of k points=    20  Fermi-Dirac smearing, width (Ry)=  0.0110
                       cart. coord. in units 2pi/alat
        k(    1) = (   0.0000000   0.0000000   0.0000000), wk =   0.0555556
        k(    2) = (   0.0000000   0.0322748   0.0000000), wk =   0.1111111
        k(    3) = (   0.0000000   0.0645495   0.0000000), wk =   0.1111111
        k(    4) = (   0.0000000  -0.0968243   0.0000000), wk =   0.0555556
        k(    5) = (   0.0281442   0.0161374   0.0000000), wk =   0.1111111
        k(    6) = (   0.0281442   0.0484121   0.0000000), wk =   0.1111111
        k(    7) = (   0.0281442   0.0806869   0.0000000), wk =   0.1111111
        k(    8) = (   0.0281442  -0.0806869   0.0000000), wk =   0.1111111
        k(    9) = (   0.0281442  -0.0484121   0.0000000), wk =   0.1111111
        k(   10) = (   0.0281442  -0.0161374   0.0000000), wk =   0.1111111
        k(   11) = (   0.0562884   0.0322748   0.0000000), wk =   0.1111111
        k(   12) = (   0.0562884   0.0645495   0.0000000), wk =   0.1111111
        k(   13) = (   0.0562884   0.0968243   0.0000000), wk =   0.1111111
        k(   14) = (   0.0562884  -0.0645495   0.0000000), wk =   0.1111111
        k(   15) = (   0.0562884  -0.0322748   0.0000000), wk =   0.1111111
        k(   16) = (   0.0562884   0.0000000   0.0000000), wk =   0.1111111
        k(   17) = (  -0.0844326  -0.0484121   0.0000000), wk =   0.0555556
        k(   18) = (  -0.0844326  -0.0161374   0.0000000), wk =   0.1111111
        k(   19) = (  -0.0844326   0.0161374   0.0000000), wk =   0.1111111
        k(   20) = (  -0.0844326  -0.1452364   0.0000000), wk =   0.0555556

     Largest allocated arrays     est. size (Mb)     dimensions
     Largest temporary arrays     est. size (Mb)     dimensions

     Check: negative/imaginary core charge=   -0.000002    0.000000

     Initial potential from superposition of free atoms
     Check: negative starting charge=   -0.001578

     starting charge  176.99898, renormalised to  180.00000

[...]

     *
     * You are using vdW-DF for exchange-correlation in this calculation.
     * Please cite the following three references that made this development
     * possible:
     *
     *   M. Dion, H. Rydberg, E. Schroder, D. C. Langreth, and
     *   B. I. Lundqvist, Phys. Rev. Lett. 92, 246401 (2004).
     *
     *   T. Thonhauser, V. R. Cooper, S. Li, A. Puzder, P. Hyldgaard, and
     *   D. C. Langreth, Phys. Rev. B 76, 125112 (2007).
     *
     *   G. Roman-Perez and J. M. Soler, Phys. Rev. Lett. 103, 096102 (2009).
     *
     *
     * If you are using vdW-DF2, please also cite:
     *
     *   K. Lee, E. D. Murray, L. Kong, B. I. Lundqvist, and
     *   D. C. Langreth, Phys. Rev. B 82, 081101(R) (2010).
     *
     *
     * If you are calculating the stress with vdW-DF, please also cite:
     *
     *   R. Sabatini, E. Kucukbenli, B. Kolb, T. Thonhauser, and
     *   S. de Gironcoli, J. Phys.: Condens. Matter 24, 424209 (2012).
     *

     Carrying out vdW-DF run using the following parameters:

     Nqs =      20    Nr_points =    1024   r_max =   100.000
     q_mesh =
               0.00001000     0.04494208     0.09755937     0.15916263
               0.23128650     0.31572767     0.41458969     0.53033537
               0.66584808     0.82450364     1.01025438     1.22772762
               1.48234092     1.78043706     2.12944203     2.53805004
               3.01644009     3.57652955     4.23227104     5.00000000

     Gradients computed in reciprocal space

[...]

     Starting wfc are  132 randomized atomic wfcs

     Self-consistent Calculation

[...]

     total energy              =   -2480.19381686 Ry
     Harris-Foulkes estimate   =   -2480.19381711 Ry
     estimated scf accuracy    <       0.00000105 Ry

     iteration # 15     ecut=    36.75 Ry     beta=0.10
     Davidson diagonalization with overlap
     ethr =  5.84E-10,  avg # of iterations =  2.2

[...]

     negative rho (up, down):  1.592E-03 0.000E+00

     Adding external electric field

     Computed dipole along edir(3) :
        Dipole               -0.0006 Ry au,         -0.0016 Debye
        Dipole field         -0.0000 Ry au

        Potential amp.        0.0001 Ry
        Total length         45.7889 bohr

     End of self-consistent calculation

[...]

          k = 0.0563 0.0000 0.0000 ( 19281 PWs)   bands (ev):

[...]

          k =-0.0844-0.1452 0.0000 ( 19310 PWs)   bands (ev):

   -91.2123 -91.2123 -91.0073 -91.0073 -90.9820 -90.9820 -54.7306 -54.7306
   -54.7209 -54.7209 -54.6925 -54.6925 -54.5262 -54.5262 -54.5053 -54.5053
   -54.5019 -54.5019 -54.4876 -54.4876 -54.4802 -54.4802 -54.4608 -54.4608
    -5.3435  -5.3435  -4.7089  -4.7089  -4.5467  -4.5467  -4.5303  -4.5303
    -4.3997  -4.3997  -4.3228  -4.3228  -4.1795  -4.1795  -4.0321  -4.0321
    -3.8646  -3.8646  -3.8032  -3.8032  -3.7501  -3.7501  -3.6303  -3.6303
    -3.4116  -3.4116  -3.3984  -3.3984  -3.2867  -3.2867  -3.2180  -3.2180
    -3.1591  -3.1591  -3.0834  -3.0834  -2.9640  -2.9640  -2.9260  -2.9260
    -2.8523  -2.8523  -2.7493  -2.7493  -2.5059  -2.5059  -2.4770  -2.4770
    -2.4702  -2.4702  -2.3781  -2.3781  -2.3278  -2.3277  -2.2203  -2.2203
    -1.9456  -1.9456  -1.7860  -1.7860  -1.6938  -1.6938  -1.5423  -1.5423
     0.2839   0.2839   1.0553   1.0553   1.8616   1.8616   3.7713   3.7713
     3.9227   3.9227   5.7987   5.7987   6.3620   6.3620   6.5638   6.5638
     6.6171   6.6171   6.8384   6.8384   6.9443   6.9443   7.7649   7.7649
     7.9952   7.9952   8.2411   8.2411   8.5505   8.5505   8.8881   8.8881

     the Fermi energy is     0.6571 ev

!    total energy              =   -2480.19381701 Ry
     Harris-Foulkes estimate   =   -2480.19381699 Ry
     estimated scf accuracy    <       0.00000016 Ry

     The total energy is the sum of the following terms:

     one-electron contribution =  -15895.64484623 Ry
     hartree contribution      =    7990.76044350 Ry
     xc contribution           =    -564.58681328 Ry
     ewald contribution        =    5989.29991914 Ry
     electric field correction =       0.00000000 Ry
     smearing contrib. (-TS)   =      -0.02252016 Ry

     convergence has been achieved in  15 iterations

 BEEF-vdW xc energy contributions
           1 :   -499.832539670460
           2 :    460.872790649606
           3 :   -392.974882199519
           4 :    311.991601445999
           5 :   -233.761500347436
           6 :    169.279660858648
           7 :   -122.643432162397
           8 :    91.9715812079953
           9 :   -72.2572501109407
          10 :    58.4749507901402
          11 :   -47.5405598822500
          12 :    38.5729531541058
          13 :   -31.9039326920378
          14 :    27.7939953526071
          15 :   -25.7065048823868
          16 :    24.4116690869487
          17 :   -22.6288930053670
          18 :    19.6609633474836
          19 :   -15.6322945498557
          20 :    11.2748927900280
          21 :   -7.48458010064064
          22 :    4.91928092577166
          23 :   -3.81070690657305
          24 :    3.99313720094392
          25 :   -5.05296646382476
          26 :    6.48626356490036
          27 :   -7.81750721459616
          28 :    8.68603550893090
          29 :   -8.91885494180690
          30 :    8.56881222359607
          31 :   -42.6495497473018
          32 :   -31.0432051468661

     Forces acting on atoms (Ry/au):

     negative rho (up, down):  1.592E-03 0.000E+00
     atom    1 type  1   force =    -0.00000007    0.00120645   -0.00400212
     atom    2 type  1   force =     0.00000021    0.00120655   -0.00400231
     atom    3 type  2   force =    -0.00000034   -0.00299104   -0.00175691
     atom    4 type  2   force =    -0.00000045   -0.00299037   -0.00175572
     atom    5 type  1   force =    -0.00000064    0.00055760    0.00188996
     atom    6 type  1   force =     0.00000098    0.00055730    0.00188875
     atom    7 type  2   force =    -0.00000075   -0.00001036    0.00350178
     atom    8 type  2   force =    -0.00000105   -0.00001128    0.00350157
     atom    9 type  1   force =     0.00000050    0.00073776    0.00011250
     atom   10 type  1   force =     0.00000030    0.00073493    0.00011210
     atom   11 type  2   force =    -0.00000195    0.00050110    0.00025515
     atom   12 type  2   force =     0.00000326    0.00050137    0.00025525

     Total force =     0.009645     Total SCF correction =     0.003455
     SCF correction compared to forces is large: reduce conv_thr to get better values

     entering subroutine stress ...

     negative rho (up, down):  1.592E-03 0.000E+00
          total   stress  (Ry/bohr**3)                   (kbar)     P=   -7.99
  -0.00008292   0.00000000  -0.00000000        -12.20      0.00     -0.00
   0.00000000  -0.00007786   0.00000520          0.00    -11.45      0.77
  -0.00000000   0.00000520  -0.00000212         -0.00      0.77     -0.31

 !ASE

     Writing output data file calc.save

     General routines

     Parallel routines

   This run was terminated on:  18:11:11  18Dec2018

   JOB DONE.
Job  /afs/slac/g/suncat/bin/suncat-tsmpirun -x LD_LIBRARY_PATH -wdir /scratch/qe529547_qAPIY pw.x -in pw.inp

TID   HOST_NAME   COMMAND_LINE            STATUS            TERMINATION_TIME
00000 suncat0171 pw.x -in pw.inp   Done                     12/18/2018 18:11:11
00001 suncat0171 pw.x -in pw.inp   Done                     12/18/2018 18:11:11
00002 suncat0171 pw.x -in pw.inp   Done                     12/18/2018 18:11:11
00003 suncat0171 pw.x -in pw.inp   Done                     12/18/2018 18:11:11
00004 suncat0171 pw.x -in pw.inp   Done                     12/18/2018 18:11:11
00005 suncat0171 pw.x -in pw.inp   Done                     12/18/2018 18:11:11
00006 suncat0171 pw.x -in pw.inp   Done                     12/18/2018 18:11:11
00007 suncat0171 pw.x -in pw.inp   Done                     12/18/2018 18:11:11
00008 suncat0169 pw.x -in pw.inp   Done                     12/18/2018 18:11:11
00009 suncat0169 pw.x -in pw.inp   Done                     12/18/2018 18:11:11
00010 suncat0169 pw.x -in pw.inp   Done                     12/18/2018 18:11:11
00011 suncat0169 pw.x -in pw.inp   Done                     12/18/2018 18:11:11
00012 suncat0169 pw.x -in pw.inp   Done                     12/18/2018 18:11:11
00013 suncat0169 pw.x -in pw.inp   Done                     12/18/2018 18:11:11
00014 suncat0169 pw.x -in pw.inp   Done                     12/18/2018 18:11:11
00015 suncat0169 pw.x -in pw.inp   Done                     12/18/2018 18:11:11
00016 suncat0168 pw.x -in pw.inp   Done                     12/18/2018 18:11:11
00017 suncat0168 pw.x -in pw.inp   Done                     12/18/2018 18:11:11
00018 suncat0168 pw.x -in pw.inp   Done                     12/18/2018 18:11:11
00019 suncat0168 pw.x -in pw.inp   Done                     12/18/2018 18:11:11
00020 suncat0168 pw.x -in pw.inp   Done                     12/18/2018 18:11:11
00021 suncat0168 pw.x -in pw.inp   Done                     12/18/2018 18:11:11
00022 suncat0168 pw.x -in pw.inp   Done                     12/18/2018 18:11:11
00023 suncat0168 pw.x -in pw.inp   Done                     12/18/2018 18:11:11
00024 suncat0167 pw.x -in pw.inp   Done                     12/18/2018 18:11:11
00025 suncat0167 pw.x -in pw.inp   Done                     12/18/2018 18:11:11
00026 suncat0167 pw.x -in pw.inp   Done                     12/18/2018 18:11:11
00027 suncat0167 pw.x -in pw.inp   Done                     12/18/2018 18:11:11
00028 suncat0167 pw.x -in pw.inp   Done                     12/18/2018 18:11:11
00029 suncat0167 pw.x -in pw.inp   Done                     12/18/2018 18:11:11
00030 suncat0167 pw.x -in pw.inp   Done                     12/18/2018 18:11:11
00031 suncat0167 pw.x -in pw.inp   Done                     12/18/2018 18:11:11