     Program PWSCF v.5.1rc2 (svn rev. 11289) starts on 19Dec2018 at  8:56: 5

     Current dimensions of program PWSCF are:
     Max number of different atomic species (ntypx) = 10
     Max number of k-points (npk) =  40000
     Max angular momentum in pseudopotentials (lmaxx) =  3
     Presently stress not available with electric field

     IMPORTANT: XC functional enforced from input :
     Exchange-correlation      = BEEF-VDW ( 1  4 27 13 2)
     Any further DFT definition will be discarded
     Please, verify this is what you really want

     Subspace diagonalization in iterative solution of the eigenvalue problem:
     a serial algorithm will be used

     Found symmetry operation: I + ( -0.5000  0.0000  0.0000)
     This is a supercell, fractional translations are disabled

     bravais-lattice index     =            0
     lattice parameter (alat)  =       1.8897  a.u.
     unit-cell volume          =    4190.7372 (a.u.)^3
     number of atoms/cell      =           12
     number of atomic types    =            2
     number of electrons       =       198.00
     number of Kohn-Sham states=          129
     kinetic-energy cutoff     =      36.7493  Ry
     charge density cutoff     =     367.4932  Ry
     convergence threshold     =      1.0E-06
     mixing beta               =       0.1000
     number of iterations used =           10  plain     mixing
     Exchange-correlation      = BEEF-VDW ( 1  4 27 13 2)
     nstep                     =           50

     celldm(1)=   1.889726  celldm(2)=   0.000000  celldm(3)=   0.000000
     celldm(4)=   0.000000  celldm(5)=   0.000000  celldm(6)=   0.000000

     crystal axes: (cart. coord. in units of alat)
               a(1) = (   5.181980   0.000000   0.000000 )
               a(2) = (  -2.590990   4.911012   0.000000 )
               a(3) = (   0.000000   0.000000  24.402095 )

     reciprocal axes: (cart. coord. in units 2 pi/alat)
               b(1) = (  0.192976  0.101812  0.000000 )
               b(2) = (  0.000000  0.203624  0.000000 )
               b(3) = (  0.000000  0.000000  0.040980 )

     PseudoPot. # 1 for Cu read from file:
     /afs/slac.stanford.edu/u/if/mamunm/psp/gbrv1.5pbe/Cu.UPF
     MD5 check sum: 6e991ff952a84172a2a52a1c1e996048
     Pseudo is Ultrasoft + core correction, Zval = 19.0
     Generated by new atomic code, or converted to UPF format
     Using radial grid of  867 points,  6 beta functions with:
                l(1) =   0
                l(2) =   0
                l(3) =   1
                l(4) =   1
                l(5) =   2
                l(6) =   2
     Q(r) pseudized with  8 coefficients,  rinner =    1.150   1.150   1.150
                                                       1.150   1.150

     PseudoPot. # 2 for Mo read from file:
     /afs/slac.stanford.edu/u/if/mamunm/psp/gbrv1.5pbe/Mo.UPF
     MD5 check sum: 30c4dcd161f5d35cd49bb5239c51a633
     Pseudo is Ultrasoft + core correction, Zval = 14.0
     Generated by new atomic code, or converted to UPF format
     Using radial grid of  889 points,  6 beta functions with:
                l(1) =   0
                l(2) =   0
                l(3) =   1
                l(4) =   1
                l(5) =   2
                l(6) =   2
     Q(r) pseudized with  6 coefficients,  rinner =    1.000   1.000   1.000
                                                       1.000   1.000

     vdW kernel table read from file vdW_kernel_table
     MD5 check sum: 095c7af220d748ca6e76c0b4c6cfb241

     atomic species   valence    mass     pseudopotential
        Cu1           19.00    63.54600     Cu( 1.00)
        Mo1           14.00    95.95000     Mo( 1.00)

     No symmetry found

   Cartesian axes

     site n.     atom                  positions (alat units)
         1           Cu1 tau(   1) = (   0.0000000   0.0000000  10.0000000  )
         2           Cu1 tau(   2) = (   2.5909902   0.0000000  10.0000000  )
         3           Mo1 tau(   3) = (   1.2954951   2.4555058  10.0000000  )
         4           Mo1 tau(   4) = (  -1.2954951   2.4555058  10.0000000  )
         5           Cu1 tau(   5) = (   2.5909902   1.3669750  12.2010473  )
         6           Cu1 tau(   6) = (   0.0000000   1.3669750  12.2010473  )
         7           Mo1 tau(   7) = (  -1.2954951   3.8224808  12.2010473  )
         8           Mo1 tau(   8) = (   1.2954951   3.8224808  12.2010473  )
         9           Cu1 tau(   9) = (  -0.0000000   2.7339500  14.4020947  )
        10           Cu1 tau(  10) = (   2.5909902   2.7339500  14.4020947  )
        11           Mo1 tau(  11) = (   3.8864852   0.2784442  14.4020947  )
        12           Mo1 tau(  12) = (   1.2954951   0.2784442  14.4020947  )

     number of k points=    20  Fermi-Dirac smearing, width (Ry)=  0.0110
                       cart. coord. in units 2pi/alat
        k(    1) = (   0.0000000   0.0000000   0.0000000), wk =   0.0555556
        k(    2) = (   0.0000000   0.0339373   0.0000000), wk =   0.1111111
        k(    3) = (   0.0000000   0.0678747   0.0000000), wk =   0.1111111
        k(    4) = (   0.0000000  -0.1018120   0.0000000), wk =   0.0555556
        k(    5) = (   0.0321627   0.0169687   0.0000000), wk =   0.1111111
        k(    6) = (   0.0321627   0.0509060   0.0000000), wk =   0.1111111
        k(    7) = (   0.0321627   0.0848433   0.0000000), wk =   0.1111111
        k(    8) = (   0.0321627  -0.0848433   0.0000000), wk =   0.1111111
        k(    9) = (   0.0321627  -0.0509060   0.0000000), wk =   0.1111111
        k(   10) = (   0.0321627  -0.0169687   0.0000000), wk =   0.1111111
        k(   11) = (   0.0643255   0.0339373   0.0000000), wk =   0.1111111
        k(   12) = (   0.0643255   0.0678747   0.0000000), wk =   0.1111111
        k(   13) = (   0.0643255   0.1018120   0.0000000), wk =   0.1111111
        k(   14) = (   0.0643255  -0.0678747   0.0000000), wk =   0.1111111
        k(   15) = (   0.0643255  -0.0339373   0.0000000), wk =   0.1111111
        k(   16) = (   0.0643255   0.0000000   0.0000000), wk =   0.1111111
        k(   17) = (  -0.0964882  -0.0509060   0.0000000), wk =   0.0555556
        k(   18) = (  -0.0964882  -0.0169687   0.0000000), wk =   0.1111111
        k(   19) = (  -0.0964882   0.0169687   0.0000000), wk =   0.1111111
        k(   20) = (  -0.0964882  -0.1527180   0.0000000), wk =   0.0555556

     Largest allocated arrays     est. size (Mb)     dimensions
     Largest temporary arrays     est. size (Mb)     dimensions

     Initial potential from superposition of free atoms
     Check: negative starting charge=   -0.003561

     starting charge  191.99361, renormalised to  198.00000

     negative rho (up, down):  3.672E-03 0.000E+00

     *
     * You are using vdW-DF for exchange-correlation in this calculation.
     * Please cite the following three references that made this development
     * possible:
     *
     *   M. Dion, H. Rydberg, E. Schroder, D. C. Langreth, and
     *   B. I. Lundqvist, Phys. Rev. Lett. 92, 246401 (2004).
     *
     *   T. Thonhauser, V. R. Cooper, S. Li, A. Puzder, P. Hyldgaard, and
     *   D. C. Langreth, Phys. Rev. B 76, 125112 (2007).
     *
     *   G. Roman-Perez and J. M. Soler, Phys. Rev. Lett. 103, 096102 (2009).
     *
     *
     * If you are using vdW-DF2, please also cite:
     *
     *   K. Lee, E. D. Murray, L. Kong, B. I. Lundqvist, and
     *   D. C. Langreth, Phys. Rev. B 82, 081101(R) (2010).
     *
     *
     * If you are calculating the stress with vdW-DF, please also cite:
     *
     *   R. Sabatini, E. Kucukbenli, B. Kolb, T. Thonhauser, and
     *   S. de Gironcoli, J. Phys.: Condens. Matter 24, 424209 (2012).
     *

     Carrying out vdW-DF run using the following parameters:

     Nqs =      20    Nr_points =    1024   r_max =   100.000
     q_mesh =
               0.00001000     0.04494208     0.09755937     0.15916263
               0.23128650     0.31572767     0.41458969     0.53033537
               0.66584808     0.82450364     1.01025438     1.22772762
               1.48234092     1.78043706     2.12944203     2.53805004
               3.01644009     3.57652955     4.23227104     5.00000000

     Gradients computed in reciprocal space

     Adding external electric field

     Computed dipole along edir(3) :
        Dipole                0.0000 Ry au,          0.0000 Debye
        Dipole field          0.0000 Ry au

        Potential amp.       -0.0000 Ry
        Total length         44.9604 bohr

     Starting wfc are  156 randomized atomic wfcs

     Self-consistent Calculation

     iteration #  1     ecut=    36.75 Ry     beta=0.10
     Davidson diagonalization with overlap
     ethr =  1.00E-02,  avg # of iterations =  6.0

[...]

     total energy              =   -3269.54689838 Ry
     Harris-Foulkes estimate   =   -3270.43821072 Ry
     estimated scf accuracy    <       5.37128400 Ry

[...]

     End of self-consistent calculation

          k = 0.0000 0.0000 0.0000 ( 15769 PWs)   bands (ev):

  -111.6109-111.6072-111.2809-111.2808-111.2772-111.2771 -69.0215 -69.0207
   -69.0173 -68.9737 -68.9502 -68.9461 -68.7090 -68.7088 -68.7048 -68.7046
   -68.6887 -68.6886 -68.6416 -68.6415 -68.6145 -68.6137 -68.6105 -68.6097
   -59.9460 -59.7863 -59.7556 -59.7503 -59.5946 -59.5654 -34.6397 -34.4208
   -34.3909 -34.3685 -34.2247 -33.9856 -33.8909 -33.8119 -33.8118 -33.8045
   -33.7208 -33.6403 -33.6323 -33.3916 -33.2464 -33.2115 -32.9863 -32.9760
    -5.9474  -4.2661  -3.8804  -3.8603  -3.6842  -3.2612  -2.9948  -2.9235
    -2.8585  -2.8291  -2.8225  -2.7010  -2.6442  -2.5687  -2.4136  -1.9887
    -1.9276  -1.8774  -1.8610  -1.8265  -1.4955  -1.4874  -1.4858  -1.3857
    -1.3829  -1.2975  -1.2404  -1.1485  -1.0970  -1.0703  -1.0326  -1.0209
    -0.8124  -0.7368  -0.5458  -0.5340  -0.4668  -0.3156  -0.2950  -0.2356
    -0.0641  -0.0108   0.3564   0.5684   0.8124   0.9035   1.0056   1.0263
     1.0503   1.8905   1.9077   1.9482   2.0691   2.6715   2.6839   2.7410
     2.8247   2.9884   3.2854   3.5078   3.5654   3.6730   3.7197   3.7608
     4.0078   4.0745   4.3645   4.7907   4.8606   4.9297   5.0223   5.4419
     5.6662   5.7948   6.0687   6.3788   6.9489   7.5329   7.5400   7.5945
     7.6395

[...]

          k =-0.0965-0.0509 0.0000 ( 15786 PWs)   bands (ev):

[...]

     the Fermi energy is     1.3528 ev

!    total energy              =   -3269.10404347 Ry
     Harris-Foulkes estimate   =   -3269.10403162 Ry
     estimated scf accuracy    <       0.00000066 Ry

     The total energy is the sum of the following terms:

     one-electron contribution =  -24731.51714296 Ry
     hartree contribution      =   12369.16044691 Ry
     xc contribution           =    -359.84184308 Ry
     ewald contribution        =    9453.16463764 Ry
     electric field correction =       0.00000001 Ry
     smearing contrib. (-TS)   =      -0.07014198 Ry

     convergence has been achieved in  17 iterations

 BEEF-vdW xc energy contributions
           1 :   -315.726618555053
           2 :    287.049378144511
           3 :   -238.204940048948
           4 :    182.393398684538
           5 :   -132.115019428154
           6 :    94.8094884433571
           7 :   -71.4045785745095
[...]

[...]

     Program PWSCF v.5.1rc2 (svn rev. 11289) starts on 19Dec2018 at  9:26: 3

[...]

   This run was terminated on:   9:41: 9  19Dec2018

[...]

     Found symmetry operation: I + ( -0.5000  0.0000  0.0000)
     This is a supercell, fractional translations are disabled

[...]

     Total force =     0.018907     Total SCF correction =     0.000917

[...]

     Program PWSCF v.5.1rc2 (svn rev. 11289) starts on 19Dec2018 at 10:11:56

     Current dimensions of program PWSCF are:
     Max number of different atomic species (ntypx) = 10
     Max number of k-points (npk) =  40000
     Max angular momentum in pseudopotentials (lmaxx) =  3
     Presently stress not available with electric field

     IMPORTANT: XC functional enforced from input :
     Exchange-correlation      = BEEF-VDW ( 1  4 27 13 2)
     Any further DFT definition will be discarded
     Please, verify this is what you really want

     Subspace diagonalization in iterative solution of the eigenvalue problem:
     a serial algorithm will be used

     bravais-lattice index     =            0
     lattice parameter (alat)  =       1.8897  a.u.
     unit-cell volume          =    4190.7372 (a.u.)^3
     number of atoms/cell      =           12
     number of atomic types    =            2
     number of electrons       =       198.00
     number of Kohn-Sham states=          129
     kinetic-energy cutoff     =      36.7493  Ry
     charge density cutoff     =     367.4932  Ry
     convergence threshold     =      1.0E-06
     mixing beta               =       0.1000
     number of iterations used =           10  plain     mixing
     Exchange-correlation      = BEEF-VDW ( 1  4 27 13 2)
     nstep                     =           50

     celldm(1)=   1.889726  celldm(2)=   0.000000  celldm(3)=   0.000000
     celldm(4)=   0.000000  celldm(5)=   0.000000  celldm(6)=   0.000000

     crystal axes: (cart. coord. in units of alat)
               a(1) = (   5.181980   0.000000   0.000000 )
               a(2) = (  -2.590990   4.911012   0.000000 )
               a(3) = (   0.000000   0.000000  24.402095 )

     reciprocal axes: (cart. coord. in units 2 pi/alat)
               b(1) = (  0.192976  0.101812  0.000000 )
               b(2) = (  0.000000  0.203624  0.000000 )
               b(3) = (  0.000000  0.000000  0.040980 )

     PseudoPot. # 1 for Cu read from file:
     /afs/slac.stanford.edu/u/if/mamunm/psp/gbrv1.5pbe/Cu.UPF
     MD5 check sum: 6e991ff952a84172a2a52a1c1e996048
     Pseudo is Ultrasoft + core correction, Zval = 19.0
     Generated by new atomic code, or converted to UPF format
     Using radial grid of  867 points,  6 beta functions with:
                l(1) =   0
                l(2) =   0
                l(3) =   1
                l(4) =   1
                l(5) =   2
                l(6) =   2
     Q(r) pseudized with  8 coefficients,  rinner =    1.150   1.150   1.150
                                                       1.150   1.150

     PseudoPot. # 2 for Mo read from file:
     /afs/slac.stanford.edu/u/if/mamunm/psp/gbrv1.5pbe/Mo.UPF
     MD5 check sum: 30c4dcd161f5d35cd49bb5239c51a633
     Pseudo is Ultrasoft + core correction, Zval = 14.0
     Generated by new atomic code, or converted to UPF format
     Using radial grid of  889 points,  6 beta functions with:
                l(1) =   0
                l(2) =   0
                l(3) =   1
                l(4) =   1
                l(5) =   2
                l(6) =   2
     Q(r) pseudized with  6 coefficients,  rinner =    1.000   1.000   1.000
                                                       1.000   1.000

     vdW kernel table read from file vdW_kernel_table
     MD5 check sum: 095c7af220d748ca6e76c0b4c6cfb241

     atomic species   valence    mass     pseudopotential
        Cu1           19.00    63.54600     Cu( 1.00)
        Mo1           14.00    95.95000     Mo( 1.00)

     No symmetry found

   Cartesian axes

     site n.     atom                  positions (alat units)
         1           Cu1 tau(   1) = (   0.0000000   0.0000000  10.0000000  )
         2           Cu1 tau(   2) = (   2.5909902   0.0000000  10.0000000  )
         3           Mo1 tau(   3) = (   1.2954951   2.4555058  10.0000000  )
         4           Mo1 tau(   4) = (  -1.2954951   2.4555058  10.0000000  )
         5           Cu1 tau(   5) = (   2.5909902   1.3669750  12.2010473  )
         6           Cu1 tau(   6) = (   0.0000000   1.3669750  12.2010473  )
         7           Mo1 tau(   7) = (  -1.2954951   3.8224808  12.2010473  )
         8           Mo1 tau(   8) = (   1.2954951   3.8224808  12.2010473  )
         9           Cu1 tau(   9) = (  -0.0002326   2.7901238  14.4276759  )
        10           Cu1 tau(  10) = (   2.5906798   2.7901052  14.4276860  )
        11           Mo1 tau(  11) = (   3.8859595   0.3493817  14.3545520  )
        12           Mo1 tau(  12) = (   1.2949552   0.3493888  14.3545788  )

     number of k points=    20  Fermi-Dirac smearing, width (Ry)=  0.0110
                       cart. coord. in units 2pi/alat
        k(    1) = (   0.0000000   0.0000000   0.0000000), wk =   0.0555556
        k(    2) = (   0.0000000   0.0339373   0.0000000), wk =   0.1111111
        k(    3) = (   0.0000000   0.0678747   0.0000000), wk =   0.1111111
        k(    4) = (   0.0000000  -0.1018120   0.0000000), wk =   0.0555556
        k(    5) = (   0.0321627   0.0169687   0.0000000), wk =   0.1111111
        k(    6) = (   0.0321627   0.0509060   0.0000000), wk =   0.1111111
        k(    7) = (   0.0321627   0.0848433   0.0000000), wk =   0.1111111
        k(    8) = (   0.0321627  -0.0848433   0.0000000), wk =   0.1111111
        k(    9) = (   0.0321627  -0.0509060   0.0000000), wk =   0.1111111
        k(   10) = (   0.0321627  -0.0169687   0.0000000), wk =   0.1111111
        k(   11) = (   0.0643255   0.0339373   0.0000000), wk =   0.1111111
        k(   12) = (   0.0643255   0.0678747   0.0000000), wk =   0.1111111
        k(   13) = (   0.0643255   0.1018120   0.0000000), wk =   0.1111111
        k(   14) = (   0.0643255  -0.0678747   0.0000000), wk =   0.1111111
        k(   15) = (   0.0643255  -0.0339373   0.0000000), wk =   0.1111111
        k(   16) = (   0.0643255   0.0000000   0.0000000), wk =   0.1111111
        k(   17) = (  -0.0964882  -0.0509060   0.0000000), wk =   0.0555556
        k(   18) = (  -0.0964882  -0.0169687   0.0000000), wk =   0.1111111
        k(   19) = (  -0.0964882   0.0169687   0.0000000), wk =   0.1111111
        k(   20) = (  -0.0964882  -0.1527180   0.0000000), wk =   0.0555556

     Largest allocated arrays     est. size (Mb)     dimensions
     Largest temporary arrays     est. size (Mb)     dimensions

     Initial potential from superposition of free atoms
     Check: negative starting charge=   -0.003518

     starting charge  191.99361, renormalised to  198.00000

[...]

     *
     * You are using vdW-DF for exchange-correlation in this calculation.
     * Please cite the following three references that made this development
     * possible:
     *
     *   M. Dion, H. Rydberg, E. Schroder, D. C. Langreth, and
     *   B. I. Lundqvist, Phys. Rev. Lett. 92, 246401 (2004).
     *
     *   T. Thonhauser, V. R. Cooper, S. Li, A. Puzder, P. Hyldgaard, and
     *   D. C. Langreth, Phys. Rev. B 76, 125112 (2007).
     *
     *   G. Roman-Perez and J. M. Soler, Phys. Rev. Lett. 103, 096102 (2009).
     *
     *
     * If you are using vdW-DF2, please also cite:
     *
     *   K. Lee, E. D. Murray, L. Kong, B. I. Lundqvist, and
     *   D. C. Langreth, Phys. Rev. B 82, 081101(R) (2010).
     *
     *
     * If you are calculating the stress with vdW-DF, please also cite:
     *
     *   R. Sabatini, E. Kucukbenli, B. Kolb, T. Thonhauser, and
     *   S. de Gironcoli, J. Phys.: Condens. Matter 24, 424209 (2012).
     *

     Carrying out vdW-DF run using the following parameters:

     Nqs =      20    Nr_points =    1024   r_max =   100.000
     q_mesh =
               0.00001000     0.04494208     0.09755937     0.15916263
               0.23128650     0.31572767     0.41458969     0.53033537
               0.66584808     0.82450364     1.01025438     1.22772762
               1.48234092     1.78043706     2.12944203     2.53805004
               3.01644009     3.57652955     4.23227104     5.00000000

     Gradients computed in reciprocal space

[...]

     Starting wfc are  156 randomized atomic wfcs

     Self-consistent Calculation

[...]

     total energy              =   -3269.10560757 Ry
     Harris-Foulkes estimate   =   -3269.10560647 Ry
     estimated scf accuracy    <       0.00000919 Ry

     iteration # 17     ecut=    36.75 Ry     beta=0.10
     Davidson diagonalization with overlap
     ethr =  3.55E-09,  avg # of iterations =  2.0

[...]

     negative rho (up, down):  3.518E-03 0.000E+00

     Adding external electric field

     Computed dipole along edir(3) :
        Dipole               -0.0051 Ry au,         -0.0129 Debye
        Dipole field         -0.0000 Ry au

        Potential amp.        0.0014 Ry
        Total length         44.9604 bohr

     End of self-consistent calculation

[...]

          k = 0.0643 0.0000 0.0000 ( 15733 PWs)   bands (ev):

[...]

          k =-0.0965-0.1527 0.0000 ( 15786 PWs)   bands (ev):

  -111.6598-111.6598-111.2809-111.2809-111.2790-111.2790 -69.0696 -69.0696
   -69.0486 -69.0486 -68.9970 -68.9970 -68.7085 -68.7085 -68.7081 -68.7080
   -68.6689 -68.6688 -68.6668 -68.6668 -68.6149 -68.6149 -68.6085 -68.6085
   -59.8598 -59.8598 -59.6909 -59.6906 -59.6627 -59.6624 -34.3332 -34.3330
   -33.9603 -33.9603 -33.9168 -33.9168 -33.8050 -33.8047 -33.7328 -33.7323
   -33.7211 -33.7210 -33.7142 -33.7139 -33.6978 -33.6975 -33.3236 -33.3234
    -4.2620  -4.2620  -3.0594  -3.0594  -2.9044  -2.9043  -2.5192  -2.5192
    -2.4619  -2.4619  -2.3221  -2.3220  -2.1198  -2.1198  -2.0844  -2.0844
    -1.9061  -1.9061  -1.6734  -1.6734  -1.6345  -1.6344  -1.4687  -1.4686
    -1.4505  -1.4504  -1.4031  -1.4030  -1.3632  -1.3632  -1.2590  -1.2589
    -1.1494  -1.1494  -0.8801  -0.8801  -0.5840  -0.5839  -0.3445  -0.3445
     0.0586   0.0587   0.3615   0.3616   0.7700   0.7700   0.8847   0.8848
     1.1258   1.1259   1.2049   1.2050   1.2873   1.2874   1.4913   1.4914
     1.6364   1.6364   2.5191   2.5191   2.8729   2.8730   3.1185   3.1186
     3.9856   3.9857   4.2107   4.2108   4.8761   4.8761   5.7800   5.7800
     6.6995   6.6995   7.1824   7.1824   7.6553   7.6554   7.7896   7.7897
     8.7970

     the Fermi energy is     1.3532 ev

!    total energy              =   -3269.10562008 Ry
     Harris-Foulkes estimate   =   -3269.10560854 Ry
     estimated scf accuracy    <       0.00000072 Ry

     The total energy is the sum of the following terms:

     one-electron contribution =  -24748.74355638 Ry
     hartree contribution      =   12377.68094924 Ry
     xc contribution           =    -359.86394534 Ry
     ewald contribution        =    9461.89078620 Ry
     electric field correction =       0.00000008 Ry
     smearing contrib. (-TS)   =      -0.06985387 Ry

     convergence has been achieved in  17 iterations

 BEEF-vdW xc energy contributions
           1 :   -315.749781782474
           2 :    287.084076896470
           3 :   -238.254505481722
           4 :    182.449675496517
           5 :   -132.161881139069
           6 :    94.8326747209800
           7 :   -71.4014609356043
           8 :    57.9197419124474
           9 :   -48.8992110123242
          10 :    40.3937487340676
          11 :   -31.3520074386047
          12 :    22.9691841304294
          13 :   -16.9375730075798
          14 :    13.9019874147934
          15 :   -13.0228784914104
          16 :    12.6637112937518
          17 :   -11.5200812971117
          18 :    9.34778806007870
          19 :   -6.87026933241702
          20 :    5.05304897265643
          21 :   -4.33489581917246
          22 :    4.34753343711378
          23 :   -4.26044397345021
          24 :    3.43225809498614
          25 :   -1.87251834378594
          26 :   0.191139433124647
          27 :   0.892360701134578
          28 :   -1.09966672432375
          29 :   0.799694740167126
          30 :  -0.735932839824272
          31 :   -28.6424696459549
          32 :   -20.5528948928752

     Forces acting on atoms (Ry/au):

     negative rho (up, down):  3.518E-03 0.000E+00
     atom    1 type  1   force =     0.00000101   -0.00069655   -0.00302048
     atom    2 type  1   force =    -0.00001046   -0.00069839   -0.00302025
     atom    3 type  2   force =    -0.00001698   -0.00340864    0.00915146
     atom    4 type  2   force =    -0.00001727   -0.00340429    0.00915567
     atom    5 type  1   force =    -0.00020018    0.00515729   -0.00500886
     atom    6 type  1   force =     0.00012168    0.00516001   -0.00501072
     atom    7 type  2   force =     0.00005581   -0.00202042   -0.00082771
     atom    8 type  2   force =     0.00005589   -0.00201606   -0.00082770
     atom    9 type  1   force =    -0.00001162    0.00128088   -0.00063215
     atom   10 type  1   force =    -0.00002282    0.00127865   -0.00063489
     atom   11 type  2   force =     0.00002409   -0.00031047    0.00034981
     atom   12 type  2   force =     0.00002085   -0.00032199    0.00032581

     Total force =     0.018097     Total SCF correction =     0.003744
     SCF correction compared to forces is large: reduce conv_thr to get better values

     entering subroutine stress ...

     negative rho (up, down):  3.518E-03 0.000E+00
          total   stress  (Ry/bohr**3)                   (kbar)     P=  -23.51
  -0.00023243  -0.00000008   0.00000004        -34.19     -0.01      0.01
  -0.00000008  -0.00019011   0.00000733         -0.01    -27.97      1.08
   0.00000004   0.00000733  -0.00005699          0.01      1.08     -8.38

 !ASE

     Writing output data file calc.save

     General routines

     Parallel routines

   This run was terminated on:  10:26:27  19Dec2018

   JOB DONE.
Job  /afs/slac/g/suncat/bin/suncat-tsmpirun -x LD_LIBRARY_PATH -wdir /scratch/qe529794_0bfMM pw.x -in pw.inp

TID   HOST_NAME   COMMAND_LINE            STATUS            TERMINATION_TIME
00000 suncat0105 pw.x -in pw.inp   Done                     12/19/2018 10:26:27
00001 suncat0105 pw.x -in pw.inp   Done                     12/19/2018 10:26:27
00002 suncat0105 pw.x -in pw.inp   Done                     12/19/2018 10:26:27
00003 suncat0105 pw.x -in pw.inp   Done                     12/19/2018 10:26:27
00004 suncat0105 pw.x -in pw.inp   Done                     12/19/2018 10:26:27
00005 suncat0105 pw.x -in pw.inp   Done                     12/19/2018 10:26:27
00006 suncat0105 pw.x -in pw.inp   Done                     12/19/2018 10:26:27
00007 suncat0105 pw.x -in pw.inp   Done                     12/19/2018 10:26:27
00008 suncat0100 pw.x -in pw.inp   Done                     12/19/2018 10:26:27
00009 suncat0100 pw.x -in pw.inp   Done                     12/19/2018 10:26:27
00010 suncat0100 pw.x -in pw.inp   Done                     12/19/2018 10:26:27
00011 suncat0100 pw.x -in pw.inp   Done                     12/19/2018 10:26:27
00012 suncat0100 pw.x -in pw.inp   Done                     12/19/2018 10:26:27
00013 suncat0100 pw.x -in pw.inp   Done                     12/19/2018 10:26:27
00014 suncat0100 pw.x -in pw.inp   Done                     12/19/2018 10:26:27
00015 suncat0100 pw.x -in pw.inp   Done                     12/19/2018 10:26:27
00016 suncat0283 pw.x -in pw.inp   Done                     12/19/2018 10:26:27
00017 suncat0283 pw.x -in pw.inp   Done                     12/19/2018 10:26:27
00018 suncat0283 pw.x -in pw.inp   Done                     12/19/2018 10:26:27
00019 suncat0283 pw.x -in pw.inp   Done                     12/19/2018 10:26:27
00020 suncat0283 pw.x -in pw.inp   Done                     12/19/2018 10:26:27
00021 suncat0283 pw.x -in pw.inp   Done                     12/19/2018 10:26:27
00022 suncat0283 pw.x -in pw.inp   Done                     12/19/2018 10:26:27
00023 suncat0283 pw.x -in pw.inp   Done                     12/19/2018 10:26:27
00024 suncat0282 pw.x -in pw.inp   Done                     12/19/2018 10:26:27
00025 suncat0282 pw.x -in pw.inp   Done                     12/19/2018 10:26:27
00026 suncat0282 pw.x -in pw.inp   Done                     12/19/2018 10:26:27
00027 suncat0282 pw.x -in pw.inp   Done                     12/19/2018 10:26:27
00028 suncat0282 pw.x -in pw.inp   Done                     12/19/2018 10:26:27
00029 suncat0282 pw.x -in pw.inp   Done                     12/19/2018 10:26:27
00030 suncat0282 pw.x -in pw.inp   Done                     12/19/2018 10:26:27
00031 suncat0282 pw.x -in pw.inp   Done                     12/19/2018 10:26:27