     Program PWSCF v.5.1rc2 (svn rev. 11289) starts on 19Dec2018 at  6: 9: 3

     Current dimensions of program PWSCF are:
     Max number of different atomic species (ntypx) = 10
     Max number of k-points (npk) =  40000
     Max angular momentum in pseudopotentials (lmaxx) =  3
     Presently stress not available with electric field

     IMPORTANT: XC functional enforced from input :
     Exchange-correlation      = BEEF-VDW ( 1  4 27 13 2)
     Any further DFT definition will be discarded
     Please, verify this is what you really want

     Subspace diagonalization in iterative solution of the eigenvalue problem:
     a serial algorithm will be used

     Found symmetry operation: I + ( -0.5000 -0.5000  0.0000)
     This is a supercell, fractional translations are disabled

     Generating pointlists ...
     new r_m :   0.4125 (alat units)  0.7795 (a.u.) for type    1
     new r_m :   0.4125 (alat units)  0.7795 (a.u.) for type    2

     bravais-lattice index     =            0
     lattice parameter (alat)  =       1.8897  a.u.
     unit-cell volume          =    4994.1886 (a.u.)^3
     number of atoms/cell      =           12
     number of atomic types    =            2
     number of electrons       =       180.00
     number of Kohn-Sham states=          120
     kinetic-energy cutoff     =      36.7493  Ry
     charge density cutoff     =     367.4932  Ry
     convergence threshold     =      1.0E-06
     mixing beta               =       0.1000
     number of iterations used =           10  plain     mixing
     Exchange-correlation      = BEEF-VDW ( 1  4 27 13 2)
     nstep                     =           50

     celldm(1)=   1.889726  celldm(2)=   0.000000  celldm(3)=   0.000000
     celldm(4)=   0.000000  celldm(5)=   0.000000  celldm(6)=   0.000000

     crystal axes: (cart. coord. in units of alat)
               a(1) = (   5.652085   0.000000   0.000000 )
               a(2) = (   1.916237   5.317339   0.000000 )
               a(3) = (   0.000000   0.000000  24.624382 )

     reciprocal axes: (cart. coord. in units 2 pi/alat)
               b(1) = (  0.176926 -0.063760  0.000000 )
               b(2) = (  0.000000  0.188064  0.000000 )
               b(3) = (  0.000000  0.000000  0.040610 )

     PseudoPot. # 1 for Co read from file:
     /afs/slac.stanford.edu/u/if/mamunm/psp/gbrv1.5pbe/Co.UPF
     MD5 check sum: 5f91765df6ddd3222702df6e7b74a16d
     Pseudo is Ultrasoft + core correction, Zval = 17.0
     Generated by new atomic code, or converted to UPF format
     Using radial grid of  863 points,  6 beta functions with:
                l(1) =   0
                l(2) =   0
                l(3) =   1
                l(4) =   1
                l(5) =   2
                l(6) =   2
     Q(r) pseudized with  8 coefficients,  rinner =    1.200   1.200   1.200
                                                       1.200   1.200

     PseudoPot. # 2 for Tl read from file:
     /afs/slac.stanford.edu/u/if/mamunm/psp/gbrv1.5pbe/Tl.UPF
     MD5 check sum: b76cf1f7e72655a2b2c53cf6385d7059
     Pseudo is Ultrasoft + core correction, Zval = 13.0
     Generated by new atomic code, or converted to UPF format
     Using radial grid of  899 points,  6 beta functions with:
                l(1) =   0
                l(2) =   0
                l(3) =   1
                l(4) =   1
                l(5) =   2
                l(6) =   2
     Q(r) pseudized with  6 coefficients,  rinner =    1.100   1.100   1.100
                                                       1.100   1.100

     vdW kernel table read from file vdW_kernel_table
     MD5 check sum: 095c7af220d748ca6e76c0b4c6cfb241

     atomic species   valence    mass     pseudopotential
        Co1           17.00    58.93319     Co( 1.00)
        Tl1           13.00   204.38000     Tl( 1.00)

     Starting magnetic structure
     atomic species   magnetization
        Co1          0.118
        Tl1          0.154

     No symmetry found

   Cartesian axes

     site n.     atom                  positions (alat units)
         1           Co1 tau(   1) = (   0.0000000   0.0000000  10.0000000  )
         2           Co1 tau(   2) = (   3.7841610   2.6586695  10.0000000  )
         3           Tl1 tau(   3) = (   2.8260423   0.0000000  10.0000000  )
         4           Tl1 tau(   4) = (   0.9581187   2.6586695  10.0000000  )
         5           Co1 tau(   5) = (   5.6520845   3.9710321  12.3121911  )
         6           Co1 tau(   6) = (   1.8679236   1.3123626  12.3121911  )
         7           Tl1 tau(   7) = (   2.8260423   3.9710321  12.3121911  )
         8           Tl1 tau(   8) = (   4.6939658   1.3123626  12.3121911  )
         9           Co1 tau(   9) = (   3.7358471   2.6247252  14.6243823  )
        10           Co1 tau(  10) = (   7.5200081   5.2833947  14.6243823  )
        11           Tl1 tau(  11) = (   6.5618894   2.6247252  14.6243823  )
        12           Tl1 tau(  12) = (   4.6939658   5.2833947  14.6243823  )

     number of k points=    40  Fermi-Dirac smearing, width (Ry)=  0.0110
                       cart. coord. in units 2pi/alat
        k(    1) = (   0.0000000   0.0000000   0.0000000), wk =   0.0277778
        k(    2) = (   0.0000000   0.0313440   0.0000000), wk =   0.0555556
        k(    3) = (   0.0000000   0.0626880   0.0000000), wk =   0.0555556
        k(    4) = (   0.0000000  -0.0940320   0.0000000), wk =   0.0277778
        k(    5) = (   0.0294876  -0.0106266   0.0000000), wk =   0.0555556
        k(    6) = (   0.0294876   0.0207174   0.0000000), wk =   0.0555556
        k(    7) = (   0.0294876   0.0520614   0.0000000), wk =   0.0555556
        k(    8) = (   0.0294876  -0.1046586   0.0000000), wk =   0.0555556
        k(    9) = (   0.0294876  -0.0733146   0.0000000), wk =   0.0555556
        k(   10) = (   0.0294876  -0.0419706   0.0000000), wk =   0.0555556
        k(   11) = (   0.0589753  -0.0212532   0.0000000), wk =   0.0555556
        k(   12) = (   0.0589753   0.0100908   0.0000000), wk =   0.0555556
        k(   13) = (   0.0589753   0.0414348   0.0000000), wk =   0.0555556
        k(   14) = (   0.0589753  -0.1152852   0.0000000), wk =   0.0555556
        k(   15) = (   0.0589753  -0.0839412   0.0000000), wk =   0.0555556
        k(   16) = (   0.0589753  -0.0525972   0.0000000), wk =   0.0555556
        k(   17) = (  -0.0884629   0.0318799   0.0000000), wk =   0.0277778
        k(   18) = (  -0.0884629   0.0632239   0.0000000), wk =   0.0555556
        k(   19) = (  -0.0884629   0.0945679   0.0000000), wk =   0.0555556
        k(   20) = (  -0.0884629  -0.0621521   0.0000000), wk =   0.0277778
        k(   21) = (   0.0000000   0.0000000   0.0000000), wk =   0.0277778
        k(   22) = (   0.0000000   0.0313440   0.0000000), wk =   0.0555556
        k(   23) = (   0.0000000   0.0626880   0.0000000), wk =   0.0555556
        k(   24) = (   0.0000000  -0.0940320   0.0000000), wk =   0.0277778
        k(   25) = (   0.0294876  -0.0106266   0.0000000), wk =   0.0555556
        k(   26) = (   0.0294876   0.0207174   0.0000000), wk =   0.0555556
        k(   27) = (   0.0294876   0.0520614   0.0000000), wk =   0.0555556
        k(   28) = (   0.0294876  -0.1046586   0.0000000), wk =   0.0555556
        k(   29) = (   0.0294876  -0.0733146   0.0000000), wk =   0.0555556
        k(   30) = (   0.0294876  -0.0419706   0.0000000), wk =   0.0555556
        k(   31) = (   0.0589753  -0.0212532   0.0000000), wk =   0.0555556
        k(   32) = (   0.0589753   0.0100908   0.0000000), wk =   0.0555556
        k(   33) = (   0.0589753   0.0414348   0.0000000), wk =   0.0555556
        k(   34) = (   0.0589753  -0.1152852   0.0000000), wk =   0.0555556
        k(   35) = (   0.0589753  -0.0839412   0.0000000), wk =   0.0555556
        k(   36) = (   0.0589753  -0.0525972   0.0000000), wk =   0.0555556
        k(   37) = (  -0.0884629   0.0318799   0.0000000), wk =   0.0277778
        k(   38) = (  -0.0884629   0.0632239   0.0000000), wk =   0.0555556
        k(   39) = (  -0.0884629   0.0945679   0.0000000), wk =   0.0555556
        k(   40) = (  -0.0884629  -0.0621521   0.0000000), wk =   0.0277778

     Largest allocated arrays     est. size (Mb)     dimensions
     Largest temporary arrays     est. size (Mb)     dimensions

     Check: negative/imaginary core charge=   -0.000003    0.000000

     Initial potential from superposition of free atoms
     Check: negative starting charge=(component1):   -0.174870
     Check: negative starting charge=(component2):   -0.128221

     starting charge  173.97076, renormalised to  180.00000

     negative rho (up, down):  1.809E-01 1.327E-01

     *
     * You are using vdW-DF for exchange-correlation in this calculation.
     * Please cite the following three references that made this development
     * possible:
     *
     *   M. Dion, H. Rydberg, E. Schroder, D. C. Langreth, and
     *   B. I. Lundqvist, Phys. Rev. Lett. 92, 246401 (2004).
     *
     *   T. Thonhauser, V. R. Cooper, S. Li, A. Puzder, P. Hyldgaard, and
     *   D. C. Langreth, Phys. Rev. B 76, 125112 (2007).
     *
     *   G. Roman-Perez and J. M. Soler, Phys. Rev. Lett. 103, 096102 (2009).
     *
     *
     * If you are using vdW-DF2, please also cite:
     *
     *   K. Lee, E. D. Murray, L. Kong, B. I. Lundqvist, and
     *   D. C. Langreth, Phys. Rev. B 82, 081101(R) (2010).
     *
     *
     * If you are calculating the stress with vdW-DF, please also cite:
     *
     *   R. Sabatini, E. Kucukbenli, B. Kolb, T. Thonhauser, and
     *   S. de Gironcoli, J. Phys.: Condens. Matter 24, 424209 (2012).
     *

     Carrying out vdW-DF run using the following parameters:

     Nqs =      20    Nr_points =    1024   r_max =   100.000
     q_mesh =
               0.00001000     0.04494208     0.09755937     0.15916263
               0.23128650     0.31572767     0.41458969     0.53033537
               0.66584808     0.82450364     1.01025438     1.22772762
               1.48234092     1.78043706     2.12944203     2.53805004
               3.01644009     3.57652955     4.23227104     5.00000000

     Gradients computed in reciprocal space

     Adding external electric field

     Computed dipole along edir(3) :
        Dipole                0.0000 Ry au,          0.0000 Debye
        Dipole field          0.0000 Ry au

        Potential amp.       -0.0000 Ry
        Total length         45.3700 bohr

[...]

     Starting wfc are  132 randomized atomic wfcs

     Self-consistent Calculation

     iteration #  1     ecut=    36.75 Ry     beta=0.10
     Davidson diagonalization with overlap
     ethr =  1.00E-02,  avg # of iterations =  7.9

[...]

     Magnetic moment per site:
     atom:    1    charge:    8.4139    magn:    1.0147    constr:    0.0000
     atom:    2    charge:    8.4139    magn:    1.0147    constr:    0.0000
     atom:    3    charge:    1.4669    magn:    0.2052    constr:    0.0000
     atom:    4    charge:    1.4669    magn:    0.2052    constr:    0.0000
     atom:    5    charge:    8.4032    magn:    1.0019    constr:    0.0000
     atom:    6    charge:    8.4032    magn:    1.0020    constr:    0.0000
[...]
                l(4) =   1
                l(5) =   2
                l(6) =   2
     Q(r) pseudized with  8 coefficients,  rinner =    1.200   1.200   1.200
                                                       1.200   1.200

     PseudoPot. # 2 for Tl read from file:
     /afs/slac.stanford.edu/u/if/mamunm/psp/gbrv1.5pbe/Tl.UPF
     MD5 check sum: b76cf1f7e72655a2b2c53cf6385d7059
     Pseudo is Ultrasoft + core correction, Zval = 13.0
     Generated by new atomic code, or converted to UPF format
     Using radial grid of  899 points,  6 beta functions with:
                l(1) =   0
                l(2) =   0
                l(3) =   1
                l(4) =   1
                l(5) =   2
                l(6) =   2
     Q(r) pseudized with  6 coefficients,  rinner =    1.100   1.100   1.100
                                                       1.100   1.100

     vdW kernel table read from file vdW_kernel_table
     MD5 check sum: 095c7af220d748ca6e76c0b4c6cfb241

     atomic species   valence    mass     pseudopotential
        Co1           17.00    58.93319     Co( 1.00)
        Tl1           13.00   204.38000     Tl( 1.00)

     Starting magnetic structure
     atomic species   magnetization
        Co1          0.118
        Tl1          0.154

     No symmetry found

   Cartesian axes

     site n.     atom                  positions (alat units)
         1           Co1 tau(   1) = (   0.0000000   0.0000000  10.0000000  )
         2           Co1 tau(   2) = (   3.7841610   2.6586695  10.0000000  )
         3           Tl1 tau(   3) = (   2.8260423   0.0000000  10.0000000  )
         4           Tl1 tau(   4) = (   0.9581187   2.6586695  10.0000000  )
         5           Co1 tau(   5) = (   5.6520845   3.9710321  12.3121911  )
         6           Co1 tau(   6) = (   1.8679236   1.3123626  12.3121911  )
         7           Tl1 tau(   7) = (   2.8260423   3.9710321  12.3121911  )
         8           Tl1 tau(   8) = (   4.6939658   1.3123626  12.3121911  )
         9           Co1 tau(   9) = (   3.7351284   2.6242189  14.4680407  )
        10           Co1 tau(  10) = (   7.5195498   5.2830754  14.4682284  )
        11           Tl1 tau(  11) = (   6.5606370   2.6229858  15.0200403  )
        12           Tl1 tau(  12) = (   4.6919036   5.2828074  15.0200498  )

     number of k points=    40  Fermi-Dirac smearing, width (Ry)=  0.0110
                       cart. coord. in units 2pi/alat
        k(    1) = (   0.0000000   0.0000000   0.0000000), wk =   0.0277778
        k(    2) = (   0.0000000   0.0313440   0.0000000), wk =   0.0555556
        k(    3) = (   0.0000000   0.0626880   0.0000000), wk =   0.0555556
        k(    4) = (   0.0000000  -0.0940320   0.0000000), wk =   0.0277778
        k(    5) = (   0.0294876  -0.0106266   0.0000000), wk =   0.0555556
        k(    6) = (   0.0294876   0.0207174   0.0000000), wk =   0.0555556
        k(    7) = (   0.0294876   0.0520614   0.0000000), wk =   0.0555556
        k(    8) = (   0.0294876  -0.1046586   0.0000000), wk =   0.0555556
        k(    9) = (   0.0294876  -0.0733146   0.0000000), wk =   0.0555556
        k(   10) = (   0.0294876  -0.0419706   0.0000000), wk =   0.0555556
        k(   11) = (   0.0589753  -0.0212532   0.0000000), wk =   0.0555556
        k(   12) = (   0.0589753   0.0100908   0.0000000), wk =   0.0555556
        k(   13) = (   0.0589753   0.0414348   0.0000000), wk =   0.0555556
        k(   14) = (   0.0589753  -0.1152852   0.0000000), wk =   0.0555556
        k(   15) = (   0.0589753  -0.0839412   0.0000000), wk =   0.0555556
        k(   16) = (   0.0589753  -0.0525972   0.0000000), wk =   0.0555556
        k(   17) = (  -0.0884629   0.0318799   0.0000000), wk =   0.0277778
        k(   18) = (  -0.0884629   0.0632239   0.0000000), wk =   0.0555556
        k(   19) = (  -0.0884629   0.0945679   0.0000000), wk =   0.0555556
        k(   20) = (  -0.0884629  -0.0621521   0.0000000), wk =   0.0277778
        k(   21) = (   0.0000000   0.0000000   0.0000000), wk =   0.0277778
        k(   22) = (   0.0000000   0.0313440   0.0000000), wk =   0.0555556
        k(   23) = (   0.0000000   0.0626880   0.0000000), wk =   0.0555556
        k(   24) = (   0.0000000  -0.0940320   0.0000000), wk =   0.0277778
        k(   25) = (   0.0294876  -0.0106266   0.0000000), wk =   0.0555556
        k(   26) = (   0.0294876   0.0207174   0.0000000), wk =   0.0555556
        k(   27) = (   0.0294876   0.0520614   0.0000000), wk =   0.0555556
        k(   28) = (   0.0294876  -0.1046586   0.0000000), wk =   0.0555556
        k(   29) = (   0.0294876  -0.0733146   0.0000000), wk =   0.0555556
        k(   30) = (   0.0294876  -0.0419706   0.0000000), wk =   0.0555556
        k(   31) = (   0.0589753  -0.0212532   0.0000000), wk =   0.0555556
        k(   32) = (   0.0589753   0.0100908   0.0000000), wk =   0.0555556
        k(   33) = (   0.0589753   0.0414348   0.0000000), wk =   0.0555556
        k(   34) = (   0.0589753  -0.1152852   0.0000000), wk =   0.0555556
        k(   35) = (   0.0589753  -0.0839412   0.0000000), wk =   0.0555556
        k(   36) = (   0.0589753  -0.0525972   0.0000000), wk =   0.0555556
        k(   37) = (  -0.0884629   0.0318799   0.0000000), wk =   0.0277778
        k(   38) = (  -0.0884629   0.0632239   0.0000000), wk =   0.0555556
        k(   39) = (  -0.0884629   0.0945679   0.0000000), wk =   0.0555556
        k(   40) = (  -0.0884629  -0.0621521   0.0000000), wk =   0.0277778

     Largest allocated arrays     est. size (Mb)     dimensions
     Largest temporary arrays     est. size (Mb)     dimensions

     Check: negative/imaginary core charge=   -0.000003    0.000000

     Initial potential from superposition of free atoms
     Check: negative starting charge=(component1):   -0.174734
     Check: negative starting charge=(component2):   -0.128122

     starting charge  173.97076, renormalised to  180.00000

[...]

     *
     * You are using vdW-DF for exchange-correlation in this calculation.
     * Please cite the following three references that made this development
     * possible:
     *
     *   M. Dion, H. Rydberg, E. Schroder, D. C. Langreth, and
     *   B. I. Lundqvist, Phys. Rev. Lett. 92, 246401 (2004).
     *
     *   T. Thonhauser, V. R. Cooper, S. Li, A. Puzder, P. Hyldgaard, and
     *   D. C. Langreth, Phys. Rev. B 76, 125112 (2007).
     *
     *   G. Roman-Perez and J. M. Soler, Phys. Rev. Lett. 103, 096102 (2009).
     *
     *
     * If you are using vdW-DF2, please also cite:
     *
     *   K. Lee, E. D. Murray, L. Kong, B. I. Lundqvist, and
     *   D. C. Langreth, Phys. Rev. B 82, 081101(R) (2010).
     *
     *
     * If you are calculating the stress with vdW-DF, please also cite:
     *
     *   R. Sabatini, E. Kucukbenli, B. Kolb, T. Thonhauser, and
     *   S. de Gironcoli, J. Phys.: Condens. Matter 24, 424209 (2012).
     *

     Carrying out vdW-DF run using the following parameters:

     Nqs =      20    Nr_points =    1024   r_max =   100.000
     q_mesh =
               0.00001000     0.04494208     0.09755937     0.15916263
               0.23128650     0.31572767     0.41458969     0.53033537
               0.66584808     0.82450364     1.01025438     1.22772762
               1.48234092     1.78043706     2.12944203     2.53805004
               3.01644009     3.57652955     4.23227104     5.00000000

     Gradients computed in reciprocal space

[...]

     Starting wfc are  132 randomized atomic wfcs

     Self-consistent Calculation

[...]

     total energy              =   -2677.44334559 Ry
     Harris-Foulkes estimate   =   -2677.44334570 Ry
     estimated scf accuracy    <       0.00000146 Ry

[...]

     iteration # 34     ecut=    36.75 Ry     beta=0.10
     Davidson diagonalization with overlap
     ethr =  8.10E-10,  avg # of iterations =  2.0

[...]

     negative rho (up, down):  1.634E-01 1.640E-01

[...]

     Adding external electric field

     Computed dipole along edir(3) :
        Dipole                0.0332 Ry au,          0.0844 Debye
        Dipole field          0.0001 Ry au

        Potential amp.       -0.0076 Ry
        Total length         45.3700 bohr

     Magnetic moment per site:
     atom:    1    charge:    8.3216    magn:    0.8048    constr:    0.0000
     atom:    2    charge:    8.3217    magn:    0.8047    constr:    0.0000
     atom:    3    charge:    1.4372    magn:   -0.0021    constr:    0.0000
     atom:    4    charge:    1.4372    magn:   -0.0021    constr:    0.0000
     atom:    5    charge:    8.3042    magn:    0.7487    constr:    0.0000
     atom:    6    charge:    8.3041    magn:    0.7487    constr:    0.0000
     atom:    7    charge:    1.4308    magn:   -0.0019    constr:    0.0000
     atom:    8    charge:    1.4308    magn:   -0.0019    constr:    0.0000
     atom:    9    charge:    8.3100    magn:    0.8205    constr:    0.0000
     atom:   10    charge:    8.3101    magn:    0.8205    constr:    0.0000
     atom:   11    charge:    1.4283    magn:   -0.0011    constr:    0.0000
     atom:   12    charge:    1.4283    magn:   -0.0011    constr:    0.0000

     End of self-consistent calculation

 ------ SPIN UP ------------

[...]

 ------ SPIN DOWN ----------

[...]

          k = 0.0590-0.0526 0.0000 ( 18779 PWs)   bands (ev):

[...]

          k =-0.0885-0.0622 0.0000 ( 18780 PWs)   bands (ev):

   -92.5827 -92.5823 -92.5717 -92.5714 -92.5644 -92.5640 -56.0050 -56.0042
   -55.9658 -55.9649 -55.9637 -55.9605 -55.9583 -55.9556 -55.9525 -55.9503
   -55.9399 -55.9385 -55.9362 -55.9359 -55.9349 -55.9347 -55.9211 -55.9205
   -11.1731 -11.0582 -11.0039 -10.9874 -10.8906 -10.8743 -10.8655 -10.7875
   -10.7511 -10.7371 -10.7321 -10.6630 -10.6317 -10.6166 -10.6094 -10.5997
   -10.5773 -10.5555 -10.4943 -10.4568 -10.4340 -10.4233 -10.4103 -10.4065
   -10.3885 -10.3029 -10.2828 -10.2316 -10.1791 -10.0866  -7.0985  -6.7913
    -5.9268  -5.5848  -4.1006  -3.5232  -3.4293  -2.4425  -2.4342  -1.8071
    -1.2930  -1.2129  -0.8902  -0.4002  -0.1640  -0.0297   0.1003   0.1233
     0.1873   0.2351   0.3407   0.4203   0.4508   0.4519   0.5290   0.6612
     0.6903   0.7241   0.9395   0.9714   0.9808   0.9878   1.0197   1.0553
     1.2761   1.3311   1.3871   1.4005   1.6360   1.6588   1.7567   2.4632
     2.5035   3.0848   3.7474   4.0288   4.8421   5.3369   5.6378   5.6969
     5.7268   5.9749   6.0156   6.2474   6.3345   6.5947   6.6955   6.7293
     6.7760   7.2955   7.4087   7.4157   7.6718   7.6721   7.6809   7.9996

     the Fermi energy is     1.0033 ev

!    total energy              =   -2677.44334728 Ry
     Harris-Foulkes estimate   =   -2677.44334730 Ry
     estimated scf accuracy    <       0.00000037 Ry

     The total energy is the sum of the following terms:

     one-electron contribution =  -16694.56094522 Ry
     hartree contribution      =    8394.81806388 Ry
     xc contribution           =    -587.06509880 Ry
     ewald contribution        =    6209.46597021 Ry
     electric field correction =       0.00000277 Ry
     smearing contrib. (-TS)   =      -0.10134014 Ry

     total magnetization       =     8.42 Bohr mag/cell
     absolute magnetization    =    10.27 Bohr mag/cell

     convergence has been achieved in  34 iterations

 BEEF-vdW xc energy contributions
           1 :   -521.073154713486
           2 :    479.916839147614
           3 :   -408.546657232013
           4 :    324.071268558609
           5 :   -243.074711128900
           6 :    176.220384408787
           7 :   -126.364749200716
           8 :    90.2879706852818
           9 :   -62.4767866555908
          10 :    38.6655965081362
          11 :   -17.5071926978071
          12 :   4.255427721432170E-002
          13 :    12.0698195343919
          14 :   -18.2061264917240
          15 :    19.3492299688837
          16 :   -17.5457817576912
          17 :    14.8627557574342
          18 :   -12.6070841329442
          19 :    11.1564798521010
          20 :   -10.2965661630597
          21 :    9.67148041560631
          22 :   -9.05830481228872
          23 :    8.38969074737065
          24 :   -7.67001181914964
          25 :    6.92150054820513
          26 :   -6.21008807226576
          27 :    5.66331014535558
          28 :   -5.41456673364041
          29 :    5.47755179456658
          30 :   -5.66819162858314
          31 :   -42.5444191463680
          32 :   -30.5634218379612

     Forces acting on atoms (Ry/au):

     negative rho (up, down):  1.634E-01 1.640E-01
     atom    1 type  1   force =     0.00049146    0.00034542    0.02027314
     atom    2 type  1   force =     0.00047207    0.00033122    0.02026303
     atom    3 type  2   force =    -0.00101767   -0.00068774   -0.03839311
     atom    4 type  2   force =    -0.00099200   -0.00072420   -0.03839344
     atom    5 type  1   force =    -0.00019994   -0.00014027    0.01702979
     atom    6 type  1   force =    -0.00023162   -0.00016303    0.01700626
     atom    7 type  2   force =     0.00099482    0.00075530    0.00089546
     atom    8 type  2   force =     0.00104716    0.00067949    0.00089500
     atom    9 type  1   force =    -0.00083669   -0.00058799    0.00068698
     atom   10 type  1   force =    -0.00093712   -0.00065806    0.00064827
     atom   11 type  2   force =     0.00048821    0.00059072   -0.00045525
     atom   12 type  2   force =     0.00072132    0.00025914   -0.00045613

     Total force =     0.066048     Total SCF correction =     0.002002

     entering subroutine stress ...

     negative rho (up, down):  1.634E-01 1.640E-01
          total   stress  (Ry/bohr**3)                   (kbar)     P=  -14.84
  -0.00015840  -0.00004337   0.00000072        -23.30     -6.38      0.11
  -0.00004337  -0.00012714   0.00000050         -6.38    -18.70      0.07
   0.00000072   0.00000050  -0.00001719          0.11      0.07     -2.53

 !ASE

     Writing output data file calc.save

     General routines

     Parallel routines

   This run was terminated on:  11:27:28  19Dec2018

   JOB DONE.
Job  /afs/slac/g/suncat/bin/suncat-tsmpirun -x LD_LIBRARY_PATH -wdir /scratch/qe529704_LeDSO pw.x -in pw.inp

TID   HOST_NAME   COMMAND_LINE            STATUS            TERMINATION_TIME
00000 suncat0271 pw.x -in pw.inp   Done                     12/19/2018 11:27:28
00001 suncat0271 pw.x -in pw.inp   Done                     12/19/2018 11:27:28
00002 suncat0271 pw.x -in pw.inp   Done                     12/19/2018 11:27:28
00003 suncat0271 pw.x -in pw.inp   Done                     12/19/2018 11:27:28
00004 suncat0271 pw.x -in pw.inp   Done                     12/19/2018 11:27:28
00005 suncat0271 pw.x -in pw.inp   Done                     12/19/2018 11:27:28
00006 suncat0271 pw.x -in pw.inp   Done                     12/19/2018 11:27:28
00007 suncat0271 pw.x -in pw.inp   Done                     12/19/2018 11:27:28
00008 suncat0270 pw.x -in pw.inp   Done                     12/19/2018 11:27:28
00009 suncat0270 pw.x -in pw.inp   Done                     12/19/2018 11:27:28
00010 suncat0270 pw.x -in pw.inp   Done                     12/19/2018 11:27:28
00011 suncat0270 pw.x -in pw.inp   Done                     12/19/2018 11:27:28
00012 suncat0270 pw.x -in pw.inp   Done                     12/19/2018 11:27:28
00013 suncat0270 pw.x -in pw.inp   Done                     12/19/2018 11:27:28
00014 suncat0270 pw.x -in pw.inp   Done                     12/19/2018 11:27:28
00015 suncat0270 pw.x -in pw.inp   Done                     12/19/2018 11:27:28
00016 suncat0268 pw.x -in pw.inp   Done                     12/19/2018 11:27:28
00017 suncat0268 pw.x -in pw.inp   Done                     12/19/2018 11:27:28
00018 suncat0268 pw.x -in pw.inp   Done                     12/19/2018 11:27:28
00019 suncat0268 pw.x -in pw.inp   Done                     12/19/2018 11:27:28
00020 suncat0268 pw.x -in pw.inp   Done                     12/19/2018 11:27:28
00021 suncat0268 pw.x -in pw.inp   Done                     12/19/2018 11:27:28
00022 suncat0268 pw.x -in pw.inp   Done                     12/19/2018 11:27:28
00023 suncat0268 pw.x -in pw.inp   Done                     12/19/2018 11:27:28
00024 suncat0267 pw.x -in pw.inp   Done                     12/19/2018 11:27:28
00025 suncat0267 pw.x -in pw.inp   Done                     12/19/2018 11:27:28
00026 suncat0267 pw.x -in pw.inp   Done                     12/19/2018 11:27:28
00027 suncat0267 pw.x -in pw.inp   Done                     12/19/2018 11:27:28
00028 suncat0267 pw.x -in pw.inp   Done                     12/19/2018 11:27:28
00029 suncat0267 pw.x -in pw.inp   Done                     12/19/2018 11:27:28
00030 suncat0267 pw.x -in pw.inp   Done                     12/19/2018 11:27:28
00031 suncat0267 pw.x -in pw.inp   Done                     12/19/2018 11:27:28