     Program PWSCF v.5.1rc2 (svn rev. 11289) starts on 18Dec2018 at 19:40:44

     Current dimensions of program PWSCF are:
     Max number of different atomic species (ntypx) = 10
     Max number of k-points (npk) =  40000
     Max angular momentum in pseudopotentials (lmaxx) =  3
     Presently stress not available with electric field

     IMPORTANT: XC functional enforced from input :
     Exchange-correlation      = BEEF-VDW ( 1  4 27 13 2)
     Any further DFT definition will be discarded
     Please, verify this is what you really want

     Subspace diagonalization in iterative solution of the eigenvalue problem:
     a serial algorithm will be used

     Found symmetry operation: I + (  0.5000  0.0000  0.0000)
     This is a supercell, fractional translations are disabled

     bravais-lattice index     =            0
     lattice parameter (alat)  =       1.8897  a.u.
     unit-cell volume          =    5498.3897 (a.u.)^3
     number of atoms/cell      =           12
     number of atomic types    =            2
     number of electrons       =       150.00
     number of Kohn-Sham states=          105
     kinetic-energy cutoff     =      36.7493  Ry
     charge density cutoff     =     367.4932  Ry
     convergence threshold     =      1.0E-06
     mixing beta               =       0.1000
     number of iterations used =           10  plain     mixing
     Exchange-correlation      = BEEF-VDW ( 1  4 27 13 2)
     nstep                     =           50

     celldm(1)=   1.889726  celldm(2)=   0.000000  celldm(3)=   0.000000
     celldm(4)=   0.000000  celldm(5)=   0.000000  celldm(6)=   0.000000

     crystal axes: (cart. coord. in units of alat)
               a(1) = (   5.886139   0.000000   0.000000 )
               a(2) = (  -2.943070   5.539845   0.000000 )
               a(3) = (   0.000000   0.000000  24.986808 )

     reciprocal axes: (cart. coord. in units 2 pi/alat)
               b(1) = (  0.169891  0.090255  0.000000 )
               b(2) = (  0.000000  0.180510  0.000000 )
               b(3) = (  0.000000  0.000000  0.040021 )

     PseudoPot. # 1 for Nb read from file:
     /afs/slac.stanford.edu/u/if/mamunm/psp/gbrv1.5pbe/Nb.UPF
     MD5 check sum: 573aab8a2fa660278ed4a62cd769473f
     Pseudo is Ultrasoft + core correction, Zval = 13.0
     Generated by new atomic code, or converted to UPF format
     Using radial grid of  887 points,  6 beta functions with:
                l(1) =   0
                l(2) =   0
                l(3) =   1
                l(4) =   1
                l(5) =   2
                l(6) =   2
     Q(r) pseudized with  6 coefficients,  rinner =    1.000   1.000   1.000
                                                       1.000   1.000

     PseudoPot. # 2 for Hf read from file:
     /afs/slac.stanford.edu/u/if/mamunm/psp/gbrv1.5pbe/Hf.UPF
     MD5 check sum: 8ee9378dfe14276e333edf04c5e4aa26
     Pseudo is Ultrasoft + core correction, Zval = 12.0
     Generated by new atomic code, or converted to UPF format
     Using radial grid of  921 points,  8 beta functions with:
                l(1) =   0
                l(2) =   0
                l(3) =   0
                l(4) =   1
                l(5) =   1
                l(6) =   2
                l(7) =   2
                l(8) =   3
     Q(r) pseudized with  6 coefficients,  rinner =    1.200   1.200   1.200
                                                       1.200   1.200   1.200
                                                       1.200

     vdW kernel table read from file vdW_kernel_table
     MD5 check sum: 095c7af220d748ca6e76c0b4c6cfb241

     atomic species   valence    mass     pseudopotential
        Nb1           13.00    92.90637     Nb( 1.00)
        Hf1           12.00   178.49000     Hf( 1.00)

     No symmetry found

   Cartesian axes

     site n.     atom                  positions (alat units)
         1           Nb1 tau(   1) = (   0.0000000   0.0000000  10.0000000  )
         2           Nb1 tau(   2) = (   2.9430695   0.0000000  10.0000000  )
         3           Hf1 tau(   3) = (   1.4715348   2.7699225  10.0000000  )
         4           Hf1 tau(   4) = (  -1.4715348   2.7699225  10.0000000  )
         5           Nb1 tau(   5) = (   2.9430695   1.5635199  12.4934040  )
         6           Nb1 tau(   6) = (   0.0000000   1.5635199  12.4934040  )
         7           Hf1 tau(   7) = (  -1.4715348   4.3334425  12.4934040  )
         8           Hf1 tau(   8) = (   1.4715348   4.3334425  12.4934040  )
         9           Nb1 tau(   9) = (  -0.0000000   3.1270399  14.9868080  )
        10           Nb1 tau(  10) = (   2.9430695   3.1270399  14.9868080  )
        11           Hf1 tau(  11) = (   4.4146043   0.3571173  14.9868080  )
        12           Hf1 tau(  12) = (   1.4715348   0.3571173  14.9868080  )

     number of k points=    20  Fermi-Dirac smearing, width (Ry)=  0.0110
                       cart. coord. in units 2pi/alat
        k(    1) = (   0.0000000   0.0000000   0.0000000), wk =   0.0555556
        k(    2) = (   0.0000000   0.0300851   0.0000000), wk =   0.1111111
        k(    3) = (   0.0000000   0.0601702   0.0000000), wk =   0.1111111
        k(    4) = (   0.0000000  -0.0902552   0.0000000), wk =   0.0555556
        k(    5) = (   0.0283151   0.0150425   0.0000000), wk =   0.1111111
        k(    6) = (   0.0283151   0.0451276   0.0000000), wk =   0.1111111
        k(    7) = (   0.0283151   0.0752127   0.0000000), wk =   0.1111111
        k(    8) = (   0.0283151  -0.0752127   0.0000000), wk =   0.1111111
        k(    9) = (   0.0283151  -0.0451276   0.0000000), wk =   0.1111111
        k(   10) = (   0.0283151  -0.0150425   0.0000000), wk =   0.1111111
        k(   11) = (   0.0566302   0.0300851   0.0000000), wk =   0.1111111
        k(   12) = (   0.0566302   0.0601702   0.0000000), wk =   0.1111111
        k(   13) = (   0.0566302   0.0902552   0.0000000), wk =   0.1111111
        k(   14) = (   0.0566302  -0.0601702   0.0000000), wk =   0.1111111
        k(   15) = (   0.0566302  -0.0300851   0.0000000), wk =   0.1111111
        k(   16) = (   0.0566302  -0.0000000   0.0000000), wk =   0.1111111
        k(   17) = (  -0.0849453  -0.0451276   0.0000000), wk =   0.0555556
        k(   18) = (  -0.0849453  -0.0150425   0.0000000), wk =   0.1111111
        k(   19) = (  -0.0849453   0.0150425   0.0000000), wk =   0.1111111
        k(   20) = (  -0.0849453  -0.1353828   0.0000000), wk =   0.0555556

     Largest allocated arrays     est. size (Mb)     dimensions
     Largest temporary arrays     est. size (Mb)     dimensions

     Check: negative/imaginary core charge=   -0.000003    0.000000

     Initial potential from superposition of free atoms
     Check: negative starting charge=   -0.653680

     starting charge  137.98359, renormalised to  150.00000

     negative rho (up, down):  7.106E-01 0.000E+00

     *
     * You are using vdW-DF for exchange-correlation in this calculation.
     * Please cite the following three references that made this development
     * possible:
     *
     *   M. Dion, H. Rydberg, E. Schroder, D. C. Langreth, and
     *   B. I. Lundqvist, Phys. Rev. Lett. 92, 246401 (2004).
     *
     *   T. Thonhauser, V. R. Cooper, S. Li, A. Puzder, P. Hyldgaard, and
     *   D. C. Langreth, Phys. Rev. B 76, 125112 (2007).
     *
     *   G. Roman-Perez and J. M. Soler, Phys. Rev. Lett. 103, 096102 (2009).
     *
     *
     * If you are using vdW-DF2, please also cite:
     *
     *   K. Lee, E. D. Murray, L. Kong, B. I. Lundqvist, and
     *   D. C. Langreth, Phys. Rev. B 82, 081101(R) (2010).
     *
     *
     * If you are calculating the stress with vdW-DF, please also cite:
     *
     *   R. Sabatini, E. Kucukbenli, B. Kolb, T. Thonhauser, and
     *   S. de Gironcoli, J. Phys.: Condens. Matter 24, 424209 (2012).
     *

     Carrying out vdW-DF run using the following parameters:

     Nqs =      20    Nr_points =    1024   r_max =   100.000
     q_mesh =
               0.00001000     0.04494208     0.09755937     0.15916263
               0.23128650     0.31572767     0.41458969     0.53033537
               0.66584808     0.82450364     1.01025438     1.22772762
               1.48234092     1.78043706     2.12944203     2.53805004
               3.01644009     3.57652955     4.23227104     5.00000000

     Gradients computed in reciprocal space

     Adding external electric field

     Computed dipole along edir(3) :
        Dipole               -0.0000 Ry au,         -0.0000 Debye
        Dipole field         -0.0000 Ry au

        Potential amp.        0.0000 Ry
        Total length         46.0378 bohr

     Starting wfc are  156 randomized atomic wfcs

     Self-consistent Calculation

     iteration #  1     ecut=    36.75 Ry     beta=0.10
     Davidson diagonalization with overlap
     ethr =  1.00E-02,  avg # of iterations =  8.4

[...]

     total energy              =   -1676.84674234 Ry
     Harris-Foulkes estimate   =   -1682.24605390 Ry
     estimated scf accuracy    <      33.47957751 Ry

[...]

     End of self-consistent calculation

          k = 0.0000 0.0000 0.0000 ( 20689 PWs)   bands (ev):

   -60.7951 -60.7943 -60.7452 -60.7445 -60.3686 -60.3182 -53.4010 -53.3931
   -53.3288 -53.3212 -53.3121 -53.2401 -29.8266 -29.8044 -29.7746 -29.7671
   -29.7479 -29.7292 -29.7124 -29.6552 -29.6373 -29.6360 -29.4818 -29.3861
   -29.3782 -29.3691 -29.3453 -29.3296 -29.2513 -29.2355 -29.2244 -29.1450
   -29.1403 -29.1389 -29.1087 -29.0670 -29.0556 -29.0414 -29.0390 -29.0284
   -28.9739 -28.8888 -28.8808 -28.8268 -28.7748 -28.7426 -28.7114 -28.5477
    -4.5028  -3.1811  -2.2677  -1.7415  -1.5941  -1.5761  -1.4333  -1.3648
    -1.2088  -1.0091  -0.9100  -0.7137  -0.7055  -0.6562  -0.5582   0.1834
     0.3645   0.4285   0.9108   1.1895   1.3904   1.4463   1.6217   1.6954
     1.7230   1.9352   2.0488   2.2236   2.3458   2.3716   2.4617   2.5039
     2.5645   2.6438   2.9255   2.9468   3.0600   3.1835   3.2866   3.2980
     3.4619   3.5541   3.6207   3.8735   3.9204   4.1188   4.4058   4.6374
     4.7220   4.8433   4.9474   5.1355   5.2585   5.2735   5.2909   5.4799
     5.9731

[...]

          k =-0.0849-0.0451 0.0000 ( 20686 PWs)   bands (ev):

[...]

     the Fermi energy is     1.6359 ev

!    total energy              =   -1674.34997798 Ry
     Harris-Foulkes estimate   =   -1674.34997708 Ry
     estimated scf accuracy    <       0.00000093 Ry

     The total energy is the sum of the following terms:

     one-electron contribution =   -9896.01787836 Ry
     hartree contribution      =    4935.76552121 Ry
     xc contribution           =    -578.17418832 Ry
     ewald contribution        =    3864.18876955 Ry
     electric field correction =       0.00000000 Ry
     smearing contrib. (-TS)   =      -0.11220206 Ry

     convergence has been achieved in  19 iterations

 BEEF-vdW xc energy contributions
           1 :   -517.628844348186
           2 :    479.336861861708
           3 :   -411.927464511427
           4 :    330.123787458448
           5 :   -249.041935336843
           6 :    179.710291932549
           7 :   -127.042270164613
           8 :    90.4936828702237
[...]

[...]

   This run was terminated on:  19:51:19  18Dec2018

[...]

   This run was terminated on:  20: 3:17  18Dec2018

[...]

     Program PWSCF v.5.1rc2 (svn rev. 11289) starts on 18Dec2018 at 20: 3:24

[...]

   This run was terminated on:  20: 9:15  18Dec2018

[...]

     Program PWSCF v.5.1rc2 (svn rev. 11289) starts on 18Dec2018 at 20: 9:20

[...]

     Program PWSCF v.5.1rc2 (svn rev. 11289) starts on 18Dec2018 at 20:27:41

     Current dimensions of program PWSCF are:
     Max number of different atomic species (ntypx) = 10
     Max number of k-points (npk) =  40000
     Max angular momentum in pseudopotentials (lmaxx) =  3
     Presently stress not available with electric field

     IMPORTANT: XC functional enforced from input :
     Exchange-correlation      = BEEF-VDW ( 1  4 27 13 2)
     Any further DFT definition will be discarded
     Please, verify this is what you really want

     Subspace diagonalization in iterative solution of the eigenvalue problem:
     a serial algorithm will be used

     Found symmetry operation: I + (  0.5000  0.0000  0.0000)
     This is a supercell, fractional translations are disabled

     bravais-lattice index     =            0
     lattice parameter (alat)  =       1.8897  a.u.
     unit-cell volume          =    5498.3897 (a.u.)^3
     number of atoms/cell      =           12
     number of atomic types    =            2
     number of electrons       =       150.00
     number of Kohn-Sham states=          105
     kinetic-energy cutoff     =      36.7493  Ry
     charge density cutoff     =     367.4932  Ry
     convergence threshold     =      1.0E-06
     mixing beta               =       0.1000
     number of iterations used =           10  plain     mixing
     Exchange-correlation      = BEEF-VDW ( 1  4 27 13 2)
     nstep                     =           50

     celldm(1)=   1.889726  celldm(2)=   0.000000  celldm(3)=   0.000000
     celldm(4)=   0.000000  celldm(5)=   0.000000  celldm(6)=   0.000000

     crystal axes: (cart. coord. in units of alat)
               a(1) = (   5.886139   0.000000   0.000000 )
               a(2) = (  -2.943070   5.539845   0.000000 )
               a(3) = (   0.000000   0.000000  24.986808 )

     reciprocal axes: (cart. coord. in units 2 pi/alat)
               b(1) = (  0.169891  0.090255  0.000000 )
               b(2) = (  0.000000  0.180510  0.000000 )
               b(3) = (  0.000000  0.000000  0.040021 )

     PseudoPot. # 1 for Nb read from file:
     /afs/slac.stanford.edu/u/if/mamunm/psp/gbrv1.5pbe/Nb.UPF
     MD5 check sum: 573aab8a2fa660278ed4a62cd769473f
     Pseudo is Ultrasoft + core correction, Zval = 13.0
     Generated by new atomic code, or converted to UPF format
     Using radial grid of  887 points,  6 beta functions with:
                l(1) =   0
                l(2) =   0
                l(3) =   1
                l(4) =   1
                l(5) =   2
                l(6) =   2
     Q(r) pseudized with  6 coefficients,  rinner =    1.000   1.000   1.000
                                                       1.000   1.000

     PseudoPot. # 2 for Hf read from file:
     /afs/slac.stanford.edu/u/if/mamunm/psp/gbrv1.5pbe/Hf.UPF
     MD5 check sum: 8ee9378dfe14276e333edf04c5e4aa26
     Pseudo is Ultrasoft + core correction, Zval = 12.0
     Generated by new atomic code, or converted to UPF format
     Using radial grid of  921 points,  8 beta functions with:
                l(1) =   0
                l(2) =   0
                l(3) =   0
                l(4) =   1
                l(5) =   1
                l(6) =   2
                l(7) =   2
                l(8) =   3
     Q(r) pseudized with  6 coefficients,  rinner =    1.200   1.200   1.200
                                                       1.200   1.200   1.200
                                                       1.200

     vdW kernel table read from file vdW_kernel_table
     MD5 check sum: 095c7af220d748ca6e76c0b4c6cfb241

     atomic species   valence    mass     pseudopotential
        Nb1           13.00    92.90637     Nb( 1.00)
        Hf1           12.00   178.49000     Hf( 1.00)

     No symmetry found

   Cartesian axes

     site n.     atom                  positions (alat units)
         1           Nb1 tau(   1) = (   0.0000000   0.0000000  10.0000000  )
         2           Nb1 tau(   2) = (   2.9430695   0.0000000  10.0000000  )
         3           Hf1 tau(   3) = (   1.4715348   2.7699225  10.0000000  )
         4           Hf1 tau(   4) = (  -1.4715348   2.7699225  10.0000000  )
         5           Nb1 tau(   5) = (   2.9430695   1.5635199  12.4934040  )
         6           Nb1 tau(   6) = (   0.0000000   1.5635199  12.4934040  )
         7           Hf1 tau(   7) = (  -1.4715348   4.3334425  12.4934040  )
         8           Hf1 tau(   8) = (   1.4715348   4.3334425  12.4934040  )
         9           Nb1 tau(   9) = (   0.0001688   3.0634119  14.7704236  )
        10           Nb1 tau(  10) = (   2.9432383   3.0634118  14.7704220  )
        11           Hf1 tau(  11) = (   4.4148258   0.3850712  15.0262310  )
        12           Hf1 tau(  12) = (   1.4717916   0.3850686  15.0262361  )

     number of k points=    20  Fermi-Dirac smearing, width (Ry)=  0.0110
                       cart. coord. in units 2pi/alat
        k(    1) = (   0.0000000   0.0000000   0.0000000), wk =   0.0555556
        k(    2) = (   0.0000000   0.0300851   0.0000000), wk =   0.1111111
        k(    3) = (   0.0000000   0.0601702   0.0000000), wk =   0.1111111
        k(    4) = (   0.0000000  -0.0902552   0.0000000), wk =   0.0555556
        k(    5) = (   0.0283151   0.0150425   0.0000000), wk =   0.1111111
        k(    6) = (   0.0283151   0.0451276   0.0000000), wk =   0.1111111
        k(    7) = (   0.0283151   0.0752127   0.0000000), wk =   0.1111111
        k(    8) = (   0.0283151  -0.0752127   0.0000000), wk =   0.1111111
        k(    9) = (   0.0283151  -0.0451276   0.0000000), wk =   0.1111111
        k(   10) = (   0.0283151  -0.0150425   0.0000000), wk =   0.1111111
        k(   11) = (   0.0566302   0.0300851   0.0000000), wk =   0.1111111
        k(   12) = (   0.0566302   0.0601702   0.0000000), wk =   0.1111111
        k(   13) = (   0.0566302   0.0902552   0.0000000), wk =   0.1111111
        k(   14) = (   0.0566302  -0.0601702   0.0000000), wk =   0.1111111
        k(   15) = (   0.0566302  -0.0300851   0.0000000), wk =   0.1111111
        k(   16) = (   0.0566302  -0.0000000   0.0000000), wk =   0.1111111
        k(   17) = (  -0.0849453  -0.0451276   0.0000000), wk =   0.0555556
        k(   18) = (  -0.0849453  -0.0150425   0.0000000), wk =   0.1111111
        k(   19) = (  -0.0849453   0.0150425   0.0000000), wk =   0.1111111
        k(   20) = (  -0.0849453  -0.1353828   0.0000000), wk =   0.0555556

     Largest allocated arrays     est. size (Mb)     dimensions
     Largest temporary arrays     est. size (Mb)     dimensions

     Check: negative/imaginary core charge=   -0.000003    0.000000

     Initial potential from superposition of free atoms
     Check: negative starting charge=   -0.651303

     starting charge  137.98359, renormalised to  150.00000

[...]

     *
     * You are using vdW-DF for exchange-correlation in this calculation.
     * Please cite the following three references that made this development
     * possible:
     *
     *   M. Dion, H. Rydberg, E. Schroder, D. C. Langreth, and
     *   B. I. Lundqvist, Phys. Rev. Lett. 92, 246401 (2004).
     *
     *   T. Thonhauser, V. R. Cooper, S. Li, A. Puzder, P. Hyldgaard, and
     *   D. C. Langreth, Phys. Rev. B 76, 125112 (2007).
     *
     *   G. Roman-Perez and J. M. Soler, Phys. Rev. Lett. 103, 096102 (2009).
     *
     *
     * If you are using vdW-DF2, please also cite:
     *
     *   K. Lee, E. D. Murray, L. Kong, B. I. Lundqvist, and
     *   D. C. Langreth, Phys. Rev. B 82, 081101(R) (2010).
     *
     *
     * If you are calculating the stress with vdW-DF, please also cite:
     *
     *   R. Sabatini, E. Kucukbenli, B. Kolb, T. Thonhauser, and
     *   S. de Gironcoli, J. Phys.: Condens. Matter 24, 424209 (2012).
     *

     Carrying out vdW-DF run using the following parameters:

     Nqs =      20    Nr_points =    1024   r_max =   100.000
     q_mesh =
               0.00001000     0.04494208     0.09755937     0.15916263
               0.23128650     0.31572767     0.41458969     0.53033537
               0.66584808     0.82450364     1.01025438     1.22772762
               1.48234092     1.78043706     2.12944203     2.53805004
               3.01644009     3.57652955     4.23227104     5.00000000

     Gradients computed in reciprocal space

[...]

     Starting wfc are  156 randomized atomic wfcs

     Self-consistent Calculation

[...]

     total energy              =   -1674.36662323 Ry
     Harris-Foulkes estimate   =   -1674.36662299 Ry
     estimated scf accuracy    <       0.00000131 Ry

     iteration # 21     ecut=    36.75 Ry     beta=0.10
     Davidson diagonalization with overlap
     ethr =  8.75E-10,  avg # of iterations =  2.1

[...]

     negative rho (up, down):  6.914E-01 0.000E+00

     Adding external electric field

     Computed dipole along edir(3) :
        Dipole                0.0659 Ry au,          0.1674 Debye
        Dipole field          0.0002 Ry au

        Potential amp.       -0.0139 Ry
        Total length         46.0378 bohr

     End of self-consistent calculation

[...]

          k = 0.0566-0.0000 0.0000 ( 20717 PWs)   bands (ev):

[...]

          k =-0.0849-0.1354 0.0000 ( 20686 PWs)   bands (ev):

   -60.8000 -60.8000 -60.7107 -60.7107 -60.2462 -60.2462 -53.3010 -53.3010
   -53.2200 -53.2200 -53.1346 -53.1346 -29.6729 -29.6729 -29.5405 -29.5405
   -29.4996 -29.4996 -29.4576 -29.4576 -29.4279 -29.4279 -29.3556 -29.3556
   -29.3320 -29.3319 -29.3115 -29.3115 -29.2617 -29.2617 -29.2334 -29.2334
   -29.1741 -29.1741 -29.0922 -29.0922 -29.0653 -29.0653 -29.0326 -29.0326
   -28.8792 -28.8792 -28.8251 -28.8251 -28.6998 -28.6998 -28.6527 -28.6527
    -2.7354  -2.7354  -1.5906  -1.5906  -1.0073  -1.0072  -0.6269  -0.6269
    -0.4130  -0.4129   0.0535   0.0535   0.3388   0.3389   0.4658   0.4658
     0.6205   0.6205   0.7405   0.7405   1.0276   1.0276   1.2744   1.2744
     1.3524   1.3524   1.4905   1.4905   1.6262   1.6262   1.9458   1.9458
     2.1323   2.1323   2.2084   2.2084   2.5163   2.5163   3.1408   3.1408
     3.3981   3.3981   3.6150   3.6150   3.9525   3.9526   4.0376   4.0376
     4.2636   4.2636   4.3771   4.3771   4.4587   4.4587   4.9999   5.0000
     5.2415

     the Fermi energy is     1.6893 ev

!    total energy              =   -1674.36662385 Ry
     Harris-Foulkes estimate   =   -1674.36662333 Ry
     estimated scf accuracy    <       0.00000045 Ry

     The total energy is the sum of the following terms:

     one-electron contribution =  -10027.97972782 Ry
     hartree contribution      =    5002.12487990 Ry
     xc contribution           =    -578.34808711 Ry
     ewald contribution        =    3929.94303222 Ry
     electric field correction =       0.00000992 Ry
     smearing contrib. (-TS)   =      -0.10673097 Ry

     convergence has been achieved in  21 iterations

 BEEF-vdW xc energy contributions
           1 :   -517.804258760377
           2 :    479.564122561099
           3 :   -412.214447495037
           4 :    330.416566751239
           5 :   -249.249811572027
           6 :    179.758286023003
           7 :   -126.920880954348
           8 :    90.2725965045269
           9 :   -66.2309568064861
          10 :    50.5911727624621
          11 :   -40.0837023609694
          12 :    32.6684284417153
          13 :   -27.0294103911986
          14 :    21.9731035444471
          15 :   -16.2654915983112
          16 :    8.96373757086110
          17 :   6.271397828083991E-002
          18 :   -9.87042979156115
          19 :    18.6914998892354
          20 :   -24.6358939692285
          21 :    26.4943321267183
          22 :   -24.2451700700080
          23 :    19.0301853466055
          24 :   -12.6667857160949
          25 :    6.97438580808682
          26 :   -3.23827240656215
          27 :    1.98215937703492
          28 :   -3.03408160704657
          29 :    5.73710488492816
          30 :   -9.16794005569250
          31 :   -41.3691415518741
          32 :   -30.1915547217462

     Forces acting on atoms (Ry/au):

     negative rho (up, down):  6.914E-01 0.000E+00
     atom    1 type  1   force =     0.00001950    0.00920152    0.02879639
     atom    2 type  1   force =     0.00001950    0.00920152    0.02879628
     atom    3 type  2   force =     0.00002546   -0.00884854   -0.00680477
     atom    4 type  2   force =     0.00002529   -0.00884783   -0.00680392
     atom    5 type  1   force =     0.00001042   -0.01045447   -0.01192634
     atom    6 type  1   force =     0.00000983   -0.01045576   -0.01192437
     atom    7 type  2   force =    -0.00003203    0.01156547   -0.00981177
     atom    8 type  2   force =    -0.00003167    0.01156666   -0.00981255
     atom    9 type  1   force =     0.00003737   -0.00153357   -0.00071394
     atom   10 type  1   force =     0.00003772   -0.00153253   -0.00071406
     atom   11 type  2   force =    -0.00005416    0.00006903    0.00045897
     atom   12 type  2   force =    -0.00006724    0.00006850    0.00046009

     Total force =     0.055193     Total SCF correction =     0.003479

     entering subroutine stress ...

     negative rho (up, down):  6.914E-01 0.000E+00
          total   stress  (Ry/bohr**3)                   (kbar)     P=  -13.31
  -0.00009419   0.00000001   0.00000002        -13.86      0.00      0.00
   0.00000001  -0.00012336  -0.00000288          0.00    -18.15     -0.42
   0.00000002  -0.00000288  -0.00005381          0.00     -0.42     -7.92

 !ASE

     Writing output data file calc.save

     General routines

     Parallel routines

   This run was terminated on:  20:33:39  18Dec2018

   JOB DONE.
Job  /afs/slac/g/suncat/bin/suncat-tsmpirun -x LD_LIBRARY_PATH -wdir /scratch/qe530292_FNTzb pw.x -in pw.inp

TID   HOST_NAME   COMMAND_LINE            STATUS            TERMINATION_TIME
00000 suncat2044 pw.x -in pw.inp   Done                     12/18/2018 20:33:39
00001 suncat2044 pw.x -in pw.inp   Done                     12/18/2018 20:33:39
00002 suncat2044 pw.x -in pw.inp   Done                     12/18/2018 20:33:39
00003 suncat2044 pw.x -in pw.inp   Done                     12/18/2018 20:33:39
00004 suncat2044 pw.x -in pw.inp   Done                     12/18/2018 20:33:39
00005 suncat2044 pw.x -in pw.inp   Done                     12/18/2018 20:33:39
00006 suncat2044 pw.x -in pw.inp   Done                     12/18/2018 20:33:39
00007 suncat2044 pw.x -in pw.inp   Done                     12/18/2018 20:33:39
00008 suncat2044 pw.x -in pw.inp   Done                     12/18/2018 20:33:39
00009 suncat2044 pw.x -in pw.inp   Done                     12/18/2018 20:33:39
00010 suncat2044 pw.x -in pw.inp   Done                     12/18/2018 20:33:39
00011 suncat2044 pw.x -in pw.inp   Done                     12/18/2018 20:33:39
00012 suncat2044 pw.x -in pw.inp   Done                     12/18/2018 20:33:39
00013 suncat2044 pw.x -in pw.inp   Done                     12/18/2018 20:33:39
00014 suncat2044 pw.x -in pw.inp   Done                     12/18/2018 20:33:39
00015 suncat2044 pw.x -in pw.inp   Done                     12/18/2018 20:33:39
00016 suncat2043 pw.x -in pw.inp   Done                     12/18/2018 20:33:39
00017 suncat2043 pw.x -in pw.inp   Done                     12/18/2018 20:33:39
00018 suncat2043 pw.x -in pw.inp   Done                     12/18/2018 20:33:39
00019 suncat2043 pw.x -in pw.inp   Done                     12/18/2018 20:33:39
00020 suncat2043 pw.x -in pw.inp   Done                     12/18/2018 20:33:39
00021 suncat2043 pw.x -in pw.inp   Done                     12/18/2018 20:33:39
00022 suncat2043 pw.x -in pw.inp   Done                     12/18/2018 20:33:39
00023 suncat2043 pw.x -in pw.inp   Done                     12/18/2018 20:33:39
00024 suncat2043 pw.x -in pw.inp   Done                     12/18/2018 20:33:39
00025 suncat2043 pw.x -in pw.inp   Done                     12/18/2018 20:33:39
00026 suncat2043 pw.x -in pw.inp   Done                     12/18/2018 20:33:39
00027 suncat2043 pw.x -in pw.inp   Done                     12/18/2018 20:33:39
00028 suncat2043 pw.x -in pw.inp   Done                     12/18/2018 20:33:39
00029 suncat2043 pw.x -in pw.inp   Done                     12/18/2018 20:33:39
00030 suncat2043 pw.x -in pw.inp   Done                     12/18/2018 20:33:39
00031 suncat2043 pw.x -in pw.inp   Done                     12/18/2018 20:33:39