     Program PWSCF v.5.1rc2 (svn rev. 11289) starts on 24Dec2018 at 17: 5:50

     Current dimensions of program PWSCF are:
     Max number of different atomic species (ntypx) = 10
     Max number of k-points (npk) =  40000
     Max angular momentum in pseudopotentials (lmaxx) =  3
     Presently stress not available with electric field

     IMPORTANT: XC functional enforced from input :
     Exchange-correlation      = BEEF-VDW ( 1  4 27 13 2)
     Any further DFT definition will be discarded
     Please, verify this is what you really want

     Subspace diagonalization in iterative solution of the eigenvalue problem:
     a serial algorithm will be used

     Found symmetry operation: I + (  0.5000  0.0000  0.0000)
     This is a supercell, fractional translations are disabled

     bravais-lattice index     =            0
     lattice parameter (alat)  =       1.8897  a.u.
     unit-cell volume          =    4495.3738 (a.u.)^3
     number of atoms/cell      =           12
     number of atomic types    =            2
     number of electrons       =       198.00
     number of Kohn-Sham states=          129
     kinetic-energy cutoff     =      36.7493  Ry
     charge density cutoff     =     367.4932  Ry
     convergence threshold     =      1.0E-06
     mixing beta               =       0.1000
     number of iterations used =           10  plain     mixing
     Exchange-correlation      = BEEF-VDW ( 1  4 27 13 2)
     nstep                     =           50

     celldm(1)=   1.889726  celldm(2)=   0.000000  celldm(3)=   0.000000
     celldm(4)=   0.000000  celldm(5)=   0.000000  celldm(6)=   0.000000

     crystal axes: (cart. coord. in units of alat)
               a(1) = (   5.483010   0.000000   0.000000 )
               a(2) = (  -2.741505   4.946034   0.000000 )
               a(3) = (   0.000000   0.000000  24.563662 )

     reciprocal axes: (cart. coord. in units 2 pi/alat)
               b(1) = (  0.182382  0.101091  0.000000 )
               b(2) = (  0.000000  0.202182  0.000000 )
               b(3) = (  0.000000  0.000000  0.040711 )

     PseudoPot. # 1 for Ga read from file:
     /afs/slac.stanford.edu/u/if/mamunm/psp/gbrv1.5pbe/Ga.UPF
     MD5 check sum: ccd671392a58a050fbb373893b4fcd66
     Pseudo is Ultrasoft + core correction, Zval = 19.0
     Generated by new atomic code, or converted to UPF format
     Using radial grid of  871 points,  6 beta functions with:
                l(1) =   0
                l(2) =   0
                l(3) =   1
                l(4) =   1
                l(5) =   2
                l(6) =   2
     Q(r) pseudized with  8 coefficients,  rinner =    1.250   1.250   1.250
                                                       1.250   1.250

     PseudoPot. # 2 for Mo read from file:
     /afs/slac.stanford.edu/u/if/mamunm/psp/gbrv1.5pbe/Mo.UPF
     MD5 check sum: 30c4dcd161f5d35cd49bb5239c51a633
     Pseudo is Ultrasoft + core correction, Zval = 14.0
     Generated by new atomic code, or converted to UPF format
     Using radial grid of  889 points,  6 beta functions with:
                l(1) =   0
                l(2) =   0
                l(3) =   1
                l(4) =   1
                l(5) =   2
                l(6) =   2
     Q(r) pseudized with  6 coefficients,  rinner =    1.000   1.000   1.000
                                                       1.000   1.000

     vdW kernel table read from file vdW_kernel_table
     MD5 check sum: 095c7af220d748ca6e76c0b4c6cfb241

     atomic species   valence    mass     pseudopotential
        Ga1           19.00    69.72300     Ga( 1.00)
        Mo1           14.00    95.95000     Mo( 1.00)

     No symmetry found

   Cartesian axes

     site n.     atom                  positions (alat units)
         1           Ga1 tau(   1) = (   0.0000000   0.0000000  10.0000000  )
         2           Ga1 tau(   2) = (   2.7415050   0.0000000  10.0000000  )
         3           Mo1 tau(   3) = (   1.3707525   2.4730168  10.0000000  )
         4           Mo1 tau(   4) = (  -1.3707525   2.4730168  10.0000000  )
         5           Ga1 tau(   5) = (   2.7415050   1.5195711  12.2818311  )
         6           Ga1 tau(   6) = (   0.0000000   1.5195711  12.2818311  )
         7           Mo1 tau(   7) = (  -1.3707525   3.9925878  12.2818311  )
         8           Mo1 tau(   8) = (   1.3707525   3.9925878  12.2818311  )
         9           Ga1 tau(   9) = (  -0.0000000   3.0391422  14.5636622  )
        10           Ga1 tau(  10) = (   2.7415050   3.0391422  14.5636622  )
        11           Mo1 tau(  11) = (   4.1122575   0.5661254  14.5636622  )
        12           Mo1 tau(  12) = (   1.3707525   0.5661254  14.5636622  )

     number of k points=    20  Fermi-Dirac smearing, width (Ry)=  0.0110
                       cart. coord. in units 2pi/alat
        k(    1) = (   0.0000000   0.0000000   0.0000000), wk =   0.0555556
        k(    2) = (   0.0000000   0.0336970   0.0000000), wk =   0.1111111
        k(    3) = (   0.0000000   0.0673941   0.0000000), wk =   0.1111111
        k(    4) = (   0.0000000  -0.1010911   0.0000000), wk =   0.0555556
        k(    5) = (   0.0303969   0.0168485   0.0000000), wk =   0.1111111
        k(    6) = (   0.0303969   0.0505456   0.0000000), wk =   0.1111111
        k(    7) = (   0.0303969   0.0842426   0.0000000), wk =   0.1111111
        k(    8) = (   0.0303969  -0.0842426   0.0000000), wk =   0.1111111
        k(    9) = (   0.0303969  -0.0505456   0.0000000), wk =   0.1111111
        k(   10) = (   0.0303969  -0.0168485   0.0000000), wk =   0.1111111
        k(   11) = (   0.0607939   0.0336970   0.0000000), wk =   0.1111111
        k(   12) = (   0.0607939   0.0673941   0.0000000), wk =   0.1111111
        k(   13) = (   0.0607939   0.1010911   0.0000000), wk =   0.1111111
        k(   14) = (   0.0607939  -0.0673941   0.0000000), wk =   0.1111111
        k(   15) = (   0.0607939  -0.0336970   0.0000000), wk =   0.1111111
        k(   16) = (   0.0607939   0.0000000   0.0000000), wk =   0.1111111
        k(   17) = (  -0.0911908  -0.0505456   0.0000000), wk =   0.0555556
        k(   18) = (  -0.0911908  -0.0168485   0.0000000), wk =   0.1111111
        k(   19) = (  -0.0911908   0.0168485   0.0000000), wk =   0.1111111
        k(   20) = (  -0.0911908  -0.1516367   0.0000000), wk =   0.0555556

     Largest allocated arrays     est. size (Mb)     dimensions
     Largest temporary arrays     est. size (Mb)     dimensions

     Initial potential from superposition of free atoms
     Check: negative starting charge=   -0.003719

     starting charge  191.99361, renormalised to  198.00000

     negative rho (up, down):  3.835E-03 0.000E+00

     *
     * You are using vdW-DF for exchange-correlation in this calculation.
     * Please cite the following three references that made this development
     * possible:
     *
     *   M. Dion, H. Rydberg, E. Schroder, D. C. Langreth, and
     *   B. I. Lundqvist, Phys. Rev. Lett. 92, 246401 (2004).
     *
     *   T. Thonhauser, V. R. Cooper, S. Li, A. Puzder, P. Hyldgaard, and
     *   D. C. Langreth, Phys. Rev. B 76, 125112 (2007).
     *
     *   G. Roman-Perez and J. M. Soler, Phys. Rev. Lett. 103, 096102 (2009).
     *
     *
     * If you are using vdW-DF2, please also cite:
     *
     *   K. Lee, E. D. Murray, L. Kong, B. I. Lundqvist, and
     *   D. C. Langreth, Phys. Rev. B 82, 081101(R) (2010).
     *
     *
     * If you are calculating the stress with vdW-DF, please also cite:
     *
     *   R. Sabatini, E. Kucukbenli, B. Kolb, T. Thonhauser, and
     *   S. de Gironcoli, J. Phys.: Condens. Matter 24, 424209 (2012).
     *

     Carrying out vdW-DF run using the following parameters:

     Nqs =      20    Nr_points =    1024   r_max =   100.000
     q_mesh =
               0.00001000     0.04494208     0.09755937     0.15916263
               0.23128650     0.31572767     0.41458969     0.53033537
               0.66584808     0.82450364     1.01025438     1.22772762
               1.48234092     1.78043706     2.12944203     2.53805004
               3.01644009     3.57652955     4.23227104     5.00000000

     Gradients computed in reciprocal space

     Adding external electric field

     Computed dipole along edir(3) :
        Dipole               -0.0000 Ry au,         -0.0000 Debye
        Dipole field         -0.0000 Ry au

        Potential amp.        0.0000 Ry
        Total length         45.2581 bohr

     Starting wfc are  150 randomized atomic wfcs

     Self-consistent Calculation

     iteration #  1     ecut=    36.75 Ry     beta=0.10
     Davidson diagonalization with overlap
     ethr =  1.00E-02,  avg # of iterations =  7.6

[...]

     total energy              =   -3340.45893964 Ry
     Harris-Foulkes estimate   =   -3343.16605554 Ry
     estimated scf accuracy    <      15.26348279 Ry

[...]

     End of self-consistent calculation

          k = 0.0000 0.0000 0.0000 ( 16883 PWs)   bands (ev):

   -93.2182 -93.2113 -93.2096 -93.2092 -93.1615 -93.1610 -92.8556 -92.8555
   -92.8552 -92.8551 -92.8483 -92.8483 -92.8414 -92.8414 -92.7831 -92.7830
   -92.7826 -92.7826 -59.7992 -59.6948 -59.5539 -59.5481 -59.4509 -59.4455
   -34.2247 -34.0664 -33.9546 -33.9516 -33.9470 -33.8783 -33.7731 -33.6469
   -33.6406 -33.5871 -33.5431 -33.5357 -33.4861 -33.3716 -33.3402 -33.2839
   -33.0840 -33.0806 -13.8121 -13.7113 -13.6709 -13.6050 -13.5951 -13.5887
   -13.5719 -13.4984 -13.4655 -13.4177 -13.4102 -13.4061 -13.2988 -13.2929
   -13.2790 -13.2776 -13.1869 -13.1769 -13.1724 -13.1696 -13.1579 -13.1486
   -13.1481 -13.1148 -13.1130 -13.1108 -13.0792 -13.0789 -13.0094 -12.9978
    -8.5230  -6.7874  -5.5341  -4.9632  -3.5260  -3.4686  -1.9907  -1.9869
    -1.7783  -1.4589  -1.4323  -1.2939  -1.2650  -0.9141  -0.6577  -0.4616
    -0.3084  -0.1512   0.2102   0.4919   0.7033   0.7765   1.1008   1.1183
     1.5661   1.6368   1.6559   1.6996   2.0216   2.0941   2.2987   2.3457
     2.3680   2.3931   2.6805   2.8854   3.2419   3.3487   3.3793   3.4808
     3.6091   3.7939   4.0718   4.1849   4.7475   5.0860   5.1998   5.3330
     5.5231   5.8516   5.9123   6.2756   6.8926   6.9107   7.7926   7.8012
     7.9815

[...]

          k =-0.0912-0.0505 0.0000 ( 16916 PWs)   bands (ev):

[...]

     the Fermi energy is     1.5893 ev

!    total energy              =   -3339.19817910 Ry
     Harris-Foulkes estimate   =   -3339.19817443 Ry
     estimated scf accuracy    <       0.00000048 Ry

     The total energy is the sum of the following terms:

     one-electron contribution =  -23159.54620949 Ry
     hartree contribution      =   11582.56568648 Ry
     xc contribution           =    -418.93861171 Ry
     ewald contribution        =    8656.78491678 Ry
     electric field correction =       0.00000000 Ry
     smearing contrib. (-TS)   =      -0.06396116 Ry

     convergence has been achieved in  17 iterations

 BEEF-vdW xc energy contributions
           1 :   -370.487491399751
           2 :    337.382148810084
           3 :   -281.436207670605
           4 :    218.384484745337
           5 :   -162.720724745863
           6 :    122.453123252207
           7 :   -97.6620573545699
[...]
     Pseudo is Ultrasoft + core correction, Zval = 19.0
     Generated by new atomic code, or converted to UPF format
     Using radial grid of  871 points,  6 beta functions with:
                l(1) =   0
                l(2) =   0
                l(3) =   1
                l(4) =   1
                l(5) =   2
                l(6) =   2
     Q(r) pseudized with  8 coefficients,  rinner =    1.250   1.250   1.250
                                                       1.250   1.250

     PseudoPot. # 2 for Mo read from file:
     /afs/slac.stanford.edu/u/if/mamunm/psp/gbrv1.5pbe/Mo.UPF
     MD5 check sum: 30c4dcd161f5d35cd49bb5239c51a633
     Pseudo is Ultrasoft + core correction, Zval = 14.0
     Generated by new atomic code, or converted to UPF format
     Using radial grid of  889 points,  6 beta functions with:
                l(1) =   0
                l(2) =   0
                l(3) =   1
                l(4) =   1
                l(5) =   2
                l(6) =   2
     Q(r) pseudized with  6 coefficients,  rinner =    1.000   1.000   1.000
                                                       1.000   1.000

     vdW kernel table read from file vdW_kernel_table
     MD5 check sum: 095c7af220d748ca6e76c0b4c6cfb241

     atomic species   valence    mass     pseudopotential
        Ga1           19.00    69.72300     Ga( 1.00)
        Mo1           14.00    95.95000     Mo( 1.00)

     No symmetry found

   Cartesian axes

     site n.     atom                  positions (alat units)
         1           Ga1 tau(   1) = (   0.0000000   0.0000000  10.0000000  )
         2           Ga1 tau(   2) = (   2.7415050   0.0000000  10.0000000  )
         3           Mo1 tau(   3) = (   1.3707525   2.4730168  10.0000000  )
         4           Mo1 tau(   4) = (  -1.3707525   2.4730168  10.0000000  )
         5           Ga1 tau(   5) = (   2.7415050   1.5195711  12.2818311  )
         6           Ga1 tau(   6) = (   0.0000000   1.5195711  12.2818311  )
         7           Mo1 tau(   7) = (  -1.3707525   3.9925878  12.2818311  )
         8           Mo1 tau(   8) = (   1.3707525   3.9925878  12.2818311  )
         9           Ga1 tau(   9) = (  -0.0041591   2.9437619  14.8034291  )
        10           Ga1 tau(  10) = (   2.7373446   2.9437927  14.8034154  )
        11           Mo1 tau(  11) = (   4.1131699   0.4470419  14.4185101  )
        12           Mo1 tau(  12) = (   1.3716686   0.4470069  14.4185202  )

     number of k points=    20  Fermi-Dirac smearing, width (Ry)=  0.0110
                       cart. coord. in units 2pi/alat
        k(    1) = (   0.0000000   0.0000000   0.0000000), wk =   0.0555556
        k(    2) = (   0.0000000   0.0336970   0.0000000), wk =   0.1111111
        k(    3) = (   0.0000000   0.0673941   0.0000000), wk =   0.1111111
        k(    4) = (   0.0000000  -0.1010911   0.0000000), wk =   0.0555556
        k(    5) = (   0.0303969   0.0168485   0.0000000), wk =   0.1111111
        k(    6) = (   0.0303969   0.0505456   0.0000000), wk =   0.1111111
        k(    7) = (   0.0303969   0.0842426   0.0000000), wk =   0.1111111
        k(    8) = (   0.0303969  -0.0842426   0.0000000), wk =   0.1111111
        k(    9) = (   0.0303969  -0.0505456   0.0000000), wk =   0.1111111
        k(   10) = (   0.0303969  -0.0168485   0.0000000), wk =   0.1111111
        k(   11) = (   0.0607939   0.0336970   0.0000000), wk =   0.1111111
        k(   12) = (   0.0607939   0.0673941   0.0000000), wk =   0.1111111
        k(   13) = (   0.0607939   0.1010911   0.0000000), wk =   0.1111111
        k(   14) = (   0.0607939  -0.0673941   0.0000000), wk =   0.1111111
        k(   15) = (   0.0607939  -0.0336970   0.0000000), wk =   0.1111111
        k(   16) = (   0.0607939   0.0000000   0.0000000), wk =   0.1111111
        k(   17) = (  -0.0911908  -0.0505456   0.0000000), wk =   0.0555556
        k(   18) = (  -0.0911908  -0.0168485   0.0000000), wk =   0.1111111
        k(   19) = (  -0.0911908   0.0168485   0.0000000), wk =   0.1111111
        k(   20) = (  -0.0911908  -0.1516367   0.0000000), wk =   0.0555556

     Largest allocated arrays     est. size (Mb)     dimensions
     Largest temporary arrays     est. size (Mb)     dimensions

     Initial potential from superposition of free atoms
     Check: negative starting charge=   -0.003715

     starting charge  191.99361, renormalised to  198.00000

[...]

     *
     * You are using vdW-DF for exchange-correlation in this calculation.
     * Please cite the following three references that made this development
     * possible:
     *
     *   M. Dion, H. Rydberg, E. Schroder, D. C. Langreth, and
     *   B. I. Lundqvist, Phys. Rev. Lett. 92, 246401 (2004).
     *
     *   T. Thonhauser, V. R. Cooper, S. Li, A. Puzder, P. Hyldgaard, and
     *   D. C. Langreth, Phys. Rev. B 76, 125112 (2007).
     *
     *   G. Roman-Perez and J. M. Soler, Phys. Rev. Lett. 103, 096102 (2009).
     *
     *
     * If you are using vdW-DF2, please also cite:
     *
     *   K. Lee, E. D. Murray, L. Kong, B. I. Lundqvist, and
     *   D. C. Langreth, Phys. Rev. B 82, 081101(R) (2010).
     *
     *
     * If you are calculating the stress with vdW-DF, please also cite:
     *
     *   R. Sabatini, E. Kucukbenli, B. Kolb, T. Thonhauser, and
     *   S. de Gironcoli, J. Phys.: Condens. Matter 24, 424209 (2012).
     *

     Carrying out vdW-DF run using the following parameters:

     Nqs =      20    Nr_points =    1024   r_max =   100.000
     q_mesh =
               0.00001000     0.04494208     0.09755937     0.15916263
               0.23128650     0.31572767     0.41458969     0.53033537
               0.66584808     0.82450364     1.01025438     1.22772762
               1.48234092     1.78043706     2.12944203     2.53805004
               3.01644009     3.57652955     4.23227104     5.00000000

     Gradients computed in reciprocal space

[...]

     Starting wfc are  150 randomized atomic wfcs

     Self-consistent Calculation

[...]

     total energy              =   -3339.22783162 Ry
     Harris-Foulkes estimate   =   -3339.22783133 Ry
     estimated scf accuracy    <       0.00000538 Ry

     iteration # 18     ecut=    36.75 Ry     beta=0.10
     Davidson diagonalization with overlap
     ethr =  2.40E-09,  avg # of iterations =  1.1

[...]

     negative rho (up, down):  3.587E-03 0.000E+00

     Adding external electric field

     Computed dipole along edir(3) :
        Dipole                0.0258 Ry au,          0.0656 Debye
        Dipole field          0.0001 Ry au

        Potential amp.       -0.0065 Ry
        Total length         45.2581 bohr

     End of self-consistent calculation

[...]

          k = 0.0608 0.0000 0.0000 ( 16894 PWs)   bands (ev):

[...]

          k =-0.0912-0.1516 0.0000 ( 16916 PWs)   bands (ev):

   -93.1775 -93.1775 -93.1716 -93.1716 -93.1238 -93.1238 -92.9106 -92.9106
   -92.8812 -92.8812 -92.8374 -92.8374 -92.8280 -92.8279 -92.8149 -92.8149
   -92.7644 -92.7644 -59.7432 -59.7432 -59.4929 -59.4926 -59.4678 -59.4678
   -34.1619 -34.1618 -33.8138 -33.8137 -33.7810 -33.7810 -33.5822 -33.5819
   -33.5528 -33.5528 -33.5274 -33.5272 -33.5229 -33.5229 -33.5053 -33.5053
   -33.2072 -33.2071 -13.5969 -13.5969 -13.5618 -13.5618 -13.5397 -13.5397
   -13.5295 -13.5295 -13.5134 -13.5134 -13.2570 -13.2570 -13.2402 -13.2402
   -13.1983 -13.1983 -13.1936 -13.1936 -13.1853 -13.1853 -13.1818 -13.1818
   -13.1703 -13.1703 -13.1581 -13.1581 -13.1370 -13.1370 -13.1197 -13.1197
    -6.8629  -6.8629  -5.4293  -5.4293  -4.3840  -4.3840  -2.0725  -2.0725
    -1.4806  -1.4805  -0.8643  -0.8643  -0.6202  -0.6201  -0.4478  -0.4478
    -0.1991  -0.1991  -0.0327  -0.0327   0.7348   0.7349   0.9014   0.9015
     1.1000   1.1000   1.4620   1.4620   1.5209   1.5210   2.0697   2.0697
     2.3606   2.3607   2.8346   2.8346   3.0867   3.0867   3.5417   3.5417
     4.1268   4.1268   4.8101   4.8101   5.7464   5.7464   5.9530   5.9530
     6.4955   6.4956   6.8805   6.8805   7.0064   7.0064   7.2085   7.2085
     7.5495

     the Fermi energy is     1.6192 ev

!    total energy              =   -3339.22783530 Ry
     Harris-Foulkes estimate   =   -3339.22783231 Ry
     estimated scf accuracy    <       0.00000089 Ry

     The total energy is the sum of the following terms:

     one-electron contribution =  -22912.80017425 Ry
     hartree contribution      =   11459.21275972 Ry
     xc contribution           =    -418.94555905 Ry
     ewald contribution        =    8533.36590310 Ry
     electric field correction =       0.00000186 Ry
     smearing contrib. (-TS)   =      -0.06076668 Ry

     convergence has been achieved in  18 iterations

 BEEF-vdW xc energy contributions
           1 :   -370.495343663304
           2 :    337.378542960188
           3 :   -281.414020770675
           4 :    218.340951804215
           5 :   -162.653146028304
           6 :    122.353287110914
           7 :   -97.5138350286109
           8 :    82.6993161620284
           9 :   -71.3405955272481
          10 :    59.4025331758371
          11 :   -46.5761048116382
          12 :    34.9464623855916
          13 :   -26.5866670181464
          14 :    21.8462488704740
          15 :   -19.2893328718180
          16 :    16.9407293138062
          17 :   -13.6966859054787
          18 :    9.85411165203311
          19 :   -6.53152420655431
          20 :    4.58403151541182
          21 :   -3.90122270578433
          22 :    3.56299277298149
          23 :   -2.63053085670253
          24 :   0.884278927312494
          25 :    1.06663261282677
          26 :   -2.34723945325322
          27 :    2.56461671893680
          28 :   -2.14218230130473
          29 :    1.99096739175570
          30 :   -2.79835093881229
          31 :   -31.4199503898857
          32 :   -22.4795106919614

     Forces acting on atoms (Ry/au):

     negative rho (up, down):  3.587E-03 0.000E+00
     atom    1 type  1   force =    -0.00001745    0.00308438   -0.03495689
     atom    2 type  1   force =    -0.00002572    0.00308620   -0.03495956
     atom    3 type  2   force =    -0.00001505    0.00313229    0.03897618
     atom    4 type  2   force =    -0.00001523    0.00313005    0.03897518
     atom    5 type  1   force =    -0.00008642    0.01322078   -0.00542536
     atom    6 type  1   force =     0.00006418    0.01321478   -0.00542144
     atom    7 type  2   force =    -0.00014159   -0.01939994    0.00167200
     atom    8 type  2   force =    -0.00014209   -0.01939981    0.00167443
     atom    9 type  1   force =     0.00039455   -0.00045081   -0.00054142
     atom   10 type  1   force =     0.00038057   -0.00046203   -0.00054204
     atom   11 type  2   force =    -0.00019914    0.00041581    0.00027849
     atom   12 type  2   force =    -0.00019660    0.00042830    0.00027043

     Total force =     0.081789     Total SCF correction =     0.004319

     entering subroutine stress ...

     negative rho (up, down):  3.587E-03 0.000E+00
          total   stress  (Ry/bohr**3)                   (kbar)     P=  -18.19
  -0.00012352   0.00000017   0.00000031        -18.17      0.02      0.04
   0.00000017  -0.00023236  -0.00001452          0.02    -34.18     -2.14
   0.00000031  -0.00001452  -0.00001518          0.04     -2.14     -2.23

 !ASE

     Writing output data file calc.save

     General routines

     Parallel routines

   This run was terminated on:  20:47:48  24Dec2018

   JOB DONE.
Job  /afs/slac/g/suncat/bin/suncat-tsmpirun -x LD_LIBRARY_PATH -wdir /scratch/qe108968_G0GPf pw.x -in pw.inp

TID   HOST_NAME   COMMAND_LINE            STATUS            TERMINATION_TIME
00000 suncat0040 pw.x -in pw.inp   Done                     12/24/2018 20:47:48
00001 suncat0040 pw.x -in pw.inp   Done                     12/24/2018 20:47:48
00002 suncat0040 pw.x -in pw.inp   Done                     12/24/2018 20:47:48
00003 suncat0040 pw.x -in pw.inp   Done                     12/24/2018 20:47:48
00004 suncat0040 pw.x -in pw.inp   Done                     12/24/2018 20:47:48
00005 suncat0040 pw.x -in pw.inp   Done                     12/24/2018 20:47:48
00006 suncat0040 pw.x -in pw.inp   Done                     12/24/2018 20:47:48
00007 suncat0040 pw.x -in pw.inp   Done                     12/24/2018 20:47:48
00008 suncat0179 pw.x -in pw.inp   Done                     12/24/2018 20:47:48
00009 suncat0179 pw.x -in pw.inp   Done                     12/24/2018 20:47:48
00010 suncat0179 pw.x -in pw.inp   Done                     12/24/2018 20:47:48
00011 suncat0179 pw.x -in pw.inp   Done                     12/24/2018 20:47:48
00012 suncat0179 pw.x -in pw.inp   Done                     12/24/2018 20:47:48
00013 suncat0179 pw.x -in pw.inp   Done                     12/24/2018 20:47:48
00014 suncat0179 pw.x -in pw.inp   Done                     12/24/2018 20:47:48
00015 suncat0179 pw.x -in pw.inp   Done                     12/24/2018 20:47:48
00016 suncat0147 pw.x -in pw.inp   Done                     12/24/2018 20:47:48
00017 suncat0147 pw.x -in pw.inp   Done                     12/24/2018 20:47:48
00018 suncat0147 pw.x -in pw.inp   Done                     12/24/2018 20:47:48
00019 suncat0147 pw.x -in pw.inp   Done                     12/24/2018 20:47:48
00020 suncat0147 pw.x -in pw.inp   Done                     12/24/2018 20:47:48
00021 suncat0147 pw.x -in pw.inp   Done                     12/24/2018 20:47:48
00022 suncat0147 pw.x -in pw.inp   Done                     12/24/2018 20:47:48
00023 suncat0147 pw.x -in pw.inp   Done                     12/24/2018 20:47:48
00024 suncat0146 pw.x -in pw.inp   Done                     12/24/2018 20:47:48
00025 suncat0146 pw.x -in pw.inp   Done                     12/24/2018 20:47:48
00026 suncat0146 pw.x -in pw.inp   Done                     12/24/2018 20:47:48
00027 suncat0146 pw.x -in pw.inp   Done                     12/24/2018 20:47:48
00028 suncat0146 pw.x -in pw.inp   Done                     12/24/2018 20:47:48
00029 suncat0146 pw.x -in pw.inp   Done                     12/24/2018 20:47:48
00030 suncat0146 pw.x -in pw.inp   Done                     12/24/2018 20:47:48
00031 suncat0146 pw.x -in pw.inp   Done                     12/24/2018 20:47:48
00032 suncat0272 pw.x -in pw.inp   Done                     12/24/2018 20:47:48
00033 suncat0272 pw.x -in pw.inp   Done                     12/24/2018 20:47:48
00034 suncat0272 pw.x -in pw.inp   Done                     12/24/2018 20:47:48
00035 suncat0272 pw.x -in pw.inp   Done                     12/24/2018 20:47:48
00036 suncat0272 pw.x -in pw.inp   Done                     12/24/2018 20:47:48
00037 suncat0272 pw.x -in pw.inp   Done                     12/24/2018 20:47:48
00038 suncat0272 pw.x -in pw.inp   Done                     12/24/2018 20:47:48
00039 suncat0272 pw.x -in pw.inp   Done                     12/24/2018 20:47:48
00040 suncat0271 pw.x -in pw.inp   Done                     12/24/2018 20:47:48
00041 suncat0271 pw.x -in pw.inp   Done                     12/24/2018 20:47:48
00042 suncat0271 pw.x -in pw.inp   Done                     12/24/2018 20:47:48
00043 suncat0271 pw.x -in pw.inp   Done                     12/24/2018 20:47:48
00044 suncat0271 pw.x -in pw.inp   Done                     12/24/2018 20:47:48
00045 suncat0271 pw.x -in pw.inp   Done                     12/24/2018 20:47:48
00046 suncat0271 pw.x -in pw.inp   Done                     12/24/2018 20:47:48
00047 suncat0271 pw.x -in pw.inp   Done                     12/24/2018 20:47:48
00048 suncat0260 pw.x -in pw.inp   Done                     12/24/2018 20:47:48
00049 suncat0260 pw.x -in pw.inp   Done                     12/24/2018 20:47:48
00050 suncat0260 pw.x -in pw.inp   Done                     12/24/2018 20:47:48
00051 suncat0260 pw.x -in pw.inp   Done                     12/24/2018 20:47:48
00052 suncat0260 pw.x -in pw.inp   Done                     12/24/2018 20:47:48
00053 suncat0260 pw.x -in pw.inp   Done                     12/24/2018 20:47:48
00054 suncat0260 pw.x -in pw.inp   Done                     12/24/2018 20:47:48
00055 suncat0260 pw.x -in pw.inp   Done                     12/24/2018 20:47:48
00056 suncat0259 pw.x -in pw.inp   Done                     12/24/2018 20:47:48
00057 suncat0259 pw.x -in pw.inp   Done                     12/24/2018 20:47:48
00058 suncat0259 pw.x -in pw.inp   Done                     12/24/2018 20:47:48
00059 suncat0259 pw.x -in pw.inp   Done                     12/24/2018 20:47:48
00060 suncat0259 pw.x -in pw.inp   Done                     12/24/2018 20:47:48
00061 suncat0259 pw.x -in pw.inp   Done                     12/24/2018 20:47:48
00062 suncat0259 pw.x -in pw.inp   Done                     12/24/2018 20:47:48
00063 suncat0259 pw.x -in pw.inp   Done                     12/24/2018 20:47:48