     Program PWSCF v.5.1rc2 (svn rev. 11289) starts on 19Dec2018 at  5:24: 1

     Current dimensions of program PWSCF are:
     Max number of different atomic species (ntypx) = 10
     Max number of k-points (npk) =  40000
     Max angular momentum in pseudopotentials (lmaxx) =  3
     Presently stress not available with electric field

     IMPORTANT: XC functional enforced from input :
     Exchange-correlation      = BEEF-VDW ( 1  4 27 13 2)
     Any further DFT definition will be discarded
     Please, verify this is what you really want

     Subspace diagonalization in iterative solution of the eigenvalue problem:
     a serial algorithm will be used

     Found symmetry operation: I + ( -0.5000 -0.5000  0.0000)
     This is a supercell, fractional translations are disabled

     bravais-lattice index     =            0
     lattice parameter (alat)  =       1.8897  a.u.
     unit-cell volume          =    4848.5307 (a.u.)^3
     number of atoms/cell      =           12
     number of atomic types    =            2
     number of electrons       =       162.00
     number of Kohn-Sham states=          111
     kinetic-energy cutoff     =      36.7493  Ry
     charge density cutoff     =     367.4932  Ry
     convergence threshold     =      1.0E-06
     mixing beta               =       0.1000
     number of iterations used =           10  plain     mixing
     Exchange-correlation      = BEEF-VDW ( 1  4 27 13 2)
     nstep                     =           50

     celldm(1)=   1.889726  celldm(2)=   0.000000  celldm(3)=   0.000000
     celldm(4)=   0.000000  celldm(5)=   0.000000  celldm(6)=   0.000000

     crystal axes: (cart. coord. in units of alat)
               a(1) = (   5.569533   0.000000   0.000000 )
               a(2) = (   1.841883   5.256155   0.000000 )
               a(3) = (   0.000000   0.000000  24.542944 )

     reciprocal axes: (cart. coord. in units 2 pi/alat)
               b(1) = (  0.179548 -0.062918  0.000000 )
               b(2) = (  0.000000  0.190253  0.000000 )
               b(3) = (  0.000000  0.000000  0.040745 )

     PseudoPot. # 1 for Sc read from file:
     /afs/slac.stanford.edu/u/if/mamunm/psp/gbrv1.5pbe/Sc.UPF
     MD5 check sum: db30a2753ba66ef00f23801d899b7e7f
     Pseudo is Ultrasoft + core correction, Zval = 11.0
     Generated by new atomic code, or converted to UPF format
     Using radial grid of  849 points,  6 beta functions with:
                l(1) =   0
                l(2) =   0
                l(3) =   1
                l(4) =   1
                l(5) =   2
                l(6) =   2
     Q(r) pseudized with  6 coefficients,  rinner =    1.200   1.200   1.200
                                                       1.200   1.200

     PseudoPot. # 2 for Ru read from file:
     /afs/slac.stanford.edu/u/if/mamunm/psp/gbrv1.5pbe/Ru.UPF
     MD5 check sum: 7158a806dd851261a58e6920c40ebe78
     Pseudo is Ultrasoft + core correction, Zval = 16.0
     Generated by new atomic code, or converted to UPF format
     Using radial grid of  967 points,  6 beta functions with:
                l(1) =   0
                l(2) =   0
                l(3) =   1
                l(4) =   1
                l(5) =   2
                l(6) =   2
     Q(r) pseudized with  8 coefficients,  rinner =    1.300   1.300   1.300
                                                       1.300   1.300

     vdW kernel table read from file vdW_kernel_table
     MD5 check sum: 095c7af220d748ca6e76c0b4c6cfb241

     atomic species   valence    mass     pseudopotential
        Sc1           11.00    44.95591     Sc( 1.00)
        Ru1           16.00   101.07000     Ru( 1.00)

     No symmetry found

   Cartesian axes

     site n.     atom                  positions (alat units)
         1           Sc1 tau(   1) = (   0.0000000   0.0000000  10.0000000  )
         2           Sc1 tau(   2) = (   3.7057080   2.6280773  10.0000000  )
         3           Ru1 tau(   3) = (   2.7847664   0.0000000  10.0000000  )
         4           Ru1 tau(   4) = (   0.9209416   2.6280773  10.0000000  )
         5           Sc1 tau(   5) = (   5.5695328   3.9498964  12.2714719  )
         6           Sc1 tau(   6) = (   1.8638248   1.3218191  12.2714719  )
         7           Ru1 tau(   7) = (   2.7847664   3.9498964  12.2714719  )
         8           Ru1 tau(   8) = (   4.6485912   1.3218191  12.2714719  )
         9           Sc1 tau(   9) = (   3.7276496   2.6436382  14.5429438  )
        10           Sc1 tau(  10) = (   0.0219416   0.0155609  14.5429438  )
        11           Ru1 tau(  11) = (   0.9428832   2.6436382  14.5429438  )
        12           Ru1 tau(  12) = (   2.8067079   0.0155609  14.5429438  )

     number of k points=    20  Fermi-Dirac smearing, width (Ry)=  0.0110
                       cart. coord. in units 2pi/alat
        k(    1) = (   0.0000000   0.0000000   0.0000000), wk =   0.0555556
        k(    2) = (   0.0000000   0.0317089   0.0000000), wk =   0.1111111
        k(    3) = (   0.0000000   0.0634177   0.0000000), wk =   0.1111111
        k(    4) = (   0.0000000  -0.0951266   0.0000000), wk =   0.0555556
        k(    5) = (   0.0299247  -0.0104863   0.0000000), wk =   0.1111111
        k(    6) = (   0.0299247   0.0212225   0.0000000), wk =   0.1111111
        k(    7) = (   0.0299247   0.0529314   0.0000000), wk =   0.1111111
        k(    8) = (   0.0299247  -0.1056129   0.0000000), wk =   0.1111111
        k(    9) = (   0.0299247  -0.0739041   0.0000000), wk =   0.1111111
        k(   10) = (   0.0299247  -0.0421952   0.0000000), wk =   0.1111111
        k(   11) = (   0.0598494  -0.0209727   0.0000000), wk =   0.1111111
        k(   12) = (   0.0598494   0.0107362   0.0000000), wk =   0.1111111
        k(   13) = (   0.0598494   0.0424450   0.0000000), wk =   0.1111111
        k(   14) = (   0.0598494  -0.1160993   0.0000000), wk =   0.1111111
        k(   15) = (   0.0598494  -0.0843904   0.0000000), wk =   0.1111111
        k(   16) = (   0.0598494  -0.0526815   0.0000000), wk =   0.1111111
        k(   17) = (  -0.0897741   0.0314590   0.0000000), wk =   0.0555556
        k(   18) = (  -0.0897741   0.0631679   0.0000000), wk =   0.1111111
        k(   19) = (  -0.0897741   0.0948767   0.0000000), wk =   0.1111111
        k(   20) = (  -0.0897741  -0.0636676   0.0000000), wk =   0.0555556

     Largest allocated arrays     est. size (Mb)     dimensions
     Largest temporary arrays     est. size (Mb)     dimensions

     Initial potential from superposition of free atoms
     Check: negative starting charge=   -0.437062

     starting charge  155.98549, renormalised to  162.00000

     negative rho (up, down):  4.539E-01 0.000E+00

     *
     * You are using vdW-DF for exchange-correlation in this calculation.
     * Please cite the following three references that made this development
     * possible:
     *
     *   M. Dion, H. Rydberg, E. Schroder, D. C. Langreth, and
     *   B. I. Lundqvist, Phys. Rev. Lett. 92, 246401 (2004).
     *
     *   T. Thonhauser, V. R. Cooper, S. Li, A. Puzder, P. Hyldgaard, and
     *   D. C. Langreth, Phys. Rev. B 76, 125112 (2007).
     *
     *   G. Roman-Perez and J. M. Soler, Phys. Rev. Lett. 103, 096102 (2009).
     *
     *
     * If you are using vdW-DF2, please also cite:
     *
     *   K. Lee, E. D. Murray, L. Kong, B. I. Lundqvist, and
     *   D. C. Langreth, Phys. Rev. B 82, 081101(R) (2010).
     *
     *
     * If you are calculating the stress with vdW-DF, please also cite:
     *
     *   R. Sabatini, E. Kucukbenli, B. Kolb, T. Thonhauser, and
     *   S. de Gironcoli, J. Phys.: Condens. Matter 24, 424209 (2012).
     *

     Carrying out vdW-DF run using the following parameters:

     Nqs =      20    Nr_points =    1024   r_max =   100.000
     q_mesh =
               0.00001000     0.04494208     0.09755937     0.15916263
               0.23128650     0.31572767     0.41458969     0.53033537
               0.66584808     0.82450364     1.01025438     1.22772762
               1.48234092     1.78043706     2.12944203     2.53805004
               3.01644009     3.57652955     4.23227104     5.00000000

     Gradients computed in reciprocal space

     Adding external electric field

     Computed dipole along edir(3) :
        Dipole                0.0000 Ry au,          0.0000 Debye
        Dipole field          0.0000 Ry au

        Potential amp.       -0.0000 Ry
        Total length         45.2200 bohr

     Starting wfc are  156 randomized atomic wfcs

     Self-consistent Calculation

     iteration #  1     ecut=    36.75 Ry     beta=0.10
     Davidson diagonalization with overlap
     ethr =  1.00E-02,  avg # of iterations =  2.0

[...]

     total energy              =   -1740.43070298 Ry
     Harris-Foulkes estimate   =   -1741.20266107 Ry
     estimated scf accuracy    <       4.92133998 Ry

[...]

     End of self-consistent calculation

          k = 0.0000 0.0000 0.0000 ( 18239 PWs)   bands (ev):

   -70.6395 -70.6341 -70.3318 -70.3318 -70.3265 -70.3265 -48.0632 -48.0622
   -48.0397 -48.0390 -47.3649 -47.3410 -40.6650 -40.6501 -40.6458 -40.6443
   -40.6370 -40.5783 -40.3956 -40.3929 -40.3495 -40.3465 -40.3412 -40.3368
   -40.3197 -40.3182 -40.3131 -40.3104 -40.3083 -40.3082 -26.7545 -26.7468
   -26.7414 -26.7356 -26.7183 -26.7155 -26.6011 -26.5925 -26.5873 -26.5758
   -26.5247 -26.5224 -26.0855 -25.9930 -25.9743 -25.9722 -25.9443 -25.8505
    -3.7841  -2.4475  -1.9984  -1.7424  -1.7183  -1.6639  -1.6136  -1.6011
    -1.5712  -1.5239  -1.2063  -1.0603  -0.6382  -0.4288  -0.4275  -0.2740
    -0.2707  -0.2642  -0.2550  -0.1514  -0.0960   0.0196   0.2300   0.4721
     0.5033   0.6621   0.7298   1.1699   1.1987   1.2049   1.3741   1.4453
     1.9321   2.0041   2.5238   2.6983   2.8884   3.1023   3.1304   3.2046
     3.3884   3.5171   3.5723   3.6035   3.6593   3.7427   3.8417   3.9542
     4.1576   4.2799   4.3099   4.3219   4.4177   4.5214   4.7033   4.7615
     4.7661   4.9296   5.0356   5.0846   5.1170   5.1741   5.2352

[...]

          k =-0.0898 0.0315 0.0000 ( 18250 PWs)   bands (ev):

[...]

     the Fermi energy is     1.3946 ev

!    total energy              =   -1739.91338849 Ry
     Harris-Foulkes estimate   =   -1739.91339356 Ry
     estimated scf accuracy    <       0.00000032 Ry

     The total energy is the sum of the following terms:

     one-electron contribution =  -13585.49131009 Ry
     hartree contribution      =    6786.98556289 Ry
     xc contribution           =    -244.97624559 Ry
     ewald contribution        =    5303.64157854 Ry
     electric field correction =       0.00000000 Ry
     smearing contrib. (-TS)   =      -0.07297424 Ry

     convergence has been achieved in  17 iterations

 BEEF-vdW xc energy contributions
           1 :   -210.908949796580
           2 :    190.867216799153
           3 :   -157.425150228025
           4 :    120.532612065163
           5 :   -89.0078511610859
           6 :    67.4630332697152
           7 :   -55.7899020606831
           8 :    50.7708708645507
           9 :   -48.4464416709524
          10 :    45.9372335014881
          11 :   -42.1112040711932
          12 :    37.2300118396860
[...]
00029 suncat2059 pw.x -in pw.inp   Done                     12/19/2018 05:28:12
00030 suncat2059 pw.x -in pw.inp   Done                     12/19/2018 05:28:12
00031 suncat2059 pw.x -in pw.inp   Done                     12/19/2018 05:28:12

     Program PWSCF v.5.1rc2 (svn rev. 11289) starts on 19Dec2018 at  5:28:17

[...]

   This run was terminated on:   5:33: 7  19Dec2018

[...]

     Program PWSCF v.5.1rc2 (svn rev. 11289) starts on 19Dec2018 at  5:38: 2

[...]

     Program PWSCF v.5.1rc2 (svn rev. 11289) starts on 19Dec2018 at  5:42:56

     Current dimensions of program PWSCF are:
     Max number of different atomic species (ntypx) = 10
     Max number of k-points (npk) =  40000
     Max angular momentum in pseudopotentials (lmaxx) =  3
     Presently stress not available with electric field

     IMPORTANT: XC functional enforced from input :
     Exchange-correlation      = BEEF-VDW ( 1  4 27 13 2)
     Any further DFT definition will be discarded
     Please, verify this is what you really want

     Subspace diagonalization in iterative solution of the eigenvalue problem:
     a serial algorithm will be used

     Found symmetry operation: I + ( -0.5000 -0.5000  0.0000)
     This is a supercell, fractional translations are disabled

     bravais-lattice index     =            0
     lattice parameter (alat)  =       1.8897  a.u.
     unit-cell volume          =    4848.5307 (a.u.)^3
     number of atoms/cell      =           12
     number of atomic types    =            2
     number of electrons       =       162.00
     number of Kohn-Sham states=          111
     kinetic-energy cutoff     =      36.7493  Ry
     charge density cutoff     =     367.4932  Ry
     convergence threshold     =      1.0E-06
     mixing beta               =       0.1000
     number of iterations used =           10  plain     mixing
     Exchange-correlation      = BEEF-VDW ( 1  4 27 13 2)
     nstep                     =           50

     celldm(1)=   1.889726  celldm(2)=   0.000000  celldm(3)=   0.000000
     celldm(4)=   0.000000  celldm(5)=   0.000000  celldm(6)=   0.000000

     crystal axes: (cart. coord. in units of alat)
               a(1) = (   5.569533   0.000000   0.000000 )
               a(2) = (   1.841883   5.256155   0.000000 )
               a(3) = (   0.000000   0.000000  24.542944 )

     reciprocal axes: (cart. coord. in units 2 pi/alat)
               b(1) = (  0.179548 -0.062918  0.000000 )
               b(2) = (  0.000000  0.190253  0.000000 )
               b(3) = (  0.000000  0.000000  0.040745 )

     PseudoPot. # 1 for Sc read from file:
     /afs/slac.stanford.edu/u/if/mamunm/psp/gbrv1.5pbe/Sc.UPF
     MD5 check sum: db30a2753ba66ef00f23801d899b7e7f
     Pseudo is Ultrasoft + core correction, Zval = 11.0
     Generated by new atomic code, or converted to UPF format
     Using radial grid of  849 points,  6 beta functions with:
                l(1) =   0
                l(2) =   0
                l(3) =   1
                l(4) =   1
                l(5) =   2
                l(6) =   2
     Q(r) pseudized with  6 coefficients,  rinner =    1.200   1.200   1.200
                                                       1.200   1.200

     PseudoPot. # 2 for Ru read from file:
     /afs/slac.stanford.edu/u/if/mamunm/psp/gbrv1.5pbe/Ru.UPF
     MD5 check sum: 7158a806dd851261a58e6920c40ebe78
     Pseudo is Ultrasoft + core correction, Zval = 16.0
     Generated by new atomic code, or converted to UPF format
     Using radial grid of  967 points,  6 beta functions with:
                l(1) =   0
                l(2) =   0
                l(3) =   1
                l(4) =   1
                l(5) =   2
                l(6) =   2
     Q(r) pseudized with  8 coefficients,  rinner =    1.300   1.300   1.300
                                                       1.300   1.300

     vdW kernel table read from file vdW_kernel_table
     MD5 check sum: 095c7af220d748ca6e76c0b4c6cfb241

     atomic species   valence    mass     pseudopotential
        Sc1           11.00    44.95591     Sc( 1.00)
        Ru1           16.00   101.07000     Ru( 1.00)

     No symmetry found

   Cartesian axes

     site n.     atom                  positions (alat units)
         1           Sc1 tau(   1) = (   0.0000000   0.0000000  10.0000000  )
         2           Sc1 tau(   2) = (   3.7057080   2.6280773  10.0000000  )
         3           Ru1 tau(   3) = (   2.7847664   0.0000000  10.0000000  )
         4           Ru1 tau(   4) = (   0.9209416   2.6280773  10.0000000  )
         5           Sc1 tau(   5) = (   5.5695328   3.9498964  12.2714719  )
         6           Sc1 tau(   6) = (   1.8638248   1.3218191  12.2714719  )
         7           Ru1 tau(   7) = (   2.7847664   3.9498964  12.2714719  )
         8           Ru1 tau(   8) = (   4.6485912   1.3218191  12.2714719  )
         9           Sc1 tau(   9) = (   3.7213126   2.6391437  14.5276606  )
        10           Sc1 tau(  10) = (   0.0156146   0.0110699  14.5276635  )
        11           Ru1 tau(  11) = (   0.9399342   2.6415449  14.4618443  )
        12           Ru1 tau(  12) = (   2.8037570   0.0134684  14.4618485  )

     number of k points=    20  Fermi-Dirac smearing, width (Ry)=  0.0110
                       cart. coord. in units 2pi/alat
        k(    1) = (   0.0000000   0.0000000   0.0000000), wk =   0.0555556
        k(    2) = (   0.0000000   0.0317089   0.0000000), wk =   0.1111111
        k(    3) = (   0.0000000   0.0634177   0.0000000), wk =   0.1111111
        k(    4) = (   0.0000000  -0.0951266   0.0000000), wk =   0.0555556
        k(    5) = (   0.0299247  -0.0104863   0.0000000), wk =   0.1111111
        k(    6) = (   0.0299247   0.0212225   0.0000000), wk =   0.1111111
        k(    7) = (   0.0299247   0.0529314   0.0000000), wk =   0.1111111
        k(    8) = (   0.0299247  -0.1056129   0.0000000), wk =   0.1111111
        k(    9) = (   0.0299247  -0.0739041   0.0000000), wk =   0.1111111
        k(   10) = (   0.0299247  -0.0421952   0.0000000), wk =   0.1111111
        k(   11) = (   0.0598494  -0.0209727   0.0000000), wk =   0.1111111
        k(   12) = (   0.0598494   0.0107362   0.0000000), wk =   0.1111111
        k(   13) = (   0.0598494   0.0424450   0.0000000), wk =   0.1111111
        k(   14) = (   0.0598494  -0.1160993   0.0000000), wk =   0.1111111
        k(   15) = (   0.0598494  -0.0843904   0.0000000), wk =   0.1111111
        k(   16) = (   0.0598494  -0.0526815   0.0000000), wk =   0.1111111
        k(   17) = (  -0.0897741   0.0314590   0.0000000), wk =   0.0555556
        k(   18) = (  -0.0897741   0.0631679   0.0000000), wk =   0.1111111
        k(   19) = (  -0.0897741   0.0948767   0.0000000), wk =   0.1111111
        k(   20) = (  -0.0897741  -0.0636676   0.0000000), wk =   0.0555556

     Largest allocated arrays     est. size (Mb)     dimensions
     Largest temporary arrays     est. size (Mb)     dimensions

     Initial potential from superposition of free atoms
     Check: negative starting charge=   -0.436457

     starting charge  155.98549, renormalised to  162.00000

[...]

     *
     * You are using vdW-DF for exchange-correlation in this calculation.
     * Please cite the following three references that made this development
     * possible:
     *
     *   M. Dion, H. Rydberg, E. Schroder, D. C. Langreth, and
     *   B. I. Lundqvist, Phys. Rev. Lett. 92, 246401 (2004).
     *
     *   T. Thonhauser, V. R. Cooper, S. Li, A. Puzder, P. Hyldgaard, and
     *   D. C. Langreth, Phys. Rev. B 76, 125112 (2007).
     *
     *   G. Roman-Perez and J. M. Soler, Phys. Rev. Lett. 103, 096102 (2009).
     *
     *
     * If you are using vdW-DF2, please also cite:
     *
     *   K. Lee, E. D. Murray, L. Kong, B. I. Lundqvist, and
     *   D. C. Langreth, Phys. Rev. B 82, 081101(R) (2010).
     *
     *
     * If you are calculating the stress with vdW-DF, please also cite:
     *
     *   R. Sabatini, E. Kucukbenli, B. Kolb, T. Thonhauser, and
     *   S. de Gironcoli, J. Phys.: Condens. Matter 24, 424209 (2012).
     *

     Carrying out vdW-DF run using the following parameters:

     Nqs =      20    Nr_points =    1024   r_max =   100.000
     q_mesh =
               0.00001000     0.04494208     0.09755937     0.15916263
               0.23128650     0.31572767     0.41458969     0.53033537
               0.66584808     0.82450364     1.01025438     1.22772762
               1.48234092     1.78043706     2.12944203     2.53805004
               3.01644009     3.57652955     4.23227104     5.00000000

     Gradients computed in reciprocal space

[...]

     Starting wfc are  156 randomized atomic wfcs

     Self-consistent Calculation

[...]

     total energy              =   -1739.91582018 Ry
     Harris-Foulkes estimate   =   -1739.91582140 Ry
     estimated scf accuracy    <       0.00000311 Ry

     iteration # 17     ecut=    36.75 Ry     beta=0.10
     Davidson diagonalization with overlap
     ethr =  1.92E-09,  avg # of iterations =  2.1

[...]

     negative rho (up, down):  4.446E-01 0.000E+00

     Adding external electric field

     Computed dipole along edir(3) :
        Dipole                0.0200 Ry au,          0.0509 Debye
        Dipole field          0.0001 Ry au

        Potential amp.       -0.0047 Ry
        Total length         45.2200 bohr

     End of self-consistent calculation

[...]

          k = 0.0598-0.0527 0.0000 ( 18240 PWs)   bands (ev):

[...]

          k =-0.0898-0.0637 0.0000 ( 18224 PWs)   bands (ev):

   -70.6239 -70.6187 -70.3129 -70.3087 -70.3076 -70.3034 -48.0493 -48.0478
   -48.0247 -48.0235 -47.2753 -47.2485 -40.6434 -40.6368 -40.6302 -40.6221
   -40.6197 -40.5613 -40.3750 -40.3703 -40.3257 -40.3225 -40.3197 -40.3169
   -40.3017 -40.2945 -40.2926 -40.2898 -40.2894 -40.2855 -26.7544 -26.7455
   -26.7398 -26.7140 -26.7087 -26.6935 -26.6173 -26.6027 -26.5851 -26.5748
   -26.5131 -26.5099 -26.0128 -25.9302 -25.9039 -25.8816 -25.8656 -25.7664
    -2.1683  -1.8465  -1.3931  -1.3806  -1.1595  -1.0359  -0.8540  -0.8417
    -0.7390  -0.6531  -0.6486  -0.5945  -0.5372  -0.3450  -0.2321  -0.1848
     0.0428   0.1687   0.1930   0.2230   0.2603   0.3624   0.5457   0.5792
     0.6564   0.7084   0.7691   0.7725   0.8334   1.0394   1.2449   1.3635
     1.4250   1.5054   1.5138   1.6130   1.6653   1.7349   1.8427   1.9145
     2.3881   2.7673   2.7911   3.1547   3.2458   3.2531   3.2775   3.3437
     3.4900   3.7283   3.8794   3.8908   3.9161   3.9406   3.9501   4.0641
     4.1455   4.3834   4.5056   4.5260   4.8550   5.0029   5.1515

     the Fermi energy is     1.4115 ev

!    total energy              =   -1739.91581531 Ry
     Harris-Foulkes estimate   =   -1739.91582054 Ry
     estimated scf accuracy    <       0.00000042 Ry

     The total energy is the sum of the following terms:

     one-electron contribution =  -13687.93814990 Ry
     hartree contribution      =    6838.37415200 Ry
     xc contribution           =    -245.04920966 Ry
     ewald contribution        =    5354.77065249 Ry
     electric field correction =       0.00000104 Ry
     smearing contrib. (-TS)   =      -0.07326128 Ry

     convergence has been achieved in  17 iterations

 BEEF-vdW xc energy contributions
           1 :   -210.984724838261
           2 :    190.974845217727
           3 :   -157.567316011156
           4 :    120.675591969102
           5 :   -89.1023205527420
           6 :    67.4788608630285
           7 :   -55.7389437130287
           8 :    50.6989690319870
           9 :   -48.4007473006716
          10 :    45.9357797142636
          11 :   -42.1382908679306
          12 :    37.2567286627877
          13 :   -32.1581735967390
          14 :    27.6499129641953
          15 :   -24.1972316575198
          16 :    21.9393009671294
          17 :   -20.7576659587334
          18 :    20.2858855395884
          19 :   -19.9505333881350
          20 :    19.1592366499858
          21 :   -17.5951473140591
          22 :    15.4226940135783
          23 :   -13.2249534951544
          24 :    11.6687276066341
          25 :   -11.0947892950766
          26 :    11.3025050497420
          27 :   -11.6797882052430
          28 :    11.5927192419403
          29 :   -10.7703450182615
          30 :    9.43264672178381
          31 :   -22.8256317762860
          32 :   -16.8908088746742

     Forces acting on atoms (Ry/au):

     negative rho (up, down):  4.446E-01 0.000E+00
     atom    1 type  1   force =     0.00082673    0.00058591   -0.00030850
     atom    2 type  1   force =     0.00082771    0.00058766   -0.00031028
     atom    3 type  2   force =     0.00014315    0.00010236    0.01321072
     atom    4 type  2   force =     0.00014377    0.00010153    0.01320960
     atom    5 type  1   force =    -0.00035476   -0.00024150   -0.00828803
     atom    6 type  1   force =    -0.00035100   -0.00025868   -0.00828931
     atom    7 type  2   force =    -0.00012400   -0.00009141   -0.00416909
     atom    8 type  2   force =    -0.00012441   -0.00008577   -0.00416807
     atom    9 type  1   force =    -0.00019618   -0.00013960    0.00016704
     atom   10 type  1   force =    -0.00020031   -0.00014135    0.00016640
     atom   11 type  2   force =    -0.00029562   -0.00020990   -0.00061329
     atom   12 type  2   force =    -0.00029508   -0.00020925   -0.00060718

     Total force =     0.022915     Total SCF correction =     0.002009

     entering subroutine stress ...

     negative rho (up, down):  4.446E-01 0.000E+00
          total   stress  (Ry/bohr**3)                   (kbar)     P=  -12.96
  -0.00012999  -0.00003202  -0.00000268        -19.12     -4.71     -0.39
  -0.00003202  -0.00010755  -0.00000190         -4.71    -15.82     -0.28
  -0.00000268  -0.00000190  -0.00002668         -0.39     -0.28     -3.93

 !ASE

     Writing output data file calc.save

     General routines

     Parallel routines

   This run was terminated on:   5:47:20  19Dec2018

   JOB DONE.
Job  /afs/slac/g/suncat/bin/suncat-tsmpirun -x LD_LIBRARY_PATH -wdir /scratch/qe530578_f9bpV pw.x -in pw.inp

TID   HOST_NAME   COMMAND_LINE            STATUS            TERMINATION_TIME
00000 suncat2060 pw.x -in pw.inp   Done                     12/19/2018 05:47:21
00001 suncat2060 pw.x -in pw.inp   Done                     12/19/2018 05:47:21
00002 suncat2060 pw.x -in pw.inp   Done                     12/19/2018 05:47:21
00003 suncat2060 pw.x -in pw.inp   Done                     12/19/2018 05:47:21
00004 suncat2060 pw.x -in pw.inp   Done                     12/19/2018 05:47:21
00005 suncat2060 pw.x -in pw.inp   Done                     12/19/2018 05:47:20
00006 suncat2060 pw.x -in pw.inp   Done                     12/19/2018 05:47:21
00007 suncat2060 pw.x -in pw.inp   Done                     12/19/2018 05:47:21
00008 suncat2060 pw.x -in pw.inp   Done                     12/19/2018 05:47:21
00009 suncat2060 pw.x -in pw.inp   Done                     12/19/2018 05:47:21
00010 suncat2060 pw.x -in pw.inp   Done                     12/19/2018 05:47:21
00011 suncat2060 pw.x -in pw.inp   Done                     12/19/2018 05:47:21
00012 suncat2060 pw.x -in pw.inp   Done                     12/19/2018 05:47:21
00013 suncat2060 pw.x -in pw.inp   Done                     12/19/2018 05:47:21
00014 suncat2060 pw.x -in pw.inp   Done                     12/19/2018 05:47:21
00015 suncat2060 pw.x -in pw.inp   Done                     12/19/2018 05:47:21
00016 suncat2059 pw.x -in pw.inp   Done                     12/19/2018 05:47:21
00017 suncat2059 pw.x -in pw.inp   Done                     12/19/2018 05:47:21
00018 suncat2059 pw.x -in pw.inp   Done                     12/19/2018 05:47:21
00019 suncat2059 pw.x -in pw.inp   Done                     12/19/2018 05:47:21
00020 suncat2059 pw.x -in pw.inp   Done                     12/19/2018 05:47:21
00021 suncat2059 pw.x -in pw.inp   Done                     12/19/2018 05:47:21
00022 suncat2059 pw.x -in pw.inp   Done                     12/19/2018 05:47:21
00023 suncat2059 pw.x -in pw.inp   Done                     12/19/2018 05:47:20
00024 suncat2059 pw.x -in pw.inp   Done                     12/19/2018 05:47:21
00025 suncat2059 pw.x -in pw.inp   Done                     12/19/2018 05:47:21
00026 suncat2059 pw.x -in pw.inp   Done                     12/19/2018 05:47:21
00027 suncat2059 pw.x -in pw.inp   Done                     12/19/2018 05:47:21
00028 suncat2059 pw.x -in pw.inp   Done                     12/19/2018 05:47:21
00029 suncat2059 pw.x -in pw.inp   Done                     12/19/2018 05:47:21
00030 suncat2059 pw.x -in pw.inp   Done                     12/19/2018 05:47:21
00031 suncat2059 pw.x -in pw.inp   Done                     12/19/2018 05:47:21