     Program PWSCF v.5.1rc2 (svn rev. 11289) starts on 19Dec2018 at  7:26:26

     Current dimensions of program PWSCF are:
     Max number of different atomic species (ntypx) = 10
     Max number of k-points (npk) =  40000
     Max angular momentum in pseudopotentials (lmaxx) =  3
     Presently stress not available with electric field

     IMPORTANT: XC functional enforced from input :
     Exchange-correlation      = BEEF-VDW ( 1  4 27 13 2)
     Any further DFT definition will be discarded
     Please, verify this is what you really want

     Subspace diagonalization in iterative solution of the eigenvalue problem:
     a serial algorithm will be used

     Found symmetry operation: I + ( -0.5000 -0.5000  0.0000)
     This is a supercell, fractional translations are disabled

     bravais-lattice index     =            0
     lattice parameter (alat)  =       1.8897  a.u.
     unit-cell volume          =    5404.5629 (a.u.)^3
     number of atoms/cell      =           12
     number of atomic types    =            2
     number of electrons       =       144.00
     number of Kohn-Sham states=          102
     kinetic-energy cutoff     =      36.7493  Ry
     charge density cutoff     =     367.4932  Ry
     convergence threshold     =      1.0E-06
     mixing beta               =       0.1000
     number of iterations used =           10  plain     mixing
     Exchange-correlation      = BEEF-VDW ( 1  4 27 13 2)
     nstep                     =           50

     celldm(1)=   1.889726  celldm(2)=   0.000000  celldm(3)=   0.000000
     celldm(4)=   0.000000  celldm(5)=   0.000000  celldm(6)=   0.000000

     crystal axes: (cart. coord. in units of alat)
               a(1) = (   6.027650   0.000000   0.000000 )
               a(2) = (   2.829083   5.322486   0.000000 )
               a(3) = (   0.000000   0.000000  24.963269 )

     reciprocal axes: (cart. coord. in units 2 pi/alat)
               b(1) = (  0.165902 -0.088183  0.000000 )
               b(2) = (  0.000000  0.187882  0.000000 )
               b(3) = (  0.000000  0.000000  0.040059 )

     PseudoPot. # 1 for Ti read from file:
     /afs/slac.stanford.edu/u/if/mamunm/psp/gbrv1.5pbe/Ti.UPF
     MD5 check sum: 88a00a6731bd790ddea75d31a80cb452
     Pseudo is Ultrasoft + core correction, Zval = 12.0
     Generated by new atomic code, or converted to UPF format
     Using radial grid of  851 points,  6 beta functions with:
                l(1) =   0
                l(2) =   0
                l(3) =   1
                l(4) =   1
                l(5) =   2
                l(6) =   2
     Q(r) pseudized with  6 coefficients,  rinner =    1.000   1.000   1.000
                                                       1.000   1.000

     PseudoPot. # 2 for Hf read from file:
     /afs/slac.stanford.edu/u/if/mamunm/psp/gbrv1.5pbe/Hf.UPF
     MD5 check sum: 8ee9378dfe14276e333edf04c5e4aa26
     Pseudo is Ultrasoft + core correction, Zval = 12.0
     Generated by new atomic code, or converted to UPF format
     Using radial grid of  921 points,  8 beta functions with:
                l(1) =   0
                l(2) =   0
                l(3) =   0
                l(4) =   1
                l(5) =   1
                l(6) =   2
                l(7) =   2
                l(8) =   3
     Q(r) pseudized with  6 coefficients,  rinner =    1.200   1.200   1.200
                                                       1.200   1.200   1.200
                                                       1.200

     vdW kernel table read from file vdW_kernel_table
     MD5 check sum: 095c7af220d748ca6e76c0b4c6cfb241

     atomic species   valence    mass     pseudopotential
        Ti1           12.00    47.86700     Ti( 1.00)
        Hf1           12.00   178.49000     Hf( 1.00)

     No symmetry found

   Cartesian axes

     site n.     atom                  positions (alat units)
         1           Ti1 tau(   1) = (   0.0000000   0.0000000  10.0000000  )
         2           Ti1 tau(   2) = (   4.4283662   2.6612429  10.0000000  )
         3           Hf1 tau(   3) = (   3.0138249   0.0000000  10.0000000  )
         4           Hf1 tau(   4) = (   1.4145413   2.6612429  10.0000000  )
         5           Ti1 tau(   5) = (   6.0276498   3.6223382  12.4816344  )
         6           Ti1 tau(   6) = (   1.5992836   0.9610954  12.4816344  )
         7           Hf1 tau(   7) = (   3.0138249   3.6223382  12.4816344  )
         8           Hf1 tau(   8) = (   4.6131085   0.9610954  12.4816344  )
         9           Ti1 tau(   9) = (   3.1985673   1.9221907  14.9632688  )
        10           Ti1 tau(  10) = (   7.6269335   4.5834336  14.9632688  )
        11           Hf1 tau(  11) = (   6.2123922   1.9221907  14.9632688  )
        12           Hf1 tau(  12) = (   4.6131085   4.5834336  14.9632688  )

     number of k points=    20  Fermi-Dirac smearing, width (Ry)=  0.0110
                       cart. coord. in units 2pi/alat
        k(    1) = (   0.0000000   0.0000000   0.0000000), wk =   0.0555556
        k(    2) = (   0.0000000   0.0313137   0.0000000), wk =   0.1111111
        k(    3) = (   0.0000000   0.0626274   0.0000000), wk =   0.1111111
        k(    4) = (   0.0000000  -0.0939411   0.0000000), wk =   0.0555556
        k(    5) = (   0.0276504  -0.0146971   0.0000000), wk =   0.1111111
        k(    6) = (   0.0276504   0.0166166   0.0000000), wk =   0.1111111
        k(    7) = (   0.0276504   0.0479303   0.0000000), wk =   0.1111111
        k(    8) = (   0.0276504  -0.1086382   0.0000000), wk =   0.1111111
        k(    9) = (   0.0276504  -0.0773245   0.0000000), wk =   0.1111111
        k(   10) = (   0.0276504  -0.0460108   0.0000000), wk =   0.1111111
        k(   11) = (   0.0553007  -0.0293942   0.0000000), wk =   0.1111111
        k(   12) = (   0.0553007   0.0019195   0.0000000), wk =   0.1111111
        k(   13) = (   0.0553007   0.0332332   0.0000000), wk =   0.1111111
        k(   14) = (   0.0553007  -0.1233353   0.0000000), wk =   0.1111111
        k(   15) = (   0.0553007  -0.0920216   0.0000000), wk =   0.1111111
        k(   16) = (   0.0553007  -0.0607079   0.0000000), wk =   0.1111111
        k(   17) = (  -0.0829511   0.0440913   0.0000000), wk =   0.0555556
        k(   18) = (  -0.0829511   0.0754050   0.0000000), wk =   0.1111111
        k(   19) = (  -0.0829511   0.1067187   0.0000000), wk =   0.1111111
        k(   20) = (  -0.0829511  -0.0498497   0.0000000), wk =   0.0555556

     Largest allocated arrays     est. size (Mb)     dimensions
     Largest temporary arrays     est. size (Mb)     dimensions

     Check: negative/imaginary core charge=   -0.000004    0.000000

     Initial potential from superposition of free atoms
     Check: negative starting charge=   -0.647460

     starting charge  125.99972, renormalised to  144.00000

     negative rho (up, down):  7.400E-01 0.000E+00

     *
     * You are using vdW-DF for exchange-correlation in this calculation.
     * Please cite the following three references that made this development
     * possible:
     *
     *   M. Dion, H. Rydberg, E. Schroder, D. C. Langreth, and
     *   B. I. Lundqvist, Phys. Rev. Lett. 92, 246401 (2004).
     *
     *   T. Thonhauser, V. R. Cooper, S. Li, A. Puzder, P. Hyldgaard, and
     *   D. C. Langreth, Phys. Rev. B 76, 125112 (2007).
     *
     *   G. Roman-Perez and J. M. Soler, Phys. Rev. Lett. 103, 096102 (2009).
     *
     *
     * If you are using vdW-DF2, please also cite:
     *
     *   K. Lee, E. D. Murray, L. Kong, B. I. Lundqvist, and
     *   D. C. Langreth, Phys. Rev. B 82, 081101(R) (2010).
     *
     *
     * If you are calculating the stress with vdW-DF, please also cite:
     *
     *   R. Sabatini, E. Kucukbenli, B. Kolb, T. Thonhauser, and
     *   S. de Gironcoli, J. Phys.: Condens. Matter 24, 424209 (2012).
     *

     Carrying out vdW-DF run using the following parameters:

     Nqs =      20    Nr_points =    1024   r_max =   100.000
     q_mesh =
               0.00001000     0.04494208     0.09755937     0.15916263
               0.23128650     0.31572767     0.41458969     0.53033537
               0.66584808     0.82450364     1.01025438     1.22772762
               1.48234092     1.78043706     2.12944203     2.53805004
               3.01644009     3.57652955     4.23227104     5.00000000

     Gradients computed in reciprocal space

     Adding external electric field

     Computed dipole along edir(3) :
        Dipole                0.0000 Ry au,          0.0000 Debye
        Dipole field          0.0000 Ry au

        Potential amp.       -0.0000 Ry
        Total length         45.9944 bohr

     Starting wfc are  138 randomized atomic wfcs

     Self-consistent Calculation

     iteration #  1     ecut=    36.75 Ry     beta=0.10
     Davidson diagonalization with overlap
     ethr =  1.00E-02,  avg # of iterations =  8.9

[...]

     total energy              =   -1681.91105064 Ry
     Harris-Foulkes estimate   =   -1692.14550989 Ry
     estimated scf accuracy    <      60.31984184 Ry

[...]

     End of self-consistent calculation

          k = 0.0000 0.0000 0.0000 ( 20291 PWs)   bands (ev):

   -61.3325 -61.3320 -61.3070 -61.3065 -60.8792 -60.8534 -56.0130 -56.0128
   -55.9954 -55.9952 -55.8426 -55.8251 -32.3220 -32.3157 -32.2977 -32.2736
   -32.2720 -32.2610 -32.2529 -32.2449 -32.2282 -32.2129 -32.1330 -32.1217
   -32.1207 -32.0932 -32.0638 -32.0565 -32.0394 -31.9324 -30.0504 -30.0409
   -29.9445 -29.9245 -29.9015 -29.8730 -29.8384 -29.8282 -29.8053 -29.7938
   -29.6450 -29.5811 -29.5799 -29.4237 -29.3823 -29.3813 -29.3409 -29.1726
    -5.0199  -3.7109  -2.4129  -1.6785  -1.5907  -1.4947  -1.4867  -1.3796
    -1.2810  -1.0467  -0.9153  -0.9149  -0.6422  -0.4910  -0.4069   0.0489
     0.1232   0.3131   1.0147   1.0308   1.1936   1.2725   1.4298   1.5010
     1.5078   1.5126   1.6601   1.7066   1.8631   1.9191   1.9498   1.9913
     1.9918   2.0236   2.2683   2.3170   2.4947   2.5191   2.5249   2.5943
     2.5970   2.7524   2.8219   2.8809   3.0900   3.1443   3.4379   3.9177
     3.9236   4.1440   4.2025   4.2116   4.2126   4.4027

[...]

          k =-0.0830 0.0441 0.0000 ( 20298 PWs)   bands (ev):

[...]

     the Fermi energy is     1.0710 ev

!    total energy              =   -1682.52801969 Ry
     Harris-Foulkes estimate   =   -1682.52801780 Ry
     estimated scf accuracy    <       0.00000084 Ry

     The total energy is the sum of the following terms:

     one-electron contribution =   -9457.05976194 Ry
     hartree contribution      =    4712.62190156 Ry
     xc contribution           =    -576.29175884 Ry
     ewald contribution        =    3638.33785761 Ry
     electric field correction =       0.00000004 Ry
     smearing contrib. (-TS)   =      -0.13625812 Ry

     convergence has been achieved in  25 iterations

 BEEF-vdW xc energy contributions
           1 :   -516.228980625484
           2 :    476.474738520872
           3 :   -407.303576705573
           4 :    324.832591211659
           5 :   -244.676269283997
           6 :    177.049667650643
           7 :   -125.343546530544
           8 :    87.9188725867850
           9 :   -61.2854830333882
[...]

[...]

     Program PWSCF v.5.1rc2 (svn rev. 11289) starts on 19Dec2018 at  8:42: 5

[...]

   This run was terminated on:   9: 0:52  19Dec2018

[...]

     Program PWSCF v.5.1rc2 (svn rev. 11289) starts on 19Dec2018 at  9: 0:58

[...]

     iteration # 17     ecut=    36.75 Ry     beta=0.10
     Davidson diagonalization with overlap
     c_bands:  1 eigenvalues not converged
     ethr =  1.87E-06,  avg # of iterations =  5.8

[...]

   This run was terminated on:   9:38:43  19Dec2018

[...]

     Program PWSCF v.5.1rc2 (svn rev. 11289) starts on 19Dec2018 at  9:38:49

     Current dimensions of program PWSCF are:
     Max number of different atomic species (ntypx) = 10
     Max number of k-points (npk) =  40000
     Max angular momentum in pseudopotentials (lmaxx) =  3
     Presently stress not available with electric field

     IMPORTANT: XC functional enforced from input :
     Exchange-correlation      = BEEF-VDW ( 1  4 27 13 2)
     Any further DFT definition will be discarded
     Please, verify this is what you really want

     Subspace diagonalization in iterative solution of the eigenvalue problem:
     a serial algorithm will be used

     bravais-lattice index     =            0
     lattice parameter (alat)  =       1.8897  a.u.
     unit-cell volume          =    5404.5629 (a.u.)^3
     number of atoms/cell      =           12
     number of atomic types    =            2
     number of electrons       =       144.00
     number of Kohn-Sham states=          102
     kinetic-energy cutoff     =      36.7493  Ry
     charge density cutoff     =     367.4932  Ry
     convergence threshold     =      1.0E-06
     mixing beta               =       0.1000
     number of iterations used =           10  plain     mixing
     Exchange-correlation      = BEEF-VDW ( 1  4 27 13 2)
     nstep                     =           50

     celldm(1)=   1.889726  celldm(2)=   0.000000  celldm(3)=   0.000000
     celldm(4)=   0.000000  celldm(5)=   0.000000  celldm(6)=   0.000000

     crystal axes: (cart. coord. in units of alat)
               a(1) = (   6.027650   0.000000   0.000000 )
               a(2) = (   2.829083   5.322486   0.000000 )
               a(3) = (   0.000000   0.000000  24.963269 )

     reciprocal axes: (cart. coord. in units 2 pi/alat)
               b(1) = (  0.165902 -0.088183  0.000000 )
               b(2) = (  0.000000  0.187882  0.000000 )
               b(3) = (  0.000000  0.000000  0.040059 )

     PseudoPot. # 1 for Ti read from file:
     /afs/slac.stanford.edu/u/if/mamunm/psp/gbrv1.5pbe/Ti.UPF
     MD5 check sum: 88a00a6731bd790ddea75d31a80cb452
     Pseudo is Ultrasoft + core correction, Zval = 12.0
     Generated by new atomic code, or converted to UPF format
     Using radial grid of  851 points,  6 beta functions with:
                l(1) =   0
                l(2) =   0
                l(3) =   1
                l(4) =   1
                l(5) =   2
                l(6) =   2
     Q(r) pseudized with  6 coefficients,  rinner =    1.000   1.000   1.000
                                                       1.000   1.000

     PseudoPot. # 2 for Hf read from file:
     /afs/slac.stanford.edu/u/if/mamunm/psp/gbrv1.5pbe/Hf.UPF
     MD5 check sum: 8ee9378dfe14276e333edf04c5e4aa26
     Pseudo is Ultrasoft + core correction, Zval = 12.0
     Generated by new atomic code, or converted to UPF format
     Using radial grid of  921 points,  8 beta functions with:
                l(1) =   0
                l(2) =   0
                l(3) =   0
                l(4) =   1
                l(5) =   1
                l(6) =   2
                l(7) =   2
                l(8) =   3
     Q(r) pseudized with  6 coefficients,  rinner =    1.200   1.200   1.200
                                                       1.200   1.200   1.200
                                                       1.200

     vdW kernel table read from file vdW_kernel_table
     MD5 check sum: 095c7af220d748ca6e76c0b4c6cfb241

     atomic species   valence    mass     pseudopotential
        Ti1           12.00    47.86700     Ti( 1.00)
        Hf1           12.00   178.49000     Hf( 1.00)

     No symmetry found

   Cartesian axes

     site n.     atom                  positions (alat units)
         1           Ti1 tau(   1) = (   0.0000000   0.0000000  10.0000000  )
         2           Ti1 tau(   2) = (   4.4283662   2.6612429  10.0000000  )
         3           Hf1 tau(   3) = (   3.0138249   0.0000000  10.0000000  )
         4           Hf1 tau(   4) = (   1.4145413   2.6612429  10.0000000  )
         5           Ti1 tau(   5) = (   6.0276498   3.6223382  12.4816344  )
         6           Ti1 tau(   6) = (   1.5992836   0.9610954  12.4816344  )
         7           Hf1 tau(   7) = (   3.0138249   3.6223382  12.4816344  )
         8           Hf1 tau(   8) = (   4.6131085   0.9610954  12.4816344  )
         9           Ti1 tau(   9) = (   3.1269811   1.8791696  14.7950389  )
        10           Ti1 tau(  10) = (   7.5553915   4.5404408  14.7949873  )
        11           Hf1 tau(  11) = (   6.2139874   1.9232213  14.8603018  )
        12           Hf1 tau(  12) = (   4.6147659   4.5843543  14.8603018  )

     number of k points=    20  Fermi-Dirac smearing, width (Ry)=  0.0110
                       cart. coord. in units 2pi/alat
        k(    1) = (   0.0000000   0.0000000   0.0000000), wk =   0.0555556
        k(    2) = (   0.0000000   0.0313137   0.0000000), wk =   0.1111111
        k(    3) = (   0.0000000   0.0626274   0.0000000), wk =   0.1111111
        k(    4) = (   0.0000000  -0.0939411   0.0000000), wk =   0.0555556
        k(    5) = (   0.0276504  -0.0146971   0.0000000), wk =   0.1111111
        k(    6) = (   0.0276504   0.0166166   0.0000000), wk =   0.1111111
        k(    7) = (   0.0276504   0.0479303   0.0000000), wk =   0.1111111
        k(    8) = (   0.0276504  -0.1086382   0.0000000), wk =   0.1111111
        k(    9) = (   0.0276504  -0.0773245   0.0000000), wk =   0.1111111
        k(   10) = (   0.0276504  -0.0460108   0.0000000), wk =   0.1111111
        k(   11) = (   0.0553007  -0.0293942   0.0000000), wk =   0.1111111
        k(   12) = (   0.0553007   0.0019195   0.0000000), wk =   0.1111111
        k(   13) = (   0.0553007   0.0332332   0.0000000), wk =   0.1111111
        k(   14) = (   0.0553007  -0.1233353   0.0000000), wk =   0.1111111
        k(   15) = (   0.0553007  -0.0920216   0.0000000), wk =   0.1111111
        k(   16) = (   0.0553007  -0.0607079   0.0000000), wk =   0.1111111
        k(   17) = (  -0.0829511   0.0440913   0.0000000), wk =   0.0555556
        k(   18) = (  -0.0829511   0.0754050   0.0000000), wk =   0.1111111
        k(   19) = (  -0.0829511   0.1067187   0.0000000), wk =   0.1111111
        k(   20) = (  -0.0829511  -0.0498497   0.0000000), wk =   0.0555556

     Largest allocated arrays     est. size (Mb)     dimensions
     Largest temporary arrays     est. size (Mb)     dimensions

     Check: negative/imaginary core charge=   -0.000004    0.000000

     Initial potential from superposition of free atoms
     Check: negative starting charge=   -0.647464

     starting charge  125.99972, renormalised to  144.00000

[...]

     *
     * You are using vdW-DF for exchange-correlation in this calculation.
     * Please cite the following three references that made this development
     * possible:
     *
     *   M. Dion, H. Rydberg, E. Schroder, D. C. Langreth, and
     *   B. I. Lundqvist, Phys. Rev. Lett. 92, 246401 (2004).
     *
     *   T. Thonhauser, V. R. Cooper, S. Li, A. Puzder, P. Hyldgaard, and
     *   D. C. Langreth, Phys. Rev. B 76, 125112 (2007).
     *
     *   G. Roman-Perez and J. M. Soler, Phys. Rev. Lett. 103, 096102 (2009).
     *
     *
     * If you are using vdW-DF2, please also cite:
     *
     *   K. Lee, E. D. Murray, L. Kong, B. I. Lundqvist, and
     *   D. C. Langreth, Phys. Rev. B 82, 081101(R) (2010).
     *
     *
     * If you are calculating the stress with vdW-DF, please also cite:
     *
     *   R. Sabatini, E. Kucukbenli, B. Kolb, T. Thonhauser, and
     *   S. de Gironcoli, J. Phys.: Condens. Matter 24, 424209 (2012).
     *

     Carrying out vdW-DF run using the following parameters:

     Nqs =      20    Nr_points =    1024   r_max =   100.000
     q_mesh =
               0.00001000     0.04494208     0.09755937     0.15916263
               0.23128650     0.31572767     0.41458969     0.53033537
               0.66584808     0.82450364     1.01025438     1.22772762
               1.48234092     1.78043706     2.12944203     2.53805004
               3.01644009     3.57652955     4.23227104     5.00000000

     Gradients computed in reciprocal space

[...]

     Starting wfc are  138 randomized atomic wfcs

     Self-consistent Calculation

[...]

     total energy              =   -1682.53812650 Ry
     Harris-Foulkes estimate   =   -1682.53812667 Ry
     estimated scf accuracy    <       0.00000582 Ry

     iteration # 24     ecut=    36.75 Ry     beta=0.10
     Davidson diagonalization with overlap
     ethr =  4.04E-09,  avg # of iterations =  1.1

[...]

     negative rho (up, down):  6.809E-01 0.000E+00

     Adding external electric field

     Computed dipole along edir(3) :
        Dipole                0.0036 Ry au,          0.0091 Debye
        Dipole field          0.0000 Ry au

        Potential amp.       -0.0008 Ry
        Total length         45.9944 bohr

     End of self-consistent calculation

[...]

          k = 0.0553-0.0607 0.0000 ( 20322 PWs)   bands (ev):

[...]

          k =-0.0830-0.0498 0.0000 ( 20350 PWs)   bands (ev):

   -61.3330 -61.3077 -61.2819 -61.2564 -60.7954 -60.7694 -56.0105 -55.9927
   -55.9406 -55.9226 -55.7881 -55.7702 -32.3060 -32.2820 -32.2601 -32.2487
   -32.2414 -32.2168 -32.2140 -32.1930 -32.1797 -32.1574 -32.1190 -32.0758
   -32.0560 -32.0376 -32.0110 -31.9873 -31.9680 -31.8812 -30.0684 -30.0269
   -29.9671 -29.9106 -29.8887 -29.8719 -29.8462 -29.8371 -29.8170 -29.7848
   -29.5903 -29.5844 -29.5463 -29.3682 -29.3222 -29.3185 -29.2715 -29.1029
    -3.6141  -3.3261  -2.4829  -1.7124  -1.6672  -1.0516  -0.9467  -0.9205
    -0.7633  -0.6904  -0.1428   0.0069   0.1375   0.1607   0.2515   0.2525
     0.4850   0.4874   0.5273   0.6003   0.6482   0.6780   0.8670   0.9077
     0.9165   0.9632   1.0279   1.0610   1.1701   1.3655   1.5466   1.5502
     1.6821   1.6929   1.8990   2.1250   2.1623   2.2093   2.2825   2.3347
     2.4944   2.5438   2.6837   2.7301   2.8706   3.0134   3.1786   3.2673
     3.2698   3.2731   3.5893   3.9078   4.0407   4.1484

     the Fermi energy is     1.0652 ev

!    total energy              =   -1682.53812983 Ry
     Harris-Foulkes estimate   =   -1682.53812699 Ry
     estimated scf accuracy    <       0.00000078 Ry

     The total energy is the sum of the following terms:

     one-electron contribution =   -9639.33102564 Ry
     hartree contribution      =    4803.96296694 Ry
     xc contribution           =    -576.49974958 Ry
     ewald contribution        =    3729.45919044 Ry
     electric field correction =       0.00000003 Ry
     smearing contrib. (-TS)   =      -0.12951203 Ry

     convergence has been achieved in  24 iterations

 BEEF-vdW xc energy contributions
           1 :   -516.440058884444
           2 :    476.752668626071
           3 :   -407.637700896886
           4 :    325.126522257039
           5 :   -244.819633198853
           6 :    177.005856119116
           7 :   -125.182914941065
           8 :    87.7722467780097
           9 :   -61.2558412225598
          10 :    42.6314937007303
          11 :   -30.1535219794343
          12 :    22.6403417783899
          13 :   -18.4836970514801
          14 :    15.3475948480007
          15 :   -10.8328604864153
          16 :    3.57926681931053
          17 :    6.00339179528351
          18 :   -15.9231364047603
          19 :    23.6176829629351
          20 :   -27.1961970566380
          21 :    26.2103369199056
          22 :   -21.6243160655522
          23 :    15.1539334625429
          24 :   -8.47783911295198
          25 :    2.76073217161866
          26 :    1.38067331615332
          27 :   -3.66876381412794
          28 :    4.00595030178738
          29 :   -2.52014385748862
          30 :  -0.275352476571129
          31 :   -40.3338033147519
          32 :   -28.9572505394168

     Forces acting on atoms (Ry/au):

     negative rho (up, down):  6.809E-01 0.000E+00
     atom    1 type  1   force =     0.00563105    0.00338460    0.01287525
     atom    2 type  1   force =     0.00563126    0.00338433    0.01287624
     atom    3 type  2   force =    -0.00573625   -0.00345207    0.00888329
     atom    4 type  2   force =    -0.00573967   -0.00344550    0.00888402
     atom    5 type  1   force =     0.00170727    0.00102653   -0.00803458
     atom    6 type  1   force =     0.00169950    0.00102081   -0.00802251
     atom    7 type  2   force =    -0.00076781   -0.00047510   -0.01445644
     atom    8 type  2   force =    -0.00077894   -0.00045433   -0.01445752
     atom    9 type  1   force =    -0.00144063   -0.00086618    0.00051853
     atom   10 type  1   force =    -0.00144709   -0.00086982    0.00052949
     atom   11 type  2   force =     0.00062607    0.00036438    0.00020135
     atom   12 type  2   force =     0.00061523    0.00038235    0.00020287

     Total force =     0.035060     Total SCF correction =     0.001745

     entering subroutine stress ...

     negative rho (up, down):  6.809E-01 0.000E+00
          total   stress  (Ry/bohr**3)                   (kbar)     P=   -8.58
  -0.00005974   0.00000305  -0.00000149         -8.79      0.45     -0.22
   0.00000305  -0.00006299  -0.00000090          0.45     -9.27     -0.13
  -0.00000149  -0.00000090  -0.00005217         -0.22     -0.13     -7.67

 !ASE

     Writing output data file calc.save

     General routines

     Parallel routines

   This run was terminated on:   9:57: 1  19Dec2018

   JOB DONE.
Job  /afs/slac/g/suncat/bin/suncat-tsmpirun -x LD_LIBRARY_PATH -wdir /scratch/qe530682_HgclR pw.x -in pw.inp

TID   HOST_NAME   COMMAND_LINE            STATUS            TERMINATION_TIME
00000 suncat2026 pw.x -in pw.inp   Done                     12/19/2018 09:57:01
00001 suncat2026 pw.x -in pw.inp   Done                     12/19/2018 09:57:01
00002 suncat2026 pw.x -in pw.inp   Done                     12/19/2018 09:57:01
00003 suncat2026 pw.x -in pw.inp   Done                     12/19/2018 09:57:01
00004 suncat2026 pw.x -in pw.inp   Done                     12/19/2018 09:57:01
00005 suncat2026 pw.x -in pw.inp   Done                     12/19/2018 09:57:01
00006 suncat2026 pw.x -in pw.inp   Done                     12/19/2018 09:57:01
00007 suncat2026 pw.x -in pw.inp   Done                     12/19/2018 09:57:01
00008 suncat2026 pw.x -in pw.inp   Done                     12/19/2018 09:57:01
00009 suncat2026 pw.x -in pw.inp   Done                     12/19/2018 09:57:01
00010 suncat2026 pw.x -in pw.inp   Done                     12/19/2018 09:57:01
00011 suncat2026 pw.x -in pw.inp   Done                     12/19/2018 09:57:01
00012 suncat2026 pw.x -in pw.inp   Done                     12/19/2018 09:57:01
00013 suncat2026 pw.x -in pw.inp   Done                     12/19/2018 09:57:01
00014 suncat2026 pw.x -in pw.inp   Done                     12/19/2018 09:57:01
00015 suncat2026 pw.x -in pw.inp   Done                     12/19/2018 09:57:01
00016 suncat2025 pw.x -in pw.inp   Done                     12/19/2018 09:57:01
00017 suncat2025 pw.x -in pw.inp   Done                     12/19/2018 09:57:01
00018 suncat2025 pw.x -in pw.inp   Done                     12/19/2018 09:57:01
00019 suncat2025 pw.x -in pw.inp   Done                     12/19/2018 09:57:01
00020 suncat2025 pw.x -in pw.inp   Done                     12/19/2018 09:57:01
00021 suncat2025 pw.x -in pw.inp   Done                     12/19/2018 09:57:01
00022 suncat2025 pw.x -in pw.inp   Done                     12/19/2018 09:57:01
00023 suncat2025 pw.x -in pw.inp   Done                     12/19/2018 09:57:01
00024 suncat2025 pw.x -in pw.inp   Done                     12/19/2018 09:57:01
00025 suncat2025 pw.x -in pw.inp   Done                     12/19/2018 09:57:01
00026 suncat2025 pw.x -in pw.inp   Done                     12/19/2018 09:57:01
00027 suncat2025 pw.x -in pw.inp   Done                     12/19/2018 09:57:01
00028 suncat2025 pw.x -in pw.inp   Done                     12/19/2018 09:57:01
00029 suncat2025 pw.x -in pw.inp   Done                     12/19/2018 09:57:01
00030 suncat2025 pw.x -in pw.inp   Done                     12/19/2018 09:57:01
00031 suncat2025 pw.x -in pw.inp   Done                     12/19/2018 09:57:01