     Program PWSCF v.5.1rc2 (svn rev. 11289) starts on 29Dec2018 at 20:19:33

     Current dimensions of program PWSCF are:
     Max number of different atomic species (ntypx) = 10
     Max number of k-points (npk) =  40000
     Max angular momentum in pseudopotentials (lmaxx) =  3
     Presently stress not available with electric field

     IMPORTANT: XC functional enforced from input :
     Exchange-correlation      = BEEF-VDW ( 1  4 27 13 2)
     Any further DFT definition will be discarded
     Please, verify this is what you really want

     Subspace diagonalization in iterative solution of the eigenvalue problem:
     a serial algorithm will be used

     Found symmetry operation: I + (  0.5000  0.0000  0.0000)
     This is a supercell, fractional translations are disabled

     bravais-lattice index     =            0
     lattice parameter (alat)  =       1.8897  a.u.
     unit-cell volume          =    4389.3198 (a.u.)^3
     number of atoms/cell      =           12
     number of atomic types    =            2
     number of electrons       =       186.00
     number of Kohn-Sham states=          123
     kinetic-energy cutoff     =      36.7493  Ry
     charge density cutoff     =     367.4932  Ry
     convergence threshold     =      1.0E-06
     mixing beta               =       0.1000
     number of iterations used =           10  plain     mixing
     Exchange-correlation      = BEEF-VDW ( 1  4 27 13 2)
     nstep                     =           50

     celldm(1)=   1.889726  celldm(2)=   0.000000  celldm(3)=   0.000000
     celldm(4)=   0.000000  celldm(5)=   0.000000  celldm(6)=   0.000000

     crystal axes: (cart. coord. in units of alat)
               a(1) = (   5.434368   0.000000   0.000000 )
               a(2) = (  -2.717184   4.882252   0.000000 )
               a(3) = (   0.000000   0.000000  24.514974 )

     reciprocal axes: (cart. coord. in units 2 pi/alat)
               b(1) = (  0.184014  0.102412  0.000000 )
               b(2) = (  0.000000  0.204824  0.000000 )
               b(3) = (  0.000000  0.000000  0.040791 )

     PseudoPot. # 1 for Tc read from file:
     /afs/slac.stanford.edu/u/if/mamunm/psp/gbrv1.5pbe/Tc.UPF
     MD5 check sum: 9eb49e5b028550b2339a02317eb7b844
     Pseudo is Ultrasoft + core correction, Zval = 15.0
     Generated by new atomic code, or converted to UPF format
     Using radial grid of  965 points,  6 beta functions with:
                l(1) =   0
                l(2) =   0
                l(3) =   1
                l(4) =   1
                l(5) =   2
                l(6) =   2
     Q(r) pseudized with  8 coefficients,  rinner =    1.300   1.300   1.300
                                                       1.300   1.300

     PseudoPot. # 2 for Pt read from file:
     /afs/slac.stanford.edu/u/if/mamunm/psp/gbrv1.5pbe/Pt.UPF
     MD5 check sum: f09d6de1a584b5a045c4fc126da2d0c4
     Pseudo is Ultrasoft + core correction, Zval = 16.0
     Generated by new atomic code, or converted to UPF format
     Using radial grid of  985 points,  6 beta functions with:
                l(1) =   0
                l(2) =   0
                l(3) =   1
                l(4) =   1
                l(5) =   2
                l(6) =   2
     Q(r) pseudized with  8 coefficients,  rinner =    1.300   1.300   1.300
                                                       1.300   1.300

     vdW kernel table read from file vdW_kernel_table
     MD5 check sum: 095c7af220d748ca6e76c0b4c6cfb241

     atomic species   valence    mass     pseudopotential
        Tc1           15.00    97.90721     Tc( 1.00)
        Pt1           16.00   195.08400     Pt( 1.00)

     No symmetry found

   Cartesian axes

     site n.     atom                  positions (alat units)
         1           Tc1 tau(   1) = (   0.0000000   0.0000000  10.0000000  )
         2           Tc1 tau(   2) = (   2.7171838   0.0000000  10.0000000  )
         3           Pt1 tau(   3) = (   1.3585919   2.4411259  10.0000000  )
         4           Pt1 tau(   4) = (  -1.3585919   2.4411259  10.0000000  )
         5           Tc1 tau(   5) = (   2.7171838   1.5122300  12.2574871  )
         6           Tc1 tau(   6) = (  -0.0000000   1.5122300  12.2574871  )
         7           Pt1 tau(   7) = (  -1.3585919   3.9533559  12.2574871  )
         8           Pt1 tau(   8) = (   1.3585919   3.9533559  12.2574871  )
         9           Tc1 tau(   9) = (   0.0000000   3.0244600  14.5149742  )
        10           Tc1 tau(  10) = (   2.7171838   3.0244600  14.5149742  )
        11           Pt1 tau(  11) = (   4.0757756   0.5833340  14.5149742  )
        12           Pt1 tau(  12) = (   1.3585919   0.5833340  14.5149742  )

     number of k points=    20  Fermi-Dirac smearing, width (Ry)=  0.0110
                       cart. coord. in units 2pi/alat
        k(    1) = (   0.0000000   0.0000000   0.0000000), wk =   0.0555556
        k(    2) = (   0.0000000   0.0341373   0.0000000), wk =   0.1111111
        k(    3) = (   0.0000000   0.0682745   0.0000000), wk =   0.1111111
        k(    4) = (   0.0000000  -0.1024118   0.0000000), wk =   0.0555556
        k(    5) = (   0.0306690   0.0170686   0.0000000), wk =   0.1111111
        k(    6) = (   0.0306690   0.0512059   0.0000000), wk =   0.1111111
        k(    7) = (   0.0306690   0.0853431   0.0000000), wk =   0.1111111
        k(    8) = (   0.0306690  -0.0853431   0.0000000), wk =   0.1111111
        k(    9) = (   0.0306690  -0.0512059   0.0000000), wk =   0.1111111
        k(   10) = (   0.0306690  -0.0170686   0.0000000), wk =   0.1111111
        k(   11) = (   0.0613380   0.0341373   0.0000000), wk =   0.1111111
        k(   12) = (   0.0613380   0.0682745   0.0000000), wk =   0.1111111
        k(   13) = (   0.0613380   0.1024118   0.0000000), wk =   0.1111111
        k(   14) = (   0.0613380  -0.0682745   0.0000000), wk =   0.1111111
        k(   15) = (   0.0613380  -0.0341373   0.0000000), wk =   0.1111111
        k(   16) = (   0.0613380   0.0000000   0.0000000), wk =   0.1111111
        k(   17) = (  -0.0920070  -0.0512059   0.0000000), wk =   0.0555556
        k(   18) = (  -0.0920070  -0.0170686   0.0000000), wk =   0.1111111
        k(   19) = (  -0.0920070   0.0170686   0.0000000), wk =   0.1111111
        k(   20) = (  -0.0920070  -0.1536176   0.0000000), wk =   0.0555556

     Largest allocated arrays     est. size (Mb)     dimensions
     Largest temporary arrays     est. size (Mb)     dimensions

     Check: negative/imaginary core charge=   -0.000013    0.000000

     Initial potential from superposition of free atoms
     Check: negative starting charge=   -1.859682

     starting charge  176.99977, renormalised to  186.00000

     negative rho (up, down):  1.954E+00 0.000E+00

     *
     * You are using vdW-DF for exchange-correlation in this calculation.
     * Please cite the following three references that made this development
     * possible:
     *
     *   M. Dion, H. Rydberg, E. Schroder, D. C. Langreth, and
     *   B. I. Lundqvist, Phys. Rev. Lett. 92, 246401 (2004).
     *
     *   T. Thonhauser, V. R. Cooper, S. Li, A. Puzder, P. Hyldgaard, and
     *   D. C. Langreth, Phys. Rev. B 76, 125112 (2007).
     *
     *   G. Roman-Perez and J. M. Soler, Phys. Rev. Lett. 103, 096102 (2009).
     *
     *
     * If you are using vdW-DF2, please also cite:
     *
     *   K. Lee, E. D. Murray, L. Kong, B. I. Lundqvist, and
     *   D. C. Langreth, Phys. Rev. B 82, 081101(R) (2010).
     *
     *
     * If you are calculating the stress with vdW-DF, please also cite:
     *
     *   R. Sabatini, E. Kucukbenli, B. Kolb, T. Thonhauser, and
     *   S. de Gironcoli, J. Phys.: Condens. Matter 24, 424209 (2012).
     *

     Carrying out vdW-DF run using the following parameters:

     Nqs =      20    Nr_points =    1024   r_max =   100.000
     q_mesh =
               0.00001000     0.04494208     0.09755937     0.15916263
               0.23128650     0.31572767     0.41458969     0.53033537
               0.66584808     0.82450364     1.01025438     1.22772762
               1.48234092     1.78043706     2.12944203     2.53805004
               3.01644009     3.57652955     4.23227104     5.00000000

     Gradients computed in reciprocal space

     Adding external electric field

     Computed dipole along edir(3) :
        Dipole                0.0000 Ry au,          0.0000 Debye
        Dipole field          0.0000 Ry au

        Potential amp.       -0.0000 Ry
        Total length         45.1684 bohr

     Starting wfc are  150 randomized atomic wfcs

     Self-consistent Calculation

     iteration #  1     ecut=    36.75 Ry     beta=0.10
     Davidson diagonalization with overlap
     ethr =  1.00E-02,  avg # of iterations =  7.9

[...]

     total energy              =   -2322.52453352 Ry
     Harris-Foulkes estimate   =   -2332.65984131 Ry
     estimated scf accuracy    <      59.11938760 Ry

[...]

     End of self-consistent calculation

          k = 0.0000 0.0000 0.0000 ( 16489 PWs)   bands (ev):

   -65.3530 -65.2789 -64.9310 -64.9291 -64.8570 -64.8554 -51.4150 -51.2602
   -51.2302 -51.2243 -51.1944 -51.1157 -50.9257 -50.9254 -50.8259 -50.8209
   -50.7961 -50.7909 -50.6330 -50.6277 -50.6275 -50.6171 -50.6053 -50.5895
   -37.6093 -37.4379 -37.3615 -37.3457 -37.2758 -37.2157 -37.2113 -36.9494
   -36.9485 -36.9427 -36.8813 -36.8773 -36.8736 -36.8103 -36.7767 -36.7125
   -36.5577 -36.5562  -6.0704  -4.4573  -4.3845  -4.1161  -3.9856  -3.9131
    -3.7726  -3.6543  -3.6028  -3.4420  -3.3526  -3.3203  -3.1400  -2.9842
    -2.9077  -2.1342  -1.8401  -1.8101  -1.6103  -1.5094  -1.2727  -1.0558
    -0.9730  -0.7997  -0.6457  -0.5975  -0.5748  -0.3869  -0.2791  -0.2027
    -0.1565  -0.1309   0.2273   0.6079   0.7589   0.8939   1.0904   1.1176
     1.1252   1.2515   1.3263   1.7996   1.8931   2.0097   2.0249   2.1920
     2.2099   2.7616   2.8218   2.9258   3.0234   3.0373   3.1140   3.1157
     3.2363   3.3678   3.5284   3.5350   3.6901   3.7211   3.8060   3.9757
     4.0201   4.0778   4.1165   4.3570   4.6422   5.3755   5.8031   5.9485
     5.9863   6.1390   6.2511   6.3917   6.6733   7.0413   7.9524   8.5876
     8.6121   8.6645   9.0844

[...]

          k =-0.0920-0.0512 0.0000 ( 16548 PWs)   bands (ev):

[...]

     the Fermi energy is     2.2272 ev

!    total energy              =   -2325.78992520 Ry
     Harris-Foulkes estimate   =   -2325.78988577 Ry
     estimated scf accuracy    <       0.00000051 Ry

     The total energy is the sum of the following terms:

     one-electron contribution =  -19356.46010532 Ry
     hartree contribution      =    9694.04320311 Ry
     xc contribution           =    -549.96531097 Ry
     ewald contribution        =    7886.67878460 Ry
     electric field correction =       0.00000004 Ry
     smearing contrib. (-TS)   =      -0.08649667 Ry

     convergence has been achieved in  18 iterations

 BEEF-vdW xc energy contributions
           1 :   -486.987315178270
           2 :    451.437602237642
           3 :   -387.794661568550
           4 :    308.319455549838
           5 :   -226.398278068118
           6 :    152.977906267916
           7 :   -94.3849969639821
[...]
     Pseudo is Ultrasoft + core correction, Zval = 15.0
     Generated by new atomic code, or converted to UPF format
     Using radial grid of  965 points,  6 beta functions with:
                l(1) =   0
                l(2) =   0
                l(3) =   1
                l(4) =   1
                l(5) =   2
                l(6) =   2
     Q(r) pseudized with  8 coefficients,  rinner =    1.300   1.300   1.300
                                                       1.300   1.300

     PseudoPot. # 2 for Pt read from file:
     /afs/slac.stanford.edu/u/if/mamunm/psp/gbrv1.5pbe/Pt.UPF
     MD5 check sum: f09d6de1a584b5a045c4fc126da2d0c4
     Pseudo is Ultrasoft + core correction, Zval = 16.0
     Generated by new atomic code, or converted to UPF format
     Using radial grid of  985 points,  6 beta functions with:
                l(1) =   0
                l(2) =   0
                l(3) =   1
                l(4) =   1
                l(5) =   2
                l(6) =   2
     Q(r) pseudized with  8 coefficients,  rinner =    1.300   1.300   1.300
                                                       1.300   1.300

     vdW kernel table read from file vdW_kernel_table
     MD5 check sum: 095c7af220d748ca6e76c0b4c6cfb241

     atomic species   valence    mass     pseudopotential
        Tc1           15.00    97.90721     Tc( 1.00)
        Pt1           16.00   195.08400     Pt( 1.00)

     No symmetry found

   Cartesian axes

     site n.     atom                  positions (alat units)
         1           Tc1 tau(   1) = (   0.0000000   0.0000000  10.0000000  )
         2           Tc1 tau(   2) = (   2.7171838   0.0000000  10.0000000  )
         3           Pt1 tau(   3) = (   1.3585919   2.4411259  10.0000000  )
         4           Pt1 tau(   4) = (  -1.3585919   2.4411259  10.0000000  )
         5           Tc1 tau(   5) = (   2.7171838   1.5122300  12.2574871  )
         6           Tc1 tau(   6) = (  -0.0000000   1.5122300  12.2574871  )
         7           Pt1 tau(   7) = (  -1.3585919   3.9533559  12.2574871  )
         8           Pt1 tau(   8) = (   1.3585919   3.9533559  12.2574871  )
         9           Tc1 tau(   9) = (   0.0000734   3.0475992  14.4299739  )
        10           Tc1 tau(  10) = (   2.7172612   3.0476334  14.4300441  )
        11           Pt1 tau(  11) = (   4.0758176   0.7121211  14.4816070  )
        12           Pt1 tau(  12) = (   1.3586103   0.7121209  14.4816078  )

     number of k points=    20  Fermi-Dirac smearing, width (Ry)=  0.0110
                       cart. coord. in units 2pi/alat
        k(    1) = (   0.0000000   0.0000000   0.0000000), wk =   0.0555556
        k(    2) = (   0.0000000   0.0341373   0.0000000), wk =   0.1111111
        k(    3) = (   0.0000000   0.0682745   0.0000000), wk =   0.1111111
        k(    4) = (   0.0000000  -0.1024118   0.0000000), wk =   0.0555556
        k(    5) = (   0.0306690   0.0170686   0.0000000), wk =   0.1111111
        k(    6) = (   0.0306690   0.0512059   0.0000000), wk =   0.1111111
        k(    7) = (   0.0306690   0.0853431   0.0000000), wk =   0.1111111
        k(    8) = (   0.0306690  -0.0853431   0.0000000), wk =   0.1111111
        k(    9) = (   0.0306690  -0.0512059   0.0000000), wk =   0.1111111
        k(   10) = (   0.0306690  -0.0170686   0.0000000), wk =   0.1111111
        k(   11) = (   0.0613380   0.0341373   0.0000000), wk =   0.1111111
        k(   12) = (   0.0613380   0.0682745   0.0000000), wk =   0.1111111
        k(   13) = (   0.0613380   0.1024118   0.0000000), wk =   0.1111111
        k(   14) = (   0.0613380  -0.0682745   0.0000000), wk =   0.1111111
        k(   15) = (   0.0613380  -0.0341373   0.0000000), wk =   0.1111111
        k(   16) = (   0.0613380   0.0000000   0.0000000), wk =   0.1111111
        k(   17) = (  -0.0920070  -0.0512059   0.0000000), wk =   0.0555556
        k(   18) = (  -0.0920070  -0.0170686   0.0000000), wk =   0.1111111
        k(   19) = (  -0.0920070   0.0170686   0.0000000), wk =   0.1111111
        k(   20) = (  -0.0920070  -0.1536176   0.0000000), wk =   0.0555556

     Largest allocated arrays     est. size (Mb)     dimensions
     Largest temporary arrays     est. size (Mb)     dimensions

     Check: negative/imaginary core charge=   -0.000013    0.000000

     Initial potential from superposition of free atoms
     Check: negative starting charge=   -1.861325

     starting charge  176.99977, renormalised to  186.00000

[...]

     *
     * You are using vdW-DF for exchange-correlation in this calculation.
     * Please cite the following three references that made this development
     * possible:
     *
     *   M. Dion, H. Rydberg, E. Schroder, D. C. Langreth, and
     *   B. I. Lundqvist, Phys. Rev. Lett. 92, 246401 (2004).
     *
     *   T. Thonhauser, V. R. Cooper, S. Li, A. Puzder, P. Hyldgaard, and
     *   D. C. Langreth, Phys. Rev. B 76, 125112 (2007).
     *
     *   G. Roman-Perez and J. M. Soler, Phys. Rev. Lett. 103, 096102 (2009).
     *
     *
     * If you are using vdW-DF2, please also cite:
     *
     *   K. Lee, E. D. Murray, L. Kong, B. I. Lundqvist, and
     *   D. C. Langreth, Phys. Rev. B 82, 081101(R) (2010).
     *
     *
     * If you are calculating the stress with vdW-DF, please also cite:
     *
     *   R. Sabatini, E. Kucukbenli, B. Kolb, T. Thonhauser, and
     *   S. de Gironcoli, J. Phys.: Condens. Matter 24, 424209 (2012).
     *

     Carrying out vdW-DF run using the following parameters:

     Nqs =      20    Nr_points =    1024   r_max =   100.000
     q_mesh =
               0.00001000     0.04494208     0.09755937     0.15916263
               0.23128650     0.31572767     0.41458969     0.53033537
               0.66584808     0.82450364     1.01025438     1.22772762
               1.48234092     1.78043706     2.12944203     2.53805004
               3.01644009     3.57652955     4.23227104     5.00000000

     Gradients computed in reciprocal space

[...]

     Starting wfc are  150 randomized atomic wfcs

     Self-consistent Calculation

[...]

     total energy              =   -2325.80148614 Ry
     Harris-Foulkes estimate   =   -2325.80147877 Ry
     estimated scf accuracy    <       0.00000379 Ry

     iteration # 19     ecut=    36.75 Ry     beta=0.10
     Davidson diagonalization with overlap
     ethr =  2.04E-09,  avg # of iterations =  1.0

[...]

     negative rho (up, down):  1.849E+00 0.000E+00

     Adding external electric field

     Computed dipole along edir(3) :
        Dipole                0.0152 Ry au,          0.0386 Debye
        Dipole field          0.0000 Ry au

        Potential amp.       -0.0039 Ry
        Total length         45.1684 bohr

     End of self-consistent calculation

[...]

          k = 0.0613 0.0000 0.0000 ( 16488 PWs)   bands (ev):

[...]

          k =-0.0920-0.1536 0.0000 ( 16548 PWs)   bands (ev):

   -65.3331 -65.3330 -64.9169 -64.9165 -64.8542 -64.8542 -51.3102 -51.3102
   -51.3026 -51.3026 -51.2262 -51.2262 -50.8725 -50.8725 -50.8644 -50.8643
   -50.7802 -50.7802 -50.7524 -50.7524 -50.6981 -50.6981 -50.5803 -50.5803
   -37.4487 -37.4486 -37.3339 -37.3338 -37.3048 -37.3047 -36.9524 -36.9520
   -36.9097 -36.9094 -36.8763 -36.8763 -36.8588 -36.8588 -36.8481 -36.8478
   -36.7232 -36.7232  -4.3844  -4.3843  -3.3188  -3.3188  -3.0941  -3.0940
    -2.9474  -2.9473  -2.8426  -2.8426  -2.6070  -2.6069  -2.2860  -2.2860
    -2.2564  -2.2563  -1.9520  -1.9520  -1.6134  -1.6133  -1.4819  -1.4819
    -1.0913  -1.0912  -1.0711  -1.0711  -0.9469  -0.9469  -0.8545  -0.8545
    -0.6551  -0.6551  -0.2474  -0.2474   0.0504   0.0505   0.3273   0.3274
     0.6325   0.6326   0.7768   0.7769   1.1773   1.1773   1.4664   1.4665
     1.6647   1.6648   1.7409   1.7410   1.8880   1.8881   1.9768   1.9769
     2.2300   2.2301   2.6814   2.6814   2.8050   2.8051   3.3396   3.3396
     3.6376   3.6376   4.7190   4.7190   5.5139   5.5139   6.1839   6.1840
     6.9942   6.9942   7.9454   7.9454   8.0473   8.0473   8.6017   8.6017
     8.6404   8.6405   9.8798

     the Fermi energy is     2.2420 ev

!    total energy              =   -2325.80151805 Ry
     Harris-Foulkes estimate   =   -2325.80148603 Ry
     estimated scf accuracy    <       0.00000078 Ry

     The total energy is the sum of the following terms:

     one-electron contribution =  -19519.31553815 Ry
     hartree contribution      =    9775.36599162 Ry
     xc contribution           =    -550.09927273 Ry
     ewald contribution        =    7968.33109075 Ry
     electric field correction =       0.00000066 Ry
     smearing contrib. (-TS)   =      -0.08379020 Ry

     convergence has been achieved in  19 iterations

 BEEF-vdW xc energy contributions
           1 :   -487.126589804026
           2 :    451.636100978632
           3 :   -388.073980055302
           4 :    308.647519766820
           5 :   -226.699558711956
           6 :    153.169655484296
           7 :   -94.4196017770531
           8 :    51.8088027219601
           9 :   -22.8844979902617
          10 :    3.42384130303776
          11 :    10.5104295294982
          12 :   -21.2561710572256
          13 :    29.2614915255147
          14 :   -33.7091051395885
          15 :    33.5778832555986
          16 :   -28.6194846005048
          17 :    19.8187753852428
          18 :   -9.22225145991683
          19 :  -0.721823266187585
          20 :    7.95853700706232
          21 :   -11.4147465888395
          22 :    11.1593294337501
          23 :   -8.14568380271578
          24 :    3.70454715597282
          25 :   0.960641191809145
          26 :   -5.08791975532586
          27 :    8.40083472545712
          28 :   -10.9431630936494
          29 :    12.8338864354998
          30 :   -14.0825297355375
          31 :   -42.1459174006286
          32 :   -31.1089811831268

     Forces acting on atoms (Ry/au):

     negative rho (up, down):  1.849E+00 0.000E+00
     atom    1 type  1   force =     0.00000140    0.01581845    0.01946673
     atom    2 type  1   force =     0.00000115    0.01581846    0.01947224
     atom    3 type  2   force =    -0.00000276   -0.03060773   -0.00061492
     atom    4 type  2   force =    -0.00000438   -0.03060753   -0.00061495
     atom    5 type  1   force =     0.00000529    0.00350729   -0.01469050
     atom    6 type  1   force =     0.00000483    0.00352183   -0.01467624
     atom    7 type  2   force =    -0.00000346    0.01083673   -0.00448779
     atom    8 type  2   force =     0.00001420    0.01083618   -0.00448757
     atom    9 type  1   force =    -0.00001302    0.00026004   -0.00054124
     atom   10 type  1   force =    -0.00001259    0.00023411   -0.00059224
     atom   11 type  2   force =    -0.00000589    0.00019066    0.00088360
     atom   12 type  2   force =     0.00001522    0.00019150    0.00088287

     Total force =     0.062181     Total SCF correction =     0.004831

     entering subroutine stress ...

     negative rho (up, down):  1.849E+00 0.000E+00
          total   stress  (Ry/bohr**3)                   (kbar)     P=  -21.45
  -0.00016333   0.00000001  -0.00000003        -24.03      0.00     -0.00
   0.00000001  -0.00022086   0.00002935          0.00    -32.49      4.32
  -0.00000003   0.00002935  -0.00005323         -0.00      4.32     -7.83

 !ASE

     Writing output data file calc.save

     General routines

     Parallel routines

   This run was terminated on:  22:24:23  29Dec2018

   JOB DONE.
Job  /afs/slac/g/suncat/bin/suncat-tsmpirun -x LD_LIBRARY_PATH -wdir /scratch/qe387723_tU8BC pw.x -in pw.inp

TID   HOST_NAME   COMMAND_LINE            STATUS            TERMINATION_TIME
00000 suncat0159 pw.x -in pw.inp   Done                     12/29/2018 22:24:23
00001 suncat0159 pw.x -in pw.inp   Done                     12/29/2018 22:24:23
00002 suncat0159 pw.x -in pw.inp   Done                     12/29/2018 22:24:23
00003 suncat0159 pw.x -in pw.inp   Done                     12/29/2018 22:24:23
00004 suncat0159 pw.x -in pw.inp   Done                     12/29/2018 22:24:23
00005 suncat0159 pw.x -in pw.inp   Done                     12/29/2018 22:24:23
00006 suncat0159 pw.x -in pw.inp   Done                     12/29/2018 22:24:23
00007 suncat0159 pw.x -in pw.inp   Done                     12/29/2018 22:24:23
00008 suncat0155 pw.x -in pw.inp   Done                     12/29/2018 22:24:23
00009 suncat0155 pw.x -in pw.inp   Done                     12/29/2018 22:24:23
00010 suncat0155 pw.x -in pw.inp   Done                     12/29/2018 22:24:23
00011 suncat0155 pw.x -in pw.inp   Done                     12/29/2018 22:24:23
00012 suncat0155 pw.x -in pw.inp   Done                     12/29/2018 22:24:23
00013 suncat0155 pw.x -in pw.inp   Done                     12/29/2018 22:24:23
00014 suncat0155 pw.x -in pw.inp   Done                     12/29/2018 22:24:23
00015 suncat0155 pw.x -in pw.inp   Done                     12/29/2018 22:24:23
00016 suncat0143 pw.x -in pw.inp   Done                     12/29/2018 22:24:23
00017 suncat0143 pw.x -in pw.inp   Done                     12/29/2018 22:24:23
00018 suncat0143 pw.x -in pw.inp   Done                     12/29/2018 22:24:23
00019 suncat0143 pw.x -in pw.inp   Done                     12/29/2018 22:24:23
00020 suncat0143 pw.x -in pw.inp   Done                     12/29/2018 22:24:23
00021 suncat0143 pw.x -in pw.inp   Done                     12/29/2018 22:24:23
00022 suncat0143 pw.x -in pw.inp   Done                     12/29/2018 22:24:23
00023 suncat0143 pw.x -in pw.inp   Done                     12/29/2018 22:24:23
00024 suncat0141 pw.x -in pw.inp   Done                     12/29/2018 22:24:23
00025 suncat0141 pw.x -in pw.inp   Done                     12/29/2018 22:24:23
00026 suncat0141 pw.x -in pw.inp   Done                     12/29/2018 22:24:23
00027 suncat0141 pw.x -in pw.inp   Done                     12/29/2018 22:24:23
00028 suncat0141 pw.x -in pw.inp   Done                     12/29/2018 22:24:23
00029 suncat0141 pw.x -in pw.inp   Done                     12/29/2018 22:24:23
00030 suncat0141 pw.x -in pw.inp   Done                     12/29/2018 22:24:23
00031 suncat0141 pw.x -in pw.inp   Done                     12/29/2018 22:24:23
00032 suncat0140 pw.x -in pw.inp   Done                     12/29/2018 22:24:23
00033 suncat0140 pw.x -in pw.inp   Done                     12/29/2018 22:24:23
00034 suncat0140 pw.x -in pw.inp   Done                     12/29/2018 22:24:23
00035 suncat0140 pw.x -in pw.inp   Done                     12/29/2018 22:24:23
00036 suncat0140 pw.x -in pw.inp   Done                     12/29/2018 22:24:23
00037 suncat0140 pw.x -in pw.inp   Done                     12/29/2018 22:24:23
00038 suncat0140 pw.x -in pw.inp   Done                     12/29/2018 22:24:23
00039 suncat0140 pw.x -in pw.inp   Done                     12/29/2018 22:24:23
00040 suncat0135 pw.x -in pw.inp   Done                     12/29/2018 22:24:23
00041 suncat0135 pw.x -in pw.inp   Done                     12/29/2018 22:24:23
00042 suncat0135 pw.x -in pw.inp   Done                     12/29/2018 22:24:23
00043 suncat0135 pw.x -in pw.inp   Done                     12/29/2018 22:24:23
00044 suncat0135 pw.x -in pw.inp   Done                     12/29/2018 22:24:23
00045 suncat0135 pw.x -in pw.inp   Done                     12/29/2018 22:24:23
00046 suncat0135 pw.x -in pw.inp   Done                     12/29/2018 22:24:23
00047 suncat0135 pw.x -in pw.inp   Done                     12/29/2018 22:24:23
00048 suncat0134 pw.x -in pw.inp   Done                     12/29/2018 22:24:23
00049 suncat0134 pw.x -in pw.inp   Done                     12/29/2018 22:24:23
00050 suncat0134 pw.x -in pw.inp   Done                     12/29/2018 22:24:23
00051 suncat0134 pw.x -in pw.inp   Done                     12/29/2018 22:24:23
00052 suncat0134 pw.x -in pw.inp   Done                     12/29/2018 22:24:23
00053 suncat0134 pw.x -in pw.inp   Done                     12/29/2018 22:24:23
00054 suncat0134 pw.x -in pw.inp   Done                     12/29/2018 22:24:23
00055 suncat0134 pw.x -in pw.inp   Done                     12/29/2018 22:24:23
00056 suncat0272 pw.x -in pw.inp   Done                     12/29/2018 22:24:23
00057 suncat0272 pw.x -in pw.inp   Done                     12/29/2018 22:24:23
00058 suncat0272 pw.x -in pw.inp   Done                     12/29/2018 22:24:23
00059 suncat0272 pw.x -in pw.inp   Done                     12/29/2018 22:24:23
00060 suncat0272 pw.x -in pw.inp   Done                     12/29/2018 22:24:23
00061 suncat0272 pw.x -in pw.inp   Done                     12/29/2018 22:24:23
00062 suncat0272 pw.x -in pw.inp   Done                     12/29/2018 22:24:23
00063 suncat0272 pw.x -in pw.inp   Done                     12/29/2018 22:24:23