     Program PWSCF v.5.1rc2 (svn rev. 11289) starts on 19Dec2018 at  6: 7:44

     Current dimensions of program PWSCF are:
     Max number of different atomic species (ntypx) = 10
     Max number of k-points (npk) =  40000
     Max angular momentum in pseudopotentials (lmaxx) =  3
     Presently stress not available with electric field

     IMPORTANT: XC functional enforced from input :
     Exchange-correlation      = BEEF-VDW ( 1  4 27 13 2)
     Any further DFT definition will be discarded
     Please, verify this is what you really want

     Subspace diagonalization in iterative solution of the eigenvalue problem:
     a serial algorithm will be used

     Found symmetry operation: I + ( -0.5000 -0.5000  0.0000)
     This is a supercell, fractional translations are disabled

     bravais-lattice index     =            0
     lattice parameter (alat)  =       1.8897  a.u.
     unit-cell volume          =    4999.5065 (a.u.)^3
     number of atoms/cell      =           12
     number of atomic types    =            2
     number of electrons       =       180.00
     number of Kohn-Sham states=          120
     kinetic-energy cutoff     =      36.7493  Ry
     charge density cutoff     =     367.4932  Ry
     convergence threshold     =      1.0E-06
     mixing beta               =       0.1000
     number of iterations used =           10  plain     mixing
     Exchange-correlation      = BEEF-VDW ( 1  4 27 13 2)
     nstep                     =           50

     celldm(1)=   1.889726  celldm(2)=   0.000000  celldm(3)=   0.000000
     celldm(4)=   0.000000  celldm(5)=   0.000000  celldm(6)=   0.000000

     crystal axes: (cart. coord. in units of alat)
               a(1) = (   5.649913   0.000000   0.000000 )
               a(2) = (   1.880895   5.327640   0.000000 )
               a(3) = (   0.000000   0.000000  24.612395 )

     reciprocal axes: (cart. coord. in units 2 pi/alat)
               b(1) = (  0.176994 -0.062487  0.000000 )
               b(2) = (  0.000000  0.187700  0.000000 )
               b(3) = (  0.000000  0.000000  0.040630 )

     PseudoPot. # 1 for Sn read from file:
     /afs/slac.stanford.edu/u/if/mamunm/psp/gbrv1.5pbe/Sn.UPF
     MD5 check sum: 469debedee59599fedebd795477fea03
     Pseudo is Ultrasoft + core correction, Zval = 14.0
     Generated by new atomic code, or converted to UPF format
     Using radial grid of  891 points,  6 beta functions with:
                l(1) =   0
                l(2) =   0
                l(3) =   1
                l(4) =   1
                l(5) =   2
                l(6) =   2
     Q(r) pseudized with  8 coefficients,  rinner =    1.350   1.350   1.350
                                                       1.350   1.350

     PseudoPot. # 2 for Os read from file:
     /afs/slac.stanford.edu/u/if/mamunm/psp/gbrv1.5pbe/Os.UPF
     MD5 check sum: a3fb40a04f0c37c25c34bbc47164c9a8
     Pseudo is Ultrasoft + core correction, Zval = 16.0
     Generated by new atomic code, or converted to UPF format
     Using radial grid of  983 points,  8 beta functions with:
                l(1) =   0
                l(2) =   0
                l(3) =   1
                l(4) =   1
                l(5) =   2
                l(6) =   2
                l(7) =   3
                l(8) =   3
     Q(r) pseudized with  8 coefficients,  rinner =    1.150   1.150   1.150
                                                       1.150   1.150   1.150
                                                       1.150

     vdW kernel table read from file vdW_kernel_table
     MD5 check sum: 095c7af220d748ca6e76c0b4c6cfb241

     atomic species   valence    mass     pseudopotential
        Sn1           14.00   118.71000     Sn( 1.00)
        Os1           16.00   190.23000     Os( 1.00)

     No symmetry found

   Cartesian axes

     site n.     atom                  positions (alat units)
         1           Sn1 tau(   1) = (   0.0000000   0.0000000  10.0000000  )
         2           Sn1 tau(   2) = (   3.7654040   2.6638202  10.0000000  )
         3           Os1 tau(   3) = (   2.8249565   0.0000000  10.0000000  )
         4           Os1 tau(   4) = (   0.9404475   2.6638202  10.0000000  )
         5           Sn1 tau(   5) = (   5.6499131   3.9970087  12.3061974  )
         6           Sn1 tau(   6) = (   1.8845091   1.3331885  12.3061974  )
         7           Os1 tau(   7) = (   2.8249565   3.9970087  12.3061974  )
         8           Os1 tau(   8) = (   4.7094656   1.3331885  12.3061974  )
         9           Sn1 tau(   9) = (   3.7690181   2.6663770  14.6123948  )
        10           Sn1 tau(  10) = (   0.0036141   0.0025568  14.6123948  )
        11           Os1 tau(  11) = (   0.9440616   2.6663770  14.6123948  )
        12           Os1 tau(  12) = (   2.8285707   0.0025568  14.6123948  )

     number of k points=    20  Fermi-Dirac smearing, width (Ry)=  0.0110
                       cart. coord. in units 2pi/alat
        k(    1) = (   0.0000000   0.0000000   0.0000000), wk =   0.0555556
        k(    2) = (   0.0000000   0.0312834   0.0000000), wk =   0.1111111
        k(    3) = (   0.0000000   0.0625668   0.0000000), wk =   0.1111111
        k(    4) = (   0.0000000  -0.0938502   0.0000000), wk =   0.0555556
        k(    5) = (   0.0294990  -0.0104145   0.0000000), wk =   0.1111111
        k(    6) = (   0.0294990   0.0208689   0.0000000), wk =   0.1111111
        k(    7) = (   0.0294990   0.0521523   0.0000000), wk =   0.1111111
        k(    8) = (   0.0294990  -0.1042646   0.0000000), wk =   0.1111111
        k(    9) = (   0.0294990  -0.0729812   0.0000000), wk =   0.1111111
        k(   10) = (   0.0294990  -0.0416978   0.0000000), wk =   0.1111111
        k(   11) = (   0.0589980  -0.0208289   0.0000000), wk =   0.1111111
        k(   12) = (   0.0589980   0.0104545   0.0000000), wk =   0.1111111
        k(   13) = (   0.0589980   0.0417379   0.0000000), wk =   0.1111111
        k(   14) = (   0.0589980  -0.1146791   0.0000000), wk =   0.1111111
        k(   15) = (   0.0589980  -0.0833957   0.0000000), wk =   0.1111111
        k(   16) = (   0.0589980  -0.0521123   0.0000000), wk =   0.1111111
        k(   17) = (  -0.0884969   0.0312434   0.0000000), wk =   0.0555556
        k(   18) = (  -0.0884969   0.0625268   0.0000000), wk =   0.1111111
        k(   19) = (  -0.0884969   0.0938102   0.0000000), wk =   0.1111111
        k(   20) = (  -0.0884969  -0.0626068   0.0000000), wk =   0.0555556

     Largest allocated arrays     est. size (Mb)     dimensions
     Largest temporary arrays     est. size (Mb)     dimensions

     Initial potential from superposition of free atoms
     Check: negative starting charge=   -0.758981

     starting charge  170.99951, renormalised to  180.00000

     negative rho (up, down):  7.989E-01 0.000E+00

     *
     * You are using vdW-DF for exchange-correlation in this calculation.
     * Please cite the following three references that made this development
     * possible:
     *
     *   M. Dion, H. Rydberg, E. Schroder, D. C. Langreth, and
     *   B. I. Lundqvist, Phys. Rev. Lett. 92, 246401 (2004).
     *
     *   T. Thonhauser, V. R. Cooper, S. Li, A. Puzder, P. Hyldgaard, and
     *   D. C. Langreth, Phys. Rev. B 76, 125112 (2007).
     *
     *   G. Roman-Perez and J. M. Soler, Phys. Rev. Lett. 103, 096102 (2009).
     *
     *
     * If you are using vdW-DF2, please also cite:
     *
     *   K. Lee, E. D. Murray, L. Kong, B. I. Lundqvist, and
     *   D. C. Langreth, Phys. Rev. B 82, 081101(R) (2010).
     *
     *
     * If you are calculating the stress with vdW-DF, please also cite:
     *
     *   R. Sabatini, E. Kucukbenli, B. Kolb, T. Thonhauser, and
     *   S. de Gironcoli, J. Phys.: Condens. Matter 24, 424209 (2012).
     *

     Carrying out vdW-DF run using the following parameters:

     Nqs =      20    Nr_points =    1024   r_max =   100.000
     q_mesh =
               0.00001000     0.04494208     0.09755937     0.15916263
               0.23128650     0.31572767     0.41458969     0.53033537
               0.66584808     0.82450364     1.01025438     1.22772762
               1.48234092     1.78043706     2.12944203     2.53805004
               3.01644009     3.57652955     4.23227104     5.00000000

     Gradients computed in reciprocal space

     Adding external electric field

     Computed dipole along edir(3) :
        Dipole               -0.0000 Ry au,         -0.0000 Debye
        Dipole field         -0.0000 Ry au

        Potential amp.        0.0000 Ry
        Total length         45.3479 bohr

     Starting wfc are  132 randomized atomic wfcs

     Self-consistent Calculation

     iteration #  1     ecut=    36.75 Ry     beta=0.10
     Davidson diagonalization with overlap
     ethr =  1.00E-02,  avg # of iterations =  8.0

[...]

     total energy              =   -2163.58497031 Ry
     Harris-Foulkes estimate   =   -2164.47150927 Ry
     estimated scf accuracy    <       5.46075265 Ry

[...]

     End of self-consistent calculation

          k = 0.0000 0.0000 0.0000 ( 18787 PWs)   bands (ev):

   -84.1422 -84.1400 -83.9629 -83.9629 -83.9608 -83.9608 -43.5448 -43.4882
   -43.4870 -43.4819 -43.4816 -43.4666 -43.4018 -43.4014 -43.3264 -43.3261
   -43.2953 -43.2919 -43.2889 -43.2842 -43.2152 -43.2118 -43.2080 -43.2045
   -20.1501 -20.1205 -20.0762 -20.0743 -20.0635 -20.0414 -20.0385 -20.0374
   -20.0019 -19.9620 -19.9599 -19.9533 -19.9191 -19.9090 -19.8670 -19.8625
   -19.8533 -19.8532 -19.8498 -19.8457 -19.8195 -19.8162 -19.8138 -19.8090
   -19.7905 -19.7883 -19.7838 -19.7661 -19.7190 -19.7073  -9.5810  -7.7088
    -6.1451  -6.0556  -5.4827  -5.4010  -2.8887  -2.8779  -2.2874  -1.8695
    -1.8521  -1.6172  -1.5378  -1.2327  -1.2313  -1.0692  -0.7158  -0.5026
    -0.3405  -0.1843   0.0219   0.2805   0.3915   0.5131   0.5453   0.5656
     0.5978   0.6719   0.8467   0.9141   0.9736   0.9917   1.1779   1.1812
     1.2668   1.3172   1.4452   1.5688   2.2079   2.7563   2.8398   2.9771
     3.1105   3.1763   4.0832   4.1454   4.2107   4.3245   4.3666   4.6072
     5.3277   5.3909   5.5642   5.7135   5.7238   6.3891   6.6102   6.7098
     6.7105   7.2913   7.4660   7.8593   8.2649   8.6326   8.9132   8.9423

[...]

          k =-0.0885 0.0312 0.0000 ( 18824 PWs)   bands (ev):

[...]

     the Fermi energy is     1.7854 ev

!    total energy              =   -2162.47481448 Ry
     Harris-Foulkes estimate   =   -2162.47481188 Ry
     estimated scf accuracy    <       0.00000033 Ry

     The total energy is the sum of the following terms:

     one-electron contribution =  -16022.91259424 Ry
     hartree contribution      =    8036.81103376 Ry
     xc contribution           =    -500.08360147 Ry
     ewald contribution        =    6323.76716584 Ry
     electric field correction =       0.00000000 Ry
     smearing contrib. (-TS)   =      -0.05681837 Ry

     convergence has been achieved in  16 iterations

 BEEF-vdW xc energy contributions
           1 :   -438.967337158413
           2 :    404.437904552293
           3 :   -344.765344012308
           4 :    274.896612650401
           5 :   -209.800900449416
           6 :    159.642584156739
[...]

[...]

     iteration #  7     ecut=    36.75 Ry     beta=0.10
     Davidson diagonalization with overlap
     c_bands:  1 eigenvalues not converged
     ethr =  2.93E-05,  avg # of iterations =  6.5

[...]

   This run was terminated on:   6:30:16  19Dec2018

[...]

     Program PWSCF v.5.1rc2 (svn rev. 11289) starts on 19Dec2018 at  6:30:22

     Current dimensions of program PWSCF are:
     Max number of different atomic species (ntypx) = 10
     Max number of k-points (npk) =  40000
     Max angular momentum in pseudopotentials (lmaxx) =  3
     Presently stress not available with electric field

     IMPORTANT: XC functional enforced from input :
     Exchange-correlation      = BEEF-VDW ( 1  4 27 13 2)
     Any further DFT definition will be discarded
     Please, verify this is what you really want

     Subspace diagonalization in iterative solution of the eigenvalue problem:
     a serial algorithm will be used

     Found symmetry operation: I + ( -0.5000 -0.5000  0.0000)
     This is a supercell, fractional translations are disabled

     bravais-lattice index     =            0
     lattice parameter (alat)  =       1.8897  a.u.
     unit-cell volume          =    4999.5065 (a.u.)^3
     number of atoms/cell      =           12
     number of atomic types    =            2
     number of electrons       =       180.00
     number of Kohn-Sham states=          120
     kinetic-energy cutoff     =      36.7493  Ry
     charge density cutoff     =     367.4932  Ry
     convergence threshold     =      1.0E-06
     mixing beta               =       0.1000
     number of iterations used =           10  plain     mixing
     Exchange-correlation      = BEEF-VDW ( 1  4 27 13 2)
     nstep                     =           50

     celldm(1)=   1.889726  celldm(2)=   0.000000  celldm(3)=   0.000000
     celldm(4)=   0.000000  celldm(5)=   0.000000  celldm(6)=   0.000000

     crystal axes: (cart. coord. in units of alat)
               a(1) = (   5.649913   0.000000   0.000000 )
               a(2) = (   1.880895   5.327640   0.000000 )
               a(3) = (   0.000000   0.000000  24.612395 )

     reciprocal axes: (cart. coord. in units 2 pi/alat)
               b(1) = (  0.176994 -0.062487  0.000000 )
               b(2) = (  0.000000  0.187700  0.000000 )
               b(3) = (  0.000000  0.000000  0.040630 )

     PseudoPot. # 1 for Sn read from file:
     /afs/slac.stanford.edu/u/if/mamunm/psp/gbrv1.5pbe/Sn.UPF
     MD5 check sum: 469debedee59599fedebd795477fea03
     Pseudo is Ultrasoft + core correction, Zval = 14.0
     Generated by new atomic code, or converted to UPF format
     Using radial grid of  891 points,  6 beta functions with:
                l(1) =   0
                l(2) =   0
                l(3) =   1
                l(4) =   1
                l(5) =   2
                l(6) =   2
     Q(r) pseudized with  8 coefficients,  rinner =    1.350   1.350   1.350
                                                       1.350   1.350

     PseudoPot. # 2 for Os read from file:
     /afs/slac.stanford.edu/u/if/mamunm/psp/gbrv1.5pbe/Os.UPF
     MD5 check sum: a3fb40a04f0c37c25c34bbc47164c9a8
     Pseudo is Ultrasoft + core correction, Zval = 16.0
     Generated by new atomic code, or converted to UPF format
     Using radial grid of  983 points,  8 beta functions with:
                l(1) =   0
                l(2) =   0
                l(3) =   1
                l(4) =   1
                l(5) =   2
                l(6) =   2
                l(7) =   3
                l(8) =   3
     Q(r) pseudized with  8 coefficients,  rinner =    1.150   1.150   1.150
                                                       1.150   1.150   1.150
                                                       1.150

     vdW kernel table read from file vdW_kernel_table
     MD5 check sum: 095c7af220d748ca6e76c0b4c6cfb241

     atomic species   valence    mass     pseudopotential
        Sn1           14.00   118.71000     Sn( 1.00)
        Os1           16.00   190.23000     Os( 1.00)

     No symmetry found

   Cartesian axes

     site n.     atom                  positions (alat units)
         1           Sn1 tau(   1) = (   0.0000000   0.0000000  10.0000000  )
         2           Sn1 tau(   2) = (   3.7654040   2.6638202  10.0000000  )
         3           Os1 tau(   3) = (   2.8249565   0.0000000  10.0000000  )
         4           Os1 tau(   4) = (   0.9404475   2.6638202  10.0000000  )
         5           Sn1 tau(   5) = (   5.6499131   3.9970087  12.3061974  )
         6           Sn1 tau(   6) = (   1.8845091   1.3331885  12.3061974  )
         7           Os1 tau(   7) = (   2.8249565   3.9970087  12.3061974  )
         8           Os1 tau(   8) = (   4.7094656   1.3331885  12.3061974  )
         9           Sn1 tau(   9) = (   3.7681391   2.6657595  14.8336357  )
        10           Sn1 tau(  10) = (   0.0027390   0.0019327  14.8336252  )
        11           Os1 tau(  11) = (   0.9432407   2.6658010  14.4351240  )
        12           Os1 tau(  12) = (   2.8277528   0.0019889  14.4352491  )

     number of k points=    20  Fermi-Dirac smearing, width (Ry)=  0.0110
                       cart. coord. in units 2pi/alat
        k(    1) = (   0.0000000   0.0000000   0.0000000), wk =   0.0555556
        k(    2) = (   0.0000000   0.0312834   0.0000000), wk =   0.1111111
        k(    3) = (   0.0000000   0.0625668   0.0000000), wk =   0.1111111
        k(    4) = (   0.0000000  -0.0938502   0.0000000), wk =   0.0555556
        k(    5) = (   0.0294990  -0.0104145   0.0000000), wk =   0.1111111
        k(    6) = (   0.0294990   0.0208689   0.0000000), wk =   0.1111111
        k(    7) = (   0.0294990   0.0521523   0.0000000), wk =   0.1111111
        k(    8) = (   0.0294990  -0.1042646   0.0000000), wk =   0.1111111
        k(    9) = (   0.0294990  -0.0729812   0.0000000), wk =   0.1111111
        k(   10) = (   0.0294990  -0.0416978   0.0000000), wk =   0.1111111
        k(   11) = (   0.0589980  -0.0208289   0.0000000), wk =   0.1111111
        k(   12) = (   0.0589980   0.0104545   0.0000000), wk =   0.1111111
        k(   13) = (   0.0589980   0.0417379   0.0000000), wk =   0.1111111
        k(   14) = (   0.0589980  -0.1146791   0.0000000), wk =   0.1111111
        k(   15) = (   0.0589980  -0.0833957   0.0000000), wk =   0.1111111
        k(   16) = (   0.0589980  -0.0521123   0.0000000), wk =   0.1111111
        k(   17) = (  -0.0884969   0.0312434   0.0000000), wk =   0.0555556
        k(   18) = (  -0.0884969   0.0625268   0.0000000), wk =   0.1111111
        k(   19) = (  -0.0884969   0.0938102   0.0000000), wk =   0.1111111
        k(   20) = (  -0.0884969  -0.0626068   0.0000000), wk =   0.0555556

     Largest allocated arrays     est. size (Mb)     dimensions
     Largest temporary arrays     est. size (Mb)     dimensions

     Initial potential from superposition of free atoms
     Check: negative starting charge=   -0.758983

     starting charge  170.99951, renormalised to  180.00000

[...]

     *
     * You are using vdW-DF for exchange-correlation in this calculation.
     * Please cite the following three references that made this development
     * possible:
     *
     *   M. Dion, H. Rydberg, E. Schroder, D. C. Langreth, and
     *   B. I. Lundqvist, Phys. Rev. Lett. 92, 246401 (2004).
     *
     *   T. Thonhauser, V. R. Cooper, S. Li, A. Puzder, P. Hyldgaard, and
     *   D. C. Langreth, Phys. Rev. B 76, 125112 (2007).
     *
     *   G. Roman-Perez and J. M. Soler, Phys. Rev. Lett. 103, 096102 (2009).
     *
     *
     * If you are using vdW-DF2, please also cite:
     *
     *   K. Lee, E. D. Murray, L. Kong, B. I. Lundqvist, and
     *   D. C. Langreth, Phys. Rev. B 82, 081101(R) (2010).
     *
     *
     * If you are calculating the stress with vdW-DF, please also cite:
     *
     *   R. Sabatini, E. Kucukbenli, B. Kolb, T. Thonhauser, and
     *   S. de Gironcoli, J. Phys.: Condens. Matter 24, 424209 (2012).
     *

     Carrying out vdW-DF run using the following parameters:

     Nqs =      20    Nr_points =    1024   r_max =   100.000
     q_mesh =
               0.00001000     0.04494208     0.09755937     0.15916263
               0.23128650     0.31572767     0.41458969     0.53033537
               0.66584808     0.82450364     1.01025438     1.22772762
               1.48234092     1.78043706     2.12944203     2.53805004
               3.01644009     3.57652955     4.23227104     5.00000000

     Gradients computed in reciprocal space

[...]

     Starting wfc are  132 randomized atomic wfcs

     Self-consistent Calculation

[...]

     total energy              =   -2162.51617114 Ry
     Harris-Foulkes estimate   =   -2162.51617083 Ry
     estimated scf accuracy    <       0.00000136 Ry

     iteration # 17     ecut=    36.75 Ry     beta=0.10
     Davidson diagonalization with overlap
     ethr =  7.58E-10,  avg # of iterations =  2.0

[...]

     negative rho (up, down):  7.121E-01 0.000E+00

     Adding external electric field

     Computed dipole along edir(3) :
        Dipole                0.0763 Ry au,          0.1938 Debye
        Dipole field          0.0002 Ry au

        Potential amp.       -0.0174 Ry
        Total length         45.3479 bohr

     End of self-consistent calculation

[...]

          k = 0.0590-0.0521 0.0000 ( 18810 PWs)   bands (ev):

[...]

          k =-0.0885-0.0626 0.0000 ( 18828 PWs)   bands (ev):

   -83.9388 -83.9368 -83.9134 -83.9111 -83.8640 -83.8619 -43.3761 -43.3145
   -43.3115 -43.3104 -43.3056 -43.2986 -43.2931 -43.2585 -43.2369 -43.2363
   -43.2314 -43.2302 -43.1716 -43.1674 -43.1499 -43.1449 -43.1214 -43.1151
   -19.9309 -19.9184 -19.8828 -19.8572 -19.8527 -19.8471 -19.8395 -19.8325
   -19.8169 -19.8129 -19.8065 -19.7891 -19.7879 -19.7824 -19.7706 -19.7665
   -19.7640 -19.7526 -19.7467 -19.7201 -19.7176 -19.7014 -19.7009 -19.6925
   -19.6708 -19.6706 -19.6613 -19.6391 -19.6258 -19.5754  -7.5319  -7.2292
    -6.1831  -6.1473  -4.9545  -4.7659  -4.6286  -3.5436  -3.1197  -3.0583
    -2.9399  -2.8896  -2.4365  -1.7040  -1.5364  -0.9681  -0.8439  -0.8078
    -0.6727  -0.6694  -0.1977  -0.1906  -0.1588  -0.0689   0.0719   0.5547
     0.5821   0.5906   0.9826   1.4563   1.4634   1.5962   1.6602   1.7337
     1.7818   2.0830   2.1745   2.2605   3.0291   3.1060   3.1405   3.2784
     3.4953   3.7197   4.2070   4.8687   5.3923   5.8847   6.1289   6.1600
     6.9672   7.0851   7.2670   7.4820   7.5920   7.8745   8.0214   8.0668
     8.2187   8.3804   8.5332   8.7009   8.7026   8.8553   8.9173   9.0136

     the Fermi energy is     1.8786 ev

!    total energy              =   -2162.51617347 Ry
     Harris-Foulkes estimate   =   -2162.51617065 Ry
     estimated scf accuracy    <       0.00000028 Ry

     The total energy is the sum of the following terms:

     one-electron contribution =  -15990.40356418 Ry
     hartree contribution      =    8021.34546381 Ry
     xc contribution           =    -500.03359130 Ry
     ewald contribution        =    6306.63243175 Ry
     electric field correction =       0.00001462 Ry
     smearing contrib. (-TS)   =      -0.05692817 Ry

     convergence has been achieved in  17 iterations

 BEEF-vdW xc energy contributions
           1 :   -438.920230113526
           2 :    404.376926138785
           3 :   -344.678141580316
           4 :    274.775875225750
           5 :   -209.648361949511
           6 :    159.469131680139
           7 :   -127.309830314848
           8 :    109.914049603573
           9 :   -100.736773477654
          10 :    93.5355063134043
          11 :   -84.8315212865675
          12 :    74.3826934510478
          13 :   -63.9632268362892
          14 :    55.5192012787720
          15 :   -49.8443941895035
          16 :    46.3506666250960
          17 :   -43.7597452257731
          18 :    41.0475082762406
          19 :   -37.9877537957346
          20 :    35.0352485072847
          21 :   -32.7699547836209
          22 :    31.3668888632501
          23 :   -30.4633441563316
          24 :    29.4568366897223
          25 :   -27.9629090840313
          26 :    26.0778458799550
          27 :   -24.2709907992269
          28 :    23.0112707257191
          29 :   -22.4173066922298
          30 :    22.1815813444366
          31 :   -39.7999529165954
          32 :   -29.7231590521095

     Forces acting on atoms (Ry/au):

     negative rho (up, down):  7.121E-01 0.000E+00
     atom    1 type  1   force =     0.00010936    0.00007857   -0.04153010
     atom    2 type  1   force =     0.00011335    0.00008075   -0.04152684
     atom    3 type  2   force =     0.00002974    0.00002274    0.05869982
     atom    4 type  2   force =     0.00003105    0.00002012    0.05869521
     atom    5 type  1   force =    -0.00007396   -0.00008737   -0.02702206
     atom    6 type  1   force =    -0.00010409   -0.00004010   -0.02702163
     atom    7 type  2   force =     0.00004780    0.00003575    0.00953750
     atom    8 type  2   force =     0.00001282    0.00000760    0.00953831
     atom    9 type  1   force =    -0.00004701   -0.00003543    0.00024216
     atom   10 type  1   force =    -0.00005179   -0.00003328    0.00024109
     atom   11 type  2   force =    -0.00003422   -0.00002398    0.00008385
     atom   12 type  2   force =    -0.00003305   -0.00002538    0.00006269

     Total force =     0.109465     Total SCF correction =     0.001647

     entering subroutine stress ...

     negative rho (up, down):  7.121E-01 0.000E+00
          total   stress  (Ry/bohr**3)                   (kbar)     P=  -25.32
  -0.00024063  -0.00001160  -0.00000039        -35.40     -1.71     -0.06
  -0.00001160  -0.00023244  -0.00000028         -1.71    -34.19     -0.04
  -0.00000039  -0.00000028  -0.00004327         -0.06     -0.04     -6.37

 !ASE

     Writing output data file calc.save

     General routines

     Parallel routines

   This run was terminated on:   6:36: 1  19Dec2018

   JOB DONE.
Job  /afs/slac/g/suncat/bin/suncat-tsmpirun -x LD_LIBRARY_PATH -wdir /scratch/qe530606_qP383 pw.x -in pw.inp

TID   HOST_NAME   COMMAND_LINE            STATUS            TERMINATION_TIME
00000 suncat2046 pw.x -in pw.inp   Done                     12/19/2018 06:36:01
00001 suncat2046 pw.x -in pw.inp   Done                     12/19/2018 06:36:01
00002 suncat2046 pw.x -in pw.inp   Done                     12/19/2018 06:36:01
00003 suncat2046 pw.x -in pw.inp   Done                     12/19/2018 06:36:01
00004 suncat2046 pw.x -in pw.inp   Done                     12/19/2018 06:36:01
00005 suncat2046 pw.x -in pw.inp   Done                     12/19/2018 06:36:01
00006 suncat2046 pw.x -in pw.inp   Done                     12/19/2018 06:36:01
00007 suncat2046 pw.x -in pw.inp   Done                     12/19/2018 06:36:01
00008 suncat2046 pw.x -in pw.inp   Done                     12/19/2018 06:36:01
00009 suncat2046 pw.x -in pw.inp   Done                     12/19/2018 06:36:01
00010 suncat2046 pw.x -in pw.inp   Done                     12/19/2018 06:36:01
00011 suncat2046 pw.x -in pw.inp   Done                     12/19/2018 06:36:01
00012 suncat2046 pw.x -in pw.inp   Done                     12/19/2018 06:36:01
00013 suncat2046 pw.x -in pw.inp   Done                     12/19/2018 06:36:01
00014 suncat2046 pw.x -in pw.inp   Done                     12/19/2018 06:36:01
00015 suncat2046 pw.x -in pw.inp   Done                     12/19/2018 06:36:01
00016 suncat2045 pw.x -in pw.inp   Done                     12/19/2018 06:36:01
00017 suncat2045 pw.x -in pw.inp   Done                     12/19/2018 06:36:01
00018 suncat2045 pw.x -in pw.inp   Done                     12/19/2018 06:36:01
00019 suncat2045 pw.x -in pw.inp   Done                     12/19/2018 06:36:01
00020 suncat2045 pw.x -in pw.inp   Done                     12/19/2018 06:36:01
00021 suncat2045 pw.x -in pw.inp   Done                     12/19/2018 06:36:01
00022 suncat2045 pw.x -in pw.inp   Done                     12/19/2018 06:36:01
00023 suncat2045 pw.x -in pw.inp   Done                     12/19/2018 06:36:01
00024 suncat2045 pw.x -in pw.inp   Done                     12/19/2018 06:36:01
00025 suncat2045 pw.x -in pw.inp   Done                     12/19/2018 06:36:01
00026 suncat2045 pw.x -in pw.inp   Done                     12/19/2018 06:36:01
00027 suncat2045 pw.x -in pw.inp   Done                     12/19/2018 06:36:01
00028 suncat2045 pw.x -in pw.inp   Done                     12/19/2018 06:36:01
00029 suncat2045 pw.x -in pw.inp   Done                     12/19/2018 06:36:01
00030 suncat2045 pw.x -in pw.inp   Done                     12/19/2018 06:36:01
00031 suncat2045 pw.x -in pw.inp   Done                     12/19/2018 06:36:01