     Program PWSCF v.5.1rc2 (svn rev. 11289) starts on 19Dec2018 at  3:47: 1

     Current dimensions of program PWSCF are:
     Max number of different atomic species (ntypx) = 10
     Max number of k-points (npk) =  40000
     Max angular momentum in pseudopotentials (lmaxx) =  3
     Presently stress not available with electric field

     IMPORTANT: XC functional enforced from input :
     Exchange-correlation      = BEEF-VDW ( 1  4 27 13 2)
     Any further DFT definition will be discarded
     Please, verify this is what you really want

     Subspace diagonalization in iterative solution of the eigenvalue problem:
     a serial algorithm will be used

     Found symmetry operation: I + ( -0.5000  0.0000  0.0000)
     This is a supercell, fractional translations are disabled

     bravais-lattice index     =            0
     lattice parameter (alat)  =       1.8897  a.u.
     unit-cell volume          =    4856.1413 (a.u.)^3
     number of atoms/cell      =           12
     number of atomic types    =            2
     number of electrons       =       168.00
     number of Kohn-Sham states=          114
     kinetic-energy cutoff     =      36.7493  Ry
     charge density cutoff     =     367.4932  Ry
     convergence threshold     =      1.0E-06
     mixing beta               =       0.1000
     number of iterations used =           10  plain     mixing
     Exchange-correlation      = BEEF-VDW ( 1  4 27 13 2)
     nstep                     =           50

     celldm(1)=   1.889726  celldm(2)=   0.000000  celldm(3)=   0.000000
     celldm(4)=   0.000000  celldm(5)=   0.000000  celldm(6)=   0.000000

     crystal axes: (cart. coord. in units of alat)
               a(1) = (   5.678525   0.000000   0.000000 )
               a(2) = (  -2.839262   5.124846   0.000000 )
               a(3) = (   0.000000   0.000000  24.727395 )

     reciprocal axes: (cart. coord. in units 2 pi/alat)
               b(1) = (  0.176102  0.097564  0.000000 )
               b(2) = (  0.000000  0.195128  0.000000 )
               b(3) = (  0.000000  0.000000  0.040441 )

     PseudoPot. # 1 for Ru read from file:
     /afs/slac.stanford.edu/u/if/mamunm/psp/gbrv1.5pbe/Ru.UPF
     MD5 check sum: 7158a806dd851261a58e6920c40ebe78
     Pseudo is Ultrasoft + core correction, Zval = 16.0
     Generated by new atomic code, or converted to UPF format
     Using radial grid of  967 points,  6 beta functions with:
                l(1) =   0
                l(2) =   0
                l(3) =   1
                l(4) =   1
                l(5) =   2
                l(6) =   2
     Q(r) pseudized with  8 coefficients,  rinner =    1.300   1.300   1.300
                                                       1.300   1.300

     PseudoPot. # 2 for Cd read from file:
     /afs/slac.stanford.edu/u/if/mamunm/psp/gbrv1.5pbe/Cd.UPF
     MD5 check sum: 17164a7926edb8e0dc231208abae86a6
     Pseudo is Ultrasoft + core correction, Zval = 12.0
     Generated by new atomic code, or converted to UPF format
     Using radial grid of  889 points,  6 beta functions with:
                l(1) =   0
                l(2) =   0
                l(3) =   1
                l(4) =   1
                l(5) =   2
                l(6) =   2
     Q(r) pseudized with  6 coefficients,  rinner =    1.000   1.000   1.000
                                                       1.000   1.000

     vdW kernel table read from file vdW_kernel_table
     MD5 check sum: 095c7af220d748ca6e76c0b4c6cfb241

     atomic species   valence    mass     pseudopotential
        Ru1           16.00   101.07000     Ru( 1.00)
        Cd1           12.00   112.41400     Cd( 1.00)

     No symmetry found

   Cartesian axes

     site n.     atom                  positions (alat units)
         1           Ru1 tau(   1) = (   0.0000000   0.0000000  10.0000000  )
         2           Ru1 tau(   2) = (   2.8392624   0.0000000  10.0000000  )
         3           Cd1 tau(   3) = (   1.4196312   2.5624231  10.0000000  )
         4           Cd1 tau(   4) = (  -1.4196312   2.5624231  10.0000000  )
         5           Ru1 tau(   5) = (   2.8392624   1.5730054  12.3636973  )
         6           Ru1 tau(   6) = (  -0.0000000   1.5730054  12.3636973  )
         7           Cd1 tau(   7) = (  -1.4196312   4.1354285  12.3636973  )
         8           Cd1 tau(   8) = (   1.4196312   4.1354285  12.3636973  )
         9           Ru1 tau(   9) = (  -0.0000000   3.1460108  14.7273945  )
        10           Ru1 tau(  10) = (   2.8392624   3.1460108  14.7273945  )
        11           Cd1 tau(  11) = (   4.2588935   0.5835877  14.7273945  )
        12           Cd1 tau(  12) = (   1.4196312   0.5835877  14.7273945  )

     number of k points=    20  Fermi-Dirac smearing, width (Ry)=  0.0110
                       cart. coord. in units 2pi/alat
        k(    1) = (   0.0000000   0.0000000   0.0000000), wk =   0.0555556
        k(    2) = (   0.0000000   0.0325213   0.0000000), wk =   0.1111111
        k(    3) = (   0.0000000   0.0650426   0.0000000), wk =   0.1111111
        k(    4) = (   0.0000000  -0.0975639   0.0000000), wk =   0.0555556
        k(    5) = (   0.0293503   0.0162607   0.0000000), wk =   0.1111111
        k(    6) = (   0.0293503   0.0487820   0.0000000), wk =   0.1111111
        k(    7) = (   0.0293503   0.0813033   0.0000000), wk =   0.1111111
        k(    8) = (   0.0293503  -0.0813033   0.0000000), wk =   0.1111111
        k(    9) = (   0.0293503  -0.0487820   0.0000000), wk =   0.1111111
        k(   10) = (   0.0293503  -0.0162607   0.0000000), wk =   0.1111111
        k(   11) = (   0.0587007   0.0325213   0.0000000), wk =   0.1111111
        k(   12) = (   0.0587007   0.0650426   0.0000000), wk =   0.1111111
        k(   13) = (   0.0587007   0.0975639   0.0000000), wk =   0.1111111
        k(   14) = (   0.0587007  -0.0650426   0.0000000), wk =   0.1111111
        k(   15) = (   0.0587007  -0.0325213   0.0000000), wk =   0.1111111
        k(   16) = (   0.0587007   0.0000000   0.0000000), wk =   0.1111111
        k(   17) = (  -0.0880510  -0.0487820   0.0000000), wk =   0.0555556
        k(   18) = (  -0.0880510  -0.0162607   0.0000000), wk =   0.1111111
        k(   19) = (  -0.0880510   0.0162607   0.0000000), wk =   0.1111111
        k(   20) = (  -0.0880510  -0.1463459   0.0000000), wk =   0.0555556

     Largest allocated arrays     est. size (Mb)     dimensions
     Largest temporary arrays     est. size (Mb)     dimensions

     Initial potential from superposition of free atoms
     Check: negative starting charge=   -0.571522

     starting charge  158.99966, renormalised to  168.00000

     negative rho (up, down):  6.039E-01 0.000E+00

     *
     * You are using vdW-DF for exchange-correlation in this calculation.
     * Please cite the following three references that made this development
     * possible:
     *
     *   M. Dion, H. Rydberg, E. Schroder, D. C. Langreth, and
     *   B. I. Lundqvist, Phys. Rev. Lett. 92, 246401 (2004).
     *
     *   T. Thonhauser, V. R. Cooper, S. Li, A. Puzder, P. Hyldgaard, and
     *   D. C. Langreth, Phys. Rev. B 76, 125112 (2007).
     *
     *   G. Roman-Perez and J. M. Soler, Phys. Rev. Lett. 103, 096102 (2009).
     *
     *
     * If you are using vdW-DF2, please also cite:
     *
     *   K. Lee, E. D. Murray, L. Kong, B. I. Lundqvist, and
     *   D. C. Langreth, Phys. Rev. B 82, 081101(R) (2010).
     *
     *
     * If you are calculating the stress with vdW-DF, please also cite:
     *
     *   R. Sabatini, E. Kucukbenli, B. Kolb, T. Thonhauser, and
     *   S. de Gironcoli, J. Phys.: Condens. Matter 24, 424209 (2012).
     *

     Carrying out vdW-DF run using the following parameters:

     Nqs =      20    Nr_points =    1024   r_max =   100.000
     q_mesh =
               0.00001000     0.04494208     0.09755937     0.15916263
               0.23128650     0.31572767     0.41458969     0.53033537
               0.66584808     0.82450364     1.01025438     1.22772762
               1.48234092     1.78043706     2.12944203     2.53805004
               3.01644009     3.57652955     4.23227104     5.00000000

     Gradients computed in reciprocal space

     Adding external electric field

     Computed dipole along edir(3) :
        Dipole               -0.0000 Ry au,         -0.0000 Debye
        Dipole field         -0.0000 Ry au

        Potential amp.        0.0000 Ry
        Total length         45.5598 bohr

     Starting wfc are  132 randomized atomic wfcs

     Self-consistent Calculation

     iteration #  1     ecut=    36.75 Ry     beta=0.10
     Davidson diagonalization with overlap
     ethr =  1.00E-02,  avg # of iterations =  7.7

[...]

     total energy              =   -1867.36389883 Ry
     Harris-Foulkes estimate   =   -1869.10524545 Ry
     estimated scf accuracy    <      10.69300927 Ry

[...]

     iteration # 15     ecut=    36.75 Ry     beta=0.10
     Davidson diagonalization with overlap
     c_bands:  1 eigenvalues not converged
     ethr =  4.87E-08,  avg # of iterations =  3.7

[...]

     End of self-consistent calculation

          k = 0.0000 0.0000 0.0000 ( 18307 PWs)   bands (ev):

   -71.1542 -71.1260 -70.9562 -70.9557 -70.9279 -70.9274 -41.2884 -41.2543
   -41.2217 -41.1960 -41.1942 -41.0188 -40.9866 -40.9796 -40.9103 -40.8890
   -40.8883 -40.8880 -40.8790 -40.8575 -40.8337 -40.8203 -40.8022 -40.7901
    -8.4002  -8.2665  -8.1876  -8.1329  -7.9941  -7.9522  -7.9125  -7.8657
    -7.8581  -7.8299  -7.7442  -7.7208  -7.4779  -7.4482  -7.3908  -7.3414
    -7.2528  -7.2503  -7.2031  -7.1781  -7.0935  -7.0907  -7.0603  -6.9864
    -6.9664  -6.9649  -6.9472  -6.8188  -6.7918  -6.4290  -6.3145  -4.6156
    -2.9198  -2.3672  -1.9906  -1.6648  -1.6111  -1.5500  -1.4486  -1.1524
    -0.9975  -0.8113  -0.5371  -0.4441  -0.3488  -0.3485  -0.0513  -0.0064
     0.1237   0.5298   0.5891   0.7787   0.9389   1.0316   1.0337   1.0580
     1.2411   1.2947   1.3433   1.4376   1.4626   1.4971   1.5413   1.7489
     1.9026   2.0539   2.2959   2.5405   2.5870   2.9429   2.9567   3.3529
     3.4938   4.9144   5.0676   5.2207   5.4464   5.6999   5.9509   5.9989
     6.3999   6.7089   6.8898   7.0933   7.4059   7.6840   7.8968   8.8497
     8.9792   9.0621

[...]

          k =-0.0881-0.0488 0.0000 ( 18288 PWs)   bands (ev):

[...]

     the Fermi energy is     1.1565 ev

!    total energy              =   -1866.75951820 Ry
     Harris-Foulkes estimate   =   -1866.75952167 Ry
     estimated scf accuracy    <       0.00000049 Ry

     The total energy is the sum of the following terms:

     one-electron contribution =  -14335.02871553 Ry
     hartree contribution      =    7214.93042090 Ry
     xc contribution           =    -405.93304606 Ry
     ewald contribution        =    5659.37431286 Ry
     electric field correction =       0.00000000 Ry
     smearing contrib. (-TS)   =      -0.10249037 Ry

     convergence has been achieved in  20 iterations

 BEEF-vdW xc energy contributions
           1 :   -354.299170908823
           2 :    324.492039184428
           3 :   -273.652894281554
           4 :    215.514637963732
           5 :   -163.320662747657
[...]
   This run was terminated on:   3:57: 5  19Dec2018

[...]

     Program PWSCF v.5.1rc2 (svn rev. 11289) starts on 19Dec2018 at  3:57:10

[...]

   This run was terminated on:   4: 2:14  19Dec2018

[...]

     Program PWSCF v.5.1rc2 (svn rev. 11289) starts on 19Dec2018 at  4: 2:19

[...]

   This run was terminated on:   4: 7:25  19Dec2018

[...]

     Program PWSCF v.5.1rc2 (svn rev. 11289) starts on 19Dec2018 at  4: 7:32

[...]

   This run was terminated on:   4:12:39  19Dec2018

[...]

     Program PWSCF v.5.1rc2 (svn rev. 11289) starts on 19Dec2018 at  4:42:31

     Current dimensions of program PWSCF are:
     Max number of different atomic species (ntypx) = 10
     Max number of k-points (npk) =  40000
     Max angular momentum in pseudopotentials (lmaxx) =  3
     Presently stress not available with electric field

     IMPORTANT: XC functional enforced from input :
     Exchange-correlation      = BEEF-VDW ( 1  4 27 13 2)
     Any further DFT definition will be discarded
     Please, verify this is what you really want

     Subspace diagonalization in iterative solution of the eigenvalue problem:
     a serial algorithm will be used

     Found symmetry operation: I + ( -0.5000  0.0000  0.0000)
     This is a supercell, fractional translations are disabled

     bravais-lattice index     =            0
     lattice parameter (alat)  =       1.8897  a.u.
     unit-cell volume          =    4856.1413 (a.u.)^3
     number of atoms/cell      =           12
     number of atomic types    =            2
     number of electrons       =       168.00
     number of Kohn-Sham states=          114
     kinetic-energy cutoff     =      36.7493  Ry
     charge density cutoff     =     367.4932  Ry
     convergence threshold     =      1.0E-06
     mixing beta               =       0.1000
     number of iterations used =           10  plain     mixing
     Exchange-correlation      = BEEF-VDW ( 1  4 27 13 2)
     nstep                     =           50

     celldm(1)=   1.889726  celldm(2)=   0.000000  celldm(3)=   0.000000
     celldm(4)=   0.000000  celldm(5)=   0.000000  celldm(6)=   0.000000

     crystal axes: (cart. coord. in units of alat)
               a(1) = (   5.678525   0.000000   0.000000 )
               a(2) = (  -2.839262   5.124846   0.000000 )
               a(3) = (   0.000000   0.000000  24.727395 )

     reciprocal axes: (cart. coord. in units 2 pi/alat)
               b(1) = (  0.176102  0.097564  0.000000 )
               b(2) = (  0.000000  0.195128  0.000000 )
               b(3) = (  0.000000  0.000000  0.040441 )

     PseudoPot. # 1 for Ru read from file:
     /afs/slac.stanford.edu/u/if/mamunm/psp/gbrv1.5pbe/Ru.UPF
     MD5 check sum: 7158a806dd851261a58e6920c40ebe78
     Pseudo is Ultrasoft + core correction, Zval = 16.0
     Generated by new atomic code, or converted to UPF format
     Using radial grid of  967 points,  6 beta functions with:
                l(1) =   0
                l(2) =   0
                l(3) =   1
                l(4) =   1
                l(5) =   2
                l(6) =   2
     Q(r) pseudized with  8 coefficients,  rinner =    1.300   1.300   1.300
                                                       1.300   1.300

     PseudoPot. # 2 for Cd read from file:
     /afs/slac.stanford.edu/u/if/mamunm/psp/gbrv1.5pbe/Cd.UPF
     MD5 check sum: 17164a7926edb8e0dc231208abae86a6
     Pseudo is Ultrasoft + core correction, Zval = 12.0
     Generated by new atomic code, or converted to UPF format
     Using radial grid of  889 points,  6 beta functions with:
                l(1) =   0
                l(2) =   0
                l(3) =   1
                l(4) =   1
                l(5) =   2
                l(6) =   2
     Q(r) pseudized with  6 coefficients,  rinner =    1.000   1.000   1.000
                                                       1.000   1.000

     vdW kernel table read from file vdW_kernel_table
     MD5 check sum: 095c7af220d748ca6e76c0b4c6cfb241

     atomic species   valence    mass     pseudopotential
        Ru1           16.00   101.07000     Ru( 1.00)
        Cd1           12.00   112.41400     Cd( 1.00)

     No symmetry found

   Cartesian axes

     site n.     atom                  positions (alat units)
         1           Ru1 tau(   1) = (   0.0000000   0.0000000  10.0000000  )
         2           Ru1 tau(   2) = (   2.8392624   0.0000000  10.0000000  )
         3           Cd1 tau(   3) = (   1.4196312   2.5624231  10.0000000  )
         4           Cd1 tau(   4) = (  -1.4196312   2.5624231  10.0000000  )
         5           Ru1 tau(   5) = (   2.8392624   1.5730054  12.3636973  )
         6           Ru1 tau(   6) = (  -0.0000000   1.5730054  12.3636973  )
         7           Cd1 tau(   7) = (  -1.4196312   4.1354285  12.3636973  )
         8           Cd1 tau(   8) = (   1.4196312   4.1354285  12.3636973  )
         9           Ru1 tau(   9) = (  -0.0000131   2.5271498  14.4536012  )
        10           Ru1 tau(  10) = (   2.8392676   2.5271345  14.4536082  )
        11           Cd1 tau(  11) = (   4.2588960   0.0575378  15.1296681  )
        12           Cd1 tau(  12) = (   1.4196297   0.0575616  15.1296656  )

     number of k points=    20  Fermi-Dirac smearing, width (Ry)=  0.0110
                       cart. coord. in units 2pi/alat
        k(    1) = (   0.0000000   0.0000000   0.0000000), wk =   0.0555556
        k(    2) = (   0.0000000   0.0325213   0.0000000), wk =   0.1111111
        k(    3) = (   0.0000000   0.0650426   0.0000000), wk =   0.1111111
        k(    4) = (   0.0000000  -0.0975639   0.0000000), wk =   0.0555556
        k(    5) = (   0.0293503   0.0162607   0.0000000), wk =   0.1111111
        k(    6) = (   0.0293503   0.0487820   0.0000000), wk =   0.1111111
        k(    7) = (   0.0293503   0.0813033   0.0000000), wk =   0.1111111
        k(    8) = (   0.0293503  -0.0813033   0.0000000), wk =   0.1111111
        k(    9) = (   0.0293503  -0.0487820   0.0000000), wk =   0.1111111
        k(   10) = (   0.0293503  -0.0162607   0.0000000), wk =   0.1111111
        k(   11) = (   0.0587007   0.0325213   0.0000000), wk =   0.1111111
        k(   12) = (   0.0587007   0.0650426   0.0000000), wk =   0.1111111
        k(   13) = (   0.0587007   0.0975639   0.0000000), wk =   0.1111111
        k(   14) = (   0.0587007  -0.0650426   0.0000000), wk =   0.1111111
        k(   15) = (   0.0587007  -0.0325213   0.0000000), wk =   0.1111111
        k(   16) = (   0.0587007   0.0000000   0.0000000), wk =   0.1111111
        k(   17) = (  -0.0880510  -0.0487820   0.0000000), wk =   0.0555556
        k(   18) = (  -0.0880510  -0.0162607   0.0000000), wk =   0.1111111
        k(   19) = (  -0.0880510   0.0162607   0.0000000), wk =   0.1111111
        k(   20) = (  -0.0880510  -0.1463459   0.0000000), wk =   0.0555556

     Largest allocated arrays     est. size (Mb)     dimensions
     Largest temporary arrays     est. size (Mb)     dimensions

     Initial potential from superposition of free atoms
     Check: negative starting charge=   -0.572435

     starting charge  158.99966, renormalised to  168.00000

[...]

     *
     * You are using vdW-DF for exchange-correlation in this calculation.
     * Please cite the following three references that made this development
     * possible:
     *
     *   M. Dion, H. Rydberg, E. Schroder, D. C. Langreth, and
     *   B. I. Lundqvist, Phys. Rev. Lett. 92, 246401 (2004).
     *
     *   T. Thonhauser, V. R. Cooper, S. Li, A. Puzder, P. Hyldgaard, and
     *   D. C. Langreth, Phys. Rev. B 76, 125112 (2007).
     *
     *   G. Roman-Perez and J. M. Soler, Phys. Rev. Lett. 103, 096102 (2009).
     *
     *
     * If you are using vdW-DF2, please also cite:
     *
     *   K. Lee, E. D. Murray, L. Kong, B. I. Lundqvist, and
     *   D. C. Langreth, Phys. Rev. B 82, 081101(R) (2010).
     *
     *
     * If you are calculating the stress with vdW-DF, please also cite:
     *
     *   R. Sabatini, E. Kucukbenli, B. Kolb, T. Thonhauser, and
     *   S. de Gironcoli, J. Phys.: Condens. Matter 24, 424209 (2012).
     *

     Carrying out vdW-DF run using the following parameters:

     Nqs =      20    Nr_points =    1024   r_max =   100.000
     q_mesh =
               0.00001000     0.04494208     0.09755937     0.15916263
               0.23128650     0.31572767     0.41458969     0.53033537
               0.66584808     0.82450364     1.01025438     1.22772762
               1.48234092     1.78043706     2.12944203     2.53805004
               3.01644009     3.57652955     4.23227104     5.00000000

     Gradients computed in reciprocal space

[...]

     Starting wfc are  132 randomized atomic wfcs

     Self-consistent Calculation

[...]

     total energy              =   -1866.83444475 Ry
     Harris-Foulkes estimate   =   -1866.83444725 Ry
     estimated scf accuracy    <       0.00000105 Ry

     iteration # 19     ecut=    36.75 Ry     beta=0.10
     Davidson diagonalization with overlap
     ethr =  6.26E-10,  avg # of iterations =  2.5

[...]

     negative rho (up, down):  5.873E-01 0.000E+00

     Adding external electric field

     Computed dipole along edir(3) :
        Dipole                0.1298 Ry au,          0.3299 Debye
        Dipole field          0.0003 Ry au

        Potential amp.       -0.0306 Ry
        Total length         45.5598 bohr

     End of self-consistent calculation

[...]

          k = 0.0587 0.0000 0.0000 ( 18279 PWs)   bands (ev):

[...]

          k =-0.0881-0.1463 0.0000 ( 18288 PWs)   bands (ev):

   -71.4034 -71.4034 -71.1518 -71.1518 -70.7113 -70.7113 -42.0999 -42.0999
   -41.2300 -41.2300 -41.1742 -41.1742 -41.0419 -41.0419 -41.0096 -41.0096
   -40.9925 -40.9925 -40.7970 -40.7970 -40.6727 -40.6727 -40.5948 -40.5948
    -7.8358  -7.8358  -7.6589  -7.6589  -7.5919  -7.5919  -7.4796  -7.4796
    -7.4505  -7.4505  -7.3302  -7.3302  -7.2777  -7.2777  -7.2605  -7.2605
    -7.2495  -7.2495  -7.2164  -7.2164  -7.1842  -7.1842  -7.1734  -7.1734
    -7.0478  -7.0478  -6.9907  -6.9907  -6.9400  -6.9400  -4.5259  -4.5259
    -3.1930  -3.1930  -2.3939  -2.3939  -2.0364  -2.0364  -1.7748  -1.7748
    -1.0930  -1.0929  -0.5724  -0.5724  -0.4854  -0.4854  -0.1621  -0.1621
    -0.0015  -0.0015   0.1961   0.1962   0.2801   0.2801   0.4767   0.4767
     0.6132   0.6132   1.0196   1.0196   1.2966   1.2967   1.7054   1.7054
     1.9941   1.9941   2.2672   2.2672   3.1125   3.1125   3.9681   3.9681
     4.9029   4.9029   6.0212   6.0212   6.8493   6.8493   7.0604   7.0604
     7.3640   7.3640   7.5562   7.5562   8.0018   8.0018   8.3400   8.3400
     8.6096   8.6097

     the Fermi energy is     1.3657 ev

!    total energy              =   -1866.83443885 Ry
     Harris-Foulkes estimate   =   -1866.83444270 Ry
     estimated scf accuracy    <       0.00000051 Ry

     The total energy is the sum of the following terms:

     one-electron contribution =  -14285.13222174 Ry
     hartree contribution      =    7189.89165196 Ry
     xc contribution           =    -405.96397362 Ry
     ewald contribution        =    5634.45174558 Ry
     electric field correction =       0.00004360 Ry
     smearing contrib. (-TS)   =      -0.08168464 Ry

     convergence has been achieved in  19 iterations

 BEEF-vdW xc energy contributions
           1 :   -354.341815268917
           2 :    324.535835894908
           3 :   -273.702242533163
           4 :    215.562446842929
           5 :   -163.322153087126
           6 :    125.185292735239
           7 :   -102.579667939992
           8 :    91.4255876353266
           9 :   -85.3643945982465
          10 :    79.1417471776781
          11 :   -70.5801224619913
          12 :    60.5405569067245
          13 :   -51.3811944197499
          14 :    45.0662092300608
          15 :   -42.0003179113079
          16 :    41.0385782130580
          17 :   -40.3912552926430
          18 :    38.7204304876546
          19 :   -35.7713584819317
          20 :    32.2740462806256
          21 :   -29.3072496752814
          22 :    27.5799059296792
          23 :   -27.0506269055957
          24 :    27.0470247166407
          25 :   -26.7402529006007
          26 :    25.6494300607231
          27 :   -23.8775750489137
          28 :    21.9743111705671
          29 :   -20.5509097750758
          30 :    19.9037033554032
          31 :   -33.7637009152304
          32 :   -25.0210067043524

     Forces acting on atoms (Ry/au):

     negative rho (up, down):  5.873E-01 0.000E+00
     atom    1 type  1   force =     0.00000017    0.01634512    0.03112657
     atom    2 type  1   force =     0.00000021    0.01634945    0.03112701
     atom    3 type  2   force =     0.00000152   -0.00756033   -0.03245739
     atom    4 type  2   force =    -0.00000369   -0.00755730   -0.03245366
     atom    5 type  1   force =    -0.00000032   -0.02327070   -0.00593536
     atom    6 type  1   force =     0.00000012   -0.02326511   -0.00593815
     atom    7 type  2   force =    -0.00000425    0.01411015    0.00579811
     atom    8 type  2   force =     0.00000380    0.01410913    0.00579664
     atom    9 type  1   force =     0.00000016    0.00016189    0.00059208
     atom   10 type  1   force =     0.00000067    0.00016793    0.00058961
     atom   11 type  2   force =     0.00000114    0.00020583    0.00087830
     atom   12 type  2   force =     0.00000047    0.00020394    0.00087624

     Total force =     0.079462     Total SCF correction =     0.003220

     entering subroutine stress ...

     negative rho (up, down):  5.873E-01 0.000E+00
          total   stress  (Ry/bohr**3)                   (kbar)     P=  -11.96
  -0.00009019  -0.00000000   0.00000000        -13.27     -0.00      0.00
  -0.00000000  -0.00013952  -0.00001467         -0.00    -20.52     -2.16
   0.00000000  -0.00001467  -0.00001412          0.00     -2.16     -2.08

 !ASE

     Writing output data file calc.save

     General routines

     Parallel routines

   This run was terminated on:   4:47:25  19Dec2018

   JOB DONE.
Job  /afs/slac/g/suncat/bin/suncat-tsmpirun -x LD_LIBRARY_PATH -wdir /scratch/qe530503_svXm2 pw.x -in pw.inp

TID   HOST_NAME   COMMAND_LINE            STATUS            TERMINATION_TIME
00000 suncat2060 pw.x -in pw.inp   Done                     12/19/2018 04:47:25
00001 suncat2060 pw.x -in pw.inp   Done                     12/19/2018 04:47:25
00002 suncat2060 pw.x -in pw.inp   Done                     12/19/2018 04:47:25
00003 suncat2060 pw.x -in pw.inp   Done                     12/19/2018 04:47:25
00004 suncat2060 pw.x -in pw.inp   Done                     12/19/2018 04:47:25
00005 suncat2060 pw.x -in pw.inp   Done                     12/19/2018 04:47:25
00006 suncat2060 pw.x -in pw.inp   Done                     12/19/2018 04:47:25
00007 suncat2060 pw.x -in pw.inp   Done                     12/19/2018 04:47:25
00008 suncat2060 pw.x -in pw.inp   Done                     12/19/2018 04:47:25
00009 suncat2060 pw.x -in pw.inp   Done                     12/19/2018 04:47:25
00010 suncat2060 pw.x -in pw.inp   Done                     12/19/2018 04:47:25
00011 suncat2060 pw.x -in pw.inp   Done                     12/19/2018 04:47:25
00012 suncat2060 pw.x -in pw.inp   Done                     12/19/2018 04:47:25
00013 suncat2060 pw.x -in pw.inp   Done                     12/19/2018 04:47:25
00014 suncat2060 pw.x -in pw.inp   Done                     12/19/2018 04:47:25
00015 suncat2060 pw.x -in pw.inp   Done                     12/19/2018 04:47:25
00016 suncat2059 pw.x -in pw.inp   Done                     12/19/2018 04:47:25
00017 suncat2059 pw.x -in pw.inp   Done                     12/19/2018 04:47:25
00018 suncat2059 pw.x -in pw.inp   Done                     12/19/2018 04:47:25
00019 suncat2059 pw.x -in pw.inp   Done                     12/19/2018 04:47:25
00020 suncat2059 pw.x -in pw.inp   Done                     12/19/2018 04:47:25
00021 suncat2059 pw.x -in pw.inp   Done                     12/19/2018 04:47:25
00022 suncat2059 pw.x -in pw.inp   Done                     12/19/2018 04:47:25
00023 suncat2059 pw.x -in pw.inp   Done                     12/19/2018 04:47:25
00024 suncat2059 pw.x -in pw.inp   Done                     12/19/2018 04:47:25
00025 suncat2059 pw.x -in pw.inp   Done                     12/19/2018 04:47:25
00026 suncat2059 pw.x -in pw.inp   Done                     12/19/2018 04:47:25
00027 suncat2059 pw.x -in pw.inp   Done                     12/19/2018 04:47:25
00028 suncat2059 pw.x -in pw.inp   Done                     12/19/2018 04:47:25
00029 suncat2059 pw.x -in pw.inp   Done                     12/19/2018 04:47:25
00030 suncat2059 pw.x -in pw.inp   Done                     12/19/2018 04:47:25
00031 suncat2059 pw.x -in pw.inp   Done                     12/19/2018 04:47:25