     Program PWSCF v.5.1rc2 (svn rev. 11289) starts on 18Dec2018 at 20:47:23

     Current dimensions of program PWSCF are:
     Max number of different atomic species (ntypx) = 10
     Max number of k-points (npk) =  40000
     Max angular momentum in pseudopotentials (lmaxx) =  3
     Presently stress not available with electric field

     IMPORTANT: XC functional enforced from input :
     Exchange-correlation      = BEEF-VDW ( 1  4 27 13 2)
     Any further DFT definition will be discarded
     Please, verify this is what you really want

     Subspace diagonalization in iterative solution of the eigenvalue problem:
     a serial algorithm will be used

     Found symmetry operation: I + ( -0.5000 -0.5000  0.0000)
     This is a supercell, fractional translations are disabled

     Generating pointlists ...
     new r_m :   0.4125 (alat units)  0.7795 (a.u.) for type    1
     new r_m :   0.4125 (alat units)  0.7795 (a.u.) for type    2

     bravais-lattice index     =            0
     lattice parameter (alat)  =       1.8897  a.u.
     unit-cell volume          =    4759.4714 (a.u.)^3
     number of atoms/cell      =           12
     number of atomic types    =            2
     number of electrons       =       180.00
     number of Kohn-Sham states=          120
     kinetic-energy cutoff     =      36.7493  Ry
     charge density cutoff     =     367.4932  Ry
     convergence threshold     =      1.0E-06
     mixing beta               =       0.1000
     number of iterations used =           10  plain     mixing
     Exchange-correlation      = BEEF-VDW ( 1  4 27 13 2)
     nstep                     =           50

     celldm(1)=   1.889726  celldm(2)=   0.000000  celldm(3)=   0.000000
     celldm(4)=   0.000000  celldm(5)=   0.000000  celldm(6)=   0.000000

     crystal axes: (cart. coord. in units of alat)
               a(1) = (   5.519311   0.000000   0.000000 )
               a(2) = (   1.801917   5.216885   0.000000 )
               a(3) = (   0.000000   0.000000  24.494353 )

     reciprocal axes: (cart. coord. in units 2 pi/alat)
               b(1) = (  0.181182 -0.062580  0.000000 )
               b(2) = (  0.000000  0.191685  0.000000 )
               b(3) = (  0.000000  0.000000  0.040826 )

     PseudoPot. # 1 for Ni read from file:
     /afs/slac.stanford.edu/u/if/mamunm/psp/gbrv1.5pbe/Ni.UPF
     MD5 check sum: 1ee80287db30b12d2bc1f57a5b5d6409
     Pseudo is Ultrasoft + core correction, Zval = 18.0
     Generated by new atomic code, or converted to UPF format
     Using radial grid of  865 points,  6 beta functions with:
                l(1) =   0
                l(2) =   0
                l(3) =   1
                l(4) =   1
                l(5) =   2
                l(6) =   2
     Q(r) pseudized with 10 coefficients,  rinner =    0.980   0.980   0.980
                                                       0.980   0.980

     PseudoPot. # 2 for Hg read from file:
     /afs/slac.stanford.edu/u/if/mamunm/psp/gbrv1.5pbe/Hg.UPF
     MD5 check sum: 8f42caffe07f7fd9c0a564347f8c5498
     Pseudo is Ultrasoft + core correction, Zval = 12.0
     Generated by new atomic code, or converted to UPF format
     Using radial grid of  985 points,  6 beta functions with:
                l(1) =   0
                l(2) =   0
                l(3) =   1
                l(4) =   1
                l(5) =   2
                l(6) =   2
     Q(r) pseudized with  8 coefficients,  rinner =    2.000   2.000   2.000
                                                       2.000   2.000

     vdW kernel table read from file vdW_kernel_table
     MD5 check sum: 095c7af220d748ca6e76c0b4c6cfb241

     atomic species   valence    mass     pseudopotential
        Ni1           18.00    58.69340     Ni( 1.00)
        Hg1           12.00   200.59200     Hg( 1.00)

     Starting magnetic structure
     atomic species   magnetization
        Ni1          0.111
        Hg1          0.167

     No symmetry found

   Cartesian axes

     site n.     atom                  positions (alat units)
         1           Ni1 tau(   1) = (   0.0000000   0.0000000  10.0000000  )
         2           Ni1 tau(   2) = (   3.6606140   2.6084426  10.0000000  )
         3           Hg1 tau(   3) = (   2.7596556   0.0000000  10.0000000  )
         4           Hg1 tau(   4) = (   0.9009584   2.6084426  10.0000000  )
         5           Ni1 tau(   5) = (   5.5193111   3.9328938  12.2471764  )
         6           Ni1 tau(   6) = (   1.8586971   1.3244512  12.2471764  )
         7           Hg1 tau(   7) = (   2.7596556   3.9328938  12.2471764  )
         8           Hg1 tau(   8) = (   4.6183527   1.3244512  12.2471764  )
         9           Ni1 tau(   9) = (   3.7173942   2.6489025  14.4943528  )
        10           Ni1 tau(  10) = (   0.0567802   0.0404599  14.4943528  )
        11           Hg1 tau(  11) = (   0.9577387   2.6489025  14.4943528  )
        12           Hg1 tau(  12) = (   2.8164358   0.0404599  14.4943528  )

     number of k points=    40  Fermi-Dirac smearing, width (Ry)=  0.0110
                       cart. coord. in units 2pi/alat
        k(    1) = (   0.0000000   0.0000000   0.0000000), wk =   0.0277778
        k(    2) = (   0.0000000   0.0319475   0.0000000), wk =   0.0555556
        k(    3) = (   0.0000000   0.0638951   0.0000000), wk =   0.0555556
        k(    4) = (   0.0000000  -0.0958426   0.0000000), wk =   0.0277778
        k(    5) = (   0.0301970  -0.0104301   0.0000000), wk =   0.0555556
        k(    6) = (   0.0301970   0.0215175   0.0000000), wk =   0.0555556
        k(    7) = (   0.0301970   0.0534650   0.0000000), wk =   0.0555556
        k(    8) = (   0.0301970  -0.1062727   0.0000000), wk =   0.0555556
        k(    9) = (   0.0301970  -0.0743252   0.0000000), wk =   0.0555556
        k(   10) = (   0.0301970  -0.0423776   0.0000000), wk =   0.0555556
        k(   11) = (   0.0603940  -0.0208601   0.0000000), wk =   0.0555556
        k(   12) = (   0.0603940   0.0110874   0.0000000), wk =   0.0555556
        k(   13) = (   0.0603940   0.0430349   0.0000000), wk =   0.0555556
        k(   14) = (   0.0603940  -0.1167028   0.0000000), wk =   0.0555556
        k(   15) = (   0.0603940  -0.0847552   0.0000000), wk =   0.0555556
        k(   16) = (   0.0603940  -0.0528077   0.0000000), wk =   0.0555556
        k(   17) = (  -0.0905910   0.0312902   0.0000000), wk =   0.0277778
        k(   18) = (  -0.0905910   0.0632378   0.0000000), wk =   0.0555556
        k(   19) = (  -0.0905910   0.0951853   0.0000000), wk =   0.0555556
        k(   20) = (  -0.0905910  -0.0645524   0.0000000), wk =   0.0277778
        k(   21) = (   0.0000000   0.0000000   0.0000000), wk =   0.0277778
        k(   22) = (   0.0000000   0.0319475   0.0000000), wk =   0.0555556
        k(   23) = (   0.0000000   0.0638951   0.0000000), wk =   0.0555556
        k(   24) = (   0.0000000  -0.0958426   0.0000000), wk =   0.0277778
        k(   25) = (   0.0301970  -0.0104301   0.0000000), wk =   0.0555556
        k(   26) = (   0.0301970   0.0215175   0.0000000), wk =   0.0555556
        k(   27) = (   0.0301970   0.0534650   0.0000000), wk =   0.0555556
        k(   28) = (   0.0301970  -0.1062727   0.0000000), wk =   0.0555556
        k(   29) = (   0.0301970  -0.0743252   0.0000000), wk =   0.0555556
        k(   30) = (   0.0301970  -0.0423776   0.0000000), wk =   0.0555556
        k(   31) = (   0.0603940  -0.0208601   0.0000000), wk =   0.0555556
        k(   32) = (   0.0603940   0.0110874   0.0000000), wk =   0.0555556
        k(   33) = (   0.0603940   0.0430349   0.0000000), wk =   0.0555556
        k(   34) = (   0.0603940  -0.1167028   0.0000000), wk =   0.0555556
        k(   35) = (   0.0603940  -0.0847552   0.0000000), wk =   0.0555556
        k(   36) = (   0.0603940  -0.0528077   0.0000000), wk =   0.0555556
        k(   37) = (  -0.0905910   0.0312902   0.0000000), wk =   0.0277778
        k(   38) = (  -0.0905910   0.0632378   0.0000000), wk =   0.0555556
        k(   39) = (  -0.0905910   0.0951853   0.0000000), wk =   0.0555556
        k(   40) = (  -0.0905910  -0.0645524   0.0000000), wk =   0.0277778

     Largest allocated arrays     est. size (Mb)     dimensions
     Largest temporary arrays     est. size (Mb)     dimensions

     Initial potential from superposition of free atoms
     Check: negative starting charge=(component1):   -0.000310
     Check: negative starting charge=(component2):   -0.000250

     starting charge  167.99965, renormalised to  180.00000

     negative rho (up, down):  3.325E-04 2.674E-04

     *
     * You are using vdW-DF for exchange-correlation in this calculation.
     * Please cite the following three references that made this development
     * possible:
     *
     *   M. Dion, H. Rydberg, E. Schroder, D. C. Langreth, and
     *   B. I. Lundqvist, Phys. Rev. Lett. 92, 246401 (2004).
     *
     *   T. Thonhauser, V. R. Cooper, S. Li, A. Puzder, P. Hyldgaard, and
     *   D. C. Langreth, Phys. Rev. B 76, 125112 (2007).
     *
     *   G. Roman-Perez and J. M. Soler, Phys. Rev. Lett. 103, 096102 (2009).
     *
     *
     * If you are using vdW-DF2, please also cite:
     *
     *   K. Lee, E. D. Murray, L. Kong, B. I. Lundqvist, and
     *   D. C. Langreth, Phys. Rev. B 82, 081101(R) (2010).
     *
     *
     * If you are calculating the stress with vdW-DF, please also cite:
     *
     *   R. Sabatini, E. Kucukbenli, B. Kolb, T. Thonhauser, and
     *   S. de Gironcoli, J. Phys.: Condens. Matter 24, 424209 (2012).
     *

     Carrying out vdW-DF run using the following parameters:

     Nqs =      20    Nr_points =    1024   r_max =   100.000
     q_mesh =
               0.00001000     0.04494208     0.09755937     0.15916263
               0.23128650     0.31572767     0.41458969     0.53033537
               0.66584808     0.82450364     1.01025438     1.22772762
               1.48234092     1.78043706     2.12944203     2.53805004
               3.01644009     3.57652955     4.23227104     5.00000000

     Gradients computed in reciprocal space

     Adding external electric field

     Computed dipole along edir(3) :
        Dipole                0.0000 Ry au,          0.0000 Debye
        Dipole field          0.0000 Ry au

        Potential amp.       -0.0000 Ry
        Total length         45.1304 bohr

[...]

     Starting wfc are  132 randomized atomic wfcs

     Self-consistent Calculation

     iteration #  1     ecut=    36.75 Ry     beta=0.10
     Davidson diagonalization with overlap
     ethr =  1.00E-02,  avg # of iterations =  8.3

[...]

     Magnetic moment per site:
     atom:    1    charge:    9.5664    magn:    1.0210    constr:    0.0000
     atom:    2    charge:    9.5664    magn:    1.0210    constr:    0.0000
     atom:    3    charge:    2.0485    magn:    0.3162    constr:    0.0000
     atom:    4    charge:    2.0485    magn:    0.3162    constr:    0.0000
     atom:    5    charge:    9.5541    magn:    1.0190    constr:    0.0000
     atom:    6    charge:    9.5540    magn:    1.0190    constr:    0.0000
     atom:    7    charge:    2.0504    magn:    0.3165    constr:    0.0000
[...]
                                                       0.980   0.980

     PseudoPot. # 2 for Hg read from file:
     /afs/slac.stanford.edu/u/if/mamunm/psp/gbrv1.5pbe/Hg.UPF
     MD5 check sum: 8f42caffe07f7fd9c0a564347f8c5498
     Pseudo is Ultrasoft + core correction, Zval = 12.0
     Generated by new atomic code, or converted to UPF format
     Using radial grid of  985 points,  6 beta functions with:
                l(1) =   0
                l(2) =   0
                l(3) =   1
                l(4) =   1
                l(5) =   2
                l(6) =   2
     Q(r) pseudized with  8 coefficients,  rinner =    2.000   2.000   2.000
                                                       2.000   2.000

     vdW kernel table read from file vdW_kernel_table
     MD5 check sum: 095c7af220d748ca6e76c0b4c6cfb241

     atomic species   valence    mass     pseudopotential
        Ni1           18.00    58.69340     Ni( 1.00)
        Hg1           12.00   200.59200     Hg( 1.00)

     Starting magnetic structure
     atomic species   magnetization
        Ni1          0.111
        Hg1          0.167

     No symmetry found

   Cartesian axes

     site n.     atom                  positions (alat units)
         1           Ni1 tau(   1) = (   0.0000000   0.0000000  10.0000000  )
         2           Ni1 tau(   2) = (   3.6606140   2.6084426  10.0000000  )
         3           Hg1 tau(   3) = (   2.7596556   0.0000000  10.0000000  )
         4           Hg1 tau(   4) = (   0.9009584   2.6084426  10.0000000  )
         5           Ni1 tau(   5) = (   5.5193111   3.9328938  12.2471764  )
         6           Ni1 tau(   6) = (   1.8586971   1.3244512  12.2471764  )
         7           Hg1 tau(   7) = (   2.7596556   3.9328938  12.2471764  )
         8           Hg1 tau(   8) = (   4.6183527   1.3244512  12.2471764  )
         9           Ni1 tau(   9) = (   3.7193892   2.6503233  14.3534780  )
        10           Ni1 tau(  10) = (   0.0587973   0.0418965  14.3534932  )
        11           Hg1 tau(  11) = (   0.9582665   2.6492828  14.7329822  )
        12           Hg1 tau(  12) = (   2.8169670   0.0408338  14.7329820  )

     number of k points=    40  Fermi-Dirac smearing, width (Ry)=  0.0110
                       cart. coord. in units 2pi/alat
        k(    1) = (   0.0000000   0.0000000   0.0000000), wk =   0.0277778
        k(    2) = (   0.0000000   0.0319475   0.0000000), wk =   0.0555556
        k(    3) = (   0.0000000   0.0638951   0.0000000), wk =   0.0555556
        k(    4) = (   0.0000000  -0.0958426   0.0000000), wk =   0.0277778
        k(    5) = (   0.0301970  -0.0104301   0.0000000), wk =   0.0555556
        k(    6) = (   0.0301970   0.0215175   0.0000000), wk =   0.0555556
        k(    7) = (   0.0301970   0.0534650   0.0000000), wk =   0.0555556
        k(    8) = (   0.0301970  -0.1062727   0.0000000), wk =   0.0555556
        k(    9) = (   0.0301970  -0.0743252   0.0000000), wk =   0.0555556
        k(   10) = (   0.0301970  -0.0423776   0.0000000), wk =   0.0555556
        k(   11) = (   0.0603940  -0.0208601   0.0000000), wk =   0.0555556
        k(   12) = (   0.0603940   0.0110874   0.0000000), wk =   0.0555556
        k(   13) = (   0.0603940   0.0430349   0.0000000), wk =   0.0555556
        k(   14) = (   0.0603940  -0.1167028   0.0000000), wk =   0.0555556
        k(   15) = (   0.0603940  -0.0847552   0.0000000), wk =   0.0555556
        k(   16) = (   0.0603940  -0.0528077   0.0000000), wk =   0.0555556
        k(   17) = (  -0.0905910   0.0312902   0.0000000), wk =   0.0277778
        k(   18) = (  -0.0905910   0.0632378   0.0000000), wk =   0.0555556
        k(   19) = (  -0.0905910   0.0951853   0.0000000), wk =   0.0555556
        k(   20) = (  -0.0905910  -0.0645524   0.0000000), wk =   0.0277778
        k(   21) = (   0.0000000   0.0000000   0.0000000), wk =   0.0277778
        k(   22) = (   0.0000000   0.0319475   0.0000000), wk =   0.0555556
        k(   23) = (   0.0000000   0.0638951   0.0000000), wk =   0.0555556
        k(   24) = (   0.0000000  -0.0958426   0.0000000), wk =   0.0277778
        k(   25) = (   0.0301970  -0.0104301   0.0000000), wk =   0.0555556
        k(   26) = (   0.0301970   0.0215175   0.0000000), wk =   0.0555556
        k(   27) = (   0.0301970   0.0534650   0.0000000), wk =   0.0555556
        k(   28) = (   0.0301970  -0.1062727   0.0000000), wk =   0.0555556
        k(   29) = (   0.0301970  -0.0743252   0.0000000), wk =   0.0555556
        k(   30) = (   0.0301970  -0.0423776   0.0000000), wk =   0.0555556
        k(   31) = (   0.0603940  -0.0208601   0.0000000), wk =   0.0555556
        k(   32) = (   0.0603940   0.0110874   0.0000000), wk =   0.0555556
        k(   33) = (   0.0603940   0.0430349   0.0000000), wk =   0.0555556
        k(   34) = (   0.0603940  -0.1167028   0.0000000), wk =   0.0555556
        k(   35) = (   0.0603940  -0.0847552   0.0000000), wk =   0.0555556
        k(   36) = (   0.0603940  -0.0528077   0.0000000), wk =   0.0555556
        k(   37) = (  -0.0905910   0.0312902   0.0000000), wk =   0.0277778
        k(   38) = (  -0.0905910   0.0632378   0.0000000), wk =   0.0555556
        k(   39) = (  -0.0905910   0.0951853   0.0000000), wk =   0.0555556
        k(   40) = (  -0.0905910  -0.0645524   0.0000000), wk =   0.0277778

     Largest allocated arrays     est. size (Mb)     dimensions
     Largest temporary arrays     est. size (Mb)     dimensions

     Initial potential from superposition of free atoms
     Check: negative starting charge=(component1):   -0.000297
     Check: negative starting charge=(component2):   -0.000239

     starting charge  167.99965, renormalised to  180.00000

[...]

     *
     * You are using vdW-DF for exchange-correlation in this calculation.
     * Please cite the following three references that made this development
     * possible:
     *
     *   M. Dion, H. Rydberg, E. Schroder, D. C. Langreth, and
     *   B. I. Lundqvist, Phys. Rev. Lett. 92, 246401 (2004).
     *
     *   T. Thonhauser, V. R. Cooper, S. Li, A. Puzder, P. Hyldgaard, and
     *   D. C. Langreth, Phys. Rev. B 76, 125112 (2007).
     *
     *   G. Roman-Perez and J. M. Soler, Phys. Rev. Lett. 103, 096102 (2009).
     *
     *
     * If you are using vdW-DF2, please also cite:
     *
     *   K. Lee, E. D. Murray, L. Kong, B. I. Lundqvist, and
     *   D. C. Langreth, Phys. Rev. B 82, 081101(R) (2010).
     *
     *
     * If you are calculating the stress with vdW-DF, please also cite:
     *
     *   R. Sabatini, E. Kucukbenli, B. Kolb, T. Thonhauser, and
     *   S. de Gironcoli, J. Phys.: Condens. Matter 24, 424209 (2012).
     *

     Carrying out vdW-DF run using the following parameters:

     Nqs =      20    Nr_points =    1024   r_max =   100.000
     q_mesh =
               0.00001000     0.04494208     0.09755937     0.15916263
               0.23128650     0.31572767     0.41458969     0.53033537
               0.66584808     0.82450364     1.01025438     1.22772762
               1.48234092     1.78043706     2.12944203     2.53805004
               3.01644009     3.57652955     4.23227104     5.00000000

     Gradients computed in reciprocal space

[...]

     Starting wfc are  132 randomized atomic wfcs

     Self-consistent Calculation

[...]

     iteration # 26     ecut=    36.75 Ry     beta=0.10
     Davidson diagonalization with overlap
     c_bands:  1 eigenvalues not converged
     ethr =  8.52E-08,  avg # of iterations =  5.3

[...]

     total energy              =   -2720.88321268 Ry
     Harris-Foulkes estimate   =   -2720.88321290 Ry
     estimated scf accuracy    <       0.00000128 Ry

[...]

     iteration # 40     ecut=    36.75 Ry     beta=0.10
     Davidson diagonalization with overlap
     ethr =  7.10E-10,  avg # of iterations =  3.0

[...]

     negative rho (up, down):  7.184E-04 7.184E-04

[...]

     Adding external electric field

     Computed dipole along edir(3) :
        Dipole               -0.0033 Ry au,         -0.0085 Debye
        Dipole field         -0.0000 Ry au

        Potential amp.        0.0008 Ry
        Total length         45.1304 bohr

     Magnetic moment per site:
     atom:    1    charge:    9.3785    magn:    0.0027    constr:    0.0000
     atom:    2    charge:    9.3785    magn:    0.0023    constr:    0.0000
     atom:    3    charge:    1.9919    magn:   -0.0000    constr:    0.0000
     atom:    4    charge:    1.9919    magn:   -0.0000    constr:    0.0000
     atom:    5    charge:    9.3738    magn:   -0.0014    constr:    0.0000
     atom:    6    charge:    9.3738    magn:   -0.0014    constr:    0.0000
     atom:    7    charge:    1.9988    magn:   -0.0000    constr:    0.0000
     atom:    8    charge:    1.9988    magn:   -0.0000    constr:    0.0000
     atom:    9    charge:    9.3667    magn:   -0.0013    constr:    0.0000
     atom:   10    charge:    9.3668    magn:   -0.0015    constr:    0.0000
     atom:   11    charge:    1.9864    magn:   -0.0000    constr:    0.0000
     atom:   12    charge:    1.9864    magn:   -0.0000    constr:    0.0000

     End of self-consistent calculation

 ------ SPIN UP ------------

[...]

 ------ SPIN DOWN ----------

[...]

          k = 0.0604-0.0528 0.0000 ( 17925 PWs)   bands (ev):

[...]

          k =-0.0906-0.0646 0.0000 ( 17960 PWs)   bands (ev):

  -102.0021-102.0018-101.9937-101.9932-101.9291-101.9285 -62.4584 -62.4575
   -62.4440 -62.4389 -62.4301 -62.4297 -62.4288 -62.4244 -62.3842 -62.3841
   -62.3826 -62.3791 -62.3777 -62.3775 -62.3517 -62.3510 -62.2691 -62.2684
    -7.6327  -7.4336  -7.2945  -7.2417  -7.2087  -7.1736  -7.1559  -7.0966
    -7.0312  -6.9947  -6.8556  -6.8172  -6.8054  -6.6615  -6.6463  -6.6072
    -6.5715  -6.5340  -6.4578  -6.4577  -6.3253  -6.2911  -6.1874  -6.1853
    -6.1139  -6.0580  -5.9651  -5.9253  -5.8216  -5.6412  -5.6077  -5.1886
    -3.9669  -3.6621  -3.1876  -3.1772  -2.7057  -1.8259  -1.6189  -1.4586
    -1.3965  -1.1835  -1.0691  -0.9881  -0.9573  -0.9154  -0.9021  -0.8451
    -0.7318  -0.6236  -0.6207  -0.6112  -0.5593  -0.5239  -0.5194  -0.4188
    -0.3569  -0.1977  -0.1891  -0.1665  -0.1057  -0.0402   0.0204   0.0366
     0.0396   0.1037   0.3790   0.6754   0.8751   0.9050   1.5099   2.6325
     3.0301   3.5929   4.9132   5.4011   5.5037   5.8570   6.0440   6.2630
     6.3562   6.4933   6.4986   6.7984   6.8650   7.1543   7.2905   7.5195
     7.5424   7.8242   7.8568   7.9159   7.9628   7.9968   8.2818   8.4802

     the Fermi energy is     0.4935 ev

!    total energy              =   -2720.88321729 Ry
     Harris-Foulkes estimate   =   -2720.88321450 Ry
     estimated scf accuracy    <       0.00000048 Ry

     The total energy is the sum of the following terms:

     one-electron contribution =  -17978.32368496 Ry
     hartree contribution      =    9042.33468245 Ry
     xc contribution           =    -463.64213929 Ry
     ewald contribution        =    6678.80402780 Ry
     electric field correction =       0.00000003 Ry
     smearing contrib. (-TS)   =      -0.05610332 Ry

     total magnetization       =     0.00 Bohr mag/cell
     absolute magnetization    =     0.02 Bohr mag/cell

     convergence has been achieved in  40 iterations

 BEEF-vdW xc energy contributions
           1 :   -407.460616803507
           2 :    372.273875649725
           3 :   -312.197907243250
           4 :    243.167954051425
           5 :   -180.264555406809
           6 :    132.615303041200
           7 :   -101.742361630039
           8 :    83.4117296318528
           9 :   -71.3875055714203
          10 :    60.8541543843886
          11 :   -49.9549848900862
          12 :    39.2498393493233
          13 :   -30.0953340241823
          14 :    23.2491025139572
          15 :   -18.4664854394537
          16 :    14.9689309157818
          17 :   -12.1315080805639
          18 :    9.78813671554758
          19 :   -8.04200731901233
          20 :    6.88603263892003
          21 :   -6.03393220664236
          22 :    5.09403911146512
          23 :   -3.89864145009074
          24 :    2.65870858509703
          25 :   -1.78877816780243
          26 :    1.53645933504777
          27 :   -1.73629989774361
          28 :    1.89987865270814
          29 :   -1.58676247812565
          30 :   0.761061413715481
          31 :   -35.8945670005712
          32 :   -25.8251927785570

     Forces acting on atoms (Ry/au):

     negative rho (up, down):  7.184E-04 7.184E-04
     atom    1 type  1   force =    -0.00051929   -0.00037035    0.02012022
     atom    2 type  1   force =    -0.00050935   -0.00036261    0.02012215
     atom    3 type  2   force =     0.00083415    0.00058669   -0.02537804
     atom    4 type  2   force =     0.00082698    0.00059693   -0.02537810
     atom    5 type  1   force =     0.00009869    0.00007034    0.01209090
     atom    6 type  1   force =     0.00011172    0.00007954    0.01209482
     atom    7 type  2   force =    -0.00074341   -0.00054197   -0.00764855
     atom    8 type  2   force =    -0.00075511   -0.00052581   -0.00764850
     atom    9 type  1   force =     0.00057796    0.00041173   -0.00063776
     atom   10 type  1   force =     0.00057013    0.00040648   -0.00065033
     atom   11 type  2   force =    -0.00024858   -0.00017242    0.00145669
     atom   12 type  2   force =    -0.00024388   -0.00017855    0.00145650

     Total force =     0.050181     Total SCF correction =     0.001433

     entering subroutine stress ...

     negative rho (up, down):  7.184E-04 7.184E-04
          total   stress  (Ry/bohr**3)                   (kbar)     P=  -33.32
  -0.00026654  -0.00001492  -0.00000013        -39.21     -2.20     -0.02
  -0.00001492  -0.00025623  -0.00000009         -2.20    -37.69     -0.01
  -0.00000013  -0.00000009  -0.00015673         -0.02     -0.01    -23.06

 !ASE

     Writing output data file calc.save

     General routines

     Parallel routines

   This run was terminated on:  22:38: 9  18Dec2018

   JOB DONE.
Job  /afs/slac/g/suncat/bin/suncat-tsmpirun -x LD_LIBRARY_PATH -wdir /scratch/qe530346_lKBer pw.x -in pw.inp

TID   HOST_NAME   COMMAND_LINE            STATUS            TERMINATION_TIME
00000 suncat2054 pw.x -in pw.inp   Done                     12/18/2018 22:38:09
00001 suncat2054 pw.x -in pw.inp   Done                     12/18/2018 22:38:09
00002 suncat2054 pw.x -in pw.inp   Done                     12/18/2018 22:38:09
00003 suncat2054 pw.x -in pw.inp   Done                     12/18/2018 22:38:09
00004 suncat2054 pw.x -in pw.inp   Done                     12/18/2018 22:38:09
00005 suncat2054 pw.x -in pw.inp   Done                     12/18/2018 22:38:09
00006 suncat2054 pw.x -in pw.inp   Done                     12/18/2018 22:38:09
00007 suncat2054 pw.x -in pw.inp   Done                     12/18/2018 22:38:09
00008 suncat2054 pw.x -in pw.inp   Done                     12/18/2018 22:38:09
00009 suncat2054 pw.x -in pw.inp   Done                     12/18/2018 22:38:09
00010 suncat2054 pw.x -in pw.inp   Done                     12/18/2018 22:38:09
00011 suncat2054 pw.x -in pw.inp   Done                     12/18/2018 22:38:09
00012 suncat2054 pw.x -in pw.inp   Done                     12/18/2018 22:38:09
00013 suncat2054 pw.x -in pw.inp   Done                     12/18/2018 22:38:09
00014 suncat2054 pw.x -in pw.inp   Done                     12/18/2018 22:38:09
00015 suncat2054 pw.x -in pw.inp   Done                     12/18/2018 22:38:09
00016 suncat2053 pw.x -in pw.inp   Done                     12/18/2018 22:38:09
00017 suncat2053 pw.x -in pw.inp   Done                     12/18/2018 22:38:09
00018 suncat2053 pw.x -in pw.inp   Done                     12/18/2018 22:38:09
00019 suncat2053 pw.x -in pw.inp   Done                     12/18/2018 22:38:09
00020 suncat2053 pw.x -in pw.inp   Done                     12/18/2018 22:38:09
00021 suncat2053 pw.x -in pw.inp   Done                     12/18/2018 22:38:09
00022 suncat2053 pw.x -in pw.inp   Done                     12/18/2018 22:38:09
00023 suncat2053 pw.x -in pw.inp   Done                     12/18/2018 22:38:09
00024 suncat2053 pw.x -in pw.inp   Done                     12/18/2018 22:38:09
00025 suncat2053 pw.x -in pw.inp   Done                     12/18/2018 22:38:09
00026 suncat2053 pw.x -in pw.inp   Done                     12/18/2018 22:38:09
00027 suncat2053 pw.x -in pw.inp   Done                     12/18/2018 22:38:09
00028 suncat2053 pw.x -in pw.inp   Done                     12/18/2018 22:38:09
00029 suncat2053 pw.x -in pw.inp   Done                     12/18/2018 22:38:09
00030 suncat2053 pw.x -in pw.inp   Done                     12/18/2018 22:38:09
00031 suncat2053 pw.x -in pw.inp   Done                     12/18/2018 22:38:09