     Program PWSCF v.5.1rc2 (svn rev. 11289) starts on 25Dec2018 at  6:15: 6

     Current dimensions of program PWSCF are:
     Max number of different atomic species (ntypx) = 10
     Max number of k-points (npk) =  40000
     Max angular momentum in pseudopotentials (lmaxx) =  3
     Presently stress not available with electric field

     IMPORTANT: XC functional enforced from input :
     Exchange-correlation      = BEEF-VDW ( 1  4 27 13 2)
     Any further DFT definition will be discarded
     Please, verify this is what you really want

     Subspace diagonalization in iterative solution of the eigenvalue problem:
     a serial algorithm will be used

     Found symmetry operation: I + (  0.5000 -0.5000  0.0000)
     This is a supercell, fractional translations are disabled

     bravais-lattice index     =            0
     lattice parameter (alat)  =       1.8897  a.u.
     unit-cell volume          =    4262.4707 (a.u.)^3
     number of atoms/cell      =           12
     number of atomic types    =            2
     number of electrons       =       216.00
     number of Kohn-Sham states=          138
     kinetic-energy cutoff     =      36.7493  Ry
     charge density cutoff     =     367.4932  Ry
     convergence threshold     =      1.0E-06
     mixing beta               =       0.1000
     number of iterations used =           10  plain     mixing
     Exchange-correlation      = BEEF-VDW ( 1  4 27 13 2)
     nstep                     =           50

     celldm(1)=   1.889726  celldm(2)=   0.000000  celldm(3)=   0.000000
     celldm(4)=   0.000000  celldm(5)=   0.000000  celldm(6)=   0.000000

     crystal axes: (cart. coord. in units of alat)
               a(1) = (   5.254032   0.000000   0.000000 )
               a(2) = (   1.765698   4.948451   0.000000 )
               a(3) = (   0.000000   0.000000  24.294211 )

     reciprocal axes: (cart. coord. in units 2 pi/alat)
               b(1) = (  0.190330 -0.067913  0.000000 )
               b(2) = (  0.000000  0.202083  0.000000 )
               b(3) = (  0.000000  0.000000  0.041162 )

     PseudoPot. # 1 for Zn read from file:
     /afs/slac.stanford.edu/u/if/mamunm/psp/gbrv1.5pbe/Zn.UPF
     MD5 check sum: df62231357ef9e81f77b2b3087fa5675
     Pseudo is Ultrasoft, Zval = 20.0
     Generated by new atomic code, or converted to UPF format
     Using radial grid of  943 points,  6 beta functions with:
                l(1) =   0
                l(2) =   0
                l(3) =   1
                l(4) =   1
                l(5) =   2
                l(6) =   2
     Q(r) pseudized with  8 coefficients,  rinner =    1.100   1.100   1.100
                                                       1.100   1.100

     PseudoPot. # 2 for Ru read from file:
     /afs/slac.stanford.edu/u/if/mamunm/psp/gbrv1.5pbe/Ru.UPF
     MD5 check sum: 7158a806dd851261a58e6920c40ebe78
     Pseudo is Ultrasoft + core correction, Zval = 16.0
     Generated by new atomic code, or converted to UPF format
     Using radial grid of  967 points,  6 beta functions with:
                l(1) =   0
                l(2) =   0
                l(3) =   1
                l(4) =   1
                l(5) =   2
                l(6) =   2
     Q(r) pseudized with  8 coefficients,  rinner =    1.300   1.300   1.300
                                                       1.300   1.300

     vdW kernel table read from file vdW_kernel_table
     MD5 check sum: 095c7af220d748ca6e76c0b4c6cfb241

     atomic species   valence    mass     pseudopotential
        Zn1           20.00    65.38000     Zn( 1.00)
        Ru1           16.00   101.07000     Ru( 1.00)

     No symmetry found

   Cartesian axes

     site n.     atom                  positions (alat units)
         1           Zn1 tau(   1) = (   0.0000000   0.0000000  10.0000000  )
         2           Zn1 tau(   2) = (   3.5098652   2.4742254  10.0000000  )
         3           Ru1 tau(   3) = (   2.6270161   0.0000000  10.0000000  )
         4           Ru1 tau(   4) = (   0.8828490   2.4742254  10.0000000  )
         5           Zn1 tau(   5) = (   5.2540323   3.7037492  12.1471057  )
         6           Zn1 tau(   6) = (   1.7441671   1.2295238  12.1471057  )
         7           Ru1 tau(   7) = (   2.6270161   3.7037492  12.1471057  )
         8           Ru1 tau(   8) = (   4.3711833   1.2295238  12.1471057  )
         9           Zn1 tau(   9) = (   3.4883342   2.4590475  14.2942113  )
        10           Zn1 tau(  10) = (   6.9981994   4.9332729  14.2942113  )
        11           Ru1 tau(  11) = (   6.1153504   2.4590475  14.2942113  )
        12           Ru1 tau(  12) = (   4.3711833   4.9332729  14.2942113  )

     number of k points=    20  Fermi-Dirac smearing, width (Ry)=  0.0110
                       cart. coord. in units 2pi/alat
        k(    1) = (   0.0000000   0.0000000   0.0000000), wk =   0.0555556
        k(    2) = (   0.0000000   0.0336806   0.0000000), wk =   0.1111111
        k(    3) = (   0.0000000   0.0673611   0.0000000), wk =   0.1111111
        k(    4) = (   0.0000000  -0.1010417   0.0000000), wk =   0.0555556
        k(    5) = (   0.0317217  -0.0113189   0.0000000), wk =   0.1111111
        k(    6) = (   0.0317217   0.0223617   0.0000000), wk =   0.1111111
        k(    7) = (   0.0317217   0.0560423   0.0000000), wk =   0.1111111
        k(    8) = (   0.0317217  -0.1123606   0.0000000), wk =   0.1111111
        k(    9) = (   0.0317217  -0.0786800   0.0000000), wk =   0.1111111
        k(   10) = (   0.0317217  -0.0449994   0.0000000), wk =   0.1111111
        k(   11) = (   0.0634433  -0.0226377   0.0000000), wk =   0.1111111
        k(   12) = (   0.0634433   0.0110428   0.0000000), wk =   0.1111111
        k(   13) = (   0.0634433   0.0447234   0.0000000), wk =   0.1111111
        k(   14) = (   0.0634433  -0.1236795   0.0000000), wk =   0.1111111
        k(   15) = (   0.0634433  -0.0899989   0.0000000), wk =   0.1111111
        k(   16) = (   0.0634433  -0.0563183   0.0000000), wk =   0.1111111
        k(   17) = (  -0.0951650   0.0339566   0.0000000), wk =   0.0555556
        k(   18) = (  -0.0951650   0.0676372   0.0000000), wk =   0.1111111
        k(   19) = (  -0.0951650   0.1013178   0.0000000), wk =   0.1111111
        k(   20) = (  -0.0951650  -0.0670851   0.0000000), wk =   0.0555556

     Largest allocated arrays     est. size (Mb)     dimensions
     Largest temporary arrays     est. size (Mb)     dimensions

     Initial potential from superposition of free atoms
     Check: negative starting charge=   -0.440410

     starting charge  209.99906, renormalised to  216.00000

     negative rho (up, down):  4.530E-01 0.000E+00

     *
     * You are using vdW-DF for exchange-correlation in this calculation.
     * Please cite the following three references that made this development
     * possible:
     *
     *   M. Dion, H. Rydberg, E. Schroder, D. C. Langreth, and
     *   B. I. Lundqvist, Phys. Rev. Lett. 92, 246401 (2004).
     *
     *   T. Thonhauser, V. R. Cooper, S. Li, A. Puzder, P. Hyldgaard, and
     *   D. C. Langreth, Phys. Rev. B 76, 125112 (2007).
     *
     *   G. Roman-Perez and J. M. Soler, Phys. Rev. Lett. 103, 096102 (2009).
     *
     *
     * If you are using vdW-DF2, please also cite:
     *
     *   K. Lee, E. D. Murray, L. Kong, B. I. Lundqvist, and
     *   D. C. Langreth, Phys. Rev. B 82, 081101(R) (2010).
     *
     *
     * If you are calculating the stress with vdW-DF, please also cite:
     *
     *   R. Sabatini, E. Kucukbenli, B. Kolb, T. Thonhauser, and
     *   S. de Gironcoli, J. Phys.: Condens. Matter 24, 424209 (2012).
     *

     Carrying out vdW-DF run using the following parameters:

     Nqs =      20    Nr_points =    1024   r_max =   100.000
     q_mesh =
               0.00001000     0.04494208     0.09755937     0.15916263
               0.23128650     0.31572767     0.41458969     0.53033537
               0.66584808     0.82450364     1.01025438     1.22772762
               1.48234092     1.78043706     2.12944203     2.53805004
               3.01644009     3.57652955     4.23227104     5.00000000

     Gradients computed in reciprocal space

     Adding external electric field

     Computed dipole along edir(3) :
        Dipole               -0.0000 Ry au,         -0.0000 Debye
        Dipole field         -0.0000 Ry au

        Potential amp.        0.0000 Ry
        Total length         44.7617 bohr

     Starting wfc are  156 randomized atomic wfcs

     Self-consistent Calculation

     iteration #  1     ecut=    36.75 Ry     beta=0.10
     Davidson diagonalization with overlap
     ethr =  1.00E-02,  avg # of iterations =  7.0

[...]

     total energy              =   -3933.72521061 Ry
     Harris-Foulkes estimate   =   -3956.13986719 Ry
     estimated scf accuracy    <     123.32885302 Ry

[...]

     End of self-consistent calculation

          k = 0.0000 0.0000 0.0000 ( 16113 PWs)   bands (ev):

  -124.5645-124.5645-124.5644-124.5644-124.5503-124.5502 -78.7468 -78.7467
   -78.7465 -78.7464 -78.7444 -78.7433 -78.7432 -78.7430 -78.7416 -78.7413
   -78.7413 -78.7411 -78.7400 -78.7397 -78.7262 -78.7259 -78.7222 -78.7187
   -71.1190 -71.1064 -70.8330 -70.8329 -70.8208 -70.8207 -41.1406 -41.1398
   -41.1346 -41.1274 -41.1223 -40.9756 -40.9500 -40.9494 -40.8114 -40.8030
   -40.7973 -40.7876 -40.7870 -40.7855 -40.7849 -40.7752 -40.7678 -40.7576
    -6.8191  -6.0221  -6.0013  -5.9986  -5.9723  -5.9638  -5.9395  -5.9287
    -5.8960  -5.8835  -5.8464  -5.7601  -5.6895  -5.6892  -5.6803  -5.6780
    -5.6617  -5.6549  -5.6307  -5.5783  -5.5726  -5.5633  -5.5296  -5.4708
    -5.4408  -5.3812  -5.3673  -5.3323  -5.2418  -5.1842  -5.1745  -4.6371
    -3.3028  -3.2364  -2.9736  -2.7176  -1.2304  -1.0076  -0.9997  -0.9488
    -0.9171  -0.8540  -0.7953  -0.3753  -0.1976   0.0290   0.1443   0.1845
     0.3439   0.4400   0.5876   0.7324   0.9737   0.9786   1.0330   1.1548
     1.2172   1.3538   1.3868   1.4610   1.4678   1.5060   1.5303   1.5721
     2.0902   2.0981   2.1246   2.4404   2.9095   3.2913   3.4272   4.9959
     5.2129   5.4256   5.4330   5.4655   5.9939   6.8671   6.8976   7.1130
     7.2935   7.4333   7.7274   7.7524   7.8385   8.8115   8.8144   9.0355
     9.0849   9.4624

[...]

          k =-0.0952 0.0340 0.0000 ( 16046 PWs)   bands (ev):

[...]

     the Fermi energy is     1.1933 ev

!    total energy              =   -3947.11220294 Ry
     Harris-Foulkes estimate   =   -3947.11220268 Ry
     estimated scf accuracy    <       0.00000071 Ry

     The total energy is the sum of the following terms:

     one-electron contribution =  -29223.29318329 Ry
     hartree contribution      =   14606.37591263 Ry
     xc contribution           =    -421.87621543 Ry
     ewald contribution        =   11091.77800793 Ry
     electric field correction =       0.00000002 Ry
     smearing contrib. (-TS)   =      -0.09672479 Ry

     convergence has been achieved in  20 iterations

 BEEF-vdW xc energy contributions
           1 :   -371.512086597360
           2 :    338.393799102629
           3 :   -282.149134421101
           4 :    218.206697045913
           5 :   -160.995787800387
[...]
     Generated by new atomic code, or converted to UPF format
     Using radial grid of  943 points,  6 beta functions with:
                l(1) =   0
                l(2) =   0
                l(3) =   1
                l(4) =   1
                l(5) =   2
                l(6) =   2
     Q(r) pseudized with  8 coefficients,  rinner =    1.100   1.100   1.100
                                                       1.100   1.100

     PseudoPot. # 2 for Ru read from file:
     /afs/slac.stanford.edu/u/if/mamunm/psp/gbrv1.5pbe/Ru.UPF
     MD5 check sum: 7158a806dd851261a58e6920c40ebe78
     Pseudo is Ultrasoft + core correction, Zval = 16.0
     Generated by new atomic code, or converted to UPF format
     Using radial grid of  967 points,  6 beta functions with:
                l(1) =   0
                l(2) =   0
                l(3) =   1
                l(4) =   1
                l(5) =   2
                l(6) =   2
     Q(r) pseudized with  8 coefficients,  rinner =    1.300   1.300   1.300
                                                       1.300   1.300

     vdW kernel table read from file vdW_kernel_table
     MD5 check sum: 095c7af220d748ca6e76c0b4c6cfb241

     atomic species   valence    mass     pseudopotential
        Zn1           20.00    65.38000     Zn( 1.00)
        Ru1           16.00   101.07000     Ru( 1.00)

     No symmetry found

   Cartesian axes

     site n.     atom                  positions (alat units)
         1           Zn1 tau(   1) = (   0.0000000   0.0000000  10.0000000  )
         2           Zn1 tau(   2) = (   3.5098652   2.4742254  10.0000000  )
         3           Ru1 tau(   3) = (   2.6270161   0.0000000  10.0000000  )
         4           Ru1 tau(   4) = (   0.8828490   2.4742254  10.0000000  )
         5           Zn1 tau(   5) = (   5.2540323   3.7037492  12.1471057  )
         6           Zn1 tau(   6) = (   1.7441671   1.2295238  12.1471057  )
         7           Ru1 tau(   7) = (   2.6270161   3.7037492  12.1471057  )
         8           Ru1 tau(   8) = (   4.3711833   1.2295238  12.1471057  )
         9           Zn1 tau(   9) = (   3.4882336   2.4587765  14.4061110  )
        10           Zn1 tau(  10) = (   6.9979093   4.9332680  14.4061096  )
        11           Ru1 tau(  11) = (   6.1152408   2.4589702  14.1830008  )
        12           Ru1 tau(  12) = (   4.3698193   4.9323117  14.1830190  )

     number of k points=    20  Fermi-Dirac smearing, width (Ry)=  0.0110
                       cart. coord. in units 2pi/alat
        k(    1) = (   0.0000000   0.0000000   0.0000000), wk =   0.0555556
        k(    2) = (   0.0000000   0.0336806   0.0000000), wk =   0.1111111
        k(    3) = (   0.0000000   0.0673611   0.0000000), wk =   0.1111111
        k(    4) = (   0.0000000  -0.1010417   0.0000000), wk =   0.0555556
        k(    5) = (   0.0317217  -0.0113189   0.0000000), wk =   0.1111111
        k(    6) = (   0.0317217   0.0223617   0.0000000), wk =   0.1111111
        k(    7) = (   0.0317217   0.0560423   0.0000000), wk =   0.1111111
        k(    8) = (   0.0317217  -0.1123606   0.0000000), wk =   0.1111111
        k(    9) = (   0.0317217  -0.0786800   0.0000000), wk =   0.1111111
        k(   10) = (   0.0317217  -0.0449994   0.0000000), wk =   0.1111111
        k(   11) = (   0.0634433  -0.0226377   0.0000000), wk =   0.1111111
        k(   12) = (   0.0634433   0.0110428   0.0000000), wk =   0.1111111
        k(   13) = (   0.0634433   0.0447234   0.0000000), wk =   0.1111111
        k(   14) = (   0.0634433  -0.1236795   0.0000000), wk =   0.1111111
        k(   15) = (   0.0634433  -0.0899989   0.0000000), wk =   0.1111111
        k(   16) = (   0.0634433  -0.0563183   0.0000000), wk =   0.1111111
        k(   17) = (  -0.0951650   0.0339566   0.0000000), wk =   0.0555556
        k(   18) = (  -0.0951650   0.0676372   0.0000000), wk =   0.1111111
        k(   19) = (  -0.0951650   0.1013178   0.0000000), wk =   0.1111111
        k(   20) = (  -0.0951650  -0.0670851   0.0000000), wk =   0.0555556

     Largest allocated arrays     est. size (Mb)     dimensions
     Largest temporary arrays     est. size (Mb)     dimensions

     Initial potential from superposition of free atoms
     Check: negative starting charge=   -0.436953

     starting charge  209.99906, renormalised to  216.00000

[...]

     *
     * You are using vdW-DF for exchange-correlation in this calculation.
     * Please cite the following three references that made this development
     * possible:
     *
     *   M. Dion, H. Rydberg, E. Schroder, D. C. Langreth, and
     *   B. I. Lundqvist, Phys. Rev. Lett. 92, 246401 (2004).
     *
     *   T. Thonhauser, V. R. Cooper, S. Li, A. Puzder, P. Hyldgaard, and
     *   D. C. Langreth, Phys. Rev. B 76, 125112 (2007).
     *
     *   G. Roman-Perez and J. M. Soler, Phys. Rev. Lett. 103, 096102 (2009).
     *
     *
     * If you are using vdW-DF2, please also cite:
     *
     *   K. Lee, E. D. Murray, L. Kong, B. I. Lundqvist, and
     *   D. C. Langreth, Phys. Rev. B 82, 081101(R) (2010).
     *
     *
     * If you are calculating the stress with vdW-DF, please also cite:
     *
     *   R. Sabatini, E. Kucukbenli, B. Kolb, T. Thonhauser, and
     *   S. de Gironcoli, J. Phys.: Condens. Matter 24, 424209 (2012).
     *

     Carrying out vdW-DF run using the following parameters:

     Nqs =      20    Nr_points =    1024   r_max =   100.000
     q_mesh =
               0.00001000     0.04494208     0.09755937     0.15916263
               0.23128650     0.31572767     0.41458969     0.53033537
               0.66584808     0.82450364     1.01025438     1.22772762
               1.48234092     1.78043706     2.12944203     2.53805004
               3.01644009     3.57652955     4.23227104     5.00000000

     Gradients computed in reciprocal space

[...]

     Starting wfc are  156 randomized atomic wfcs

     Self-consistent Calculation

[...]

     total energy              =   -3947.12133846 Ry
     Harris-Foulkes estimate   =   -3947.12133902 Ry
     estimated scf accuracy    <       0.00000103 Ry

     iteration # 23     ecut=    36.75 Ry     beta=0.10
     Davidson diagonalization with overlap
     ethr =  4.76E-10,  avg # of iterations =  2.0

[...]

     negative rho (up, down):  4.481E-01 0.000E+00

     Adding external electric field

     Computed dipole along edir(3) :
        Dipole                0.0036 Ry au,          0.0091 Debye
        Dipole field          0.0000 Ry au

        Potential amp.       -0.0009 Ry
        Total length         44.7617 bohr

     End of self-consistent calculation

[...]

          k = 0.0634-0.0563 0.0000 ( 16056 PWs)   bands (ev):

[...]

          k =-0.0952-0.0671 0.0000 ( 15984 PWs)   bands (ev):

  -124.5862-124.5861-124.5666-124.5665-124.5655-124.5654 -78.7756 -78.7753
   -78.7661 -78.7657 -78.7577 -78.7540 -78.7482 -78.7481 -78.7480 -78.7477
   -78.7459 -78.7442 -78.7434 -78.7430 -78.7424 -78.7414 -78.7411 -78.7407
   -71.1585 -71.1467 -70.8715 -70.8591 -70.8267 -70.8145 -41.1941 -41.1743
   -41.1740 -41.1711 -41.1506 -41.0079 -40.9872 -40.9455 -40.8431 -40.8262
   -40.8249 -40.8240 -40.8129 -40.8052 -40.7892 -40.7828 -40.7692 -40.7553
    -5.9229  -5.8211  -5.8184  -5.7740  -5.7680  -5.7539  -5.7473  -5.7352
    -5.7334  -5.7154  -5.6344  -5.6274  -5.6184  -5.6000  -5.5755  -5.5659
    -5.5645  -5.5639  -5.5606  -5.5073  -5.4888  -5.4853  -5.4413  -5.4392
    -5.4123  -5.3975  -5.3480  -5.3390  -5.2540  -5.1770  -4.5589  -4.2837
    -2.9929  -2.8774  -2.8630  -2.8384  -2.7465  -2.2438  -2.1070  -1.7600
    -1.4722  -1.2231  -1.2112  -1.1621  -1.1121  -0.9698  -0.7758  -0.4458
    -0.4224  -0.4164   0.0650   0.0770   0.0781   0.1373   0.2324   0.4761
     0.7536   1.0943   1.2975   1.3569   1.4197   1.4642   1.7149   1.9035
     1.9749   2.1205   2.2760   3.5178   3.9898   3.9954   4.1714   4.9992
     5.1523   5.2685   6.4352   6.8357   7.1349   7.1647   7.4936   7.5541
     7.6448   7.9166   7.9992   8.7573   8.7719   8.8977   8.8997   8.9920
     9.1940   9.2568

     the Fermi energy is     1.1919 ev

!    total energy              =   -3947.12133881 Ry
     Harris-Foulkes estimate   =   -3947.12133853 Ry
     estimated scf accuracy    <       0.00000024 Ry

     The total energy is the sum of the following terms:

     one-electron contribution =  -29167.95485733 Ry
     hartree contribution      =   14578.54516891 Ry
     xc contribution           =    -421.87398951 Ry
     ewald contribution        =   11064.25994743 Ry
     electric field correction =       0.00000004 Ry
     smearing contrib. (-TS)   =      -0.09760835 Ry

     convergence has been achieved in  23 iterations

 BEEF-vdW xc energy contributions
           1 :   -371.514269847699
           2 :    338.408723142606
           3 :   -282.176730993042
           4 :    218.231481687997
           5 :   -160.996154368035
           6 :    118.827061807223
           7 :   -92.4272851988619
           8 :    76.8974722517578
           9 :   -65.7584816940716
          10 :    54.5491425398569
          11 :   -42.2851819037142
          12 :    30.5698895031139
          13 :   -21.5052642873882
          14 :    15.9632058157216
          15 :   -13.1768332861528
          16 :    11.5461151531923
          17 :   -9.80059620834561
          18 :    7.63605556331720
          19 :   -5.51924525704078
          20 :    4.00643812284346
          21 :   -3.19583455040902
          22 :    2.70267439308816
          23 :   -2.07222642905629
          24 :    1.20802276395568
          25 :  -0.438848158995029
          26 :   0.187629858329444
          27 :  -0.547527036840506
          28 :    1.13451463305188
          29 :   -1.34781386437658
          30 :   0.831990989819928
          31 :   -32.3542229906708
          32 :   -23.1582511610000

     Forces acting on atoms (Ry/au):

     negative rho (up, down):  4.481E-01 0.000E+00
     atom    1 type  1   force =    -0.00002181    0.00010242   -0.01643177
     atom    2 type  1   force =     0.00008867   -0.00005560   -0.01643123
     atom    3 type  2   force =     0.00000982    0.00000674    0.02350541
     atom    4 type  2   force =     0.00002475    0.00001757    0.02350259
     atom    5 type  1   force =     0.00024089    0.00011685   -0.02228856
     atom    6 type  1   force =     0.00019172    0.00018821   -0.02228887
     atom    7 type  2   force =    -0.00008988   -0.00006325    0.01355361
     atom    8 type  2   force =    -0.00009319   -0.00006574    0.01347117
     atom    9 type  1   force =     0.00002882   -0.00023708    0.00080086
     atom   10 type  1   force =    -0.00021373    0.00010703    0.00080097
     atom   11 type  2   force =    -0.00020891   -0.00014759    0.00090658
     atom   12 type  2   force =     0.00004286    0.00003044    0.00089924

     Total force =     0.054835     Total SCF correction =     0.002542

     entering subroutine stress ...

     negative rho (up, down):  4.481E-01 0.000E+00
          total   stress  (Ry/bohr**3)                   (kbar)     P=  -15.89
  -0.00013656   0.00001628  -0.00000069        -20.09      2.40     -0.10
   0.00001628  -0.00014818  -0.00000048          2.40    -21.80     -0.07
  -0.00000069  -0.00000048  -0.00003922         -0.10     -0.07     -5.77

 !ASE

     Writing output data file calc.save

     General routines

     Parallel routines

   This run was terminated on:   8:24:31  25Dec2018

   JOB DONE.
Job  /afs/slac/g/suncat/bin/suncat-tsmpirun -x LD_LIBRARY_PATH -wdir /scratch/qe109241_c0CKa pw.x -in pw.inp

TID   HOST_NAME   COMMAND_LINE            STATUS            TERMINATION_TIME
00000 suncat0001 pw.x -in pw.inp   Done                     12/25/2018 08:24:31
00001 suncat0001 pw.x -in pw.inp   Done                     12/25/2018 08:24:31
00002 suncat0001 pw.x -in pw.inp   Done                     12/25/2018 08:24:31
00003 suncat0001 pw.x -in pw.inp   Done                     12/25/2018 08:24:31
00004 suncat0001 pw.x -in pw.inp   Done                     12/25/2018 08:24:31
00005 suncat0001 pw.x -in pw.inp   Done                     12/25/2018 08:24:31
00006 suncat0001 pw.x -in pw.inp   Done                     12/25/2018 08:24:31
00007 suncat0001 pw.x -in pw.inp   Done                     12/25/2018 08:24:31
00008 suncat0167 pw.x -in pw.inp   Done                     12/25/2018 08:24:31
00009 suncat0167 pw.x -in pw.inp   Done                     12/25/2018 08:24:31
00010 suncat0167 pw.x -in pw.inp   Done                     12/25/2018 08:24:31
00011 suncat0167 pw.x -in pw.inp   Done                     12/25/2018 08:24:31
00012 suncat0167 pw.x -in pw.inp   Done                     12/25/2018 08:24:31
00013 suncat0167 pw.x -in pw.inp   Done                     12/25/2018 08:24:31
00014 suncat0167 pw.x -in pw.inp   Done                     12/25/2018 08:24:31
00015 suncat0167 pw.x -in pw.inp   Done                     12/25/2018 08:24:31
00016 suncat0166 pw.x -in pw.inp   Done                     12/25/2018 08:24:31
00017 suncat0166 pw.x -in pw.inp   Done                     12/25/2018 08:24:31
00018 suncat0166 pw.x -in pw.inp   Done                     12/25/2018 08:24:31
00019 suncat0166 pw.x -in pw.inp   Done                     12/25/2018 08:24:31
00020 suncat0166 pw.x -in pw.inp   Done                     12/25/2018 08:24:31
00021 suncat0166 pw.x -in pw.inp   Done                     12/25/2018 08:24:31
00022 suncat0166 pw.x -in pw.inp   Done                     12/25/2018 08:24:31
00023 suncat0166 pw.x -in pw.inp   Done                     12/25/2018 08:24:31
00024 suncat0165 pw.x -in pw.inp   Done                     12/25/2018 08:24:31
00025 suncat0165 pw.x -in pw.inp   Done                     12/25/2018 08:24:31
00026 suncat0165 pw.x -in pw.inp   Done                     12/25/2018 08:24:31
00027 suncat0165 pw.x -in pw.inp   Done                     12/25/2018 08:24:31
00028 suncat0165 pw.x -in pw.inp   Done                     12/25/2018 08:24:31
00029 suncat0165 pw.x -in pw.inp   Done                     12/25/2018 08:24:31
00030 suncat0165 pw.x -in pw.inp   Done                     12/25/2018 08:24:31
00031 suncat0165 pw.x -in pw.inp   Done                     12/25/2018 08:24:31
00032 suncat0164 pw.x -in pw.inp   Done                     12/25/2018 08:24:31
00033 suncat0164 pw.x -in pw.inp   Done                     12/25/2018 08:24:31
00034 suncat0164 pw.x -in pw.inp   Done                     12/25/2018 08:24:31
00035 suncat0164 pw.x -in pw.inp   Done                     12/25/2018 08:24:31
00036 suncat0164 pw.x -in pw.inp   Done                     12/25/2018 08:24:31
00037 suncat0164 pw.x -in pw.inp   Done                     12/25/2018 08:24:31
00038 suncat0164 pw.x -in pw.inp   Done                     12/25/2018 08:24:31
00039 suncat0164 pw.x -in pw.inp   Done                     12/25/2018 08:24:31
00040 suncat0149 pw.x -in pw.inp   Done                     12/25/2018 08:24:31
00041 suncat0149 pw.x -in pw.inp   Done                     12/25/2018 08:24:31
00042 suncat0149 pw.x -in pw.inp   Done                     12/25/2018 08:24:31
00043 suncat0149 pw.x -in pw.inp   Done                     12/25/2018 08:24:31
00044 suncat0149 pw.x -in pw.inp   Done                     12/25/2018 08:24:31
00045 suncat0149 pw.x -in pw.inp   Done                     12/25/2018 08:24:31
00046 suncat0149 pw.x -in pw.inp   Done                     12/25/2018 08:24:31
00047 suncat0149 pw.x -in pw.inp   Done                     12/25/2018 08:24:31
00048 suncat0148 pw.x -in pw.inp   Done                     12/25/2018 08:24:31
00049 suncat0148 pw.x -in pw.inp   Done                     12/25/2018 08:24:31
00050 suncat0148 pw.x -in pw.inp   Done                     12/25/2018 08:24:31
00051 suncat0148 pw.x -in pw.inp   Done                     12/25/2018 08:24:31
00052 suncat0148 pw.x -in pw.inp   Done                     12/25/2018 08:24:31
00053 suncat0148 pw.x -in pw.inp   Done                     12/25/2018 08:24:31
00054 suncat0148 pw.x -in pw.inp   Done                     12/25/2018 08:24:31
00055 suncat0148 pw.x -in pw.inp   Done                     12/25/2018 08:24:31
00056 suncat0137 pw.x -in pw.inp   Done                     12/25/2018 08:24:31
00057 suncat0137 pw.x -in pw.inp   Done                     12/25/2018 08:24:31
00058 suncat0137 pw.x -in pw.inp   Done                     12/25/2018 08:24:31
00059 suncat0137 pw.x -in pw.inp   Done                     12/25/2018 08:24:31
00060 suncat0137 pw.x -in pw.inp   Done                     12/25/2018 08:24:31
00061 suncat0137 pw.x -in pw.inp   Done                     12/25/2018 08:24:31
00062 suncat0137 pw.x -in pw.inp   Done                     12/25/2018 08:24:31
00063 suncat0137 pw.x -in pw.inp   Done                     12/25/2018 08:24:31