     Program PWSCF v.5.1rc2 (svn rev. 11289) starts on 29Dec2018 at 15:45:16

     Current dimensions of program PWSCF are:
     Max number of different atomic species (ntypx) = 10
     Max number of k-points (npk) =  40000
     Max angular momentum in pseudopotentials (lmaxx) =  3
     Presently stress not available with electric field

     IMPORTANT: XC functional enforced from input :
     Exchange-correlation      = BEEF-VDW ( 1  4 27 13 2)
     Any further DFT definition will be discarded
     Please, verify this is what you really want

     Subspace diagonalization in iterative solution of the eigenvalue problem:
     a serial algorithm will be used

     Found symmetry operation: I + ( -0.5000 -0.5000  0.0000)
     This is a supercell, fractional translations are disabled

     bravais-lattice index     =            0
     lattice parameter (alat)  =       1.8897  a.u.
     unit-cell volume          =    4913.1050 (a.u.)^3
     number of atoms/cell      =           12
     number of atomic types    =            2
     number of electrons       =       156.00
     number of Kohn-Sham states=          108
     kinetic-energy cutoff     =      36.7493  Ry
     charge density cutoff     =     367.4932  Ry
     convergence threshold     =      1.0E-06
     mixing beta               =       0.1000
     number of iterations used =           10  plain     mixing
     Exchange-correlation      = BEEF-VDW ( 1  4 27 13 2)
     nstep                     =           50

     celldm(1)=   1.889726  celldm(2)=   0.000000  celldm(3)=   0.000000
     celldm(4)=   0.000000  celldm(5)=   0.000000  celldm(6)=   0.000000

     crystal axes: (cart. coord. in units of alat)
               a(1) = (   5.593993   0.000000   0.000000 )
               a(2) = (   1.777930   5.303934   0.000000 )
               a(3) = (   0.000000   0.000000  24.538012 )

     reciprocal axes: (cart. coord. in units 2 pi/alat)
               b(1) = (  0.178763 -0.059923  0.000000 )
               b(2) = (  0.000000  0.188539  0.000000 )
               b(3) = (  0.000000  0.000000  0.040753 )

     PseudoPot. # 1 for Sc read from file:
     /afs/slac.stanford.edu/u/if/mamunm/psp/gbrv1.5pbe/Sc.UPF
     MD5 check sum: db30a2753ba66ef00f23801d899b7e7f
     Pseudo is Ultrasoft + core correction, Zval = 11.0
     Generated by new atomic code, or converted to UPF format
     Using radial grid of  849 points,  6 beta functions with:
                l(1) =   0
                l(2) =   0
                l(3) =   1
                l(4) =   1
                l(5) =   2
                l(6) =   2
     Q(r) pseudized with  6 coefficients,  rinner =    1.200   1.200   1.200
                                                       1.200   1.200

     PseudoPot. # 2 for Tc read from file:
     /afs/slac.stanford.edu/u/if/mamunm/psp/gbrv1.5pbe/Tc.UPF
     MD5 check sum: 9eb49e5b028550b2339a02317eb7b844
     Pseudo is Ultrasoft + core correction, Zval = 15.0
     Generated by new atomic code, or converted to UPF format
     Using radial grid of  965 points,  6 beta functions with:
                l(1) =   0
                l(2) =   0
                l(3) =   1
                l(4) =   1
                l(5) =   2
                l(6) =   2
     Q(r) pseudized with  8 coefficients,  rinner =    1.300   1.300   1.300
                                                       1.300   1.300

     vdW kernel table read from file vdW_kernel_table
     MD5 check sum: 095c7af220d748ca6e76c0b4c6cfb241

     atomic species   valence    mass     pseudopotential
        Sc1           11.00    44.95591     Sc( 1.00)
        Tc1           15.00    97.90721     Tc( 1.00)

     No symmetry found

   Cartesian axes

     site n.     atom                  positions (alat units)
         1           Sc1 tau(   1) = (   0.0000000   0.0000000  10.0000000  )
         2           Sc1 tau(   2) = (   3.6859617   2.6519672  10.0000000  )
         3           Tc1 tau(   3) = (   2.7969965   0.0000000  10.0000000  )
         4           Tc1 tau(   4) = (   0.8889652   2.6519672  10.0000000  )
         5           Sc1 tau(   5) = (   5.5939930   4.0247532  12.2690061  )
         6           Sc1 tau(   6) = (   1.9080313   1.3727859  12.2690061  )
         7           Tc1 tau(   7) = (   2.7969965   4.0247532  12.2690061  )
         8           Tc1 tau(   8) = (   4.7050277   1.3727859  12.2690061  )
         9           Sc1 tau(   9) = (   3.8160625   2.7455719  14.5380123  )
        10           Sc1 tau(  10) = (   0.1301009   0.0936047  14.5380123  )
        11           Tc1 tau(  11) = (   1.0190661   2.7455719  14.5380123  )
        12           Tc1 tau(  12) = (   2.9270973   0.0936047  14.5380123  )

     number of k points=    20  Fermi-Dirac smearing, width (Ry)=  0.0110
                       cart. coord. in units 2pi/alat
        k(    1) = (   0.0000000   0.0000000   0.0000000), wk =   0.0555556
        k(    2) = (   0.0000000   0.0314232   0.0000000), wk =   0.1111111
        k(    3) = (   0.0000000   0.0628464   0.0000000), wk =   0.1111111
        k(    4) = (   0.0000000  -0.0942696   0.0000000), wk =   0.0555556
        k(    5) = (   0.0297939  -0.0099872   0.0000000), wk =   0.1111111
        k(    6) = (   0.0297939   0.0214360   0.0000000), wk =   0.1111111
        k(    7) = (   0.0297939   0.0528592   0.0000000), wk =   0.1111111
        k(    8) = (   0.0297939  -0.1042568   0.0000000), wk =   0.1111111
        k(    9) = (   0.0297939  -0.0728336   0.0000000), wk =   0.1111111
        k(   10) = (   0.0297939  -0.0414104   0.0000000), wk =   0.1111111
        k(   11) = (   0.0595877  -0.0199744   0.0000000), wk =   0.1111111
        k(   12) = (   0.0595877   0.0114488   0.0000000), wk =   0.1111111
        k(   13) = (   0.0595877   0.0428720   0.0000000), wk =   0.1111111
        k(   14) = (   0.0595877  -0.1142440   0.0000000), wk =   0.1111111
        k(   15) = (   0.0595877  -0.0828208   0.0000000), wk =   0.1111111
        k(   16) = (   0.0595877  -0.0513976   0.0000000), wk =   0.1111111
        k(   17) = (  -0.0893816   0.0299616   0.0000000), wk =   0.0555556
        k(   18) = (  -0.0893816   0.0613848   0.0000000), wk =   0.1111111
        k(   19) = (  -0.0893816   0.0928080   0.0000000), wk =   0.1111111
        k(   20) = (  -0.0893816  -0.0643081   0.0000000), wk =   0.0555556

     Largest allocated arrays     est. size (Mb)     dimensions
     Largest temporary arrays     est. size (Mb)     dimensions

     Check: negative/imaginary core charge=   -0.000015    0.000000

     Initial potential from superposition of free atoms
     Check: negative starting charge=   -0.747619

     starting charge  149.98542, renormalised to  156.00000

     negative rho (up, down):  7.776E-01 0.000E+00

     *
     * You are using vdW-DF for exchange-correlation in this calculation.
     * Please cite the following three references that made this development
     * possible:
     *
     *   M. Dion, H. Rydberg, E. Schroder, D. C. Langreth, and
     *   B. I. Lundqvist, Phys. Rev. Lett. 92, 246401 (2004).
     *
     *   T. Thonhauser, V. R. Cooper, S. Li, A. Puzder, P. Hyldgaard, and
     *   D. C. Langreth, Phys. Rev. B 76, 125112 (2007).
     *
     *   G. Roman-Perez and J. M. Soler, Phys. Rev. Lett. 103, 096102 (2009).
     *
     *
     * If you are using vdW-DF2, please also cite:
     *
     *   K. Lee, E. D. Murray, L. Kong, B. I. Lundqvist, and
     *   D. C. Langreth, Phys. Rev. B 82, 081101(R) (2010).
     *
     *
     * If you are calculating the stress with vdW-DF, please also cite:
     *
     *   R. Sabatini, E. Kucukbenli, B. Kolb, T. Thonhauser, and
     *   S. de Gironcoli, J. Phys.: Condens. Matter 24, 424209 (2012).
     *

     Carrying out vdW-DF run using the following parameters:

     Nqs =      20    Nr_points =    1024   r_max =   100.000
     q_mesh =
               0.00001000     0.04494208     0.09755937     0.15916263
               0.23128650     0.31572767     0.41458969     0.53033537
               0.66584808     0.82450364     1.01025438     1.22772762
               1.48234092     1.78043706     2.12944203     2.53805004
               3.01644009     3.57652955     4.23227104     5.00000000

     Gradients computed in reciprocal space

     Adding external electric field

     Computed dipole along edir(3) :
        Dipole                0.0000 Ry au,          0.0000 Debye
        Dipole field          0.0000 Ry au

        Potential amp.       -0.0000 Ry
        Total length         45.2109 bohr

     Starting wfc are  156 randomized atomic wfcs

     Self-consistent Calculation

     iteration #  1     ecut=    36.75 Ry     beta=0.10
     Davidson diagonalization with overlap
     ethr =  1.00E-02,  avg # of iterations =  2.0

[...]

     total energy              =   -1620.97636034 Ry
     Harris-Foulkes estimate   =   -1621.93305856 Ry
     estimated scf accuracy    <       5.97261081 Ry

[...]

     End of self-consistent calculation

          k = 0.0000 0.0000 0.0000 ( 18475 PWs)   bands (ev):

   -64.8841 -64.8764 -64.6916 -64.6913 -64.6843 -64.6841 -47.7854 -47.7846
   -47.7654 -47.7649 -47.0366 -47.0165 -36.9724 -36.9648 -36.9456 -36.9448
   -36.9426 -36.8288 -36.8187 -36.8146 -36.7740 -36.7680 -36.7660 -36.7504
   -36.7099 -36.7015 -36.7011 -36.7008 -36.6985 -36.6859 -26.4862 -26.4778
   -26.4755 -26.4691 -26.4555 -26.4549 -26.3419 -26.3342 -26.3332 -26.3226
   -26.2841 -26.2808 -25.7511 -25.6847 -25.6735 -25.6672 -25.6545 -25.5458
    -3.6882  -2.3824  -1.8253  -1.5490  -1.5149  -1.4537  -1.4514  -1.3644
    -1.3634  -1.2963  -1.0214  -0.8249  -0.3686  -0.0850  -0.0652  -0.0336
     0.0233   0.0357   0.1778   0.1787   0.2748   0.3555   0.5506   0.7321
     0.7910   1.1146   1.1318   1.4020   1.6417   1.7325   1.7458   2.0014
     2.1602   2.5644   2.5836   2.7159   3.3832   3.4669   3.5594   3.6365
     3.6631   3.6808   3.7296   3.9919   4.1258   4.1672   4.2613   4.2970
     4.4948   4.5344   4.5612   4.6368   4.6666   4.7739   4.7859   4.8771
     4.9442   5.0364   5.1034   5.2919

[...]

          k =-0.0894 0.0300 0.0000 ( 18512 PWs)   bands (ev):

[...]

     the Fermi energy is     1.3779 ev

!    total energy              =   -1620.58881574 Ry
     Harris-Foulkes estimate   =   -1620.58881184 Ry
     estimated scf accuracy    <       0.00000092 Ry

     The total energy is the sum of the following terms:

     one-electron contribution =  -12365.05209279 Ry
     hartree contribution      =    6176.25472204 Ry
     xc contribution           =    -282.51102397 Ry
     ewald contribution        =    4850.81457291 Ry
     electric field correction =       0.00000008 Ry
     smearing contrib. (-TS)   =      -0.09499400 Ry

     convergence has been achieved in  19 iterations

 BEEF-vdW xc energy contributions
           1 :   -245.251779107442
           2 :    222.669076586925
           3 :   -184.136077901745
           4 :    139.646417777033
           5 :   -98.3939607978003
           6 :    65.6966250805002
           7 :   -42.4054217406142
           8 :    26.3425605245616
           9 :   -14.5389234133212
          10 :    4.92388188778619
          11 :    3.08387080054104
[...]
     MD5 check sum: db30a2753ba66ef00f23801d899b7e7f
     Pseudo is Ultrasoft + core correction, Zval = 11.0
     Generated by new atomic code, or converted to UPF format
     Using radial grid of  849 points,  6 beta functions with:
                l(1) =   0
                l(2) =   0
                l(3) =   1
                l(4) =   1
                l(5) =   2
                l(6) =   2
     Q(r) pseudized with  6 coefficients,  rinner =    1.200   1.200   1.200
                                                       1.200   1.200

     PseudoPot. # 2 for Tc read from file:
     /afs/slac.stanford.edu/u/if/mamunm/psp/gbrv1.5pbe/Tc.UPF
     MD5 check sum: 9eb49e5b028550b2339a02317eb7b844
     Pseudo is Ultrasoft + core correction, Zval = 15.0
     Generated by new atomic code, or converted to UPF format
     Using radial grid of  965 points,  6 beta functions with:
                l(1) =   0
                l(2) =   0
                l(3) =   1
                l(4) =   1
                l(5) =   2
                l(6) =   2
     Q(r) pseudized with  8 coefficients,  rinner =    1.300   1.300   1.300
                                                       1.300   1.300

     vdW kernel table read from file vdW_kernel_table
     MD5 check sum: 095c7af220d748ca6e76c0b4c6cfb241

     atomic species   valence    mass     pseudopotential
        Sc1           11.00    44.95591     Sc( 1.00)
        Tc1           15.00    97.90721     Tc( 1.00)

     No symmetry found

   Cartesian axes

     site n.     atom                  positions (alat units)
         1           Sc1 tau(   1) = (   0.0000000   0.0000000  10.0000000  )
         2           Sc1 tau(   2) = (   3.6859617   2.6519672  10.0000000  )
         3           Tc1 tau(   3) = (   2.7969965   0.0000000  10.0000000  )
         4           Tc1 tau(   4) = (   0.8889652   2.6519672  10.0000000  )
         5           Sc1 tau(   5) = (   5.5939930   4.0247532  12.2690061  )
         6           Sc1 tau(   6) = (   1.9080313   1.3727859  12.2690061  )
         7           Tc1 tau(   7) = (   2.7969965   4.0247532  12.2690061  )
         8           Tc1 tau(   8) = (   4.7050277   1.3727859  12.2690061  )
         9           Sc1 tau(   9) = (   3.7506261   2.6986118  14.5711078  )
        10           Sc1 tau(  10) = (   0.0647729   0.0464846  14.5711166  )
        11           Tc1 tau(  11) = (   0.9580628   2.7016754  14.4681622  )
        12           Tc1 tau(  12) = (   2.8661577   0.0497675  14.4682717  )

     number of k points=    20  Fermi-Dirac smearing, width (Ry)=  0.0110
                       cart. coord. in units 2pi/alat
        k(    1) = (   0.0000000   0.0000000   0.0000000), wk =   0.0555556
        k(    2) = (   0.0000000   0.0314232   0.0000000), wk =   0.1111111
        k(    3) = (   0.0000000   0.0628464   0.0000000), wk =   0.1111111
        k(    4) = (   0.0000000  -0.0942696   0.0000000), wk =   0.0555556
        k(    5) = (   0.0297939  -0.0099872   0.0000000), wk =   0.1111111
        k(    6) = (   0.0297939   0.0214360   0.0000000), wk =   0.1111111
        k(    7) = (   0.0297939   0.0528592   0.0000000), wk =   0.1111111
        k(    8) = (   0.0297939  -0.1042568   0.0000000), wk =   0.1111111
        k(    9) = (   0.0297939  -0.0728336   0.0000000), wk =   0.1111111
        k(   10) = (   0.0297939  -0.0414104   0.0000000), wk =   0.1111111
        k(   11) = (   0.0595877  -0.0199744   0.0000000), wk =   0.1111111
        k(   12) = (   0.0595877   0.0114488   0.0000000), wk =   0.1111111
        k(   13) = (   0.0595877   0.0428720   0.0000000), wk =   0.1111111
        k(   14) = (   0.0595877  -0.1142440   0.0000000), wk =   0.1111111
        k(   15) = (   0.0595877  -0.0828208   0.0000000), wk =   0.1111111
        k(   16) = (   0.0595877  -0.0513976   0.0000000), wk =   0.1111111
        k(   17) = (  -0.0893816   0.0299616   0.0000000), wk =   0.0555556
        k(   18) = (  -0.0893816   0.0613848   0.0000000), wk =   0.1111111
        k(   19) = (  -0.0893816   0.0928080   0.0000000), wk =   0.1111111
        k(   20) = (  -0.0893816  -0.0643081   0.0000000), wk =   0.0555556

     Largest allocated arrays     est. size (Mb)     dimensions
     Largest temporary arrays     est. size (Mb)     dimensions

     Check: negative/imaginary core charge=   -0.000015    0.000000

     Initial potential from superposition of free atoms
     Check: negative starting charge=   -0.745655

     starting charge  149.98542, renormalised to  156.00000

[...]

     *
     * You are using vdW-DF for exchange-correlation in this calculation.
     * Please cite the following three references that made this development
     * possible:
     *
     *   M. Dion, H. Rydberg, E. Schroder, D. C. Langreth, and
     *   B. I. Lundqvist, Phys. Rev. Lett. 92, 246401 (2004).
     *
     *   T. Thonhauser, V. R. Cooper, S. Li, A. Puzder, P. Hyldgaard, and
     *   D. C. Langreth, Phys. Rev. B 76, 125112 (2007).
     *
     *   G. Roman-Perez and J. M. Soler, Phys. Rev. Lett. 103, 096102 (2009).
     *
     *
     * If you are using vdW-DF2, please also cite:
     *
     *   K. Lee, E. D. Murray, L. Kong, B. I. Lundqvist, and
     *   D. C. Langreth, Phys. Rev. B 82, 081101(R) (2010).
     *
     *
     * If you are calculating the stress with vdW-DF, please also cite:
     *
     *   R. Sabatini, E. Kucukbenli, B. Kolb, T. Thonhauser, and
     *   S. de Gironcoli, J. Phys.: Condens. Matter 24, 424209 (2012).
     *

     Carrying out vdW-DF run using the following parameters:

     Nqs =      20    Nr_points =    1024   r_max =   100.000
     q_mesh =
               0.00001000     0.04494208     0.09755937     0.15916263
               0.23128650     0.31572767     0.41458969     0.53033537
               0.66584808     0.82450364     1.01025438     1.22772762
               1.48234092     1.78043706     2.12944203     2.53805004
               3.01644009     3.57652955     4.23227104     5.00000000

     Gradients computed in reciprocal space

[...]

     Starting wfc are  156 randomized atomic wfcs

     Self-consistent Calculation

[...]

     total energy              =   -1620.59146255 Ry
     Harris-Foulkes estimate   =   -1620.59146181 Ry
     estimated scf accuracy    <       0.00000325 Ry

     iteration # 20     ecut=    36.75 Ry     beta=0.10
     Davidson diagonalization with overlap
     ethr =  1.85E-09,  avg # of iterations =  1.0

[...]

     negative rho (up, down):  7.646E-01 0.000E+00

     Adding external electric field

     Computed dipole along edir(3) :
        Dipole                0.0145 Ry au,          0.0367 Debye
        Dipole field          0.0000 Ry au

        Potential amp.       -0.0033 Ry
        Total length         45.2109 bohr

     End of self-consistent calculation

[...]

          k = 0.0596-0.0514 0.0000 ( 18501 PWs)   bands (ev):

[...]

          k =-0.0894-0.0643 0.0000 ( 18488 PWs)   bands (ev):

   -64.8910 -64.8840 -64.6747 -64.6698 -64.6674 -64.6624 -47.8421 -47.8213
   -47.7660 -47.7451 -46.9744 -46.9518 -36.9784 -36.9688 -36.9458 -36.9368
   -36.9350 -36.8270 -36.7921 -36.7868 -36.7607 -36.7507 -36.7367 -36.7345
   -36.6879 -36.6822 -36.6816 -36.6803 -36.6749 -36.6698 -26.5554 -26.5319
   -26.5088 -26.4822 -26.4541 -26.4331 -26.4226 -26.3965 -26.3524 -26.3416
   -26.3267 -26.2686 -25.7132 -25.6471 -25.6251 -25.6172 -25.6045 -25.4931
    -2.0054  -1.7336  -1.2409  -1.2126  -0.8367  -0.7402  -0.6610  -0.6312
    -0.3943  -0.3670  -0.3249  -0.3150  -0.2998  -0.0760  -0.0093   0.0963
     0.2085   0.5171   0.5177   0.5439   0.6987   0.7103   0.8643   0.9440
     1.1000   1.1165   1.1536   1.1796   1.2915   1.5258   1.5792   1.6301
     1.7324   1.7561   1.7933   1.8146   1.9576   2.0822   2.1327   2.2407
     2.5079   2.9433   3.4118   3.4275   3.4735   3.5521   3.6593   3.7308
     3.7922   3.9932   4.0233   4.1171   4.2099   4.2445   4.2471   4.2621
     4.4305   4.5646   4.6972   4.7870

     the Fermi energy is     1.4005 ev

!    total energy              =   -1620.59146574 Ry
     Harris-Foulkes estimate   =   -1620.59146328 Ry
     estimated scf accuracy    <       0.00000087 Ry

     The total energy is the sum of the following terms:

     one-electron contribution =  -12409.43502528 Ry
     hartree contribution      =    6198.50419996 Ry
     xc contribution           =    -282.53223948 Ry
     ewald contribution        =    4872.96808972 Ry
     electric field correction =       0.00000053 Ry
     smearing contrib. (-TS)   =      -0.09649119 Ry

     convergence has been achieved in  20 iterations

 BEEF-vdW xc energy contributions
           1 :   -245.275669674156
           2 :    222.710538743015
           3 :   -184.198978919142
           4 :    139.715586570918
           5 :   -98.4422124277891
           6 :    65.7045306771162
           7 :   -42.3784478032792
           8 :    26.3097222423337
           9 :   -14.5303697961066
          10 :    4.94703930329797
          11 :    3.04859656767007
          12 :   -8.97434571694379
          13 :    12.0655166914393
          14 :   -11.9450020538288
          15 :    8.83584940258970
          16 :   -3.42979037530426
          17 :   -3.33571545470159
          18 :    10.3979492761883
          19 :   -16.6459054777559
          20 :    21.0683354981803
          21 :   -23.0116195209124
          22 :    22.4007472102348
          23 :   -19.7554875268603
          24 :    15.9333669114363
          25 :   -11.7385957838093
          26 :    7.62730826229858
          27 :   -3.69536510703006
          28 :  -7.546954168503817E-002
          29 :    3.51470762984394
          30 :   -6.14914175378055
          31 :   -24.8668472904878
          32 :   -18.0320456843780

     Forces acting on atoms (Ry/au):

     negative rho (up, down):  7.646E-01 0.000E+00
     atom    1 type  1   force =     0.00401880    0.00288644   -0.00899876
     atom    2 type  1   force =     0.00401386    0.00289313   -0.00899918
     atom    3 type  2   force =     0.00047326    0.00034031    0.01121132
     atom    4 type  2   force =     0.00046859    0.00033777    0.01121309
     atom    5 type  1   force =    -0.00464193   -0.00339705   -0.00762982
     atom    6 type  1   force =    -0.00469671   -0.00332123   -0.00763059
     atom    7 type  2   force =     0.00034095    0.00024529    0.00409565
     atom    8 type  2   force =     0.00033542    0.00024061    0.00411011
     atom    9 type  1   force =     0.00024059    0.00014982    0.00050231
     atom   10 type  1   force =     0.00021851    0.00018040    0.00050142
     atom   11 type  2   force =    -0.00038501   -0.00027713    0.00081542
     atom   12 type  2   force =    -0.00038633   -0.00027837    0.00080904

     Total force =     0.026117     Total SCF correction =     0.005309
     SCF correction compared to forces is large: reduce conv_thr to get better values

     entering subroutine stress ...

     negative rho (up, down):  7.646E-01 0.000E+00
          total   stress  (Ry/bohr**3)                   (kbar)     P=  -11.85
  -0.00011999  -0.00001151  -0.00000774        -17.65     -1.69     -1.14
  -0.00001151  -0.00011227  -0.00000557         -1.69    -16.52     -0.82
  -0.00000774  -0.00000557  -0.00000940         -1.14     -0.82     -1.38

 !ASE

     Writing output data file calc.save

     General routines

     Parallel routines

   This run was terminated on:  17:39:57  29Dec2018

   JOB DONE.
Job  /afs/slac/g/suncat/bin/suncat-tsmpirun -x LD_LIBRARY_PATH -wdir /scratch/qe387706_0Pu3P pw.x -in pw.inp

TID   HOST_NAME   COMMAND_LINE            STATUS            TERMINATION_TIME
00000 suncat0066 pw.x -in pw.inp   Done                     12/29/2018 17:39:57
00001 suncat0066 pw.x -in pw.inp   Done                     12/29/2018 17:39:57
00002 suncat0066 pw.x -in pw.inp   Done                     12/29/2018 17:39:57
00003 suncat0066 pw.x -in pw.inp   Done                     12/29/2018 17:39:57
00004 suncat0066 pw.x -in pw.inp   Done                     12/29/2018 17:39:57
00005 suncat0066 pw.x -in pw.inp   Done                     12/29/2018 17:39:57
00006 suncat0066 pw.x -in pw.inp   Done                     12/29/2018 17:39:57
00007 suncat0066 pw.x -in pw.inp   Done                     12/29/2018 17:39:57
00008 suncat0061 pw.x -in pw.inp   Done                     12/29/2018 17:39:57
00009 suncat0061 pw.x -in pw.inp   Done                     12/29/2018 17:39:57
00010 suncat0061 pw.x -in pw.inp   Done                     12/29/2018 17:39:57
00011 suncat0061 pw.x -in pw.inp   Done                     12/29/2018 17:39:57
00012 suncat0061 pw.x -in pw.inp   Done                     12/29/2018 17:39:57
00013 suncat0061 pw.x -in pw.inp   Done                     12/29/2018 17:39:57
00014 suncat0061 pw.x -in pw.inp   Done                     12/29/2018 17:39:57
00015 suncat0061 pw.x -in pw.inp   Done                     12/29/2018 17:39:57
00016 suncat0052 pw.x -in pw.inp   Done                     12/29/2018 17:39:57
00017 suncat0052 pw.x -in pw.inp   Done                     12/29/2018 17:39:57
00018 suncat0052 pw.x -in pw.inp   Done                     12/29/2018 17:39:57
00019 suncat0052 pw.x -in pw.inp   Done                     12/29/2018 17:39:57
00020 suncat0052 pw.x -in pw.inp   Done                     12/29/2018 17:39:57
00021 suncat0052 pw.x -in pw.inp   Done                     12/29/2018 17:39:57
00022 suncat0052 pw.x -in pw.inp   Done                     12/29/2018 17:39:57
00023 suncat0052 pw.x -in pw.inp   Done                     12/29/2018 17:39:57
00024 suncat0043 pw.x -in pw.inp   Done                     12/29/2018 17:39:57
00025 suncat0043 pw.x -in pw.inp   Done                     12/29/2018 17:39:57
00026 suncat0043 pw.x -in pw.inp   Done                     12/29/2018 17:39:57
00027 suncat0043 pw.x -in pw.inp   Done                     12/29/2018 17:39:57
00028 suncat0043 pw.x -in pw.inp   Done                     12/29/2018 17:39:57
00029 suncat0043 pw.x -in pw.inp   Done                     12/29/2018 17:39:57
00030 suncat0043 pw.x -in pw.inp   Done                     12/29/2018 17:39:57
00031 suncat0043 pw.x -in pw.inp   Done                     12/29/2018 17:39:57
00032 suncat0143 pw.x -in pw.inp   Done                     12/29/2018 17:39:57
00033 suncat0143 pw.x -in pw.inp   Done                     12/29/2018 17:39:57
00034 suncat0143 pw.x -in pw.inp   Done                     12/29/2018 17:39:57
00035 suncat0143 pw.x -in pw.inp   Done                     12/29/2018 17:39:57
00036 suncat0143 pw.x -in pw.inp   Done                     12/29/2018 17:39:57
00037 suncat0143 pw.x -in pw.inp   Done                     12/29/2018 17:39:57
00038 suncat0143 pw.x -in pw.inp   Done                     12/29/2018 17:39:57
00039 suncat0143 pw.x -in pw.inp   Done                     12/29/2018 17:39:57
00040 suncat0135 pw.x -in pw.inp   Done                     12/29/2018 17:39:57
00041 suncat0135 pw.x -in pw.inp   Done                     12/29/2018 17:39:57
00042 suncat0135 pw.x -in pw.inp   Done                     12/29/2018 17:39:57
00043 suncat0135 pw.x -in pw.inp   Done                     12/29/2018 17:39:57
00044 suncat0135 pw.x -in pw.inp   Done                     12/29/2018 17:39:57
00045 suncat0135 pw.x -in pw.inp   Done                     12/29/2018 17:39:57
00046 suncat0135 pw.x -in pw.inp   Done                     12/29/2018 17:39:57
00047 suncat0135 pw.x -in pw.inp   Done                     12/29/2018 17:39:57
00048 suncat0134 pw.x -in pw.inp   Done                     12/29/2018 17:39:57
00049 suncat0134 pw.x -in pw.inp   Done                     12/29/2018 17:39:57
00050 suncat0134 pw.x -in pw.inp   Done                     12/29/2018 17:39:57
00051 suncat0134 pw.x -in pw.inp   Done                     12/29/2018 17:39:57
00052 suncat0134 pw.x -in pw.inp   Done                     12/29/2018 17:39:57
00053 suncat0134 pw.x -in pw.inp   Done                     12/29/2018 17:39:57
00054 suncat0134 pw.x -in pw.inp   Done                     12/29/2018 17:39:57
00055 suncat0134 pw.x -in pw.inp   Done                     12/29/2018 17:39:57
00056 suncat0272 pw.x -in pw.inp   Done                     12/29/2018 17:39:57
00057 suncat0272 pw.x -in pw.inp   Done                     12/29/2018 17:39:57
00058 suncat0272 pw.x -in pw.inp   Done                     12/29/2018 17:39:57
00059 suncat0272 pw.x -in pw.inp   Done                     12/29/2018 17:39:57
00060 suncat0272 pw.x -in pw.inp   Done                     12/29/2018 17:39:57
00061 suncat0272 pw.x -in pw.inp   Done                     12/29/2018 17:39:57
00062 suncat0272 pw.x -in pw.inp   Done                     12/29/2018 17:39:57
00063 suncat0272 pw.x -in pw.inp   Done                     12/29/2018 17:39:57