     Program PWSCF v.5.1rc2 (svn rev. 11289) starts on 19Dec2018 at  6: 3:26

     Current dimensions of program PWSCF are:
     Max number of different atomic species (ntypx) = 10
     Max number of k-points (npk) =  40000
     Max angular momentum in pseudopotentials (lmaxx) =  3
     Presently stress not available with electric field

     IMPORTANT: XC functional enforced from input :
     Exchange-correlation      = BEEF-VDW ( 1  4 27 13 2)
     Any further DFT definition will be discarded
     Please, verify this is what you really want

     Subspace diagonalization in iterative solution of the eigenvalue problem:
     a serial algorithm will be used

     Found symmetry operation: I + ( -0.5000 -0.5000  0.0000)
     This is a supercell, fractional translations are disabled

     Generating pointlists ...
     new r_m :   0.4125 (alat units)  0.7795 (a.u.) for type    1
     new r_m :   0.4125 (alat units)  0.7795 (a.u.) for type    2

     bravais-lattice index     =            0
     lattice parameter (alat)  =       1.8897  a.u.
     unit-cell volume          =    4542.3417 (a.u.)^3
     number of atoms/cell      =           12
     number of atomic types    =            2
     number of electrons       =       168.00
     number of Kohn-Sham states=          114
     kinetic-energy cutoff     =      36.7493  Ry
     charge density cutoff     =     367.4932  Ry
     convergence threshold     =      1.0E-06
     mixing beta               =       0.1000
     number of iterations used =           10  plain     mixing
     Exchange-correlation      = BEEF-VDW ( 1  4 27 13 2)
     nstep                     =           50

     celldm(1)=   1.889726  celldm(2)=   0.000000  celldm(3)=   0.000000
     celldm(4)=   0.000000  celldm(5)=   0.000000  celldm(6)=   0.000000

     crystal axes: (cart. coord. in units of alat)
               a(1) = (   5.406905   0.000000   0.000000 )
               a(2) = (   1.797819   5.099261   0.000000 )
               a(3) = (   0.000000   0.000000  24.413339 )

     reciprocal axes: (cart. coord. in units 2 pi/alat)
               b(1) = (  0.184949 -0.065206  0.000000 )
               b(2) = (  0.000000  0.196107  0.000000 )
               b(3) = (  0.000000  0.000000  0.040961 )

     PseudoPot. # 1 for Co read from file:
     /afs/slac.stanford.edu/u/if/mamunm/psp/gbrv1.5pbe/Co.UPF
     MD5 check sum: 5f91765df6ddd3222702df6e7b74a16d
     Pseudo is Ultrasoft + core correction, Zval = 17.0
     Generated by new atomic code, or converted to UPF format
     Using radial grid of  863 points,  6 beta functions with:
                l(1) =   0
                l(2) =   0
                l(3) =   1
                l(4) =   1
                l(5) =   2
                l(6) =   2
     Q(r) pseudized with  8 coefficients,  rinner =    1.200   1.200   1.200
                                                       1.200   1.200

     PseudoPot. # 2 for Sc read from file:
     /afs/slac.stanford.edu/u/if/mamunm/psp/gbrv1.5pbe/Sc.UPF
     MD5 check sum: db30a2753ba66ef00f23801d899b7e7f
     Pseudo is Ultrasoft + core correction, Zval = 11.0
     Generated by new atomic code, or converted to UPF format
     Using radial grid of  849 points,  6 beta functions with:
                l(1) =   0
                l(2) =   0
                l(3) =   1
                l(4) =   1
                l(5) =   2
                l(6) =   2
     Q(r) pseudized with  6 coefficients,  rinner =    1.200   1.200   1.200
                                                       1.200   1.200

     vdW kernel table read from file vdW_kernel_table
     MD5 check sum: 095c7af220d748ca6e76c0b4c6cfb241

     atomic species   valence    mass     pseudopotential
        Co1           17.00    58.93319     Co( 1.00)
        Sc1           11.00    44.95591     Sc( 1.00)

     Starting magnetic structure
     atomic species   magnetization
        Co1          0.118
        Sc1          0.182

     No symmetry found

   Cartesian axes

     site n.     atom                  positions (alat units)
         1           Co1 tau(   1) = (   0.0000000   0.0000000  10.0000000  )
         2           Co1 tau(   2) = (   3.6023622   2.5496307  10.0000000  )
         3           Sc1 tau(   3) = (   2.7034525   0.0000000  10.0000000  )
         4           Sc1 tau(   4) = (   0.8989097   2.5496307  10.0000000  )
         5           Co1 tau(   5) = (   5.4069050   3.8268253  12.2066696  )
         6           Co1 tau(   6) = (   1.8045428   1.2771946  12.2066696  )
         7           Sc1 tau(   7) = (   2.7034525   3.8268253  12.2066696  )
         8           Sc1 tau(   8) = (   4.5079953   1.2771946  12.2066696  )
         9           Co1 tau(   9) = (   3.6090855   2.5543892  14.4133392  )
        10           Co1 tau(  10) = (   0.0067233   0.0047585  14.4133392  )
        11           Sc1 tau(  11) = (   0.9056330   2.5543892  14.4133392  )
        12           Sc1 tau(  12) = (   2.7101758   0.0047585  14.4133392  )

     number of k points=    40  Fermi-Dirac smearing, width (Ry)=  0.0110
                       cart. coord. in units 2pi/alat
        k(    1) = (   0.0000000   0.0000000   0.0000000), wk =   0.0277778
        k(    2) = (   0.0000000   0.0326845   0.0000000), wk =   0.0555556
        k(    3) = (   0.0000000   0.0653689   0.0000000), wk =   0.0555556
        k(    4) = (   0.0000000  -0.0980534   0.0000000), wk =   0.0277778
        k(    5) = (   0.0308248  -0.0108677   0.0000000), wk =   0.0555556
        k(    6) = (   0.0308248   0.0218167   0.0000000), wk =   0.0555556
        k(    7) = (   0.0308248   0.0545012   0.0000000), wk =   0.0555556
        k(    8) = (   0.0308248  -0.1089211   0.0000000), wk =   0.0555556
        k(    9) = (   0.0308248  -0.0762367   0.0000000), wk =   0.0555556
        k(   10) = (   0.0308248  -0.0435522   0.0000000), wk =   0.0555556
        k(   11) = (   0.0616496  -0.0217355   0.0000000), wk =   0.0555556
        k(   12) = (   0.0616496   0.0109490   0.0000000), wk =   0.0555556
        k(   13) = (   0.0616496   0.0436335   0.0000000), wk =   0.0555556
        k(   14) = (   0.0616496  -0.1197889   0.0000000), wk =   0.0555556
        k(   15) = (   0.0616496  -0.0871044   0.0000000), wk =   0.0555556
        k(   16) = (   0.0616496  -0.0544199   0.0000000), wk =   0.0555556
        k(   17) = (  -0.0924743   0.0326032   0.0000000), wk =   0.0277778
        k(   18) = (  -0.0924743   0.0652877   0.0000000), wk =   0.0555556
        k(   19) = (  -0.0924743   0.0979721   0.0000000), wk =   0.0555556
        k(   20) = (  -0.0924743  -0.0654502   0.0000000), wk =   0.0277778
        k(   21) = (   0.0000000   0.0000000   0.0000000), wk =   0.0277778
        k(   22) = (   0.0000000   0.0326845   0.0000000), wk =   0.0555556
        k(   23) = (   0.0000000   0.0653689   0.0000000), wk =   0.0555556
        k(   24) = (   0.0000000  -0.0980534   0.0000000), wk =   0.0277778
        k(   25) = (   0.0308248  -0.0108677   0.0000000), wk =   0.0555556
        k(   26) = (   0.0308248   0.0218167   0.0000000), wk =   0.0555556
        k(   27) = (   0.0308248   0.0545012   0.0000000), wk =   0.0555556
        k(   28) = (   0.0308248  -0.1089211   0.0000000), wk =   0.0555556
        k(   29) = (   0.0308248  -0.0762367   0.0000000), wk =   0.0555556
        k(   30) = (   0.0308248  -0.0435522   0.0000000), wk =   0.0555556
        k(   31) = (   0.0616496  -0.0217355   0.0000000), wk =   0.0555556
        k(   32) = (   0.0616496   0.0109490   0.0000000), wk =   0.0555556
        k(   33) = (   0.0616496   0.0436335   0.0000000), wk =   0.0555556
        k(   34) = (   0.0616496  -0.1197889   0.0000000), wk =   0.0555556
        k(   35) = (   0.0616496  -0.0871044   0.0000000), wk =   0.0555556
        k(   36) = (   0.0616496  -0.0544199   0.0000000), wk =   0.0555556
        k(   37) = (  -0.0924743   0.0326032   0.0000000), wk =   0.0277778
        k(   38) = (  -0.0924743   0.0652877   0.0000000), wk =   0.0555556
        k(   39) = (  -0.0924743   0.0979721   0.0000000), wk =   0.0555556
        k(   40) = (  -0.0924743  -0.0654502   0.0000000), wk =   0.0277778

     Largest allocated arrays     est. size (Mb)     dimensions
     Largest temporary arrays     est. size (Mb)     dimensions

     Check: negative/imaginary core charge=   -0.000004    0.000000

     Initial potential from superposition of free atoms
     Check: negative starting charge=(component1):   -0.000179
     Check: negative starting charge=(component2):   -0.000134

     starting charge  161.98554, renormalised to  168.00000

     negative rho (up, down):  1.857E-04 1.390E-04

     *
     * You are using vdW-DF for exchange-correlation in this calculation.
     * Please cite the following three references that made this development
     * possible:
     *
     *   M. Dion, H. Rydberg, E. Schroder, D. C. Langreth, and
     *   B. I. Lundqvist, Phys. Rev. Lett. 92, 246401 (2004).
     *
     *   T. Thonhauser, V. R. Cooper, S. Li, A. Puzder, P. Hyldgaard, and
     *   D. C. Langreth, Phys. Rev. B 76, 125112 (2007).
     *
     *   G. Roman-Perez and J. M. Soler, Phys. Rev. Lett. 103, 096102 (2009).
     *
     *
     * If you are using vdW-DF2, please also cite:
     *
     *   K. Lee, E. D. Murray, L. Kong, B. I. Lundqvist, and
     *   D. C. Langreth, Phys. Rev. B 82, 081101(R) (2010).
     *
     *
     * If you are calculating the stress with vdW-DF, please also cite:
     *
     *   R. Sabatini, E. Kucukbenli, B. Kolb, T. Thonhauser, and
     *   S. de Gironcoli, J. Phys.: Condens. Matter 24, 424209 (2012).
     *

     Carrying out vdW-DF run using the following parameters:

     Nqs =      20    Nr_points =    1024   r_max =   100.000
     q_mesh =
               0.00001000     0.04494208     0.09755937     0.15916263
               0.23128650     0.31572767     0.41458969     0.53033537
               0.66584808     0.82450364     1.01025438     1.22772762
               1.48234092     1.78043706     2.12944203     2.53805004
               3.01644009     3.57652955     4.23227104     5.00000000

     Gradients computed in reciprocal space

     Adding external electric field

     Computed dipole along edir(3) :
        Dipole               -0.0000 Ry au,         -0.0000 Debye
        Dipole field         -0.0000 Ry au

        Potential amp.        0.0000 Ry
        Total length         44.9812 bohr

[...]

     Starting wfc are  156 randomized atomic wfcs

     Self-consistent Calculation

     iteration #  1     ecut=    36.75 Ry     beta=0.10
     Davidson diagonalization with overlap
     ethr =  1.00E-02,  avg # of iterations =  2.5

[...]

     Magnetic moment per site:
     atom:    1    charge:    8.3292    magn:    0.9609    constr:    0.0000
     atom:    2    charge:    8.3291    magn:    0.9609    constr:    0.0000
     atom:    3    charge:    2.4949    magn:    0.4166    constr:    0.0000
     atom:    4    charge:    2.4949    magn:    0.4166    constr:    0.0000
     atom:    5    charge:    8.3494    magn:    0.9521    constr:    0.0000
     atom:    6    charge:    8.3494    magn:    0.9521    constr:    0.0000
[...]
                l(2) =   0
                l(3) =   1
                l(4) =   1
                l(5) =   2
                l(6) =   2
     Q(r) pseudized with  8 coefficients,  rinner =    1.200   1.200   1.200
                                                       1.200   1.200

     PseudoPot. # 2 for Sc read from file:
     /afs/slac.stanford.edu/u/if/mamunm/psp/gbrv1.5pbe/Sc.UPF
     MD5 check sum: db30a2753ba66ef00f23801d899b7e7f
     Pseudo is Ultrasoft + core correction, Zval = 11.0
     Generated by new atomic code, or converted to UPF format
     Using radial grid of  849 points,  6 beta functions with:
                l(1) =   0
                l(2) =   0
                l(3) =   1
                l(4) =   1
                l(5) =   2
                l(6) =   2
     Q(r) pseudized with  6 coefficients,  rinner =    1.200   1.200   1.200
                                                       1.200   1.200

     vdW kernel table read from file vdW_kernel_table
     MD5 check sum: 095c7af220d748ca6e76c0b4c6cfb241

     atomic species   valence    mass     pseudopotential
        Co1           17.00    58.93319     Co( 1.00)
        Sc1           11.00    44.95591     Sc( 1.00)

     Starting magnetic structure
     atomic species   magnetization
        Co1          0.118
        Sc1          0.182

     No symmetry found

   Cartesian axes

     site n.     atom                  positions (alat units)
         1           Co1 tau(   1) = (   0.0000000   0.0000000  10.0000000  )
         2           Co1 tau(   2) = (   3.6023622   2.5496307  10.0000000  )
         3           Sc1 tau(   3) = (   2.7034525   0.0000000  10.0000000  )
         4           Sc1 tau(   4) = (   0.8989097   2.5496307  10.0000000  )
         5           Co1 tau(   5) = (   5.4069050   3.8268253  12.2066696  )
         6           Co1 tau(   6) = (   1.8045428   1.2771946  12.2066696  )
         7           Sc1 tau(   7) = (   2.7034525   3.8268253  12.2066696  )
         8           Sc1 tau(   8) = (   4.5079953   1.2771946  12.2066696  )
         9           Co1 tau(   9) = (   3.6082376   2.5537941  14.2651990  )
        10           Co1 tau(  10) = (   0.0060128   0.0042542  14.2651766  )
        11           Sc1 tau(  11) = (   0.9035773   2.5528529  14.4659707  )
        12           Sc1 tau(  12) = (   2.7080414   0.0033316  14.4659720  )

     number of k points=    40  Fermi-Dirac smearing, width (Ry)=  0.0110
                       cart. coord. in units 2pi/alat
        k(    1) = (   0.0000000   0.0000000   0.0000000), wk =   0.0277778
        k(    2) = (   0.0000000   0.0326845   0.0000000), wk =   0.0555556
        k(    3) = (   0.0000000   0.0653689   0.0000000), wk =   0.0555556
        k(    4) = (   0.0000000  -0.0980534   0.0000000), wk =   0.0277778
        k(    5) = (   0.0308248  -0.0108677   0.0000000), wk =   0.0555556
        k(    6) = (   0.0308248   0.0218167   0.0000000), wk =   0.0555556
        k(    7) = (   0.0308248   0.0545012   0.0000000), wk =   0.0555556
        k(    8) = (   0.0308248  -0.1089211   0.0000000), wk =   0.0555556
        k(    9) = (   0.0308248  -0.0762367   0.0000000), wk =   0.0555556
        k(   10) = (   0.0308248  -0.0435522   0.0000000), wk =   0.0555556
        k(   11) = (   0.0616496  -0.0217355   0.0000000), wk =   0.0555556
        k(   12) = (   0.0616496   0.0109490   0.0000000), wk =   0.0555556
        k(   13) = (   0.0616496   0.0436335   0.0000000), wk =   0.0555556
        k(   14) = (   0.0616496  -0.1197889   0.0000000), wk =   0.0555556
        k(   15) = (   0.0616496  -0.0871044   0.0000000), wk =   0.0555556
        k(   16) = (   0.0616496  -0.0544199   0.0000000), wk =   0.0555556
        k(   17) = (  -0.0924743   0.0326032   0.0000000), wk =   0.0277778
        k(   18) = (  -0.0924743   0.0652877   0.0000000), wk =   0.0555556
        k(   19) = (  -0.0924743   0.0979721   0.0000000), wk =   0.0555556
        k(   20) = (  -0.0924743  -0.0654502   0.0000000), wk =   0.0277778
        k(   21) = (   0.0000000   0.0000000   0.0000000), wk =   0.0277778
        k(   22) = (   0.0000000   0.0326845   0.0000000), wk =   0.0555556
        k(   23) = (   0.0000000   0.0653689   0.0000000), wk =   0.0555556
        k(   24) = (   0.0000000  -0.0980534   0.0000000), wk =   0.0277778
        k(   25) = (   0.0308248  -0.0108677   0.0000000), wk =   0.0555556
        k(   26) = (   0.0308248   0.0218167   0.0000000), wk =   0.0555556
        k(   27) = (   0.0308248   0.0545012   0.0000000), wk =   0.0555556
        k(   28) = (   0.0308248  -0.1089211   0.0000000), wk =   0.0555556
        k(   29) = (   0.0308248  -0.0762367   0.0000000), wk =   0.0555556
        k(   30) = (   0.0308248  -0.0435522   0.0000000), wk =   0.0555556
        k(   31) = (   0.0616496  -0.0217355   0.0000000), wk =   0.0555556
        k(   32) = (   0.0616496   0.0109490   0.0000000), wk =   0.0555556
        k(   33) = (   0.0616496   0.0436335   0.0000000), wk =   0.0555556
        k(   34) = (   0.0616496  -0.1197889   0.0000000), wk =   0.0555556
        k(   35) = (   0.0616496  -0.0871044   0.0000000), wk =   0.0555556
        k(   36) = (   0.0616496  -0.0544199   0.0000000), wk =   0.0555556
        k(   37) = (  -0.0924743   0.0326032   0.0000000), wk =   0.0277778
        k(   38) = (  -0.0924743   0.0652877   0.0000000), wk =   0.0555556
        k(   39) = (  -0.0924743   0.0979721   0.0000000), wk =   0.0555556
        k(   40) = (  -0.0924743  -0.0654502   0.0000000), wk =   0.0277778

     Largest allocated arrays     est. size (Mb)     dimensions
     Largest temporary arrays     est. size (Mb)     dimensions

     Check: negative/imaginary core charge=   -0.000004    0.000000

     Initial potential from superposition of free atoms
     Check: negative starting charge=(component1):   -0.000181
     Check: negative starting charge=(component2):   -0.000135

     starting charge  161.98554, renormalised to  168.00000

[...]

     *
     * You are using vdW-DF for exchange-correlation in this calculation.
     * Please cite the following three references that made this development
     * possible:
     *
     *   M. Dion, H. Rydberg, E. Schroder, D. C. Langreth, and
     *   B. I. Lundqvist, Phys. Rev. Lett. 92, 246401 (2004).
     *
     *   T. Thonhauser, V. R. Cooper, S. Li, A. Puzder, P. Hyldgaard, and
     *   D. C. Langreth, Phys. Rev. B 76, 125112 (2007).
     *
     *   G. Roman-Perez and J. M. Soler, Phys. Rev. Lett. 103, 096102 (2009).
     *
     *
     * If you are using vdW-DF2, please also cite:
     *
     *   K. Lee, E. D. Murray, L. Kong, B. I. Lundqvist, and
     *   D. C. Langreth, Phys. Rev. B 82, 081101(R) (2010).
     *
     *
     * If you are calculating the stress with vdW-DF, please also cite:
     *
     *   R. Sabatini, E. Kucukbenli, B. Kolb, T. Thonhauser, and
     *   S. de Gironcoli, J. Phys.: Condens. Matter 24, 424209 (2012).
     *

     Carrying out vdW-DF run using the following parameters:

     Nqs =      20    Nr_points =    1024   r_max =   100.000
     q_mesh =
               0.00001000     0.04494208     0.09755937     0.15916263
               0.23128650     0.31572767     0.41458969     0.53033537
               0.66584808     0.82450364     1.01025438     1.22772762
               1.48234092     1.78043706     2.12944203     2.53805004
               3.01644009     3.57652955     4.23227104     5.00000000

     Gradients computed in reciprocal space

[...]

     Starting wfc are  156 randomized atomic wfcs

     Self-consistent Calculation

[...]

     total energy              =   -2366.22352443 Ry
     Harris-Foulkes estimate   =   -2366.22352480 Ry
     estimated scf accuracy    <       0.00000101 Ry

[...]

     iteration # 41     ecut=    36.75 Ry     beta=0.10
     Davidson diagonalization with overlap
     ethr =  5.99E-10,  avg # of iterations =  1.9

[...]

     negative rho (up, down):  3.708E-04 3.346E-04

[...]

     Adding external electric field

     Computed dipole along edir(3) :
        Dipole                0.0563 Ry au,          0.1432 Debye
        Dipole field          0.0002 Ry au

        Potential amp.       -0.0140 Ry
        Total length         44.9812 bohr

     Magnetic moment per site:
     atom:    1    charge:    8.2906    magn:    0.4839    constr:    0.0000
     atom:    2    charge:    8.2907    magn:    0.4838    constr:    0.0000
     atom:    3    charge:    2.4033    magn:   -0.0375    constr:    0.0000
     atom:    4    charge:    2.4033    magn:   -0.0375    constr:    0.0000
     atom:    5    charge:    8.2825    magn:    0.3333    constr:    0.0000
     atom:    6    charge:    8.2825    magn:    0.3333    constr:    0.0000
     atom:    7    charge:    2.4054    magn:   -0.0273    constr:    0.0000
     atom:    8    charge:    2.4054    magn:   -0.0273    constr:    0.0000
     atom:    9    charge:    8.2887    magn:    0.3437    constr:    0.0000
     atom:   10    charge:    8.2890    magn:    0.3436    constr:    0.0000
     atom:   11    charge:    2.4010    magn:   -0.0327    constr:    0.0000
     atom:   12    charge:    2.4010    magn:   -0.0327    constr:    0.0000

     End of self-consistent calculation

 ------ SPIN UP ------------

[...]

 ------ SPIN DOWN ----------

[...]

          k = 0.0616-0.0544 0.0000 ( 17066 PWs)   bands (ev):

[...]

          k =-0.0925-0.0655 0.0000 ( 17124 PWs)   bands (ev):

   -93.2853 -93.2846 -92.9731 -92.9722 -92.8677 -92.8670 -56.6462 -56.6325
   -56.6154 -56.6138 -56.5783 -56.5765 -56.3606 -56.3587 -56.3459 -56.3319
   -56.2810 -56.2791 -56.2391 -56.2376 -56.2201 -56.2064 -56.1462 -56.1449
   -48.8471 -48.8149 -48.8017 -48.7694 -48.0528 -48.0187 -27.5878 -27.5574
   -27.5532 -27.5128 -27.4948 -27.4573 -27.4032 -27.3702 -27.3502 -27.3214
   -27.2699 -27.2366 -26.8576 -26.6942 -26.6799 -26.6536 -26.6514 -26.5239
    -3.2130  -3.0974  -2.0994  -1.9661  -1.6709  -1.4601  -1.1609  -1.0934
    -0.9143  -0.8964  -0.6122  -0.4916  -0.4404  -0.3623  -0.3145  -0.3030
    -0.2594  -0.1340  -0.0803  -0.0390  -0.0123   0.0692   0.1456   0.1893
     0.1980   0.2525   0.2772   0.2914   0.3359   0.3881   0.4756   0.4920
     0.5447   0.5934   0.6227   0.6641   0.7691   0.7895   0.8341   0.9605
     1.3347   1.6620   1.7927   1.8805   1.9563   2.0199   2.1240   2.2522
     2.4621   2.4735   2.6316   2.8154   2.9848   3.1042   3.1250   3.1423
     3.1566   3.4159   3.4992   3.5915   3.8971   4.0535   4.1959   4.4100
     4.7797   4.9105

     the Fermi energy is     0.8535 ev

!    total energy              =   -2366.22352737 Ry
     Harris-Foulkes estimate   =   -2366.22352474 Ry
     estimated scf accuracy    <       0.00000082 Ry

     The total energy is the sum of the following terms:

     one-electron contribution =  -16660.06029965 Ry
     hartree contribution      =    8328.71005782 Ry
     xc contribution           =    -286.21130712 Ry
     ewald contribution        =    6251.41181125 Ry
     electric field correction =       0.00000878 Ry
     smearing contrib. (-TS)   =      -0.07379845 Ry

     total magnetization       =     2.17 Bohr mag/cell
     absolute magnetization    =     6.76 Bohr mag/cell

     convergence has been achieved in  41 iterations

 BEEF-vdW xc energy contributions
           1 :   -249.349072344260
           2 :    224.191070714123
           3 :   -182.358089033599
           4 :    136.412562770344
           5 :   -97.1464328317990
           6 :    69.5938889835074
           7 :   -52.6512650239034
           8 :    41.6806928056828
           9 :   -32.0808635550857
          10 :    21.7520910926392
          11 :   -11.4493315703202
          12 :    3.34321582247537
          13 :   0.927379232364672
          14 :   -1.41221512883669
          15 :  -0.337347778858543
          16 :    2.36994189795860
          17 :   -3.45942926966302
          18 :    3.54367682824864
          19 :   -3.37192112581954
          20 :    3.75078294213006
          21 :   -4.94580668353785
          22 :    6.56186260632063
          23 :   -7.87496407885772
          24 :    8.31366208322527
          25 :   -7.78138787796945
          26 :    6.65906241291930
          27 :   -5.54625788984686
          28 :    4.91715078419730
          29 :   -4.89270521023542
          30 :    5.23057887033326
          31 :   -23.4703739127955
          32 :   -16.4301066281495

     Forces acting on atoms (Ry/au):

     negative rho (up, down):  3.708E-04 3.346E-04
     atom    1 type  1   force =    -0.00001867   -0.00001285    0.01790345
     atom    2 type  1   force =    -0.00000276   -0.00000262    0.01793815
     atom    3 type  2   force =     0.00033213    0.00022471   -0.01065971
     atom    4 type  2   force =     0.00032204    0.00023864   -0.01065979
     atom    5 type  1   force =    -0.00004231   -0.00002942    0.00270141
     atom    6 type  1   force =    -0.00001444   -0.00001101    0.00270058
     atom    7 type  2   force =    -0.00015642   -0.00013411   -0.00840008
     atom    8 type  2   force =    -0.00017873   -0.00010263   -0.00839962
     atom    9 type  1   force =    -0.00006407   -0.00004618   -0.00104797
     atom   10 type  1   force =    -0.00010120   -0.00007133   -0.00102467
     atom   11 type  2   force =    -0.00005632   -0.00000125   -0.00052581
     atom   12 type  2   force =    -0.00001925   -0.00005195   -0.00052596

     Total force =     0.032069     Total SCF correction =     0.000756

     entering subroutine stress ...

     negative rho (up, down):  3.708E-04 3.346E-04
          total   stress  (Ry/bohr**3)                   (kbar)     P=  -10.51
  -0.00009921  -0.00002661  -0.00000077        -14.59     -3.91     -0.11
  -0.00002661  -0.00008045  -0.00000055         -3.91    -11.83     -0.08
  -0.00000077  -0.00000055  -0.00003461         -0.11     -0.08     -5.09

 !ASE

     Writing output data file calc.save

     General routines

     Parallel routines

   This run was terminated on:  10:19: 7  19Dec2018

   JOB DONE.
Job  /afs/slac/g/suncat/bin/suncat-tsmpirun -x LD_LIBRARY_PATH -wdir /scratch/qe529699_KDp2R pw.x -in pw.inp

TID   HOST_NAME   COMMAND_LINE            STATUS            TERMINATION_TIME
00000 suncat0130 pw.x -in pw.inp   Done                     12/19/2018 10:19:07
00001 suncat0130 pw.x -in pw.inp   Done                     12/19/2018 10:19:07
00002 suncat0130 pw.x -in pw.inp   Done                     12/19/2018 10:19:07
00003 suncat0130 pw.x -in pw.inp   Done                     12/19/2018 10:19:07
00004 suncat0130 pw.x -in pw.inp   Done                     12/19/2018 10:19:07
00005 suncat0130 pw.x -in pw.inp   Done                     12/19/2018 10:19:07
00006 suncat0130 pw.x -in pw.inp   Done                     12/19/2018 10:19:07
00007 suncat0130 pw.x -in pw.inp   Done                     12/19/2018 10:19:07
00008 suncat0129 pw.x -in pw.inp   Done                     12/19/2018 10:19:07
00009 suncat0129 pw.x -in pw.inp   Done                     12/19/2018 10:19:07
00010 suncat0129 pw.x -in pw.inp   Done                     12/19/2018 10:19:07
00011 suncat0129 pw.x -in pw.inp   Done                     12/19/2018 10:19:07
00012 suncat0129 pw.x -in pw.inp   Done                     12/19/2018 10:19:07
00013 suncat0129 pw.x -in pw.inp   Done                     12/19/2018 10:19:07
00014 suncat0129 pw.x -in pw.inp   Done                     12/19/2018 10:19:07
00015 suncat0129 pw.x -in pw.inp   Done                     12/19/2018 10:19:07
00016 suncat0124 pw.x -in pw.inp   Done                     12/19/2018 10:19:07
00017 suncat0124 pw.x -in pw.inp   Done                     12/19/2018 10:19:07
00018 suncat0124 pw.x -in pw.inp   Done                     12/19/2018 10:19:07
00019 suncat0124 pw.x -in pw.inp   Done                     12/19/2018 10:19:07
00020 suncat0124 pw.x -in pw.inp   Done                     12/19/2018 10:19:07
00021 suncat0124 pw.x -in pw.inp   Done                     12/19/2018 10:19:07
00022 suncat0124 pw.x -in pw.inp   Done                     12/19/2018 10:19:07
00023 suncat0124 pw.x -in pw.inp   Done                     12/19/2018 10:19:07
00024 suncat0123 pw.x -in pw.inp   Done                     12/19/2018 10:19:07
00025 suncat0123 pw.x -in pw.inp   Done                     12/19/2018 10:19:07
00026 suncat0123 pw.x -in pw.inp   Done                     12/19/2018 10:19:07
00027 suncat0123 pw.x -in pw.inp   Done                     12/19/2018 10:19:07
00028 suncat0123 pw.x -in pw.inp   Done                     12/19/2018 10:19:07
00029 suncat0123 pw.x -in pw.inp   Done                     12/19/2018 10:19:07
00030 suncat0123 pw.x -in pw.inp   Done                     12/19/2018 10:19:07
00031 suncat0123 pw.x -in pw.inp   Done                     12/19/2018 10:19:07