     Program PWSCF v.5.1rc2 (svn rev. 11289) starts on 18Dec2018 at 21:43:37

     Current dimensions of program PWSCF are:
     Max number of different atomic species (ntypx) = 10
     Max number of k-points (npk) =  40000
     Max angular momentum in pseudopotentials (lmaxx) =  3
     Presently stress not available with electric field

     IMPORTANT: XC functional enforced from input :
     Exchange-correlation      = BEEF-VDW ( 1  4 27 13 2)
     Any further DFT definition will be discarded
     Please, verify this is what you really want

     Subspace diagonalization in iterative solution of the eigenvalue problem:
     a serial algorithm will be used

     Found symmetry operation: I + (  0.5000  0.0000  0.0000)
     This is a supercell, fractional translations are disabled

     Generating pointlists ...
     new r_m :   0.4125 (alat units)  0.7795 (a.u.) for type    1
     new r_m :   0.4125 (alat units)  0.7795 (a.u.) for type    2

     bravais-lattice index     =            0
     lattice parameter (alat)  =       1.8897  a.u.
     unit-cell volume          =    4738.6693 (a.u.)^3
     number of atoms/cell      =           12
     number of atomic types    =            2
     number of electrons       =       168.00
     number of Kohn-Sham states=          114
     kinetic-energy cutoff     =      36.7493  Ry
     charge density cutoff     =     367.4932  Ry
     convergence threshold     =      1.0E-06
     mixing beta               =       0.1000
     number of iterations used =           10  plain     mixing
     Exchange-correlation      = BEEF-VDW ( 1  4 27 13 2)
     nstep                     =           50

     celldm(1)=   1.889726  celldm(2)=   0.000000  celldm(3)=   0.000000
     celldm(4)=   0.000000  celldm(5)=   0.000000  celldm(6)=   0.000000

     crystal axes: (cart. coord. in units of alat)
               a(1) = (   5.630317   0.000000   0.000000 )
               a(2) = (  -2.815159   5.054184   0.000000 )
               a(3) = (   0.000000   0.000000  24.676065 )

     reciprocal axes: (cart. coord. in units 2 pi/alat)
               b(1) = (  0.177610  0.098928  0.000000 )
               b(2) = (  0.000000  0.197856  0.000000 )
               b(3) = (  0.000000  0.000000  0.040525 )

     PseudoPot. # 1 for Fe read from file:
     /afs/slac.stanford.edu/u/if/mamunm/psp/gbrv1.5pbe/Fe.UPF
     MD5 check sum: a130daea23fe5165f5d574ae7f82ed95
     Pseudo is Ultrasoft + core correction, Zval = 16.0
     Generated by new atomic code, or converted to UPF format
     Using radial grid of  861 points,  6 beta functions with:
                l(1) =   0
                l(2) =   0
                l(3) =   1
                l(4) =   1
                l(5) =   2
                l(6) =   2
     Q(r) pseudized with  8 coefficients,  rinner =    1.000   1.000   1.000
                                                       1.000   1.000

     PseudoPot. # 2 for Cd read from file:
     /afs/slac.stanford.edu/u/if/mamunm/psp/gbrv1.5pbe/Cd.UPF
     MD5 check sum: 17164a7926edb8e0dc231208abae86a6
     Pseudo is Ultrasoft + core correction, Zval = 12.0
     Generated by new atomic code, or converted to UPF format
     Using radial grid of  889 points,  6 beta functions with:
                l(1) =   0
                l(2) =   0
                l(3) =   1
                l(4) =   1
                l(5) =   2
                l(6) =   2
     Q(r) pseudized with  6 coefficients,  rinner =    1.000   1.000   1.000
                                                       1.000   1.000

     vdW kernel table read from file vdW_kernel_table
     MD5 check sum: 095c7af220d748ca6e76c0b4c6cfb241

     atomic species   valence    mass     pseudopotential
        Fe1           16.00    55.84500     Fe( 1.00)
        Cd1           12.00   112.41400     Cd( 1.00)

     Starting magnetic structure
     atomic species   magnetization
        Fe1          0.125
        Cd1          0.167

     No symmetry found

   Cartesian axes

     site n.     atom                  positions (alat units)
         1           Fe1 tau(   1) = (   0.0000000   0.0000000  10.0000000  )
         2           Fe1 tau(   2) = (   2.8151587   0.0000000  10.0000000  )
         3           Cd1 tau(   3) = (   1.4075793   2.5270918  10.0000000  )
         4           Cd1 tau(   4) = (  -1.4075793   2.5270918  10.0000000  )
         5           Fe1 tau(   5) = (   2.8151587   1.5680314  12.3380325  )
         6           Fe1 tau(   6) = (  -0.0000000   1.5680314  12.3380325  )
         7           Cd1 tau(   7) = (  -1.4075793   4.0951232  12.3380325  )
         8           Cd1 tau(   8) = (   1.4075793   4.0951232  12.3380325  )
         9           Fe1 tau(   9) = (   0.0000000   3.1360627  14.6760650  )
        10           Fe1 tau(  10) = (   2.8151587   3.1360627  14.6760650  )
        11           Cd1 tau(  11) = (   4.2227380   0.6089709  14.6760650  )
        12           Cd1 tau(  12) = (   1.4075793   0.6089709  14.6760650  )

     number of k points=    40  Fermi-Dirac smearing, width (Ry)=  0.0110
                       cart. coord. in units 2pi/alat
        k(    1) = (   0.0000000   0.0000000   0.0000000), wk =   0.0277778
        k(    2) = (   0.0000000   0.0329760   0.0000000), wk =   0.0555556
        k(    3) = (   0.0000000   0.0659520   0.0000000), wk =   0.0555556
        k(    4) = (   0.0000000  -0.0989279   0.0000000), wk =   0.0277778
        k(    5) = (   0.0296016   0.0164880   0.0000000), wk =   0.0555556
        k(    6) = (   0.0296016   0.0494640   0.0000000), wk =   0.0555556
        k(    7) = (   0.0296016   0.0824400   0.0000000), wk =   0.0555556
        k(    8) = (   0.0296016  -0.0824400   0.0000000), wk =   0.0555556
        k(    9) = (   0.0296016  -0.0494640   0.0000000), wk =   0.0555556
        k(   10) = (   0.0296016  -0.0164880   0.0000000), wk =   0.0555556
        k(   11) = (   0.0592033   0.0329760   0.0000000), wk =   0.0555556
        k(   12) = (   0.0592033   0.0659520   0.0000000), wk =   0.0555556
        k(   13) = (   0.0592033   0.0989279   0.0000000), wk =   0.0555556
        k(   14) = (   0.0592033  -0.0659520   0.0000000), wk =   0.0555556
        k(   15) = (   0.0592033  -0.0329760   0.0000000), wk =   0.0555556
        k(   16) = (   0.0592033   0.0000000   0.0000000), wk =   0.0555556
        k(   17) = (  -0.0888049  -0.0494640   0.0000000), wk =   0.0277778
        k(   18) = (  -0.0888049  -0.0164880   0.0000000), wk =   0.0555556
        k(   19) = (  -0.0888049   0.0164880   0.0000000), wk =   0.0555556
        k(   20) = (  -0.0888049  -0.1483919   0.0000000), wk =   0.0277778
        k(   21) = (   0.0000000   0.0000000   0.0000000), wk =   0.0277778
        k(   22) = (   0.0000000   0.0329760   0.0000000), wk =   0.0555556
        k(   23) = (   0.0000000   0.0659520   0.0000000), wk =   0.0555556
        k(   24) = (   0.0000000  -0.0989279   0.0000000), wk =   0.0277778
        k(   25) = (   0.0296016   0.0164880   0.0000000), wk =   0.0555556
        k(   26) = (   0.0296016   0.0494640   0.0000000), wk =   0.0555556
        k(   27) = (   0.0296016   0.0824400   0.0000000), wk =   0.0555556
        k(   28) = (   0.0296016  -0.0824400   0.0000000), wk =   0.0555556
        k(   29) = (   0.0296016  -0.0494640   0.0000000), wk =   0.0555556
        k(   30) = (   0.0296016  -0.0164880   0.0000000), wk =   0.0555556
        k(   31) = (   0.0592033   0.0329760   0.0000000), wk =   0.0555556
        k(   32) = (   0.0592033   0.0659520   0.0000000), wk =   0.0555556
        k(   33) = (   0.0592033   0.0989279   0.0000000), wk =   0.0555556
        k(   34) = (   0.0592033  -0.0659520   0.0000000), wk =   0.0555556
        k(   35) = (   0.0592033  -0.0329760   0.0000000), wk =   0.0555556
        k(   36) = (   0.0592033   0.0000000   0.0000000), wk =   0.0555556
        k(   37) = (  -0.0888049  -0.0494640   0.0000000), wk =   0.0277778
        k(   38) = (  -0.0888049  -0.0164880   0.0000000), wk =   0.0555556
        k(   39) = (  -0.0888049   0.0164880   0.0000000), wk =   0.0555556
        k(   40) = (  -0.0888049  -0.1483919   0.0000000), wk =   0.0277778

     Largest allocated arrays     est. size (Mb)     dimensions
     Largest temporary arrays     est. size (Mb)     dimensions

     Check: negative/imaginary core charge=   -0.000004    0.000000

     Initial potential from superposition of free atoms
     Check: negative starting charge=(component1):   -0.076210
     Check: negative starting charge=(component2):   -0.054429

     starting charge  158.99972, renormalised to  168.00000

     negative rho (up, down):  8.052E-02 5.751E-02

     *
     * You are using vdW-DF for exchange-correlation in this calculation.
     * Please cite the following three references that made this development
     * possible:
     *
     *   M. Dion, H. Rydberg, E. Schroder, D. C. Langreth, and
     *   B. I. Lundqvist, Phys. Rev. Lett. 92, 246401 (2004).
     *
     *   T. Thonhauser, V. R. Cooper, S. Li, A. Puzder, P. Hyldgaard, and
     *   D. C. Langreth, Phys. Rev. B 76, 125112 (2007).
     *
     *   G. Roman-Perez and J. M. Soler, Phys. Rev. Lett. 103, 096102 (2009).
     *
     *
     * If you are using vdW-DF2, please also cite:
     *
     *   K. Lee, E. D. Murray, L. Kong, B. I. Lundqvist, and
     *   D. C. Langreth, Phys. Rev. B 82, 081101(R) (2010).
     *
     *
     * If you are calculating the stress with vdW-DF, please also cite:
     *
     *   R. Sabatini, E. Kucukbenli, B. Kolb, T. Thonhauser, and
     *   S. de Gironcoli, J. Phys.: Condens. Matter 24, 424209 (2012).
     *

     Carrying out vdW-DF run using the following parameters:

     Nqs =      20    Nr_points =    1024   r_max =   100.000
     q_mesh =
               0.00001000     0.04494208     0.09755937     0.15916263
               0.23128650     0.31572767     0.41458969     0.53033537
               0.66584808     0.82450364     1.01025438     1.22772762
               1.48234092     1.78043706     2.12944203     2.53805004
               3.01644009     3.57652955     4.23227104     5.00000000

     Gradients computed in reciprocal space

     Adding external electric field

     Computed dipole along edir(3) :
        Dipole               -0.0000 Ry au,         -0.0000 Debye
        Dipole field         -0.0000 Ry au

        Potential amp.        0.0000 Ry
        Total length         45.4652 bohr

[...]

     Starting wfc are  132 randomized atomic wfcs

     Self-consistent Calculation

     iteration #  1     ecut=    36.75 Ry     beta=0.10
     Davidson diagonalization with overlap
     ethr =  1.00E-02,  avg # of iterations =  8.0

[...]

     Magnetic moment per site:
     atom:    1    charge:    7.2562    magn:    0.9282    constr:    0.0000
     atom:    2    charge:    7.2562    magn:    0.9282    constr:    0.0000
     atom:    3    charge:    2.3540    magn:    0.3603    constr:    0.0000
     atom:    4    charge:    2.3540    magn:    0.3603    constr:    0.0000
     atom:    5    charge:    7.2547    magn:    0.9252    constr:    0.0000
     atom:    6    charge:    7.2547    magn:    0.9251    constr:    0.0000
[...]
                l(2) =   0
                l(3) =   1
                l(4) =   1
                l(5) =   2
                l(6) =   2
     Q(r) pseudized with  8 coefficients,  rinner =    1.000   1.000   1.000
                                                       1.000   1.000

     PseudoPot. # 2 for Cd read from file:
     /afs/slac.stanford.edu/u/if/mamunm/psp/gbrv1.5pbe/Cd.UPF
     MD5 check sum: 17164a7926edb8e0dc231208abae86a6
     Pseudo is Ultrasoft + core correction, Zval = 12.0
     Generated by new atomic code, or converted to UPF format
     Using radial grid of  889 points,  6 beta functions with:
                l(1) =   0
                l(2) =   0
                l(3) =   1
                l(4) =   1
                l(5) =   2
                l(6) =   2
     Q(r) pseudized with  6 coefficients,  rinner =    1.000   1.000   1.000
                                                       1.000   1.000

     vdW kernel table read from file vdW_kernel_table
     MD5 check sum: 095c7af220d748ca6e76c0b4c6cfb241

     atomic species   valence    mass     pseudopotential
        Fe1           16.00    55.84500     Fe( 1.00)
        Cd1           12.00   112.41400     Cd( 1.00)

     Starting magnetic structure
     atomic species   magnetization
        Fe1          0.125
        Cd1          0.167

     No symmetry found

   Cartesian axes

     site n.     atom                  positions (alat units)
         1           Fe1 tau(   1) = (   0.0000000   0.0000000  10.0000000  )
         2           Fe1 tau(   2) = (   2.8151587   0.0000000  10.0000000  )
         3           Cd1 tau(   3) = (   1.4075793   2.5270918  10.0000000  )
         4           Cd1 tau(   4) = (  -1.4075793   2.5270918  10.0000000  )
         5           Fe1 tau(   5) = (   2.8151587   1.5680314  12.3380325  )
         6           Fe1 tau(   6) = (  -0.0000000   1.5680314  12.3380325  )
         7           Cd1 tau(   7) = (  -1.4075793   4.0951232  12.3380325  )
         8           Cd1 tau(   8) = (   1.4075793   4.0951232  12.3380325  )
         9           Fe1 tau(   9) = (   0.0000021   2.8271861  14.4518002  )
        10           Fe1 tau(  10) = (   2.8151481   2.8271516  14.4517445  )
        11           Cd1 tau(  11) = (   4.2228099   0.3823518  15.0167567  )
        12           Cd1 tau(  12) = (   1.4074962   0.3823404  15.0167740  )

     number of k points=    40  Fermi-Dirac smearing, width (Ry)=  0.0110
                       cart. coord. in units 2pi/alat
        k(    1) = (   0.0000000   0.0000000   0.0000000), wk =   0.0277778
        k(    2) = (   0.0000000   0.0329760   0.0000000), wk =   0.0555556
        k(    3) = (   0.0000000   0.0659520   0.0000000), wk =   0.0555556
        k(    4) = (   0.0000000  -0.0989279   0.0000000), wk =   0.0277778
        k(    5) = (   0.0296016   0.0164880   0.0000000), wk =   0.0555556
        k(    6) = (   0.0296016   0.0494640   0.0000000), wk =   0.0555556
        k(    7) = (   0.0296016   0.0824400   0.0000000), wk =   0.0555556
        k(    8) = (   0.0296016  -0.0824400   0.0000000), wk =   0.0555556
        k(    9) = (   0.0296016  -0.0494640   0.0000000), wk =   0.0555556
        k(   10) = (   0.0296016  -0.0164880   0.0000000), wk =   0.0555556
        k(   11) = (   0.0592033   0.0329760   0.0000000), wk =   0.0555556
        k(   12) = (   0.0592033   0.0659520   0.0000000), wk =   0.0555556
        k(   13) = (   0.0592033   0.0989279   0.0000000), wk =   0.0555556
        k(   14) = (   0.0592033  -0.0659520   0.0000000), wk =   0.0555556
        k(   15) = (   0.0592033  -0.0329760   0.0000000), wk =   0.0555556
        k(   16) = (   0.0592033   0.0000000   0.0000000), wk =   0.0555556
        k(   17) = (  -0.0888049  -0.0494640   0.0000000), wk =   0.0277778
        k(   18) = (  -0.0888049  -0.0164880   0.0000000), wk =   0.0555556
        k(   19) = (  -0.0888049   0.0164880   0.0000000), wk =   0.0555556
        k(   20) = (  -0.0888049  -0.1483919   0.0000000), wk =   0.0277778
        k(   21) = (   0.0000000   0.0000000   0.0000000), wk =   0.0277778
        k(   22) = (   0.0000000   0.0329760   0.0000000), wk =   0.0555556
        k(   23) = (   0.0000000   0.0659520   0.0000000), wk =   0.0555556
        k(   24) = (   0.0000000  -0.0989279   0.0000000), wk =   0.0277778
        k(   25) = (   0.0296016   0.0164880   0.0000000), wk =   0.0555556
        k(   26) = (   0.0296016   0.0494640   0.0000000), wk =   0.0555556
        k(   27) = (   0.0296016   0.0824400   0.0000000), wk =   0.0555556
        k(   28) = (   0.0296016  -0.0824400   0.0000000), wk =   0.0555556
        k(   29) = (   0.0296016  -0.0494640   0.0000000), wk =   0.0555556
        k(   30) = (   0.0296016  -0.0164880   0.0000000), wk =   0.0555556
        k(   31) = (   0.0592033   0.0329760   0.0000000), wk =   0.0555556
        k(   32) = (   0.0592033   0.0659520   0.0000000), wk =   0.0555556
        k(   33) = (   0.0592033   0.0989279   0.0000000), wk =   0.0555556
        k(   34) = (   0.0592033  -0.0659520   0.0000000), wk =   0.0555556
        k(   35) = (   0.0592033  -0.0329760   0.0000000), wk =   0.0555556
        k(   36) = (   0.0592033   0.0000000   0.0000000), wk =   0.0555556
        k(   37) = (  -0.0888049  -0.0494640   0.0000000), wk =   0.0277778
        k(   38) = (  -0.0888049  -0.0164880   0.0000000), wk =   0.0555556
        k(   39) = (  -0.0888049   0.0164880   0.0000000), wk =   0.0555556
        k(   40) = (  -0.0888049  -0.1483919   0.0000000), wk =   0.0277778

     Largest allocated arrays     est. size (Mb)     dimensions
     Largest temporary arrays     est. size (Mb)     dimensions

     Check: negative/imaginary core charge=   -0.000004    0.000000

     Initial potential from superposition of free atoms
     Check: negative starting charge=(component1):   -0.076151
     Check: negative starting charge=(component2):   -0.054387

     starting charge  158.99972, renormalised to  168.00000

[...]

     *
     * You are using vdW-DF for exchange-correlation in this calculation.
     * Please cite the following three references that made this development
     * possible:
     *
     *   M. Dion, H. Rydberg, E. Schroder, D. C. Langreth, and
     *   B. I. Lundqvist, Phys. Rev. Lett. 92, 246401 (2004).
     *
     *   T. Thonhauser, V. R. Cooper, S. Li, A. Puzder, P. Hyldgaard, and
     *   D. C. Langreth, Phys. Rev. B 76, 125112 (2007).
     *
     *   G. Roman-Perez and J. M. Soler, Phys. Rev. Lett. 103, 096102 (2009).
     *
     *
     * If you are using vdW-DF2, please also cite:
     *
     *   K. Lee, E. D. Murray, L. Kong, B. I. Lundqvist, and
     *   D. C. Langreth, Phys. Rev. B 82, 081101(R) (2010).
     *
     *
     * If you are calculating the stress with vdW-DF, please also cite:
     *
     *   R. Sabatini, E. Kucukbenli, B. Kolb, T. Thonhauser, and
     *   S. de Gironcoli, J. Phys.: Condens. Matter 24, 424209 (2012).
     *

     Carrying out vdW-DF run using the following parameters:

     Nqs =      20    Nr_points =    1024   r_max =   100.000
     q_mesh =
               0.00001000     0.04494208     0.09755937     0.15916263
               0.23128650     0.31572767     0.41458969     0.53033537
               0.66584808     0.82450364     1.01025438     1.22772762
               1.48234092     1.78043706     2.12944203     2.53805004
               3.01644009     3.57652955     4.23227104     5.00000000

     Gradients computed in reciprocal space

[...]

     Starting wfc are  132 randomized atomic wfcs

     Self-consistent Calculation

[...]

     total energy              =   -2204.22684387 Ry
     Harris-Foulkes estimate   =   -2204.22684164 Ry
     estimated scf accuracy    <       0.00000105 Ry

[...]

     iteration # 30     ecut=    36.75 Ry     beta=0.10
     Davidson diagonalization with overlap
     ethr =  6.22E-10,  avg # of iterations =  1.5

[...]

     negative rho (up, down):  6.774E-02 6.898E-02

[...]

     Adding external electric field

     Computed dipole along edir(3) :
        Dipole                0.0056 Ry au,          0.0143 Debye
        Dipole field          0.0000 Ry au

        Potential amp.       -0.0014 Ry
        Total length         45.4652 bohr

     Magnetic moment per site:
     atom:    1    charge:    7.0934    magn:    1.3478    constr:    0.0000
     atom:    2    charge:    7.0935    magn:    1.3478    constr:    0.0000
     atom:    3    charge:    2.2889    magn:    0.0002    constr:    0.0000
     atom:    4    charge:    2.2889    magn:    0.0002    constr:    0.0000
     atom:    5    charge:    7.0895    magn:    1.2877    constr:    0.0000
     atom:    6    charge:    7.0895    magn:    1.2877    constr:    0.0000
     atom:    7    charge:    2.2910    magn:   -0.0007    constr:    0.0000
     atom:    8    charge:    2.2910    magn:   -0.0007    constr:    0.0000
     atom:    9    charge:    7.0991    magn:    1.3231    constr:    0.0000
     atom:   10    charge:    7.0991    magn:    1.3231    constr:    0.0000
     atom:   11    charge:    2.2932    magn:   -0.0006    constr:    0.0000
     atom:   12    charge:    2.2932    magn:   -0.0006    constr:    0.0000

     End of self-consistent calculation

 ------ SPIN UP ------------

[...]

 ------ SPIN DOWN ----------

[...]

          k = 0.0592 0.0000 0.0000 ( 17868 PWs)   bands (ev):

[...]

          k =-0.0888-0.1484 0.0000 ( 17800 PWs)   bands (ev):

   -84.7578 -84.7578 -84.6968 -84.6968 -84.6620 -84.6620 -50.9333 -50.9332
   -50.8726 -50.8726 -50.8650 -50.8650 -50.8425 -50.8425 -50.8192 -50.8191
   -50.8096 -50.8096 -50.7777 -50.7777 -50.7313 -50.7312 -50.6917 -50.6916
    -8.7538  -8.7538  -8.5800  -8.5800  -8.5231  -8.5231  -8.4119  -8.4119
    -8.3704  -8.3704  -8.1940  -8.1940  -8.1586  -8.1586  -8.0970  -8.0968
    -8.0800  -8.0797  -8.0369  -8.0369  -8.0009  -8.0007  -7.9802  -7.9802
    -7.8997  -7.8995  -7.8427  -7.8427  -7.7835  -7.7835  -5.6539  -5.6538
    -3.9836  -3.9834  -2.5679  -2.5678  -1.6427  -1.6426  -0.6935  -0.6934
    -0.1902  -0.1901  -0.0248  -0.0248   0.1971   0.1972   0.3644   0.3645
     0.4960   0.4960   0.5661   0.5662   0.6974   0.6974   0.8982   0.8982
     0.9695   0.9696   1.1898   1.1898   1.4473   1.4473   1.6494   1.6494
     1.8398   1.8399   1.9627   1.9628   2.2378   2.2378   2.8964   2.8964
     3.5514   3.5514   5.0969   5.0970   5.8336   5.8336   5.9251   5.9251
     5.9810   5.9810   6.3663   6.3663   6.4477   6.4478   7.3084   7.3084
     7.4384   7.4385

     the Fermi energy is     0.6697 ev

!    total energy              =   -2204.22685332 Ry
     Harris-Foulkes estimate   =   -2204.22684398 Ry
     estimated scf accuracy    <       0.00000071 Ry

     The total energy is the sum of the following terms:

     one-electron contribution =  -15262.95532295 Ry
     hartree contribution      =    7677.02213922 Ry
     xc contribution           =    -426.61913575 Ry
     ewald contribution        =    5808.39948414 Ry
     electric field correction =       0.00000008 Ry
     smearing contrib. (-TS)   =      -0.07401806 Ry

     total magnetization       =    16.26 Bohr mag/cell
     absolute magnetization    =    18.61 Bohr mag/cell

     convergence has been achieved in  30 iterations

 BEEF-vdW xc energy contributions
           1 :   -373.711419084490
           2 :    340.124050857834
           3 :   -283.789611207648
           4 :    221.117652140752
           5 :   -166.862245362325
           6 :    128.776685085574
           7 :   -106.463348546278
           8 :    94.1067051208574
           9 :   -84.9111860847324
          10 :    74.6485139185345
          11 :   -62.8034018849332
          12 :    51.3895541923165
          13 :   -42.7479548990369
          14 :    37.8283511725810
          15 :   -35.8007702320810
          16 :    34.8384126072574
          17 :   -33.3138810695538
          18 :    30.6145939503160
          19 :   -27.2255221695342
          20 :    24.1922719489579
          21 :   -22.3839573118441
          22 :    21.9727199349563
          23 :   -22.3803090893226
          24 :    22.6585819611734
          25 :   -22.0644153515979
          26 :    20.4844224613867
          27 :   -18.4703289992080
          28 :    16.8623683423067
          29 :   -16.2451086529024
          30 :    16.5785355865556
          31 :   -33.2576283418125
          32 :   -23.9158360801709

     Forces acting on atoms (Ry/au):

     negative rho (up, down):  6.774E-02 6.898E-02
     atom    1 type  1   force =     0.00000002    0.01273196    0.02022574
     atom    2 type  1   force =    -0.00000009    0.01273686    0.02022500
     atom    3 type  2   force =     0.00000477   -0.01287039   -0.03270445
     atom    4 type  2   force =    -0.00000490   -0.01287036   -0.03270502
     atom    5 type  1   force =    -0.00000001   -0.01243180    0.00186130
     atom    6 type  1   force =     0.00000020   -0.01243881    0.00185889
     atom    7 type  2   force =    -0.00000852    0.01238513    0.01100724
     atom    8 type  2   force =     0.00000834    0.01238486    0.01100524
     atom    9 type  1   force =     0.00000032   -0.00120934   -0.00007662
     atom   10 type  1   force =    -0.00000045   -0.00121702   -0.00007826
     atom   11 type  2   force =    -0.00004248    0.00139934   -0.00030930
     atom   12 type  2   force =     0.00004282    0.00139956   -0.00030975

     Total force =     0.066972     Total SCF correction =     0.002674

     entering subroutine stress ...

     negative rho (up, down):  6.774E-02 6.898E-02
          total   stress  (Ry/bohr**3)                   (kbar)     P=   -8.84
  -0.00008632  -0.00000000   0.00000000        -12.70     -0.00      0.00
  -0.00000000  -0.00010004   0.00000071         -0.00    -14.72      0.10
   0.00000000   0.00000071   0.00000604          0.00      0.10      0.89

 !ASE

     Writing output data file calc.save

     General routines

     Parallel routines

   This run was terminated on:   4:13: 0  19Dec2018

   JOB DONE.
Job  /afs/slac/g/suncat/bin/suncat-tsmpirun -x LD_LIBRARY_PATH -wdir /scratch/qe529915_DookJ pw.x -in pw.inp

TID   HOST_NAME   COMMAND_LINE            STATUS            TERMINATION_TIME
00000 suncat1062 pw.x -in pw.inp   Done                     12/19/2018 04:13:00
00001 suncat1062 pw.x -in pw.inp   Done                     12/19/2018 04:13:00
00002 suncat1062 pw.x -in pw.inp   Done                     12/19/2018 04:13:00
00003 suncat1062 pw.x -in pw.inp   Done                     12/19/2018 04:13:00
00004 suncat1062 pw.x -in pw.inp   Done                     12/19/2018 04:13:00
00005 suncat1062 pw.x -in pw.inp   Done                     12/19/2018 04:13:00
00006 suncat1062 pw.x -in pw.inp   Done                     12/19/2018 04:13:00
00007 suncat1062 pw.x -in pw.inp   Done                     12/19/2018 04:13:00
00008 suncat1010 pw.x -in pw.inp   Done                     12/19/2018 04:13:00
00009 suncat1010 pw.x -in pw.inp   Done                     12/19/2018 04:13:00
00010 suncat1010 pw.x -in pw.inp   Done                     12/19/2018 04:13:00
00011 suncat1010 pw.x -in pw.inp   Done                     12/19/2018 04:13:00
00012 suncat1010 pw.x -in pw.inp   Done                     12/19/2018 04:13:00
00013 suncat1010 pw.x -in pw.inp   Done                     12/19/2018 04:13:00
00014 suncat1010 pw.x -in pw.inp   Done                     12/19/2018 04:13:00
00015 suncat1010 pw.x -in pw.inp   Done                     12/19/2018 04:13:00
00016 suncat1010 pw.x -in pw.inp   Done                     12/19/2018 04:13:00
00017 suncat1010 pw.x -in pw.inp   Done                     12/19/2018 04:13:00
00018 suncat1010 pw.x -in pw.inp   Done                     12/19/2018 04:13:00
00019 suncat1010 pw.x -in pw.inp   Done                     12/19/2018 04:13:00
00020 suncat1009 pw.x -in pw.inp   Done                     12/19/2018 04:13:00
00021 suncat1009 pw.x -in pw.inp   Done                     12/19/2018 04:13:00
00022 suncat1009 pw.x -in pw.inp   Done                     12/19/2018 04:13:00
00023 suncat1009 pw.x -in pw.inp   Done                     12/19/2018 04:13:00
00024 suncat1009 pw.x -in pw.inp   Done                     12/19/2018 04:13:00
00025 suncat1009 pw.x -in pw.inp   Done                     12/19/2018 04:13:00
00026 suncat1009 pw.x -in pw.inp   Done                     12/19/2018 04:13:00
00027 suncat1009 pw.x -in pw.inp   Done                     12/19/2018 04:13:00
00028 suncat1009 pw.x -in pw.inp   Done                     12/19/2018 04:13:00
00029 suncat1009 pw.x -in pw.inp   Done                     12/19/2018 04:13:00
00030 suncat1009 pw.x -in pw.inp   Done                     12/19/2018 04:13:00
00031 suncat1009 pw.x -in pw.inp   Done                     12/19/2018 04:13:00