     Program PWSCF v.5.1rc2 (svn rev. 11289) starts on 19Dec2018 at  4:15:27

     Current dimensions of program PWSCF are:
     Max number of different atomic species (ntypx) = 10
     Max number of k-points (npk) =  40000
     Max angular momentum in pseudopotentials (lmaxx) =  3
     Presently stress not available with electric field

     IMPORTANT: XC functional enforced from input :
     Exchange-correlation      = BEEF-VDW ( 1  4 27 13 2)
     Any further DFT definition will be discarded
     Please, verify this is what you really want

     Subspace diagonalization in iterative solution of the eigenvalue problem:
     a serial algorithm will be used

     Found symmetry operation: I + ( -0.5000 -0.5000  0.0000)
     This is a supercell, fractional translations are disabled

     bravais-lattice index     =            0
     lattice parameter (alat)  =       1.8897  a.u.
     unit-cell volume          =    5205.9684 (a.u.)^3
     number of atoms/cell      =           12
     number of atomic types    =            2
     number of electrons       =       174.00
     number of Kohn-Sham states=          117
     kinetic-energy cutoff     =      36.7493  Ry
     charge density cutoff     =     367.4932  Ry
     convergence threshold     =      1.0E-06
     mixing beta               =       0.1000
     number of iterations used =           10  plain     mixing
     Exchange-correlation      = BEEF-VDW ( 1  4 27 13 2)
     nstep                     =           50

     celldm(1)=   1.889726  celldm(2)=   0.000000  celldm(3)=   0.000000
     celldm(4)=   0.000000  celldm(5)=   0.000000  celldm(6)=   0.000000

     crystal axes: (cart. coord. in units of alat)
               a(1) = (   5.755724   0.000000   0.000000 )
               a(2) = (   1.918898   5.426434   0.000000 )
               a(3) = (   0.000000   0.000000  24.699628 )

     reciprocal axes: (cart. coord. in units 2 pi/alat)
               b(1) = (  0.173740 -0.061438  0.000000 )
               b(2) = (  0.000000  0.184283  0.000000 )
               b(3) = (  0.000000  0.000000  0.040486 )

     PseudoPot. # 1 for Ru read from file:
     /afs/slac.stanford.edu/u/if/mamunm/psp/gbrv1.5pbe/Ru.UPF
     MD5 check sum: 7158a806dd851261a58e6920c40ebe78
     Pseudo is Ultrasoft + core correction, Zval = 16.0
     Generated by new atomic code, or converted to UPF format
     Using radial grid of  967 points,  6 beta functions with:
                l(1) =   0
                l(2) =   0
                l(3) =   1
                l(4) =   1
                l(5) =   2
                l(6) =   2
     Q(r) pseudized with  8 coefficients,  rinner =    1.300   1.300   1.300
                                                       1.300   1.300

     PseudoPot. # 2 for Tl read from file:
     /afs/slac.stanford.edu/u/if/mamunm/psp/gbrv1.5pbe/Tl.UPF
     MD5 check sum: b76cf1f7e72655a2b2c53cf6385d7059
     Pseudo is Ultrasoft + core correction, Zval = 13.0
     Generated by new atomic code, or converted to UPF format
     Using radial grid of  899 points,  6 beta functions with:
                l(1) =   0
                l(2) =   0
                l(3) =   1
                l(4) =   1
                l(5) =   2
                l(6) =   2
     Q(r) pseudized with  6 coefficients,  rinner =    1.100   1.100   1.100
                                                       1.100   1.100

     vdW kernel table read from file vdW_kernel_table
     MD5 check sum: 095c7af220d748ca6e76c0b4c6cfb241

     atomic species   valence    mass     pseudopotential
        Ru1           16.00   101.07000     Ru( 1.00)
        Tl1           13.00   204.38000     Tl( 1.00)

     No symmetry found

   Cartesian axes

     site n.     atom                  positions (alat units)
         1           Ru1 tau(   1) = (   0.0000000   0.0000000  10.0000000  )
         2           Ru1 tau(   2) = (   3.8373112   2.7132171  10.0000000  )
         3           Tl1 tau(   3) = (   2.8778620   0.0000000  10.0000000  )
         4           Tl1 tau(   4) = (   0.9594492   2.7132171  10.0000000  )
         5           Ru1 tau(   5) = (   5.7557241   4.0696541  12.3498140  )
         6           Ru1 tau(   6) = (   1.9184129   1.3564369  12.3498140  )
         7           Tl1 tau(   7) = (   2.8778620   4.0696541  12.3498140  )
         8           Tl1 tau(   8) = (   4.7962749   1.3564369  12.3498140  )
         9           Ru1 tau(   9) = (   3.8368257   2.7128739  14.6996281  )
        10           Ru1 tau(  10) = (   7.6741369   5.4260910  14.6996281  )
        11           Tl1 tau(  11) = (   6.7146878   2.7128739  14.6996281  )
        12           Tl1 tau(  12) = (   4.7962749   5.4260910  14.6996281  )

     number of k points=    20  Fermi-Dirac smearing, width (Ry)=  0.0110
                       cart. coord. in units 2pi/alat
        k(    1) = (   0.0000000   0.0000000   0.0000000), wk =   0.0555556
        k(    2) = (   0.0000000   0.0307138   0.0000000), wk =   0.1111111
        k(    3) = (   0.0000000   0.0614277   0.0000000), wk =   0.1111111
        k(    4) = (   0.0000000  -0.0921415   0.0000000), wk =   0.0555556
        k(    5) = (   0.0289567  -0.0102397   0.0000000), wk =   0.1111111
        k(    6) = (   0.0289567   0.0204742   0.0000000), wk =   0.1111111
        k(    7) = (   0.0289567   0.0511880   0.0000000), wk =   0.1111111
        k(    8) = (   0.0289567  -0.1023812   0.0000000), wk =   0.1111111
        k(    9) = (   0.0289567  -0.0716674   0.0000000), wk =   0.1111111
        k(   10) = (   0.0289567  -0.0409535   0.0000000), wk =   0.1111111
        k(   11) = (   0.0579134  -0.0204794   0.0000000), wk =   0.1111111
        k(   12) = (   0.0579134   0.0102345   0.0000000), wk =   0.1111111
        k(   13) = (   0.0579134   0.0409483   0.0000000), wk =   0.1111111
        k(   14) = (   0.0579134  -0.1126209   0.0000000), wk =   0.1111111
        k(   15) = (   0.0579134  -0.0819070   0.0000000), wk =   0.1111111
        k(   16) = (   0.0579134  -0.0511932   0.0000000), wk =   0.1111111
        k(   17) = (  -0.0868700   0.0307190   0.0000000), wk =   0.0555556
        k(   18) = (  -0.0868700   0.0614329   0.0000000), wk =   0.1111111
        k(   19) = (  -0.0868700   0.0921467   0.0000000), wk =   0.1111111
        k(   20) = (  -0.0868700  -0.0614225   0.0000000), wk =   0.0555556

     Largest allocated arrays     est. size (Mb)     dimensions
     Largest temporary arrays     est. size (Mb)     dimensions

     Check: negative/imaginary core charge=   -0.000001    0.000000

     Initial potential from superposition of free atoms
     Check: negative starting charge=   -0.748407

     starting charge  167.97071, renormalised to  174.00000

     negative rho (up, down):  7.753E-01 0.000E+00

     *
     * You are using vdW-DF for exchange-correlation in this calculation.
     * Please cite the following three references that made this development
     * possible:
     *
     *   M. Dion, H. Rydberg, E. Schroder, D. C. Langreth, and
     *   B. I. Lundqvist, Phys. Rev. Lett. 92, 246401 (2004).
     *
     *   T. Thonhauser, V. R. Cooper, S. Li, A. Puzder, P. Hyldgaard, and
     *   D. C. Langreth, Phys. Rev. B 76, 125112 (2007).
     *
     *   G. Roman-Perez and J. M. Soler, Phys. Rev. Lett. 103, 096102 (2009).
     *
     *
     * If you are using vdW-DF2, please also cite:
     *
     *   K. Lee, E. D. Murray, L. Kong, B. I. Lundqvist, and
     *   D. C. Langreth, Phys. Rev. B 82, 081101(R) (2010).
     *
     *
     * If you are calculating the stress with vdW-DF, please also cite:
     *
     *   R. Sabatini, E. Kucukbenli, B. Kolb, T. Thonhauser, and
     *   S. de Gironcoli, J. Phys.: Condens. Matter 24, 424209 (2012).
     *

     Carrying out vdW-DF run using the following parameters:

     Nqs =      20    Nr_points =    1024   r_max =   100.000
     q_mesh =
               0.00001000     0.04494208     0.09755937     0.15916263
               0.23128650     0.31572767     0.41458969     0.53033537
               0.66584808     0.82450364     1.01025438     1.22772762
               1.48234092     1.78043706     2.12944203     2.53805004
               3.01644009     3.57652955     4.23227104     5.00000000

     Gradients computed in reciprocal space

     Adding external electric field

     Computed dipole along edir(3) :
        Dipole                0.0000 Ry au,          0.0000 Debye
        Dipole field          0.0000 Ry au

        Potential amp.       -0.0000 Ry
        Total length         45.5086 bohr

     Starting wfc are  132 randomized atomic wfcs

     Self-consistent Calculation

     iteration #  1     ecut=    36.75 Ry     beta=0.10
     Davidson diagonalization with overlap
     ethr =  1.00E-02,  avg # of iterations =  8.2

[...]

     total energy              =   -2051.36301867 Ry
     Harris-Foulkes estimate   =   -2051.69258183 Ry
     estimated scf accuracy    <       2.18218713 Ry

[...]

     iteration #  9     ecut=    36.75 Ry     beta=0.10
     Davidson diagonalization with overlap
     c_bands:  1 eigenvalues not converged
     ethr =  2.61E-06,  avg # of iterations =  5.5

[...]

     End of self-consistent calculation

          k = 0.0000 0.0000 0.0000 ( 19631 PWs)   bands (ev):

   -70.4540 -70.4507 -70.3716 -70.3716 -70.3684 -70.3684 -40.5118 -40.5075
   -40.4735 -40.4677 -40.4638 -40.4588 -40.4584 -40.4139 -40.4008 -40.3997
   -40.3622 -40.3597 -40.3574 -40.3524 -40.3455 -40.3415 -40.3399 -40.3366
   -10.4001 -10.3295 -10.2954 -10.2761 -10.2561 -10.1705 -10.1535 -10.1104
   -10.0879 -10.0532 -10.0086  -9.9893  -9.9863  -9.9527  -9.9483  -9.9219
    -9.8865  -9.8585  -9.8445  -9.8166  -9.7783  -9.7779  -9.7563  -9.7367
    -9.6809  -9.6764  -9.5091  -9.4970  -9.4716  -9.3894  -7.9220  -6.2107
    -4.6826  -4.4899  -4.0829  -4.0223  -1.0762  -0.9403  -0.6052  -0.4691
    -0.4619  -0.3580  -0.2271  -0.0844   0.1389   0.2695   0.3172   0.4437
     0.5125   0.6070   0.7103   0.8775   0.9156   1.0349   1.1556   1.1685
     1.1768   1.2936   1.2958   1.3399   1.3825   1.3943   1.4451   1.4481
     1.5017   1.5209   1.6726   1.8815   2.1634   2.5348   2.6885   3.0851
     3.1088   3.7643   4.5195   4.7099   5.0081   5.2397   5.5200   5.5914
     5.6328   5.7982   5.9380   6.7091   6.7885   7.0529   7.1841   7.3674
     7.4806   7.7765   8.3349   8.6762   9.0135

[...]

          k =-0.0869 0.0307 0.0000 ( 19604 PWs)   bands (ev):

[...]

     the Fermi energy is     1.4816 ev

!    total energy              =   -2050.88357375 Ry
     Harris-Foulkes estimate   =   -2050.88359836 Ry
     estimated scf accuracy    <       0.00000019 Ry

     The total energy is the sum of the following terms:

     one-electron contribution =  -14317.32287374 Ry
     hartree contribution      =    7202.70417173 Ry
     xc contribution           =    -545.76337131 Ry
     ewald contribution        =    5609.59032856 Ry
     electric field correction =       0.00000000 Ry
     smearing contrib. (-TS)   =      -0.09182898 Ry

     convergence has been achieved in  20 iterations

 BEEF-vdW xc energy contributions
           1 :   -482.571657547681
           2 :    446.789099376966
           3 :   -384.065620670594
[...]
00030 suncat2039 pw.x -in pw.inp   Done                     12/19/2018 04:21:37
00031 suncat2039 pw.x -in pw.inp   Done                     12/19/2018 04:21:37

[...]

     iteration #  9     ecut=    36.75 Ry     beta=0.10
     Davidson diagonalization with overlap
     c_bands:  1 eigenvalues not converged
     ethr =  9.83E-06,  avg # of iterations =  8.7

[...]

     Program PWSCF v.5.1rc2 (svn rev. 11289) starts on 19Dec2018 at  4:46:24

     Current dimensions of program PWSCF are:
     Max number of different atomic species (ntypx) = 10
     Max number of k-points (npk) =  40000
     Max angular momentum in pseudopotentials (lmaxx) =  3
     Presently stress not available with electric field

     IMPORTANT: XC functional enforced from input :
     Exchange-correlation      = BEEF-VDW ( 1  4 27 13 2)
     Any further DFT definition will be discarded
     Please, verify this is what you really want

     Subspace diagonalization in iterative solution of the eigenvalue problem:
     a serial algorithm will be used

     Found symmetry operation: I + ( -0.5000 -0.5000  0.0000)
     This is a supercell, fractional translations are disabled

     bravais-lattice index     =            0
     lattice parameter (alat)  =       1.8897  a.u.
     unit-cell volume          =    5205.9684 (a.u.)^3
     number of atoms/cell      =           12
     number of atomic types    =            2
     number of electrons       =       174.00
     number of Kohn-Sham states=          117
     kinetic-energy cutoff     =      36.7493  Ry
     charge density cutoff     =     367.4932  Ry
     convergence threshold     =      1.0E-06
     mixing beta               =       0.1000
     number of iterations used =           10  plain     mixing
     Exchange-correlation      = BEEF-VDW ( 1  4 27 13 2)
     nstep                     =           50

     celldm(1)=   1.889726  celldm(2)=   0.000000  celldm(3)=   0.000000
     celldm(4)=   0.000000  celldm(5)=   0.000000  celldm(6)=   0.000000

     crystal axes: (cart. coord. in units of alat)
               a(1) = (   5.755724   0.000000   0.000000 )
               a(2) = (   1.918898   5.426434   0.000000 )
               a(3) = (   0.000000   0.000000  24.699628 )

     reciprocal axes: (cart. coord. in units 2 pi/alat)
               b(1) = (  0.173740 -0.061438  0.000000 )
               b(2) = (  0.000000  0.184283  0.000000 )
               b(3) = (  0.000000  0.000000  0.040486 )

     PseudoPot. # 1 for Ru read from file:
     /afs/slac.stanford.edu/u/if/mamunm/psp/gbrv1.5pbe/Ru.UPF
     MD5 check sum: 7158a806dd851261a58e6920c40ebe78
     Pseudo is Ultrasoft + core correction, Zval = 16.0
     Generated by new atomic code, or converted to UPF format
     Using radial grid of  967 points,  6 beta functions with:
                l(1) =   0
                l(2) =   0
                l(3) =   1
                l(4) =   1
                l(5) =   2
                l(6) =   2
     Q(r) pseudized with  8 coefficients,  rinner =    1.300   1.300   1.300
                                                       1.300   1.300

     PseudoPot. # 2 for Tl read from file:
     /afs/slac.stanford.edu/u/if/mamunm/psp/gbrv1.5pbe/Tl.UPF
     MD5 check sum: b76cf1f7e72655a2b2c53cf6385d7059
     Pseudo is Ultrasoft + core correction, Zval = 13.0
     Generated by new atomic code, or converted to UPF format
     Using radial grid of  899 points,  6 beta functions with:
                l(1) =   0
                l(2) =   0
                l(3) =   1
                l(4) =   1
                l(5) =   2
                l(6) =   2
     Q(r) pseudized with  6 coefficients,  rinner =    1.100   1.100   1.100
                                                       1.100   1.100

     vdW kernel table read from file vdW_kernel_table
     MD5 check sum: 095c7af220d748ca6e76c0b4c6cfb241

     atomic species   valence    mass     pseudopotential
        Ru1           16.00   101.07000     Ru( 1.00)
        Tl1           13.00   204.38000     Tl( 1.00)

     No symmetry found

   Cartesian axes

     site n.     atom                  positions (alat units)
         1           Ru1 tau(   1) = (   0.0000000   0.0000000  10.0000000  )
         2           Ru1 tau(   2) = (   3.8373112   2.7132171  10.0000000  )
         3           Tl1 tau(   3) = (   2.8778620   0.0000000  10.0000000  )
         4           Tl1 tau(   4) = (   0.9594492   2.7132171  10.0000000  )
         5           Ru1 tau(   5) = (   5.7557241   4.0696541  12.3498140  )
         6           Ru1 tau(   6) = (   1.9184129   1.3564369  12.3498140  )
         7           Tl1 tau(   7) = (   2.8778620   4.0696541  12.3498140  )
         8           Tl1 tau(   8) = (   4.7962749   1.3564369  12.3498140  )
         9           Ru1 tau(   9) = (   3.8368501   2.7128861  14.5342287  )
        10           Ru1 tau(  10) = (   7.6741404   5.4260915  14.5342273  )
        11           Tl1 tau(  11) = (   6.7147193   2.7129119  14.9587435  )
        12           Tl1 tau(  12) = (   4.7963262   5.4261076  14.9587425  )

     number of k points=    20  Fermi-Dirac smearing, width (Ry)=  0.0110
                       cart. coord. in units 2pi/alat
        k(    1) = (   0.0000000   0.0000000   0.0000000), wk =   0.0555556
        k(    2) = (   0.0000000   0.0307138   0.0000000), wk =   0.1111111
        k(    3) = (   0.0000000   0.0614277   0.0000000), wk =   0.1111111
        k(    4) = (   0.0000000  -0.0921415   0.0000000), wk =   0.0555556
        k(    5) = (   0.0289567  -0.0102397   0.0000000), wk =   0.1111111
        k(    6) = (   0.0289567   0.0204742   0.0000000), wk =   0.1111111
        k(    7) = (   0.0289567   0.0511880   0.0000000), wk =   0.1111111
        k(    8) = (   0.0289567  -0.1023812   0.0000000), wk =   0.1111111
        k(    9) = (   0.0289567  -0.0716674   0.0000000), wk =   0.1111111
        k(   10) = (   0.0289567  -0.0409535   0.0000000), wk =   0.1111111
        k(   11) = (   0.0579134  -0.0204794   0.0000000), wk =   0.1111111
        k(   12) = (   0.0579134   0.0102345   0.0000000), wk =   0.1111111
        k(   13) = (   0.0579134   0.0409483   0.0000000), wk =   0.1111111
        k(   14) = (   0.0579134  -0.1126209   0.0000000), wk =   0.1111111
        k(   15) = (   0.0579134  -0.0819070   0.0000000), wk =   0.1111111
        k(   16) = (   0.0579134  -0.0511932   0.0000000), wk =   0.1111111
        k(   17) = (  -0.0868700   0.0307190   0.0000000), wk =   0.0555556
        k(   18) = (  -0.0868700   0.0614329   0.0000000), wk =   0.1111111
        k(   19) = (  -0.0868700   0.0921467   0.0000000), wk =   0.1111111
        k(   20) = (  -0.0868700  -0.0614225   0.0000000), wk =   0.0555556

     Largest allocated arrays     est. size (Mb)     dimensions
     Largest temporary arrays     est. size (Mb)     dimensions

     Check: negative/imaginary core charge=   -0.000001    0.000000

     Initial potential from superposition of free atoms
     Check: negative starting charge=   -0.748627

     starting charge  167.97071, renormalised to  174.00000

[...]

     *
     * You are using vdW-DF for exchange-correlation in this calculation.
     * Please cite the following three references that made this development
     * possible:
     *
     *   M. Dion, H. Rydberg, E. Schroder, D. C. Langreth, and
     *   B. I. Lundqvist, Phys. Rev. Lett. 92, 246401 (2004).
     *
     *   T. Thonhauser, V. R. Cooper, S. Li, A. Puzder, P. Hyldgaard, and
     *   D. C. Langreth, Phys. Rev. B 76, 125112 (2007).
     *
     *   G. Roman-Perez and J. M. Soler, Phys. Rev. Lett. 103, 096102 (2009).
     *
     *
     * If you are using vdW-DF2, please also cite:
     *
     *   K. Lee, E. D. Murray, L. Kong, B. I. Lundqvist, and
     *   D. C. Langreth, Phys. Rev. B 82, 081101(R) (2010).
     *
     *
     * If you are calculating the stress with vdW-DF, please also cite:
     *
     *   R. Sabatini, E. Kucukbenli, B. Kolb, T. Thonhauser, and
     *   S. de Gironcoli, J. Phys.: Condens. Matter 24, 424209 (2012).
     *

     Carrying out vdW-DF run using the following parameters:

     Nqs =      20    Nr_points =    1024   r_max =   100.000
     q_mesh =
               0.00001000     0.04494208     0.09755937     0.15916263
               0.23128650     0.31572767     0.41458969     0.53033537
               0.66584808     0.82450364     1.01025438     1.22772762
               1.48234092     1.78043706     2.12944203     2.53805004
               3.01644009     3.57652955     4.23227104     5.00000000

     Gradients computed in reciprocal space

[...]

     Starting wfc are  132 randomized atomic wfcs

     Self-consistent Calculation

[...]

     total energy              =   -2050.91639779 Ry
     Harris-Foulkes estimate   =   -2050.91640317 Ry
     estimated scf accuracy    <       0.00000116 Ry

     iteration # 20     ecut=    36.75 Ry     beta=0.10
     Davidson diagonalization with overlap
     ethr =  6.68E-10,  avg # of iterations =  3.0

[...]

     negative rho (up, down):  7.845E-01 0.000E+00

     Adding external electric field

     Computed dipole along edir(3) :
        Dipole                0.0246 Ry au,          0.0625 Debye
        Dipole field          0.0001 Ry au

        Potential amp.       -0.0054 Ry
        Total length         45.5086 bohr

     End of self-consistent calculation

[...]

          k = 0.0579-0.0512 0.0000 ( 19583 PWs)   bands (ev):

[...]

          k =-0.0869-0.0614 0.0000 ( 19498 PWs)   bands (ev):

   -70.4304 -70.4274 -70.4043 -70.4008 -70.3463 -70.3430 -40.5028 -40.5013
   -40.4938 -40.4435 -40.4369 -40.4337 -40.4303 -40.4211 -40.3768 -40.3758
   -40.3751 -40.3743 -40.3716 -40.3648 -40.3391 -40.3357 -40.3126 -40.3071
   -10.2861 -10.1647 -10.1584 -10.1052 -10.1037 -10.0920 -10.0428  -9.9671
    -9.9449  -9.9193  -9.9094  -9.8850  -9.8782  -9.8694  -9.8244  -9.7860
    -9.7841  -9.7736  -9.7624  -9.7465  -9.7360  -9.7201  -9.6839  -9.6571
    -9.6567  -9.6428  -9.6080  -9.4755  -9.4704  -9.3664  -6.0149  -5.8041
    -5.0043  -4.8350  -3.7097  -2.6842  -2.5564  -2.2235  -1.9217  -1.5768
    -1.5333  -1.3347  -0.8859  -0.6851  -0.6178  -0.4379  -0.4022  -0.2919
    -0.0242  -0.0104   0.2894   0.3082   0.3088   0.3586   0.4879   0.7702
     0.8002   0.9959   1.2362   1.3628   1.3862   1.4210   1.4316   1.6974
     1.8543   1.9684   1.9767   2.1180   2.7090   2.9001   3.0566   3.8659
     4.1726   4.5262   4.6364   5.7018   6.0157   6.5824   6.6383   6.7598
     7.0104   7.1723   7.2682   7.3994   7.8827   7.9982   8.1953   8.2261
     8.3218   8.3416   8.4361   8.7238   8.7951

     the Fermi energy is     1.5016 ev

!    total energy              =   -2050.91638011 Ry
     Harris-Foulkes estimate   =   -2050.91639795 Ry
     estimated scf accuracy    <       0.00000052 Ry

     The total energy is the sum of the following terms:

     one-electron contribution =  -14252.60689980 Ry
     hartree contribution      =    7170.47820834 Ry
     xc contribution           =    -545.66335061 Ry
     ewald contribution        =    5576.97025583 Ry
     electric field correction =       0.00000146 Ry
     smearing contrib. (-TS)   =      -0.09459533 Ry

     convergence has been achieved in  20 iterations

 BEEF-vdW xc energy contributions
           1 :   -482.472474224963
           2 :    446.650634373492
           3 :   -383.874707947838
           4 :    308.396023102577
           5 :   -234.843640105459
           6 :    173.789111752174
           7 :   -129.465225232037
           8 :    100.115386128051
           9 :   -80.4216308864081
          10 :    64.6828058264610
          11 :   -49.3178991266909
          12 :    33.7613741673405
          13 :   -19.7111807332523
          14 :    9.43506192605400
          15 :   -4.16060523280078
          16 :    3.32179695019897
          17 :   -4.88746094534417
          18 :    6.42371079337306
          19 :   -6.24779802418595
          20 :    4.06874438469424
          21 :  -0.854278781482208
          22 :   -1.91618520834811
          23 :    3.14560058230143
          24 :   -2.67534480639233
          25 :    1.25008865335678
          26 :   8.678591616899212E-003
          27 :  -0.273989502663539
          28 :  -0.559259332253191
          29 :    1.90008248581626
          30 :   -2.88129324689362
          31 :   -41.9412939640029
          32 :   -31.1034103399604

     Forces acting on atoms (Ry/au):

     negative rho (up, down):  7.845E-01 0.000E+00
     atom    1 type  1   force =     0.00000209    0.00000298    0.04048381
     atom    2 type  1   force =     0.00000393    0.00000311    0.04049131
     atom    3 type  2   force =    -0.00001681   -0.00000073   -0.03889337
     atom    4 type  2   force =    -0.00000385   -0.00001273   -0.03889409
     atom    5 type  1   force =    -0.00000339   -0.00000275    0.01733678
     atom    6 type  1   force =    -0.00000405   -0.00000257    0.01733465
     atom    7 type  2   force =     0.00001004    0.00001180   -0.01962008
     atom    8 type  2   force =     0.00001728    0.00000373   -0.01962207
     atom    9 type  1   force =    -0.00000105    0.00000028   -0.00022937
     atom   10 type  1   force =     0.00000459    0.00000337   -0.00023481
     atom   11 type  2   force =     0.00000243   -0.00001463    0.00092237
     atom   12 type  2   force =    -0.00001121    0.00000814    0.00092487

     Total force =     0.087617     Total SCF correction =     0.002460

     entering subroutine stress ...

     negative rho (up, down):  7.845E-01 0.000E+00
          total   stress  (Ry/bohr**3)                   (kbar)     P=  -16.55
  -0.00016423  -0.00003592   0.00000001        -24.16     -5.28      0.00
  -0.00003592  -0.00013882   0.00000001         -5.28    -20.42      0.00
   0.00000001   0.00000001  -0.00003444          0.00      0.00     -5.07

 !ASE

     Writing output data file calc.save

     General routines

     Parallel routines

   This run was terminated on:   4:52:44  19Dec2018

   JOB DONE.
Job  /afs/slac/g/suncat/bin/suncat-tsmpirun -x LD_LIBRARY_PATH -wdir /scratch/qe530539_D58i1 pw.x -in pw.inp

TID   HOST_NAME   COMMAND_LINE            STATUS            TERMINATION_TIME
00000 suncat2040 pw.x -in pw.inp   Done                     12/19/2018 04:52:44
00001 suncat2040 pw.x -in pw.inp   Done                     12/19/2018 04:52:44
00002 suncat2040 pw.x -in pw.inp   Done                     12/19/2018 04:52:44
00003 suncat2040 pw.x -in pw.inp   Done                     12/19/2018 04:52:44
00004 suncat2040 pw.x -in pw.inp   Done                     12/19/2018 04:52:44
00005 suncat2040 pw.x -in pw.inp   Done                     12/19/2018 04:52:44
00006 suncat2040 pw.x -in pw.inp   Done                     12/19/2018 04:52:44
00007 suncat2040 pw.x -in pw.inp   Done                     12/19/2018 04:52:44
00008 suncat2040 pw.x -in pw.inp   Done                     12/19/2018 04:52:44
00009 suncat2040 pw.x -in pw.inp   Done                     12/19/2018 04:52:44
00010 suncat2040 pw.x -in pw.inp   Done                     12/19/2018 04:52:44
00011 suncat2040 pw.x -in pw.inp   Done                     12/19/2018 04:52:44
00012 suncat2040 pw.x -in pw.inp   Done                     12/19/2018 04:52:44
00013 suncat2040 pw.x -in pw.inp   Done                     12/19/2018 04:52:44
00014 suncat2040 pw.x -in pw.inp   Done                     12/19/2018 04:52:44
00015 suncat2040 pw.x -in pw.inp   Done                     12/19/2018 04:52:44
00016 suncat2039 pw.x -in pw.inp   Done                     12/19/2018 04:52:44
00017 suncat2039 pw.x -in pw.inp   Done                     12/19/2018 04:52:44
00018 suncat2039 pw.x -in pw.inp   Done                     12/19/2018 04:52:44
00019 suncat2039 pw.x -in pw.inp   Done                     12/19/2018 04:52:44
00020 suncat2039 pw.x -in pw.inp   Done                     12/19/2018 04:52:44
00021 suncat2039 pw.x -in pw.inp   Done                     12/19/2018 04:52:44
00022 suncat2039 pw.x -in pw.inp   Done                     12/19/2018 04:52:44
00023 suncat2039 pw.x -in pw.inp   Done                     12/19/2018 04:52:44
00024 suncat2039 pw.x -in pw.inp   Done                     12/19/2018 04:52:44
00025 suncat2039 pw.x -in pw.inp   Done                     12/19/2018 04:52:44
00026 suncat2039 pw.x -in pw.inp   Done                     12/19/2018 04:52:44
00027 suncat2039 pw.x -in pw.inp   Done                     12/19/2018 04:52:44
00028 suncat2039 pw.x -in pw.inp   Done                     12/19/2018 04:52:44
00029 suncat2039 pw.x -in pw.inp   Done                     12/19/2018 04:52:44
00030 suncat2039 pw.x -in pw.inp   Done                     12/19/2018 04:52:44
00031 suncat2039 pw.x -in pw.inp   Done                     12/19/2018 04:52:44