     Program PWSCF v.5.1rc2 (svn rev. 11289) starts on 19Dec2018 at  6:58:51

     Current dimensions of program PWSCF are:
     Max number of different atomic species (ntypx) = 10
     Max number of k-points (npk) =  40000
     Max angular momentum in pseudopotentials (lmaxx) =  3
     Presently stress not available with electric field

     IMPORTANT: XC functional enforced from input :
     Exchange-correlation      = BEEF-VDW ( 1  4 27 13 2)
     Any further DFT definition will be discarded
     Please, verify this is what you really want

     Subspace diagonalization in iterative solution of the eigenvalue problem:
     a serial algorithm will be used

     Found symmetry operation: I + ( -0.5000  0.0000  0.0000)
     This is a supercell, fractional translations are disabled

     bravais-lattice index     =            0
     lattice parameter (alat)  =       1.8897  a.u.
     unit-cell volume          =    4110.1121 (a.u.)^3
     number of atoms/cell      =           12
     number of atomic types    =            2
     number of electrons       =       180.00
     number of Kohn-Sham states=          120
     kinetic-energy cutoff     =      36.7493  Ry
     charge density cutoff     =     367.4932  Ry
     convergence threshold     =      1.0E-06
     mixing beta               =       0.1000
     number of iterations used =           10  plain     mixing
     Exchange-correlation      = BEEF-VDW ( 1  4 27 13 2)
     nstep                     =           50

     celldm(1)=   1.889726  celldm(2)=   0.000000  celldm(3)=   0.000000
     celldm(4)=   0.000000  celldm(5)=   0.000000  celldm(6)=   0.000000

     crystal axes: (cart. coord. in units of alat)
               a(1) = (   5.279715   0.000000   0.000000 )
               a(2) = (  -2.639858   4.731360   0.000000 )
               a(3) = (   0.000000   0.000000  24.381505 )

     reciprocal axes: (cart. coord. in units 2 pi/alat)
               b(1) = (  0.189404  0.105678  0.000000 )
               b(2) = (  0.000000  0.211356  0.000000 )
               b(3) = (  0.000000  0.000000  0.041015 )

     PseudoPot. # 1 for Cr read from file:
     /afs/slac.stanford.edu/u/if/mamunm/psp/gbrv1.5pbe/Cr.UPF
     MD5 check sum: 0d52af634a40206e4dee301ad30da4bf
     Pseudo is Ultrasoft + core correction, Zval = 14.0
     Generated by new atomic code, or converted to UPF format
     Using radial grid of  857 points,  6 beta functions with:
                l(1) =   0
                l(2) =   0
                l(3) =   1
                l(4) =   1
                l(5) =   2
                l(6) =   2
     Q(r) pseudized with  8 coefficients,  rinner =    0.950   0.950   0.950
                                                       0.950   0.950

     PseudoPot. # 2 for Pd read from file:
     /afs/slac.stanford.edu/u/if/mamunm/psp/gbrv1.5pbe/Pd.UPF
     MD5 check sum: 2d733d2bc2cbfd217af676df1668a4bc
     Pseudo is Ultrasoft + core correction, Zval = 16.0
     Generated by new atomic code, or converted to UPF format
     Using radial grid of  887 points,  6 beta functions with:
                l(1) =   0
                l(2) =   0
                l(3) =   1
                l(4) =   1
                l(5) =   2
                l(6) =   2
     Q(r) pseudized with  8 coefficients,  rinner =    1.130   1.130   1.130
                                                       1.130   1.130

     vdW kernel table read from file vdW_kernel_table
     MD5 check sum: 095c7af220d748ca6e76c0b4c6cfb241

     atomic species   valence    mass     pseudopotential
        Cr1           14.00    51.99610     Cr( 1.00)
        Pd1           16.00   106.42000     Pd( 1.00)

     No symmetry found

   Cartesian axes

     site n.     atom                  positions (alat units)
         1           Cr1 tau(   1) = (   0.0000000   0.0000000  10.0000000  )
         2           Cr1 tau(   2) = (   2.6398577   0.0000000  10.0000000  )
         3           Pd1 tau(   3) = (   1.3199289   2.3656802  10.0000000  )
         4           Pd1 tau(   4) = (  -1.3199289   2.3656802  10.0000000  )
         5           Cr1 tau(   5) = (   2.6398577   1.4729059  12.1907526  )
         6           Cr1 tau(   6) = (  -0.0000000   1.4729059  12.1907526  )
         7           Pd1 tau(   7) = (  -1.3199289   3.8385861  12.1907526  )
         8           Pd1 tau(   8) = (   1.3199289   3.8385861  12.1907526  )
         9           Cr1 tau(   9) = (   0.0000000   2.9458119  14.3815052  )
        10           Cr1 tau(  10) = (   2.6398577   2.9458119  14.3815052  )
        11           Pd1 tau(  11) = (   3.9597866   0.5801317  14.3815052  )
        12           Pd1 tau(  12) = (   1.3199289   0.5801317  14.3815052  )

     number of k points=    20  Fermi-Dirac smearing, width (Ry)=  0.0110
                       cart. coord. in units 2pi/alat
        k(    1) = (   0.0000000   0.0000000   0.0000000), wk =   0.0555556
        k(    2) = (   0.0000000   0.0352260   0.0000000), wk =   0.1111111
        k(    3) = (   0.0000000   0.0704519   0.0000000), wk =   0.1111111
        k(    4) = (   0.0000000  -0.1056779   0.0000000), wk =   0.0555556
        k(    5) = (   0.0315674   0.0176130   0.0000000), wk =   0.1111111
        k(    6) = (   0.0315674   0.0528389   0.0000000), wk =   0.1111111
        k(    7) = (   0.0315674   0.0880649   0.0000000), wk =   0.1111111
        k(    8) = (   0.0315674  -0.0880649   0.0000000), wk =   0.1111111
        k(    9) = (   0.0315674  -0.0528389   0.0000000), wk =   0.1111111
        k(   10) = (   0.0315674  -0.0176130   0.0000000), wk =   0.1111111
        k(   11) = (   0.0631347   0.0352260   0.0000000), wk =   0.1111111
        k(   12) = (   0.0631347   0.0704519   0.0000000), wk =   0.1111111
        k(   13) = (   0.0631347   0.1056779   0.0000000), wk =   0.1111111
        k(   14) = (   0.0631347  -0.0704519   0.0000000), wk =   0.1111111
        k(   15) = (   0.0631347  -0.0352260   0.0000000), wk =   0.1111111
        k(   16) = (   0.0631347   0.0000000   0.0000000), wk =   0.1111111
        k(   17) = (  -0.0947021  -0.0528389   0.0000000), wk =   0.0555556
        k(   18) = (  -0.0947021  -0.0176130   0.0000000), wk =   0.1111111
        k(   19) = (  -0.0947021   0.0176130   0.0000000), wk =   0.1111111
        k(   20) = (  -0.0947021  -0.1585168   0.0000000), wk =   0.0555556

     Largest allocated arrays     est. size (Mb)     dimensions
     Largest temporary arrays     est. size (Mb)     dimensions

     Check: negative/imaginary core charge=   -0.000002    0.000000

     Initial potential from superposition of free atoms
     Check: negative starting charge=   -0.448985

     starting charge  170.99987, renormalised to  180.00000

     negative rho (up, down):  4.726E-01 0.000E+00

     *
     * You are using vdW-DF for exchange-correlation in this calculation.
     * Please cite the following three references that made this development
     * possible:
     *
     *   M. Dion, H. Rydberg, E. Schroder, D. C. Langreth, and
     *   B. I. Lundqvist, Phys. Rev. Lett. 92, 246401 (2004).
     *
     *   T. Thonhauser, V. R. Cooper, S. Li, A. Puzder, P. Hyldgaard, and
     *   D. C. Langreth, Phys. Rev. B 76, 125112 (2007).
     *
     *   G. Roman-Perez and J. M. Soler, Phys. Rev. Lett. 103, 096102 (2009).
     *
     *
     * If you are using vdW-DF2, please also cite:
     *
     *   K. Lee, E. D. Murray, L. Kong, B. I. Lundqvist, and
     *   D. C. Langreth, Phys. Rev. B 82, 081101(R) (2010).
     *
     *
     * If you are calculating the stress with vdW-DF, please also cite:
     *
     *   R. Sabatini, E. Kucukbenli, B. Kolb, T. Thonhauser, and
     *   S. de Gironcoli, J. Phys.: Condens. Matter 24, 424209 (2012).
     *

     Carrying out vdW-DF run using the following parameters:

     Nqs =      20    Nr_points =    1024   r_max =   100.000
     q_mesh =
               0.00001000     0.04494208     0.09755937     0.15916263
               0.23128650     0.31572767     0.41458969     0.53033537
               0.66584808     0.82450364     1.01025438     1.22772762
               1.48234092     1.78043706     2.12944203     2.53805004
               3.01644009     3.57652955     4.23227104     5.00000000

     Gradients computed in reciprocal space

     Adding external electric field

     Computed dipole along edir(3) :
        Dipole                0.0000 Ry au,          0.0000 Debye
        Dipole field          0.0000 Ry au

        Potential amp.       -0.0000 Ry
        Total length         44.9225 bohr

     Starting wfc are  132 randomized atomic wfcs

     Self-consistent Calculation

     iteration #  1     ecut=    36.75 Ry     beta=0.10
     Davidson diagonalization with overlap
     ethr =  1.00E-02,  avg # of iterations =  7.1

[...]

     total energy              =   -2244.54197301 Ry
     Harris-Foulkes estimate   =   -2268.15125021 Ry
     estimated scf accuracy    <     132.36841429 Ry

[...]

     End of self-consistent calculation

          k = 0.0000 0.0000 0.0000 ( 15489 PWs)   bands (ev):

   -70.6861 -70.6469 -70.5230 -70.5217 -70.4840 -70.4829 -49.7402 -49.6198
   -49.5854 -49.5787 -49.5437 -49.4150 -49.3448 -49.3445 -49.2840 -49.2763
   -49.2496 -49.2419 -49.0819 -49.0590 -49.0500 -49.0277 -49.0201 -49.0198
   -42.1167 -42.0236 -41.9975 -41.9918 -41.9622 -41.8981 -41.8881 -41.8650
   -41.8625 -41.8605 -41.8571 -41.8307 -41.7987 -41.7969 -41.7541 -41.7249
   -41.5420 -41.5415  -5.5660  -4.1998  -4.0605  -3.9447  -3.9309  -3.9103
    -3.5902  -3.4552  -3.3715  -3.3102  -3.2361  -3.2315  -3.1044  -2.9174
    -2.6062  -2.4100  -2.1345  -1.9784  -1.8847  -1.7456  -1.7284  -1.5357
    -1.3299  -1.2251  -1.1074  -0.9989  -0.9316  -0.7253  -0.7159  -0.1790
    -0.1563   0.0266   0.0657   0.1134   0.4559   0.4686   0.5129   0.6070
     0.6158   0.8930   0.9377   1.1543   1.1648   1.3420   1.4859   1.4962
     1.5145   1.7647   1.9254   1.9363   2.0007   2.1087   2.1252   2.1884
     2.2173   2.2795   2.3943   2.4334   2.5578   2.6848   2.7075   2.7509
     2.8370   2.8825   2.9498   3.0971   3.2430   4.3818   4.4922   4.6539
     5.0170   5.0634   5.2253   5.4898   5.7120   6.1824   7.1022   7.9722

[...]

          k =-0.0947-0.0528 0.0000 ( 15470 PWs)   bands (ev):

[...]

     the Fermi energy is     1.3191 ev

!    total energy              =   -2256.03719447 Ry
     Harris-Foulkes estimate   =   -2256.03720011 Ry
     estimated scf accuracy    <       0.00000087 Ry

     The total energy is the sum of the following terms:

     one-electron contribution =  -19892.92011434 Ry
     hartree contribution      =    9963.92123037 Ry
     xc contribution           =    -334.31093879 Ry
     ewald contribution        =    8007.39684485 Ry
     electric field correction =       0.00000000 Ry
     smearing contrib. (-TS)   =      -0.12421656 Ry

     convergence has been achieved in  25 iterations

 BEEF-vdW xc energy contributions
           1 :   -290.487810976472
           2 :    263.984849329757
           3 :   -219.137803305565
           4 :    168.567661915894
           5 :   -124.157805652655
           6 :    92.9271447874306
           7 :   -75.6537176128863
           8 :    68.3408827520027
[...]
     This is a supercell, fractional translations are disabled

[...]

   This run was terminated on:   8:13: 7  19Dec2018

[...]

   This run was terminated on:   8:52: 9  19Dec2018

[...]

     Program PWSCF v.5.1rc2 (svn rev. 11289) starts on 19Dec2018 at  9:12: 3

[...]

     Total force =     0.070852     Total SCF correction =     0.006071

[...]

     Program PWSCF v.5.1rc2 (svn rev. 11289) starts on 19Dec2018 at  9:31:51

     Current dimensions of program PWSCF are:
     Max number of different atomic species (ntypx) = 10
     Max number of k-points (npk) =  40000
     Max angular momentum in pseudopotentials (lmaxx) =  3
     Presently stress not available with electric field

     IMPORTANT: XC functional enforced from input :
     Exchange-correlation      = BEEF-VDW ( 1  4 27 13 2)
     Any further DFT definition will be discarded
     Please, verify this is what you really want

     Subspace diagonalization in iterative solution of the eigenvalue problem:
     a serial algorithm will be used

     bravais-lattice index     =            0
     lattice parameter (alat)  =       1.8897  a.u.
     unit-cell volume          =    4110.1121 (a.u.)^3
     number of atoms/cell      =           12
     number of atomic types    =            2
     number of electrons       =       180.00
     number of Kohn-Sham states=          120
     kinetic-energy cutoff     =      36.7493  Ry
     charge density cutoff     =     367.4932  Ry
     convergence threshold     =      1.0E-06
     mixing beta               =       0.1000
     number of iterations used =           10  plain     mixing
     Exchange-correlation      = BEEF-VDW ( 1  4 27 13 2)
     nstep                     =           50

     celldm(1)=   1.889726  celldm(2)=   0.000000  celldm(3)=   0.000000
     celldm(4)=   0.000000  celldm(5)=   0.000000  celldm(6)=   0.000000

     crystal axes: (cart. coord. in units of alat)
               a(1) = (   5.279715   0.000000   0.000000 )
               a(2) = (  -2.639858   4.731360   0.000000 )
               a(3) = (   0.000000   0.000000  24.381505 )

     reciprocal axes: (cart. coord. in units 2 pi/alat)
               b(1) = (  0.189404  0.105678  0.000000 )
               b(2) = (  0.000000  0.211356  0.000000 )
               b(3) = (  0.000000  0.000000  0.041015 )

     PseudoPot. # 1 for Cr read from file:
     /afs/slac.stanford.edu/u/if/mamunm/psp/gbrv1.5pbe/Cr.UPF
     MD5 check sum: 0d52af634a40206e4dee301ad30da4bf
     Pseudo is Ultrasoft + core correction, Zval = 14.0
     Generated by new atomic code, or converted to UPF format
     Using radial grid of  857 points,  6 beta functions with:
                l(1) =   0
                l(2) =   0
                l(3) =   1
                l(4) =   1
                l(5) =   2
                l(6) =   2
     Q(r) pseudized with  8 coefficients,  rinner =    0.950   0.950   0.950
                                                       0.950   0.950

     PseudoPot. # 2 for Pd read from file:
     /afs/slac.stanford.edu/u/if/mamunm/psp/gbrv1.5pbe/Pd.UPF
     MD5 check sum: 2d733d2bc2cbfd217af676df1668a4bc
     Pseudo is Ultrasoft + core correction, Zval = 16.0
     Generated by new atomic code, or converted to UPF format
     Using radial grid of  887 points,  6 beta functions with:
                l(1) =   0
                l(2) =   0
                l(3) =   1
                l(4) =   1
                l(5) =   2
                l(6) =   2
     Q(r) pseudized with  8 coefficients,  rinner =    1.130   1.130   1.130
                                                       1.130   1.130

     vdW kernel table read from file vdW_kernel_table
     MD5 check sum: 095c7af220d748ca6e76c0b4c6cfb241

     atomic species   valence    mass     pseudopotential
        Cr1           14.00    51.99610     Cr( 1.00)
        Pd1           16.00   106.42000     Pd( 1.00)

     No symmetry found

   Cartesian axes

     site n.     atom                  positions (alat units)
         1           Cr1 tau(   1) = (   0.0000000   0.0000000  10.0000000  )
         2           Cr1 tau(   2) = (   2.6398577   0.0000000  10.0000000  )
         3           Pd1 tau(   3) = (   1.3199289   2.3656802  10.0000000  )
         4           Pd1 tau(   4) = (  -1.3199289   2.3656802  10.0000000  )
         5           Cr1 tau(   5) = (   2.6398577   1.4729059  12.1907526  )
         6           Cr1 tau(   6) = (  -0.0000000   1.4729059  12.1907526  )
         7           Pd1 tau(   7) = (  -1.3199289   3.8385861  12.1907526  )
         8           Pd1 tau(   8) = (   1.3199289   3.8385861  12.1907526  )
         9           Cr1 tau(   9) = (  -0.0000013   2.8470234  14.1672086  )
        10           Cr1 tau(  10) = (   2.6398592   2.8467489  14.1672692  )
        11           Pd1 tau(  11) = (   3.9586326   0.6201095  14.4218620  )
        12           Pd1 tau(  12) = (   1.3210822   0.6201099  14.4218617  )

     number of k points=    20  Fermi-Dirac smearing, width (Ry)=  0.0110
                       cart. coord. in units 2pi/alat
        k(    1) = (   0.0000000   0.0000000   0.0000000), wk =   0.0555556
        k(    2) = (   0.0000000   0.0352260   0.0000000), wk =   0.1111111
        k(    3) = (   0.0000000   0.0704519   0.0000000), wk =   0.1111111
        k(    4) = (   0.0000000  -0.1056779   0.0000000), wk =   0.0555556
        k(    5) = (   0.0315674   0.0176130   0.0000000), wk =   0.1111111
        k(    6) = (   0.0315674   0.0528389   0.0000000), wk =   0.1111111
        k(    7) = (   0.0315674   0.0880649   0.0000000), wk =   0.1111111
        k(    8) = (   0.0315674  -0.0880649   0.0000000), wk =   0.1111111
        k(    9) = (   0.0315674  -0.0528389   0.0000000), wk =   0.1111111
        k(   10) = (   0.0315674  -0.0176130   0.0000000), wk =   0.1111111
        k(   11) = (   0.0631347   0.0352260   0.0000000), wk =   0.1111111
        k(   12) = (   0.0631347   0.0704519   0.0000000), wk =   0.1111111
        k(   13) = (   0.0631347   0.1056779   0.0000000), wk =   0.1111111
        k(   14) = (   0.0631347  -0.0704519   0.0000000), wk =   0.1111111
        k(   15) = (   0.0631347  -0.0352260   0.0000000), wk =   0.1111111
        k(   16) = (   0.0631347   0.0000000   0.0000000), wk =   0.1111111
        k(   17) = (  -0.0947021  -0.0528389   0.0000000), wk =   0.0555556
        k(   18) = (  -0.0947021  -0.0176130   0.0000000), wk =   0.1111111
        k(   19) = (  -0.0947021   0.0176130   0.0000000), wk =   0.1111111
        k(   20) = (  -0.0947021  -0.1585168   0.0000000), wk =   0.0555556

     Largest allocated arrays     est. size (Mb)     dimensions
     Largest temporary arrays     est. size (Mb)     dimensions

     Check: negative/imaginary core charge=   -0.000002    0.000000

     Initial potential from superposition of free atoms
     Check: negative starting charge=   -0.451290

     starting charge  170.99987, renormalised to  180.00000

[...]

     *
     * You are using vdW-DF for exchange-correlation in this calculation.
     * Please cite the following three references that made this development
     * possible:
     *
     *   M. Dion, H. Rydberg, E. Schroder, D. C. Langreth, and
     *   B. I. Lundqvist, Phys. Rev. Lett. 92, 246401 (2004).
     *
     *   T. Thonhauser, V. R. Cooper, S. Li, A. Puzder, P. Hyldgaard, and
     *   D. C. Langreth, Phys. Rev. B 76, 125112 (2007).
     *
     *   G. Roman-Perez and J. M. Soler, Phys. Rev. Lett. 103, 096102 (2009).
     *
     *
     * If you are using vdW-DF2, please also cite:
     *
     *   K. Lee, E. D. Murray, L. Kong, B. I. Lundqvist, and
     *   D. C. Langreth, Phys. Rev. B 82, 081101(R) (2010).
     *
     *
     * If you are calculating the stress with vdW-DF, please also cite:
     *
     *   R. Sabatini, E. Kucukbenli, B. Kolb, T. Thonhauser, and
     *   S. de Gironcoli, J. Phys.: Condens. Matter 24, 424209 (2012).
     *

     Carrying out vdW-DF run using the following parameters:

     Nqs =      20    Nr_points =    1024   r_max =   100.000
     q_mesh =
               0.00001000     0.04494208     0.09755937     0.15916263
               0.23128650     0.31572767     0.41458969     0.53033537
               0.66584808     0.82450364     1.01025438     1.22772762
               1.48234092     1.78043706     2.12944203     2.53805004
               3.01644009     3.57652955     4.23227104     5.00000000

     Gradients computed in reciprocal space

[...]

     Starting wfc are  132 randomized atomic wfcs

     Self-consistent Calculation

[...]

     total energy              =   -2256.05935604 Ry
     Harris-Foulkes estimate   =   -2256.05935670 Ry
     estimated scf accuracy    <       0.00000111 Ry

     iteration # 28     ecut=    36.75 Ry     beta=0.10
     Davidson diagonalization with overlap
     ethr =  6.14E-10,  avg # of iterations =  1.2

[...]

     negative rho (up, down):  4.763E-01 0.000E+00

     Adding external electric field

     Computed dipole along edir(3) :
        Dipole               -0.0079 Ry au,         -0.0200 Debye
        Dipole field         -0.0000 Ry au

        Potential amp.        0.0022 Ry
        Total length         44.9225 bohr

     End of self-consistent calculation

[...]

          k = 0.0631 0.0000 0.0000 ( 15437 PWs)   bands (ev):

[...]

          k =-0.0947-0.1585 0.0000 ( 15470 PWs)   bands (ev):

   -70.7031 -70.7030 -70.5451 -70.5450 -70.5378 -70.5378 -49.7790 -49.7790
   -49.7318 -49.7317 -49.6516 -49.6516 -49.2895 -49.2895 -49.2299 -49.2296
   -49.2121 -49.2121 -49.1743 -49.1714 -49.0798 -49.0798 -49.0050 -49.0047
   -42.1176 -42.1174 -42.0473 -42.0472 -41.9923 -41.9922 -41.9265 -41.9265
   -41.9147 -41.9147 -41.8598 -41.8597 -41.7536 -41.7536 -41.7369 -41.7369
   -41.7039 -41.7039  -4.0777  -4.0771  -3.4043  -3.4039  -3.2401  -3.2391
    -3.1726  -3.1725  -2.8840  -2.8836  -2.7089  -2.7075  -2.5965  -2.5946
    -2.2428  -2.2403  -2.0748  -2.0733  -1.9531  -1.9518  -1.7339  -1.7323
    -1.6251  -1.6229  -1.5135  -1.5105  -1.4028  -1.3981  -1.2167  -1.2160
    -1.1418  -1.1379  -0.8350  -0.8343  -0.1455  -0.1452   0.1370   0.1373
     0.4139   0.4144   0.5299   0.5302   0.8492   0.8495   1.1413   1.1417
     1.2670   1.2676   1.3154   1.3161   1.3580   1.3581   1.4572   1.4585
     1.5098   1.5104   1.8504   1.8505   2.1470   2.1473   2.3278   2.3280
     2.5026   2.5029   3.6293   3.6304   4.0397   4.0400   4.8145   4.8152
     5.6202   5.6214   6.7396   6.7398   7.1938   7.1939   7.7386   7.7389

     the Fermi energy is     1.2811 ev

!    total energy              =   -2256.05935269 Ry
     Harris-Foulkes estimate   =   -2256.05935644 Ry
     estimated scf accuracy    <       0.00000096 Ry

     The total energy is the sum of the following terms:

     one-electron contribution =  -20107.15888877 Ry
     hartree contribution      =   10070.74717884 Ry
     xc contribution           =    -334.48230857 Ry
     ewald contribution        =    8114.95507890 Ry
     electric field correction =       0.00000019 Ry
     smearing contrib. (-TS)   =      -0.12041328 Ry

     convergence has been achieved in  28 iterations

 BEEF-vdW xc energy contributions
           1 :   -290.663546322488
           2 :    264.216011254698
           3 :   -219.429530930145
           4 :    168.860047632067
           5 :   -124.360627832029
           6 :    92.9806117603172
           7 :   -75.5706631993186
           8 :    68.2009971054401
           9 :   -65.1864918480991
          10 :    61.9949606720380
          11 :   -56.7604051303938
          12 :    50.0869467425714
          13 :   -43.7387103560133
          14 :    39.1904167338624
          15 :   -36.8182614035234
          16 :    35.9561124008510
          17 :   -35.5223786703982
          18 :    34.6923423957945
          19 :   -33.2218541112821
          20 :    31.3443613216840
          21 :   -29.4460550697696
          22 :    27.7937685764600
          23 :   -26.4633611202943
          24 :    25.4213332212179
          25 :   -24.6185146857085
          26 :    24.0020722695418
          27 :   -23.4714253133741
          28 :    22.8647397391757
          29 :   -22.0271900584493
          30 :    20.9201727940800
          31 :   -28.4299495857521
          32 :   -20.8084177806890

     Forces acting on atoms (Ry/au):

     negative rho (up, down):  4.763E-01 0.000E+00
     atom    1 type  1   force =     0.00000002    0.01676894    0.02631652
     atom    2 type  1   force =    -0.00000004    0.01676128    0.02630100
     atom    3 type  2   force =     0.00001470   -0.03000708   -0.01882482
     atom    4 type  2   force =    -0.00001466   -0.03000704   -0.01882473
     atom    5 type  1   force =    -0.00000008    0.00062193    0.00040907
     atom    6 type  1   force =     0.00000002    0.00058025    0.00045048
     atom    7 type  2   force =    -0.00003011    0.01297946   -0.00980613
     atom    8 type  2   force =     0.00003014    0.01297914   -0.00980569
     atom    9 type  1   force =     0.00000009    0.00025329    0.00072262
     atom   10 type  1   force =    -0.00000010    0.00052108    0.00067138
     atom   11 type  2   force =     0.00101469   -0.00072586    0.00119519
     atom   12 type  2   force =    -0.00101467   -0.00072540    0.00119512

     Total force =     0.070666     Total SCF correction =     0.007388
     SCF correction compared to forces is large: reduce conv_thr to get better values

     entering subroutine stress ...

     negative rho (up, down):  4.763E-01 0.000E+00
          total   stress  (Ry/bohr**3)                   (kbar)     P=   -9.52
  -0.00004715   0.00000000  -0.00000000         -6.94      0.00     -0.00
   0.00000000  -0.00012159   0.00002561          0.00    -17.89      3.77
  -0.00000000   0.00002561  -0.00002534         -0.00      3.77     -3.73

 !ASE

     Writing output data file calc.save

     General routines

     Parallel routines

   This run was terminated on:   9:51:29  19Dec2018

   JOB DONE.
Job  /afs/slac/g/suncat/bin/suncat-tsmpirun -x LD_LIBRARY_PATH -wdir /scratch/qe529753_UUvpa pw.x -in pw.inp

TID   HOST_NAME   COMMAND_LINE            STATUS            TERMINATION_TIME
00000 suncat0280 pw.x -in pw.inp   Done                     12/19/2018 09:51:29
00001 suncat0280 pw.x -in pw.inp   Done                     12/19/2018 09:51:29
00002 suncat0280 pw.x -in pw.inp   Done                     12/19/2018 09:51:29
00003 suncat0280 pw.x -in pw.inp   Done                     12/19/2018 09:51:29
00004 suncat0280 pw.x -in pw.inp   Done                     12/19/2018 09:51:29
00005 suncat0280 pw.x -in pw.inp   Done                     12/19/2018 09:51:29
00006 suncat0280 pw.x -in pw.inp   Done                     12/19/2018 09:51:29
00007 suncat0280 pw.x -in pw.inp   Done                     12/19/2018 09:51:29
00008 suncat0279 pw.x -in pw.inp   Done                     12/19/2018 09:51:29
00009 suncat0279 pw.x -in pw.inp   Done                     12/19/2018 09:51:29
00010 suncat0279 pw.x -in pw.inp   Done                     12/19/2018 09:51:29
00011 suncat0279 pw.x -in pw.inp   Done                     12/19/2018 09:51:29
00012 suncat0279 pw.x -in pw.inp   Done                     12/19/2018 09:51:29
00013 suncat0279 pw.x -in pw.inp   Done                     12/19/2018 09:51:29
00014 suncat0279 pw.x -in pw.inp   Done                     12/19/2018 09:51:29
00015 suncat0279 pw.x -in pw.inp   Done                     12/19/2018 09:51:29
00016 suncat0278 pw.x -in pw.inp   Done                     12/19/2018 09:51:29
00017 suncat0278 pw.x -in pw.inp   Done                     12/19/2018 09:51:29
00018 suncat0278 pw.x -in pw.inp   Done                     12/19/2018 09:51:29
00019 suncat0278 pw.x -in pw.inp   Done                     12/19/2018 09:51:29
00020 suncat0278 pw.x -in pw.inp   Done                     12/19/2018 09:51:29
00021 suncat0278 pw.x -in pw.inp   Done                     12/19/2018 09:51:29
00022 suncat0278 pw.x -in pw.inp   Done                     12/19/2018 09:51:29
00023 suncat0278 pw.x -in pw.inp   Done                     12/19/2018 09:51:29
00024 suncat0277 pw.x -in pw.inp   Done                     12/19/2018 09:51:29
00025 suncat0277 pw.x -in pw.inp   Done                     12/19/2018 09:51:29
00026 suncat0277 pw.x -in pw.inp   Done                     12/19/2018 09:51:29
00027 suncat0277 pw.x -in pw.inp   Done                     12/19/2018 09:51:29
00028 suncat0277 pw.x -in pw.inp   Done                     12/19/2018 09:51:29
00029 suncat0277 pw.x -in pw.inp   Done                     12/19/2018 09:51:29
00030 suncat0277 pw.x -in pw.inp   Done                     12/19/2018 09:51:29
00031 suncat0277 pw.x -in pw.inp   Done                     12/19/2018 09:51:29