     Program PWSCF v.5.1rc2 (svn rev. 11289) starts on 29Dec2018 at 19:29:13

     Current dimensions of program PWSCF are:
     Max number of different atomic species (ntypx) = 10
     Max number of k-points (npk) =  40000
     Max angular momentum in pseudopotentials (lmaxx) =  3
     Presently stress not available with electric field

     IMPORTANT: XC functional enforced from input :
     Exchange-correlation      = BEEF-VDW ( 1  4 27 13 2)
     Any further DFT definition will be discarded
     Please, verify this is what you really want

     Subspace diagonalization in iterative solution of the eigenvalue problem:
     a serial algorithm will be used

     Found symmetry operation: I + (  0.5000  0.0000  0.0000)
     This is a supercell, fractional translations are disabled

     bravais-lattice index     =            0
     lattice parameter (alat)  =       1.8897  a.u.
     unit-cell volume          =    4274.3820 (a.u.)^3
     number of atoms/cell      =           12
     number of atomic types    =            2
     number of electrons       =       186.00
     number of Kohn-Sham states=          123
     kinetic-energy cutoff     =      36.7493  Ry
     charge density cutoff     =     367.4932  Ry
     convergence threshold     =      1.0E-06
     mixing beta               =       0.1000
     number of iterations used =           10  plain     mixing
     Exchange-correlation      = BEEF-VDW ( 1  4 27 13 2)
     nstep                     =           50

     celldm(1)=   1.889726  celldm(2)=   0.000000  celldm(3)=   0.000000
     celldm(4)=   0.000000  celldm(5)=   0.000000  celldm(6)=   0.000000

     crystal axes: (cart. coord. in units of alat)
               a(1) = (   5.462267   0.000000   0.000000 )
               a(2) = (  -2.731134   4.739908   0.000000 )
               a(3) = (   0.000000   0.000000  24.464360 )

     reciprocal axes: (cart. coord. in units 2 pi/alat)
               b(1) = (  0.183074  0.105487  0.000000 )
               b(2) = (  0.000000  0.210975  0.000000 )
               b(3) = (  0.000000  0.000000  0.040876 )

     PseudoPot. # 1 for Tc read from file:
     /afs/slac.stanford.edu/u/if/mamunm/psp/gbrv1.5pbe/Tc.UPF
     MD5 check sum: 9eb49e5b028550b2339a02317eb7b844
     Pseudo is Ultrasoft + core correction, Zval = 15.0
     Generated by new atomic code, or converted to UPF format
     Using radial grid of  965 points,  6 beta functions with:
                l(1) =   0
                l(2) =   0
                l(3) =   1
                l(4) =   1
                l(5) =   2
                l(6) =   2
     Q(r) pseudized with  8 coefficients,  rinner =    1.300   1.300   1.300
                                                       1.300   1.300

     PseudoPot. # 2 for Os read from file:
     /afs/slac.stanford.edu/u/if/mamunm/psp/gbrv1.5pbe/Os.UPF
     MD5 check sum: a3fb40a04f0c37c25c34bbc47164c9a8
     Pseudo is Ultrasoft + core correction, Zval = 16.0
     Generated by new atomic code, or converted to UPF format
     Using radial grid of  983 points,  8 beta functions with:
                l(1) =   0
                l(2) =   0
                l(3) =   1
                l(4) =   1
                l(5) =   2
                l(6) =   2
                l(7) =   3
                l(8) =   3
     Q(r) pseudized with  8 coefficients,  rinner =    1.150   1.150   1.150
                                                       1.150   1.150   1.150
                                                       1.150

     vdW kernel table read from file vdW_kernel_table
     MD5 check sum: 095c7af220d748ca6e76c0b4c6cfb241

     atomic species   valence    mass     pseudopotential
        Tc1           15.00    97.90721     Tc( 1.00)
        Os1           16.00   190.23000     Os( 1.00)

     No symmetry found

   Cartesian axes

     site n.     atom                  positions (alat units)
         1           Tc1 tau(   1) = (   0.0000000   0.0000000  10.0000000  )
         2           Tc1 tau(   2) = (   2.7311337   0.0000000  10.0000000  )
         3           Os1 tau(   3) = (   1.3655669   2.3699540  10.0000000  )
         4           Os1 tau(   4) = (  -1.3655669   2.3699540  10.0000000  )
         5           Tc1 tau(   5) = (   2.7311337   1.5736785  12.2321800  )
         6           Tc1 tau(   6) = (  -0.0000000   1.5736785  12.2321800  )
         7           Os1 tau(   7) = (  -1.3655669   3.9436325  12.2321800  )
         8           Os1 tau(   8) = (   1.3655669   3.9436325  12.2321800  )
         9           Tc1 tau(   9) = (  -0.0000000   3.1473569  14.4643599  )
        10           Tc1 tau(  10) = (   2.7311337   3.1473569  14.4643599  )
        11           Os1 tau(  11) = (   4.0967006   0.7774029  14.4643599  )
        12           Os1 tau(  12) = (   1.3655669   0.7774029  14.4643599  )

     number of k points=    20  Fermi-Dirac smearing, width (Ry)=  0.0110
                       cart. coord. in units 2pi/alat
        k(    1) = (   0.0000000   0.0000000   0.0000000), wk =   0.0555556
        k(    2) = (   0.0000000   0.0351624   0.0000000), wk =   0.1111111
        k(    3) = (   0.0000000   0.0703249   0.0000000), wk =   0.1111111
        k(    4) = (   0.0000000  -0.1054873   0.0000000), wk =   0.0555556
        k(    5) = (   0.0305124   0.0175812   0.0000000), wk =   0.1111111
        k(    6) = (   0.0305124   0.0527436   0.0000000), wk =   0.1111111
        k(    7) = (   0.0305124   0.0879061   0.0000000), wk =   0.1111111
        k(    8) = (   0.0305124  -0.0879061   0.0000000), wk =   0.1111111
        k(    9) = (   0.0305124  -0.0527436   0.0000000), wk =   0.1111111
        k(   10) = (   0.0305124  -0.0175812   0.0000000), wk =   0.1111111
        k(   11) = (   0.0610247   0.0351624   0.0000000), wk =   0.1111111
        k(   12) = (   0.0610247   0.0703249   0.0000000), wk =   0.1111111
        k(   13) = (   0.0610247   0.1054873   0.0000000), wk =   0.1111111
        k(   14) = (   0.0610247  -0.0703249   0.0000000), wk =   0.1111111
        k(   15) = (   0.0610247  -0.0351624   0.0000000), wk =   0.1111111
        k(   16) = (   0.0610247   0.0000000   0.0000000), wk =   0.1111111
        k(   17) = (  -0.0915371  -0.0527436   0.0000000), wk =   0.0555556
        k(   18) = (  -0.0915371  -0.0175812   0.0000000), wk =   0.1111111
        k(   19) = (  -0.0915371   0.0175812   0.0000000), wk =   0.1111111
        k(   20) = (  -0.0915371  -0.1582309   0.0000000), wk =   0.0555556

     Largest allocated arrays     est. size (Mb)     dimensions
     Largest temporary arrays     est. size (Mb)     dimensions

     Check: negative/imaginary core charge=   -0.000013    0.000000

     Initial potential from superposition of free atoms
     Check: negative starting charge=   -1.498337

     starting charge  176.99961, renormalised to  186.00000

     negative rho (up, down):  1.575E+00 0.000E+00

     *
     * You are using vdW-DF for exchange-correlation in this calculation.
     * Please cite the following three references that made this development
     * possible:
     *
     *   M. Dion, H. Rydberg, E. Schroder, D. C. Langreth, and
     *   B. I. Lundqvist, Phys. Rev. Lett. 92, 246401 (2004).
     *
     *   T. Thonhauser, V. R. Cooper, S. Li, A. Puzder, P. Hyldgaard, and
     *   D. C. Langreth, Phys. Rev. B 76, 125112 (2007).
     *
     *   G. Roman-Perez and J. M. Soler, Phys. Rev. Lett. 103, 096102 (2009).
     *
     *
     * If you are using vdW-DF2, please also cite:
     *
     *   K. Lee, E. D. Murray, L. Kong, B. I. Lundqvist, and
     *   D. C. Langreth, Phys. Rev. B 82, 081101(R) (2010).
     *
     *
     * If you are calculating the stress with vdW-DF, please also cite:
     *
     *   R. Sabatini, E. Kucukbenli, B. Kolb, T. Thonhauser, and
     *   S. de Gironcoli, J. Phys.: Condens. Matter 24, 424209 (2012).
     *

     Carrying out vdW-DF run using the following parameters:

     Nqs =      20    Nr_points =    1024   r_max =   100.000
     q_mesh =
               0.00001000     0.04494208     0.09755937     0.15916263
               0.23128650     0.31572767     0.41458969     0.53033537
               0.66584808     0.82450364     1.01025438     1.22772762
               1.48234092     1.78043706     2.12944203     2.53805004
               3.01644009     3.57652955     4.23227104     5.00000000

     Gradients computed in reciprocal space

     Adding external electric field

     Computed dipole along edir(3) :
        Dipole                0.0000 Ry au,          0.0000 Debye
        Dipole field          0.0000 Ry au

        Potential amp.       -0.0000 Ry
        Total length         45.0752 bohr

     Starting wfc are  156 randomized atomic wfcs

     Self-consistent Calculation

     iteration #  1     ecut=    36.75 Ry     beta=0.10
     Davidson diagonalization with overlap
     ethr =  1.00E-02,  avg # of iterations =  8.8

[...]

     total energy              =   -2251.55281860 Ry
     Harris-Foulkes estimate   =   -2252.58235194 Ry
     estimated scf accuracy    <       6.86168424 Ry

[...]

     End of self-consistent calculation

          k = 0.0000 0.0000 0.0000 ( 16021 PWs)   bands (ev):

   -84.1859 -84.1575 -83.7258 -83.7255 -83.6975 -83.6973 -64.7805 -64.7101
   -64.4469 -64.4447 -64.3772 -64.3753 -43.6960 -43.5557 -43.4963 -43.4587
   -43.3979 -43.2413 -43.2385 -43.1879 -43.0195 -42.9896 -42.9828 -42.9661
   -42.9568 -42.9272 -42.9255 -42.9049 -42.7378 -42.7375 -37.0336 -36.8669
   -36.8023 -36.7723 -36.7183 -36.6755 -36.6664 -36.4801 -36.4396 -36.4118
   -36.4100 -36.4097 -36.3853 -36.3560 -36.3160 -36.2606 -36.0521 -36.0499
    -5.5548  -3.8380  -3.7185  -3.4088  -3.3793  -3.2269  -3.1058  -2.8615
    -2.8305  -2.5967  -2.5674  -2.5276  -2.2645  -2.2132  -2.1235  -1.0209
    -0.8964  -0.7562  -0.1778  -0.1251  -0.1210   0.1754   0.2019   0.4052
     0.4646   0.7564   0.8111   0.8792   0.9449   1.0536   1.0855   1.1608
     1.1639   1.4195   1.5899   2.0589   2.6498   2.6619   2.6868   2.6916
     2.7205   2.8344   3.0196   3.0330   3.3278   3.6577   3.6856   4.0501
     4.1959   4.3048   4.4644   4.4899   4.5164   4.5412   4.6665   4.7049
     4.7159   4.8451   5.1913   5.2085   5.2449   5.6503   5.6561   5.6589
     5.7304   5.7326   5.7362   6.7527   6.8707   6.9056   6.9907   7.0190
     7.3292   7.3967   7.4695

[...]

          k =-0.0915-0.0527 0.0000 ( 16112 PWs)   bands (ev):

[...]

     the Fermi energy is     2.6417 ev

!    total energy              =   -2250.33096605 Ry
     Harris-Foulkes estimate   =   -2250.33095811 Ry
     estimated scf accuracy    <       0.00000047 Ry

     The total energy is the sum of the following terms:

     one-electron contribution =  -19916.18159686 Ry
     hartree contribution      =    9947.99061030 Ry
     xc contribution           =    -430.46011248 Ry
     ewald contribution        =    8148.40855322 Ry
     electric field correction =       0.00000000 Ry
     smearing contrib. (-TS)   =      -0.08842023 Ry

     convergence has been achieved in  17 iterations

 BEEF-vdW xc energy contributions
           1 :   -377.228416451606
           2 :    348.375222720726
           3 :   -297.198235808450
[...]
     Using radial grid of  965 points,  6 beta functions with:
                l(1) =   0
                l(2) =   0
                l(3) =   1
                l(4) =   1
                l(5) =   2
                l(6) =   2
     Q(r) pseudized with  8 coefficients,  rinner =    1.300   1.300   1.300
                                                       1.300   1.300

     PseudoPot. # 2 for Os read from file:
     /afs/slac.stanford.edu/u/if/mamunm/psp/gbrv1.5pbe/Os.UPF
     MD5 check sum: a3fb40a04f0c37c25c34bbc47164c9a8
     Pseudo is Ultrasoft + core correction, Zval = 16.0
     Generated by new atomic code, or converted to UPF format
     Using radial grid of  983 points,  8 beta functions with:
                l(1) =   0
                l(2) =   0
                l(3) =   1
                l(4) =   1
                l(5) =   2
                l(6) =   2
                l(7) =   3
                l(8) =   3
     Q(r) pseudized with  8 coefficients,  rinner =    1.150   1.150   1.150
                                                       1.150   1.150   1.150
                                                       1.150

     vdW kernel table read from file vdW_kernel_table
     MD5 check sum: 095c7af220d748ca6e76c0b4c6cfb241

     atomic species   valence    mass     pseudopotential
        Tc1           15.00    97.90721     Tc( 1.00)
        Os1           16.00   190.23000     Os( 1.00)

     No symmetry found

   Cartesian axes

     site n.     atom                  positions (alat units)
         1           Tc1 tau(   1) = (   0.0000000   0.0000000  10.0000000  )
         2           Tc1 tau(   2) = (   2.7311337   0.0000000  10.0000000  )
         3           Os1 tau(   3) = (   1.3655669   2.3699540  10.0000000  )
         4           Os1 tau(   4) = (  -1.3655669   2.3699540  10.0000000  )
         5           Tc1 tau(   5) = (   2.7311337   1.5736785  12.2321800  )
         6           Tc1 tau(   6) = (  -0.0000000   1.5736785  12.2321800  )
         7           Os1 tau(   7) = (  -1.3655669   3.9436325  12.2321800  )
         8           Os1 tau(   8) = (   1.3655669   3.9436325  12.2321800  )
         9           Tc1 tau(   9) = (  -0.0000001   3.1546755  14.3694989  )
        10           Tc1 tau(  10) = (   2.7311340   3.1546751  14.3694902  )
        11           Os1 tau(  11) = (   4.0967064   0.7819362  14.3591989  )
        12           Os1 tau(  12) = (   1.3655619   0.7819364  14.3592032  )

     number of k points=    20  Fermi-Dirac smearing, width (Ry)=  0.0110
                       cart. coord. in units 2pi/alat
        k(    1) = (   0.0000000   0.0000000   0.0000000), wk =   0.0555556
        k(    2) = (   0.0000000   0.0351624   0.0000000), wk =   0.1111111
        k(    3) = (   0.0000000   0.0703249   0.0000000), wk =   0.1111111
        k(    4) = (   0.0000000  -0.1054873   0.0000000), wk =   0.0555556
        k(    5) = (   0.0305124   0.0175812   0.0000000), wk =   0.1111111
        k(    6) = (   0.0305124   0.0527436   0.0000000), wk =   0.1111111
        k(    7) = (   0.0305124   0.0879061   0.0000000), wk =   0.1111111
        k(    8) = (   0.0305124  -0.0879061   0.0000000), wk =   0.1111111
        k(    9) = (   0.0305124  -0.0527436   0.0000000), wk =   0.1111111
        k(   10) = (   0.0305124  -0.0175812   0.0000000), wk =   0.1111111
        k(   11) = (   0.0610247   0.0351624   0.0000000), wk =   0.1111111
        k(   12) = (   0.0610247   0.0703249   0.0000000), wk =   0.1111111
        k(   13) = (   0.0610247   0.1054873   0.0000000), wk =   0.1111111
        k(   14) = (   0.0610247  -0.0703249   0.0000000), wk =   0.1111111
        k(   15) = (   0.0610247  -0.0351624   0.0000000), wk =   0.1111111
        k(   16) = (   0.0610247   0.0000000   0.0000000), wk =   0.1111111
        k(   17) = (  -0.0915371  -0.0527436   0.0000000), wk =   0.0555556
        k(   18) = (  -0.0915371  -0.0175812   0.0000000), wk =   0.1111111
        k(   19) = (  -0.0915371   0.0175812   0.0000000), wk =   0.1111111
        k(   20) = (  -0.0915371  -0.1582309   0.0000000), wk =   0.0555556

     Largest allocated arrays     est. size (Mb)     dimensions
     Largest temporary arrays     est. size (Mb)     dimensions

     Check: negative/imaginary core charge=   -0.000013    0.000000

     Initial potential from superposition of free atoms
     Check: negative starting charge=   -1.494695

     starting charge  176.99961, renormalised to  186.00000

[...]

     *
     * You are using vdW-DF for exchange-correlation in this calculation.
     * Please cite the following three references that made this development
     * possible:
     *
     *   M. Dion, H. Rydberg, E. Schroder, D. C. Langreth, and
     *   B. I. Lundqvist, Phys. Rev. Lett. 92, 246401 (2004).
     *
     *   T. Thonhauser, V. R. Cooper, S. Li, A. Puzder, P. Hyldgaard, and
     *   D. C. Langreth, Phys. Rev. B 76, 125112 (2007).
     *
     *   G. Roman-Perez and J. M. Soler, Phys. Rev. Lett. 103, 096102 (2009).
     *
     *
     * If you are using vdW-DF2, please also cite:
     *
     *   K. Lee, E. D. Murray, L. Kong, B. I. Lundqvist, and
     *   D. C. Langreth, Phys. Rev. B 82, 081101(R) (2010).
     *
     *
     * If you are calculating the stress with vdW-DF, please also cite:
     *
     *   R. Sabatini, E. Kucukbenli, B. Kolb, T. Thonhauser, and
     *   S. de Gironcoli, J. Phys.: Condens. Matter 24, 424209 (2012).
     *

     Carrying out vdW-DF run using the following parameters:

     Nqs =      20    Nr_points =    1024   r_max =   100.000
     q_mesh =
               0.00001000     0.04494208     0.09755937     0.15916263
               0.23128650     0.31572767     0.41458969     0.53033537
               0.66584808     0.82450364     1.01025438     1.22772762
               1.48234092     1.78043706     2.12944203     2.53805004
               3.01644009     3.57652955     4.23227104     5.00000000

     Gradients computed in reciprocal space

[...]

     Starting wfc are  156 randomized atomic wfcs

     Self-consistent Calculation

[...]

     total energy              =   -2250.34441129 Ry
     Harris-Foulkes estimate   =   -2250.34440911 Ry
     estimated scf accuracy    <       0.00000162 Ry

     iteration # 16     ecut=    36.75 Ry     beta=0.10
     Davidson diagonalization with overlap
     ethr =  8.71E-10,  avg # of iterations =  1.1

[...]

     negative rho (up, down):  1.549E+00 0.000E+00

     Adding external electric field

     Computed dipole along edir(3) :
        Dipole                0.0397 Ry au,          0.1010 Debye
        Dipole field          0.0001 Ry au

        Potential amp.       -0.0105 Ry
        Total length         45.0752 bohr

     End of self-consistent calculation

[...]

          k = 0.0610 0.0000 0.0000 ( 16102 PWs)   bands (ev):

[...]

          k =-0.0915-0.1582 0.0000 ( 16112 PWs)   bands (ev):

   -84.1756 -84.1756 -83.7082 -83.7082 -83.6517 -83.6517 -64.7356 -64.7355
   -64.3789 -64.3788 -64.3649 -64.3646 -43.5572 -43.5572 -43.4634 -43.4634
   -43.4396 -43.4396 -43.0024 -43.0023 -42.9760 -42.9760 -42.9627 -42.9627
   -42.9369 -42.9369 -42.8936 -42.8936 -42.8833 -42.8833 -36.8621 -36.8620
   -36.7569 -36.7569 -36.7301 -36.7300 -36.4096 -36.4095 -36.3904 -36.3902
   -36.3620 -36.3619 -36.3521 -36.3520 -36.3248 -36.3246 -36.2383 -36.2382
    -3.8250  -3.8250  -2.6078  -2.6078  -2.3524  -2.3524  -2.1962  -2.1962
    -1.9667  -1.9667  -1.6822  -1.6822  -1.3223  -1.3223  -1.2130  -1.2130
    -0.8261  -0.8261  -0.6567  -0.6567  -0.3051  -0.3050   0.2223   0.2223
     0.3749   0.3749   0.5333   0.5334   0.6791   0.6791   0.7660   0.7660
     1.0863   1.0863   1.1755   1.1755   1.1919   1.1919   1.3193   1.3193
     2.0128   2.0128   2.2197   2.2197   2.4348   2.4348   2.7240   2.7240
     3.0072   3.0073   3.1671   3.1671   3.3513   3.3513   3.5538   3.5538
     3.7797   3.7797   4.4305   4.4305   4.9760   4.9760   5.2829   5.2829
     5.8357   5.8357   7.3517   7.3517   7.7611   7.7611   7.8868   7.8868
     8.4376   8.4376   9.0733

     the Fermi energy is     2.6681 ev

!    total energy              =   -2250.34442097 Ry
     Harris-Foulkes estimate   =   -2250.34441085 Ry
     estimated scf accuracy    <       0.00000091 Ry

     The total energy is the sum of the following terms:

     one-electron contribution =  -20203.05013200 Ry
     hartree contribution      =   10091.53987950 Ry
     xc contribution           =    -430.72868798 Ry
     ewald contribution        =    8291.98274210 Ry
     electric field correction =       0.00000464 Ry
     smearing contrib. (-TS)   =      -0.08822724 Ry

     convergence has been achieved in  16 iterations

 BEEF-vdW xc energy contributions
           1 :   -377.500771965504
           2 :    348.742866965715
           3 :   -297.699796385512
           4 :    234.963597934180
           5 :   -171.987977709847
           6 :    117.911619425780
           7 :   -77.6216136232790
           8 :    51.4220868977824
           9 :   -36.1986452782079
          10 :    27.3752060006987
          11 :   -20.8856774203174
          12 :    14.4503167072777
          13 :   -7.87595358902206
          14 :    2.45047363510901
          15 :   0.137563280188942
          16 :    1.13873735314348
          17 :   -6.04032980577756
          18 :    13.0846399019798
          19 :   -20.1144495590081
          20 :    25.0985256588579
          21 :   -26.8150520556916
          22 :    25.1441644219629
          23 :   -20.9149745644422
          24 :    15.4296172755184
          25 :   -9.91648144866610
          26 :    5.14322489539666
          27 :   -1.32144271404434
          28 :   -1.72193135226303
          29 :    4.23874282141003
          30 :   -6.29514730867754
          31 :   -35.7724473449581
          32 :   -26.8455053440326

     Forces acting on atoms (Ry/au):

     negative rho (up, down):  1.549E+00 0.000E+00
     atom    1 type  1   force =    -0.00000080   -0.00202890    0.01547035
     atom    2 type  1   force =     0.00000076   -0.00202574    0.01546651
     atom    3 type  2   force =     0.00000392    0.00075959    0.02383837
     atom    4 type  2   force =    -0.00000439    0.00075592    0.02384027
     atom    5 type  1   force =     0.00000006    0.00334359   -0.01915050
     atom    6 type  1   force =     0.00000044    0.00335127   -0.01914210
     atom    7 type  2   force =     0.00001681   -0.00286708   -0.02025645
     atom    8 type  2   force =    -0.00001738   -0.00286728   -0.02025639
     atom    9 type  1   force =     0.00000077    0.00027367    0.00010738
     atom   10 type  1   force =     0.00000032    0.00027014    0.00011590
     atom   11 type  2   force =    -0.00000713    0.00051707   -0.00001652
     atom   12 type  2   force =     0.00000663    0.00051775   -0.00001682

     Total force =     0.056727     Total SCF correction =     0.003601

     entering subroutine stress ...

     negative rho (up, down):  1.549E+00 0.000E+00
          total   stress  (Ry/bohr**3)                   (kbar)     P=  -25.17
  -0.00020905  -0.00000000  -0.00000000        -30.75     -0.00     -0.00
  -0.00000000  -0.00021167   0.00000355         -0.00    -31.14      0.52
  -0.00000000   0.00000355  -0.00009259         -0.00      0.52    -13.62

 !ASE

     Writing output data file calc.save

     General routines

     Parallel routines

   This run was terminated on:  20:19:12  29Dec2018

   JOB DONE.
Job  /afs/slac/g/suncat/bin/suncat-tsmpirun -x LD_LIBRARY_PATH -wdir /scratch/qe387718_VMFpD pw.x -in pw.inp

TID   HOST_NAME   COMMAND_LINE            STATUS            TERMINATION_TIME
00000 suncat0159 pw.x -in pw.inp   Done                     12/29/2018 20:19:12
00001 suncat0159 pw.x -in pw.inp   Done                     12/29/2018 20:19:12
00002 suncat0159 pw.x -in pw.inp   Done                     12/29/2018 20:19:12
00003 suncat0159 pw.x -in pw.inp   Done                     12/29/2018 20:19:12
00004 suncat0159 pw.x -in pw.inp   Done                     12/29/2018 20:19:12
00005 suncat0159 pw.x -in pw.inp   Done                     12/29/2018 20:19:12
00006 suncat0159 pw.x -in pw.inp   Done                     12/29/2018 20:19:12
00007 suncat0159 pw.x -in pw.inp   Done                     12/29/2018 20:19:12
00008 suncat0155 pw.x -in pw.inp   Done                     12/29/2018 20:19:12
00009 suncat0155 pw.x -in pw.inp   Done                     12/29/2018 20:19:12
00010 suncat0155 pw.x -in pw.inp   Done                     12/29/2018 20:19:12
00011 suncat0155 pw.x -in pw.inp   Done                     12/29/2018 20:19:12
00012 suncat0155 pw.x -in pw.inp   Done                     12/29/2018 20:19:12
00013 suncat0155 pw.x -in pw.inp   Done                     12/29/2018 20:19:12
00014 suncat0155 pw.x -in pw.inp   Done                     12/29/2018 20:19:12
00015 suncat0155 pw.x -in pw.inp   Done                     12/29/2018 20:19:12
00016 suncat0143 pw.x -in pw.inp   Done                     12/29/2018 20:19:12
00017 suncat0143 pw.x -in pw.inp   Done                     12/29/2018 20:19:12
00018 suncat0143 pw.x -in pw.inp   Done                     12/29/2018 20:19:12
00019 suncat0143 pw.x -in pw.inp   Done                     12/29/2018 20:19:12
00020 suncat0143 pw.x -in pw.inp   Done                     12/29/2018 20:19:12
00021 suncat0143 pw.x -in pw.inp   Done                     12/29/2018 20:19:12
00022 suncat0143 pw.x -in pw.inp   Done                     12/29/2018 20:19:12
00023 suncat0143 pw.x -in pw.inp   Done                     12/29/2018 20:19:12
00024 suncat0141 pw.x -in pw.inp   Done                     12/29/2018 20:19:12
00025 suncat0141 pw.x -in pw.inp   Done                     12/29/2018 20:19:12
00026 suncat0141 pw.x -in pw.inp   Done                     12/29/2018 20:19:12
00027 suncat0141 pw.x -in pw.inp   Done                     12/29/2018 20:19:12
00028 suncat0141 pw.x -in pw.inp   Done                     12/29/2018 20:19:12
00029 suncat0141 pw.x -in pw.inp   Done                     12/29/2018 20:19:12
00030 suncat0141 pw.x -in pw.inp   Done                     12/29/2018 20:19:12
00031 suncat0141 pw.x -in pw.inp   Done                     12/29/2018 20:19:12
00032 suncat0140 pw.x -in pw.inp   Done                     12/29/2018 20:19:12
00033 suncat0140 pw.x -in pw.inp   Done                     12/29/2018 20:19:12
00034 suncat0140 pw.x -in pw.inp   Done                     12/29/2018 20:19:12
00035 suncat0140 pw.x -in pw.inp   Done                     12/29/2018 20:19:12
00036 suncat0140 pw.x -in pw.inp   Done                     12/29/2018 20:19:12
00037 suncat0140 pw.x -in pw.inp   Done                     12/29/2018 20:19:12
00038 suncat0140 pw.x -in pw.inp   Done                     12/29/2018 20:19:12
00039 suncat0140 pw.x -in pw.inp   Done                     12/29/2018 20:19:12
00040 suncat0135 pw.x -in pw.inp   Done                     12/29/2018 20:19:12
00041 suncat0135 pw.x -in pw.inp   Done                     12/29/2018 20:19:12
00042 suncat0135 pw.x -in pw.inp   Done                     12/29/2018 20:19:12
00043 suncat0135 pw.x -in pw.inp   Done                     12/29/2018 20:19:12
00044 suncat0135 pw.x -in pw.inp   Done                     12/29/2018 20:19:12
00045 suncat0135 pw.x -in pw.inp   Done                     12/29/2018 20:19:12
00046 suncat0135 pw.x -in pw.inp   Done                     12/29/2018 20:19:12
00047 suncat0135 pw.x -in pw.inp   Done                     12/29/2018 20:19:12
00048 suncat0134 pw.x -in pw.inp   Done                     12/29/2018 20:19:12
00049 suncat0134 pw.x -in pw.inp   Done                     12/29/2018 20:19:12
00050 suncat0134 pw.x -in pw.inp   Done                     12/29/2018 20:19:12
00051 suncat0134 pw.x -in pw.inp   Done                     12/29/2018 20:19:12
00052 suncat0134 pw.x -in pw.inp   Done                     12/29/2018 20:19:12
00053 suncat0134 pw.x -in pw.inp   Done                     12/29/2018 20:19:12
00054 suncat0134 pw.x -in pw.inp   Done                     12/29/2018 20:19:12
00055 suncat0134 pw.x -in pw.inp   Done                     12/29/2018 20:19:12
00056 suncat0272 pw.x -in pw.inp   Done                     12/29/2018 20:19:12
00057 suncat0272 pw.x -in pw.inp   Done                     12/29/2018 20:19:12
00058 suncat0272 pw.x -in pw.inp   Done                     12/29/2018 20:19:12
00059 suncat0272 pw.x -in pw.inp   Done                     12/29/2018 20:19:12
00060 suncat0272 pw.x -in pw.inp   Done                     12/29/2018 20:19:12
00061 suncat0272 pw.x -in pw.inp   Done                     12/29/2018 20:19:12
00062 suncat0272 pw.x -in pw.inp   Done                     12/29/2018 20:19:12
00063 suncat0272 pw.x -in pw.inp   Done                     12/29/2018 20:19:12