     Program PWSCF v.5.1rc2 (svn rev. 11289) starts on 18Dec2018 at 18:15:45

     Current dimensions of program PWSCF are:
     Max number of different atomic species (ntypx) = 10
     Max number of k-points (npk) =  40000
     Max angular momentum in pseudopotentials (lmaxx) =  3
     Presently stress not available with electric field

     IMPORTANT: XC functional enforced from input :
     Exchange-correlation      = BEEF-VDW ( 1  4 27 13 2)
     Any further DFT definition will be discarded
     Please, verify this is what you really want

     Subspace diagonalization in iterative solution of the eigenvalue problem:
     a serial algorithm will be used

     Found symmetry operation: I + ( -0.5000 -0.5000  0.0000)
     This is a supercell, fractional translations are disabled

     bravais-lattice index     =            0
     lattice parameter (alat)  =       1.8897  a.u.
     unit-cell volume          =    6515.2826 (a.u.)^3
     number of atoms/cell      =           12
     number of atomic types    =            2
     number of electrons       =        96.00
     number of Kohn-Sham states=           78
     kinetic-energy cutoff     =      36.7493  Ry
     charge density cutoff     =     367.4932  Ry
     convergence threshold     =      1.0E-06
     mixing beta               =       0.1000
     number of iterations used =           10  plain     mixing
     Exchange-correlation      = BEEF-VDW ( 1  4 27 13 2)
     nstep                     =           50

     celldm(1)=   1.889726  celldm(2)=   0.000000  celldm(3)=   0.000000
     celldm(4)=   0.000000  celldm(5)=   0.000000  celldm(6)=   0.000000

     crystal axes: (cart. coord. in units of alat)
               a(1) = (   6.474269   0.000000   0.000000 )
               a(2) = (   2.710631   5.879510   0.000000 )
               a(3) = (   0.000000   0.000000  25.363241 )

     reciprocal axes: (cart. coord. in units 2 pi/alat)
               b(1) = (  0.154458 -0.071210  0.000000 )
               b(2) = (  0.000000  0.170082  0.000000 )
               b(3) = (  0.000000  0.000000  0.039427 )

     PseudoPot. # 1 for Al read from file:
     /afs/slac.stanford.edu/u/if/mamunm/psp/gbrv1.5pbe/Al.UPF
     MD5 check sum: 0a6289f5291fc8f409219462bc851e1f
     Pseudo is Ultrasoft + core correction, Zval =  3.0
     Generated by new atomic code, or converted to UPF format
     Using radial grid of  893 points,  3 beta functions with:
                l(1) =   0
                l(2) =   1
                l(3) =   2
     Q(r) pseudized with  8 coefficients,  rinner =    0.900   0.900   0.900
                                                       0.900   0.900

     PseudoPot. # 2 for Tl read from file:
     /afs/slac.stanford.edu/u/if/mamunm/psp/gbrv1.5pbe/Tl.UPF
     MD5 check sum: b76cf1f7e72655a2b2c53cf6385d7059
     Pseudo is Ultrasoft + core correction, Zval = 13.0
     Generated by new atomic code, or converted to UPF format
     Using radial grid of  899 points,  6 beta functions with:
                l(1) =   0
                l(2) =   0
                l(3) =   1
                l(4) =   1
                l(5) =   2
                l(6) =   2
     Q(r) pseudized with  6 coefficients,  rinner =    1.100   1.100   1.100
                                                       1.100   1.100

     vdW kernel table read from file vdW_kernel_table
     MD5 check sum: 095c7af220d748ca6e76c0b4c6cfb241

     atomic species   valence    mass     pseudopotential
        Al1            3.00    26.98154     Al( 1.00)
        Tl1           13.00   204.38000     Tl( 1.00)

     No symmetry found

   Cartesian axes

     site n.     atom                  positions (alat units)
         1           Al1 tau(   1) = (   0.0000000   0.0000000  10.0000000  )
         2           Al1 tau(   2) = (   4.5924502   2.9397551  10.0000000  )
         3           Tl1 tau(   3) = (   3.2371346   0.0000000  10.0000000  )
         4           Tl1 tau(   4) = (   1.3553155   2.9397551  10.0000000  )
         5           Al1 tau(   5) = (   6.4742692   4.1443599  12.6816203  )
         6           Al1 tau(   6) = (   1.8818191   1.2046048  12.6816203  )
         7           Tl1 tau(   7) = (   3.2371346   4.1443599  12.6816203  )
         8           Tl1 tau(   8) = (   5.1189537   1.2046048  12.6816203  )
         9           Al1 tau(   9) = (   3.7636382   2.4092095  15.3632407  )
        10           Al1 tau(  10) = (   8.3560883   5.3489647  15.3632407  )
        11           Tl1 tau(  11) = (   7.0007728   2.4092095  15.3632407  )
        12           Tl1 tau(  12) = (   5.1189537   5.3489647  15.3632407  )

     number of k points=    20  Fermi-Dirac smearing, width (Ry)=  0.0110
                       cart. coord. in units 2pi/alat
        k(    1) = (   0.0000000   0.0000000   0.0000000), wk =   0.0555556
        k(    2) = (   0.0000000   0.0283470   0.0000000), wk =   0.1111111
        k(    3) = (   0.0000000   0.0566941   0.0000000), wk =   0.1111111
        k(    4) = (   0.0000000  -0.0850411   0.0000000), wk =   0.0555556
        k(    5) = (   0.0257429  -0.0118683   0.0000000), wk =   0.1111111
        k(    6) = (   0.0257429   0.0164788   0.0000000), wk =   0.1111111
        k(    7) = (   0.0257429   0.0448258   0.0000000), wk =   0.1111111
        k(    8) = (   0.0257429  -0.0969094   0.0000000), wk =   0.1111111
        k(    9) = (   0.0257429  -0.0685623   0.0000000), wk =   0.1111111
        k(   10) = (   0.0257429  -0.0402153   0.0000000), wk =   0.1111111
        k(   11) = (   0.0514859  -0.0237365   0.0000000), wk =   0.1111111
        k(   12) = (   0.0514859   0.0046105   0.0000000), wk =   0.1111111
        k(   13) = (   0.0514859   0.0329575   0.0000000), wk =   0.1111111
        k(   14) = (   0.0514859  -0.1087776   0.0000000), wk =   0.1111111
        k(   15) = (   0.0514859  -0.0804306   0.0000000), wk =   0.1111111
        k(   16) = (   0.0514859  -0.0520836   0.0000000), wk =   0.1111111
        k(   17) = (  -0.0772288   0.0356048   0.0000000), wk =   0.0555556
        k(   18) = (  -0.0772288   0.0639518   0.0000000), wk =   0.1111111
        k(   19) = (  -0.0772288   0.0922989   0.0000000), wk =   0.1111111
        k(   20) = (  -0.0772288  -0.0494363   0.0000000), wk =   0.0555556

     Largest allocated arrays     est. size (Mb)     dimensions
     Largest temporary arrays     est. size (Mb)     dimensions

     Check: negative/imaginary core charge=   -0.000001    0.000000

     Initial potential from superposition of free atoms
     Check: negative starting charge=   -0.305022

     starting charge   95.95601, renormalised to   96.00000

     negative rho (up, down):  3.052E-01 0.000E+00

     *
     * You are using vdW-DF for exchange-correlation in this calculation.
     * Please cite the following three references that made this development
     * possible:
     *
     *   M. Dion, H. Rydberg, E. Schroder, D. C. Langreth, and
     *   B. I. Lundqvist, Phys. Rev. Lett. 92, 246401 (2004).
     *
     *   T. Thonhauser, V. R. Cooper, S. Li, A. Puzder, P. Hyldgaard, and
     *   D. C. Langreth, Phys. Rev. B 76, 125112 (2007).
     *
     *   G. Roman-Perez and J. M. Soler, Phys. Rev. Lett. 103, 096102 (2009).
     *
     *
     * If you are using vdW-DF2, please also cite:
     *
     *   K. Lee, E. D. Murray, L. Kong, B. I. Lundqvist, and
     *   D. C. Langreth, Phys. Rev. B 82, 081101(R) (2010).
     *
     *
     * If you are calculating the stress with vdW-DF, please also cite:
     *
     *   R. Sabatini, E. Kucukbenli, B. Kolb, T. Thonhauser, and
     *   S. de Gironcoli, J. Phys.: Condens. Matter 24, 424209 (2012).
     *

     Carrying out vdW-DF run using the following parameters:

     Nqs =      20    Nr_points =    1024   r_max =   100.000
     q_mesh =
               0.00001000     0.04494208     0.09755937     0.15916263
               0.23128650     0.31572767     0.41458969     0.53033537
               0.66584808     0.82450364     1.01025438     1.22772762
               1.48234092     1.78043706     2.12944203     2.53805004
               3.01644009     3.57652955     4.23227104     5.00000000

     Gradients computed in reciprocal space

     Adding external electric field

     Computed dipole along edir(3) :
        Dipole                0.0000 Ry au,          0.0000 Debye
        Dipole field          0.0000 Ry au

        Potential amp.       -0.0000 Ry
        Total length         46.7313 bohr

     Starting wfc are   78 randomized atomic wfcs

     Self-consistent Calculation

     iteration #  1     ecut=    36.75 Ry     beta=0.10
     Davidson diagonalization with overlap
     ethr =  1.00E-02,  avg # of iterations =  7.8

     Threshold (ethr) on eigenvalues was too large:
     Diagonalizing with lowered threshold

     Davidson diagonalization with overlap
     ethr =  1.92E-04,  avg # of iterations = 10.1

[...]

     total energy              =    -921.69585659 Ry
     Harris-Foulkes estimate   =    -921.72358548 Ry
     estimated scf accuracy    <       0.19211539 Ry

[...]

     End of self-consistent calculation

          k = 0.0000 0.0000 0.0000 ( 24535 PWs)   bands (ev):

   -12.1031 -12.0483 -12.0365 -12.0205 -12.0071 -11.9940 -11.9528 -11.9518
   -11.9265 -11.9141 -11.9017 -11.8742 -11.8587 -11.8425 -11.8105 -11.8060
   -11.7935 -11.7819 -11.7628 -11.7624 -11.7498 -11.7482 -11.7310 -11.7285
   -11.7271 -11.6853 -11.6622 -11.6155 -11.6103 -11.5297  -9.4533  -8.1690
    -6.4260  -5.7378  -5.4571  -4.7970  -4.0518  -4.0139  -4.0114  -3.5197
    -2.8764  -2.6306  -2.6087  -2.5388  -2.1686  -2.1522  -1.6195  -1.1637
    -1.1311  -0.9544  -0.6630  -0.3977   0.6033   1.9093   2.1243   2.1708
     2.5262   2.5748   2.7724   2.9609   3.0783   3.5141   3.8568   3.8937
     3.9917   4.1777   4.6046   4.9634   5.4003   5.4736   5.5695   5.6062
     5.6337   5.7791   5.7918   5.8784   6.0164   6.0352

[...]

          k =-0.0772 0.0356 0.0000 ( 24500 PWs)   bands (ev):

[...]

     the Fermi energy is    -0.2012 ev

!    total energy              =    -921.70081428 Ry
     Harris-Foulkes estimate   =    -921.70079813 Ry
     estimated scf accuracy    <       0.00000013 Ry

     The total energy is the sum of the following terms:

     one-electron contribution =   -3487.16732000 Ry
     hartree contribution      =    1785.25690838 Ry
     xc contribution           =    -409.75112295 Ry
     ewald contribution        =    1189.99576373 Ry
     electric field correction =       0.00000000 Ry
     smearing contrib. (-TS)   =      -0.03504343 Ry

     convergence has been achieved in  13 iterations

 BEEF-vdW xc energy contributions
           1 :   -363.274069560489
           2 :    335.538395487602
           3 :   -287.452725933493
           4 :    230.394836803776
           5 :   -175.237628581276
           6 :    128.978724655389
           7 :   -93.7468291874542
           8 :    67.9570161437842
           9 :   -48.4911979321922
          10 :    32.6208031074449
          11 :   -18.9642264045194
          12 :    7.45315441662922
          13 :    1.27250934781472
          14 :   -6.60733845648480
          15 :    8.55303463376407
          16 :   -7.95261766232318
[...]

[...]

     Program PWSCF v.5.1rc2 (svn rev. 11289) starts on 18Dec2018 at 18:46: 4

[...]

   This run was terminated on:  19: 1:34  18Dec2018

[...]

     Program PWSCF v.5.1rc2 (svn rev. 11289) starts on 18Dec2018 at 19: 1:39

[...]

   This run was terminated on:  19:32: 1  18Dec2018

[...]

     Program PWSCF v.5.1rc2 (svn rev. 11289) starts on 18Dec2018 at 20:42: 7

[...]

     Total force =     0.036379     Total SCF correction =     0.002152

[...]

   This run was terminated on:  22: 2:40  18Dec2018

[...]

     Program PWSCF v.5.1rc2 (svn rev. 11289) starts on 18Dec2018 at 22: 2:46

[...]

   This run was terminated on:  22:14: 9  18Dec2018

[...]

     Program PWSCF v.5.1rc2 (svn rev. 11289) starts on 18Dec2018 at 22:14:16

     Current dimensions of program PWSCF are:
     Max number of different atomic species (ntypx) = 10
     Max number of k-points (npk) =  40000
     Max angular momentum in pseudopotentials (lmaxx) =  3
     Presently stress not available with electric field

     IMPORTANT: XC functional enforced from input :
     Exchange-correlation      = BEEF-VDW ( 1  4 27 13 2)
     Any further DFT definition will be discarded
     Please, verify this is what you really want

     Subspace diagonalization in iterative solution of the eigenvalue problem:
     a serial algorithm will be used

     bravais-lattice index     =            0
     lattice parameter (alat)  =       1.8897  a.u.
     unit-cell volume          =    6515.2826 (a.u.)^3
     number of atoms/cell      =           12
     number of atomic types    =            2
     number of electrons       =        96.00
     number of Kohn-Sham states=           78
     kinetic-energy cutoff     =      36.7493  Ry
     charge density cutoff     =     367.4932  Ry
     convergence threshold     =      1.0E-06
     mixing beta               =       0.1000
     number of iterations used =           10  plain     mixing
     Exchange-correlation      = BEEF-VDW ( 1  4 27 13 2)
     nstep                     =           50

     celldm(1)=   1.889726  celldm(2)=   0.000000  celldm(3)=   0.000000
     celldm(4)=   0.000000  celldm(5)=   0.000000  celldm(6)=   0.000000

     crystal axes: (cart. coord. in units of alat)
               a(1) = (   6.474269   0.000000   0.000000 )
               a(2) = (   2.710631   5.879510   0.000000 )
               a(3) = (   0.000000   0.000000  25.363241 )

     reciprocal axes: (cart. coord. in units 2 pi/alat)
               b(1) = (  0.154458 -0.071210  0.000000 )
               b(2) = (  0.000000  0.170082  0.000000 )
               b(3) = (  0.000000  0.000000  0.039427 )

     PseudoPot. # 1 for Al read from file:
     /afs/slac.stanford.edu/u/if/mamunm/psp/gbrv1.5pbe/Al.UPF
     MD5 check sum: 0a6289f5291fc8f409219462bc851e1f
     Pseudo is Ultrasoft + core correction, Zval =  3.0
     Generated by new atomic code, or converted to UPF format
     Using radial grid of  893 points,  3 beta functions with:
                l(1) =   0
                l(2) =   1
                l(3) =   2
     Q(r) pseudized with  8 coefficients,  rinner =    0.900   0.900   0.900
                                                       0.900   0.900

     PseudoPot. # 2 for Tl read from file:
     /afs/slac.stanford.edu/u/if/mamunm/psp/gbrv1.5pbe/Tl.UPF
     MD5 check sum: b76cf1f7e72655a2b2c53cf6385d7059
     Pseudo is Ultrasoft + core correction, Zval = 13.0
     Generated by new atomic code, or converted to UPF format
     Using radial grid of  899 points,  6 beta functions with:
                l(1) =   0
                l(2) =   0
                l(3) =   1
                l(4) =   1
                l(5) =   2
                l(6) =   2
     Q(r) pseudized with  6 coefficients,  rinner =    1.100   1.100   1.100
                                                       1.100   1.100

     vdW kernel table read from file vdW_kernel_table
     MD5 check sum: 095c7af220d748ca6e76c0b4c6cfb241

     atomic species   valence    mass     pseudopotential
        Al1            3.00    26.98154     Al( 1.00)
        Tl1           13.00   204.38000     Tl( 1.00)

     No symmetry found

   Cartesian axes

     site n.     atom                  positions (alat units)
         1           Al1 tau(   1) = (   0.0000000   0.0000000  10.0000000  )
         2           Al1 tau(   2) = (   4.5924502   2.9397551  10.0000000  )
         3           Tl1 tau(   3) = (   3.2371346   0.0000000  10.0000000  )
         4           Tl1 tau(   4) = (   1.3553155   2.9397551  10.0000000  )
         5           Al1 tau(   5) = (   6.4742692   4.1443599  12.6816203  )
         6           Al1 tau(   6) = (   1.8818191   1.2046048  12.6816203  )
         7           Tl1 tau(   7) = (   3.2371346   4.1443599  12.6816203  )
         8           Tl1 tau(   8) = (   5.1189537   1.2046048  12.6816203  )
         9           Al1 tau(   9) = (   3.0916108   1.9795395  15.0362571  )
        10           Al1 tau(  10) = (   7.6847078   4.9186802  15.0347081  )
        11           Tl1 tau(  11) = (   6.3709289   2.0065846  15.6973120  )
        12           Tl1 tau(  12) = (   4.4899803   4.9457729  15.6972897  )

     number of k points=    20  Fermi-Dirac smearing, width (Ry)=  0.0110
                       cart. coord. in units 2pi/alat
        k(    1) = (   0.0000000   0.0000000   0.0000000), wk =   0.0555556
        k(    2) = (   0.0000000   0.0283470   0.0000000), wk =   0.1111111
        k(    3) = (   0.0000000   0.0566941   0.0000000), wk =   0.1111111
        k(    4) = (   0.0000000  -0.0850411   0.0000000), wk =   0.0555556
        k(    5) = (   0.0257429  -0.0118683   0.0000000), wk =   0.1111111
        k(    6) = (   0.0257429   0.0164788   0.0000000), wk =   0.1111111
        k(    7) = (   0.0257429   0.0448258   0.0000000), wk =   0.1111111
        k(    8) = (   0.0257429  -0.0969094   0.0000000), wk =   0.1111111
        k(    9) = (   0.0257429  -0.0685623   0.0000000), wk =   0.1111111
        k(   10) = (   0.0257429  -0.0402153   0.0000000), wk =   0.1111111
        k(   11) = (   0.0514859  -0.0237365   0.0000000), wk =   0.1111111
        k(   12) = (   0.0514859   0.0046105   0.0000000), wk =   0.1111111
        k(   13) = (   0.0514859   0.0329575   0.0000000), wk =   0.1111111
        k(   14) = (   0.0514859  -0.1087776   0.0000000), wk =   0.1111111
        k(   15) = (   0.0514859  -0.0804306   0.0000000), wk =   0.1111111
        k(   16) = (   0.0514859  -0.0520836   0.0000000), wk =   0.1111111
        k(   17) = (  -0.0772288   0.0356048   0.0000000), wk =   0.0555556
        k(   18) = (  -0.0772288   0.0639518   0.0000000), wk =   0.1111111
        k(   19) = (  -0.0772288   0.0922989   0.0000000), wk =   0.1111111
        k(   20) = (  -0.0772288  -0.0494363   0.0000000), wk =   0.0555556

     Largest allocated arrays     est. size (Mb)     dimensions
     Largest temporary arrays     est. size (Mb)     dimensions

     Check: negative/imaginary core charge=   -0.000001    0.000000

     Initial potential from superposition of free atoms
     Check: negative starting charge=   -0.304751

     starting charge   95.95601, renormalised to   96.00000

[...]

     *
     * You are using vdW-DF for exchange-correlation in this calculation.
     * Please cite the following three references that made this development
     * possible:
     *
     *   M. Dion, H. Rydberg, E. Schroder, D. C. Langreth, and
     *   B. I. Lundqvist, Phys. Rev. Lett. 92, 246401 (2004).
     *
     *   T. Thonhauser, V. R. Cooper, S. Li, A. Puzder, P. Hyldgaard, and
     *   D. C. Langreth, Phys. Rev. B 76, 125112 (2007).
     *
     *   G. Roman-Perez and J. M. Soler, Phys. Rev. Lett. 103, 096102 (2009).
     *
     *
     * If you are using vdW-DF2, please also cite:
     *
     *   K. Lee, E. D. Murray, L. Kong, B. I. Lundqvist, and
     *   D. C. Langreth, Phys. Rev. B 82, 081101(R) (2010).
     *
     *
     * If you are calculating the stress with vdW-DF, please also cite:
     *
     *   R. Sabatini, E. Kucukbenli, B. Kolb, T. Thonhauser, and
     *   S. de Gironcoli, J. Phys.: Condens. Matter 24, 424209 (2012).
     *

     Carrying out vdW-DF run using the following parameters:

     Nqs =      20    Nr_points =    1024   r_max =   100.000
     q_mesh =
               0.00001000     0.04494208     0.09755937     0.15916263
               0.23128650     0.31572767     0.41458969     0.53033537
               0.66584808     0.82450364     1.01025438     1.22772762
               1.48234092     1.78043706     2.12944203     2.53805004
               3.01644009     3.57652955     4.23227104     5.00000000

     Gradients computed in reciprocal space

[...]

     Starting wfc are   78 randomized atomic wfcs

     Self-consistent Calculation

[...]

     Threshold (ethr) on eigenvalues was too large:
     Diagonalizing with lowered threshold

     Davidson diagonalization with overlap
     ethr =  2.70E-04,  avg # of iterations =  7.5

[...]

     total energy              =    -921.72321569 Ry
     Harris-Foulkes estimate   =    -921.72318482 Ry
     estimated scf accuracy    <       0.00000232 Ry

     iteration # 12     ecut=    36.75 Ry     beta=0.10
     Davidson diagonalization with overlap
     ethr =  2.42E-09,  avg # of iterations =  2.1

[...]

     negative rho (up, down):  3.187E-01 0.000E+00

     Adding external electric field

     Computed dipole along edir(3) :
        Dipole                0.0513 Ry au,          0.1305 Debye
        Dipole field          0.0001 Ry au

        Potential amp.       -0.0093 Ry
        Total length         46.7313 bohr

     End of self-consistent calculation

[...]

          k = 0.0515-0.0521 0.0000 ( 24526 PWs)   bands (ev):

[...]

          k =-0.0772-0.0494 0.0000 ( 24512 PWs)   bands (ev):

   -12.1158 -12.0271 -12.0233 -11.9945 -11.9713 -11.9688 -11.9283 -11.9203
   -11.9083 -11.9056 -11.9003 -11.8896 -11.8192 -11.8119 -11.8006 -11.7979
   -11.7947 -11.7804 -11.7493 -11.7479 -11.7307 -11.7156 -11.7134 -11.7129
   -11.6859 -11.6759 -11.6619 -11.6587 -11.5971 -11.5052  -8.3460  -7.8676
    -7.0268  -6.5441  -6.3029  -5.5849  -5.4585  -4.7899  -4.2396  -4.1829
    -4.1362  -2.3434  -1.0336  -0.8455  -0.6409  -0.4467  -0.0803  -0.0219
     0.5705   0.5713   0.8681   1.4379   1.4936   1.7681   1.9451   1.9500
     2.5473   2.6551   2.9320   2.9592   3.0185   3.0799   3.4800   3.6149
     3.7420   3.8531   3.8615   4.1057   4.2088   4.3206   4.4272   4.5335
     4.8790   4.9777   5.1198   5.2278   5.2759   5.2824

     the Fermi energy is    -0.1721 ev

!    total energy              =    -921.72326698 Ry
     Harris-Foulkes estimate   =    -921.72321707 Ry
     estimated scf accuracy    <       0.00000087 Ry

     The total energy is the sum of the following terms:

     one-electron contribution =   -3390.16941386 Ry
     hartree contribution      =    1736.82315771 Ry
     xc contribution           =    -409.77598743 Ry
     ewald contribution        =    1141.43491125 Ry
     electric field correction =       0.00000508 Ry
     smearing contrib. (-TS)   =      -0.03593973 Ry

     convergence has been achieved in  12 iterations

 BEEF-vdW xc energy contributions
           1 :   -363.283763384019
           2 :    335.500284162449
           3 :   -287.376351646642
           4 :    230.343283122715
           5 :   -175.271225927413
           6 :    129.100219172043
           7 :   -93.8912326404329
           8 :    68.0306225047295
           9 :   -48.4314112321975
          10 :    32.4382646825554
          11 :   -18.7419352289487
          12 :    7.30119110138480
          13 :    1.28121614536548
          14 :   -6.48116998340384
          15 :    8.37740356613472
          16 :   -7.83863281823744
          17 :    6.30071854006104
          18 :   -5.20164291875915
          19 :    5.33501293318500
          20 :   -6.52332897457643
          21 :    7.85999883621292
          22 :   -8.39485979770950
          23 :    7.79301613850942
          24 :   -6.51409851794989
          25 :    5.41633149598783
          26 :   -5.12006306234935
          27 :    5.60248383702606
          28 :   -6.28007859723044
          29 :    6.45346365729881
          30 :   -5.76684338947183
          31 :   -30.6251584435561
          32 :   -22.2960401430852

     Forces acting on atoms (Ry/au):

     negative rho (up, down):  3.187E-01 0.000E+00
     atom    1 type  1   force =     0.00393679    0.00251811    0.01017800
     atom    2 type  1   force =     0.00393695    0.00252234    0.01020268
     atom    3 type  2   force =    -0.00355308   -0.00226433   -0.00616398
     atom    4 type  2   force =    -0.00354670   -0.00227359   -0.00616640
     atom    5 type  1   force =    -0.00633878   -0.00405592    0.00097185
     atom    6 type  1   force =    -0.00633677   -0.00405787    0.00108414
     atom    7 type  2   force =     0.00582006    0.00370386   -0.00492610
     atom    8 type  2   force =     0.00579006    0.00372789   -0.00491027
     atom    9 type  1   force =    -0.00006914   -0.00002558   -0.00048587
     atom   10 type  1   force =     0.00005634    0.00001779   -0.00037095
     atom   11 type  2   force =     0.00017911    0.00003781    0.00030077
     atom   12 type  2   force =     0.00012516    0.00014950    0.00028614

     Total force =     0.024946     Total SCF correction =     0.004129
     SCF correction compared to forces is large: reduce conv_thr to get better values

     entering subroutine stress ...

     negative rho (up, down):  3.187E-01 0.000E+00
          total   stress  (Ry/bohr**3)                   (kbar)     P=   -8.87
  -0.00007535   0.00000108  -0.00000121        -11.08      0.16     -0.18
   0.00000108  -0.00007634  -0.00000077          0.16    -11.23     -0.11
  -0.00000121  -0.00000077  -0.00002913         -0.18     -0.11     -4.29

 !ASE

     Writing output data file calc.save

     General routines

     Parallel routines

   This run was terminated on:  22:25:54  18Dec2018

   JOB DONE.
Job  /afs/slac/g/suncat/bin/suncat-tsmpirun -x LD_LIBRARY_PATH -wdir /scratch/qe529622_xMuY4 pw.x -in pw.inp

TID   HOST_NAME   COMMAND_LINE            STATUS            TERMINATION_TIME
00000 suncat0057 pw.x -in pw.inp   Done                     12/18/2018 22:25:54
00001 suncat0057 pw.x -in pw.inp   Done                     12/18/2018 22:25:54
00002 suncat0057 pw.x -in pw.inp   Done                     12/18/2018 22:25:54
00003 suncat0057 pw.x -in pw.inp   Done                     12/18/2018 22:25:54
00004 suncat0057 pw.x -in pw.inp   Done                     12/18/2018 22:25:54
00005 suncat0057 pw.x -in pw.inp   Done                     12/18/2018 22:25:54
00006 suncat0057 pw.x -in pw.inp   Done                     12/18/2018 22:25:54
00007 suncat0057 pw.x -in pw.inp   Done                     12/18/2018 22:25:54
00008 suncat0056 pw.x -in pw.inp   Done                     12/18/2018 22:25:54
00009 suncat0056 pw.x -in pw.inp   Done                     12/18/2018 22:25:54
00010 suncat0056 pw.x -in pw.inp   Done                     12/18/2018 22:25:54
00011 suncat0056 pw.x -in pw.inp   Done                     12/18/2018 22:25:54
00012 suncat0056 pw.x -in pw.inp   Done                     12/18/2018 22:25:54
00013 suncat0056 pw.x -in pw.inp   Done                     12/18/2018 22:25:54
00014 suncat0056 pw.x -in pw.inp   Done                     12/18/2018 22:25:54
00015 suncat0056 pw.x -in pw.inp   Done                     12/18/2018 22:25:54
00016 suncat0055 pw.x -in pw.inp   Done                     12/18/2018 22:25:54
00017 suncat0055 pw.x -in pw.inp   Done                     12/18/2018 22:25:54
00018 suncat0055 pw.x -in pw.inp   Done                     12/18/2018 22:25:54
00019 suncat0055 pw.x -in pw.inp   Done                     12/18/2018 22:25:54
00020 suncat0055 pw.x -in pw.inp   Done                     12/18/2018 22:25:54
00021 suncat0055 pw.x -in pw.inp   Done                     12/18/2018 22:25:54
00022 suncat0055 pw.x -in pw.inp   Done                     12/18/2018 22:25:54
00023 suncat0055 pw.x -in pw.inp   Done                     12/18/2018 22:25:54
00024 suncat0054 pw.x -in pw.inp   Done                     12/18/2018 22:25:54
00025 suncat0054 pw.x -in pw.inp   Done                     12/18/2018 22:25:54
00026 suncat0054 pw.x -in pw.inp   Done                     12/18/2018 22:25:54
00027 suncat0054 pw.x -in pw.inp   Done                     12/18/2018 22:25:54
00028 suncat0054 pw.x -in pw.inp   Done                     12/18/2018 22:25:54
00029 suncat0054 pw.x -in pw.inp   Done                     12/18/2018 22:25:54
00030 suncat0054 pw.x -in pw.inp   Done                     12/18/2018 22:25:54
00031 suncat0054 pw.x -in pw.inp   Done                     12/18/2018 22:25:54