     Program PWSCF v.5.1rc2 (svn rev. 11289) starts on 19Dec2018 at  5:11:56

     Current dimensions of program PWSCF are:
     Max number of different atomic species (ntypx) = 10
     Max number of k-points (npk) =  40000
     Max angular momentum in pseudopotentials (lmaxx) =  3
     Presently stress not available with electric field

     IMPORTANT: XC functional enforced from input :
     Exchange-correlation      = BEEF-VDW ( 1  4 27 13 2)
     Any further DFT definition will be discarded
     Please, verify this is what you really want

     Subspace diagonalization in iterative solution of the eigenvalue problem:
     a serial algorithm will be used

     Found symmetry operation: I + ( -0.5000  0.5000  0.0000)
     This is a supercell, fractional translations are disabled

     bravais-lattice index     =            0
     lattice parameter (alat)  =       1.8897  a.u.
     unit-cell volume          =    6549.1434 (a.u.)^3
     number of atoms/cell      =           12
     number of atomic types    =            2
     number of electrons       =       150.00
     number of Kohn-Sham states=          105
     kinetic-energy cutoff     =      36.7493  Ry
     charge density cutoff     =     367.4932  Ry
     convergence threshold     =      1.0E-06
     mixing beta               =       0.1000
     number of iterations used =           10  plain     mixing
     Exchange-correlation      = BEEF-VDW ( 1  4 27 13 2)
     nstep                     =           50

     celldm(1)=   1.889726  celldm(2)=   0.000000  celldm(3)=   0.000000
     celldm(4)=   0.000000  celldm(5)=   0.000000  celldm(6)=   0.000000

     crystal axes: (cart. coord. in units of alat)
               a(1) = (   6.495107   0.000000   0.000000 )
               a(2) = (   2.743548   5.887220   0.000000 )
               a(3) = (   0.000000   0.000000  25.379984 )

     reciprocal axes: (cart. coord. in units 2 pi/alat)
               b(1) = (  0.153962 -0.071749  0.000000 )
               b(2) = (  0.000000  0.169859  0.000000 )
               b(3) = (  0.000000  0.000000  0.039401 )

     PseudoPot. # 1 for Sc read from file:
     /afs/slac.stanford.edu/u/if/mamunm/psp/gbrv1.5pbe/Sc.UPF
     MD5 check sum: db30a2753ba66ef00f23801d899b7e7f
     Pseudo is Ultrasoft + core correction, Zval = 11.0
     Generated by new atomic code, or converted to UPF format
     Using radial grid of  849 points,  6 beta functions with:
                l(1) =   0
                l(2) =   0
                l(3) =   1
                l(4) =   1
                l(5) =   2
                l(6) =   2
     Q(r) pseudized with  6 coefficients,  rinner =    1.200   1.200   1.200
                                                       1.200   1.200

     PseudoPot. # 2 for Pb read from file:
     /afs/slac.stanford.edu/u/if/mamunm/psp/gbrv1.5pbe/Pb.UPF
     MD5 check sum: 3d1c1779aa92214d1e8f3a7db79003e2
     Pseudo is Ultrasoft + core correction, Zval = 14.0
     Generated by new atomic code, or converted to UPF format
     Using radial grid of  899 points,  6 beta functions with:
                l(1) =   0
                l(2) =   0
                l(3) =   1
                l(4) =   1
                l(5) =   2
                l(6) =   2
     Q(r) pseudized with  6 coefficients,  rinner =    1.000   1.000   1.000
                                                       1.000   1.000

     vdW kernel table read from file vdW_kernel_table
     MD5 check sum: 095c7af220d748ca6e76c0b4c6cfb241

     atomic species   valence    mass     pseudopotential
        Sc1           11.00    44.95591     Sc( 1.00)
        Pb1           14.00   207.20000     Pb( 1.00)

     No symmetry found

   Cartesian axes

     site n.     atom                  positions (alat units)
         1           Sc1 tau(   1) = (   0.0000000   0.0000000  10.0000000  )
         2           Sc1 tau(   2) = (   4.6193277   2.9436099  10.0000000  )
         3           Pb1 tau(   3) = (   3.2475535   0.0000000  10.0000000  )
         4           Pb1 tau(   4) = (   1.3717742   2.9436099  10.0000000  )
         5           Sc1 tau(   5) = (   6.4951070   4.1389272  12.6899918  )
         6           Sc1 tau(   6) = (   1.8757793   1.1953173  12.6899918  )
         7           Pb1 tau(   7) = (   3.2475535   4.1389272  12.6899918  )
         8           Pb1 tau(   8) = (   5.1233328   1.1953173  12.6899918  )
         9           Sc1 tau(   9) = (   3.7515586   2.3906346  15.3799835  )
        10           Sc1 tau(  10) = (   8.3708863   5.3342445  15.3799835  )
        11           Pb1 tau(  11) = (   6.9991121   2.3906346  15.3799835  )
        12           Pb1 tau(  12) = (   5.1233328   5.3342445  15.3799835  )

     number of k points=    20  Fermi-Dirac smearing, width (Ry)=  0.0110
                       cart. coord. in units 2pi/alat
        k(    1) = (   0.0000000   0.0000000   0.0000000), wk =   0.0555556
        k(    2) = (   0.0000000   0.0283099   0.0000000), wk =   0.1111111
        k(    3) = (   0.0000000   0.0566198   0.0000000), wk =   0.1111111
        k(    4) = (   0.0000000  -0.0849297   0.0000000), wk =   0.0555556
        k(    5) = (   0.0256603  -0.0119582   0.0000000), wk =   0.1111111
        k(    6) = (   0.0256603   0.0163517   0.0000000), wk =   0.1111111
        k(    7) = (   0.0256603   0.0446616   0.0000000), wk =   0.1111111
        k(    8) = (   0.0256603  -0.0968879   0.0000000), wk =   0.1111111
        k(    9) = (   0.0256603  -0.0685780   0.0000000), wk =   0.1111111
        k(   10) = (   0.0256603  -0.0402681   0.0000000), wk =   0.1111111
        k(   11) = (   0.0513207  -0.0239163   0.0000000), wk =   0.1111111
        k(   12) = (   0.0513207   0.0043936   0.0000000), wk =   0.1111111
        k(   13) = (   0.0513207   0.0327035   0.0000000), wk =   0.1111111
        k(   14) = (   0.0513207  -0.1088461   0.0000000), wk =   0.1111111
        k(   15) = (   0.0513207  -0.0805362   0.0000000), wk =   0.1111111
        k(   16) = (   0.0513207  -0.0522263   0.0000000), wk =   0.1111111
        k(   17) = (  -0.0769810   0.0358745   0.0000000), wk =   0.0555556
        k(   18) = (  -0.0769810   0.0641844   0.0000000), wk =   0.1111111
        k(   19) = (  -0.0769810   0.0924943   0.0000000), wk =   0.1111111
        k(   20) = (  -0.0769810  -0.0490552   0.0000000), wk =   0.0555556

     Largest allocated arrays     est. size (Mb)     dimensions
     Largest temporary arrays     est. size (Mb)     dimensions

     Check: negative/imaginary core charge=   -0.000001    0.000000

     Initial potential from superposition of free atoms
     Check: negative starting charge=   -0.100364

     starting charge  149.97148, renormalised to  150.00000

     negative rho (up, down):  1.004E-01 0.000E+00

     *
     * You are using vdW-DF for exchange-correlation in this calculation.
     * Please cite the following three references that made this development
     * possible:
     *
     *   M. Dion, H. Rydberg, E. Schroder, D. C. Langreth, and
     *   B. I. Lundqvist, Phys. Rev. Lett. 92, 246401 (2004).
     *
     *   T. Thonhauser, V. R. Cooper, S. Li, A. Puzder, P. Hyldgaard, and
     *   D. C. Langreth, Phys. Rev. B 76, 125112 (2007).
     *
     *   G. Roman-Perez and J. M. Soler, Phys. Rev. Lett. 103, 096102 (2009).
     *
     *
     * If you are using vdW-DF2, please also cite:
     *
     *   K. Lee, E. D. Murray, L. Kong, B. I. Lundqvist, and
     *   D. C. Langreth, Phys. Rev. B 82, 081101(R) (2010).
     *
     *
     * If you are calculating the stress with vdW-DF, please also cite:
     *
     *   R. Sabatini, E. Kucukbenli, B. Kolb, T. Thonhauser, and
     *   S. de Gironcoli, J. Phys.: Condens. Matter 24, 424209 (2012).
     *

     Carrying out vdW-DF run using the following parameters:

     Nqs =      20    Nr_points =    1024   r_max =   100.000
     q_mesh =
               0.00001000     0.04494208     0.09755937     0.15916263
               0.23128650     0.31572767     0.41458969     0.53033537
               0.66584808     0.82450364     1.01025438     1.22772762
               1.48234092     1.78043706     2.12944203     2.53805004
               3.01644009     3.57652955     4.23227104     5.00000000

     Gradients computed in reciprocal space

     Adding external electric field

     Computed dipole along edir(3) :
        Dipole               -0.0000 Ry au,         -0.0000 Debye
        Dipole field         -0.0000 Ry au

        Potential amp.        0.0000 Ry
        Total length         46.7622 bohr

     Starting wfc are  132 randomized atomic wfcs

     Self-consistent Calculation

     iteration #  1     ecut=    36.75 Ry     beta=0.10
     Davidson diagonalization with overlap
     ethr =  1.00E-02,  avg # of iterations =  2.0

     Threshold (ethr) on eigenvalues was too large:
     Diagonalizing with lowered threshold

     Davidson diagonalization with overlap
     ethr =  8.52E-04,  avg # of iterations =  2.0

[...]

     total energy              =   -1565.07788260 Ry
     Harris-Foulkes estimate   =   -1565.30540770 Ry
     estimated scf accuracy    <       1.34569477 Ry

[...]

     End of self-consistent calculation

          k = 0.0000 0.0000 0.0000 ( 24635 PWs)   bands (ev):

   -49.5971 -49.5969 -49.5893 -49.5890 -49.2090 -49.2008 -28.2930 -28.2927
   -28.2832 -28.2823 -28.1483 -28.1461 -28.1380 -28.1359 -28.1219 -28.1214
   -28.0204 -28.0201 -27.8532 -27.8422 -27.8217 -27.7670 -27.7554 -27.7158
   -16.1917 -16.1430 -16.1018 -16.0631 -16.0486 -16.0432 -16.0424 -16.0421
   -16.0013 -15.9653 -15.9510 -15.9149 -15.9053 -15.9007 -15.8778 -15.8741
   -15.8121 -15.8104 -15.8094 -15.8065 -15.8063 -15.8025 -15.7855 -15.7835
   -15.7795 -15.7785 -15.7581 -15.7549 -15.6924 -15.6874  -9.1108  -8.1029
    -7.3559  -6.9882  -6.3935  -6.0799  -2.2126  -1.7282  -1.4944  -1.4232
    -1.1813  -1.0799  -0.9777  -0.3881  -0.2485  -0.1461   0.3234   0.6546
     0.8137   0.8826   0.9211   0.9624   1.1792   1.3390   1.3526   1.5310
     1.8670   1.9676   2.0195   2.0902   2.1169   2.2543   2.3752   2.3896
     2.3921   2.4983   2.5873   2.6581   2.7367   2.7441   2.7671   2.9252
     2.9583   2.9987   3.1257   3.1746   3.2375   3.3899   3.6680   4.0415
     4.1299

[...]

          k =-0.0770 0.0359 0.0000 ( 24634 PWs)   bands (ev):

[...]

     the Fermi energy is     1.0664 ev

!    total energy              =   -1565.18351113 Ry
     Harris-Foulkes estimate   =   -1565.18351065 Ry
     estimated scf accuracy    <       0.00000076 Ry

     The total energy is the sum of the following terms:

     one-electron contribution =   -8378.09368310 Ry
     hartree contribution      =    4215.33781486 Ry
     xc contribution           =    -475.21652531 Ry
     ewald contribution        =    3072.86543701 Ry
     electric field correction =       0.00000000 Ry
     smearing contrib. (-TS)   =      -0.07655459 Ry

     convergence has been achieved in  15 iterations

 BEEF-vdW xc energy contributions
           1 :   -420.101833108093
           2 :    387.000397091959
           3 :   -330.387690448857
           4 :    264.717832150162
           5 :   -203.124979319398
           6 :    153.276184492648
[...]

[...]

   This run was terminated on:   5:22:43  19Dec2018

[...]

   This run was terminated on:   5:50: 6  19Dec2018

[...]

     Program PWSCF v.5.1rc2 (svn rev. 11289) starts on 19Dec2018 at  5:55:38

[...]

   This run was terminated on:   6: 1: 0  19Dec2018

[...]

     Program PWSCF v.5.1rc2 (svn rev. 11289) starts on 19Dec2018 at  6: 1: 6

[...]

   This run was terminated on:   6: 6:23  19Dec2018

[...]

     Program PWSCF v.5.1rc2 (svn rev. 11289) starts on 19Dec2018 at  6: 6:29

     Current dimensions of program PWSCF are:
     Max number of different atomic species (ntypx) = 10
     Max number of k-points (npk) =  40000
     Max angular momentum in pseudopotentials (lmaxx) =  3
     Presently stress not available with electric field

     IMPORTANT: XC functional enforced from input :
     Exchange-correlation      = BEEF-VDW ( 1  4 27 13 2)
     Any further DFT definition will be discarded
     Please, verify this is what you really want

     Subspace diagonalization in iterative solution of the eigenvalue problem:
     a serial algorithm will be used

     bravais-lattice index     =            0
     lattice parameter (alat)  =       1.8897  a.u.
     unit-cell volume          =    6549.1434 (a.u.)^3
     number of atoms/cell      =           12
     number of atomic types    =            2
     number of electrons       =       150.00
     number of Kohn-Sham states=          105
     kinetic-energy cutoff     =      36.7493  Ry
     charge density cutoff     =     367.4932  Ry
     convergence threshold     =      1.0E-06
     mixing beta               =       0.1000
     number of iterations used =           10  plain     mixing
     Exchange-correlation      = BEEF-VDW ( 1  4 27 13 2)
     nstep                     =           50

     celldm(1)=   1.889726  celldm(2)=   0.000000  celldm(3)=   0.000000
     celldm(4)=   0.000000  celldm(5)=   0.000000  celldm(6)=   0.000000

     crystal axes: (cart. coord. in units of alat)
               a(1) = (   6.495107   0.000000   0.000000 )
               a(2) = (   2.743548   5.887220   0.000000 )
               a(3) = (   0.000000   0.000000  25.379984 )

     reciprocal axes: (cart. coord. in units 2 pi/alat)
               b(1) = (  0.153962 -0.071749  0.000000 )
               b(2) = (  0.000000  0.169859  0.000000 )
               b(3) = (  0.000000  0.000000  0.039401 )

     PseudoPot. # 1 for Sc read from file:
     /afs/slac.stanford.edu/u/if/mamunm/psp/gbrv1.5pbe/Sc.UPF
     MD5 check sum: db30a2753ba66ef00f23801d899b7e7f
     Pseudo is Ultrasoft + core correction, Zval = 11.0
     Generated by new atomic code, or converted to UPF format
     Using radial grid of  849 points,  6 beta functions with:
                l(1) =   0
                l(2) =   0
                l(3) =   1
                l(4) =   1
                l(5) =   2
                l(6) =   2
     Q(r) pseudized with  6 coefficients,  rinner =    1.200   1.200   1.200
                                                       1.200   1.200

     PseudoPot. # 2 for Pb read from file:
     /afs/slac.stanford.edu/u/if/mamunm/psp/gbrv1.5pbe/Pb.UPF
     MD5 check sum: 3d1c1779aa92214d1e8f3a7db79003e2
     Pseudo is Ultrasoft + core correction, Zval = 14.0
     Generated by new atomic code, or converted to UPF format
     Using radial grid of  899 points,  6 beta functions with:
                l(1) =   0
                l(2) =   0
                l(3) =   1
                l(4) =   1
                l(5) =   2
                l(6) =   2
     Q(r) pseudized with  6 coefficients,  rinner =    1.000   1.000   1.000
                                                       1.000   1.000

     vdW kernel table read from file vdW_kernel_table
     MD5 check sum: 095c7af220d748ca6e76c0b4c6cfb241

     atomic species   valence    mass     pseudopotential
        Sc1           11.00    44.95591     Sc( 1.00)
        Pb1           14.00   207.20000     Pb( 1.00)

     No symmetry found

   Cartesian axes

     site n.     atom                  positions (alat units)
         1           Sc1 tau(   1) = (   0.0000000   0.0000000  10.0000000  )
         2           Sc1 tau(   2) = (   4.6193277   2.9436099  10.0000000  )
         3           Pb1 tau(   3) = (   3.2475535   0.0000000  10.0000000  )
         4           Pb1 tau(   4) = (   1.3717742   2.9436099  10.0000000  )
         5           Sc1 tau(   5) = (   6.4951070   4.1389272  12.6899918  )
         6           Sc1 tau(   6) = (   1.8757793   1.1953173  12.6899918  )
         7           Pb1 tau(   7) = (   3.2475535   4.1389272  12.6899918  )
         8           Pb1 tau(   8) = (   5.1233328   1.1953173  12.6899918  )
         9           Sc1 tau(   9) = (   3.6207020   2.3072899  15.2018238  )
        10           Sc1 tau(  10) = (   8.2375843   5.2491047  15.2014310  )
        11           Pb1 tau(  11) = (   6.8935989   2.3236920  15.5656184  )
        12           Pb1 tau(  12) = (   5.0179228   5.2665837  15.5656792  )

     number of k points=    20  Fermi-Dirac smearing, width (Ry)=  0.0110
                       cart. coord. in units 2pi/alat
        k(    1) = (   0.0000000   0.0000000   0.0000000), wk =   0.0555556
        k(    2) = (   0.0000000   0.0283099   0.0000000), wk =   0.1111111
        k(    3) = (   0.0000000   0.0566198   0.0000000), wk =   0.1111111
        k(    4) = (   0.0000000  -0.0849297   0.0000000), wk =   0.0555556
        k(    5) = (   0.0256603  -0.0119582   0.0000000), wk =   0.1111111
        k(    6) = (   0.0256603   0.0163517   0.0000000), wk =   0.1111111
        k(    7) = (   0.0256603   0.0446616   0.0000000), wk =   0.1111111
        k(    8) = (   0.0256603  -0.0968879   0.0000000), wk =   0.1111111
        k(    9) = (   0.0256603  -0.0685780   0.0000000), wk =   0.1111111
        k(   10) = (   0.0256603  -0.0402681   0.0000000), wk =   0.1111111
        k(   11) = (   0.0513207  -0.0239163   0.0000000), wk =   0.1111111
        k(   12) = (   0.0513207   0.0043936   0.0000000), wk =   0.1111111
        k(   13) = (   0.0513207   0.0327035   0.0000000), wk =   0.1111111
        k(   14) = (   0.0513207  -0.1088461   0.0000000), wk =   0.1111111
        k(   15) = (   0.0513207  -0.0805362   0.0000000), wk =   0.1111111
        k(   16) = (   0.0513207  -0.0522263   0.0000000), wk =   0.1111111
        k(   17) = (  -0.0769810   0.0358745   0.0000000), wk =   0.0555556
        k(   18) = (  -0.0769810   0.0641844   0.0000000), wk =   0.1111111
        k(   19) = (  -0.0769810   0.0924943   0.0000000), wk =   0.1111111
        k(   20) = (  -0.0769810  -0.0490552   0.0000000), wk =   0.0555556

     Largest allocated arrays     est. size (Mb)     dimensions
     Largest temporary arrays     est. size (Mb)     dimensions

     Check: negative/imaginary core charge=   -0.000001    0.000000

     Initial potential from superposition of free atoms
     Check: negative starting charge=   -0.100792

     starting charge  149.97148, renormalised to  150.00000

[...]

     *
     * You are using vdW-DF for exchange-correlation in this calculation.
     * Please cite the following three references that made this development
     * possible:
     *
     *   M. Dion, H. Rydberg, E. Schroder, D. C. Langreth, and
     *   B. I. Lundqvist, Phys. Rev. Lett. 92, 246401 (2004).
     *
     *   T. Thonhauser, V. R. Cooper, S. Li, A. Puzder, P. Hyldgaard, and
     *   D. C. Langreth, Phys. Rev. B 76, 125112 (2007).
     *
     *   G. Roman-Perez and J. M. Soler, Phys. Rev. Lett. 103, 096102 (2009).
     *
     *
     * If you are using vdW-DF2, please also cite:
     *
     *   K. Lee, E. D. Murray, L. Kong, B. I. Lundqvist, and
     *   D. C. Langreth, Phys. Rev. B 82, 081101(R) (2010).
     *
     *
     * If you are calculating the stress with vdW-DF, please also cite:
     *
     *   R. Sabatini, E. Kucukbenli, B. Kolb, T. Thonhauser, and
     *   S. de Gironcoli, J. Phys.: Condens. Matter 24, 424209 (2012).
     *

     Carrying out vdW-DF run using the following parameters:

     Nqs =      20    Nr_points =    1024   r_max =   100.000
     q_mesh =
               0.00001000     0.04494208     0.09755937     0.15916263
               0.23128650     0.31572767     0.41458969     0.53033537
               0.66584808     0.82450364     1.01025438     1.22772762
               1.48234092     1.78043706     2.12944203     2.53805004
               3.01644009     3.57652955     4.23227104     5.00000000

     Gradients computed in reciprocal space

[...]

     Starting wfc are  132 randomized atomic wfcs

     Self-consistent Calculation

[...]

     Threshold (ethr) on eigenvalues was too large:
     Diagonalizing with lowered threshold

     Davidson diagonalization with overlap
     ethr =  8.30E-04,  avg # of iterations =  2.0

[...]

     total energy              =   -1565.19712233 Ry
     Harris-Foulkes estimate   =   -1565.19708569 Ry
     estimated scf accuracy    <       0.00000233 Ry

     iteration # 16     ecut=    36.75 Ry     beta=0.10
     Davidson diagonalization with overlap
     ethr =  1.55E-09,  avg # of iterations =  3.6

[...]

     negative rho (up, down):  1.124E-01 0.000E+00

     Adding external electric field

     Computed dipole along edir(3) :
        Dipole               -0.0593 Ry au,         -0.1507 Debye
        Dipole field         -0.0001 Ry au

        Potential amp.        0.0106 Ry
        Total length         46.7622 bohr

     End of self-consistent calculation

[...]

          k = 0.0513-0.0522 0.0000 ( 24638 PWs)   bands (ev):

[...]

          k =-0.0770-0.0491 0.0000 ( 24628 PWs)   bands (ev):

   -49.6554 -49.6475 -49.5128 -49.5048 -49.2552 -49.2469 -28.3544 -28.3440
   -28.2049 -28.1954 -28.1932 -28.1841 -28.1803 -28.0814 -28.0784 -28.0679
   -28.0560 -27.9778 -27.8969 -27.8846 -27.8813 -27.7935 -27.7832 -27.7758
   -16.2534 -16.2003 -16.1627 -16.1161 -16.1101 -16.1045 -16.1025 -16.0987
   -16.0684 -16.0235 -16.0004 -15.9751 -15.9608 -15.9531 -15.9235 -15.9134
   -15.8702 -15.8669 -15.8655 -15.8623 -15.8561 -15.8558 -15.8433 -15.8414
   -15.8319 -15.8310 -15.8228 -15.8115 -15.7471 -15.7441  -8.5885  -8.0007
    -7.6079  -7.2508  -6.3670  -5.6718  -3.2472  -3.1316  -2.6635  -1.9656
    -1.8680  -1.5772  -1.1013  -0.7606  -0.2958  -0.2797  -0.1776   0.1231
     0.8301   1.0631   1.2095   1.2508   1.3198   1.3772   1.8177   1.8291
     1.8619   1.9510   2.0193   2.0236   2.0742   2.2884   2.4290   2.4918
     2.5161   2.6744   2.7206   2.8275   2.8456   2.8691   2.9730   3.2056
     3.7199   3.7381   3.7388   3.9308   3.9854   4.2569   4.3067   4.3206
     4.5035

     the Fermi energy is     1.0096 ev

!    total energy              =   -1565.19709909 Ry
     Harris-Foulkes estimate   =   -1565.19712333 Ry
     estimated scf accuracy    <       0.00000035 Ry

     The total energy is the sum of the following terms:

     one-electron contribution =   -8344.02190419 Ry
     hartree contribution      =    4198.10306869 Ry
     xc contribution           =    -475.21790932 Ry
     ewald contribution        =    3056.01543370 Ry
     electric field correction =       0.00000675 Ry
     smearing contrib. (-TS)   =      -0.07579472 Ry

     convergence has been achieved in  16 iterations

 BEEF-vdW xc energy contributions
           1 :   -420.100185163877
           2 :    386.985513215741
           3 :   -330.357521809871
           4 :    264.687373575797
           5 :   -203.122607622770
           6 :    153.325286325081
           7 :   -116.816238121952
           8 :    90.9707703043448
           9 :   -71.7683639580121
          10 :    55.8108458998402
          11 :   -41.1654300839473
          12 :    27.3492987899450
          13 :   -14.9486662343668
          14 :    5.11496953226424
          15 :    1.06023682869449
          16 :   -3.23605370007743
          17 :    2.25725019498935
          18 :   4.834174082191112E-002
          19 :   -1.73089477176313
          20 :    1.72950235180150
          21 :  -0.343254249285621
          22 :   -1.16266023398492
          23 :    1.51539887555617
          24 :  -0.282438460368724
          25 :   -1.93027443828436
          26 :    3.96624614940305
          27 :   -4.87165019538998
          28 :    4.39807233349592
          29 :   -3.01233449908233
          30 :    1.53022064826456
          31 :   -36.2127975340315
          32 :   -26.4539380565871

     Forces acting on atoms (Ry/au):

     negative rho (up, down):  1.124E-01 0.000E+00
     atom    1 type  1   force =     0.00202368    0.00128823    0.01858220
     atom    2 type  1   force =     0.00203539    0.00130002    0.01857053
     atom    3 type  2   force =     0.00203425    0.00124721   -0.01556402
     atom    4 type  2   force =     0.00198442    0.00131555   -0.01557260
     atom    5 type  1   force =    -0.00570965   -0.00363759    0.00208039
     atom    6 type  1   force =    -0.00575093   -0.00366570    0.00217908
     atom    7 type  2   force =     0.00220281    0.00145336   -0.00514194
     atom    8 type  2   force =     0.00224270    0.00137679   -0.00513332
     atom    9 type  1   force =     0.00056641    0.00033557    0.00032948
     atom   10 type  1   force =     0.00097861    0.00065110    0.00036629
     atom   11 type  2   force =    -0.00124854   -0.00096368   -0.00034817
     atom   12 type  2   force =    -0.00135916   -0.00070086   -0.00034791

     Total force =     0.037055     Total SCF correction =     0.002853

     entering subroutine stress ...

     negative rho (up, down):  1.124E-01 0.000E+00
          total   stress  (Ry/bohr**3)                   (kbar)     P=  -10.65
  -0.00012049  -0.00002850  -0.00000728        -17.72     -4.19     -1.07
  -0.00002850  -0.00009392  -0.00000464         -4.19    -13.82     -0.68
  -0.00000728  -0.00000464  -0.00000269         -1.07     -0.68     -0.40

 !ASE

     Writing output data file calc.save

     General routines

     Parallel routines

   This run was terminated on:   6:11:49  19Dec2018

   JOB DONE.
Job  /afs/slac/g/suncat/bin/suncat-tsmpirun -x LD_LIBRARY_PATH -wdir /scratch/qe530569_obqUR pw.x -in pw.inp

TID   HOST_NAME   COMMAND_LINE            STATUS            TERMINATION_TIME
00000 suncat2050 pw.x -in pw.inp   Done                     12/19/2018 06:11:49
00001 suncat2050 pw.x -in pw.inp   Done                     12/19/2018 06:11:49
00002 suncat2050 pw.x -in pw.inp   Done                     12/19/2018 06:11:49
00003 suncat2050 pw.x -in pw.inp   Done                     12/19/2018 06:11:49
00004 suncat2050 pw.x -in pw.inp   Done                     12/19/2018 06:11:49
00005 suncat2050 pw.x -in pw.inp   Done                     12/19/2018 06:11:49
00006 suncat2050 pw.x -in pw.inp   Done                     12/19/2018 06:11:49
00007 suncat2050 pw.x -in pw.inp   Done                     12/19/2018 06:11:49
00008 suncat2050 pw.x -in pw.inp   Done                     12/19/2018 06:11:49
00009 suncat2050 pw.x -in pw.inp   Done                     12/19/2018 06:11:49
00010 suncat2050 pw.x -in pw.inp   Done                     12/19/2018 06:11:49
00011 suncat2050 pw.x -in pw.inp   Done                     12/19/2018 06:11:49
00012 suncat2050 pw.x -in pw.inp   Done                     12/19/2018 06:11:49
00013 suncat2050 pw.x -in pw.inp   Done                     12/19/2018 06:11:49
00014 suncat2050 pw.x -in pw.inp   Done                     12/19/2018 06:11:49
00015 suncat2050 pw.x -in pw.inp   Done                     12/19/2018 06:11:49
00016 suncat2049 pw.x -in pw.inp   Done                     12/19/2018 06:11:49
00017 suncat2049 pw.x -in pw.inp   Done                     12/19/2018 06:11:49
00018 suncat2049 pw.x -in pw.inp   Done                     12/19/2018 06:11:49
00019 suncat2049 pw.x -in pw.inp   Done                     12/19/2018 06:11:49
00020 suncat2049 pw.x -in pw.inp   Done                     12/19/2018 06:11:49
00021 suncat2049 pw.x -in pw.inp   Done                     12/19/2018 06:11:49
00022 suncat2049 pw.x -in pw.inp   Done                     12/19/2018 06:11:49
00023 suncat2049 pw.x -in pw.inp   Done                     12/19/2018 06:11:49
00024 suncat2049 pw.x -in pw.inp   Done                     12/19/2018 06:11:49
00025 suncat2049 pw.x -in pw.inp   Done                     12/19/2018 06:11:49
00026 suncat2049 pw.x -in pw.inp   Done                     12/19/2018 06:11:49
00027 suncat2049 pw.x -in pw.inp   Done                     12/19/2018 06:11:49
00028 suncat2049 pw.x -in pw.inp   Done                     12/19/2018 06:11:49
00029 suncat2049 pw.x -in pw.inp   Done                     12/19/2018 06:11:49
00030 suncat2049 pw.x -in pw.inp   Done                     12/19/2018 06:11:49
00031 suncat2049 pw.x -in pw.inp   Done                     12/19/2018 06:11:49