     Program PWSCF v.5.1rc2 (svn rev. 11289) starts on 25Dec2018 at  5:41:44

     Current dimensions of program PWSCF are:
     Max number of different atomic species (ntypx) = 10
     Max number of k-points (npk) =  40000
     Max angular momentum in pseudopotentials (lmaxx) =  3
     Presently stress not available with electric field

     IMPORTANT: XC functional enforced from input :
     Exchange-correlation      = BEEF-VDW ( 1  4 27 13 2)
     Any further DFT definition will be discarded
     Please, verify this is what you really want

     Subspace diagonalization in iterative solution of the eigenvalue problem:
     a serial algorithm will be used

     Found symmetry operation: I + ( -0.5000  0.0000  0.0000)
     This is a supercell, fractional translations are disabled

     bravais-lattice index     =            0
     lattice parameter (alat)  =       1.8897  a.u.
     unit-cell volume          =    4349.5554 (a.u.)^3
     number of atoms/cell      =           12
     number of atomic types    =            2
     number of electrons       =       210.00
     number of Kohn-Sham states=          135
     kinetic-energy cutoff     =      36.7493  Ry
     charge density cutoff     =     367.4932  Ry
     convergence threshold     =      1.0E-06
     mixing beta               =       0.1000
     number of iterations used =           10  plain     mixing
     Exchange-correlation      = BEEF-VDW ( 1  4 27 13 2)
     nstep                     =           50

     celldm(1)=   1.889726  celldm(2)=   0.000000  celldm(3)=   0.000000
     celldm(4)=   0.000000  celldm(5)=   0.000000  celldm(6)=   0.000000

     crystal axes: (cart. coord. in units of alat)
               a(1) = (   5.260283   0.000000   0.000000 )
               a(2) = (  -2.630142   5.006133   0.000000 )
               a(3) = (   0.000000   0.000000  24.475793 )

     reciprocal axes: (cart. coord. in units 2 pi/alat)
               b(1) = (  0.190104  0.099877  0.000000 )
               b(2) = (  0.000000  0.199755  0.000000 )
               b(3) = (  0.000000  0.000000  0.040857 )

     PseudoPot. # 1 for Zn read from file:
     /afs/slac.stanford.edu/u/if/mamunm/psp/gbrv1.5pbe/Zn.UPF
     MD5 check sum: df62231357ef9e81f77b2b3087fa5675
     Pseudo is Ultrasoft, Zval = 20.0
     Generated by new atomic code, or converted to UPF format
     Using radial grid of  943 points,  6 beta functions with:
                l(1) =   0
                l(2) =   0
                l(3) =   1
                l(4) =   1
                l(5) =   2
                l(6) =   2
     Q(r) pseudized with  8 coefficients,  rinner =    1.100   1.100   1.100
                                                       1.100   1.100

     PseudoPot. # 2 for Re read from file:
     /afs/slac.stanford.edu/u/if/mamunm/psp/gbrv1.5pbe/Re.UPF
     MD5 check sum: 85f993410f3e006da9d71c142b4ad953
     Pseudo is Ultrasoft + core correction, Zval = 15.0
     Generated by new atomic code, or converted to UPF format
     Using radial grid of  981 points,  8 beta functions with:
                l(1) =   0
                l(2) =   0
                l(3) =   1
                l(4) =   1
                l(5) =   2
                l(6) =   2
                l(7) =   3
                l(8) =   3
     Q(r) pseudized with  8 coefficients,  rinner =    1.150   1.150   1.150
                                                       1.150   1.150   1.150
                                                       1.150

     vdW kernel table read from file vdW_kernel_table
     MD5 check sum: 095c7af220d748ca6e76c0b4c6cfb241

     atomic species   valence    mass     pseudopotential
        Zn1           20.00    65.38000     Zn( 1.00)
        Re1           15.00   186.20700     Re( 1.00)

     No symmetry found

   Cartesian axes

     site n.     atom                  positions (alat units)
         1           Zn1 tau(   1) = (   0.0000000   0.0000000  10.0000000  )
         2           Zn1 tau(   2) = (   2.6301417   0.0000000  10.0000000  )
         3           Re1 tau(   3) = (   1.3150709   2.5030663  10.0000000  )
         4           Re1 tau(   4) = (  -1.3150709   2.5030663  10.0000000  )
         5           Zn1 tau(   5) = (   2.6301417   1.3818343  12.2378963  )
         6           Zn1 tau(   6) = (  -0.0000000   1.3818343  12.2378963  )
         7           Re1 tau(   7) = (  -1.3150709   3.8849006  12.2378963  )
         8           Re1 tau(   8) = (   1.3150709   3.8849006  12.2378963  )
         9           Zn1 tau(   9) = (   0.0000000   2.7636685  14.4757925  )
        10           Zn1 tau(  10) = (   2.6301417   2.7636685  14.4757925  )
        11           Re1 tau(  11) = (   3.9452126   0.2606022  14.4757925  )
        12           Re1 tau(  12) = (   1.3150709   0.2606022  14.4757925  )

     number of k points=    20  Fermi-Dirac smearing, width (Ry)=  0.0110
                       cart. coord. in units 2pi/alat
        k(    1) = (   0.0000000   0.0000000   0.0000000), wk =   0.0555556
        k(    2) = (   0.0000000   0.0332925   0.0000000), wk =   0.1111111
        k(    3) = (   0.0000000   0.0665850   0.0000000), wk =   0.1111111
        k(    4) = (   0.0000000  -0.0998775   0.0000000), wk =   0.0555556
        k(    5) = (   0.0316840   0.0166462   0.0000000), wk =   0.1111111
        k(    6) = (   0.0316840   0.0499387   0.0000000), wk =   0.1111111
        k(    7) = (   0.0316840   0.0832312   0.0000000), wk =   0.1111111
        k(    8) = (   0.0316840  -0.0832312   0.0000000), wk =   0.1111111
        k(    9) = (   0.0316840  -0.0499387   0.0000000), wk =   0.1111111
        k(   10) = (   0.0316840  -0.0166462   0.0000000), wk =   0.1111111
        k(   11) = (   0.0633679   0.0332925   0.0000000), wk =   0.1111111
        k(   12) = (   0.0633679   0.0665850   0.0000000), wk =   0.1111111
        k(   13) = (   0.0633679   0.0998775   0.0000000), wk =   0.1111111
        k(   14) = (   0.0633679  -0.0665850   0.0000000), wk =   0.1111111
        k(   15) = (   0.0633679  -0.0332925   0.0000000), wk =   0.1111111
        k(   16) = (   0.0633679   0.0000000   0.0000000), wk =   0.1111111
        k(   17) = (  -0.0950519  -0.0499387   0.0000000), wk =   0.0555556
        k(   18) = (  -0.0950519  -0.0166462   0.0000000), wk =   0.1111111
        k(   19) = (  -0.0950519   0.0166462   0.0000000), wk =   0.1111111
        k(   20) = (  -0.0950519  -0.1498162   0.0000000), wk =   0.0555556

     Largest allocated arrays     est. size (Mb)     dimensions
     Largest temporary arrays     est. size (Mb)     dimensions

     Initial potential from superposition of free atoms
     Check: negative starting charge=   -0.770867

     starting charge  206.99888, renormalised to  210.00000

     negative rho (up, down):  7.820E-01 0.000E+00

     *
     * You are using vdW-DF for exchange-correlation in this calculation.
     * Please cite the following three references that made this development
     * possible:
     *
     *   M. Dion, H. Rydberg, E. Schroder, D. C. Langreth, and
     *   B. I. Lundqvist, Phys. Rev. Lett. 92, 246401 (2004).
     *
     *   T. Thonhauser, V. R. Cooper, S. Li, A. Puzder, P. Hyldgaard, and
     *   D. C. Langreth, Phys. Rev. B 76, 125112 (2007).
     *
     *   G. Roman-Perez and J. M. Soler, Phys. Rev. Lett. 103, 096102 (2009).
     *
     *
     * If you are using vdW-DF2, please also cite:
     *
     *   K. Lee, E. D. Murray, L. Kong, B. I. Lundqvist, and
     *   D. C. Langreth, Phys. Rev. B 82, 081101(R) (2010).
     *
     *
     * If you are calculating the stress with vdW-DF, please also cite:
     *
     *   R. Sabatini, E. Kucukbenli, B. Kolb, T. Thonhauser, and
     *   S. de Gironcoli, J. Phys.: Condens. Matter 24, 424209 (2012).
     *

     Carrying out vdW-DF run using the following parameters:

     Nqs =      20    Nr_points =    1024   r_max =   100.000
     q_mesh =
               0.00001000     0.04494208     0.09755937     0.15916263
               0.23128650     0.31572767     0.41458969     0.53033537
               0.66584808     0.82450364     1.01025438     1.22772762
               1.48234092     1.78043706     2.12944203     2.53805004
               3.01644009     3.57652955     4.23227104     5.00000000

     Gradients computed in reciprocal space

     Adding external electric field

     Computed dipole along edir(3) :
        Dipole               -0.0000 Ry au,         -0.0000 Debye
        Dipole field         -0.0000 Ry au

        Potential amp.        0.0000 Ry
        Total length         45.0962 bohr

     Starting wfc are  156 randomized atomic wfcs

     Self-consistent Calculation

     iteration #  1     ecut=    36.75 Ry     beta=0.10
     Davidson diagonalization with overlap
     ethr =  1.00E-02,  avg # of iterations =  9.1

[...]

     total energy              =   -3925.10295058 Ry
     Harris-Foulkes estimate   =   -3932.35249430 Ry
     estimated scf accuracy    <      39.66126253 Ry

[...]

     End of self-consistent calculation

          k = 0.0000 0.0000 0.0000 ( 16423 PWs)   bands (ev):

  -124.9275-124.9260-124.6895-124.6894-124.6879-124.6879 -79.2681 -79.2024
   -79.1275 -79.1257 -79.1256 -79.1028 -79.0760 -79.0741 -78.8975 -78.8973
   -78.8749 -78.8748 -78.8708 -78.8708 -78.8691 -78.8690 -78.8362 -78.8361
   -78.8346 -78.8346 -78.8157 -78.8148 -78.7502 -78.7490 -41.3661 -41.1889
   -41.0781 -40.9764 -40.9717 -40.9616 -40.8583 -40.5614 -40.5508 -40.4658
   -40.4594 -40.4490 -40.4377 -40.3643 -40.3113 -40.2201 -40.0518 -40.0496
    -7.9341  -6.5054  -6.4882  -6.4304  -6.3948  -6.3855  -6.2828  -6.2385
    -6.2121  -6.1391  -6.1026  -6.0691  -6.0344  -5.9850  -5.8837  -5.7538
    -5.7248  -5.7167  -5.6978  -5.6864  -5.6613  -5.6092  -5.5607  -5.5606
    -5.4771  -5.3571  -5.3569  -5.3567  -5.3275  -5.2863  -5.2816  -5.1007
    -3.6882  -3.2100  -3.1037  -2.9587  -2.6683  -2.5211  -2.2108  -2.1477
    -1.6093  -1.5595  -0.9259  -0.9070  -0.7011  -0.5406  -0.2530  -0.1273
     0.4482   0.5391   0.9495   1.1894   1.2598   1.4863   1.5455   1.6285
     1.6884   1.9856   2.1633   2.2022   2.4255   2.4474   2.8696   2.9952
     3.1741   3.3593   3.4485   3.4904   3.5568   3.8365   4.4699   4.6204
     5.5053   5.5940   5.5994   5.7046   5.9199   5.9671   6.0296   6.4007
     6.9162   7.1395   7.3244   8.3576   8.8465   9.2972   9.4607

[...]

          k =-0.0951-0.0499 0.0000 ( 16318 PWs)   bands (ev):

[...]

     the Fermi energy is     1.4974 ev

!    total energy              =   -3929.23046461 Ry
     Harris-Foulkes estimate   =   -3929.23046144 Ry
     estimated scf accuracy    <       0.00000081 Ry

     The total energy is the sum of the following terms:

     one-electron contribution =  -26973.99576073 Ry
     hartree contribution      =   13470.38222977 Ry
     xc contribution           =    -584.98241401 Ry
     ewald contribution        =   10159.42163975 Ry
     electric field correction =       0.00000000 Ry
     smearing contrib. (-TS)   =      -0.05615940 Ry

     convergence has been achieved in  16 iterations

 BEEF-vdW xc energy contributions
           1 :   -520.085625907016
           2 :    478.125641993634
[...]
                l(1) =   0
                l(2) =   0
                l(3) =   1
                l(4) =   1
                l(5) =   2
                l(6) =   2
     Q(r) pseudized with  8 coefficients,  rinner =    1.100   1.100   1.100
                                                       1.100   1.100

     PseudoPot. # 2 for Re read from file:
     /afs/slac.stanford.edu/u/if/mamunm/psp/gbrv1.5pbe/Re.UPF
     MD5 check sum: 85f993410f3e006da9d71c142b4ad953
     Pseudo is Ultrasoft + core correction, Zval = 15.0
     Generated by new atomic code, or converted to UPF format
     Using radial grid of  981 points,  8 beta functions with:
                l(1) =   0
                l(2) =   0
                l(3) =   1
                l(4) =   1
                l(5) =   2
                l(6) =   2
                l(7) =   3
                l(8) =   3
     Q(r) pseudized with  8 coefficients,  rinner =    1.150   1.150   1.150
                                                       1.150   1.150   1.150
                                                       1.150

     vdW kernel table read from file vdW_kernel_table
     MD5 check sum: 095c7af220d748ca6e76c0b4c6cfb241

     atomic species   valence    mass     pseudopotential
        Zn1           20.00    65.38000     Zn( 1.00)
        Re1           15.00   186.20700     Re( 1.00)

     No symmetry found

   Cartesian axes

     site n.     atom                  positions (alat units)
         1           Zn1 tau(   1) = (   0.0000000   0.0000000  10.0000000  )
         2           Zn1 tau(   2) = (   2.6301417   0.0000000  10.0000000  )
         3           Re1 tau(   3) = (   1.3150709   2.5030663  10.0000000  )
         4           Re1 tau(   4) = (  -1.3150709   2.5030663  10.0000000  )
         5           Zn1 tau(   5) = (   2.6301417   1.3818343  12.2378963  )
         6           Zn1 tau(   6) = (  -0.0000000   1.3818343  12.2378963  )
         7           Re1 tau(   7) = (  -1.3150709   3.8849006  12.2378963  )
         8           Re1 tau(   8) = (   1.3150709   3.8849006  12.2378963  )
         9           Zn1 tau(   9) = (  -0.0000835   2.7186988  14.6721875  )
        10           Zn1 tau(  10) = (   2.6300937   2.7186979  14.6721626  )
        11           Re1 tau(  11) = (   3.9452161   0.1771764  14.3698145  )
        12           Re1 tau(  12) = (   1.3150834   0.1772009  14.3698393  )

     number of k points=    20  Fermi-Dirac smearing, width (Ry)=  0.0110
                       cart. coord. in units 2pi/alat
        k(    1) = (   0.0000000   0.0000000   0.0000000), wk =   0.0555556
        k(    2) = (   0.0000000   0.0332925   0.0000000), wk =   0.1111111
        k(    3) = (   0.0000000   0.0665850   0.0000000), wk =   0.1111111
        k(    4) = (   0.0000000  -0.0998775   0.0000000), wk =   0.0555556
        k(    5) = (   0.0316840   0.0166462   0.0000000), wk =   0.1111111
        k(    6) = (   0.0316840   0.0499387   0.0000000), wk =   0.1111111
        k(    7) = (   0.0316840   0.0832312   0.0000000), wk =   0.1111111
        k(    8) = (   0.0316840  -0.0832312   0.0000000), wk =   0.1111111
        k(    9) = (   0.0316840  -0.0499387   0.0000000), wk =   0.1111111
        k(   10) = (   0.0316840  -0.0166462   0.0000000), wk =   0.1111111
        k(   11) = (   0.0633679   0.0332925   0.0000000), wk =   0.1111111
        k(   12) = (   0.0633679   0.0665850   0.0000000), wk =   0.1111111
        k(   13) = (   0.0633679   0.0998775   0.0000000), wk =   0.1111111
        k(   14) = (   0.0633679  -0.0665850   0.0000000), wk =   0.1111111
        k(   15) = (   0.0633679  -0.0332925   0.0000000), wk =   0.1111111
        k(   16) = (   0.0633679   0.0000000   0.0000000), wk =   0.1111111
        k(   17) = (  -0.0950519  -0.0499387   0.0000000), wk =   0.0555556
        k(   18) = (  -0.0950519  -0.0166462   0.0000000), wk =   0.1111111
        k(   19) = (  -0.0950519   0.0166462   0.0000000), wk =   0.1111111
        k(   20) = (  -0.0950519  -0.1498162   0.0000000), wk =   0.0555556

     Largest allocated arrays     est. size (Mb)     dimensions
     Largest temporary arrays     est. size (Mb)     dimensions

     Initial potential from superposition of free atoms
     Check: negative starting charge=   -0.772789

     starting charge  206.99888, renormalised to  210.00000

[...]

     *
     * You are using vdW-DF for exchange-correlation in this calculation.
     * Please cite the following three references that made this development
     * possible:
     *
     *   M. Dion, H. Rydberg, E. Schroder, D. C. Langreth, and
     *   B. I. Lundqvist, Phys. Rev. Lett. 92, 246401 (2004).
     *
     *   T. Thonhauser, V. R. Cooper, S. Li, A. Puzder, P. Hyldgaard, and
     *   D. C. Langreth, Phys. Rev. B 76, 125112 (2007).
     *
     *   G. Roman-Perez and J. M. Soler, Phys. Rev. Lett. 103, 096102 (2009).
     *
     *
     * If you are using vdW-DF2, please also cite:
     *
     *   K. Lee, E. D. Murray, L. Kong, B. I. Lundqvist, and
     *   D. C. Langreth, Phys. Rev. B 82, 081101(R) (2010).
     *
     *
     * If you are calculating the stress with vdW-DF, please also cite:
     *
     *   R. Sabatini, E. Kucukbenli, B. Kolb, T. Thonhauser, and
     *   S. de Gironcoli, J. Phys.: Condens. Matter 24, 424209 (2012).
     *

     Carrying out vdW-DF run using the following parameters:

     Nqs =      20    Nr_points =    1024   r_max =   100.000
     q_mesh =
               0.00001000     0.04494208     0.09755937     0.15916263
               0.23128650     0.31572767     0.41458969     0.53033537
               0.66584808     0.82450364     1.01025438     1.22772762
               1.48234092     1.78043706     2.12944203     2.53805004
               3.01644009     3.57652955     4.23227104     5.00000000

     Gradients computed in reciprocal space

[...]

     Starting wfc are  156 randomized atomic wfcs

     Self-consistent Calculation

[...]

     total energy              =   -3929.24945153 Ry
     Harris-Foulkes estimate   =   -3929.24945117 Ry
     estimated scf accuracy    <       0.00000237 Ry

     iteration # 16     ecut=    36.75 Ry     beta=0.10
     Davidson diagonalization with overlap
     ethr =  1.13E-09,  avg # of iterations =  2.1

[...]

     negative rho (up, down):  7.896E-01 0.000E+00

     Adding external electric field

     Computed dipole along edir(3) :
        Dipole                0.0401 Ry au,          0.1018 Debye
        Dipole field          0.0001 Ry au

        Potential amp.       -0.0104 Ry
        Total length         45.0962 bohr

     End of self-consistent calculation

[...]

          k = 0.0634 0.0000 0.0000 ( 16411 PWs)   bands (ev):

[...]

          k =-0.0951-0.1498 0.0000 ( 16318 PWs)   bands (ev):

  -124.8716-124.8716-124.6371-124.6371-124.5817-124.5817 -79.1768 -79.1768
   -79.0655 -79.0655 -79.0596 -79.0596 -79.0239 -79.0239 -78.8344 -78.8344
   -78.8188 -78.8188 -78.7835 -78.7835 -78.7812 -78.7812 -78.7652 -78.7652
   -78.7608 -78.7608 -78.7271 -78.7271 -78.7062 -78.7060 -41.1956 -41.1956
   -40.8569 -40.8569 -40.8540 -40.8540 -40.4929 -40.4929 -40.4878 -40.4878
   -40.4581 -40.4580 -40.4336 -40.4335 -40.3686 -40.3685 -40.1546 -40.1545
    -6.2762  -6.2762  -6.0905  -6.0905  -6.0382  -6.0382  -6.0020  -6.0020
    -5.9271  -5.9271  -5.8224  -5.8224  -5.7122  -5.7122  -5.6273  -5.6273
    -5.5975  -5.5975  -5.5677  -5.5676  -5.5403  -5.5403  -5.5297  -5.5296
    -5.4818  -5.4817  -5.4524  -5.4524  -5.4327  -5.4327  -5.2502  -5.2501
    -4.0552  -4.0551  -3.1373  -3.1373  -2.4509  -2.4509  -1.8527  -1.8527
    -1.0661  -1.0660  -0.8211  -0.8211  -0.2080  -0.2079  -0.1562  -0.1561
     0.0208   0.0208   0.4467   0.4468   0.5018   0.5018   0.7638   0.7638
     1.0317   1.0317   1.2721   1.2721   2.1348   2.1349   2.5718   2.5718
     2.9940   2.9941   3.1138   3.1138   3.7894   3.7895   4.9134   4.9134
     5.4938   5.4939   6.9863   6.9864   7.4408   7.4408   7.6590   7.6591
     7.8527   7.8527   8.1108   8.1108   8.2849   8.2850   8.9714

     the Fermi energy is     1.5429 ev

!    total energy              =   -3929.24945561 Ry
     Harris-Foulkes estimate   =   -3929.24945170 Ry
     estimated scf accuracy    <       0.00000073 Ry

     The total energy is the sum of the following terms:

     one-electron contribution =  -26727.00914042 Ry
     hartree contribution      =   13347.32757096 Ry
     xc contribution           =    -585.03812898 Ry
     ewald contribution        =   10035.52494222 Ry
     electric field correction =       0.00000464 Ry
     smearing contrib. (-TS)   =      -0.05470403 Ry

     convergence has been achieved in  16 iterations

 BEEF-vdW xc energy contributions
           1 :   -520.138905258777
           2 :    478.171458873142
           3 :   -405.302337420313
           4 :    318.937169948376
           5 :   -236.085397334414
           6 :    167.883109664264
           7 :   -117.579483622070
           8 :    82.2174436304523
           9 :   -56.4062570264196
          10 :    35.8282826055197
          11 :   -18.7917495249917
          12 :    5.62207236400070
          13 :    3.01349119615543
          14 :   -7.41262751486715
          15 :    8.97358214566032
          16 :   -9.37738097443264
          17 :    9.66346749687955
          18 :   -9.93645079964449
          19 :    9.81012923444825
          20 :   -9.10800039520859
          21 :    8.20964893809173
          22 :   -7.79661560301770
          23 :    8.26481111633075
          24 :   -9.33152426022741
          25 :    10.1803178794296
          26 :   -10.0410184214489
          27 :    8.75374738512141
          28 :   -6.88779625372058
          29 :    5.33387406094084
          30 :   -4.68633565734626
          31 :   -41.8132551494284
          32 :   -29.9202418232715

     Forces acting on atoms (Ry/au):

     negative rho (up, down):  7.896E-01 0.000E+00
     atom    1 type  1   force =     0.00000371    0.00019211   -0.02207104
     atom    2 type  1   force =    -0.00000755    0.00019244   -0.02207185
     atom    3 type  2   force =     0.00000141    0.00867457    0.03423207
     atom    4 type  2   force =    -0.00000031    0.00867349    0.03423543
     atom    5 type  1   force =    -0.00004346    0.01105917    0.00024014
     atom    6 type  1   force =     0.00003083    0.01106070    0.00024134
     atom    7 type  2   force =     0.00000046   -0.01687969   -0.01282246
     atom    8 type  2   force =     0.00000182   -0.01687240   -0.01281380
     atom    9 type  1   force =     0.00002641   -0.00154354   -0.00048549
     atom   10 type  1   force =     0.00000613   -0.00154199   -0.00048062
     atom   11 type  2   force =    -0.00000728   -0.00150064    0.00090581
     atom   12 type  2   force =    -0.00001217   -0.00151422    0.00089046

     Total force =     0.067993     Total SCF correction =     0.004305

     entering subroutine stress ...

     negative rho (up, down):  7.896E-01 0.000E+00
          total   stress  (Ry/bohr**3)                   (kbar)     P=  -28.42
  -0.00022254   0.00000000   0.00000000        -32.74      0.00      0.00
   0.00000000  -0.00029214  -0.00002759          0.00    -42.98     -4.06
   0.00000000  -0.00002759  -0.00006481          0.00     -4.06     -9.53

 !ASE

     Writing output data file calc.save

     General routines

     Parallel routines

   This run was terminated on:   7:36: 3  25Dec2018

   JOB DONE.
Job  /afs/slac/g/suncat/bin/suncat-tsmpirun -x LD_LIBRARY_PATH -wdir /scratch/qe109237_bqcgN pw.x -in pw.inp

TID   HOST_NAME   COMMAND_LINE            STATUS            TERMINATION_TIME
00000 suncat0050 pw.x -in pw.inp   Done                     12/25/2018 07:36:03
00001 suncat0050 pw.x -in pw.inp   Done                     12/25/2018 07:36:03
00002 suncat0050 pw.x -in pw.inp   Done                     12/25/2018 07:36:03
00003 suncat0050 pw.x -in pw.inp   Done                     12/25/2018 07:36:03
00004 suncat0050 pw.x -in pw.inp   Done                     12/25/2018 07:36:03
00005 suncat0050 pw.x -in pw.inp   Done                     12/25/2018 07:36:03
00006 suncat0050 pw.x -in pw.inp   Done                     12/25/2018 07:36:03
00007 suncat0050 pw.x -in pw.inp   Done                     12/25/2018 07:36:03
00008 suncat0049 pw.x -in pw.inp   Done                     12/25/2018 07:36:03
00009 suncat0049 pw.x -in pw.inp   Done                     12/25/2018 07:36:03
00010 suncat0049 pw.x -in pw.inp   Done                     12/25/2018 07:36:03
00011 suncat0049 pw.x -in pw.inp   Done                     12/25/2018 07:36:03
00012 suncat0049 pw.x -in pw.inp   Done                     12/25/2018 07:36:03
00013 suncat0049 pw.x -in pw.inp   Done                     12/25/2018 07:36:03
00014 suncat0049 pw.x -in pw.inp   Done                     12/25/2018 07:36:03
00015 suncat0049 pw.x -in pw.inp   Done                     12/25/2018 07:36:03
00016 suncat0031 pw.x -in pw.inp   Done                     12/25/2018 07:36:03
00017 suncat0031 pw.x -in pw.inp   Done                     12/25/2018 07:36:03
00018 suncat0031 pw.x -in pw.inp   Done                     12/25/2018 07:36:03
00019 suncat0031 pw.x -in pw.inp   Done                     12/25/2018 07:36:03
00020 suncat0031 pw.x -in pw.inp   Done                     12/25/2018 07:36:03
00021 suncat0031 pw.x -in pw.inp   Done                     12/25/2018 07:36:03
00022 suncat0031 pw.x -in pw.inp   Done                     12/25/2018 07:36:03
00023 suncat0031 pw.x -in pw.inp   Done                     12/25/2018 07:36:03
00024 suncat0030 pw.x -in pw.inp   Done                     12/25/2018 07:36:03
00025 suncat0030 pw.x -in pw.inp   Done                     12/25/2018 07:36:03
00026 suncat0030 pw.x -in pw.inp   Done                     12/25/2018 07:36:03
00027 suncat0030 pw.x -in pw.inp   Done                     12/25/2018 07:36:03
00028 suncat0030 pw.x -in pw.inp   Done                     12/25/2018 07:36:03
00029 suncat0030 pw.x -in pw.inp   Done                     12/25/2018 07:36:03
00030 suncat0030 pw.x -in pw.inp   Done                     12/25/2018 07:36:03
00031 suncat0030 pw.x -in pw.inp   Done                     12/25/2018 07:36:03
00032 suncat0280 pw.x -in pw.inp   Done                     12/25/2018 07:36:03
00033 suncat0280 pw.x -in pw.inp   Done                     12/25/2018 07:36:03
00034 suncat0280 pw.x -in pw.inp   Done                     12/25/2018 07:36:03
00035 suncat0280 pw.x -in pw.inp   Done                     12/25/2018 07:36:03
00036 suncat0280 pw.x -in pw.inp   Done                     12/25/2018 07:36:03
00037 suncat0280 pw.x -in pw.inp   Done                     12/25/2018 07:36:03
00038 suncat0280 pw.x -in pw.inp   Done                     12/25/2018 07:36:03
00039 suncat0280 pw.x -in pw.inp   Done                     12/25/2018 07:36:03
00040 suncat0279 pw.x -in pw.inp   Done                     12/25/2018 07:36:03
00041 suncat0279 pw.x -in pw.inp   Done                     12/25/2018 07:36:03
00042 suncat0279 pw.x -in pw.inp   Done                     12/25/2018 07:36:03
00043 suncat0279 pw.x -in pw.inp   Done                     12/25/2018 07:36:03
00044 suncat0279 pw.x -in pw.inp   Done                     12/25/2018 07:36:03
00045 suncat0279 pw.x -in pw.inp   Done                     12/25/2018 07:36:03
00046 suncat0279 pw.x -in pw.inp   Done                     12/25/2018 07:36:03
00047 suncat0279 pw.x -in pw.inp   Done                     12/25/2018 07:36:03
00048 suncat0278 pw.x -in pw.inp   Done                     12/25/2018 07:36:03
00049 suncat0278 pw.x -in pw.inp   Done                     12/25/2018 07:36:03
00050 suncat0278 pw.x -in pw.inp   Done                     12/25/2018 07:36:03
00051 suncat0278 pw.x -in pw.inp   Done                     12/25/2018 07:36:03
00052 suncat0278 pw.x -in pw.inp   Done                     12/25/2018 07:36:03
00053 suncat0278 pw.x -in pw.inp   Done                     12/25/2018 07:36:03
00054 suncat0278 pw.x -in pw.inp   Done                     12/25/2018 07:36:03
00055 suncat0278 pw.x -in pw.inp   Done                     12/25/2018 07:36:03
00056 suncat0099 pw.x -in pw.inp   Done                     12/25/2018 07:36:03
00057 suncat0099 pw.x -in pw.inp   Done                     12/25/2018 07:36:03
00058 suncat0099 pw.x -in pw.inp   Done                     12/25/2018 07:36:03
00059 suncat0099 pw.x -in pw.inp   Done                     12/25/2018 07:36:03
00060 suncat0099 pw.x -in pw.inp   Done                     12/25/2018 07:36:03
00061 suncat0099 pw.x -in pw.inp   Done                     12/25/2018 07:36:03
00062 suncat0099 pw.x -in pw.inp   Done                     12/25/2018 07:36:03
00063 suncat0099 pw.x -in pw.inp   Done                     12/25/2018 07:36:03