     Program PWSCF v.5.1rc2 (svn rev. 11289) starts on 18Dec2018 at 22:41:43

     Current dimensions of program PWSCF are:
     Max number of different atomic species (ntypx) = 10
     Max number of k-points (npk) =  40000
     Max angular momentum in pseudopotentials (lmaxx) =  3
     Presently stress not available with electric field

     IMPORTANT: XC functional enforced from input :
     Exchange-correlation      = BEEF-VDW ( 1  4 27 13 2)
     Any further DFT definition will be discarded
     Please, verify this is what you really want

     Subspace diagonalization in iterative solution of the eigenvalue problem:
     a serial algorithm will be used

     Found symmetry operation: I + ( -0.5000 -0.5000  0.0000)
     This is a supercell, fractional translations are disabled

     Generating pointlists ...
     new r_m :   0.4125 (alat units)  0.7795 (a.u.) for type    1
     new r_m :   0.4125 (alat units)  0.7795 (a.u.) for type    2

     bravais-lattice index     =            0
     lattice parameter (alat)  =       1.8897  a.u.
     unit-cell volume          =    3889.5846 (a.u.)^3
     number of atoms/cell      =           12
     number of atomic types    =            2
     number of electrons       =       204.00
     number of Kohn-Sham states=          132
     kinetic-energy cutoff     =      36.7493  Ry
     charge density cutoff     =     367.4932  Ry
     convergence threshold     =      1.0E-06
     mixing beta               =       0.1000
     number of iterations used =           10  plain     mixing
     Exchange-correlation      = BEEF-VDW ( 1  4 27 13 2)
     nstep                     =           50

     celldm(1)=   1.889726  celldm(2)=   0.000000  celldm(3)=   0.000000
     celldm(4)=   0.000000  celldm(5)=   0.000000  celldm(6)=   0.000000

     crystal axes: (cart. coord. in units of alat)
               a(1) = (   5.235994   0.000000   0.000000 )
               a(2) = (   2.617740   4.534652   0.000000 )
               a(3) = (   0.000000   0.000000  24.275241 )

     reciprocal axes: (cart. coord. in units 2 pi/alat)
               b(1) = (  0.190986 -0.110251  0.000000 )
               b(2) = (  0.000000  0.220524  0.000000 )
               b(3) = (  0.000000  0.000000  0.041194 )

     PseudoPot. # 1 for Ni read from file:
     /afs/slac.stanford.edu/u/if/mamunm/psp/gbrv1.5pbe/Ni.UPF
     MD5 check sum: 1ee80287db30b12d2bc1f57a5b5d6409
     Pseudo is Ultrasoft + core correction, Zval = 18.0
     Generated by new atomic code, or converted to UPF format
     Using radial grid of  865 points,  6 beta functions with:
                l(1) =   0
                l(2) =   0
                l(3) =   1
                l(4) =   1
                l(5) =   2
                l(6) =   2
     Q(r) pseudized with 10 coefficients,  rinner =    0.980   0.980   0.980
                                                       0.980   0.980

     PseudoPot. # 2 for Ru read from file:
     /afs/slac.stanford.edu/u/if/mamunm/psp/gbrv1.5pbe/Ru.UPF
     MD5 check sum: 7158a806dd851261a58e6920c40ebe78
     Pseudo is Ultrasoft + core correction, Zval = 16.0
     Generated by new atomic code, or converted to UPF format
     Using radial grid of  967 points,  6 beta functions with:
                l(1) =   0
                l(2) =   0
                l(3) =   1
                l(4) =   1
                l(5) =   2
                l(6) =   2
     Q(r) pseudized with  8 coefficients,  rinner =    1.300   1.300   1.300
                                                       1.300   1.300

     vdW kernel table read from file vdW_kernel_table
     MD5 check sum: 095c7af220d748ca6e76c0b4c6cfb241

     atomic species   valence    mass     pseudopotential
        Ni1           18.00    58.69340     Ni( 1.00)
        Ru1           16.00   101.07000     Ru( 1.00)

     Starting magnetic structure
     atomic species   magnetization
        Ni1          0.111
        Ru1          0.125

     No symmetry found

   Cartesian axes

     site n.     atom                  positions (alat units)
         1           Ni1 tau(   1) = (   0.0000000   0.0000000  10.0000000  )
         2           Ni1 tau(   2) = (   3.9268670   2.2673259  10.0000000  )
         3           Ru1 tau(   3) = (   2.6179969   0.0000000  10.0000000  )
         4           Ru1 tau(   4) = (   1.3088701   2.2673259  10.0000000  )
         5           Ni1 tau(   5) = (   5.2359938   3.0232000  12.1376204  )
         6           Ni1 tau(   6) = (   1.3091268   0.7558741  12.1376204  )
         7           Ru1 tau(   7) = (   2.6179969   3.0232000  12.1376204  )
         8           Ru1 tau(   8) = (   3.9271237   0.7558741  12.1376204  )
         9           Ni1 tau(   9) = (   2.6182535   1.5117482  14.2752409  )
        10           Ni1 tau(  10) = (   6.5451206   3.7790741  14.2752409  )
        11           Ru1 tau(  11) = (   5.2362504   1.5117482  14.2752409  )
        12           Ru1 tau(  12) = (   3.9271237   3.7790741  14.2752409  )

     number of k points=    40  Fermi-Dirac smearing, width (Ry)=  0.0110
                       cart. coord. in units 2pi/alat
        k(    1) = (   0.0000000   0.0000000   0.0000000), wk =   0.0277778
        k(    2) = (   0.0000000   0.0367540   0.0000000), wk =   0.0555556
        k(    3) = (   0.0000000   0.0735080   0.0000000), wk =   0.0555556
        k(    4) = (   0.0000000  -0.1102620   0.0000000), wk =   0.0277778
        k(    5) = (   0.0318310  -0.0183752   0.0000000), wk =   0.0555556
        k(    6) = (   0.0318310   0.0183788   0.0000000), wk =   0.0555556
        k(    7) = (   0.0318310   0.0551328   0.0000000), wk =   0.0555556
        k(    8) = (   0.0318310  -0.1286373   0.0000000), wk =   0.0555556
        k(    9) = (   0.0318310  -0.0918832   0.0000000), wk =   0.0555556
        k(   10) = (   0.0318310  -0.0551292   0.0000000), wk =   0.0555556
        k(   11) = (   0.0636619  -0.0367504   0.0000000), wk =   0.0555556
        k(   12) = (   0.0636619   0.0000036   0.0000000), wk =   0.0555556
        k(   13) = (   0.0636619   0.0367576   0.0000000), wk =   0.0555556
        k(   14) = (   0.0636619  -0.1470125   0.0000000), wk =   0.0555556
        k(   15) = (   0.0636619  -0.1102584   0.0000000), wk =   0.0555556
        k(   16) = (   0.0636619  -0.0735044   0.0000000), wk =   0.0555556
        k(   17) = (  -0.0954929   0.0551256   0.0000000), wk =   0.0277778
        k(   18) = (  -0.0954929   0.0918796   0.0000000), wk =   0.0555556
        k(   19) = (  -0.0954929   0.1286337   0.0000000), wk =   0.0555556
        k(   20) = (  -0.0954929  -0.0551364   0.0000000), wk =   0.0277778
        k(   21) = (   0.0000000   0.0000000   0.0000000), wk =   0.0277778
        k(   22) = (   0.0000000   0.0367540   0.0000000), wk =   0.0555556
        k(   23) = (   0.0000000   0.0735080   0.0000000), wk =   0.0555556
        k(   24) = (   0.0000000  -0.1102620   0.0000000), wk =   0.0277778
        k(   25) = (   0.0318310  -0.0183752   0.0000000), wk =   0.0555556
        k(   26) = (   0.0318310   0.0183788   0.0000000), wk =   0.0555556
        k(   27) = (   0.0318310   0.0551328   0.0000000), wk =   0.0555556
        k(   28) = (   0.0318310  -0.1286373   0.0000000), wk =   0.0555556
        k(   29) = (   0.0318310  -0.0918832   0.0000000), wk =   0.0555556
        k(   30) = (   0.0318310  -0.0551292   0.0000000), wk =   0.0555556
        k(   31) = (   0.0636619  -0.0367504   0.0000000), wk =   0.0555556
        k(   32) = (   0.0636619   0.0000036   0.0000000), wk =   0.0555556
        k(   33) = (   0.0636619   0.0367576   0.0000000), wk =   0.0555556
        k(   34) = (   0.0636619  -0.1470125   0.0000000), wk =   0.0555556
        k(   35) = (   0.0636619  -0.1102584   0.0000000), wk =   0.0555556
        k(   36) = (   0.0636619  -0.0735044   0.0000000), wk =   0.0555556
        k(   37) = (  -0.0954929   0.0551256   0.0000000), wk =   0.0277778
        k(   38) = (  -0.0954929   0.0918796   0.0000000), wk =   0.0555556
        k(   39) = (  -0.0954929   0.1286337   0.0000000), wk =   0.0555556
        k(   40) = (  -0.0954929  -0.0551364   0.0000000), wk =   0.0277778

     Largest allocated arrays     est. size (Mb)     dimensions
     Largest temporary arrays     est. size (Mb)     dimensions

     Check: negative/imaginary core charge=   -0.000001    0.000000

     Initial potential from superposition of free atoms
     Check: negative starting charge=(component1):   -0.249332
     Check: negative starting charge=(component2):   -0.193931

     starting charge  185.99991, renormalised to  204.00000

     negative rho (up, down):  2.735E-01 2.127E-01

     *
     * You are using vdW-DF for exchange-correlation in this calculation.
     * Please cite the following three references that made this development
     * possible:
     *
     *   M. Dion, H. Rydberg, E. Schroder, D. C. Langreth, and
     *   B. I. Lundqvist, Phys. Rev. Lett. 92, 246401 (2004).
     *
     *   T. Thonhauser, V. R. Cooper, S. Li, A. Puzder, P. Hyldgaard, and
     *   D. C. Langreth, Phys. Rev. B 76, 125112 (2007).
     *
     *   G. Roman-Perez and J. M. Soler, Phys. Rev. Lett. 103, 096102 (2009).
     *
     *
     * If you are using vdW-DF2, please also cite:
     *
     *   K. Lee, E. D. Murray, L. Kong, B. I. Lundqvist, and
     *   D. C. Langreth, Phys. Rev. B 82, 081101(R) (2010).
     *
     *
     * If you are calculating the stress with vdW-DF, please also cite:
     *
     *   R. Sabatini, E. Kucukbenli, B. Kolb, T. Thonhauser, and
     *   S. de Gironcoli, J. Phys.: Condens. Matter 24, 424209 (2012).
     *

     Carrying out vdW-DF run using the following parameters:

     Nqs =      20    Nr_points =    1024   r_max =   100.000
     q_mesh =
               0.00001000     0.04494208     0.09755937     0.15916263
               0.23128650     0.31572767     0.41458969     0.53033537
               0.66584808     0.82450364     1.01025438     1.22772762
               1.48234092     1.78043706     2.12944203     2.53805004
               3.01644009     3.57652955     4.23227104     5.00000000

     Gradients computed in reciprocal space

     Adding external electric field

     Computed dipole along edir(3) :
        Dipole                0.0000 Ry au,          0.0000 Debye
        Dipole field          0.0000 Ry au

        Potential amp.       -0.0000 Ry
        Total length         44.7267 bohr

[...]

     Starting wfc are  156 randomized atomic wfcs

     Self-consistent Calculation

     iteration #  1     ecut=    36.75 Ry     beta=0.10
     Davidson diagonalization with overlap
     ethr =  1.00E-02,  avg # of iterations =  8.3

[...]

     Magnetic moment per site:
     atom:    1    charge:    9.7325    magn:    1.0293    constr:    0.0000
     atom:    2    charge:    9.7325    magn:    1.0293    constr:    0.0000
     atom:    3    charge:    3.0524    magn:    0.3559    constr:    0.0000
     atom:    4    charge:    3.0524    magn:    0.3559    constr:    0.0000
     atom:    5    charge:    9.7474    magn:    1.0307    constr:    0.0000
     atom:    6    charge:    9.7474    magn:    1.0307    constr:    0.0000
[...]
                                                       0.980   0.980

     PseudoPot. # 2 for Ru read from file:
     /afs/slac.stanford.edu/u/if/mamunm/psp/gbrv1.5pbe/Ru.UPF
     MD5 check sum: 7158a806dd851261a58e6920c40ebe78
     Pseudo is Ultrasoft + core correction, Zval = 16.0
     Generated by new atomic code, or converted to UPF format
     Using radial grid of  967 points,  6 beta functions with:
                l(1) =   0
                l(2) =   0
                l(3) =   1
                l(4) =   1
                l(5) =   2
                l(6) =   2
     Q(r) pseudized with  8 coefficients,  rinner =    1.300   1.300   1.300
                                                       1.300   1.300

     vdW kernel table read from file vdW_kernel_table
     MD5 check sum: 095c7af220d748ca6e76c0b4c6cfb241

     atomic species   valence    mass     pseudopotential
        Ni1           18.00    58.69340     Ni( 1.00)
        Ru1           16.00   101.07000     Ru( 1.00)

     Starting magnetic structure
     atomic species   magnetization
        Ni1          0.111
        Ru1          0.125

     No symmetry found

   Cartesian axes

     site n.     atom                  positions (alat units)
         1           Ni1 tau(   1) = (   0.0000000   0.0000000  10.0000000  )
         2           Ni1 tau(   2) = (   3.9268670   2.2673259  10.0000000  )
         3           Ru1 tau(   3) = (   2.6179969   0.0000000  10.0000000  )
         4           Ru1 tau(   4) = (   1.3088701   2.2673259  10.0000000  )
         5           Ni1 tau(   5) = (   5.2359938   3.0232000  12.1376204  )
         6           Ni1 tau(   6) = (   1.3091268   0.7558741  12.1376204  )
         7           Ru1 tau(   7) = (   2.6179969   3.0232000  12.1376204  )
         8           Ru1 tau(   8) = (   3.9271237   0.7558741  12.1376204  )
         9           Ni1 tau(   9) = (   2.6051676   1.5041921  14.1950445  )
        10           Ni1 tau(  10) = (   6.5322207   3.7716261  14.1952127  )
        11           Ru1 tau(  11) = (   5.2145264   1.4991913  14.2101154  )
        12           Ru1 tau(  12) = (   3.9053881   3.7665381  14.2101165  )

     number of k points=    40  Fermi-Dirac smearing, width (Ry)=  0.0110
                       cart. coord. in units 2pi/alat
        k(    1) = (   0.0000000   0.0000000   0.0000000), wk =   0.0277778
        k(    2) = (   0.0000000   0.0367540   0.0000000), wk =   0.0555556
        k(    3) = (   0.0000000   0.0735080   0.0000000), wk =   0.0555556
        k(    4) = (   0.0000000  -0.1102620   0.0000000), wk =   0.0277778
        k(    5) = (   0.0318310  -0.0183752   0.0000000), wk =   0.0555556
        k(    6) = (   0.0318310   0.0183788   0.0000000), wk =   0.0555556
        k(    7) = (   0.0318310   0.0551328   0.0000000), wk =   0.0555556
        k(    8) = (   0.0318310  -0.1286373   0.0000000), wk =   0.0555556
        k(    9) = (   0.0318310  -0.0918832   0.0000000), wk =   0.0555556
        k(   10) = (   0.0318310  -0.0551292   0.0000000), wk =   0.0555556
        k(   11) = (   0.0636619  -0.0367504   0.0000000), wk =   0.0555556
        k(   12) = (   0.0636619   0.0000036   0.0000000), wk =   0.0555556
        k(   13) = (   0.0636619   0.0367576   0.0000000), wk =   0.0555556
        k(   14) = (   0.0636619  -0.1470125   0.0000000), wk =   0.0555556
        k(   15) = (   0.0636619  -0.1102584   0.0000000), wk =   0.0555556
        k(   16) = (   0.0636619  -0.0735044   0.0000000), wk =   0.0555556
        k(   17) = (  -0.0954929   0.0551256   0.0000000), wk =   0.0277778
        k(   18) = (  -0.0954929   0.0918796   0.0000000), wk =   0.0555556
        k(   19) = (  -0.0954929   0.1286337   0.0000000), wk =   0.0555556
        k(   20) = (  -0.0954929  -0.0551364   0.0000000), wk =   0.0277778
        k(   21) = (   0.0000000   0.0000000   0.0000000), wk =   0.0277778
        k(   22) = (   0.0000000   0.0367540   0.0000000), wk =   0.0555556
        k(   23) = (   0.0000000   0.0735080   0.0000000), wk =   0.0555556
        k(   24) = (   0.0000000  -0.1102620   0.0000000), wk =   0.0277778
        k(   25) = (   0.0318310  -0.0183752   0.0000000), wk =   0.0555556
        k(   26) = (   0.0318310   0.0183788   0.0000000), wk =   0.0555556
        k(   27) = (   0.0318310   0.0551328   0.0000000), wk =   0.0555556
        k(   28) = (   0.0318310  -0.1286373   0.0000000), wk =   0.0555556
        k(   29) = (   0.0318310  -0.0918832   0.0000000), wk =   0.0555556
        k(   30) = (   0.0318310  -0.0551292   0.0000000), wk =   0.0555556
        k(   31) = (   0.0636619  -0.0367504   0.0000000), wk =   0.0555556
        k(   32) = (   0.0636619   0.0000036   0.0000000), wk =   0.0555556
        k(   33) = (   0.0636619   0.0367576   0.0000000), wk =   0.0555556
        k(   34) = (   0.0636619  -0.1470125   0.0000000), wk =   0.0555556
        k(   35) = (   0.0636619  -0.1102584   0.0000000), wk =   0.0555556
        k(   36) = (   0.0636619  -0.0735044   0.0000000), wk =   0.0555556
        k(   37) = (  -0.0954929   0.0551256   0.0000000), wk =   0.0277778
        k(   38) = (  -0.0954929   0.0918796   0.0000000), wk =   0.0555556
        k(   39) = (  -0.0954929   0.1286337   0.0000000), wk =   0.0555556
        k(   40) = (  -0.0954929  -0.0551364   0.0000000), wk =   0.0277778

     Largest allocated arrays     est. size (Mb)     dimensions
     Largest temporary arrays     est. size (Mb)     dimensions

     Check: negative/imaginary core charge=   -0.000001    0.000000

     Initial potential from superposition of free atoms
     Check: negative starting charge=(component1):   -0.250785
     Check: negative starting charge=(component2):   -0.195061

     starting charge  185.99991, renormalised to  204.00000

[...]

     *
     * You are using vdW-DF for exchange-correlation in this calculation.
     * Please cite the following three references that made this development
     * possible:
     *
     *   M. Dion, H. Rydberg, E. Schroder, D. C. Langreth, and
     *   B. I. Lundqvist, Phys. Rev. Lett. 92, 246401 (2004).
     *
     *   T. Thonhauser, V. R. Cooper, S. Li, A. Puzder, P. Hyldgaard, and
     *   D. C. Langreth, Phys. Rev. B 76, 125112 (2007).
     *
     *   G. Roman-Perez and J. M. Soler, Phys. Rev. Lett. 103, 096102 (2009).
     *
     *
     * If you are using vdW-DF2, please also cite:
     *
     *   K. Lee, E. D. Murray, L. Kong, B. I. Lundqvist, and
     *   D. C. Langreth, Phys. Rev. B 82, 081101(R) (2010).
     *
     *
     * If you are calculating the stress with vdW-DF, please also cite:
     *
     *   R. Sabatini, E. Kucukbenli, B. Kolb, T. Thonhauser, and
     *   S. de Gironcoli, J. Phys.: Condens. Matter 24, 424209 (2012).
     *

     Carrying out vdW-DF run using the following parameters:

     Nqs =      20    Nr_points =    1024   r_max =   100.000
     q_mesh =
               0.00001000     0.04494208     0.09755937     0.15916263
               0.23128650     0.31572767     0.41458969     0.53033537
               0.66584808     0.82450364     1.01025438     1.22772762
               1.48234092     1.78043706     2.12944203     2.53805004
               3.01644009     3.57652955     4.23227104     5.00000000

     Gradients computed in reciprocal space

[...]

     Starting wfc are  156 randomized atomic wfcs

     Self-consistent Calculation

[...]

     total energy              =   -3237.04247768 Ry
     Harris-Foulkes estimate   =   -3237.04247707 Ry
     estimated scf accuracy    <       0.00000505 Ry

[...]

     iteration # 51     ecut=    36.75 Ry     beta=0.10
     Davidson diagonalization with overlap
     ethr =  5.31E-10,  avg # of iterations =  1.6

[...]

     negative rho (up, down):  2.308E-01 2.309E-01

[...]

     Adding external electric field

     Computed dipole along edir(3) :
        Dipole                0.0050 Ry au,          0.0127 Debye
        Dipole field          0.0000 Ry au

        Potential amp.       -0.0014 Ry
        Total length         44.7267 bohr

     Magnetic moment per site:
     atom:    1    charge:    9.3434    magn:    0.0073    constr:    0.0000
     atom:    2    charge:    9.3435    magn:    0.0073    constr:    0.0000
     atom:    3    charge:    2.8411    magn:    0.0012    constr:    0.0000
     atom:    4    charge:    2.8411    magn:    0.0012    constr:    0.0000
     atom:    5    charge:    9.3520    magn:   -0.0011    constr:    0.0000
     atom:    6    charge:    9.3522    magn:   -0.0011    constr:    0.0000
     atom:    7    charge:    2.8529    magn:   -0.0000    constr:    0.0000
     atom:    8    charge:    2.8529    magn:   -0.0000    constr:    0.0000
     atom:    9    charge:    9.3476    magn:   -0.0051    constr:    0.0000
     atom:   10    charge:    9.3475    magn:   -0.0051    constr:    0.0000
     atom:   11    charge:    2.8436    magn:   -0.0011    constr:    0.0000
     atom:   12    charge:    2.8436    magn:   -0.0011    constr:    0.0000

     End of self-consistent calculation

 ------ SPIN UP ------------

[...]

 ------ SPIN DOWN ----------

[...]

          k = 0.0637-0.0735 0.0000 ( 14616 PWs)   bands (ev):

[...]

          k =-0.0955-0.0551 0.0000 ( 14622 PWs)   bands (ev):

  -102.0449-102.0394-101.7908-101.7854-101.7095-101.7041 -71.8253 -71.7486
   -71.3416 -71.2780 -71.2642 -71.2006 -62.4984 -62.4931 -62.4453 -62.3812
   -62.3517 -62.3463 -62.2672 -62.2623 -62.2023 -62.2002 -62.1953 -62.1384
   -62.1279 -62.0675 -62.0641 -62.0617 -61.9654 -61.9596 -42.0417 -41.9546
   -41.8740 -41.7453 -41.6838 -41.6681 -41.6399 -41.3661 -41.2690 -41.2270
   -41.1941 -41.1939 -41.1539 -41.1202 -41.1041 -41.0364 -41.0099 -40.9662
    -4.2773  -4.2020  -3.5947  -3.2231  -2.9288  -2.8778  -2.8675  -2.8327
    -2.4341  -2.4165  -2.2195  -2.1770  -2.0538  -1.9434  -1.8996  -1.8535
    -1.7111  -1.5891  -1.4096  -1.1405  -1.1070  -0.8854  -0.8365  -0.7372
    -0.6791  -0.5734  -0.5506  -0.5282  -0.4242  -0.4175  -0.3648  -0.3207
    -0.3158  -0.2829  -0.2787  -0.2353  -0.2047  -0.2021  -0.1879  -0.1766
     0.0298   0.2081   0.2650   0.3218   0.3459   0.3732   0.6384   0.6607
     0.7437   0.7605   0.7818   1.0936   1.1112   1.1980   1.4284   1.4907
     1.6495   1.6522   1.8298   1.8897   2.0516   2.2017   2.4375   2.8695
     3.2702   3.3677   4.0222   4.4760   5.7755   5.8425   6.0846   6.3381
     7.0197   7.3352   7.5610   7.6026   8.0964   8.1673   8.3002   8.3090
     9.3393   9.3796   9.3942   9.9439

     the Fermi energy is     1.4441 ev

!    total energy              =   -3237.04248085 Ry
     Harris-Foulkes estimate   =   -3237.04247805 Ry
     estimated scf accuracy    <       0.00000085 Ry

     The total energy is the sum of the following terms:

     one-electron contribution =  -28004.47722649 Ry
     hartree contribution      =   14007.18363902 Ry
     xc contribution           =    -381.47331419 Ry
     ewald contribution        =   11141.83361880 Ry
     electric field correction =       0.00000008 Ry
     smearing contrib. (-TS)   =      -0.10919808 Ry

     total magnetization       =     0.00 Bohr mag/cell
     absolute magnetization    =     0.09 Bohr mag/cell

     convergence has been achieved in  51 iterations

 BEEF-vdW xc energy contributions
           1 :   -333.912144215660
           2 :    304.305073137908
           3 :   -253.921485970742
           4 :    196.523721045178
           5 :   -145.254853166371
           6 :    108.101533714272
           7 :   -86.2245437653411
           8 :    75.4086538055950
           9 :   -69.4113198358654
          10 :    63.2737126635260
          11 :   -55.0624743832290
          12 :    45.6074533256234
          13 :   -36.9399808873940
          14 :    30.6239556772015
          15 :   -26.9174371267334
          16 :    24.9672651002356
          17 :   -23.5982685381676
          18 :    22.0312262224098
          19 :   -20.1208011017355
          20 :    18.1196917081414
          21 :   -16.2862732513319
          22 :    14.6606303974115
          23 :   -13.1308515226283
          24 :    11.6474848334601
          25 :   -10.3524260219278
          26 :    9.48705180338004
          27 :   -9.15994720786807
          28 :    9.17630562021674
          29 :   -9.09543578574892
          30 :    8.49835065410923
          31 :   -30.5769497420029
          32 :   -22.2285341546682

     Forces acting on atoms (Ry/au):

     negative rho (up, down):  2.308E-01 2.309E-01
     atom    1 type  1   force =    -0.00118461   -0.00068411    0.01205400
     atom    2 type  1   force =    -0.00115524   -0.00066694    0.01208603
     atom    3 type  2   force =     0.00339638    0.00196730    0.01480227
     atom    4 type  2   force =     0.00340181    0.00195789    0.01480231
     atom    5 type  1   force =     0.00157970    0.00091216   -0.01168861
     atom    6 type  1   force =     0.00152366    0.00087982   -0.01175336
     atom    7 type  2   force =    -0.00202685   -0.00117863   -0.01614245
     atom    8 type  2   force =    -0.00203415   -0.00116618   -0.01614263
     atom    9 type  1   force =    -0.00074707   -0.00043113    0.00152417
     atom   10 type  1   force =    -0.00083279   -0.00048113    0.00146042
     atom   11 type  2   force =    -0.00096734   -0.00054244   -0.00050089
     atom   12 type  2   force =    -0.00095350   -0.00056661   -0.00050127

     Total force =     0.039831     Total SCF correction =     0.002711

     entering subroutine stress ...

     negative rho (up, down):  2.308E-01 2.309E-01
          total   stress  (Ry/bohr**3)                   (kbar)     P=  -50.34
  -0.00037041   0.00002622  -0.00000996        -54.49      3.86     -1.47
   0.00002622  -0.00040068  -0.00000575          3.86    -58.94     -0.85
  -0.00000996  -0.00000575  -0.00025553         -1.47     -0.85    -37.59

 !ASE

     Writing output data file calc.save

     General routines

     Parallel routines

   This run was terminated on:   1:36:15  19Dec2018

   JOB DONE.
Job  /afs/slac/g/suncat/bin/suncat-tsmpirun -x LD_LIBRARY_PATH -wdir /scratch/qe530378_p3xux pw.x -in pw.inp

TID   HOST_NAME   COMMAND_LINE            STATUS            TERMINATION_TIME
00000 suncat2063 pw.x -in pw.inp   Done                     12/19/2018 01:36:15
00001 suncat2063 pw.x -in pw.inp   Done                     12/19/2018 01:36:15
00002 suncat2063 pw.x -in pw.inp   Done                     12/19/2018 01:36:15
00003 suncat2063 pw.x -in pw.inp   Done                     12/19/2018 01:36:15
00004 suncat2063 pw.x -in pw.inp   Done                     12/19/2018 01:36:15
00005 suncat2063 pw.x -in pw.inp   Done                     12/19/2018 01:36:15
00006 suncat2063 pw.x -in pw.inp   Done                     12/19/2018 01:36:15
00007 suncat2063 pw.x -in pw.inp   Done                     12/19/2018 01:36:15
00008 suncat2063 pw.x -in pw.inp   Done                     12/19/2018 01:36:15
00009 suncat2063 pw.x -in pw.inp   Done                     12/19/2018 01:36:15
00010 suncat2063 pw.x -in pw.inp   Done                     12/19/2018 01:36:15
00011 suncat2063 pw.x -in pw.inp   Done                     12/19/2018 01:36:15
00012 suncat2063 pw.x -in pw.inp   Done                     12/19/2018 01:36:15
00013 suncat2063 pw.x -in pw.inp   Done                     12/19/2018 01:36:15
00014 suncat2063 pw.x -in pw.inp   Done                     12/19/2018 01:36:15
00015 suncat2063 pw.x -in pw.inp   Done                     12/19/2018 01:36:15
00016 suncat2042 pw.x -in pw.inp   Done                     12/19/2018 01:36:15
00017 suncat2042 pw.x -in pw.inp   Done                     12/19/2018 01:36:15
00018 suncat2042 pw.x -in pw.inp   Done                     12/19/2018 01:36:15
00019 suncat2042 pw.x -in pw.inp   Done                     12/19/2018 01:36:15
00020 suncat2042 pw.x -in pw.inp   Done                     12/19/2018 01:36:15
00021 suncat2042 pw.x -in pw.inp   Done                     12/19/2018 01:36:15
00022 suncat2042 pw.x -in pw.inp   Done                     12/19/2018 01:36:15
00023 suncat2042 pw.x -in pw.inp   Done                     12/19/2018 01:36:15
00024 suncat2042 pw.x -in pw.inp   Done                     12/19/2018 01:36:15
00025 suncat2042 pw.x -in pw.inp   Done                     12/19/2018 01:36:15
00026 suncat2042 pw.x -in pw.inp   Done                     12/19/2018 01:36:15
00027 suncat2042 pw.x -in pw.inp   Done                     12/19/2018 01:36:15
00028 suncat2042 pw.x -in pw.inp   Done                     12/19/2018 01:36:15
00029 suncat2042 pw.x -in pw.inp   Done                     12/19/2018 01:36:15
00030 suncat2042 pw.x -in pw.inp   Done                     12/19/2018 01:36:15
00031 suncat2042 pw.x -in pw.inp   Done                     12/19/2018 01:36:15