     Program PWSCF v.5.1rc2 (svn rev. 11289) starts on 18Dec2018 at 16:49:49

     Current dimensions of program PWSCF are:
     Max number of different atomic species (ntypx) = 10
     Max number of k-points (npk) =  40000
     Max angular momentum in pseudopotentials (lmaxx) =  3
     Presently stress not available with electric field

     IMPORTANT: XC functional enforced from input :
     Exchange-correlation      = BEEF-VDW ( 1  4 27 13 2)
     Any further DFT definition will be discarded
     Please, verify this is what you really want

     Subspace diagonalization in iterative solution of the eigenvalue problem:
     a serial algorithm will be used

     Found symmetry operation: I + ( -0.5000 -0.5000  0.0000)
     This is a supercell, fractional translations are disabled

     bravais-lattice index     =            0
     lattice parameter (alat)  =       1.8897  a.u.
     unit-cell volume          =    6075.8465 (a.u.)^3
     number of atoms/cell      =           12
     number of atomic types    =            2
     number of electrons       =       198.00
     number of Kohn-Sham states=          129
     kinetic-energy cutoff     =      36.7493  Ry
     charge density cutoff     =     367.4932  Ry
     convergence threshold     =      1.0E-06
     mixing beta               =       0.1000
     number of iterations used =           10  plain     mixing
     Exchange-correlation      = BEEF-VDW ( 1  4 27 13 2)
     nstep                     =           50

     celldm(1)=   1.889726  celldm(2)=   0.000000  celldm(3)=   0.000000
     celldm(4)=   0.000000  celldm(5)=   0.000000  celldm(6)=   0.000000

     crystal axes: (cart. coord. in units of alat)
               a(1) = (   6.326625   0.000000   0.000000 )
               a(2) = (   2.863464   5.641520   0.000000 )
               a(3) = (   0.000000   0.000000  25.225626 )

     reciprocal axes: (cart. coord. in units 2 pi/alat)
               b(1) = (  0.158062 -0.080228  0.000000 )
               b(2) = (  0.000000  0.177257  0.000000 )
               b(3) = (  0.000000  0.000000  0.039642 )

     PseudoPot. # 1 for Ag read from file:
     /afs/slac.stanford.edu/u/if/mamunm/psp/gbrv1.5pbe/Ag.UPF
     MD5 check sum: d66d668201baa78d5eb5b04ef7011058
     Pseudo is Ultrasoft + core correction, Zval = 19.0
     Generated by new atomic code, or converted to UPF format
     Using radial grid of  887 points,  6 beta functions with:
                l(1) =   0
                l(2) =   0
                l(3) =   1
                l(4) =   1
                l(5) =   2
                l(6) =   2
     Q(r) pseudized with  6 coefficients,  rinner =    1.300   1.300   1.300
                                                       1.300   1.300

     PseudoPot. # 2 for Sn read from file:
     /afs/slac.stanford.edu/u/if/mamunm/psp/gbrv1.5pbe/Sn.UPF
     MD5 check sum: 469debedee59599fedebd795477fea03
     Pseudo is Ultrasoft + core correction, Zval = 14.0
     Generated by new atomic code, or converted to UPF format
     Using radial grid of  891 points,  6 beta functions with:
                l(1) =   0
                l(2) =   0
                l(3) =   1
                l(4) =   1
                l(5) =   2
                l(6) =   2
     Q(r) pseudized with  8 coefficients,  rinner =    1.350   1.350   1.350
                                                       1.350   1.350

     vdW kernel table read from file vdW_kernel_table
     MD5 check sum: 095c7af220d748ca6e76c0b4c6cfb241

     atomic species   valence    mass     pseudopotential
        Ag1           19.00   107.86820     Ag( 1.00)
        Sn1           14.00   118.71000     Sn( 1.00)

     No symmetry found

   Cartesian axes

     site n.     atom                  positions (alat units)
         1           Ag1 tau(   1) = (   0.0000000   0.0000000  10.0000000  )
         2           Ag1 tau(   2) = (   4.5950442   2.8207602  10.0000000  )
         3           Sn1 tau(   3) = (   3.1633123   0.0000000  10.0000000  )
         4           Sn1 tau(   4) = (   1.4317319   2.8207602  10.0000000  )
         5           Ag1 tau(   5) = (   6.3266246   3.8837257  12.6128132  )
         6           Ag1 tau(   6) = (   1.7315804   1.0629654  12.6128132  )
         7           Sn1 tau(   7) = (   3.1633123   3.8837257  12.6128132  )
         8           Sn1 tau(   8) = (   4.8948927   1.0629654  12.6128132  )
         9           Ag1 tau(   9) = (   3.4631608   2.1259309  15.2256264  )
        10           Ag1 tau(  10) = (   8.0582050   4.9466911  15.2256264  )
        11           Sn1 tau(  11) = (   6.6264731   2.1259309  15.2256264  )
        12           Sn1 tau(  12) = (   4.8948927   4.9466911  15.2256264  )

     number of k points=    20  Fermi-Dirac smearing, width (Ry)=  0.0110
                       cart. coord. in units 2pi/alat
        k(    1) = (   0.0000000   0.0000000   0.0000000), wk =   0.0555556
        k(    2) = (   0.0000000   0.0295429   0.0000000), wk =   0.1111111
        k(    3) = (   0.0000000   0.0590857   0.0000000), wk =   0.1111111
        k(    4) = (   0.0000000  -0.0886286   0.0000000), wk =   0.0555556
        k(    5) = (   0.0263437  -0.0133713   0.0000000), wk =   0.1111111
        k(    6) = (   0.0263437   0.0161716   0.0000000), wk =   0.1111111
        k(    7) = (   0.0263437   0.0457145   0.0000000), wk =   0.1111111
        k(    8) = (   0.0263437  -0.1019998   0.0000000), wk =   0.1111111
        k(    9) = (   0.0263437  -0.0724570   0.0000000), wk =   0.1111111
        k(   10) = (   0.0263437  -0.0429141   0.0000000), wk =   0.1111111
        k(   11) = (   0.0526874  -0.0267425   0.0000000), wk =   0.1111111
        k(   12) = (   0.0526874   0.0028004   0.0000000), wk =   0.1111111
        k(   13) = (   0.0526874   0.0323432   0.0000000), wk =   0.1111111
        k(   14) = (   0.0526874  -0.1153711   0.0000000), wk =   0.1111111
        k(   15) = (   0.0526874  -0.0858282   0.0000000), wk =   0.1111111
        k(   16) = (   0.0526874  -0.0562854   0.0000000), wk =   0.1111111
        k(   17) = (  -0.0790311   0.0401138   0.0000000), wk =   0.0555556
        k(   18) = (  -0.0790311   0.0696566   0.0000000), wk =   0.1111111
        k(   19) = (  -0.0790311   0.0991995   0.0000000), wk =   0.1111111
        k(   20) = (  -0.0790311  -0.0485148   0.0000000), wk =   0.0555556

     Largest allocated arrays     est. size (Mb)     dimensions
     Largest temporary arrays     est. size (Mb)     dimensions

     Initial potential from superposition of free atoms
     Check: negative starting charge=   -0.002072

     starting charge  188.99944, renormalised to  198.00000

     negative rho (up, down):  2.171E-03 0.000E+00

     *
     * You are using vdW-DF for exchange-correlation in this calculation.
     * Please cite the following three references that made this development
     * possible:
     *
     *   M. Dion, H. Rydberg, E. Schroder, D. C. Langreth, and
     *   B. I. Lundqvist, Phys. Rev. Lett. 92, 246401 (2004).
     *
     *   T. Thonhauser, V. R. Cooper, S. Li, A. Puzder, P. Hyldgaard, and
     *   D. C. Langreth, Phys. Rev. B 76, 125112 (2007).
     *
     *   G. Roman-Perez and J. M. Soler, Phys. Rev. Lett. 103, 096102 (2009).
     *
     *
     * If you are using vdW-DF2, please also cite:
     *
     *   K. Lee, E. D. Murray, L. Kong, B. I. Lundqvist, and
     *   D. C. Langreth, Phys. Rev. B 82, 081101(R) (2010).
     *
     *
     * If you are calculating the stress with vdW-DF, please also cite:
     *
     *   R. Sabatini, E. Kucukbenli, B. Kolb, T. Thonhauser, and
     *   S. de Gironcoli, J. Phys.: Condens. Matter 24, 424209 (2012).
     *

     Carrying out vdW-DF run using the following parameters:

     Nqs =      20    Nr_points =    1024   r_max =   100.000
     q_mesh =
               0.00001000     0.04494208     0.09755937     0.15916263
               0.23128650     0.31572767     0.41458969     0.53033537
               0.66584808     0.82450364     1.01025438     1.22772762
               1.48234092     1.78043706     2.12944203     2.53805004
               3.01644009     3.57652955     4.23227104     5.00000000

     Gradients computed in reciprocal space

     Adding external electric field

     Computed dipole along edir(3) :
        Dipole                0.0000 Ry au,          0.0000 Debye
        Dipole field          0.0000 Ry au

        Potential amp.       -0.0000 Ry
        Total length         46.4778 bohr

     Starting wfc are  132 randomized atomic wfcs

     Self-consistent Calculation

     iteration #  1     ecut=    36.75 Ry     beta=0.10
     Davidson diagonalization with overlap
     ethr =  1.00E-02,  avg # of iterations =  7.7

[...]

     total energy              =   -2733.81983177 Ry
     Harris-Foulkes estimate   =   -2753.15561701 Ry
     estimated scf accuracy    <     109.10160735 Ry

[...]

     End of self-consistent calculation

          k = 0.0000 0.0000 0.0000 ( 22877 PWs)   bands (ev):

   -91.4649 -91.4642 -91.2331 -91.2329 -91.2325 -91.2323 -54.9732 -54.9720
   -54.9515 -54.9503 -54.9461 -54.9307 -54.7485 -54.7483 -54.7475 -54.7473
   -54.7347 -54.7345 -54.7192 -54.7191 -54.7135 -54.7134 -54.7124 -54.7121
   -21.1790 -21.1268 -21.1110 -21.1109 -21.0973 -21.0911 -21.0845 -21.0697
   -21.0609 -21.0530 -21.0510 -21.0211 -21.0099 -21.0085 -20.9914 -20.9892
   -20.9727 -20.9723 -20.9714 -20.9694 -20.9679 -20.9668 -20.9566 -20.9556
   -20.9524 -20.9443 -20.9353 -20.9341 -20.8937 -20.8871  -8.7170  -7.5704
    -6.6826  -6.2951  -5.5517  -5.3312  -4.2164  -4.0604  -4.0156  -3.9858
    -3.9713  -3.9388  -3.8906  -3.8806  -3.7776  -3.6667  -3.6491  -3.6073
    -3.5952  -3.5748  -3.5224  -3.4985  -3.4630  -3.4219  -3.3507  -3.2976
    -3.2896  -3.2826  -3.2810  -3.2332  -3.1646  -2.9448  -2.9283  -2.7823
    -2.6112  -2.2947  -2.1578  -1.7736  -1.5937  -1.4004  -1.2628  -1.1359
    -0.7542  -0.4576  -0.2500   0.0883   0.9099   1.2525   1.6085   1.6199
     2.5434   2.7579   2.9196   2.9628   3.6400   4.0083   4.2124   4.5928
     5.1169   5.1433   5.3632   5.6203   5.6592   5.6841   6.0756   6.3216
     7.0329   7.2305   7.2412   7.3730   7.4832   7.7496   7.7766   7.9318
     8.1063

[...]

          k =-0.0790 0.0401 0.0000 ( 22868 PWs)   bands (ev):

[...]

     the Fermi energy is     0.8307 ev

!    total energy              =   -2744.06359242 Ry
     Harris-Foulkes estimate   =   -2744.06359495 Ry
     estimated scf accuracy    <       0.00000065 Ry

     The total energy is the sum of the following terms:

     one-electron contribution =  -16433.62621039 Ry
     hartree contribution      =    8241.61107840 Ry
     xc contribution           =    -447.26511145 Ry
     ewald contribution        =    5895.24384967 Ry
     electric field correction =       0.00000000 Ry
     smearing contrib. (-TS)   =      -0.02719864 Ry

     convergence has been achieved in  15 iterations

 BEEF-vdW xc energy contributions
           1 :   -390.861975638116
           2 :    356.181960614417
           3 :   -297.844815525397
           4 :    232.796603024661
           5 :   -176.747964254235
           6 :    138.502333015765
           7 :   -118.147586071943
[...]
00028 suncat0017 pw.x -in pw.inp   Done                     12/18/2018 17:11:30
00029 suncat0017 pw.x -in pw.inp   Done                     12/18/2018 17:11:30
00030 suncat0017 pw.x -in pw.inp   Done                     12/18/2018 17:11:30
00031 suncat0017 pw.x -in pw.inp   Done                     12/18/2018 17:11:30

[...]

   This run was terminated on:  18:38:48  18Dec2018

[...]

     Program PWSCF v.5.1rc2 (svn rev. 11289) starts on 18Dec2018 at 18:38:54

     Current dimensions of program PWSCF are:
     Max number of different atomic species (ntypx) = 10
     Max number of k-points (npk) =  40000
     Max angular momentum in pseudopotentials (lmaxx) =  3
     Presently stress not available with electric field

     IMPORTANT: XC functional enforced from input :
     Exchange-correlation      = BEEF-VDW ( 1  4 27 13 2)
     Any further DFT definition will be discarded
     Please, verify this is what you really want

     Subspace diagonalization in iterative solution of the eigenvalue problem:
     a serial algorithm will be used

     bravais-lattice index     =            0
     lattice parameter (alat)  =       1.8897  a.u.
     unit-cell volume          =    6075.8465 (a.u.)^3
     number of atoms/cell      =           12
     number of atomic types    =            2
     number of electrons       =       198.00
     number of Kohn-Sham states=          129
     kinetic-energy cutoff     =      36.7493  Ry
     charge density cutoff     =     367.4932  Ry
     convergence threshold     =      1.0E-06
     mixing beta               =       0.1000
     number of iterations used =           10  plain     mixing
     Exchange-correlation      = BEEF-VDW ( 1  4 27 13 2)
     nstep                     =           50

     celldm(1)=   1.889726  celldm(2)=   0.000000  celldm(3)=   0.000000
     celldm(4)=   0.000000  celldm(5)=   0.000000  celldm(6)=   0.000000

     crystal axes: (cart. coord. in units of alat)
               a(1) = (   6.326625   0.000000   0.000000 )
               a(2) = (   2.863464   5.641520   0.000000 )
               a(3) = (   0.000000   0.000000  25.225626 )

     reciprocal axes: (cart. coord. in units 2 pi/alat)
               b(1) = (  0.158062 -0.080228  0.000000 )
               b(2) = (  0.000000  0.177257  0.000000 )
               b(3) = (  0.000000  0.000000  0.039642 )

     PseudoPot. # 1 for Ag read from file:
     /afs/slac.stanford.edu/u/if/mamunm/psp/gbrv1.5pbe/Ag.UPF
     MD5 check sum: d66d668201baa78d5eb5b04ef7011058
     Pseudo is Ultrasoft + core correction, Zval = 19.0
     Generated by new atomic code, or converted to UPF format
     Using radial grid of  887 points,  6 beta functions with:
                l(1) =   0
                l(2) =   0
                l(3) =   1
                l(4) =   1
                l(5) =   2
                l(6) =   2
     Q(r) pseudized with  6 coefficients,  rinner =    1.300   1.300   1.300
                                                       1.300   1.300

     PseudoPot. # 2 for Sn read from file:
     /afs/slac.stanford.edu/u/if/mamunm/psp/gbrv1.5pbe/Sn.UPF
     MD5 check sum: 469debedee59599fedebd795477fea03
     Pseudo is Ultrasoft + core correction, Zval = 14.0
     Generated by new atomic code, or converted to UPF format
     Using radial grid of  891 points,  6 beta functions with:
                l(1) =   0
                l(2) =   0
                l(3) =   1
                l(4) =   1
                l(5) =   2
                l(6) =   2
     Q(r) pseudized with  8 coefficients,  rinner =    1.350   1.350   1.350
                                                       1.350   1.350

     vdW kernel table read from file vdW_kernel_table
     MD5 check sum: 095c7af220d748ca6e76c0b4c6cfb241

     atomic species   valence    mass     pseudopotential
        Ag1           19.00   107.86820     Ag( 1.00)
        Sn1           14.00   118.71000     Sn( 1.00)

     No symmetry found

   Cartesian axes

     site n.     atom                  positions (alat units)
         1           Ag1 tau(   1) = (   0.0000000   0.0000000  10.0000000  )
         2           Ag1 tau(   2) = (   4.5950442   2.8207602  10.0000000  )
         3           Sn1 tau(   3) = (   3.1633123   0.0000000  10.0000000  )
         4           Sn1 tau(   4) = (   1.4317319   2.8207602  10.0000000  )
         5           Ag1 tau(   5) = (   6.3266246   3.8837257  12.6128132  )
         6           Ag1 tau(   6) = (   1.7315804   1.0629654  12.6128132  )
         7           Sn1 tau(   7) = (   3.1633123   3.8837257  12.6128132  )
         8           Sn1 tau(   8) = (   4.8948927   1.0629654  12.6128132  )
         9           Ag1 tau(   9) = (   3.4431688   2.1136740  15.1648667  )
        10           Ag1 tau(  10) = (   8.0383924   4.9345312  15.1647635  )
        11           Sn1 tau(  11) = (   6.6900059   2.1644040  15.2025177  )
        12           Sn1 tau(  12) = (   4.9579820   4.9859647  15.2025421  )

     number of k points=    20  Fermi-Dirac smearing, width (Ry)=  0.0110
                       cart. coord. in units 2pi/alat
        k(    1) = (   0.0000000   0.0000000   0.0000000), wk =   0.0555556
        k(    2) = (   0.0000000   0.0295429   0.0000000), wk =   0.1111111
        k(    3) = (   0.0000000   0.0590857   0.0000000), wk =   0.1111111
        k(    4) = (   0.0000000  -0.0886286   0.0000000), wk =   0.0555556
        k(    5) = (   0.0263437  -0.0133713   0.0000000), wk =   0.1111111
        k(    6) = (   0.0263437   0.0161716   0.0000000), wk =   0.1111111
        k(    7) = (   0.0263437   0.0457145   0.0000000), wk =   0.1111111
        k(    8) = (   0.0263437  -0.1019998   0.0000000), wk =   0.1111111
        k(    9) = (   0.0263437  -0.0724570   0.0000000), wk =   0.1111111
        k(   10) = (   0.0263437  -0.0429141   0.0000000), wk =   0.1111111
        k(   11) = (   0.0526874  -0.0267425   0.0000000), wk =   0.1111111
        k(   12) = (   0.0526874   0.0028004   0.0000000), wk =   0.1111111
        k(   13) = (   0.0526874   0.0323432   0.0000000), wk =   0.1111111
        k(   14) = (   0.0526874  -0.1153711   0.0000000), wk =   0.1111111
        k(   15) = (   0.0526874  -0.0858282   0.0000000), wk =   0.1111111
        k(   16) = (   0.0526874  -0.0562854   0.0000000), wk =   0.1111111
        k(   17) = (  -0.0790311   0.0401138   0.0000000), wk =   0.0555556
        k(   18) = (  -0.0790311   0.0696566   0.0000000), wk =   0.1111111
        k(   19) = (  -0.0790311   0.0991995   0.0000000), wk =   0.1111111
        k(   20) = (  -0.0790311  -0.0485148   0.0000000), wk =   0.0555556

     Largest allocated arrays     est. size (Mb)     dimensions
     Largest temporary arrays     est. size (Mb)     dimensions

     Initial potential from superposition of free atoms
     Check: negative starting charge=   -0.002104

     starting charge  188.99944, renormalised to  198.00000

[...]

     *
     * You are using vdW-DF for exchange-correlation in this calculation.
     * Please cite the following three references that made this development
     * possible:
     *
     *   M. Dion, H. Rydberg, E. Schroder, D. C. Langreth, and
     *   B. I. Lundqvist, Phys. Rev. Lett. 92, 246401 (2004).
     *
     *   T. Thonhauser, V. R. Cooper, S. Li, A. Puzder, P. Hyldgaard, and
     *   D. C. Langreth, Phys. Rev. B 76, 125112 (2007).
     *
     *   G. Roman-Perez and J. M. Soler, Phys. Rev. Lett. 103, 096102 (2009).
     *
     *
     * If you are using vdW-DF2, please also cite:
     *
     *   K. Lee, E. D. Murray, L. Kong, B. I. Lundqvist, and
     *   D. C. Langreth, Phys. Rev. B 82, 081101(R) (2010).
     *
     *
     * If you are calculating the stress with vdW-DF, please also cite:
     *
     *   R. Sabatini, E. Kucukbenli, B. Kolb, T. Thonhauser, and
     *   S. de Gironcoli, J. Phys.: Condens. Matter 24, 424209 (2012).
     *

     Carrying out vdW-DF run using the following parameters:

     Nqs =      20    Nr_points =    1024   r_max =   100.000
     q_mesh =
               0.00001000     0.04494208     0.09755937     0.15916263
               0.23128650     0.31572767     0.41458969     0.53033537
               0.66584808     0.82450364     1.01025438     1.22772762
               1.48234092     1.78043706     2.12944203     2.53805004
               3.01644009     3.57652955     4.23227104     5.00000000

     Gradients computed in reciprocal space

[...]

     Starting wfc are  132 randomized atomic wfcs

     Self-consistent Calculation

[...]

     total energy              =   -2744.06544701 Ry
     Harris-Foulkes estimate   =   -2744.06544812 Ry
     estimated scf accuracy    <       0.00000274 Ry

     iteration # 16     ecut=    36.75 Ry     beta=0.10
     Davidson diagonalization with overlap
     ethr =  1.39E-09,  avg # of iterations =  3.0

[...]

     negative rho (up, down):  1.616E-03 0.000E+00

     Adding external electric field

     Computed dipole along edir(3) :
        Dipole               -0.0022 Ry au,         -0.0057 Debye
        Dipole field         -0.0000 Ry au

        Potential amp.        0.0004 Ry
        Total length         46.4778 bohr

     End of self-consistent calculation

[...]

          k = 0.0527-0.0563 0.0000 ( 22873 PWs)   bands (ev):

[...]

          k =-0.0790-0.0485 0.0000 ( 22752 PWs)   bands (ev):

   -91.4883 -91.4876 -91.2820 -91.2814 -91.2340 -91.2334 -54.9964 -54.9951
   -54.9751 -54.9738 -54.9696 -54.9541 -54.7968 -54.7955 -54.7839 -54.7684
   -54.7622 -54.7611 -54.7496 -54.7483 -54.7362 -54.7206 -54.7143 -54.7132
   -21.1856 -21.1336 -21.1171 -21.1142 -21.1054 -21.0961 -21.0926 -21.0768
   -21.0607 -21.0601 -21.0477 -21.0249 -21.0110 -21.0044 -20.9910 -20.9855
   -20.9721 -20.9707 -20.9704 -20.9657 -20.9657 -20.9637 -20.9570 -20.9562
   -20.9514 -20.9438 -20.9365 -20.9312 -20.8940 -20.8868  -7.9779  -7.4875
    -6.7268  -6.2108  -5.5328  -4.6048  -4.5602  -4.4672  -4.3946  -4.3519
    -4.3312  -4.1608  -4.0957  -4.0922  -4.0145  -3.9822  -3.9799  -3.9427
    -3.8563  -3.7744  -3.7406  -3.6440  -3.5987  -3.5892  -3.5813  -3.4746
    -3.4358  -3.3746  -3.3439  -3.3284  -3.3262  -3.2464  -3.2460  -3.1834
    -3.0834  -2.9397  -2.7909  -2.0228  -1.8292  -1.6983  -1.4107   0.0952
     0.3236   1.1087   1.4514   1.5267   2.0751   3.0857   3.1736   3.2512
     3.2673   3.3420   4.0326   4.0589   4.3435   4.5027   4.7674   5.0001
     5.0322   5.2449   5.5634   5.7454   5.9213   5.9250   6.0336   6.1350
     6.2323   6.3358   6.4149   6.5378   6.5486   6.7047   6.7692   6.8077
     6.9344

     the Fermi energy is     0.8270 ev

!    total energy              =   -2744.06544572 Ry
     Harris-Foulkes estimate   =   -2744.06544748 Ry
     estimated scf accuracy    <       0.00000053 Ry

     The total energy is the sum of the following terms:

     one-electron contribution =  -16534.41345672 Ry
     hartree contribution      =    8291.88290621 Ry
     xc contribution           =    -447.28640042 Ry
     ewald contribution        =    5945.77826275 Ry
     electric field correction =       0.00000001 Ry
     smearing contrib. (-TS)   =      -0.02675754 Ry

     convergence has been achieved in  16 iterations

 BEEF-vdW xc energy contributions
           1 :   -390.887884237925
           2 :    356.232816273800
           3 :   -297.923052513657
           4 :    232.877256879129
           5 :   -176.795920024567
           6 :    138.498566303862
           7 :   -118.104617995522
           8 :    109.284815440161
           9 :   -103.871690708751
          10 :    96.1954095575326
          11 :   -85.0738587670833
          12 :    72.9366867710515
          13 :   -63.1964930924578
          14 :    57.7212824818048
          15 :   -55.8505535483322
          16 :    55.2103060764138
          17 :   -53.4699384950130
          18 :    49.7666743084177
          19 :   -44.9607346477678
          20 :    40.7501314861550
          21 :   -38.3925471188546
          22 :    37.9089497250717
          23 :   -38.2099330887574
          24 :    37.9311470786709
          25 :   -36.3467806755974
          26 :    33.7606929887588
          27 :   -31.1874482412441
          28 :    29.6091582117976
          29 :   -29.3369043004978
          30 :    29.8757789078439
          31 :   -36.0396718401409
          32 :   -26.2125524639913

     Forces acting on atoms (Ry/au):

     negative rho (up, down):  1.616E-03 0.000E+00
     atom    1 type  1   force =     0.00386933    0.00237511    0.00277802
     atom    2 type  1   force =     0.00387079    0.00237601    0.00278188
     atom    3 type  2   force =    -0.00575948   -0.00353446    0.00208812
     atom    4 type  2   force =    -0.00575893   -0.00353553    0.00208650
     atom    5 type  1   force =    -0.00022223   -0.00013615   -0.00227057
     atom    6 type  1   force =    -0.00014947   -0.00009226   -0.00228247
     atom    7 type  2   force =     0.00107267    0.00064406   -0.00060537
     atom    8 type  2   force =     0.00105745    0.00066663   -0.00060639
     atom    9 type  1   force =     0.00005212    0.00003259   -0.00069221
     atom   10 type  1   force =    -0.00005081   -0.00003226   -0.00068555
     atom   11 type  2   force =     0.00098571    0.00065855   -0.00129545
     atom   12 type  2   force =     0.00103284    0.00057770   -0.00129653

     Total force =     0.013349     Total SCF correction =     0.003553
     SCF correction compared to forces is large: reduce conv_thr to get better values

     entering subroutine stress ...

     negative rho (up, down):  1.616E-03 0.000E+00
          total   stress  (Ry/bohr**3)                   (kbar)     P=  -10.26
  -0.00009176  -0.00000053   0.00000434        -13.50     -0.08      0.64
  -0.00000053  -0.00009122   0.00000267         -0.08    -13.42      0.39
   0.00000434   0.00000267  -0.00002626          0.64      0.39     -3.86

 !ASE

     Writing output data file calc.save

     General routines

     Parallel routines

   This run was terminated on:  19: 1:45  18Dec2018

   JOB DONE.
Job  /afs/slac/g/suncat/bin/suncat-tsmpirun -x LD_LIBRARY_PATH -wdir /scratch/qe529563_q9r4q pw.x -in pw.inp

TID   HOST_NAME   COMMAND_LINE            STATUS            TERMINATION_TIME
00000 suncat0020 pw.x -in pw.inp   Done                     12/18/2018 19:01:45
00001 suncat0020 pw.x -in pw.inp   Done                     12/18/2018 19:01:45
00002 suncat0020 pw.x -in pw.inp   Done                     12/18/2018 19:01:45
00003 suncat0020 pw.x -in pw.inp   Done                     12/18/2018 19:01:45
00004 suncat0020 pw.x -in pw.inp   Done                     12/18/2018 19:01:45
00005 suncat0020 pw.x -in pw.inp   Done                     12/18/2018 19:01:45
00006 suncat0020 pw.x -in pw.inp   Done                     12/18/2018 19:01:45
00007 suncat0020 pw.x -in pw.inp   Done                     12/18/2018 19:01:45
00008 suncat0019 pw.x -in pw.inp   Done                     12/18/2018 19:01:45
00009 suncat0019 pw.x -in pw.inp   Done                     12/18/2018 19:01:45
00010 suncat0019 pw.x -in pw.inp   Done                     12/18/2018 19:01:45
00011 suncat0019 pw.x -in pw.inp   Done                     12/18/2018 19:01:45
00012 suncat0019 pw.x -in pw.inp   Done                     12/18/2018 19:01:45
00013 suncat0019 pw.x -in pw.inp   Done                     12/18/2018 19:01:45
00014 suncat0019 pw.x -in pw.inp   Done                     12/18/2018 19:01:45
00015 suncat0019 pw.x -in pw.inp   Done                     12/18/2018 19:01:45
00016 suncat0018 pw.x -in pw.inp   Done                     12/18/2018 19:01:45
00017 suncat0018 pw.x -in pw.inp   Done                     12/18/2018 19:01:45
00018 suncat0018 pw.x -in pw.inp   Done                     12/18/2018 19:01:45
00019 suncat0018 pw.x -in pw.inp   Done                     12/18/2018 19:01:45
00020 suncat0018 pw.x -in pw.inp   Done                     12/18/2018 19:01:45
00021 suncat0018 pw.x -in pw.inp   Done                     12/18/2018 19:01:45
00022 suncat0018 pw.x -in pw.inp   Done                     12/18/2018 19:01:45
00023 suncat0018 pw.x -in pw.inp   Done                     12/18/2018 19:01:45
00024 suncat0017 pw.x -in pw.inp   Done                     12/18/2018 19:01:45
00025 suncat0017 pw.x -in pw.inp   Done                     12/18/2018 19:01:45
00026 suncat0017 pw.x -in pw.inp   Done                     12/18/2018 19:01:45
00027 suncat0017 pw.x -in pw.inp   Done                     12/18/2018 19:01:45
00028 suncat0017 pw.x -in pw.inp   Done                     12/18/2018 19:01:45
00029 suncat0017 pw.x -in pw.inp   Done                     12/18/2018 19:01:45
00030 suncat0017 pw.x -in pw.inp   Done                     12/18/2018 19:01:45
00031 suncat0017 pw.x -in pw.inp   Done                     12/18/2018 19:01:45