     Program PWSCF v.5.1rc2 (svn rev. 11289) starts on 25Dec2018 at  5:24:50

     Current dimensions of program PWSCF are:
     Max number of different atomic species (ntypx) = 10
     Max number of k-points (npk) =  40000
     Max angular momentum in pseudopotentials (lmaxx) =  3
     Presently stress not available with electric field

     IMPORTANT: XC functional enforced from input :
     Exchange-correlation      = BEEF-VDW ( 1  4 27 13 2)
     Any further DFT definition will be discarded
     Please, verify this is what you really want

     Subspace diagonalization in iterative solution of the eigenvalue problem:
     a serial algorithm will be used

     Found symmetry operation: I + (  0.5000 -0.5000  0.0000)
     This is a supercell, fractional translations are disabled

     bravais-lattice index     =            0
     lattice parameter (alat)  =       1.8897  a.u.
     unit-cell volume          =    4388.5661 (a.u.)^3
     number of atoms/cell      =           12
     number of atomic types    =            2
     number of electrons       =       216.00
     number of Kohn-Sham states=          138
     kinetic-energy cutoff     =      36.7493  Ry
     charge density cutoff     =     367.4932  Ry
     convergence threshold     =      1.0E-06
     mixing beta               =       0.1000
     number of iterations used =           10  plain     mixing
     Exchange-correlation      = BEEF-VDW ( 1  4 27 13 2)
     nstep                     =           50

     celldm(1)=   1.889726  celldm(2)=   0.000000  celldm(3)=   0.000000
     celldm(4)=   0.000000  celldm(5)=   0.000000  celldm(6)=   0.000000

     crystal axes: (cart. coord. in units of alat)
               a(1) = (   5.413541   0.000000   0.000000 )
               a(2) = (   2.287772   4.906376   0.000000 )
               a(3) = (   0.000000   0.000000  24.484078 )

     reciprocal axes: (cart. coord. in units 2 pi/alat)
               b(1) = (  0.184722 -0.086133  0.000000 )
               b(2) = (  0.000000  0.203816  0.000000 )
               b(3) = (  0.000000  0.000000  0.040843 )

     PseudoPot. # 1 for Zn read from file:
     /afs/slac.stanford.edu/u/if/mamunm/psp/gbrv1.5pbe/Zn.UPF
     MD5 check sum: df62231357ef9e81f77b2b3087fa5675
     Pseudo is Ultrasoft, Zval = 20.0
     Generated by new atomic code, or converted to UPF format
     Using radial grid of  943 points,  6 beta functions with:
                l(1) =   0
                l(2) =   0
                l(3) =   1
                l(4) =   1
                l(5) =   2
                l(6) =   2
     Q(r) pseudized with  8 coefficients,  rinner =    1.100   1.100   1.100
                                                       1.100   1.100

     PseudoPot. # 2 for Pt read from file:
     /afs/slac.stanford.edu/u/if/mamunm/psp/gbrv1.5pbe/Pt.UPF
     MD5 check sum: f09d6de1a584b5a045c4fc126da2d0c4
     Pseudo is Ultrasoft + core correction, Zval = 16.0
     Generated by new atomic code, or converted to UPF format
     Using radial grid of  985 points,  6 beta functions with:
                l(1) =   0
                l(2) =   0
                l(3) =   1
                l(4) =   1
                l(5) =   2
                l(6) =   2
     Q(r) pseudized with  8 coefficients,  rinner =    1.300   1.300   1.300
                                                       1.300   1.300

     vdW kernel table read from file vdW_kernel_table
     MD5 check sum: 095c7af220d748ca6e76c0b4c6cfb241

     atomic species   valence    mass     pseudopotential
        Zn1           20.00    65.38000     Zn( 1.00)
        Pt1           16.00   195.08400     Pt( 1.00)

     No symmetry found

   Cartesian axes

     site n.     atom                  positions (alat units)
         1           Zn1 tau(   1) = (   0.0000000   0.0000000  10.0000000  )
         2           Zn1 tau(   2) = (   3.8506563   2.4531882  10.0000000  )
         3           Pt1 tau(   3) = (   2.7067705   0.0000000  10.0000000  )
         4           Pt1 tau(   4) = (   1.1438858   2.4531882  10.0000000  )
         5           Zn1 tau(   5) = (   5.4135411   3.4488757  12.2420389  )
         6           Zn1 tau(   6) = (   1.5628848   0.9956875  12.2420389  )
         7           Pt1 tau(   7) = (   2.7067705   3.4488757  12.2420389  )
         8           Pt1 tau(   8) = (   4.2696553   0.9956875  12.2420389  )
         9           Zn1 tau(   9) = (   3.1257696   1.9913750  14.4840778  )
        10           Zn1 tau(  10) = (   6.9764259   4.4445632  14.4840778  )
        11           Pt1 tau(  11) = (   5.8325401   1.9913750  14.4840778  )
        12           Pt1 tau(  12) = (   4.2696553   4.4445632  14.4840778  )

     number of k points=    20  Fermi-Dirac smearing, width (Ry)=  0.0110
                       cart. coord. in units 2pi/alat
        k(    1) = (   0.0000000   0.0000000   0.0000000), wk =   0.0555556
        k(    2) = (   0.0000000   0.0339694   0.0000000), wk =   0.1111111
        k(    3) = (   0.0000000   0.0679388   0.0000000), wk =   0.1111111
        k(    4) = (   0.0000000  -0.1019082   0.0000000), wk =   0.0555556
        k(    5) = (   0.0307870  -0.0143555   0.0000000), wk =   0.1111111
        k(    6) = (   0.0307870   0.0196139   0.0000000), wk =   0.1111111
        k(    7) = (   0.0307870   0.0535833   0.0000000), wk =   0.1111111
        k(    8) = (   0.0307870  -0.1162637   0.0000000), wk =   0.1111111
        k(    9) = (   0.0307870  -0.0822943   0.0000000), wk =   0.1111111
        k(   10) = (   0.0307870  -0.0483249   0.0000000), wk =   0.1111111
        k(   11) = (   0.0615740  -0.0287111   0.0000000), wk =   0.1111111
        k(   12) = (   0.0615740   0.0052583   0.0000000), wk =   0.1111111
        k(   13) = (   0.0615740   0.0392278   0.0000000), wk =   0.1111111
        k(   14) = (   0.0615740  -0.1306193   0.0000000), wk =   0.1111111
        k(   15) = (   0.0615740  -0.0966499   0.0000000), wk =   0.1111111
        k(   16) = (   0.0615740  -0.0626805   0.0000000), wk =   0.1111111
        k(   17) = (  -0.0923610   0.0430666   0.0000000), wk =   0.0555556
        k(   18) = (  -0.0923610   0.0770360   0.0000000), wk =   0.1111111
        k(   19) = (  -0.0923610   0.1110054   0.0000000), wk =   0.1111111
        k(   20) = (  -0.0923610  -0.0588416   0.0000000), wk =   0.0555556

     Largest allocated arrays     est. size (Mb)     dimensions
     Largest temporary arrays     est. size (Mb)     dimensions

     Check: negative/imaginary core charge=   -0.000001    0.000000

     Initial potential from superposition of free atoms
     Check: negative starting charge=   -1.103112

     starting charge  212.99909, renormalised to  216.00000

     negative rho (up, down):  1.119E+00 0.000E+00

     *
     * You are using vdW-DF for exchange-correlation in this calculation.
     * Please cite the following three references that made this development
     * possible:
     *
     *   M. Dion, H. Rydberg, E. Schroder, D. C. Langreth, and
     *   B. I. Lundqvist, Phys. Rev. Lett. 92, 246401 (2004).
     *
     *   T. Thonhauser, V. R. Cooper, S. Li, A. Puzder, P. Hyldgaard, and
     *   D. C. Langreth, Phys. Rev. B 76, 125112 (2007).
     *
     *   G. Roman-Perez and J. M. Soler, Phys. Rev. Lett. 103, 096102 (2009).
     *
     *
     * If you are using vdW-DF2, please also cite:
     *
     *   K. Lee, E. D. Murray, L. Kong, B. I. Lundqvist, and
     *   D. C. Langreth, Phys. Rev. B 82, 081101(R) (2010).
     *
     *
     * If you are calculating the stress with vdW-DF, please also cite:
     *
     *   R. Sabatini, E. Kucukbenli, B. Kolb, T. Thonhauser, and
     *   S. de Gironcoli, J. Phys.: Condens. Matter 24, 424209 (2012).
     *

     Carrying out vdW-DF run using the following parameters:

     Nqs =      20    Nr_points =    1024   r_max =   100.000
     q_mesh =
               0.00001000     0.04494208     0.09755937     0.15916263
               0.23128650     0.31572767     0.41458969     0.53033537
               0.66584808     0.82450364     1.01025438     1.22772762
               1.48234092     1.78043706     2.12944203     2.53805004
               3.01644009     3.57652955     4.23227104     5.00000000

     Gradients computed in reciprocal space

     Adding external electric field

     Computed dipole along edir(3) :
        Dipole               -0.0000 Ry au,         -0.0000 Debye
        Dipole field         -0.0000 Ry au

        Potential amp.        0.0000 Ry
        Total length         45.1115 bohr

     Starting wfc are  150 randomized atomic wfcs

     Self-consistent Calculation

     iteration #  1     ecut=    36.75 Ry     beta=0.10
     Davidson diagonalization with overlap
     ethr =  1.00E-02,  avg # of iterations =  7.3

[...]

     total energy              =   -4051.46722356 Ry
     Harris-Foulkes estimate   =   -4052.72741544 Ry
     estimated scf accuracy    <       7.49292578 Ry

[...]

     End of self-consistent calculation

          k = 0.0000 0.0000 0.0000 ( 16483 PWs)   bands (ev):

  -124.9894-124.9891-124.8505-124.8505-124.8502-124.8502 -79.1903 -79.1899
   -79.1892 -79.1829 -79.1552 -79.1549 -79.0561 -79.0560 -79.0558 -79.0557
   -79.0429 -79.0429 -79.0367 -79.0366 -79.0112 -79.0111 -79.0108 -79.0107
   -51.5004 -51.4124 -51.4075 -51.3996 -51.3946 -51.3568 -51.1443 -51.1441
   -51.0966 -51.0928 -51.0839 -51.0800 -51.0027 -51.0026 -50.9701 -50.9664
   -50.9573 -50.9539  -7.9707  -6.5528  -6.5122  -6.5084  -6.4784  -6.4356
    -6.3376  -6.3335  -6.2828  -6.2561  -6.2278  -6.2207  -6.1601  -6.1362
    -5.9844  -5.9778  -5.9764  -5.9752  -5.8939  -5.8923  -5.8723  -5.8395
    -5.7983  -5.7540  -5.7539  -5.6955  -5.6619  -5.6537  -5.6505  -5.6359
    -5.4851  -5.3852  -4.2120  -4.0255  -3.6258  -3.2550  -3.0550  -2.6763
    -2.6514  -2.4026  -2.3862  -2.1768  -2.0037  -1.8387  -1.6039  -1.6033
    -1.3416  -1.1456  -1.0995  -0.9229  -0.9180  -0.6765  -0.4814  -0.4583
    -0.4260  -0.4004  -0.1364  -0.1178  -0.0335   0.0132   0.0782   0.2583
     0.7704   0.8646   0.8866   1.1011   1.3299   1.7918   1.9967   2.2774
     2.3069   2.9158   3.7715   4.6568   4.7180   4.8366   5.0356   5.2263
     5.4971   5.5413   5.8405   6.1202   6.3603   6.3949   6.7200   6.8103
     7.3540   8.5513   8.7672   9.0474   9.0502   9.2900   9.3117   9.7695
    10.4368  10.5318

[...]

          k =-0.0924 0.0431 0.0000 ( 16512 PWs)   bands (ev):

[...]

     the Fermi energy is     1.0719 ev

!    total energy              =   -4051.11942048 Ry
     Harris-Foulkes estimate   =   -4051.11940427 Ry
     estimated scf accuracy    <       0.00000023 Ry

     The total energy is the sum of the following terms:

     one-electron contribution =  -28177.23809585 Ry
     hartree contribution      =   14100.23209050 Ry
     xc contribution           =    -612.67954153 Ry
     ewald contribution        =   10638.59340484 Ry
     electric field correction =       0.00000000 Ry
     smearing contrib. (-TS)   =      -0.02727845 Ry

     convergence has been achieved in  15 iterations

 BEEF-vdW xc energy contributions
           1 :   -545.162956096783
           2 :    501.835871311353
           3 :   -426.612239836966
[...]
     Using radial grid of  943 points,  6 beta functions with:
                l(1) =   0
                l(2) =   0
                l(3) =   1
                l(4) =   1
                l(5) =   2
                l(6) =   2
     Q(r) pseudized with  8 coefficients,  rinner =    1.100   1.100   1.100
                                                       1.100   1.100

     PseudoPot. # 2 for Pt read from file:
     /afs/slac.stanford.edu/u/if/mamunm/psp/gbrv1.5pbe/Pt.UPF
     MD5 check sum: f09d6de1a584b5a045c4fc126da2d0c4
     Pseudo is Ultrasoft + core correction, Zval = 16.0
     Generated by new atomic code, or converted to UPF format
     Using radial grid of  985 points,  6 beta functions with:
                l(1) =   0
                l(2) =   0
                l(3) =   1
                l(4) =   1
                l(5) =   2
                l(6) =   2
     Q(r) pseudized with  8 coefficients,  rinner =    1.300   1.300   1.300
                                                       1.300   1.300

     vdW kernel table read from file vdW_kernel_table
     MD5 check sum: 095c7af220d748ca6e76c0b4c6cfb241

     atomic species   valence    mass     pseudopotential
        Zn1           20.00    65.38000     Zn( 1.00)
        Pt1           16.00   195.08400     Pt( 1.00)

     No symmetry found

   Cartesian axes

     site n.     atom                  positions (alat units)
         1           Zn1 tau(   1) = (   0.0000000   0.0000000  10.0000000  )
         2           Zn1 tau(   2) = (   3.8506563   2.4531882  10.0000000  )
         3           Pt1 tau(   3) = (   2.7067705   0.0000000  10.0000000  )
         4           Pt1 tau(   4) = (   1.1438858   2.4531882  10.0000000  )
         5           Zn1 tau(   5) = (   5.4135411   3.4488757  12.2420389  )
         6           Zn1 tau(   6) = (   1.5628848   0.9956875  12.2420389  )
         7           Pt1 tau(   7) = (   2.7067705   3.4488757  12.2420389  )
         8           Pt1 tau(   8) = (   4.2696553   0.9956875  12.2420389  )
         9           Zn1 tau(   9) = (   3.2522155   2.0719241  14.5911679  )
        10           Zn1 tau(  10) = (   7.1028676   4.5251198  14.5911626  )
        11           Pt1 tau(  11) = (   5.9691221   2.0783890  14.3978774  )
        12           Pt1 tau(  12) = (   4.4062347   4.5315741  14.3978788  )

     number of k points=    20  Fermi-Dirac smearing, width (Ry)=  0.0110
                       cart. coord. in units 2pi/alat
        k(    1) = (   0.0000000   0.0000000   0.0000000), wk =   0.0555556
        k(    2) = (   0.0000000   0.0339694   0.0000000), wk =   0.1111111
        k(    3) = (   0.0000000   0.0679388   0.0000000), wk =   0.1111111
        k(    4) = (   0.0000000  -0.1019082   0.0000000), wk =   0.0555556
        k(    5) = (   0.0307870  -0.0143555   0.0000000), wk =   0.1111111
        k(    6) = (   0.0307870   0.0196139   0.0000000), wk =   0.1111111
        k(    7) = (   0.0307870   0.0535833   0.0000000), wk =   0.1111111
        k(    8) = (   0.0307870  -0.1162637   0.0000000), wk =   0.1111111
        k(    9) = (   0.0307870  -0.0822943   0.0000000), wk =   0.1111111
        k(   10) = (   0.0307870  -0.0483249   0.0000000), wk =   0.1111111
        k(   11) = (   0.0615740  -0.0287111   0.0000000), wk =   0.1111111
        k(   12) = (   0.0615740   0.0052583   0.0000000), wk =   0.1111111
        k(   13) = (   0.0615740   0.0392278   0.0000000), wk =   0.1111111
        k(   14) = (   0.0615740  -0.1306193   0.0000000), wk =   0.1111111
        k(   15) = (   0.0615740  -0.0966499   0.0000000), wk =   0.1111111
        k(   16) = (   0.0615740  -0.0626805   0.0000000), wk =   0.1111111
        k(   17) = (  -0.0923610   0.0430666   0.0000000), wk =   0.0555556
        k(   18) = (  -0.0923610   0.0770360   0.0000000), wk =   0.1111111
        k(   19) = (  -0.0923610   0.1110054   0.0000000), wk =   0.1111111
        k(   20) = (  -0.0923610  -0.0588416   0.0000000), wk =   0.0555556

     Largest allocated arrays     est. size (Mb)     dimensions
     Largest temporary arrays     est. size (Mb)     dimensions

     Check: negative/imaginary core charge=   -0.000001    0.000000

     Initial potential from superposition of free atoms
     Check: negative starting charge=   -1.104523

     starting charge  212.99909, renormalised to  216.00000

[...]

     *
     * You are using vdW-DF for exchange-correlation in this calculation.
     * Please cite the following three references that made this development
     * possible:
     *
     *   M. Dion, H. Rydberg, E. Schroder, D. C. Langreth, and
     *   B. I. Lundqvist, Phys. Rev. Lett. 92, 246401 (2004).
     *
     *   T. Thonhauser, V. R. Cooper, S. Li, A. Puzder, P. Hyldgaard, and
     *   D. C. Langreth, Phys. Rev. B 76, 125112 (2007).
     *
     *   G. Roman-Perez and J. M. Soler, Phys. Rev. Lett. 103, 096102 (2009).
     *
     *
     * If you are using vdW-DF2, please also cite:
     *
     *   K. Lee, E. D. Murray, L. Kong, B. I. Lundqvist, and
     *   D. C. Langreth, Phys. Rev. B 82, 081101(R) (2010).
     *
     *
     * If you are calculating the stress with vdW-DF, please also cite:
     *
     *   R. Sabatini, E. Kucukbenli, B. Kolb, T. Thonhauser, and
     *   S. de Gironcoli, J. Phys.: Condens. Matter 24, 424209 (2012).
     *

     Carrying out vdW-DF run using the following parameters:

     Nqs =      20    Nr_points =    1024   r_max =   100.000
     q_mesh =
               0.00001000     0.04494208     0.09755937     0.15916263
               0.23128650     0.31572767     0.41458969     0.53033537
               0.66584808     0.82450364     1.01025438     1.22772762
               1.48234092     1.78043706     2.12944203     2.53805004
               3.01644009     3.57652955     4.23227104     5.00000000

     Gradients computed in reciprocal space

[...]

     Starting wfc are  150 randomized atomic wfcs

     Self-consistent Calculation

[...]

     total energy              =   -4051.12602745 Ry
     Harris-Foulkes estimate   =   -4051.12602544 Ry
     estimated scf accuracy    <       0.00000198 Ry

     iteration # 16     ecut=    36.75 Ry     beta=0.10
     Davidson diagonalization with overlap
     ethr =  9.17E-10,  avg # of iterations =  2.9

[...]

     negative rho (up, down):  1.065E+00 0.000E+00

     Adding external electric field

     Computed dipole along edir(3) :
        Dipole                0.0299 Ry au,          0.0761 Debye
        Dipole field          0.0001 Ry au

        Potential amp.       -0.0077 Ry
        Total length         45.1115 bohr

     End of self-consistent calculation

[...]

          k = 0.0616-0.0627 0.0000 ( 16492 PWs)   bands (ev):

[...]

          k =-0.0924-0.0588 0.0000 ( 16550 PWs)   bands (ev):

  -124.8974-124.8970-124.8058-124.8054-124.8054-124.8051 -79.0963 -79.0962
   -79.0956 -79.0899 -79.0669 -79.0665 -79.0139 -79.0135 -79.0100 -79.0097
   -78.9984 -78.9976 -78.9920 -78.9913 -78.9666 -78.9660 -78.9644 -78.9637
   -51.3907 -51.3125 -51.2990 -51.2936 -51.2794 -51.2470 -51.1809 -51.1224
   -51.1095 -51.0966 -51.0483 -51.0388 -51.0353 -51.0142 -51.0019 -50.9548
   -50.9154 -50.9030  -6.4480  -6.2811  -6.2333  -6.1970  -6.1204  -6.0879
    -6.0879  -6.0766  -6.0607  -6.0481  -5.9964  -5.9204  -5.8945  -5.8754
    -5.8712  -5.8437  -5.8406  -5.8298  -5.8086  -5.7550  -5.7385  -5.7343
    -5.6971  -5.6507  -5.5985  -5.5940  -5.5905  -5.5772  -5.5673  -5.4889
    -5.4342  -5.2412  -4.4799  -3.9726  -3.6131  -3.4658  -3.3390  -3.2779
    -3.1137  -2.9254  -2.8049  -2.7083  -2.5320  -2.4612  -2.4118  -2.3383
    -2.1442  -1.7224  -1.6954  -1.6311  -1.5377  -1.0134  -0.9612  -0.9017
    -0.8989  -0.7410  -0.3622  -0.3117  -0.3049  -0.0916   0.0156   0.0534
     0.0729   0.2415   0.8715   0.9732   1.0688   1.9923   2.4578   2.8912
     3.3363   4.1006   4.2507   4.3571   5.7353   6.4482   6.7790   6.7873
     6.9848   7.2792   7.3911   7.4206   7.5146   7.5692   7.9780   8.1531
     8.5154   8.6211   8.6669   8.7865   8.9703   9.0019   9.3401   9.5256
     9.8444   9.8807

     the Fermi energy is     1.1075 ev

!    total energy              =   -4051.12603870 Ry
     Harris-Foulkes estimate   =   -4051.12602768 Ry
     estimated scf accuracy    <       0.00000014 Ry

     The total energy is the sum of the following terms:

     one-electron contribution =  -28095.36380606 Ry
     hartree contribution      =   14059.68003273 Ry
     xc contribution           =    -612.67805700 Ry
     ewald contribution        =   10597.26229875 Ry
     electric field correction =       0.00000257 Ry
     smearing contrib. (-TS)   =      -0.02650967 Ry

     convergence has been achieved in  16 iterations

 BEEF-vdW xc energy contributions
           1 :   -545.162305107486
           2 :    501.836577377309
           3 :   -426.611435577829
           4 :    337.382825740771
           5 :   -251.544261220063
           6 :    180.408550743101
           7 :   -127.282750991082
           8 :    89.2806290202290
           9 :   -61.1385248596392
          10 :    38.6392274109436
          11 :   -20.0514071124095
          12 :    5.49954615325623
          13 :    4.57967315769645
          14 :   -10.5375392318728
          15 :    13.5275961293930
          16 :   -14.7774185000917
          17 :    14.9318123459431
          18 :   -14.0390855210021
          19 :    12.0927364001018
          20 :   -9.56903499963005
          21 :    7.44009634169049
          22 :   -6.62828271086880
          23 :    7.34828573690788
          24 :   -8.89350926359998
          25 :    10.0704714888277
          26 :   -9.98387329674983
          27 :    8.60420129618637
          28 :   -6.72433496029169
          29 :    5.36424628560235
          30 :   -5.07432675515088
          31 :   -43.5234525731383
          32 :   -31.1541858147980

     Forces acting on atoms (Ry/au):

     negative rho (up, down):  1.065E+00 0.000E+00
     atom    1 type  1   force =     0.00195090    0.00124276   -0.01127364
     atom    2 type  1   force =     0.00195090    0.00124306   -0.01127374
     atom    3 type  2   force =    -0.00550271   -0.00350569    0.01714890
     atom    4 type  2   force =    -0.00550272   -0.00350568    0.01714874
     atom    5 type  1   force =     0.00276208    0.00175992   -0.01265894
     atom    6 type  1   force =     0.00276254    0.00175978   -0.01265874
     atom    7 type  2   force =     0.00040954    0.00026069    0.00751165
     atom    8 type  2   force =     0.00040948    0.00026093    0.00751125
     atom    9 type  1   force =    -0.00003490   -0.00002155   -0.00086497
     atom   10 type  1   force =    -0.00003452   -0.00002250   -0.00086439
     atom   11 type  2   force =     0.00041487    0.00026397    0.00013700
     atom   12 type  2   force =     0.00041453    0.00026431    0.00013689

     Total force =     0.037356     Total SCF correction =     0.002388

     entering subroutine stress ...

     negative rho (up, down):  1.065E+00 0.000E+00
          total   stress  (Ry/bohr**3)                   (kbar)     P=  -19.69
  -0.00018369  -0.00001645   0.00000634        -27.02     -2.42      0.93
  -0.00001645  -0.00016835   0.00000404         -2.42    -24.77      0.59
   0.00000634   0.00000404  -0.00004958          0.93      0.59     -7.29

 !ASE

     Writing output data file calc.save

     General routines

     Parallel routines

   This run was terminated on:  10: 8:40  25Dec2018

   JOB DONE.
Job  /afs/slac/g/suncat/bin/suncat-tsmpirun -x LD_LIBRARY_PATH -wdir /scratch/qe109234_nQGAd pw.x -in pw.inp

TID   HOST_NAME   COMMAND_LINE            STATUS            TERMINATION_TIME
00000 suncat0183 pw.x -in pw.inp   Done                     12/25/2018 10:08:40
00001 suncat0183 pw.x -in pw.inp   Done                     12/25/2018 10:08:40
00002 suncat0183 pw.x -in pw.inp   Done                     12/25/2018 10:08:40
00003 suncat0183 pw.x -in pw.inp   Done                     12/25/2018 10:08:40
00004 suncat0183 pw.x -in pw.inp   Done                     12/25/2018 10:08:40
00005 suncat0183 pw.x -in pw.inp   Done                     12/25/2018 10:08:40
00006 suncat0183 pw.x -in pw.inp   Done                     12/25/2018 10:08:40
00007 suncat0183 pw.x -in pw.inp   Done                     12/25/2018 10:08:40
00008 suncat0182 pw.x -in pw.inp   Done                     12/25/2018 10:08:40
00009 suncat0182 pw.x -in pw.inp   Done                     12/25/2018 10:08:40
00010 suncat0182 pw.x -in pw.inp   Done                     12/25/2018 10:08:40
00011 suncat0182 pw.x -in pw.inp   Done                     12/25/2018 10:08:40
00012 suncat0182 pw.x -in pw.inp   Done                     12/25/2018 10:08:40
00013 suncat0182 pw.x -in pw.inp   Done                     12/25/2018 10:08:40
00014 suncat0182 pw.x -in pw.inp   Done                     12/25/2018 10:08:40
00015 suncat0182 pw.x -in pw.inp   Done                     12/25/2018 10:08:40
00016 suncat0181 pw.x -in pw.inp   Done                     12/25/2018 10:08:40
00017 suncat0181 pw.x -in pw.inp   Done                     12/25/2018 10:08:40
00018 suncat0181 pw.x -in pw.inp   Done                     12/25/2018 10:08:40
00019 suncat0181 pw.x -in pw.inp   Done                     12/25/2018 10:08:40
00020 suncat0181 pw.x -in pw.inp   Done                     12/25/2018 10:08:40
00021 suncat0181 pw.x -in pw.inp   Done                     12/25/2018 10:08:40
00022 suncat0181 pw.x -in pw.inp   Done                     12/25/2018 10:08:40
00023 suncat0181 pw.x -in pw.inp   Done                     12/25/2018 10:08:40
00024 suncat0252 pw.x -in pw.inp   Done                     12/25/2018 10:08:40
00025 suncat0252 pw.x -in pw.inp   Done                     12/25/2018 10:08:40
00026 suncat0252 pw.x -in pw.inp   Done                     12/25/2018 10:08:40
00027 suncat0252 pw.x -in pw.inp   Done                     12/25/2018 10:08:40
00028 suncat0252 pw.x -in pw.inp   Done                     12/25/2018 10:08:40
00029 suncat0252 pw.x -in pw.inp   Done                     12/25/2018 10:08:40
00030 suncat0252 pw.x -in pw.inp   Done                     12/25/2018 10:08:40
00031 suncat0252 pw.x -in pw.inp   Done                     12/25/2018 10:08:40
00032 suncat0226 pw.x -in pw.inp   Done                     12/25/2018 10:08:40
00033 suncat0226 pw.x -in pw.inp   Done                     12/25/2018 10:08:40
00034 suncat0226 pw.x -in pw.inp   Done                     12/25/2018 10:08:40
00035 suncat0226 pw.x -in pw.inp   Done                     12/25/2018 10:08:40
00036 suncat0226 pw.x -in pw.inp   Done                     12/25/2018 10:08:40
00037 suncat0226 pw.x -in pw.inp   Done                     12/25/2018 10:08:40
00038 suncat0226 pw.x -in pw.inp   Done                     12/25/2018 10:08:40
00039 suncat0226 pw.x -in pw.inp   Done                     12/25/2018 10:08:40
00040 suncat0225 pw.x -in pw.inp   Done                     12/25/2018 10:08:40
00041 suncat0225 pw.x -in pw.inp   Done                     12/25/2018 10:08:40
00042 suncat0225 pw.x -in pw.inp   Done                     12/25/2018 10:08:40
00043 suncat0225 pw.x -in pw.inp   Done                     12/25/2018 10:08:40
00044 suncat0225 pw.x -in pw.inp   Done                     12/25/2018 10:08:40
00045 suncat0225 pw.x -in pw.inp   Done                     12/25/2018 10:08:40
00046 suncat0225 pw.x -in pw.inp   Done                     12/25/2018 10:08:40
00047 suncat0225 pw.x -in pw.inp   Done                     12/25/2018 10:08:40
00048 suncat0224 pw.x -in pw.inp   Done                     12/25/2018 10:08:40
00049 suncat0224 pw.x -in pw.inp   Done                     12/25/2018 10:08:40
00050 suncat0224 pw.x -in pw.inp   Done                     12/25/2018 10:08:40
00051 suncat0224 pw.x -in pw.inp   Done                     12/25/2018 10:08:40
00052 suncat0224 pw.x -in pw.inp   Done                     12/25/2018 10:08:40
00053 suncat0224 pw.x -in pw.inp   Done                     12/25/2018 10:08:40
00054 suncat0224 pw.x -in pw.inp   Done                     12/25/2018 10:08:40
00055 suncat0224 pw.x -in pw.inp   Done                     12/25/2018 10:08:40
00056 suncat0223 pw.x -in pw.inp   Done                     12/25/2018 10:08:40
00057 suncat0223 pw.x -in pw.inp   Done                     12/25/2018 10:08:40
00058 suncat0223 pw.x -in pw.inp   Done                     12/25/2018 10:08:40
00059 suncat0223 pw.x -in pw.inp   Done                     12/25/2018 10:08:40
00060 suncat0223 pw.x -in pw.inp   Done                     12/25/2018 10:08:40
00061 suncat0223 pw.x -in pw.inp   Done                     12/25/2018 10:08:40
00062 suncat0223 pw.x -in pw.inp   Done                     12/25/2018 10:08:40
00063 suncat0223 pw.x -in pw.inp   Done                     12/25/2018 10:08:40