     Program PWSCF v.5.1rc2 (svn rev. 11289) starts on 19Dec2018 at  3:15:27

     Current dimensions of program PWSCF are:
     Max number of different atomic species (ntypx) = 10
     Max number of k-points (npk) =  40000
     Max angular momentum in pseudopotentials (lmaxx) =  3
     Presently stress not available with electric field

     IMPORTANT: XC functional enforced from input :
     Exchange-correlation      = BEEF-VDW ( 1  4 27 13 2)
     Any further DFT definition will be discarded
     Please, verify this is what you really want

     Subspace diagonalization in iterative solution of the eigenvalue problem:
     a serial algorithm will be used

     Found symmetry operation: I + ( -0.5000 -0.5000  0.0000)
     This is a supercell, fractional translations are disabled

     bravais-lattice index     =            0
     lattice parameter (alat)  =       1.8897  a.u.
     unit-cell volume          =    4402.8290 (a.u.)^3
     number of atoms/cell      =           12
     number of atomic types    =            2
     number of electrons       =       186.00
     number of Kohn-Sham states=          123
     kinetic-energy cutoff     =      36.7493  Ry
     charge density cutoff     =     367.4932  Ry
     convergence threshold     =      1.0E-06
     mixing beta               =       0.1000
     number of iterations used =           10  plain     mixing
     Exchange-correlation      = BEEF-VDW ( 1  4 27 13 2)
     nstep                     =           50

     celldm(1)=   1.889726  celldm(2)=   0.000000  celldm(3)=   0.000000
     celldm(4)=   0.000000  celldm(5)=   0.000000  celldm(6)=   0.000000

     crystal axes: (cart. coord. in units of alat)
               a(1) = (   5.535702   0.000000   0.000000 )
               a(2) = (   2.747733   4.805617   0.000000 )
               a(3) = (   0.000000   0.000000  24.525247 )

     reciprocal axes: (cart. coord. in units 2 pi/alat)
               b(1) = (  0.180646 -0.103289  0.000000 )
               b(2) = (  0.000000  0.208090  0.000000 )
               b(3) = (  0.000000  0.000000  0.040774 )

     PseudoPot. # 1 for Rh read from file:
     /afs/slac.stanford.edu/u/if/mamunm/psp/gbrv1.5pbe/Rh.UPF
     MD5 check sum: 761627e959a2e3a1f56b0b5fe687810e
     Pseudo is Ultrasoft + core correction, Zval = 15.0
     Generated by new atomic code, or converted to UPF format
     Using radial grid of  969 points,  7 beta functions with:
                l(1) =   0
                l(2) =   0
                l(3) =   1
                l(4) =   1
                l(5) =   2
                l(6) =   2
                l(7) =   2
     Q(r) pseudized with  8 coefficients,  rinner =    1.200   1.200   1.200
                                                       1.200   1.200

     PseudoPot. # 2 for Pd read from file:
     /afs/slac.stanford.edu/u/if/mamunm/psp/gbrv1.5pbe/Pd.UPF
     MD5 check sum: 2d733d2bc2cbfd217af676df1668a4bc
     Pseudo is Ultrasoft + core correction, Zval = 16.0
     Generated by new atomic code, or converted to UPF format
     Using radial grid of  887 points,  6 beta functions with:
                l(1) =   0
                l(2) =   0
                l(3) =   1
                l(4) =   1
                l(5) =   2
                l(6) =   2
     Q(r) pseudized with  8 coefficients,  rinner =    1.130   1.130   1.130
                                                       1.130   1.130

     vdW kernel table read from file vdW_kernel_table
     MD5 check sum: 095c7af220d748ca6e76c0b4c6cfb241

     atomic species   valence    mass     pseudopotential
        Rh1           15.00   102.90550     Rh( 1.00)
        Pd1           16.00   106.42000     Pd( 1.00)

     No symmetry found

   Cartesian axes

     site n.     atom                  positions (alat units)
         1           Rh1 tau(   1) = (   0.0000000   0.0000000  10.0000000  )
         2           Rh1 tau(   2) = (   4.1417174   2.4028085  10.0000000  )
         3           Pd1 tau(   3) = (   2.7678508   0.0000000  10.0000000  )
         4           Pd1 tau(   4) = (   1.3738666   2.4028085  10.0000000  )
         5           Rh1 tau(   5) = (   5.5357016   3.2115254  12.2626236  )
         6           Rh1 tau(   6) = (   1.3939842   0.8087169  12.2626236  )
         7           Pd1 tau(   7) = (   2.7678508   3.2115254  12.2626236  )
         8           Pd1 tau(   8) = (   4.1618350   0.8087169  12.2626236  )
         9           Rh1 tau(   9) = (   2.7879684   1.6174339  14.5252472  )
        10           Rh1 tau(  10) = (   6.9296858   4.0202423  14.5252472  )
        11           Pd1 tau(  11) = (   5.5558192   1.6174339  14.5252472  )
        12           Pd1 tau(  12) = (   4.1618350   4.0202423  14.5252472  )

     number of k points=    20  Fermi-Dirac smearing, width (Ry)=  0.0110
                       cart. coord. in units 2pi/alat
        k(    1) = (   0.0000000   0.0000000   0.0000000), wk =   0.0555556
        k(    2) = (   0.0000000   0.0346816   0.0000000), wk =   0.1111111
        k(    3) = (   0.0000000   0.0693633   0.0000000), wk =   0.1111111
        k(    4) = (   0.0000000  -0.1040449   0.0000000), wk =   0.0555556
        k(    5) = (   0.0301076  -0.0172148   0.0000000), wk =   0.1111111
        k(    6) = (   0.0301076   0.0174669   0.0000000), wk =   0.1111111
        k(    7) = (   0.0301076   0.0521485   0.0000000), wk =   0.1111111
        k(    8) = (   0.0301076  -0.1212597   0.0000000), wk =   0.1111111
        k(    9) = (   0.0301076  -0.0865781   0.0000000), wk =   0.1111111
        k(   10) = (   0.0301076  -0.0518964   0.0000000), wk =   0.1111111
        k(   11) = (   0.0602152  -0.0344296   0.0000000), wk =   0.1111111
        k(   12) = (   0.0602152   0.0002521   0.0000000), wk =   0.1111111
        k(   13) = (   0.0602152   0.0349337   0.0000000), wk =   0.1111111
        k(   14) = (   0.0602152  -0.1384745   0.0000000), wk =   0.1111111
        k(   15) = (   0.0602152  -0.1037928   0.0000000), wk =   0.1111111
        k(   16) = (   0.0602152  -0.0691112   0.0000000), wk =   0.1111111
        k(   17) = (  -0.0903228   0.0516443   0.0000000), wk =   0.0555556
        k(   18) = (  -0.0903228   0.0863260   0.0000000), wk =   0.1111111
        k(   19) = (  -0.0903228   0.1210076   0.0000000), wk =   0.1111111
        k(   20) = (  -0.0903228  -0.0524006   0.0000000), wk =   0.0555556

     Largest allocated arrays     est. size (Mb)     dimensions
     Largest temporary arrays     est. size (Mb)     dimensions

     Initial potential from superposition of free atoms
     Check: negative starting charge=   -0.785108

     starting charge  179.99937, renormalised to  186.00000

     negative rho (up, down):  8.113E-01 0.000E+00

     *
     * You are using vdW-DF for exchange-correlation in this calculation.
     * Please cite the following three references that made this development
     * possible:
     *
     *   M. Dion, H. Rydberg, E. Schroder, D. C. Langreth, and
     *   B. I. Lundqvist, Phys. Rev. Lett. 92, 246401 (2004).
     *
     *   T. Thonhauser, V. R. Cooper, S. Li, A. Puzder, P. Hyldgaard, and
     *   D. C. Langreth, Phys. Rev. B 76, 125112 (2007).
     *
     *   G. Roman-Perez and J. M. Soler, Phys. Rev. Lett. 103, 096102 (2009).
     *
     *
     * If you are using vdW-DF2, please also cite:
     *
     *   K. Lee, E. D. Murray, L. Kong, B. I. Lundqvist, and
     *   D. C. Langreth, Phys. Rev. B 82, 081101(R) (2010).
     *
     *
     * If you are calculating the stress with vdW-DF, please also cite:
     *
     *   R. Sabatini, E. Kucukbenli, B. Kolb, T. Thonhauser, and
     *   S. de Gironcoli, J. Phys.: Condens. Matter 24, 424209 (2012).
     *

     Carrying out vdW-DF run using the following parameters:

     Nqs =      20    Nr_points =    1024   r_max =   100.000
     q_mesh =
               0.00001000     0.04494208     0.09755937     0.15916263
               0.23128650     0.31572767     0.41458969     0.53033537
               0.66584808     0.82450364     1.01025438     1.22772762
               1.48234092     1.78043706     2.12944203     2.53805004
               3.01644009     3.57652955     4.23227104     5.00000000

     Gradients computed in reciprocal space

     Adding external electric field

     Computed dipole along edir(3) :
        Dipole               -0.0000 Ry au,         -0.0000 Debye
        Dipole field         -0.0000 Ry au

        Potential amp.        0.0000 Ry
        Total length         45.1874 bohr

     Starting wfc are  144 randomized atomic wfcs

     Self-consistent Calculation

     iteration #  1     ecut=    36.75 Ry     beta=0.10
     Davidson diagonalization with overlap
     ethr =  1.00E-02,  avg # of iterations =  7.4

[...]

     total energy              =   -2230.27299592 Ry
     Harris-Foulkes estimate   =   -2236.08181152 Ry
     estimated scf accuracy    <      33.34168708 Ry

[...]

     End of self-consistent calculation

          k = 0.0000 0.0000 0.0000 ( 16539 PWs)   bands (ev):

   -49.1146 -49.0890 -49.0678 -49.0161 -48.9956 -48.9223 -48.8058 -48.8046
   -48.7782 -48.7733 -48.7568 -48.7517 -48.6131 -48.6130 -48.5364 -48.5315
   -48.5184 -48.5123 -45.2064 -45.1692 -45.1452 -45.0856 -45.0640 -44.9426
   -44.9253 -44.9234 -44.7483 -44.7399 -44.7262 -44.7186 -44.6591 -44.6589
   -44.6113 -44.5969 -44.5849 -44.5731  -4.9649  -3.6965  -3.6723  -3.6548
    -3.6306  -3.6270  -3.4824  -3.4284  -3.3697  -3.2410  -3.2289  -3.2195
    -3.0378  -2.9820  -2.9276  -2.0567  -1.9829  -1.8924  -1.6812  -1.6725
    -1.6568  -1.4736  -1.4440  -1.2418  -1.2147  -1.1566  -1.0699  -1.0458
    -1.0338  -1.0188  -0.8663  -0.7950  -0.5653  -0.1836  -0.0198  -0.0170
     0.0516   0.0572   0.2653   0.3030   0.3559   0.4779   0.5884   0.7826
     0.8488   0.9608   0.9612   1.1782   1.2115   1.2320   1.2784   1.3833
     1.3890   1.4297   1.4599   1.4844   1.5641   1.5697   1.7527   1.8146
     1.8577   2.0080   2.0878   2.6145   3.4622   3.4650   3.4701   4.8689
     4.9675   4.9792   5.1108   5.1857   5.2497   5.7994   6.0693   6.4613
     7.4031   8.2610   8.3911   8.4493   8.5240   8.5406   8.5760   8.5866
     9.7010   9.7366   9.7759

[...]

          k =-0.0903 0.0516 0.0000 ( 16568 PWs)   bands (ev):

[...]

     the Fermi energy is     1.2480 ev

!    total energy              =   -2231.78420435 Ry
     Harris-Foulkes estimate   =   -2231.78420536 Ry
     estimated scf accuracy    <       0.00000064 Ry

     The total energy is the sum of the following terms:

     one-electron contribution =  -19500.74183572 Ry
     hartree contribution      =    9794.90381254 Ry
     xc contribution           =    -380.96661924 Ry
     ewald contribution        =    7855.15754604 Ry
     electric field correction =       0.00000007 Ry
     smearing contrib. (-TS)   =      -0.13710803 Ry

     convergence has been achieved in  19 iterations

 BEEF-vdW xc energy contributions
           1 :   -331.792481765658
           2 :    303.923875782315
           3 :   -256.059828488157
           4 :    200.637199525914
           5 :   -149.952911806348
           6 :    112.178566100805
           7 :   -89.5202643153975
           8 :    78.8901812161964
[...]
     Davidson diagonalization with overlap
     c_bands:  1 eigenvalues not converged
     ethr =  2.10E-06,  avg # of iterations =  8.4

[...]

   This run was terminated on:   3:33: 7  19Dec2018

[...]

     Found symmetry operation: I + ( -0.5000 -0.5000  0.0000)
     This is a supercell, fractional translations are disabled

[...]

     Total force =     0.033447     Total SCF correction =     0.001579

[...]

     Program PWSCF v.5.1rc2 (svn rev. 11289) starts on 19Dec2018 at  3:50:56

     Current dimensions of program PWSCF are:
     Max number of different atomic species (ntypx) = 10
     Max number of k-points (npk) =  40000
     Max angular momentum in pseudopotentials (lmaxx) =  3
     Presently stress not available with electric field

     IMPORTANT: XC functional enforced from input :
     Exchange-correlation      = BEEF-VDW ( 1  4 27 13 2)
     Any further DFT definition will be discarded
     Please, verify this is what you really want

     Subspace diagonalization in iterative solution of the eigenvalue problem:
     a serial algorithm will be used

     bravais-lattice index     =            0
     lattice parameter (alat)  =       1.8897  a.u.
     unit-cell volume          =    4402.8290 (a.u.)^3
     number of atoms/cell      =           12
     number of atomic types    =            2
     number of electrons       =       186.00
     number of Kohn-Sham states=          123
     kinetic-energy cutoff     =      36.7493  Ry
     charge density cutoff     =     367.4932  Ry
     convergence threshold     =      1.0E-06
     mixing beta               =       0.1000
     number of iterations used =           10  plain     mixing
     Exchange-correlation      = BEEF-VDW ( 1  4 27 13 2)
     nstep                     =           50

     celldm(1)=   1.889726  celldm(2)=   0.000000  celldm(3)=   0.000000
     celldm(4)=   0.000000  celldm(5)=   0.000000  celldm(6)=   0.000000

     crystal axes: (cart. coord. in units of alat)
               a(1) = (   5.535702   0.000000   0.000000 )
               a(2) = (   2.747733   4.805617   0.000000 )
               a(3) = (   0.000000   0.000000  24.525247 )

     reciprocal axes: (cart. coord. in units 2 pi/alat)
               b(1) = (  0.180646 -0.103289  0.000000 )
               b(2) = (  0.000000  0.208090  0.000000 )
               b(3) = (  0.000000  0.000000  0.040774 )

     PseudoPot. # 1 for Rh read from file:
     /afs/slac.stanford.edu/u/if/mamunm/psp/gbrv1.5pbe/Rh.UPF
     MD5 check sum: 761627e959a2e3a1f56b0b5fe687810e
     Pseudo is Ultrasoft + core correction, Zval = 15.0
     Generated by new atomic code, or converted to UPF format
     Using radial grid of  969 points,  7 beta functions with:
                l(1) =   0
                l(2) =   0
                l(3) =   1
                l(4) =   1
                l(5) =   2
                l(6) =   2
                l(7) =   2
     Q(r) pseudized with  8 coefficients,  rinner =    1.200   1.200   1.200
                                                       1.200   1.200

     PseudoPot. # 2 for Pd read from file:
     /afs/slac.stanford.edu/u/if/mamunm/psp/gbrv1.5pbe/Pd.UPF
     MD5 check sum: 2d733d2bc2cbfd217af676df1668a4bc
     Pseudo is Ultrasoft + core correction, Zval = 16.0
     Generated by new atomic code, or converted to UPF format
     Using radial grid of  887 points,  6 beta functions with:
                l(1) =   0
                l(2) =   0
                l(3) =   1
                l(4) =   1
                l(5) =   2
                l(6) =   2
     Q(r) pseudized with  8 coefficients,  rinner =    1.130   1.130   1.130
                                                       1.130   1.130

     vdW kernel table read from file vdW_kernel_table
     MD5 check sum: 095c7af220d748ca6e76c0b4c6cfb241

     atomic species   valence    mass     pseudopotential
        Rh1           15.00   102.90550     Rh( 1.00)
        Pd1           16.00   106.42000     Pd( 1.00)

     No symmetry found

   Cartesian axes

     site n.     atom                  positions (alat units)
         1           Rh1 tau(   1) = (   0.0000000   0.0000000  10.0000000  )
         2           Rh1 tau(   2) = (   4.1417174   2.4028085  10.0000000  )
         3           Pd1 tau(   3) = (   2.7678508   0.0000000  10.0000000  )
         4           Pd1 tau(   4) = (   1.3738666   2.4028085  10.0000000  )
         5           Rh1 tau(   5) = (   5.5357016   3.2115254  12.2626236  )
         6           Rh1 tau(   6) = (   1.3939842   0.8087169  12.2626236  )
         7           Pd1 tau(   7) = (   2.7678508   3.2115254  12.2626236  )
         8           Pd1 tau(   8) = (   4.1618350   0.8087169  12.2626236  )
         9           Rh1 tau(   9) = (   2.7116040   1.5731345  14.4409824  )
        10           Rh1 tau(  10) = (   6.8532934   3.9759213  14.4408137  )
        11           Pd1 tau(  11) = (   5.5040885   1.5873885  14.5738455  )
        12           Pd1 tau(  12) = (   4.1100822   3.9902469  14.5738413  )

     number of k points=    20  Fermi-Dirac smearing, width (Ry)=  0.0110
                       cart. coord. in units 2pi/alat
        k(    1) = (   0.0000000   0.0000000   0.0000000), wk =   0.0555556
        k(    2) = (   0.0000000   0.0346816   0.0000000), wk =   0.1111111
        k(    3) = (   0.0000000   0.0693633   0.0000000), wk =   0.1111111
        k(    4) = (   0.0000000  -0.1040449   0.0000000), wk =   0.0555556
        k(    5) = (   0.0301076  -0.0172148   0.0000000), wk =   0.1111111
        k(    6) = (   0.0301076   0.0174669   0.0000000), wk =   0.1111111
        k(    7) = (   0.0301076   0.0521485   0.0000000), wk =   0.1111111
        k(    8) = (   0.0301076  -0.1212597   0.0000000), wk =   0.1111111
        k(    9) = (   0.0301076  -0.0865781   0.0000000), wk =   0.1111111
        k(   10) = (   0.0301076  -0.0518964   0.0000000), wk =   0.1111111
        k(   11) = (   0.0602152  -0.0344296   0.0000000), wk =   0.1111111
        k(   12) = (   0.0602152   0.0002521   0.0000000), wk =   0.1111111
        k(   13) = (   0.0602152   0.0349337   0.0000000), wk =   0.1111111
        k(   14) = (   0.0602152  -0.1384745   0.0000000), wk =   0.1111111
        k(   15) = (   0.0602152  -0.1037928   0.0000000), wk =   0.1111111
        k(   16) = (   0.0602152  -0.0691112   0.0000000), wk =   0.1111111
        k(   17) = (  -0.0903228   0.0516443   0.0000000), wk =   0.0555556
        k(   18) = (  -0.0903228   0.0863260   0.0000000), wk =   0.1111111
        k(   19) = (  -0.0903228   0.1210076   0.0000000), wk =   0.1111111
        k(   20) = (  -0.0903228  -0.0524006   0.0000000), wk =   0.0555556

     Largest allocated arrays     est. size (Mb)     dimensions
     Largest temporary arrays     est. size (Mb)     dimensions

     Initial potential from superposition of free atoms
     Check: negative starting charge=   -0.780237

     starting charge  179.99937, renormalised to  186.00000

[...]

     *
     * You are using vdW-DF for exchange-correlation in this calculation.
     * Please cite the following three references that made this development
     * possible:
     *
     *   M. Dion, H. Rydberg, E. Schroder, D. C. Langreth, and
     *   B. I. Lundqvist, Phys. Rev. Lett. 92, 246401 (2004).
     *
     *   T. Thonhauser, V. R. Cooper, S. Li, A. Puzder, P. Hyldgaard, and
     *   D. C. Langreth, Phys. Rev. B 76, 125112 (2007).
     *
     *   G. Roman-Perez and J. M. Soler, Phys. Rev. Lett. 103, 096102 (2009).
     *
     *
     * If you are using vdW-DF2, please also cite:
     *
     *   K. Lee, E. D. Murray, L. Kong, B. I. Lundqvist, and
     *   D. C. Langreth, Phys. Rev. B 82, 081101(R) (2010).
     *
     *
     * If you are calculating the stress with vdW-DF, please also cite:
     *
     *   R. Sabatini, E. Kucukbenli, B. Kolb, T. Thonhauser, and
     *   S. de Gironcoli, J. Phys.: Condens. Matter 24, 424209 (2012).
     *

     Carrying out vdW-DF run using the following parameters:

     Nqs =      20    Nr_points =    1024   r_max =   100.000
     q_mesh =
               0.00001000     0.04494208     0.09755937     0.15916263
               0.23128650     0.31572767     0.41458969     0.53033537
               0.66584808     0.82450364     1.01025438     1.22772762
               1.48234092     1.78043706     2.12944203     2.53805004
               3.01644009     3.57652955     4.23227104     5.00000000

     Gradients computed in reciprocal space

[...]

     Starting wfc are  144 randomized atomic wfcs

     Self-consistent Calculation

[...]

     total energy              =   -2231.78881524 Ry
     Harris-Foulkes estimate   =   -2231.78881509 Ry
     estimated scf accuracy    <       0.00000100 Ry

     iteration # 19     ecut=    36.75 Ry     beta=0.10
     Davidson diagonalization with overlap
     ethr =  5.39E-10,  avg # of iterations =  2.6

[...]

     negative rho (up, down):  8.140E-01 0.000E+00

     Adding external electric field

     Computed dipole along edir(3) :
        Dipole               -0.0028 Ry au,         -0.0072 Debye
        Dipole field         -0.0000 Ry au

        Potential amp.        0.0007 Ry
        Total length         45.1874 bohr

     End of self-consistent calculation

[...]

          k = 0.0602-0.0691 0.0000 ( 16584 PWs)   bands (ev):

[...]

          k =-0.0903-0.0524 0.0000 ( 16580 PWs)   bands (ev):

   -49.1289 -49.1118 -49.0922 -49.0241 -49.0055 -48.9384 -48.7969 -48.7653
   -48.7472 -48.7298 -48.7126 -48.6945 -48.6068 -48.5399 -48.5292 -48.5106
   -48.4506 -48.4324 -45.2371 -45.2101 -45.2021 -45.0839 -45.0587 -44.9822
   -44.9347 -44.9177 -44.8192 -44.7933 -44.7442 -44.7178 -44.7140 -44.6962
   -44.6720 -44.6490 -44.5923 -44.5671  -3.6042  -3.5095  -3.0657  -3.0296
    -2.9244  -2.8326  -2.7611  -2.7259  -2.7138  -2.6937  -2.5193  -2.4227
    -2.3441  -2.2435  -2.1821  -2.1198  -1.9748  -1.9296  -1.9082  -1.7672
    -1.6515  -1.4930  -1.4173  -1.3111  -1.2432  -1.1549  -1.0697  -1.0310
    -1.0063  -0.9897  -0.9021  -0.8704  -0.8553  -0.6668  -0.6630  -0.6509
    -0.6123  -0.5141  -0.4301  -0.3593  -0.3443  -0.2160  -0.1723  -0.1459
    -0.1270  -0.0608   0.1730   0.1974   0.2467   0.2814   0.4592   0.6414
     0.6964   0.7450   0.9588   0.9720   1.0310   1.0358   1.1052   1.3489
     1.4039   1.4600   1.4808   2.0378   3.5259   3.6711   3.7354   4.3970
     4.8336   5.1766   5.7741   5.9548   6.9609   7.0292   7.3438   7.3698
     7.9388   7.9623   8.0470   8.0553   9.1595   9.1999   9.2147   9.2670
     9.7364   9.7527  10.3230

     the Fermi energy is     1.2515 ev

!    total energy              =   -2231.78881538 Ry
     Harris-Foulkes estimate   =   -2231.78881527 Ry
     estimated scf accuracy    <       0.00000057 Ry

     The total energy is the sum of the following terms:

     one-electron contribution =  -19542.66388493 Ry
     hartree contribution      =    9815.84798041 Ry
     xc contribution           =    -380.99998125 Ry
     ewald contribution        =    7876.16151434 Ry
     electric field correction =       0.00000002 Ry
     smearing contrib. (-TS)   =      -0.13444397 Ry

     convergence has been achieved in  19 iterations

 BEEF-vdW xc energy contributions
           1 :   -331.828156946945
           2 :    303.976226520820
           3 :   -256.134256446773
           4 :    200.722016499365
           5 :   -150.023020882378
           6 :    112.208055598392
           7 :   -89.4975190074832
           8 :    78.8265223534572
           9 :   -74.3504109260696
          10 :    70.4637653279768
          11 :   -63.9987526687962
          12 :    54.8349617562507
          13 :   -44.9953960113754
          14 :    36.9688592866939
          15 :   -32.2174397404313
          16 :    30.5455648310751
          17 :   -30.4609694426632
          18 :    30.1480054446760
          19 :   -28.4453520025242
          20 :    25.3168202780595
          21 :   -21.6504630346230
          22 :    18.6011313207222
          23 :   -16.9021844184132
          24 :    16.5146980807662
          25 :   -16.7489465010678
          26 :    16.7252633351738
          27 :   -15.8819309463699
          28 :    14.2451918001295
          29 :   -12.3391211670840
          30 :    10.8247212313726
          31 :   -32.5012049774634
          32 :   -24.1808280599674

     Forces acting on atoms (Ry/au):

     negative rho (up, down):  8.140E-01 0.000E+00
     atom    1 type  1   force =     0.00698973    0.00405496    0.01666674
     atom    2 type  1   force =     0.00698927    0.00405456    0.01666939
     atom    3 type  2   force =    -0.00367841   -0.00213369   -0.00891077
     atom    4 type  2   force =    -0.00367822   -0.00213448   -0.00891110
     atom    5 type  1   force =    -0.00726373   -0.00421408    0.00033484
     atom    6 type  1   force =    -0.00725580   -0.00420920    0.00034258
     atom    7 type  2   force =     0.00376882    0.00218208   -0.00756756
     atom    8 type  2   force =     0.00376471    0.00218875   -0.00756744
     atom    9 type  1   force =     0.00016765    0.00009661   -0.00019474
     atom   10 type  1   force =     0.00017142    0.00009941   -0.00014753
     atom   11 type  2   force =     0.00000706    0.00001722   -0.00035752
     atom   12 type  2   force =     0.00001749   -0.00000215   -0.00035691

     Total force =     0.034281     Total SCF correction =     0.004329
     SCF correction compared to forces is large: reduce conv_thr to get better values

     entering subroutine stress ...

     negative rho (up, down):  8.140E-01 0.000E+00
          total   stress  (Ry/bohr**3)                   (kbar)     P=  -23.01
  -0.00017343   0.00001562  -0.00000562        -25.51      2.30     -0.83
   0.00001562  -0.00019129  -0.00000326          2.30    -28.14     -0.48
  -0.00000562  -0.00000326  -0.00010445         -0.83     -0.48    -15.37

 !ASE

     Writing output data file calc.save

     General routines

     Parallel routines

   This run was terminated on:   3:57:20  19Dec2018

   JOB DONE.
Job  /afs/slac/g/suncat/bin/suncat-tsmpirun -x LD_LIBRARY_PATH -wdir /scratch/qe530479_3lgGS pw.x -in pw.inp

TID   HOST_NAME   COMMAND_LINE            STATUS            TERMINATION_TIME
00000 suncat2040 pw.x -in pw.inp   Done                     12/19/2018 03:57:20
00001 suncat2040 pw.x -in pw.inp   Done                     12/19/2018 03:57:20
00002 suncat2040 pw.x -in pw.inp   Done                     12/19/2018 03:57:20
00003 suncat2040 pw.x -in pw.inp   Done                     12/19/2018 03:57:20
00004 suncat2040 pw.x -in pw.inp   Done                     12/19/2018 03:57:20
00005 suncat2040 pw.x -in pw.inp   Done                     12/19/2018 03:57:20
00006 suncat2040 pw.x -in pw.inp   Done                     12/19/2018 03:57:20
00007 suncat2040 pw.x -in pw.inp   Done                     12/19/2018 03:57:20
00008 suncat2040 pw.x -in pw.inp   Done                     12/19/2018 03:57:20
00009 suncat2040 pw.x -in pw.inp   Done                     12/19/2018 03:57:20
00010 suncat2040 pw.x -in pw.inp   Done                     12/19/2018 03:57:20
00011 suncat2040 pw.x -in pw.inp   Done                     12/19/2018 03:57:20
00012 suncat2040 pw.x -in pw.inp   Done                     12/19/2018 03:57:20
00013 suncat2040 pw.x -in pw.inp   Done                     12/19/2018 03:57:20
00014 suncat2040 pw.x -in pw.inp   Done                     12/19/2018 03:57:20
00015 suncat2040 pw.x -in pw.inp   Done                     12/19/2018 03:57:20
00016 suncat2039 pw.x -in pw.inp   Done                     12/19/2018 03:57:20
00017 suncat2039 pw.x -in pw.inp   Done                     12/19/2018 03:57:20
00018 suncat2039 pw.x -in pw.inp   Done                     12/19/2018 03:57:20
00019 suncat2039 pw.x -in pw.inp   Done                     12/19/2018 03:57:20
00020 suncat2039 pw.x -in pw.inp   Done                     12/19/2018 03:57:20
00021 suncat2039 pw.x -in pw.inp   Done                     12/19/2018 03:57:20
00022 suncat2039 pw.x -in pw.inp   Done                     12/19/2018 03:57:20
00023 suncat2039 pw.x -in pw.inp   Done                     12/19/2018 03:57:20
00024 suncat2039 pw.x -in pw.inp   Done                     12/19/2018 03:57:20
00025 suncat2039 pw.x -in pw.inp   Done                     12/19/2018 03:57:20
00026 suncat2039 pw.x -in pw.inp   Done                     12/19/2018 03:57:20
00027 suncat2039 pw.x -in pw.inp   Done                     12/19/2018 03:57:20
00028 suncat2039 pw.x -in pw.inp   Done                     12/19/2018 03:57:20
00029 suncat2039 pw.x -in pw.inp   Done                     12/19/2018 03:57:20
00030 suncat2039 pw.x -in pw.inp   Done                     12/19/2018 03:57:20
00031 suncat2039 pw.x -in pw.inp   Done                     12/19/2018 03:57:20