     Program PWSCF v.5.1rc2 (svn rev. 11289) starts on 19Dec2018 at  2:11:42

     Current dimensions of program PWSCF are:
     Max number of different atomic species (ntypx) = 10
     Max number of k-points (npk) =  40000
     Max angular momentum in pseudopotentials (lmaxx) =  3
     Presently stress not available with electric field

     IMPORTANT: XC functional enforced from input :
     Exchange-correlation      = BEEF-VDW ( 1  4 27 13 2)
     Any further DFT definition will be discarded
     Please, verify this is what you really want

     Subspace diagonalization in iterative solution of the eigenvalue problem:
     a serial algorithm will be used

     Found symmetry operation: I + ( -0.5000 -0.5000  0.0000)
     This is a supercell, fractional translations are disabled

     bravais-lattice index     =            0
     lattice parameter (alat)  =       1.8897  a.u.
     unit-cell volume          =    5988.0249 (a.u.)^3
     number of atoms/cell      =           12
     number of atomic types    =            2
     number of electrons       =       180.00
     number of Kohn-Sham states=          120
     kinetic-energy cutoff     =      36.7493  Ry
     charge density cutoff     =     367.4932  Ry
     convergence threshold     =      1.0E-06
     mixing beta               =       0.1000
     number of iterations used =           10  plain     mixing
     Exchange-correlation      = BEEF-VDW ( 1  4 27 13 2)
     nstep                     =           50

     celldm(1)=   1.889726  celldm(2)=   0.000000  celldm(3)=   0.000000
     celldm(4)=   0.000000  celldm(5)=   0.000000  celldm(6)=   0.000000

     crystal axes: (cart. coord. in units of alat)
               a(1) = (   6.135917   0.000000   0.000000 )
               a(2) = (   2.055067   5.781537   0.000000 )
               a(3) = (   0.000000   0.000000  25.012911 )

     reciprocal axes: (cart. coord. in units 2 pi/alat)
               b(1) = (  0.162975 -0.057930  0.000000 )
               b(2) = (  0.000000  0.172964  0.000000 )
               b(3) = (  0.000000  0.000000  0.039979 )

     PseudoPot. # 1 for Pt read from file:
     /afs/slac.stanford.edu/u/if/mamunm/psp/gbrv1.5pbe/Pt.UPF
     MD5 check sum: f09d6de1a584b5a045c4fc126da2d0c4
     Pseudo is Ultrasoft + core correction, Zval = 16.0
     Generated by new atomic code, or converted to UPF format
     Using radial grid of  985 points,  6 beta functions with:
                l(1) =   0
                l(2) =   0
                l(3) =   1
                l(4) =   1
                l(5) =   2
                l(6) =   2
     Q(r) pseudized with  8 coefficients,  rinner =    1.300   1.300   1.300
                                                       1.300   1.300

     PseudoPot. # 2 for Pb read from file:
     /afs/slac.stanford.edu/u/if/mamunm/psp/gbrv1.5pbe/Pb.UPF
     MD5 check sum: 3d1c1779aa92214d1e8f3a7db79003e2
     Pseudo is Ultrasoft + core correction, Zval = 14.0
     Generated by new atomic code, or converted to UPF format
     Using radial grid of  899 points,  6 beta functions with:
                l(1) =   0
                l(2) =   0
                l(3) =   1
                l(4) =   1
                l(5) =   2
                l(6) =   2
     Q(r) pseudized with  6 coefficients,  rinner =    1.000   1.000   1.000
                                                       1.000   1.000

     vdW kernel table read from file vdW_kernel_table
     MD5 check sum: 095c7af220d748ca6e76c0b4c6cfb241

     atomic species   valence    mass     pseudopotential
        Pt1           16.00   195.08400     Pt( 1.00)
        Pb1           14.00   207.20000     Pb( 1.00)

     No symmetry found

   Cartesian axes

     site n.     atom                  positions (alat units)
         1           Pt1 tau(   1) = (   0.0000000   0.0000000  10.0000000  )
         2           Pt1 tau(   2) = (   4.0954916   2.8907686  10.0000000  )
         3           Pb1 tau(   3) = (   3.0679583   0.0000000  10.0000000  )
         4           Pb1 tau(   4) = (   1.0275334   2.8907686  10.0000000  )
         5           Pt1 tau(   5) = (   6.1359165   4.3309855  12.5064553  )
         6           Pt1 tau(   6) = (   2.0404249   1.4402169  12.5064553  )
         7           Pb1 tau(   7) = (   3.0679583   4.3309855  12.5064553  )
         8           Pb1 tau(   8) = (   5.1083832   1.4402169  12.5064553  )
         9           Pt1 tau(   9) = (   4.0808498   2.8804338  15.0129107  )
        10           Pt1 tau(  10) = (   8.1763414   5.7712024  15.0129107  )
        11           Pb1 tau(  11) = (   7.1488080   2.8804338  15.0129107  )
        12           Pb1 tau(  12) = (   5.1083832   5.7712024  15.0129107  )

     number of k points=    20  Fermi-Dirac smearing, width (Ry)=  0.0110
                       cart. coord. in units 2pi/alat
        k(    1) = (   0.0000000   0.0000000   0.0000000), wk =   0.0555556
        k(    2) = (   0.0000000   0.0288274   0.0000000), wk =   0.1111111
        k(    3) = (   0.0000000   0.0576548   0.0000000), wk =   0.1111111
        k(    4) = (   0.0000000  -0.0864822   0.0000000), wk =   0.0555556
        k(    5) = (   0.0271625  -0.0096550   0.0000000), wk =   0.1111111
        k(    6) = (   0.0271625   0.0191724   0.0000000), wk =   0.1111111
        k(    7) = (   0.0271625   0.0479998   0.0000000), wk =   0.1111111
        k(    8) = (   0.0271625  -0.0961372   0.0000000), wk =   0.1111111
        k(    9) = (   0.0271625  -0.0673098   0.0000000), wk =   0.1111111
        k(   10) = (   0.0271625  -0.0384824   0.0000000), wk =   0.1111111
        k(   11) = (   0.0543249  -0.0193100   0.0000000), wk =   0.1111111
        k(   12) = (   0.0543249   0.0095174   0.0000000), wk =   0.1111111
        k(   13) = (   0.0543249   0.0383448   0.0000000), wk =   0.1111111
        k(   14) = (   0.0543249  -0.1057922   0.0000000), wk =   0.1111111
        k(   15) = (   0.0543249  -0.0769648   0.0000000), wk =   0.1111111
        k(   16) = (   0.0543249  -0.0481374   0.0000000), wk =   0.1111111
        k(   17) = (  -0.0814874   0.0289650   0.0000000), wk =   0.0555556
        k(   18) = (  -0.0814874   0.0577924   0.0000000), wk =   0.1111111
        k(   19) = (  -0.0814874   0.0866198   0.0000000), wk =   0.1111111
        k(   20) = (  -0.0814874  -0.0575172   0.0000000), wk =   0.0555556

     Largest allocated arrays     est. size (Mb)     dimensions
     Largest temporary arrays     est. size (Mb)     dimensions

     Check: negative/imaginary core charge=   -0.000001    0.000000

     Initial potential from superposition of free atoms
     Check: negative starting charge=   -1.219024

     starting charge  176.98582, renormalised to  180.00000

     negative rho (up, down):  1.240E+00 0.000E+00

     *
     * You are using vdW-DF for exchange-correlation in this calculation.
     * Please cite the following three references that made this development
     * possible:
     *
     *   M. Dion, H. Rydberg, E. Schroder, D. C. Langreth, and
     *   B. I. Lundqvist, Phys. Rev. Lett. 92, 246401 (2004).
     *
     *   T. Thonhauser, V. R. Cooper, S. Li, A. Puzder, P. Hyldgaard, and
     *   D. C. Langreth, Phys. Rev. B 76, 125112 (2007).
     *
     *   G. Roman-Perez and J. M. Soler, Phys. Rev. Lett. 103, 096102 (2009).
     *
     *
     * If you are using vdW-DF2, please also cite:
     *
     *   K. Lee, E. D. Murray, L. Kong, B. I. Lundqvist, and
     *   D. C. Langreth, Phys. Rev. B 82, 081101(R) (2010).
     *
     *
     * If you are calculating the stress with vdW-DF, please also cite:
     *
     *   R. Sabatini, E. Kucukbenli, B. Kolb, T. Thonhauser, and
     *   S. de Gironcoli, J. Phys.: Condens. Matter 24, 424209 (2012).
     *

     Carrying out vdW-DF run using the following parameters:

     Nqs =      20    Nr_points =    1024   r_max =   100.000
     q_mesh =
               0.00001000     0.04494208     0.09755937     0.15916263
               0.23128650     0.31572767     0.41458969     0.53033537
               0.66584808     0.82450364     1.01025438     1.22772762
               1.48234092     1.78043706     2.12944203     2.53805004
               3.01644009     3.57652955     4.23227104     5.00000000

     Gradients computed in reciprocal space

     Adding external electric field

     Computed dipole along edir(3) :
        Dipole               -0.0000 Ry au,         -0.0000 Debye
        Dipole field         -0.0000 Ry au

        Potential amp.        0.0000 Ry
        Total length         46.0859 bohr

     Starting wfc are  126 randomized atomic wfcs

     Self-consistent Calculation

     iteration #  1     ecut=    36.75 Ry     beta=0.10
     Davidson diagonalization with overlap
     ethr =  1.00E-02,  avg # of iterations =  8.0

[...]

     total energy              =   -2270.43525168 Ry
     Harris-Foulkes estimate   =   -2270.95691505 Ry
     estimated scf accuracy    <       3.31514205 Ry

[...]

     End of self-consistent calculation

          k = 0.0000 0.0000 0.0000 ( 22521 PWs)   bands (ev):

   -50.9164 -50.9142 -50.9132 -50.9041 -50.8807 -50.8798 -50.5712 -50.5710
   -50.5703 -50.5701 -50.4887 -50.4886 -50.4767 -50.4766 -50.3898 -50.3896
   -50.3888 -50.3886 -16.1136 -16.0985 -16.0547 -16.0336 -16.0318 -16.0188
   -16.0078 -15.9991 -15.9789 -15.9766 -15.9739 -15.9669 -15.9647 -15.9606
   -15.9555 -15.9520 -15.9504 -15.9233 -15.9174 -15.9077 -15.8958 -15.8625
   -15.8551 -15.8254 -15.8144 -15.8074 -15.7832 -15.7694 -15.7555 -15.7082
    -9.4697  -8.2462  -7.0980  -6.8238  -6.6296  -6.6287  -2.6225  -2.4057
    -2.2932  -1.9704  -1.7674  -1.7225  -1.5734  -1.5524  -1.5401  -1.4604
    -1.1595  -1.1184  -1.0283  -1.0077  -0.9672  -0.8049  -0.7662  -0.6329
    -0.5677  -0.5416  -0.4245  -0.4203  -0.4009  -0.3638  -0.2987  -0.2556
    -0.2063  -0.1647  -0.0090   0.0097   0.0497   0.1092   0.1347   0.2121
     0.2285   0.3053   0.6479   1.0031   1.3196   1.4665   1.6069   1.8718
     2.4936   2.8707   3.0038   3.0730   3.8686   4.2552   4.5241   4.8495
     5.2104   5.3030   5.4004   6.0497   6.0680   6.2272   6.4870   6.7187
     7.2138   7.3702   7.6359   8.2926   8.4345   8.4640   8.5176   8.6660

[...]

          k =-0.0815 0.0290 0.0000 ( 22550 PWs)   bands (ev):

[...]

     the Fermi energy is     1.0398 ev

!    total energy              =   -2270.24920510 Ry
     Harris-Foulkes estimate   =   -2270.24916153 Ry
     estimated scf accuracy    <       0.00000050 Ry

     The total energy is the sum of the following terms:

     one-electron contribution =  -13203.05596488 Ry
     hartree contribution      =    6655.79125952 Ry
     xc contribution           =    -743.84135324 Ry
     ewald contribution        =    5020.89394051 Ry
     electric field correction =       0.00000000 Ry
     smearing contrib. (-TS)   =      -0.03708701 Ry

     convergence has been achieved in  14 iterations

 BEEF-vdW xc energy contributions
           1 :   -662.724483367519
           2 :    615.811254387376
           3 :   -532.658672099891
           4 :    430.603490362744
           5 :   -327.861204735949
           6 :    238.323470784215
           7 :   -168.676542301881
           8 :    118.458594155849
[...]

[...]

     Total force =     0.043136     Total SCF correction =     0.003833

[...]

   This run was terminated on:   2:23: 7  19Dec2018

[...]

   This run was terminated on:   2:47: 7  19Dec2018

[...]

     Program PWSCF v.5.1rc2 (svn rev. 11289) starts on 19Dec2018 at  2:47:14

[...]

     Total force =     0.044480     Total SCF correction =     0.004006

[...]

     Program PWSCF v.5.1rc2 (svn rev. 11289) starts on 19Dec2018 at  2:53: 2

     Current dimensions of program PWSCF are:
     Max number of different atomic species (ntypx) = 10
     Max number of k-points (npk) =  40000
     Max angular momentum in pseudopotentials (lmaxx) =  3
     Presently stress not available with electric field

     IMPORTANT: XC functional enforced from input :
     Exchange-correlation      = BEEF-VDW ( 1  4 27 13 2)
     Any further DFT definition will be discarded
     Please, verify this is what you really want

     Subspace diagonalization in iterative solution of the eigenvalue problem:
     a serial algorithm will be used

     bravais-lattice index     =            0
     lattice parameter (alat)  =       1.8897  a.u.
     unit-cell volume          =    5988.0249 (a.u.)^3
     number of atoms/cell      =           12
     number of atomic types    =            2
     number of electrons       =       180.00
     number of Kohn-Sham states=          120
     kinetic-energy cutoff     =      36.7493  Ry
     charge density cutoff     =     367.4932  Ry
     convergence threshold     =      1.0E-06
     mixing beta               =       0.1000
     number of iterations used =           10  plain     mixing
     Exchange-correlation      = BEEF-VDW ( 1  4 27 13 2)
     nstep                     =           50

     celldm(1)=   1.889726  celldm(2)=   0.000000  celldm(3)=   0.000000
     celldm(4)=   0.000000  celldm(5)=   0.000000  celldm(6)=   0.000000

     crystal axes: (cart. coord. in units of alat)
               a(1) = (   6.135917   0.000000   0.000000 )
               a(2) = (   2.055067   5.781537   0.000000 )
               a(3) = (   0.000000   0.000000  25.012911 )

     reciprocal axes: (cart. coord. in units 2 pi/alat)
               b(1) = (  0.162975 -0.057930  0.000000 )
               b(2) = (  0.000000  0.172964  0.000000 )
               b(3) = (  0.000000  0.000000  0.039979 )

     PseudoPot. # 1 for Pt read from file:
     /afs/slac.stanford.edu/u/if/mamunm/psp/gbrv1.5pbe/Pt.UPF
     MD5 check sum: f09d6de1a584b5a045c4fc126da2d0c4
     Pseudo is Ultrasoft + core correction, Zval = 16.0
     Generated by new atomic code, or converted to UPF format
     Using radial grid of  985 points,  6 beta functions with:
                l(1) =   0
                l(2) =   0
                l(3) =   1
                l(4) =   1
                l(5) =   2
                l(6) =   2
     Q(r) pseudized with  8 coefficients,  rinner =    1.300   1.300   1.300
                                                       1.300   1.300

     PseudoPot. # 2 for Pb read from file:
     /afs/slac.stanford.edu/u/if/mamunm/psp/gbrv1.5pbe/Pb.UPF
     MD5 check sum: 3d1c1779aa92214d1e8f3a7db79003e2
     Pseudo is Ultrasoft + core correction, Zval = 14.0
     Generated by new atomic code, or converted to UPF format
     Using radial grid of  899 points,  6 beta functions with:
                l(1) =   0
                l(2) =   0
                l(3) =   1
                l(4) =   1
                l(5) =   2
                l(6) =   2
     Q(r) pseudized with  6 coefficients,  rinner =    1.000   1.000   1.000
                                                       1.000   1.000

     vdW kernel table read from file vdW_kernel_table
     MD5 check sum: 095c7af220d748ca6e76c0b4c6cfb241

     atomic species   valence    mass     pseudopotential
        Pt1           16.00   195.08400     Pt( 1.00)
        Pb1           14.00   207.20000     Pb( 1.00)

     No symmetry found

   Cartesian axes

     site n.     atom                  positions (alat units)
         1           Pt1 tau(   1) = (   0.0000000   0.0000000  10.0000000  )
         2           Pt1 tau(   2) = (   4.0954916   2.8907686  10.0000000  )
         3           Pb1 tau(   3) = (   3.0679583   0.0000000  10.0000000  )
         4           Pb1 tau(   4) = (   1.0275334   2.8907686  10.0000000  )
         5           Pt1 tau(   5) = (   6.1359165   4.3309855  12.5064553  )
         6           Pt1 tau(   6) = (   2.0404249   1.4402169  12.5064553  )
         7           Pb1 tau(   7) = (   3.0679583   4.3309855  12.5064553  )
         8           Pb1 tau(   8) = (   5.1083832   1.4402169  12.5064553  )
         9           Pt1 tau(   9) = (   4.0806793   2.8803241  14.7546769  )
        10           Pt1 tau(  10) = (   8.1761875   5.7710910  14.7546748  )
        11           Pb1 tau(  11) = (   7.1524222   2.8829841  15.1029435  )
        12           Pb1 tau(  12) = (   5.1120880   5.7738100  15.1029822  )

     number of k points=    20  Fermi-Dirac smearing, width (Ry)=  0.0110
                       cart. coord. in units 2pi/alat
        k(    1) = (   0.0000000   0.0000000   0.0000000), wk =   0.0555556
        k(    2) = (   0.0000000   0.0288274   0.0000000), wk =   0.1111111
        k(    3) = (   0.0000000   0.0576548   0.0000000), wk =   0.1111111
        k(    4) = (   0.0000000  -0.0864822   0.0000000), wk =   0.0555556
        k(    5) = (   0.0271625  -0.0096550   0.0000000), wk =   0.1111111
        k(    6) = (   0.0271625   0.0191724   0.0000000), wk =   0.1111111
        k(    7) = (   0.0271625   0.0479998   0.0000000), wk =   0.1111111
        k(    8) = (   0.0271625  -0.0961372   0.0000000), wk =   0.1111111
        k(    9) = (   0.0271625  -0.0673098   0.0000000), wk =   0.1111111
        k(   10) = (   0.0271625  -0.0384824   0.0000000), wk =   0.1111111
        k(   11) = (   0.0543249  -0.0193100   0.0000000), wk =   0.1111111
        k(   12) = (   0.0543249   0.0095174   0.0000000), wk =   0.1111111
        k(   13) = (   0.0543249   0.0383448   0.0000000), wk =   0.1111111
        k(   14) = (   0.0543249  -0.1057922   0.0000000), wk =   0.1111111
        k(   15) = (   0.0543249  -0.0769648   0.0000000), wk =   0.1111111
        k(   16) = (   0.0543249  -0.0481374   0.0000000), wk =   0.1111111
        k(   17) = (  -0.0814874   0.0289650   0.0000000), wk =   0.0555556
        k(   18) = (  -0.0814874   0.0577924   0.0000000), wk =   0.1111111
        k(   19) = (  -0.0814874   0.0866198   0.0000000), wk =   0.1111111
        k(   20) = (  -0.0814874  -0.0575172   0.0000000), wk =   0.0555556

     Largest allocated arrays     est. size (Mb)     dimensions
     Largest temporary arrays     est. size (Mb)     dimensions

     Check: negative/imaginary core charge=   -0.000001    0.000000

     Initial potential from superposition of free atoms
     Check: negative starting charge=   -1.218920

     starting charge  176.98582, renormalised to  180.00000

[...]

     *
     * You are using vdW-DF for exchange-correlation in this calculation.
     * Please cite the following three references that made this development
     * possible:
     *
     *   M. Dion, H. Rydberg, E. Schroder, D. C. Langreth, and
     *   B. I. Lundqvist, Phys. Rev. Lett. 92, 246401 (2004).
     *
     *   T. Thonhauser, V. R. Cooper, S. Li, A. Puzder, P. Hyldgaard, and
     *   D. C. Langreth, Phys. Rev. B 76, 125112 (2007).
     *
     *   G. Roman-Perez and J. M. Soler, Phys. Rev. Lett. 103, 096102 (2009).
     *
     *
     * If you are using vdW-DF2, please also cite:
     *
     *   K. Lee, E. D. Murray, L. Kong, B. I. Lundqvist, and
     *   D. C. Langreth, Phys. Rev. B 82, 081101(R) (2010).
     *
     *
     * If you are calculating the stress with vdW-DF, please also cite:
     *
     *   R. Sabatini, E. Kucukbenli, B. Kolb, T. Thonhauser, and
     *   S. de Gironcoli, J. Phys.: Condens. Matter 24, 424209 (2012).
     *

     Carrying out vdW-DF run using the following parameters:

     Nqs =      20    Nr_points =    1024   r_max =   100.000
     q_mesh =
               0.00001000     0.04494208     0.09755937     0.15916263
               0.23128650     0.31572767     0.41458969     0.53033537
               0.66584808     0.82450364     1.01025438     1.22772762
               1.48234092     1.78043706     2.12944203     2.53805004
               3.01644009     3.57652955     4.23227104     5.00000000

     Gradients computed in reciprocal space

[...]

     Starting wfc are  126 randomized atomic wfcs

     Self-consistent Calculation

[...]

     total energy              =   -2270.26332458 Ry
     Harris-Foulkes estimate   =   -2270.26330124 Ry
     estimated scf accuracy    <       0.00000234 Ry

     iteration # 15     ecut=    36.75 Ry     beta=0.10
     Davidson diagonalization with overlap
     ethr =  1.30E-09,  avg # of iterations =  5.2

[...]

     negative rho (up, down):  1.181E+00 0.000E+00

     Adding external electric field

     Computed dipole along edir(3) :
        Dipole                0.1462 Ry au,          0.3717 Debye
        Dipole field          0.0003 Ry au

        Potential amp.       -0.0283 Ry
        Total length         46.0859 bohr

     End of self-consistent calculation

[...]

          k = 0.0543-0.0481 0.0000 ( 22543 PWs)   bands (ev):

[...]

          k =-0.0815-0.0575 0.0000 ( 22546 PWs)   bands (ev):

   -50.7962 -50.7955 -50.7951 -50.7832 -50.7785 -50.7774 -50.6366 -50.6354
   -50.5872 -50.5748 -50.5466 -50.5457 -50.4503 -50.4492 -50.3675 -50.3554
   -50.2728 -50.2719 -16.0513 -15.9895 -15.9574 -15.9364 -15.9344 -15.9316
   -15.9285 -15.9104 -15.9034 -15.8952 -15.8662 -15.8527 -15.8487 -15.8402
   -15.8395 -15.8153 -15.8137 -15.8109 -15.7904 -15.7875 -15.7781 -15.7691
   -15.7328 -15.7269 -15.7230 -15.7108 -15.7003 -15.6992 -15.6513 -15.6116
    -8.1351  -7.9558  -7.5061  -7.3389  -6.4336  -5.3161  -4.1888  -4.0190
    -3.5734  -2.7920  -2.7640  -2.7311  -2.4463  -2.0281  -1.8965  -1.6585
    -1.5183  -1.5082  -1.4057  -1.2628  -1.2478  -1.1905  -1.1494  -1.1091
    -1.0042  -0.8658  -0.7415  -0.6382  -0.3791  -0.3743  -0.3454  -0.3274
    -0.0915  -0.0584   0.0305   0.0830   0.1479   0.2670   0.4855   0.5940
     0.8282   1.8398   1.9528   2.1856   2.9253   3.1198   4.2310   4.2643
     4.4818   4.9656   5.1025   5.1814   5.3182   5.5715   5.6837   5.9104
     6.1038   6.4016   6.5657   6.7216   6.8316   6.8474   7.0044   7.0410
     7.0515   7.2285   7.2452   7.3014   7.5434   7.6515   7.6593   7.7980

     the Fermi energy is     1.1777 ev

!    total energy              =   -2270.26335567 Ry
     Harris-Foulkes estimate   =   -2270.26332647 Ry
     estimated scf accuracy    <       0.00000073 Ry

     The total energy is the sum of the following terms:

     one-electron contribution =  -13374.80107600 Ry
     hartree contribution      =    6742.09467989 Ry
     xc contribution           =    -743.89648691 Ry
     ewald contribution        =    5106.37762120 Ry
     electric field correction =       0.00004488 Ry
     smearing contrib. (-TS)   =      -0.03813874 Ry

     convergence has been achieved in  15 iterations

 BEEF-vdW xc energy contributions
           1 :   -662.790508244641
           2 :    615.940697550156
           3 :   -532.869484049460
           4 :    430.854592411676
           5 :   -328.075749701815
           6 :    238.431503598792
           7 :   -168.653638066404
           8 :    118.340539812091
           9 :   -82.4282914194437
          10 :    54.7074710752721
          11 :   -30.7802633669288
          12 :    9.32960587858645
          13 :    8.45741285603617
          14 :   -20.6052147413450
          15 :    26.0906549367716
          16 :   -25.7214234338883
          17 :    21.8538213672816
          18 :   -17.2951001485743
          19 :    14.0861870070067
          20 :   -12.8267416955048
          21 :    12.8164301285660
          22 :   -12.8181303403886
          23 :    11.9346398502364
          24 :   -10.1103136054655
          25 :    8.04238503534339
          26 :   -6.64677864343810
          27 :    6.44799858347301
          28 :   -7.26413103208313
          29 :    8.34314460389282
          30 :   -8.83423709100896
          31 :   -53.5312009869440
          32 :   -39.3048557085767

     Forces acting on atoms (Ry/au):

     negative rho (up, down):  1.181E+00 0.000E+00
     atom    1 type  1   force =     0.00005806    0.00004111    0.02279655
     atom    2 type  1   force =     0.00005954    0.00004228    0.02279664
     atom    3 type  2   force =    -0.00027498   -0.00019423   -0.00839859
     atom    4 type  2   force =    -0.00027098   -0.00019285   -0.00839857
     atom    5 type  1   force =    -0.00009199   -0.00006498    0.00783613
     atom    6 type  1   force =    -0.00009472   -0.00006672    0.00783385
     atom    7 type  2   force =     0.00023134    0.00016244   -0.01905790
     atom    8 type  2   force =     0.00023060    0.00016415   -0.01904898
     atom    9 type  1   force =     0.00001938    0.00001681   -0.00157559
     atom   10 type  1   force =     0.00002468    0.00001467   -0.00157472
     atom   11 type  2   force =     0.00005760    0.00004066   -0.00159977
     atom   12 type  2   force =     0.00005147    0.00003665   -0.00160905

     Total force =     0.045164     Total SCF correction =     0.005318
     SCF correction compared to forces is large: reduce conv_thr to get better values

     entering subroutine stress ...

     negative rho (up, down):  1.181E+00 0.000E+00
          total   stress  (Ry/bohr**3)                   (kbar)     P=  -12.95
  -0.00012574  -0.00002559   0.00000037        -18.50     -3.76      0.05
  -0.00002559  -0.00010754   0.00000026         -3.76    -15.82      0.04
   0.00000037   0.00000026  -0.00003074          0.05      0.04     -4.52

 !ASE

     Writing output data file calc.save

     General routines

     Parallel routines

   This run was terminated on:   2:58:54  19Dec2018

   JOB DONE.
Job  /afs/slac/g/suncat/bin/suncat-tsmpirun -x LD_LIBRARY_PATH -wdir /scratch/qe530441_74KPW pw.x -in pw.inp

TID   HOST_NAME   COMMAND_LINE            STATUS            TERMINATION_TIME
00000 suncat2040 pw.x -in pw.inp   Done                     12/19/2018 02:58:54
00001 suncat2040 pw.x -in pw.inp   Done                     12/19/2018 02:58:54
00002 suncat2040 pw.x -in pw.inp   Done                     12/19/2018 02:58:54
00003 suncat2040 pw.x -in pw.inp   Done                     12/19/2018 02:58:54
00004 suncat2040 pw.x -in pw.inp   Done                     12/19/2018 02:58:54
00005 suncat2040 pw.x -in pw.inp   Done                     12/19/2018 02:58:54
00006 suncat2040 pw.x -in pw.inp   Done                     12/19/2018 02:58:54
00007 suncat2040 pw.x -in pw.inp   Done                     12/19/2018 02:58:54
00008 suncat2040 pw.x -in pw.inp   Done                     12/19/2018 02:58:54
00009 suncat2040 pw.x -in pw.inp   Done                     12/19/2018 02:58:54
00010 suncat2040 pw.x -in pw.inp   Done                     12/19/2018 02:58:54
00011 suncat2040 pw.x -in pw.inp   Done                     12/19/2018 02:58:54
00012 suncat2040 pw.x -in pw.inp   Done                     12/19/2018 02:58:54
00013 suncat2040 pw.x -in pw.inp   Done                     12/19/2018 02:58:54
00014 suncat2040 pw.x -in pw.inp   Done                     12/19/2018 02:58:54
00015 suncat2040 pw.x -in pw.inp   Done                     12/19/2018 02:58:54
00016 suncat2039 pw.x -in pw.inp   Done                     12/19/2018 02:58:54
00017 suncat2039 pw.x -in pw.inp   Done                     12/19/2018 02:58:54
00018 suncat2039 pw.x -in pw.inp   Done                     12/19/2018 02:58:54
00019 suncat2039 pw.x -in pw.inp   Done                     12/19/2018 02:58:54
00020 suncat2039 pw.x -in pw.inp   Done                     12/19/2018 02:58:54
00021 suncat2039 pw.x -in pw.inp   Done                     12/19/2018 02:58:54
00022 suncat2039 pw.x -in pw.inp   Done                     12/19/2018 02:58:54
00023 suncat2039 pw.x -in pw.inp   Done                     12/19/2018 02:58:54
00024 suncat2039 pw.x -in pw.inp   Done                     12/19/2018 02:58:54
00025 suncat2039 pw.x -in pw.inp   Done                     12/19/2018 02:58:54
00026 suncat2039 pw.x -in pw.inp   Done                     12/19/2018 02:58:54
00027 suncat2039 pw.x -in pw.inp   Done                     12/19/2018 02:58:54
00028 suncat2039 pw.x -in pw.inp   Done                     12/19/2018 02:58:54
00029 suncat2039 pw.x -in pw.inp   Done                     12/19/2018 02:58:54
00030 suncat2039 pw.x -in pw.inp   Done                     12/19/2018 02:58:54
00031 suncat2039 pw.x -in pw.inp   Done                     12/19/2018 02:58:54