     Program PWSCF v.5.1rc2 (svn rev. 11289) starts on 19Dec2018 at  0:28:40

     Current dimensions of program PWSCF are:
     Max number of different atomic species (ntypx) = 10
     Max number of k-points (npk) =  40000
     Max angular momentum in pseudopotentials (lmaxx) =  3
     Presently stress not available with electric field

     IMPORTANT: XC functional enforced from input :
     Exchange-correlation      = BEEF-VDW ( 1  4 27 13 2)
     Any further DFT definition will be discarded
     Please, verify this is what you really want

     Subspace diagonalization in iterative solution of the eigenvalue problem:
     a serial algorithm will be used

     Found symmetry operation: I + ( -0.5000  0.0000  0.0000)
     This is a supercell, fractional translations are disabled

     bravais-lattice index     =            0
     lattice parameter (alat)  =       1.8897  a.u.
     unit-cell volume          =    4991.1842 (a.u.)^3
     number of atoms/cell      =           12
     number of atomic types    =            2
     number of electrons       =       168.00
     number of Kohn-Sham states=          114
     kinetic-energy cutoff     =      36.7493  Ry
     charge density cutoff     =     367.4932  Ry
     convergence threshold     =      1.0E-06
     mixing beta               =       0.1000
     number of iterations used =           10  plain     mixing
     Exchange-correlation      = BEEF-VDW ( 1  4 27 13 2)
     nstep                     =           50

     celldm(1)=   1.889726  celldm(2)=   0.000000  celldm(3)=   0.000000
     celldm(4)=   0.000000  celldm(5)=   0.000000  celldm(6)=   0.000000

     crystal axes: (cart. coord. in units of alat)
               a(1) = (   5.681364   0.000000   0.000000 )
               a(2) = (  -2.840682   5.253711   0.000000 )
               a(3) = (   0.000000   0.000000  24.779251 )

     reciprocal axes: (cart. coord. in units 2 pi/alat)
               b(1) = (  0.176014  0.095171  0.000000 )
               b(2) = (  0.000000  0.190342  0.000000 )
               b(3) = (  0.000000  0.000000  0.040356 )

     PseudoPot. # 1 for Os read from file:
     /afs/slac.stanford.edu/u/if/mamunm/psp/gbrv1.5pbe/Os.UPF
     MD5 check sum: a3fb40a04f0c37c25c34bbc47164c9a8
     Pseudo is Ultrasoft + core correction, Zval = 16.0
     Generated by new atomic code, or converted to UPF format
     Using radial grid of  983 points,  8 beta functions with:
                l(1) =   0
                l(2) =   0
                l(3) =   1
                l(4) =   1
                l(5) =   2
                l(6) =   2
                l(7) =   3
                l(8) =   3
     Q(r) pseudized with  8 coefficients,  rinner =    1.150   1.150   1.150
                                                       1.150   1.150   1.150
                                                       1.150

     PseudoPot. # 2 for Hg read from file:
     /afs/slac.stanford.edu/u/if/mamunm/psp/gbrv1.5pbe/Hg.UPF
     MD5 check sum: 8f42caffe07f7fd9c0a564347f8c5498
     Pseudo is Ultrasoft + core correction, Zval = 12.0
     Generated by new atomic code, or converted to UPF format
     Using radial grid of  985 points,  6 beta functions with:
                l(1) =   0
                l(2) =   0
                l(3) =   1
                l(4) =   1
                l(5) =   2
                l(6) =   2
     Q(r) pseudized with  8 coefficients,  rinner =    2.000   2.000   2.000
                                                       2.000   2.000

     vdW kernel table read from file vdW_kernel_table
     MD5 check sum: 095c7af220d748ca6e76c0b4c6cfb241

     atomic species   valence    mass     pseudopotential
        Os1           16.00   190.23000     Os( 1.00)
        Hg1           12.00   200.59200     Hg( 1.00)

     No symmetry found

   Cartesian axes

     site n.     atom                  positions (alat units)
         1           Os1 tau(   1) = (   0.0000000   0.0000000  10.0000000  )
         2           Os1 tau(   2) = (   2.8406820   0.0000000  10.0000000  )
         3           Hg1 tau(   3) = (   1.4203410   2.6268556  10.0000000  )
         4           Hg1 tau(   4) = (  -1.4203410   2.6268556  10.0000000  )
         5           Os1 tau(   5) = (   2.8406820   1.5359570  12.3896256  )
         6           Os1 tau(   6) = (   0.0000000   1.5359570  12.3896256  )
         7           Hg1 tau(   7) = (  -1.4203410   4.1628126  12.3896256  )
         8           Hg1 tau(   8) = (   1.4203410   4.1628126  12.3896256  )
         9           Os1 tau(   9) = (   0.0000000   3.0719140  14.7792512  )
        10           Os1 tau(  10) = (   2.8406820   3.0719140  14.7792512  )
        11           Hg1 tau(  11) = (   4.2610231   0.4450584  14.7792512  )
        12           Hg1 tau(  12) = (   1.4203410   0.4450584  14.7792512  )

     number of k points=    20  Fermi-Dirac smearing, width (Ry)=  0.0110
                       cart. coord. in units 2pi/alat
        k(    1) = (   0.0000000   0.0000000   0.0000000), wk =   0.0555556
        k(    2) = (   0.0000000   0.0317236   0.0000000), wk =   0.1111111
        k(    3) = (   0.0000000   0.0634472   0.0000000), wk =   0.1111111
        k(    4) = (   0.0000000  -0.0951708   0.0000000), wk =   0.0555556
        k(    5) = (   0.0293357   0.0158618   0.0000000), wk =   0.1111111
        k(    6) = (   0.0293357   0.0475854   0.0000000), wk =   0.1111111
        k(    7) = (   0.0293357   0.0793090   0.0000000), wk =   0.1111111
        k(    8) = (   0.0293357  -0.0793090   0.0000000), wk =   0.1111111
        k(    9) = (   0.0293357  -0.0475854   0.0000000), wk =   0.1111111
        k(   10) = (   0.0293357  -0.0158618   0.0000000), wk =   0.1111111
        k(   11) = (   0.0586714   0.0317236   0.0000000), wk =   0.1111111
        k(   12) = (   0.0586714   0.0634472   0.0000000), wk =   0.1111111
        k(   13) = (   0.0586714   0.0951708   0.0000000), wk =   0.1111111
        k(   14) = (   0.0586714  -0.0634472   0.0000000), wk =   0.1111111
        k(   15) = (   0.0586714  -0.0317236   0.0000000), wk =   0.1111111
        k(   16) = (   0.0586714   0.0000000   0.0000000), wk =   0.1111111
        k(   17) = (  -0.0880070  -0.0475854   0.0000000), wk =   0.0555556
        k(   18) = (  -0.0880070  -0.0158618   0.0000000), wk =   0.1111111
        k(   19) = (  -0.0880070   0.0158618   0.0000000), wk =   0.1111111
        k(   20) = (  -0.0880070  -0.1427562   0.0000000), wk =   0.0555556

     Largest allocated arrays     est. size (Mb)     dimensions
     Largest temporary arrays     est. size (Mb)     dimensions

     Initial potential from superposition of free atoms
     Check: negative starting charge=   -0.749418

     starting charge  164.99943, renormalised to  168.00000

     negative rho (up, down):  7.630E-01 0.000E+00

     *
     * You are using vdW-DF for exchange-correlation in this calculation.
     * Please cite the following three references that made this development
     * possible:
     *
     *   M. Dion, H. Rydberg, E. Schroder, D. C. Langreth, and
     *   B. I. Lundqvist, Phys. Rev. Lett. 92, 246401 (2004).
     *
     *   T. Thonhauser, V. R. Cooper, S. Li, A. Puzder, P. Hyldgaard, and
     *   D. C. Langreth, Phys. Rev. B 76, 125112 (2007).
     *
     *   G. Roman-Perez and J. M. Soler, Phys. Rev. Lett. 103, 096102 (2009).
     *
     *
     * If you are using vdW-DF2, please also cite:
     *
     *   K. Lee, E. D. Murray, L. Kong, B. I. Lundqvist, and
     *   D. C. Langreth, Phys. Rev. B 82, 081101(R) (2010).
     *
     *
     * If you are calculating the stress with vdW-DF, please also cite:
     *
     *   R. Sabatini, E. Kucukbenli, B. Kolb, T. Thonhauser, and
     *   S. de Gironcoli, J. Phys.: Condens. Matter 24, 424209 (2012).
     *

     Carrying out vdW-DF run using the following parameters:

     Nqs =      20    Nr_points =    1024   r_max =   100.000
     q_mesh =
               0.00001000     0.04494208     0.09755937     0.15916263
               0.23128650     0.31572767     0.41458969     0.53033537
               0.66584808     0.82450364     1.01025438     1.22772762
               1.48234092     1.78043706     2.12944203     2.53805004
               3.01644009     3.57652955     4.23227104     5.00000000

     Gradients computed in reciprocal space

     Adding external electric field

     Computed dipole along edir(3) :
        Dipole               -0.0000 Ry au,         -0.0000 Debye
        Dipole field         -0.0000 Ry au

        Potential amp.        0.0000 Ry
        Total length         45.6553 bohr

     Starting wfc are  132 randomized atomic wfcs

     Self-consistent Calculation

     iteration #  1     ecut=    36.75 Ry     beta=0.10
     Davidson diagonalization with overlap
     ethr =  1.00E-02,  avg # of iterations =  8.4

[...]

     total energy              =   -1852.33441071 Ry
     Harris-Foulkes estimate   =   -1853.10857511 Ry
     estimated scf accuracy    <       4.34511976 Ry

[...]

     End of self-consistent calculation

          k = 0.0000 0.0000 0.0000 ( 18783 PWs)   bands (ev):

   -84.7142 -84.6978 -84.5168 -84.5166 -84.5003 -84.5001 -44.1468 -44.1265
   -44.0929 -44.0554 -44.0535 -43.9273 -43.8942 -43.8155 -43.8052 -43.7857
   -43.7729 -43.7539 -43.7269 -43.7258 -43.6893 -43.6689 -43.6571 -43.6380
    -8.0757  -7.3607  -7.2877  -7.2404  -7.1345  -7.0432  -6.9435  -6.7725
    -6.7580  -6.6406  -6.5939  -6.5341  -6.3355  -6.2446  -5.9418  -5.8269
    -5.7993  -5.7915  -5.6919  -5.6051  -5.5566  -5.5159  -5.4116  -5.3572
    -5.2130  -5.1874  -5.0683  -5.0466  -5.0403  -4.9144  -4.7439  -4.1587
    -3.0294  -2.1019  -2.0769  -2.0605  -1.8532  -1.8108  -1.4604  -1.3727
    -1.1638  -1.0590  -0.7376  -0.6343  -0.1348  -0.0243  -0.0091   0.1174
     0.2846   0.7173   0.9402   1.0245   1.1599   1.3553   1.4318   1.5077
     1.6292   1.6358   1.6440   1.7954   1.8844   1.8990   1.9845   2.0809
     2.1471   2.4493   2.5905   2.6349   2.7399   2.8221   2.8622   3.8640
     4.0631   4.3070   4.7261   4.9045   4.9097   5.4739   5.7117   5.9274
     6.1338   6.4881   6.8626   7.1350   7.2749   7.5840   7.9169   8.7796
     9.0106   9.4499

[...]

          k =-0.0880-0.0476 0.0000 ( 18790 PWs)   bands (ev):

[...]

     the Fermi energy is     1.4891 ev

!    total energy              =   -1852.31616996 Ry
     Harris-Foulkes estimate   =   -1852.31616677 Ry
     estimated scf accuracy    <       0.00000081 Ry

     The total energy is the sum of the following terms:

     one-electron contribution =  -13765.76688645 Ry
     hartree contribution      =    6918.75497233 Ry
     xc contribution           =    -474.53156830 Ry
     ewald contribution        =    5469.31644732 Ry
     electric field correction =       0.00000000 Ry
     smearing contrib. (-TS)   =      -0.08913486 Ry

     convergence has been achieved in  17 iterations

 BEEF-vdW xc energy contributions
           1 :   -415.949089360949
           2 :    384.121837771559
           3 :   -328.229545578182
           4 :    260.877078138345
           5 :   -195.320571352195
           6 :    141.654934666861
           7 :   -104.564919954735
           8 :    83.1394457415069
[...]
     Davidson diagonalization with overlap
     c_bands:  1 eigenvalues not converged
     c_bands:  1 eigenvalues not converged
     ethr =  1.89E-06,  avg # of iterations =  5.3

[...]

     Found symmetry operation: I + ( -0.5000  0.0000  0.0000)
     This is a supercell, fractional translations are disabled

[...]

   This run was terminated on:   1: 4:31  19Dec2018

[...]

     Program PWSCF v.5.1rc2 (svn rev. 11289) starts on 19Dec2018 at  1: 4:37

[...]

     Program PWSCF v.5.1rc2 (svn rev. 11289) starts on 19Dec2018 at  1:46:37

     Current dimensions of program PWSCF are:
     Max number of different atomic species (ntypx) = 10
     Max number of k-points (npk) =  40000
     Max angular momentum in pseudopotentials (lmaxx) =  3
     Presently stress not available with electric field

     IMPORTANT: XC functional enforced from input :
     Exchange-correlation      = BEEF-VDW ( 1  4 27 13 2)
     Any further DFT definition will be discarded
     Please, verify this is what you really want

     Subspace diagonalization in iterative solution of the eigenvalue problem:
     a serial algorithm will be used

     bravais-lattice index     =            0
     lattice parameter (alat)  =       1.8897  a.u.
     unit-cell volume          =    4991.1842 (a.u.)^3
     number of atoms/cell      =           12
     number of atomic types    =            2
     number of electrons       =       168.00
     number of Kohn-Sham states=          114
     kinetic-energy cutoff     =      36.7493  Ry
     charge density cutoff     =     367.4932  Ry
     convergence threshold     =      1.0E-06
     mixing beta               =       0.1000
     number of iterations used =           10  plain     mixing
     Exchange-correlation      = BEEF-VDW ( 1  4 27 13 2)
     nstep                     =           50

     celldm(1)=   1.889726  celldm(2)=   0.000000  celldm(3)=   0.000000
     celldm(4)=   0.000000  celldm(5)=   0.000000  celldm(6)=   0.000000

     crystal axes: (cart. coord. in units of alat)
               a(1) = (   5.681364   0.000000   0.000000 )
               a(2) = (  -2.840682   5.253711   0.000000 )
               a(3) = (   0.000000   0.000000  24.779251 )

     reciprocal axes: (cart. coord. in units 2 pi/alat)
               b(1) = (  0.176014  0.095171  0.000000 )
               b(2) = (  0.000000  0.190342  0.000000 )
               b(3) = (  0.000000  0.000000  0.040356 )

     PseudoPot. # 1 for Os read from file:
     /afs/slac.stanford.edu/u/if/mamunm/psp/gbrv1.5pbe/Os.UPF
     MD5 check sum: a3fb40a04f0c37c25c34bbc47164c9a8
     Pseudo is Ultrasoft + core correction, Zval = 16.0
     Generated by new atomic code, or converted to UPF format
     Using radial grid of  983 points,  8 beta functions with:
                l(1) =   0
                l(2) =   0
                l(3) =   1
                l(4) =   1
                l(5) =   2
                l(6) =   2
                l(7) =   3
                l(8) =   3
     Q(r) pseudized with  8 coefficients,  rinner =    1.150   1.150   1.150
                                                       1.150   1.150   1.150
                                                       1.150

     PseudoPot. # 2 for Hg read from file:
     /afs/slac.stanford.edu/u/if/mamunm/psp/gbrv1.5pbe/Hg.UPF
     MD5 check sum: 8f42caffe07f7fd9c0a564347f8c5498
     Pseudo is Ultrasoft + core correction, Zval = 12.0
     Generated by new atomic code, or converted to UPF format
     Using radial grid of  985 points,  6 beta functions with:
                l(1) =   0
                l(2) =   0
                l(3) =   1
                l(4) =   1
                l(5) =   2
                l(6) =   2
     Q(r) pseudized with  8 coefficients,  rinner =    2.000   2.000   2.000
                                                       2.000   2.000

     vdW kernel table read from file vdW_kernel_table
     MD5 check sum: 095c7af220d748ca6e76c0b4c6cfb241

     atomic species   valence    mass     pseudopotential
        Os1           16.00   190.23000     Os( 1.00)
        Hg1           12.00   200.59200     Hg( 1.00)

     No symmetry found

   Cartesian axes

     site n.     atom                  positions (alat units)
         1           Os1 tau(   1) = (   0.0000000   0.0000000  10.0000000  )
         2           Os1 tau(   2) = (   2.8406820   0.0000000  10.0000000  )
         3           Hg1 tau(   3) = (   1.4203410   2.6268556  10.0000000  )
         4           Hg1 tau(   4) = (  -1.4203410   2.6268556  10.0000000  )
         5           Os1 tau(   5) = (   2.8406820   1.5359570  12.3896256  )
         6           Os1 tau(   6) = (   0.0000000   1.5359570  12.3896256  )
         7           Hg1 tau(   7) = (  -1.4203410   4.1628126  12.3896256  )
         8           Hg1 tau(   8) = (   1.4203410   4.1628126  12.3896256  )
         9           Os1 tau(   9) = (  -0.0000366   2.3075118  14.5375448  )
        10           Os1 tau(  10) = (   2.8407526   2.3076599  14.5376998  )
        11           Hg1 tau(  11) = (   1.4204620   5.0157413  15.4009052  )
        12           Hg1 tau(  12) = (  -1.4204460   5.0158377  15.4008992  )

     number of k points=    20  Fermi-Dirac smearing, width (Ry)=  0.0110
                       cart. coord. in units 2pi/alat
        k(    1) = (   0.0000000   0.0000000   0.0000000), wk =   0.0555556
        k(    2) = (   0.0000000   0.0317236   0.0000000), wk =   0.1111111
        k(    3) = (   0.0000000   0.0634472   0.0000000), wk =   0.1111111
        k(    4) = (   0.0000000  -0.0951708   0.0000000), wk =   0.0555556
        k(    5) = (   0.0293357   0.0158618   0.0000000), wk =   0.1111111
        k(    6) = (   0.0293357   0.0475854   0.0000000), wk =   0.1111111
        k(    7) = (   0.0293357   0.0793090   0.0000000), wk =   0.1111111
        k(    8) = (   0.0293357  -0.0793090   0.0000000), wk =   0.1111111
        k(    9) = (   0.0293357  -0.0475854   0.0000000), wk =   0.1111111
        k(   10) = (   0.0293357  -0.0158618   0.0000000), wk =   0.1111111
        k(   11) = (   0.0586714   0.0317236   0.0000000), wk =   0.1111111
        k(   12) = (   0.0586714   0.0634472   0.0000000), wk =   0.1111111
        k(   13) = (   0.0586714   0.0951708   0.0000000), wk =   0.1111111
        k(   14) = (   0.0586714  -0.0634472   0.0000000), wk =   0.1111111
        k(   15) = (   0.0586714  -0.0317236   0.0000000), wk =   0.1111111
        k(   16) = (   0.0586714   0.0000000   0.0000000), wk =   0.1111111
        k(   17) = (  -0.0880070  -0.0475854   0.0000000), wk =   0.0555556
        k(   18) = (  -0.0880070  -0.0158618   0.0000000), wk =   0.1111111
        k(   19) = (  -0.0880070   0.0158618   0.0000000), wk =   0.1111111
        k(   20) = (  -0.0880070  -0.1427562   0.0000000), wk =   0.0555556

     Largest allocated arrays     est. size (Mb)     dimensions
     Largest temporary arrays     est. size (Mb)     dimensions

     Initial potential from superposition of free atoms
     Check: negative starting charge=   -0.747861

     starting charge  164.99943, renormalised to  168.00000

[...]

     *
     * You are using vdW-DF for exchange-correlation in this calculation.
     * Please cite the following three references that made this development
     * possible:
     *
     *   M. Dion, H. Rydberg, E. Schroder, D. C. Langreth, and
     *   B. I. Lundqvist, Phys. Rev. Lett. 92, 246401 (2004).
     *
     *   T. Thonhauser, V. R. Cooper, S. Li, A. Puzder, P. Hyldgaard, and
     *   D. C. Langreth, Phys. Rev. B 76, 125112 (2007).
     *
     *   G. Roman-Perez and J. M. Soler, Phys. Rev. Lett. 103, 096102 (2009).
     *
     *
     * If you are using vdW-DF2, please also cite:
     *
     *   K. Lee, E. D. Murray, L. Kong, B. I. Lundqvist, and
     *   D. C. Langreth, Phys. Rev. B 82, 081101(R) (2010).
     *
     *
     * If you are calculating the stress with vdW-DF, please also cite:
     *
     *   R. Sabatini, E. Kucukbenli, B. Kolb, T. Thonhauser, and
     *   S. de Gironcoli, J. Phys.: Condens. Matter 24, 424209 (2012).
     *

     Carrying out vdW-DF run using the following parameters:

     Nqs =      20    Nr_points =    1024   r_max =   100.000
     q_mesh =
               0.00001000     0.04494208     0.09755937     0.15916263
               0.23128650     0.31572767     0.41458969     0.53033537
               0.66584808     0.82450364     1.01025438     1.22772762
               1.48234092     1.78043706     2.12944203     2.53805004
               3.01644009     3.57652955     4.23227104     5.00000000

     Gradients computed in reciprocal space

[...]

     Starting wfc are  132 randomized atomic wfcs

     Self-consistent Calculation

[...]

     total energy              =   -1852.48342782 Ry
     Harris-Foulkes estimate   =   -1852.48342686 Ry
     estimated scf accuracy    <       0.00000117 Ry

     iteration # 17     ecut=    36.75 Ry     beta=0.10
     Davidson diagonalization with overlap
     ethr =  6.98E-10,  avg # of iterations =  2.0

[...]

     negative rho (up, down):  7.218E-01 0.000E+00

     Adding external electric field

     Computed dipole along edir(3) :
        Dipole                0.1602 Ry au,          0.4072 Debye
        Dipole field          0.0004 Ry au

        Potential amp.       -0.0368 Ry
        Total length         45.6553 bohr

     End of self-consistent calculation

[...]

          k = 0.0587 0.0000 0.0000 ( 18735 PWs)   bands (ev):

[...]

          k =-0.0880-0.1428 0.0000 ( 18790 PWs)   bands (ev):

   -84.9356 -84.9355 -84.6870 -84.6869 -84.2248 -84.2247 -45.0191 -45.0183
   -44.0894 -44.0893 -44.0868 -44.0866 -43.8699 -43.8698 -43.8609 -43.8608
   -43.7209 -43.7208 -43.6067 -43.6066 -43.5262 -43.5262 -43.3712 -43.3711
    -6.5112  -6.5112  -6.3120  -6.3119  -6.1915  -6.1915  -6.0915  -6.0915
    -5.9137  -5.9136  -5.7744  -5.7744  -5.6786  -5.6785  -5.5693  -5.5693
    -5.3941  -5.3937  -5.3696  -5.3694  -5.3357  -5.3353  -5.2737  -5.2732
    -5.1699  -5.1698  -5.0895  -5.0893  -5.0347  -5.0346  -4.9187  -4.9185
    -3.7321  -3.7317  -2.8379  -2.8376  -2.4346  -2.4345  -2.0220  -2.0217
    -1.4387  -1.4387  -0.7978  -0.7974  -0.5020  -0.5019  -0.2345  -0.2345
     0.0650   0.0651   0.3591   0.3591   0.4975   0.4976   0.6336   0.6336
     0.8345   0.8346   1.1257   1.1258   1.6679   1.6681   2.1895   2.1896
     2.3803   2.3805   2.5558   2.5560   3.1430   3.1432   4.3640   4.3643
     4.7597   4.7598   6.2936   6.2936   6.5442   6.5443   7.2337   7.2338
     7.4197   7.4198   7.6050   7.6050   7.9450   7.9451   8.6504   8.6505
     8.8817   8.8817

     the Fermi energy is     1.7123 ev

!    total energy              =   -1852.48343064 Ry
     Harris-Foulkes estimate   =   -1852.48342832 Ry
     estimated scf accuracy    <       0.00000030 Ry

     The total energy is the sum of the following terms:

     one-electron contribution =  -13487.84824735 Ry
     hartree contribution      =    6780.17625297 Ry
     xc contribution           =    -474.56269172 Ry
     ewald contribution        =    5329.81470582 Ry
     electric field correction =       0.00006463 Ry
     smearing contrib. (-TS)   =      -0.06351499 Ry

     convergence has been achieved in  17 iterations

 BEEF-vdW xc energy contributions
           1 :   -415.965117131312
           2 :    384.020320940208
           3 :   -327.986208669853
           4 :    260.570138844039
           5 :   -195.053880838290
           6 :    141.462767102857
           7 :   -104.370426966154
           8 :    82.7980924027158
           9 :   -71.9417058433274
          10 :    65.8132043912617
          11 :   -59.6642771730577
          12 :    51.3129438927360
          13 :   -41.1088113752047
          14 :    30.8785051467837
          15 :   -22.5510859828349
          16 :    17.1286176809427
          17 :   -14.3679080192920
          18 :    13.1423122715426
          19 :   -12.1616615071792
          20 :    10.6189646631136
          21 :   -8.45296183220478
          22 :    6.16438242264877
          23 :   -4.37195604011697
          24 :    3.39421062567044
          25 :   -3.08176799709423
          26 :    2.95064431573746
          27 :   -2.50095521282998
          28 :    1.51706695411212
          29 :  -0.181552043435602
          30 :   -1.04809501619616
          31 :   -39.0015989538222
          32 :   -29.1813298625575

     Forces acting on atoms (Ry/au):

     negative rho (up, down):  7.218E-01 0.000E+00
     atom    1 type  1   force =     0.00000016    0.02500112    0.03713443
     atom    2 type  1   force =    -0.00000108    0.02500449    0.03714706
     atom    3 type  2   force =     0.00000017   -0.00863225   -0.05566764
     atom    4 type  2   force =    -0.00000017   -0.00863109   -0.05566706
     atom    5 type  1   force =    -0.00000000   -0.03636451   -0.00952150
     atom    6 type  1   force =     0.00000308   -0.03641437   -0.00963993
     atom    7 type  2   force =    -0.00000143    0.02020683    0.02735350
     atom    8 type  2   force =     0.00000050    0.02020334    0.02735540
     atom    9 type  1   force =    -0.00000516   -0.00053143    0.00043494
     atom   10 type  1   force =     0.00000278   -0.00062039    0.00030155
     atom   11 type  2   force =    -0.00006855    0.00038527    0.00038530
     atom   12 type  2   force =     0.00006970    0.00039300    0.00038396

     Total force =     0.124509     Total SCF correction =     0.002106

     entering subroutine stress ...

     negative rho (up, down):  7.218E-01 0.000E+00
          total   stress  (Ry/bohr**3)                   (kbar)     P=  -15.63
  -0.00015074  -0.00000000  -0.00000000        -22.17     -0.00     -0.00
  -0.00000000  -0.00019720  -0.00002869         -0.00    -29.01     -4.22
  -0.00000000  -0.00002869   0.00002913         -0.00     -4.22      4.29

 !ASE

     Writing output data file calc.save

     General routines

     Parallel routines

   This run was terminated on:   1:52:29  19Dec2018

   JOB DONE.
Job  /afs/slac/g/suncat/bin/suncat-tsmpirun -x LD_LIBRARY_PATH -wdir /scratch/qe530399_w2g1T pw.x -in pw.inp

TID   HOST_NAME   COMMAND_LINE            STATUS            TERMINATION_TIME
00000 suncat2056 pw.x -in pw.inp   Done                     12/19/2018 01:52:29
00001 suncat2056 pw.x -in pw.inp   Done                     12/19/2018 01:52:29
00002 suncat2056 pw.x -in pw.inp   Done                     12/19/2018 01:52:29
00003 suncat2056 pw.x -in pw.inp   Done                     12/19/2018 01:52:29
00004 suncat2056 pw.x -in pw.inp   Done                     12/19/2018 01:52:29
00005 suncat2056 pw.x -in pw.inp   Done                     12/19/2018 01:52:29
00006 suncat2056 pw.x -in pw.inp   Done                     12/19/2018 01:52:29
00007 suncat2056 pw.x -in pw.inp   Done                     12/19/2018 01:52:29
00008 suncat2056 pw.x -in pw.inp   Done                     12/19/2018 01:52:29
00009 suncat2056 pw.x -in pw.inp   Done                     12/19/2018 01:52:29
00010 suncat2056 pw.x -in pw.inp   Done                     12/19/2018 01:52:29
00011 suncat2056 pw.x -in pw.inp   Done                     12/19/2018 01:52:29
00012 suncat2056 pw.x -in pw.inp   Done                     12/19/2018 01:52:29
00013 suncat2056 pw.x -in pw.inp   Done                     12/19/2018 01:52:29
00014 suncat2056 pw.x -in pw.inp   Done                     12/19/2018 01:52:29
00015 suncat2056 pw.x -in pw.inp   Done                     12/19/2018 01:52:29
00016 suncat2055 pw.x -in pw.inp   Done                     12/19/2018 01:52:29
00017 suncat2055 pw.x -in pw.inp   Done                     12/19/2018 01:52:29
00018 suncat2055 pw.x -in pw.inp   Done                     12/19/2018 01:52:29
00019 suncat2055 pw.x -in pw.inp   Done                     12/19/2018 01:52:29
00020 suncat2055 pw.x -in pw.inp   Done                     12/19/2018 01:52:29
00021 suncat2055 pw.x -in pw.inp   Done                     12/19/2018 01:52:29
00022 suncat2055 pw.x -in pw.inp   Done                     12/19/2018 01:52:29
00023 suncat2055 pw.x -in pw.inp   Done                     12/19/2018 01:52:29
00024 suncat2055 pw.x -in pw.inp   Done                     12/19/2018 01:52:29
00025 suncat2055 pw.x -in pw.inp   Done                     12/19/2018 01:52:29
00026 suncat2055 pw.x -in pw.inp   Done                     12/19/2018 01:52:29
00027 suncat2055 pw.x -in pw.inp   Done                     12/19/2018 01:52:29
00028 suncat2055 pw.x -in pw.inp   Done                     12/19/2018 01:52:29
00029 suncat2055 pw.x -in pw.inp   Done                     12/19/2018 01:52:29
00030 suncat2055 pw.x -in pw.inp   Done                     12/19/2018 01:52:29
00031 suncat2055 pw.x -in pw.inp   Done                     12/19/2018 01:52:29