     Program PWSCF v.5.1rc2 (svn rev. 11289) starts on 19Dec2018 at  8:56:13

     Current dimensions of program PWSCF are:
     Max number of different atomic species (ntypx) = 10
     Max number of k-points (npk) =  40000
     Max angular momentum in pseudopotentials (lmaxx) =  3
     Presently stress not available with electric field

     IMPORTANT: XC functional enforced from input :
     Exchange-correlation      = BEEF-VDW ( 1  4 27 13 2)
     Any further DFT definition will be discarded
     Please, verify this is what you really want

     Subspace diagonalization in iterative solution of the eigenvalue problem:
     a serial algorithm will be used

     Found symmetry operation: I + (  0.5000  0.0000  0.0000)
     This is a supercell, fractional translations are disabled

     bravais-lattice index     =            0
     lattice parameter (alat)  =       1.8897  a.u.
     unit-cell volume          =    4438.7566 (a.u.)^3
     number of atoms/cell      =           12
     number of atomic types    =            2
     number of electrons       =       192.00
     number of Kohn-Sham states=          126
     kinetic-energy cutoff     =      36.7493  Ry
     charge density cutoff     =     367.4932  Ry
     convergence threshold     =      1.0E-06
     mixing beta               =       0.1000
     number of iterations used =           10  plain     mixing
     Exchange-correlation      = BEEF-VDW ( 1  4 27 13 2)
     nstep                     =           50

     celldm(1)=   1.889726  celldm(2)=   0.000000  celldm(3)=   0.000000
     celldm(4)=   0.000000  celldm(5)=   0.000000  celldm(6)=   0.000000

     crystal axes: (cart. coord. in units of alat)
               a(1) = (   5.551549   0.000000   0.000000 )
               a(2) = (  -2.775775   4.827678   0.000000 )
               a(3) = (   0.000000   0.000000  24.542132 )

     reciprocal axes: (cart. coord. in units 2 pi/alat)
               b(1) = (  0.180130  0.103569  0.000000 )
               b(2) = (  0.000000  0.207139  0.000000 )
               b(3) = (  0.000000  0.000000  0.040746 )

     PseudoPot. # 1 for Cu read from file:
     /afs/slac.stanford.edu/u/if/mamunm/psp/gbrv1.5pbe/Cu.UPF
     MD5 check sum: 6e991ff952a84172a2a52a1c1e996048
     Pseudo is Ultrasoft + core correction, Zval = 19.0
     Generated by new atomic code, or converted to UPF format
     Using radial grid of  867 points,  6 beta functions with:
                l(1) =   0
                l(2) =   0
                l(3) =   1
                l(4) =   1
                l(5) =   2
                l(6) =   2
     Q(r) pseudized with  8 coefficients,  rinner =    1.150   1.150   1.150
                                                       1.150   1.150

     PseudoPot. # 2 for Nb read from file:
     /afs/slac.stanford.edu/u/if/mamunm/psp/gbrv1.5pbe/Nb.UPF
     MD5 check sum: 573aab8a2fa660278ed4a62cd769473f
     Pseudo is Ultrasoft + core correction, Zval = 13.0
     Generated by new atomic code, or converted to UPF format
     Using radial grid of  887 points,  6 beta functions with:
                l(1) =   0
                l(2) =   0
                l(3) =   1
                l(4) =   1
                l(5) =   2
                l(6) =   2
     Q(r) pseudized with  6 coefficients,  rinner =    1.000   1.000   1.000
                                                       1.000   1.000

     vdW kernel table read from file vdW_kernel_table
     MD5 check sum: 095c7af220d748ca6e76c0b4c6cfb241

     atomic species   valence    mass     pseudopotential
        Cu1           19.00    63.54600     Cu( 1.00)
        Nb1           13.00    92.90637     Nb( 1.00)

     No symmetry found

   Cartesian axes

     site n.     atom                  positions (alat units)
         1           Cu1 tau(   1) = (   0.0000000   0.0000000  10.0000000  )
         2           Cu1 tau(   2) = (   2.7757745   0.0000000  10.0000000  )
         3           Nb1 tau(   3) = (   1.3878873   2.4138388  10.0000000  )
         4           Nb1 tau(   4) = (  -1.3878873   2.4138388  10.0000000  )
         5           Cu1 tau(   5) = (   2.7757745   1.5959898  12.2710660  )
         6           Cu1 tau(   6) = (   0.0000000   1.5959898  12.2710660  )
         7           Nb1 tau(   7) = (  -1.3878873   4.0098286  12.2710660  )
         8           Nb1 tau(   8) = (   1.3878873   4.0098286  12.2710660  )
         9           Cu1 tau(   9) = (   0.0000000   3.1919795  14.5421320  )
        10           Cu1 tau(  10) = (   2.7757745   3.1919795  14.5421320  )
        11           Nb1 tau(  11) = (   4.1636618   0.7781407  14.5421320  )
        12           Nb1 tau(  12) = (   1.3878873   0.7781407  14.5421320  )

     number of k points=    20  Fermi-Dirac smearing, width (Ry)=  0.0110
                       cart. coord. in units 2pi/alat
        k(    1) = (   0.0000000   0.0000000   0.0000000), wk =   0.0555556
        k(    2) = (   0.0000000   0.0345232   0.0000000), wk =   0.1111111
        k(    3) = (   0.0000000   0.0690463   0.0000000), wk =   0.1111111
        k(    4) = (   0.0000000  -0.1035695   0.0000000), wk =   0.0555556
        k(    5) = (   0.0300217   0.0172616   0.0000000), wk =   0.1111111
        k(    6) = (   0.0300217   0.0517847   0.0000000), wk =   0.1111111
        k(    7) = (   0.0300217   0.0863079   0.0000000), wk =   0.1111111
        k(    8) = (   0.0300217  -0.0863079   0.0000000), wk =   0.1111111
        k(    9) = (   0.0300217  -0.0517847   0.0000000), wk =   0.1111111
        k(   10) = (   0.0300217  -0.0172616   0.0000000), wk =   0.1111111
        k(   11) = (   0.0600433   0.0345232   0.0000000), wk =   0.1111111
        k(   12) = (   0.0600433   0.0690463   0.0000000), wk =   0.1111111
        k(   13) = (   0.0600433   0.1035695   0.0000000), wk =   0.1111111
        k(   14) = (   0.0600433  -0.0690463   0.0000000), wk =   0.1111111
        k(   15) = (   0.0600433  -0.0345232   0.0000000), wk =   0.1111111
        k(   16) = (   0.0600433   0.0000000   0.0000000), wk =   0.1111111
        k(   17) = (  -0.0900650  -0.0517847   0.0000000), wk =   0.0555556
        k(   18) = (  -0.0900650  -0.0172616   0.0000000), wk =   0.1111111
        k(   19) = (  -0.0900650   0.0172616   0.0000000), wk =   0.1111111
        k(   20) = (  -0.0900650  -0.1553542   0.0000000), wk =   0.0555556

     Largest allocated arrays     est. size (Mb)     dimensions
     Largest temporary arrays     est. size (Mb)     dimensions

     Initial potential from superposition of free atoms
     Check: negative starting charge=   -0.003641

     starting charge  185.98359, renormalised to  192.00000

     negative rho (up, down):  3.759E-03 0.000E+00

     *
     * You are using vdW-DF for exchange-correlation in this calculation.
     * Please cite the following three references that made this development
     * possible:
     *
     *   M. Dion, H. Rydberg, E. Schroder, D. C. Langreth, and
     *   B. I. Lundqvist, Phys. Rev. Lett. 92, 246401 (2004).
     *
     *   T. Thonhauser, V. R. Cooper, S. Li, A. Puzder, P. Hyldgaard, and
     *   D. C. Langreth, Phys. Rev. B 76, 125112 (2007).
     *
     *   G. Roman-Perez and J. M. Soler, Phys. Rev. Lett. 103, 096102 (2009).
     *
     *
     * If you are using vdW-DF2, please also cite:
     *
     *   K. Lee, E. D. Murray, L. Kong, B. I. Lundqvist, and
     *   D. C. Langreth, Phys. Rev. B 82, 081101(R) (2010).
     *
     *
     * If you are calculating the stress with vdW-DF, please also cite:
     *
     *   R. Sabatini, E. Kucukbenli, B. Kolb, T. Thonhauser, and
     *   S. de Gironcoli, J. Phys.: Condens. Matter 24, 424209 (2012).
     *

     Carrying out vdW-DF run using the following parameters:

     Nqs =      20    Nr_points =    1024   r_max =   100.000
     q_mesh =
               0.00001000     0.04494208     0.09755937     0.15916263
               0.23128650     0.31572767     0.41458969     0.53033537
               0.66584808     0.82450364     1.01025438     1.22772762
               1.48234092     1.78043706     2.12944203     2.53805004
               3.01644009     3.57652955     4.23227104     5.00000000

     Gradients computed in reciprocal space

     Adding external electric field

     Computed dipole along edir(3) :
        Dipole               -0.0000 Ry au,         -0.0000 Debye
        Dipole field         -0.0000 Ry au

        Potential amp.        0.0000 Ry
        Total length         45.2185 bohr

     Starting wfc are  156 randomized atomic wfcs

     Self-consistent Calculation

     iteration #  1     ecut=    36.75 Ry     beta=0.10
     Davidson diagonalization with overlap
     ethr =  1.00E-02,  avg # of iterations =  6.4

[...]

     total energy              =   -3141.52711614 Ry
     Harris-Foulkes estimate   =   -3142.74585167 Ry
     estimated scf accuracy    <       7.46791687 Ry

[...]

     iteration # 10     ecut=    36.75 Ry     beta=0.10
     Davidson diagonalization with overlap
     c_bands:  1 eigenvalues not converged
     ethr =  1.80E-06,  avg # of iterations =  4.8

[...]

     End of self-consistent calculation

          k = 0.0000 0.0000 0.0000 ( 16675 PWs)   bands (ev):

  -111.6136-111.6123-111.4399-111.4398-111.4386-111.4385 -69.0201 -69.0183
   -68.9857 -68.9657 -68.9636 -68.9620 -68.8864 -68.8862 -68.8847 -68.8845
   -68.8144 -68.8143 -68.7942 -68.7942 -68.7663 -68.7661 -68.7646 -68.7644
   -53.8527 -53.8417 -53.7127 -53.7030 -53.6135 -53.4730 -30.3015 -30.2733
   -30.1733 -30.1639 -30.0220 -29.9515 -29.9347 -29.8776 -29.8155 -29.8099
   -29.7437 -29.7250 -29.5756 -29.3126 -29.1937 -29.1705 -29.1577 -29.0482
    -5.4988  -4.0218  -3.4987  -3.3419  -3.2219  -2.8705  -2.7455  -2.6642
    -2.6502  -2.5612  -2.5596  -2.4918  -2.4766  -2.3677  -2.3643  -1.8746
    -1.8697  -1.7688  -1.7473  -1.7253  -1.6189  -1.5421  -1.5285  -1.5124
    -1.4701  -1.4392  -1.3586  -1.3426  -1.3123  -1.0865  -1.0289  -0.8195
    -0.6634  -0.2686  -0.2558  -0.1720  -0.0844  -0.0628   0.0585   0.2084
     0.5807   0.6881   0.7706   0.8406   1.1888   1.2843   1.5081   1.5963
     1.6983   2.0085   2.5340   2.5922   2.7214   2.7753   2.9004   3.2977
     3.3330   3.4499   3.6669   3.7160   4.2442   4.2713   4.4861   4.4915
     4.5704   4.6256   4.6605   5.0385   5.0893   5.1158   5.2912   5.4248
     5.4654   5.7629   5.8466   6.7243   6.9161   7.1661

[...]

          k =-0.0901-0.0518 0.0000 ( 16722 PWs)   bands (ev):

[...]

     the Fermi energy is     1.4127 ev

!    total energy              =   -3140.66555874 Ry
     Harris-Foulkes estimate   =   -3140.66554697 Ry
     estimated scf accuracy    <       0.00000031 Ry

     The total energy is the sum of the following terms:

     one-electron contribution =  -22092.35770426 Ry
     hartree contribution      =   11049.92104907 Ry
     xc contribution           =    -353.95061501 Ry
     ewald contribution        =    8255.78519801 Ry
     electric field correction =       0.00000000 Ry
     smearing contrib. (-TS)   =      -0.06348654 Ry

     convergence has been achieved in  17 iterations

 BEEF-vdW xc energy contributions
           1 :   -310.531899616532
           2 :    281.969058154960
[...]
00028 suncat0167 pw.x -in pw.inp   Done                     12/19/2018 09:11:12
00029 suncat0167 pw.x -in pw.inp   Done                     12/19/2018 09:11:12
00030 suncat0167 pw.x -in pw.inp   Done                     12/19/2018 09:11:12
00031 suncat0167 pw.x -in pw.inp   Done                     12/19/2018 09:11:12

[...]

     Program PWSCF v.5.1rc2 (svn rev. 11289) starts on 19Dec2018 at  9:26:34

     Current dimensions of program PWSCF are:
     Max number of different atomic species (ntypx) = 10
     Max number of k-points (npk) =  40000
     Max angular momentum in pseudopotentials (lmaxx) =  3
     Presently stress not available with electric field

     IMPORTANT: XC functional enforced from input :
     Exchange-correlation      = BEEF-VDW ( 1  4 27 13 2)
     Any further DFT definition will be discarded
     Please, verify this is what you really want

     Subspace diagonalization in iterative solution of the eigenvalue problem:
     a serial algorithm will be used

     Found symmetry operation: I + (  0.5000  0.0000  0.0000)
     This is a supercell, fractional translations are disabled

     bravais-lattice index     =            0
     lattice parameter (alat)  =       1.8897  a.u.
     unit-cell volume          =    4438.7566 (a.u.)^3
     number of atoms/cell      =           12
     number of atomic types    =            2
     number of electrons       =       192.00
     number of Kohn-Sham states=          126
     kinetic-energy cutoff     =      36.7493  Ry
     charge density cutoff     =     367.4932  Ry
     convergence threshold     =      1.0E-06
     mixing beta               =       0.1000
     number of iterations used =           10  plain     mixing
     Exchange-correlation      = BEEF-VDW ( 1  4 27 13 2)
     nstep                     =           50

     celldm(1)=   1.889726  celldm(2)=   0.000000  celldm(3)=   0.000000
     celldm(4)=   0.000000  celldm(5)=   0.000000  celldm(6)=   0.000000

     crystal axes: (cart. coord. in units of alat)
               a(1) = (   5.551549   0.000000   0.000000 )
               a(2) = (  -2.775775   4.827678   0.000000 )
               a(3) = (   0.000000   0.000000  24.542132 )

     reciprocal axes: (cart. coord. in units 2 pi/alat)
               b(1) = (  0.180130  0.103569  0.000000 )
               b(2) = (  0.000000  0.207139  0.000000 )
               b(3) = (  0.000000  0.000000  0.040746 )

     PseudoPot. # 1 for Cu read from file:
     /afs/slac.stanford.edu/u/if/mamunm/psp/gbrv1.5pbe/Cu.UPF
     MD5 check sum: 6e991ff952a84172a2a52a1c1e996048
     Pseudo is Ultrasoft + core correction, Zval = 19.0
     Generated by new atomic code, or converted to UPF format
     Using radial grid of  867 points,  6 beta functions with:
                l(1) =   0
                l(2) =   0
                l(3) =   1
                l(4) =   1
                l(5) =   2
                l(6) =   2
     Q(r) pseudized with  8 coefficients,  rinner =    1.150   1.150   1.150
                                                       1.150   1.150

     PseudoPot. # 2 for Nb read from file:
     /afs/slac.stanford.edu/u/if/mamunm/psp/gbrv1.5pbe/Nb.UPF
     MD5 check sum: 573aab8a2fa660278ed4a62cd769473f
     Pseudo is Ultrasoft + core correction, Zval = 13.0
     Generated by new atomic code, or converted to UPF format
     Using radial grid of  887 points,  6 beta functions with:
                l(1) =   0
                l(2) =   0
                l(3) =   1
                l(4) =   1
                l(5) =   2
                l(6) =   2
     Q(r) pseudized with  6 coefficients,  rinner =    1.000   1.000   1.000
                                                       1.000   1.000

     vdW kernel table read from file vdW_kernel_table
     MD5 check sum: 095c7af220d748ca6e76c0b4c6cfb241

     atomic species   valence    mass     pseudopotential
        Cu1           19.00    63.54600     Cu( 1.00)
        Nb1           13.00    92.90637     Nb( 1.00)

     No symmetry found

   Cartesian axes

     site n.     atom                  positions (alat units)
         1           Cu1 tau(   1) = (   0.0000000   0.0000000  10.0000000  )
         2           Cu1 tau(   2) = (   2.7757745   0.0000000  10.0000000  )
         3           Nb1 tau(   3) = (   1.3878873   2.4138388  10.0000000  )
         4           Nb1 tau(   4) = (  -1.3878873   2.4138388  10.0000000  )
         5           Cu1 tau(   5) = (   2.7757745   1.5959898  12.2710660  )
         6           Cu1 tau(   6) = (   0.0000000   1.5959898  12.2710660  )
         7           Nb1 tau(   7) = (  -1.3878873   4.0098286  12.2710660  )
         8           Nb1 tau(   8) = (   1.3878873   4.0098286  12.2710660  )
         9           Cu1 tau(   9) = (  -0.0000102   3.1777768  14.5354038  )
        10           Cu1 tau(  10) = (   2.7757904   3.1777647  14.5353980  )
        11           Nb1 tau(  11) = (   4.1636597   0.7803715  14.4498051  )
        12           Nb1 tau(  12) = (   1.3878871   0.7803816  14.4498034  )

     number of k points=    20  Fermi-Dirac smearing, width (Ry)=  0.0110
                       cart. coord. in units 2pi/alat
        k(    1) = (   0.0000000   0.0000000   0.0000000), wk =   0.0555556
        k(    2) = (   0.0000000   0.0345232   0.0000000), wk =   0.1111111
        k(    3) = (   0.0000000   0.0690463   0.0000000), wk =   0.1111111
        k(    4) = (   0.0000000  -0.1035695   0.0000000), wk =   0.0555556
        k(    5) = (   0.0300217   0.0172616   0.0000000), wk =   0.1111111
        k(    6) = (   0.0300217   0.0517847   0.0000000), wk =   0.1111111
        k(    7) = (   0.0300217   0.0863079   0.0000000), wk =   0.1111111
        k(    8) = (   0.0300217  -0.0863079   0.0000000), wk =   0.1111111
        k(    9) = (   0.0300217  -0.0517847   0.0000000), wk =   0.1111111
        k(   10) = (   0.0300217  -0.0172616   0.0000000), wk =   0.1111111
        k(   11) = (   0.0600433   0.0345232   0.0000000), wk =   0.1111111
        k(   12) = (   0.0600433   0.0690463   0.0000000), wk =   0.1111111
        k(   13) = (   0.0600433   0.1035695   0.0000000), wk =   0.1111111
        k(   14) = (   0.0600433  -0.0690463   0.0000000), wk =   0.1111111
        k(   15) = (   0.0600433  -0.0345232   0.0000000), wk =   0.1111111
        k(   16) = (   0.0600433   0.0000000   0.0000000), wk =   0.1111111
        k(   17) = (  -0.0900650  -0.0517847   0.0000000), wk =   0.0555556
        k(   18) = (  -0.0900650  -0.0172616   0.0000000), wk =   0.1111111
        k(   19) = (  -0.0900650   0.0172616   0.0000000), wk =   0.1111111
        k(   20) = (  -0.0900650  -0.1553542   0.0000000), wk =   0.0555556

     Largest allocated arrays     est. size (Mb)     dimensions
     Largest temporary arrays     est. size (Mb)     dimensions

     Initial potential from superposition of free atoms
     Check: negative starting charge=   -0.003725

     starting charge  185.98359, renormalised to  192.00000

[...]

     *
     * You are using vdW-DF for exchange-correlation in this calculation.
     * Please cite the following three references that made this development
     * possible:
     *
     *   M. Dion, H. Rydberg, E. Schroder, D. C. Langreth, and
     *   B. I. Lundqvist, Phys. Rev. Lett. 92, 246401 (2004).
     *
     *   T. Thonhauser, V. R. Cooper, S. Li, A. Puzder, P. Hyldgaard, and
     *   D. C. Langreth, Phys. Rev. B 76, 125112 (2007).
     *
     *   G. Roman-Perez and J. M. Soler, Phys. Rev. Lett. 103, 096102 (2009).
     *
     *
     * If you are using vdW-DF2, please also cite:
     *
     *   K. Lee, E. D. Murray, L. Kong, B. I. Lundqvist, and
     *   D. C. Langreth, Phys. Rev. B 82, 081101(R) (2010).
     *
     *
     * If you are calculating the stress with vdW-DF, please also cite:
     *
     *   R. Sabatini, E. Kucukbenli, B. Kolb, T. Thonhauser, and
     *   S. de Gironcoli, J. Phys.: Condens. Matter 24, 424209 (2012).
     *

     Carrying out vdW-DF run using the following parameters:

     Nqs =      20    Nr_points =    1024   r_max =   100.000
     q_mesh =
               0.00001000     0.04494208     0.09755937     0.15916263
               0.23128650     0.31572767     0.41458969     0.53033537
               0.66584808     0.82450364     1.01025438     1.22772762
               1.48234092     1.78043706     2.12944203     2.53805004
               3.01644009     3.57652955     4.23227104     5.00000000

     Gradients computed in reciprocal space

[...]

     Starting wfc are  156 randomized atomic wfcs

     Self-consistent Calculation

[...]

     total energy              =   -3140.66900061 Ry
     Harris-Foulkes estimate   =   -3140.66899769 Ry
     estimated scf accuracy    <       0.00000240 Ry

     iteration # 17     ecut=    36.75 Ry     beta=0.10
     Davidson diagonalization with overlap
     ethr =  1.25E-09,  avg # of iterations =  2.0

[...]

     negative rho (up, down):  3.463E-03 0.000E+00

     Adding external electric field

     Computed dipole along edir(3) :
        Dipole               -0.0104 Ry au,         -0.0263 Debye
        Dipole field         -0.0000 Ry au

        Potential amp.        0.0027 Ry
        Total length         45.2185 bohr

     End of self-consistent calculation

[...]

          k = 0.0600 0.0000 0.0000 ( 16668 PWs)   bands (ev):

[...]

          k =-0.0901-0.1554 0.0000 ( 16722 PWs)   bands (ev):

  -111.7063-111.7063-111.4635-111.4635-111.4521-111.4521 -69.1115 -69.1115
   -69.0669 -69.0669 -69.0582 -69.0582 -68.9093 -68.9092 -68.9024 -68.9024
   -68.8285 -68.8284 -68.8206 -68.8206 -68.7909 -68.7909 -68.7732 -68.7732
   -53.8134 -53.8134 -53.7518 -53.7518 -53.5391 -53.5391 -30.1577 -30.1577
   -29.9115 -29.9115 -29.8669 -29.8669 -29.8235 -29.8235 -29.7772 -29.7772
   -29.7374 -29.7374 -29.6465 -29.6465 -29.6250 -29.6250 -29.2134 -29.2134
    -3.9546  -3.9546  -2.8628  -2.8628  -2.6103  -2.6103  -2.3957  -2.3957
    -2.3098  -2.3098  -2.1818  -2.1818  -2.0654  -2.0654  -2.0386  -2.0386
    -1.8771  -1.8771  -1.7412  -1.7412  -1.6706  -1.6706  -1.5923  -1.5923
    -1.5727  -1.5726  -1.5434  -1.5434  -1.5151  -1.5151  -1.4230  -1.4230
    -1.3476  -1.3476  -0.5930  -0.5930  -0.2306  -0.2306   0.1136   0.1136
     0.6790   0.6790   0.7624   0.7624   1.2359   1.2359   1.3164   1.3164
     1.6678   1.6678   1.7886   1.7886   1.9158   1.9158   2.1295   2.1295
     2.5118   2.5118   3.2872   3.2873   3.6111   3.6111   3.7757   3.7757
     4.3891   4.3891   4.9034   4.9034   5.3522   5.3522   5.8510   5.8510
     6.7163   6.7163   7.1294   7.1294   7.2696   7.2696

     the Fermi energy is     1.3980 ev

!    total energy              =   -3140.66901285 Ry
     Harris-Foulkes estimate   =   -3140.66900099 Ry
     estimated scf accuracy    <       0.00000029 Ry

     The total energy is the sum of the following terms:

     one-electron contribution =  -22213.43293317 Ry
     hartree contribution      =   11110.25760105 Ry
     xc contribution           =    -354.03904584 Ry
     ewald contribution        =    8316.60745607 Ry
     electric field correction =       0.00000030 Ry
     smearing contrib. (-TS)   =      -0.06209127 Ry

     convergence has been achieved in  17 iterations

 BEEF-vdW xc energy contributions
           1 :   -310.622740814977
           2 :    282.094714732488
           3 :   -233.508892589283
           4 :    177.959755618426
           5 :   -127.749370434511
           6 :    90.0499156198561
           7 :   -65.5489681618757
           8 :    50.1928756264333
           9 :   -38.6175251273415
          10 :    27.2133170305904
          11 :   -15.3699430852799
          12 :    4.68094486010551
          13 :    2.93236178744695
          14 :   -6.82576059085295
          15 :    8.03771094066207
          16 :   -8.48605262153217
          17 :    9.68732544768073
          18 :   -11.9189843834297
          19 :    14.3050086473694
          20 :   -15.6421318921469
          21 :    15.3144829972717
          22 :   -13.6790689913477
          23 :    11.7301460345099
          24 :   -10.3656295522615
          25 :    9.80505358491695
          26 :   -9.54867251996581
          27 :    8.84839113700690
          28 :   -7.31432849208778
          29 :    5.21575204192453
          30 :   -3.28720660588027
          31 :   -28.1745027452017
          32 :   -20.0862107717448

     Forces acting on atoms (Ry/au):

     negative rho (up, down):  3.463E-03 0.000E+00
     atom    1 type  1   force =     0.00000135    0.00319453   -0.00029533
     atom    2 type  1   force =    -0.00000184    0.00319612   -0.00029815
     atom    3 type  2   force =    -0.00000021   -0.00035918    0.01907084
     atom    4 type  2   force =    -0.00000013   -0.00035899    0.01907075
     atom    5 type  1   force =     0.00000322    0.00239322   -0.01073407
     atom    6 type  1   force =    -0.00000203    0.00238685   -0.01073382
     atom    7 type  2   force =     0.00000032   -0.00582808   -0.00865247
     atom    8 type  2   force =     0.00000002   -0.00582935   -0.00865211
     atom    9 type  1   force =     0.00000189    0.00045726   -0.00106297
     atom   10 type  1   force =    -0.00000354    0.00046279   -0.00106592
     atom   11 type  2   force =     0.00000090    0.00014214    0.00167681
     atom   12 type  2   force =     0.00000006    0.00014268    0.00167643

     Total force =     0.034873     Total SCF correction =     0.001858

     entering subroutine stress ...

     negative rho (up, down):  3.463E-03 0.000E+00
          total   stress  (Ry/bohr**3)                   (kbar)     P=  -17.83
  -0.00017421   0.00000000  -0.00000000        -25.63      0.00     -0.00
   0.00000000  -0.00011740  -0.00000536          0.00    -17.27     -0.79
  -0.00000000  -0.00000536  -0.00007210         -0.00     -0.79    -10.61

 !ASE

     Writing output data file calc.save

     General routines

     Parallel routines

   This run was terminated on:   9:41:31  19Dec2018

   JOB DONE.
Job  /afs/slac/g/suncat/bin/suncat-tsmpirun -x LD_LIBRARY_PATH -wdir /scratch/qe529795_t6qmX pw.x -in pw.inp

TID   HOST_NAME   COMMAND_LINE            STATUS            TERMINATION_TIME
00000 suncat0171 pw.x -in pw.inp   Done                     12/19/2018 09:41:31
00001 suncat0171 pw.x -in pw.inp   Done                     12/19/2018 09:41:31
00002 suncat0171 pw.x -in pw.inp   Done                     12/19/2018 09:41:31
00003 suncat0171 pw.x -in pw.inp   Done                     12/19/2018 09:41:31
00004 suncat0171 pw.x -in pw.inp   Done                     12/19/2018 09:41:31
00005 suncat0171 pw.x -in pw.inp   Done                     12/19/2018 09:41:31
00006 suncat0171 pw.x -in pw.inp   Done                     12/19/2018 09:41:31
00007 suncat0171 pw.x -in pw.inp   Done                     12/19/2018 09:41:31
00008 suncat0169 pw.x -in pw.inp   Done                     12/19/2018 09:41:31
00009 suncat0169 pw.x -in pw.inp   Done                     12/19/2018 09:41:31
00010 suncat0169 pw.x -in pw.inp   Done                     12/19/2018 09:41:31
00011 suncat0169 pw.x -in pw.inp   Done                     12/19/2018 09:41:31
00012 suncat0169 pw.x -in pw.inp   Done                     12/19/2018 09:41:31
00013 suncat0169 pw.x -in pw.inp   Done                     12/19/2018 09:41:31
00014 suncat0169 pw.x -in pw.inp   Done                     12/19/2018 09:41:31
00015 suncat0169 pw.x -in pw.inp   Done                     12/19/2018 09:41:31
00016 suncat0168 pw.x -in pw.inp   Done                     12/19/2018 09:41:31
00017 suncat0168 pw.x -in pw.inp   Done                     12/19/2018 09:41:31
00018 suncat0168 pw.x -in pw.inp   Done                     12/19/2018 09:41:31
00019 suncat0168 pw.x -in pw.inp   Done                     12/19/2018 09:41:31
00020 suncat0168 pw.x -in pw.inp   Done                     12/19/2018 09:41:31
00021 suncat0168 pw.x -in pw.inp   Done                     12/19/2018 09:41:31
00022 suncat0168 pw.x -in pw.inp   Done                     12/19/2018 09:41:31
00023 suncat0168 pw.x -in pw.inp   Done                     12/19/2018 09:41:31
00024 suncat0167 pw.x -in pw.inp   Done                     12/19/2018 09:41:31
00025 suncat0167 pw.x -in pw.inp   Done                     12/19/2018 09:41:31
00026 suncat0167 pw.x -in pw.inp   Done                     12/19/2018 09:41:31
00027 suncat0167 pw.x -in pw.inp   Done                     12/19/2018 09:41:31
00028 suncat0167 pw.x -in pw.inp   Done                     12/19/2018 09:41:31
00029 suncat0167 pw.x -in pw.inp   Done                     12/19/2018 09:41:31
00030 suncat0167 pw.x -in pw.inp   Done                     12/19/2018 09:41:31
00031 suncat0167 pw.x -in pw.inp   Done                     12/19/2018 09:41:31