     Program PWSCF v.5.1rc2 (svn rev. 11289) starts on 28Dec2018 at  4:32:11

     Current dimensions of program PWSCF are:
     Max number of different atomic species (ntypx) = 10
     Max number of k-points (npk) =  40000
     Max angular momentum in pseudopotentials (lmaxx) =  3
     Presently stress not available with electric field

     IMPORTANT: XC functional enforced from input :
     Exchange-correlation      = BEEF-VDW ( 1  4 27 13 2)
     Any further DFT definition will be discarded
     Please, verify this is what you really want

     Subspace diagonalization in iterative solution of the eigenvalue problem:
     a serial algorithm will be used

     bravais-lattice index     =            0
     lattice parameter (alat)  =       1.8897  a.u.
     unit-cell volume          =    7912.4840 (a.u.)^3
     number of atoms/cell      =           12
     number of atomic types    =            2
     number of electrons       =       144.00
     number of Kohn-Sham states=          102
     kinetic-energy cutoff     =      36.7493  Ry
     charge density cutoff     =     367.4932  Ry
     convergence threshold     =      1.0E-06
     mixing beta               =       0.1000
     number of iterations used =           10  plain     mixing
     Exchange-correlation      = BEEF-VDW ( 1  4 27 13 2)
     nstep                     =           50

     celldm(1)=   1.889726  celldm(2)=   0.000000  celldm(3)=   0.000000
     celldm(4)=   0.000000  celldm(5)=   0.000000  celldm(6)=   0.000000

     crystal axes: (cart. coord. in units of alat)
               a(1) = (   7.024067   0.000000   0.000000 )
               a(2) = (   2.741277   6.467064   0.000000 )
               a(3) = (   0.000000   0.000000  25.811930 )

     reciprocal axes: (cart. coord. in units 2 pi/alat)
               b(1) = (  0.142368 -0.060347  0.000000 )
               b(2) = (  0.000000  0.154630  0.000000 )
               b(3) = (  0.000000  0.000000  0.038742 )

     PseudoPot. # 1 for La read from file:
     /afs/slac.stanford.edu/u/if/mamunm/psp/gbrv1.5pbe/La.UPF
     MD5 check sum: 5937b0c7494ba0601a847275249473aa
     Pseudo is Ultrasoft + core correction, Zval = 11.0
     Generated by new atomic code, or converted to UPF format
     Using radial grid of  995 points,  8 beta functions with:
                l(1) =   0
                l(2) =   0
                l(3) =   1
                l(4) =   1
                l(5) =   2
                l(6) =   2
                l(7) =   3
                l(8) =   3
     Q(r) pseudized with  8 coefficients,  rinner =    1.700   1.700   1.700
                                                       1.700   1.700   1.700
                                                       1.700

     PseudoPot. # 2 for Tl read from file:
     /afs/slac.stanford.edu/u/if/mamunm/psp/gbrv1.5pbe/Tl.UPF
     MD5 check sum: b76cf1f7e72655a2b2c53cf6385d7059
     Pseudo is Ultrasoft + core correction, Zval = 13.0
     Generated by new atomic code, or converted to UPF format
     Using radial grid of  899 points,  6 beta functions with:
                l(1) =   0
                l(2) =   0
                l(3) =   1
                l(4) =   1
                l(5) =   2
                l(6) =   2
     Q(r) pseudized with  6 coefficients,  rinner =    1.100   1.100   1.100
                                                       1.100   1.100

     vdW kernel table read from file vdW_kernel_table
     MD5 check sum: 095c7af220d748ca6e76c0b4c6cfb241

     atomic species   valence    mass     pseudopotential
        La1           11.00   138.90547     La( 1.00)
        Tl1           13.00   204.38000     Tl( 1.00)

     No symmetry found

   Cartesian axes

     site n.     atom                  positions (alat units)
         1           La1 tau(   1) = (   0.0000000   0.0000000  10.0000000  )
         2           La1 tau(   2) = (   4.8826716   3.2335319  10.0000000  )
         3           Tl1 tau(   3) = (   3.5120333   0.0000000  10.0000000  )
         4           Tl1 tau(   4) = (   1.3706383   3.2335319  10.0000000  )
         5           La1 tau(   5) = (   7.0240666   4.6516632  12.9059650  )
         6           La1 tau(   6) = (   2.1413950   1.4181312  12.9059650  )
         7           Tl1 tau(   7) = (   3.5120333   4.6516632  12.9059650  )
         8           Tl1 tau(   8) = (   5.6534283   1.4181312  12.9059650  )
         9           La1 tau(   9) = (   4.0870100   2.7066654  15.6962496  )
        10           La1 tau(  10) = (   8.9672708   5.9385419  15.6957352  )
        11           Tl1 tau(  11) = (   7.5501745   2.6725495  15.8623715  )
        12           Tl1 tau(  12) = (   5.4071804   5.9084736  15.8622768  )

     number of k points=    20  Fermi-Dirac smearing, width (Ry)=  0.0110
                       cart. coord. in units 2pi/alat
        k(    1) = (   0.0000000   0.0000000   0.0000000), wk =   0.0555556
        k(    2) = (   0.0000000   0.0257716   0.0000000), wk =   0.1111111
        k(    3) = (   0.0000000   0.0515432   0.0000000), wk =   0.1111111
        k(    4) = (   0.0000000  -0.0773148   0.0000000), wk =   0.0555556
        k(    5) = (   0.0237279  -0.0100579   0.0000000), wk =   0.1111111
        k(    6) = (   0.0237279   0.0157137   0.0000000), wk =   0.1111111
        k(    7) = (   0.0237279   0.0414854   0.0000000), wk =   0.1111111
        k(    8) = (   0.0237279  -0.0873727   0.0000000), wk =   0.1111111
        k(    9) = (   0.0237279  -0.0616011   0.0000000), wk =   0.1111111
        k(   10) = (   0.0237279  -0.0358295   0.0000000), wk =   0.1111111
        k(   11) = (   0.0474559  -0.0201157   0.0000000), wk =   0.1111111
        k(   12) = (   0.0474559   0.0056559   0.0000000), wk =   0.1111111
        k(   13) = (   0.0474559   0.0314275   0.0000000), wk =   0.1111111
        k(   14) = (   0.0474559  -0.0974306   0.0000000), wk =   0.1111111
        k(   15) = (   0.0474559  -0.0716590   0.0000000), wk =   0.1111111
        k(   16) = (   0.0474559  -0.0458873   0.0000000), wk =   0.1111111
        k(   17) = (  -0.0711838   0.0301736   0.0000000), wk =   0.0555556
        k(   18) = (  -0.0711838   0.0559452   0.0000000), wk =   0.1111111
        k(   19) = (  -0.0711838   0.0817168   0.0000000), wk =   0.1111111
        k(   20) = (  -0.0711838  -0.0471412   0.0000000), wk =   0.0555556

     Largest allocated arrays     est. size (Mb)     dimensions
     Largest temporary arrays     est. size (Mb)     dimensions

     Check: negative/imaginary core charge=   -0.000001    0.000000

     Initial potential from superposition of free atoms
     Check: negative starting charge=   -0.725453

     starting charge  143.77839, renormalised to  144.00000

     negative rho (up, down):  7.266E-01 0.000E+00

     *
     * You are using vdW-DF for exchange-correlation in this calculation.
     * Please cite the following three references that made this development
     * possible:
     *
     *   M. Dion, H. Rydberg, E. Schroder, D. C. Langreth, and
     *   B. I. Lundqvist, Phys. Rev. Lett. 92, 246401 (2004).
     *
     *   T. Thonhauser, V. R. Cooper, S. Li, A. Puzder, P. Hyldgaard, and
     *   D. C. Langreth, Phys. Rev. B 76, 125112 (2007).
     *
     *   G. Roman-Perez and J. M. Soler, Phys. Rev. Lett. 103, 096102 (2009).
     *
     *
     * If you are using vdW-DF2, please also cite:
     *
     *   K. Lee, E. D. Murray, L. Kong, B. I. Lundqvist, and
     *   D. C. Langreth, Phys. Rev. B 82, 081101(R) (2010).
     *
     *
     * If you are calculating the stress with vdW-DF, please also cite:
     *
     *   R. Sabatini, E. Kucukbenli, B. Kolb, T. Thonhauser, and
     *   S. de Gironcoli, J. Phys.: Condens. Matter 24, 424209 (2012).
     *

     Carrying out vdW-DF run using the following parameters:

     Nqs =      20    Nr_points =    1024   r_max =   100.000
     q_mesh =
               0.00001000     0.04494208     0.09755937     0.15916263
               0.23128650     0.31572767     0.41458969     0.53033537
               0.66584808     0.82450364     1.01025438     1.22772762
               1.48234092     1.78043706     2.12944203     2.53805004
               3.01644009     3.57652955     4.23227104     5.00000000

     Gradients computed in reciprocal space

     Adding external electric field

     Computed dipole along edir(3) :
        Dipole               -0.0095 Ry au,         -0.0242 Debye
        Dipole field         -0.0000 Ry au

        Potential amp.        0.0014 Ry
        Total length         47.5580 bohr

     Starting wfc are  174 randomized atomic wfcs

     Self-consistent Calculation

     iteration #  1     ecut=    36.75 Ry     beta=0.10
     Davidson diagonalization with overlap
     ethr =  1.00E-02,  avg # of iterations =  1.0

[...]

     total energy              =   -1504.70137648 Ry
     Harris-Foulkes estimate   =   -1505.46714518 Ry
     estimated scf accuracy    <       4.24042246 Ry

[...]

     iteration #  8     ecut=    36.75 Ry     beta=0.10
     Davidson diagonalization with overlap
     c_bands:  2 eigenvalues not converged
     ethr =  1.89E-05,  avg # of iterations =  8.9

[...]

     End of self-consistent calculation

          k = 0.0000 0.0000 0.0000 ( 29757 PWs)   bands (ev):

   -32.3363 -32.2957 -32.2724 -32.2314 -31.9533 -31.9124 -16.0912 -16.0568
   -16.0460 -15.9998 -15.9787 -15.9121 -15.8980 -15.8513 -15.8492 -15.8050
   -15.7967 -15.5712 -15.5507 -15.5216 -15.4655 -15.4420 -15.3765 -15.2666
   -10.1907 -10.1771 -10.1562 -10.1548 -10.1321 -10.1263 -10.1179 -10.1179
   -10.1161 -10.1081 -10.1022 -10.1002 -10.0930 -10.0851 -10.0805 -10.0771
   -10.0634 -10.0586 -10.0539 -10.0492 -10.0443 -10.0403 -10.0345 -10.0330
   -10.0026 -10.0022  -9.9556  -9.9493  -9.9320  -9.8993  -5.9391  -5.1985
    -4.7621  -4.6461  -4.2043  -4.0228   0.1201   0.3020   0.3580   0.4429
     0.5740   0.8423   0.9882   1.0057   1.1367   1.2067   1.5384   1.5953
     1.7713   1.7919   1.8274   1.8807   1.9590   2.0722   2.1639   2.3908
     2.4297   2.4898   2.5283   2.5344   2.5641   2.5960   2.6009   2.6083
     2.6110   2.6150   2.6458   2.6488   2.6572   2.6888   2.6956   2.6973
     2.7049   2.7053   2.7160   2.7261   2.7485   2.7500

[...]

          k =-0.0712 0.0302 0.0000 ( 29764 PWs)   bands (ev):

[...]

     the Fermi energy is     1.4388 ev

!    total energy              =   -1505.14859295 Ry
     Harris-Foulkes estimate   =   -1505.14863007 Ry
     estimated scf accuracy    <       0.00000072 Ry

     The total energy is the sum of the following terms:

     one-electron contribution =   -6152.21936688 Ry
     hartree contribution      =    3122.55705407 Ry
     xc contribution           =    -688.23678391 Ry
     ewald contribution        =    2212.83719789 Ry
     electric field correction =       0.00000398 Ry
     smearing contrib. (-TS)   =      -0.08669809 Ry

     convergence has been achieved in  19 iterations

 BEEF-vdW xc energy contributions
           1 :   -611.857438999398
           2 :    565.868102313059
           3 :   -484.704000920207
           4 :    385.854889787287
           5 :   -287.549749629420
           6 :    203.571500359472
           7 :   -140.603444656239
[...]
                l(5) =   2
                l(6) =   2
                l(7) =   3
                l(8) =   3
     Q(r) pseudized with  8 coefficients,  rinner =    1.700   1.700   1.700
                                                       1.700   1.700   1.700
                                                       1.700

     PseudoPot. # 2 for Tl read from file:
     /afs/slac.stanford.edu/u/if/mamunm/psp/gbrv1.5pbe/Tl.UPF
     MD5 check sum: b76cf1f7e72655a2b2c53cf6385d7059
     Pseudo is Ultrasoft + core correction, Zval = 13.0
     Generated by new atomic code, or converted to UPF format
     Using radial grid of  899 points,  6 beta functions with:
                l(1) =   0
                l(2) =   0
                l(3) =   1
                l(4) =   1
                l(5) =   2
                l(6) =   2
     Q(r) pseudized with  6 coefficients,  rinner =    1.100   1.100   1.100
                                                       1.100   1.100

     vdW kernel table read from file vdW_kernel_table
     MD5 check sum: 095c7af220d748ca6e76c0b4c6cfb241

     atomic species   valence    mass     pseudopotential
        La1           11.00   138.90547     La( 1.00)
        Tl1           13.00   204.38000     Tl( 1.00)

     No symmetry found

   Cartesian axes

     site n.     atom                  positions (alat units)
         1           La1 tau(   1) = (   0.0000000   0.0000000  10.0000000  )
         2           La1 tau(   2) = (   4.8826716   3.2335319  10.0000000  )
         3           Tl1 tau(   3) = (   3.5120333   0.0000000  10.0000000  )
         4           Tl1 tau(   4) = (   1.3706383   3.2335319  10.0000000  )
         5           La1 tau(   5) = (   7.0240666   4.6516632  12.9059650  )
         6           La1 tau(   6) = (   2.1413950   1.4181312  12.9059650  )
         7           Tl1 tau(   7) = (   3.5120333   4.6516632  12.9059650  )
         8           Tl1 tau(   8) = (   5.6534283   1.4181312  12.9059650  )
         9           La1 tau(   9) = (   4.0941494   2.7113502  15.6821890  )
        10           La1 tau(  10) = (   8.9747608   5.9435363  15.6816893  )
        11           Tl1 tau(  11) = (   7.5406166   2.6660185  15.8471413  )
        12           Tl1 tau(  12) = (   5.3974557   5.9022059  15.8470159  )

     number of k points=    20  Fermi-Dirac smearing, width (Ry)=  0.0110
                       cart. coord. in units 2pi/alat
        k(    1) = (   0.0000000   0.0000000   0.0000000), wk =   0.0555556
        k(    2) = (   0.0000000   0.0257716   0.0000000), wk =   0.1111111
        k(    3) = (   0.0000000   0.0515432   0.0000000), wk =   0.1111111
        k(    4) = (   0.0000000  -0.0773148   0.0000000), wk =   0.0555556
        k(    5) = (   0.0237279  -0.0100579   0.0000000), wk =   0.1111111
        k(    6) = (   0.0237279   0.0157137   0.0000000), wk =   0.1111111
        k(    7) = (   0.0237279   0.0414854   0.0000000), wk =   0.1111111
        k(    8) = (   0.0237279  -0.0873727   0.0000000), wk =   0.1111111
        k(    9) = (   0.0237279  -0.0616011   0.0000000), wk =   0.1111111
        k(   10) = (   0.0237279  -0.0358295   0.0000000), wk =   0.1111111
        k(   11) = (   0.0474559  -0.0201157   0.0000000), wk =   0.1111111
        k(   12) = (   0.0474559   0.0056559   0.0000000), wk =   0.1111111
        k(   13) = (   0.0474559   0.0314275   0.0000000), wk =   0.1111111
        k(   14) = (   0.0474559  -0.0974306   0.0000000), wk =   0.1111111
        k(   15) = (   0.0474559  -0.0716590   0.0000000), wk =   0.1111111
        k(   16) = (   0.0474559  -0.0458873   0.0000000), wk =   0.1111111
        k(   17) = (  -0.0711838   0.0301736   0.0000000), wk =   0.0555556
        k(   18) = (  -0.0711838   0.0559452   0.0000000), wk =   0.1111111
        k(   19) = (  -0.0711838   0.0817168   0.0000000), wk =   0.1111111
        k(   20) = (  -0.0711838  -0.0471412   0.0000000), wk =   0.0555556

     Largest allocated arrays     est. size (Mb)     dimensions
     Largest temporary arrays     est. size (Mb)     dimensions

     Check: negative/imaginary core charge=   -0.000001    0.000000

     Initial potential from superposition of free atoms
     Check: negative starting charge=   -0.724378

     starting charge  143.77839, renormalised to  144.00000

[...]

     *
     * You are using vdW-DF for exchange-correlation in this calculation.
     * Please cite the following three references that made this development
     * possible:
     *
     *   M. Dion, H. Rydberg, E. Schroder, D. C. Langreth, and
     *   B. I. Lundqvist, Phys. Rev. Lett. 92, 246401 (2004).
     *
     *   T. Thonhauser, V. R. Cooper, S. Li, A. Puzder, P. Hyldgaard, and
     *   D. C. Langreth, Phys. Rev. B 76, 125112 (2007).
     *
     *   G. Roman-Perez and J. M. Soler, Phys. Rev. Lett. 103, 096102 (2009).
     *
     *
     * If you are using vdW-DF2, please also cite:
     *
     *   K. Lee, E. D. Murray, L. Kong, B. I. Lundqvist, and
     *   D. C. Langreth, Phys. Rev. B 82, 081101(R) (2010).
     *
     *
     * If you are calculating the stress with vdW-DF, please also cite:
     *
     *   R. Sabatini, E. Kucukbenli, B. Kolb, T. Thonhauser, and
     *   S. de Gironcoli, J. Phys.: Condens. Matter 24, 424209 (2012).
     *

     Carrying out vdW-DF run using the following parameters:

     Nqs =      20    Nr_points =    1024   r_max =   100.000
     q_mesh =
               0.00001000     0.04494208     0.09755937     0.15916263
               0.23128650     0.31572767     0.41458969     0.53033537
               0.66584808     0.82450364     1.01025438     1.22772762
               1.48234092     1.78043706     2.12944203     2.53805004
               3.01644009     3.57652955     4.23227104     5.00000000

     Gradients computed in reciprocal space

[...]

     Starting wfc are  174 randomized atomic wfcs

     Self-consistent Calculation

[...]

     iteration # 11     ecut=    36.75 Ry     beta=0.10
     Davidson diagonalization with overlap
     c_bands:  2 eigenvalues not converged
     c_bands:  1 eigenvalues not converged
     c_bands:  1 eigenvalues not converged
     ethr =  4.92E-06,  avg # of iterations =  8.9

[...]

     total energy              =   -1505.14876919 Ry
     Harris-Foulkes estimate   =   -1505.14876993 Ry
     estimated scf accuracy    <       0.00000230 Ry

     iteration # 19     ecut=    36.75 Ry     beta=0.10
     Davidson diagonalization with overlap
     ethr =  1.59E-09,  avg # of iterations =  5.8

[...]

     negative rho (up, down):  6.018E-01 0.000E+00

     Adding external electric field

     Computed dipole along edir(3) :
        Dipole               -0.0508 Ry au,         -0.1291 Debye
        Dipole field         -0.0001 Ry au

        Potential amp.        0.0077 Ry
        Total length         47.5580 bohr

     End of self-consistent calculation

[...]

          k = 0.0475-0.0459 0.0000 ( 29783 PWs)   bands (ev):

[...]

          k =-0.0712-0.0471 0.0000 ( 29800 PWs)   bands (ev):

   -32.3338 -32.2940 -32.2645 -32.2246 -31.9483 -31.9063 -16.1058 -16.0886
   -16.0571 -15.9977 -15.9707 -15.9327 -15.9053 -15.8811 -15.8465 -15.8096
   -15.7958 -15.5740 -15.5425 -15.5203 -15.4869 -15.4326 -15.3826 -15.2693
   -10.1856 -10.1555 -10.1243 -10.1191 -10.1175 -10.1115 -10.0930 -10.0774
   -10.0744 -10.0728 -10.0706 -10.0619 -10.0616 -10.0591 -10.0585 -10.0576
   -10.0531 -10.0506 -10.0433 -10.0423 -10.0384 -10.0268 -10.0228 -10.0199
   -10.0031  -9.9661  -9.9602  -9.9487  -9.9368  -9.8977  -5.1344  -4.9598
    -4.5273  -4.3888  -4.0183  -3.4428  -1.1271  -0.9928  -0.7626  -0.4713
    -0.3579  -0.1878  -0.1495   0.0790   0.2776   1.0026   1.0242   1.0703
     1.2897   1.5860   1.8006   1.8933   1.9037   2.2444   2.3904   2.5111
     2.5137   2.5284   2.5391   2.5544   2.5778   2.5871   2.6107   2.6108
     2.6167   2.6224   2.6445   2.6553   2.6593   2.6620   2.6908   2.7037
     2.7237   2.7350   2.7388   2.7581   2.7621   2.8057

     the Fermi energy is     1.4405 ev

!    total energy              =   -1505.14873307 Ry
     Harris-Foulkes estimate   =   -1505.14876947 Ry
     estimated scf accuracy    <       0.00000042 Ry

     The total energy is the sum of the following terms:

     one-electron contribution =   -6165.41915957 Ry
     hartree contribution      =    3129.16032098 Ry
     xc contribution           =    -688.24924522 Ry
     ewald contribution        =    2219.44570376 Ry
     electric field correction =       0.00000410 Ry
     smearing contrib. (-TS)   =      -0.08635712 Ry

     convergence has been achieved in  19 iterations

 BEEF-vdW xc energy contributions
           1 :   -611.870471251948
           2 :    565.887829581860
           3 :   -484.731121888394
           4 :    385.882489653008
           5 :   -287.567255812994
           6 :    203.571805553286
           7 :   -140.588178883893
           8 :    98.3899020498895
           9 :   -72.1222043524535
          10 :    55.3937877511116
          11 :   -42.8745009843323
          12 :    31.5455981130607
          13 :   -20.5603654812345
          14 :    10.2989501439830
          15 :   -1.39212880001378
          16 :   -5.81437228426762
          17 :    11.2908615056152
          18 :   -15.0983193574355
          19 :    17.2030827779528
          20 :   -17.5123722837548
          21 :    16.0881490354384
          22 :   -13.3612859572982
          23 :    10.1583595705479
          24 :   -7.48858858037033
          25 :    6.17696412046701
          26 :   -6.52405986893939
          27 :    8.15932805717739
          28 :   -10.1775210274311
          29 :    11.5131664132853
          30 :   -11.4003398570663
          31 :   -50.2897111815934
          32 :   -36.4614633963531

     Forces acting on atoms (Ry/au):

     negative rho (up, down):  6.018E-01 0.000E+00
     atom    1 type  1   force =    -0.00166991   -0.00110707    0.00881352
     atom    2 type  1   force =    -0.00165478   -0.00109568    0.00882979
     atom    3 type  2   force =     0.00396108    0.00263694   -0.00338307
     atom    4 type  2   force =     0.00397349    0.00261812   -0.00338314
     atom    5 type  1   force =    -0.00153234   -0.00101696    0.00048640
     atom    6 type  1   force =    -0.00154700   -0.00102352    0.00047366
     atom    7 type  2   force =    -0.00003056   -0.00006997   -0.00342878
     atom    8 type  2   force =    -0.00007559    0.00000096   -0.00342572
     atom    9 type  1   force =    -0.00058288   -0.00038591   -0.00100902
     atom   10 type  1   force =    -0.00058212   -0.00038827   -0.00099198
     atom   11 type  2   force =    -0.00013755   -0.00007087   -0.00149323
     atom   12 type  2   force =    -0.00012183   -0.00009777   -0.00148843

     Total force =     0.016433     Total SCF correction =     0.004129
     SCF correction compared to forces is large: reduce conv_thr to get better values

     entering subroutine stress ...

     negative rho (up, down):  6.018E-01 0.000E+00
          total   stress  (Ry/bohr**3)                   (kbar)     P=   -8.56
  -0.00007700  -0.00000717  -0.00000399        -11.33     -1.06     -0.59
  -0.00000717  -0.00007091  -0.00000264         -1.06    -10.43     -0.39
  -0.00000399  -0.00000264  -0.00002673         -0.59     -0.39     -3.93

 !ASE

     Writing output data file calc.save

     General routines

     Parallel routines

   This run was terminated on:   5:57:44  28Dec2018

   JOB DONE.
Job  /afs/slac/g/suncat/bin/suncat-tsmpirun -x LD_LIBRARY_PATH -wdir /scratch/qe758153_uKO2X pw.x -in pw.inp

TID   HOST_NAME   COMMAND_LINE            STATUS            TERMINATION_TIME
00000 suncat0193 pw.x -in pw.inp   Done                     12/28/2018 05:57:44
00001 suncat0193 pw.x -in pw.inp   Done                     12/28/2018 05:57:44
00002 suncat0193 pw.x -in pw.inp   Done                     12/28/2018 05:57:44
00003 suncat0193 pw.x -in pw.inp   Done                     12/28/2018 05:57:44
00004 suncat0193 pw.x -in pw.inp   Done                     12/28/2018 05:57:44
00005 suncat0193 pw.x -in pw.inp   Done                     12/28/2018 05:57:44
00006 suncat0193 pw.x -in pw.inp   Done                     12/28/2018 05:57:44
00007 suncat0193 pw.x -in pw.inp   Done                     12/28/2018 05:57:44
00008 suncat0192 pw.x -in pw.inp   Done                     12/28/2018 05:57:44
00009 suncat0192 pw.x -in pw.inp   Done                     12/28/2018 05:57:44
00010 suncat0192 pw.x -in pw.inp   Done                     12/28/2018 05:57:44
00011 suncat0192 pw.x -in pw.inp   Done                     12/28/2018 05:57:44
00012 suncat0192 pw.x -in pw.inp   Done                     12/28/2018 05:57:44
00013 suncat0192 pw.x -in pw.inp   Done                     12/28/2018 05:57:44
00014 suncat0192 pw.x -in pw.inp   Done                     12/28/2018 05:57:44
00015 suncat0192 pw.x -in pw.inp   Done                     12/28/2018 05:57:44
00016 suncat0163 pw.x -in pw.inp   Done                     12/28/2018 05:57:44
00017 suncat0163 pw.x -in pw.inp   Done                     12/28/2018 05:57:44
00018 suncat0163 pw.x -in pw.inp   Done                     12/28/2018 05:57:44
00019 suncat0163 pw.x -in pw.inp   Done                     12/28/2018 05:57:44
00020 suncat0163 pw.x -in pw.inp   Done                     12/28/2018 05:57:44
00021 suncat0163 pw.x -in pw.inp   Done                     12/28/2018 05:57:44
00022 suncat0163 pw.x -in pw.inp   Done                     12/28/2018 05:57:44
00023 suncat0163 pw.x -in pw.inp   Done                     12/28/2018 05:57:44
00024 suncat0162 pw.x -in pw.inp   Done                     12/28/2018 05:57:44
00025 suncat0162 pw.x -in pw.inp   Done                     12/28/2018 05:57:44
00026 suncat0162 pw.x -in pw.inp   Done                     12/28/2018 05:57:44
00027 suncat0162 pw.x -in pw.inp   Done                     12/28/2018 05:57:44
00028 suncat0162 pw.x -in pw.inp   Done                     12/28/2018 05:57:44
00029 suncat0162 pw.x -in pw.inp   Done                     12/28/2018 05:57:44
00030 suncat0162 pw.x -in pw.inp   Done                     12/28/2018 05:57:44
00031 suncat0162 pw.x -in pw.inp   Done                     12/28/2018 05:57:44
00032 suncat0159 pw.x -in pw.inp   Done                     12/28/2018 05:57:44
00033 suncat0159 pw.x -in pw.inp   Done                     12/28/2018 05:57:44
00034 suncat0159 pw.x -in pw.inp   Done                     12/28/2018 05:57:44
00035 suncat0159 pw.x -in pw.inp   Done                     12/28/2018 05:57:44
00036 suncat0159 pw.x -in pw.inp   Done                     12/28/2018 05:57:44
00037 suncat0159 pw.x -in pw.inp   Done                     12/28/2018 05:57:44
00038 suncat0159 pw.x -in pw.inp   Done                     12/28/2018 05:57:44
00039 suncat0159 pw.x -in pw.inp   Done                     12/28/2018 05:57:44
00040 suncat0155 pw.x -in pw.inp   Done                     12/28/2018 05:57:44
00041 suncat0155 pw.x -in pw.inp   Done                     12/28/2018 05:57:44
00042 suncat0155 pw.x -in pw.inp   Done                     12/28/2018 05:57:44
00043 suncat0155 pw.x -in pw.inp   Done                     12/28/2018 05:57:44
00044 suncat0155 pw.x -in pw.inp   Done                     12/28/2018 05:57:44
00045 suncat0155 pw.x -in pw.inp   Done                     12/28/2018 05:57:44
00046 suncat0155 pw.x -in pw.inp   Done                     12/28/2018 05:57:44
00047 suncat0155 pw.x -in pw.inp   Done                     12/28/2018 05:57:44
00048 suncat0141 pw.x -in pw.inp   Done                     12/28/2018 05:57:44
00049 suncat0141 pw.x -in pw.inp   Done                     12/28/2018 05:57:44
00050 suncat0141 pw.x -in pw.inp   Done                     12/28/2018 05:57:44
00051 suncat0141 pw.x -in pw.inp   Done                     12/28/2018 05:57:44
00052 suncat0141 pw.x -in pw.inp   Done                     12/28/2018 05:57:44
00053 suncat0141 pw.x -in pw.inp   Done                     12/28/2018 05:57:44
00054 suncat0141 pw.x -in pw.inp   Done                     12/28/2018 05:57:44
00055 suncat0141 pw.x -in pw.inp   Done                     12/28/2018 05:57:44
00056 suncat0140 pw.x -in pw.inp   Done                     12/28/2018 05:57:44
00057 suncat0140 pw.x -in pw.inp   Done                     12/28/2018 05:57:44
00058 suncat0140 pw.x -in pw.inp   Done                     12/28/2018 05:57:44
00059 suncat0140 pw.x -in pw.inp   Done                     12/28/2018 05:57:44
00060 suncat0140 pw.x -in pw.inp   Done                     12/28/2018 05:57:44
00061 suncat0140 pw.x -in pw.inp   Done                     12/28/2018 05:57:44
00062 suncat0140 pw.x -in pw.inp   Done                     12/28/2018 05:57:44
00063 suncat0140 pw.x -in pw.inp   Done                     12/28/2018 05:57:44