     Program PWSCF v.5.1rc2 (svn rev. 11289) starts on 19Dec2018 at  2:24:54

     Current dimensions of program PWSCF are:
     Max number of different atomic species (ntypx) = 10
     Max number of k-points (npk) =  40000
     Max angular momentum in pseudopotentials (lmaxx) =  3
     Presently stress not available with electric field

     IMPORTANT: XC functional enforced from input :
     Exchange-correlation      = BEEF-VDW ( 1  4 27 13 2)
     Any further DFT definition will be discarded
     Please, verify this is what you really want

     Subspace diagonalization in iterative solution of the eigenvalue problem:
     a serial algorithm will be used

     Found symmetry operation: I + ( -0.5000  0.0000  0.0000)
     This is a supercell, fractional translations are disabled

     bravais-lattice index     =            0
     lattice parameter (alat)  =       1.8897  a.u.
     unit-cell volume          =    4436.0330 (a.u.)^3
     number of atoms/cell      =           12
     number of atomic types    =            2
     number of electrons       =       186.00
     number of Kohn-Sham states=          123
     kinetic-energy cutoff     =      36.7493  Ry
     charge density cutoff     =     367.4932  Ry
     convergence threshold     =      1.0E-06
     mixing beta               =       0.1000
     number of iterations used =           10  plain     mixing
     Exchange-correlation      = BEEF-VDW ( 1  4 27 13 2)
     nstep                     =           50

     celldm(1)=   1.889726  celldm(2)=   0.000000  celldm(3)=   0.000000
     celldm(4)=   0.000000  celldm(5)=   0.000000  celldm(6)=   0.000000

     crystal axes: (cart. coord. in units of alat)
               a(1) = (   5.434628   0.000000   0.000000 )
               a(2) = (  -2.717314   4.930029   0.000000 )
               a(3) = (   0.000000   0.000000  24.534594 )

     reciprocal axes: (cart. coord. in units 2 pi/alat)
               b(1) = (  0.184005  0.101419  0.000000 )
               b(2) = (  0.000000  0.202839  0.000000 )
               b(3) = (  0.000000  0.000000  0.040759 )

     PseudoPot. # 1 for Re read from file:
     /afs/slac.stanford.edu/u/if/mamunm/psp/gbrv1.5pbe/Re.UPF
     MD5 check sum: 85f993410f3e006da9d71c142b4ad953
     Pseudo is Ultrasoft + core correction, Zval = 15.0
     Generated by new atomic code, or converted to UPF format
     Using radial grid of  981 points,  8 beta functions with:
                l(1) =   0
                l(2) =   0
                l(3) =   1
                l(4) =   1
                l(5) =   2
                l(6) =   2
                l(7) =   3
                l(8) =   3
     Q(r) pseudized with  8 coefficients,  rinner =    1.150   1.150   1.150
                                                       1.150   1.150   1.150
                                                       1.150

     PseudoPot. # 2 for Pt read from file:
     /afs/slac.stanford.edu/u/if/mamunm/psp/gbrv1.5pbe/Pt.UPF
     MD5 check sum: f09d6de1a584b5a045c4fc126da2d0c4
     Pseudo is Ultrasoft + core correction, Zval = 16.0
     Generated by new atomic code, or converted to UPF format
     Using radial grid of  985 points,  6 beta functions with:
                l(1) =   0
                l(2) =   0
                l(3) =   1
                l(4) =   1
                l(5) =   2
                l(6) =   2
     Q(r) pseudized with  8 coefficients,  rinner =    1.300   1.300   1.300
                                                       1.300   1.300

     vdW kernel table read from file vdW_kernel_table
     MD5 check sum: 095c7af220d748ca6e76c0b4c6cfb241

     atomic species   valence    mass     pseudopotential
        Re1           15.00   186.20700     Re( 1.00)
        Pt1           16.00   195.08400     Pt( 1.00)

     No symmetry found

   Cartesian axes

     site n.     atom                  positions (alat units)
         1           Re1 tau(   1) = (   0.0000000   0.0000000  10.0000000  )
         2           Re1 tau(   2) = (   2.7173139   0.0000000  10.0000000  )
         3           Pt1 tau(   3) = (   1.3586570   2.4650146  10.0000000  )
         4           Pt1 tau(   4) = (  -1.3586570   2.4650146  10.0000000  )
         5           Re1 tau(   5) = (   2.7173139   1.4977183  12.2672968  )
         6           Re1 tau(   6) = (   0.0000000   1.4977183  12.2672968  )
         7           Pt1 tau(   7) = (  -1.3586570   3.9627329  12.2672968  )
         8           Pt1 tau(   8) = (   1.3586570   3.9627329  12.2672968  )
         9           Re1 tau(   9) = (   0.0000000   2.9954366  14.5345936  )
        10           Re1 tau(  10) = (   2.7173139   2.9954366  14.5345936  )
        11           Pt1 tau(  11) = (   4.0759709   0.5304221  14.5345936  )
        12           Pt1 tau(  12) = (   1.3586570   0.5304221  14.5345936  )

     number of k points=    20  Fermi-Dirac smearing, width (Ry)=  0.0110
                       cart. coord. in units 2pi/alat
        k(    1) = (   0.0000000   0.0000000   0.0000000), wk =   0.0555556
        k(    2) = (   0.0000000   0.0338064   0.0000000), wk =   0.1111111
        k(    3) = (   0.0000000   0.0676129   0.0000000), wk =   0.1111111
        k(    4) = (   0.0000000  -0.1014193   0.0000000), wk =   0.0555556
        k(    5) = (   0.0306675   0.0169032   0.0000000), wk =   0.1111111
        k(    6) = (   0.0306675   0.0507096   0.0000000), wk =   0.1111111
        k(    7) = (   0.0306675   0.0845161   0.0000000), wk =   0.1111111
        k(    8) = (   0.0306675  -0.0845161   0.0000000), wk =   0.1111111
        k(    9) = (   0.0306675  -0.0507096   0.0000000), wk =   0.1111111
        k(   10) = (   0.0306675  -0.0169032   0.0000000), wk =   0.1111111
        k(   11) = (   0.0613351   0.0338064   0.0000000), wk =   0.1111111
        k(   12) = (   0.0613351   0.0676129   0.0000000), wk =   0.1111111
        k(   13) = (   0.0613351   0.1014193   0.0000000), wk =   0.1111111
        k(   14) = (   0.0613351  -0.0676129   0.0000000), wk =   0.1111111
        k(   15) = (   0.0613351  -0.0338064   0.0000000), wk =   0.1111111
        k(   16) = (   0.0613351   0.0000000   0.0000000), wk =   0.1111111
        k(   17) = (  -0.0920026  -0.0507096   0.0000000), wk =   0.0555556
        k(   18) = (  -0.0920026  -0.0169032   0.0000000), wk =   0.1111111
        k(   19) = (  -0.0920026   0.0169032   0.0000000), wk =   0.1111111
        k(   20) = (  -0.0920026  -0.1521289   0.0000000), wk =   0.0555556

     Largest allocated arrays     est. size (Mb)     dimensions
     Largest temporary arrays     est. size (Mb)     dimensions

     Initial potential from superposition of free atoms
     Check: negative starting charge=   -1.870941

     starting charge  179.99966, renormalised to  186.00000

     negative rho (up, down):  1.933E+00 0.000E+00

     *
     * You are using vdW-DF for exchange-correlation in this calculation.
     * Please cite the following three references that made this development
     * possible:
     *
     *   M. Dion, H. Rydberg, E. Schroder, D. C. Langreth, and
     *   B. I. Lundqvist, Phys. Rev. Lett. 92, 246401 (2004).
     *
     *   T. Thonhauser, V. R. Cooper, S. Li, A. Puzder, P. Hyldgaard, and
     *   D. C. Langreth, Phys. Rev. B 76, 125112 (2007).
     *
     *   G. Roman-Perez and J. M. Soler, Phys. Rev. Lett. 103, 096102 (2009).
     *
     *
     * If you are using vdW-DF2, please also cite:
     *
     *   K. Lee, E. D. Murray, L. Kong, B. I. Lundqvist, and
     *   D. C. Langreth, Phys. Rev. B 82, 081101(R) (2010).
     *
     *
     * If you are calculating the stress with vdW-DF, please also cite:
     *
     *   R. Sabatini, E. Kucukbenli, B. Kolb, T. Thonhauser, and
     *   S. de Gironcoli, J. Phys.: Condens. Matter 24, 424209 (2012).
     *

     Carrying out vdW-DF run using the following parameters:

     Nqs =      20    Nr_points =    1024   r_max =   100.000
     q_mesh =
               0.00001000     0.04494208     0.09755937     0.15916263
               0.23128650     0.31572767     0.41458969     0.53033537
               0.66584808     0.82450364     1.01025438     1.22772762
               1.48234092     1.78043706     2.12944203     2.53805004
               3.01644009     3.57652955     4.23227104     5.00000000

     Gradients computed in reciprocal space

     Adding external electric field

     Computed dipole along edir(3) :
        Dipole                0.0000 Ry au,          0.0000 Debye
        Dipole field          0.0000 Ry au

        Potential amp.       -0.0000 Ry
        Total length         45.2046 bohr

     Starting wfc are  150 randomized atomic wfcs

     Self-consistent Calculation

     iteration #  1     ecut=    36.75 Ry     beta=0.10
     Davidson diagonalization with overlap
     ethr =  1.00E-02,  avg # of iterations =  8.8

[...]

     total energy              =   -2425.23665481 Ry
     Harris-Foulkes estimate   =   -2431.03370179 Ry
     estimated scf accuracy    <      33.24114820 Ry

[...]

     End of self-consistent calculation

          k = 0.0000 0.0000 0.0000 ( 16685 PWs)   bands (ev):

   -78.7557 -78.7125 -78.2907 -78.2902 -78.2478 -78.2473 -51.3624 -51.2507
   -51.2196 -51.1792 -51.1489 -51.0622 -50.8702 -50.8699 -50.7948 -50.7905
   -50.7644 -50.7600 -50.5850 -50.5724 -50.5722 -50.5685 -50.5570 -50.5407
   -40.7203 -40.5156 -40.4601 -40.4403 -40.3915 -40.2348 -40.2312 -40.0419
   -40.0260 -40.0154 -39.9553 -39.9481 -39.9304 -39.8611 -39.8293 -39.7655
   -39.5601 -39.5587  -6.9883  -5.0757  -4.6704  -4.4077  -4.3936  -4.2532
    -4.1373  -4.0714  -3.9001  -3.5533  -3.5257  -3.5125  -3.3668  -3.3558
    -3.0860  -2.1549  -1.9524  -1.8614  -1.6575  -1.6477  -1.2289  -1.1157
    -1.0415  -0.8511  -0.7703  -0.5650  -0.5515  -0.4047  -0.4036  -0.3013
    -0.1291  -0.0445   0.1122   0.2930   0.8197   0.9101   0.9108   1.0677
     1.1728   1.2635   1.3578   1.7198   2.0085   2.1224   2.2751   2.3131
     2.4365   2.7831   2.9332   3.0604   3.2781   3.4707   3.4772   3.4788
     3.5124   3.6508   3.7057   3.7383   3.8631   4.1334   4.1911   4.5339
     4.6599   4.7210   4.9043   4.9160   5.1503   5.3826   5.7865   5.8725
     5.8946   6.3061   6.9019   6.9873   7.2023   7.6261   8.5287   8.7674
     8.8195   8.9298   8.9776

[...]

          k =-0.0920-0.0507 0.0000 ( 16746 PWs)   bands (ev):

[...]

     the Fermi energy is     2.4300 ev

!    total energy              =   -2426.91902920 Ry
     Harris-Foulkes estimate   =   -2426.91902375 Ry
     estimated scf accuracy    <       0.00000077 Ry

     The total energy is the sum of the following terms:

     one-electron contribution =  -19086.77850605 Ry
     hartree contribution      =    9551.15305675 Ry
     xc contribution           =    -675.86986573 Ry
     ewald contribution        =    7784.65107050 Ry
     electric field correction =       0.00000000 Ry
     smearing contrib. (-TS)   =      -0.07478467 Ry

     convergence has been achieved in  16 iterations

 BEEF-vdW xc energy contributions
           1 :   -601.519384055665
           2 :    559.696111513632
           3 :   -484.532052416976
           4 :    390.188696604288
           5 :   -292.351897544265
[...]
     Davidson diagonalization with overlap
     c_bands:  1 eigenvalues not converged
     ethr =  5.38E-06,  avg # of iterations =  5.3

[...]

   This run was terminated on:   2:35: 9  19Dec2018

[...]

   This run was terminated on:   2:51:26  19Dec2018

[...]

     Program PWSCF v.5.1rc2 (svn rev. 11289) starts on 19Dec2018 at  2:51:32

     Current dimensions of program PWSCF are:
     Max number of different atomic species (ntypx) = 10
     Max number of k-points (npk) =  40000
     Max angular momentum in pseudopotentials (lmaxx) =  3
     Presently stress not available with electric field

     IMPORTANT: XC functional enforced from input :
     Exchange-correlation      = BEEF-VDW ( 1  4 27 13 2)
     Any further DFT definition will be discarded
     Please, verify this is what you really want

     Subspace diagonalization in iterative solution of the eigenvalue problem:
     a serial algorithm will be used

     Found symmetry operation: I + ( -0.5000  0.0000  0.0000)
     This is a supercell, fractional translations are disabled

     bravais-lattice index     =            0
     lattice parameter (alat)  =       1.8897  a.u.
     unit-cell volume          =    4436.0330 (a.u.)^3
     number of atoms/cell      =           12
     number of atomic types    =            2
     number of electrons       =       186.00
     number of Kohn-Sham states=          123
     kinetic-energy cutoff     =      36.7493  Ry
     charge density cutoff     =     367.4932  Ry
     convergence threshold     =      1.0E-06
     mixing beta               =       0.1000
     number of iterations used =           10  plain     mixing
     Exchange-correlation      = BEEF-VDW ( 1  4 27 13 2)
     nstep                     =           50

     celldm(1)=   1.889726  celldm(2)=   0.000000  celldm(3)=   0.000000
     celldm(4)=   0.000000  celldm(5)=   0.000000  celldm(6)=   0.000000

     crystal axes: (cart. coord. in units of alat)
               a(1) = (   5.434628   0.000000   0.000000 )
               a(2) = (  -2.717314   4.930029   0.000000 )
               a(3) = (   0.000000   0.000000  24.534594 )

     reciprocal axes: (cart. coord. in units 2 pi/alat)
               b(1) = (  0.184005  0.101419  0.000000 )
               b(2) = (  0.000000  0.202839  0.000000 )
               b(3) = (  0.000000  0.000000  0.040759 )

     PseudoPot. # 1 for Re read from file:
     /afs/slac.stanford.edu/u/if/mamunm/psp/gbrv1.5pbe/Re.UPF
     MD5 check sum: 85f993410f3e006da9d71c142b4ad953
     Pseudo is Ultrasoft + core correction, Zval = 15.0
     Generated by new atomic code, or converted to UPF format
     Using radial grid of  981 points,  8 beta functions with:
                l(1) =   0
                l(2) =   0
                l(3) =   1
                l(4) =   1
                l(5) =   2
                l(6) =   2
                l(7) =   3
                l(8) =   3
     Q(r) pseudized with  8 coefficients,  rinner =    1.150   1.150   1.150
                                                       1.150   1.150   1.150
                                                       1.150

     PseudoPot. # 2 for Pt read from file:
     /afs/slac.stanford.edu/u/if/mamunm/psp/gbrv1.5pbe/Pt.UPF
     MD5 check sum: f09d6de1a584b5a045c4fc126da2d0c4
     Pseudo is Ultrasoft + core correction, Zval = 16.0
     Generated by new atomic code, or converted to UPF format
     Using radial grid of  985 points,  6 beta functions with:
                l(1) =   0
                l(2) =   0
                l(3) =   1
                l(4) =   1
                l(5) =   2
                l(6) =   2
     Q(r) pseudized with  8 coefficients,  rinner =    1.300   1.300   1.300
                                                       1.300   1.300

     vdW kernel table read from file vdW_kernel_table
     MD5 check sum: 095c7af220d748ca6e76c0b4c6cfb241

     atomic species   valence    mass     pseudopotential
        Re1           15.00   186.20700     Re( 1.00)
        Pt1           16.00   195.08400     Pt( 1.00)

     No symmetry found

   Cartesian axes

     site n.     atom                  positions (alat units)
         1           Re1 tau(   1) = (   0.0000000   0.0000000  10.0000000  )
         2           Re1 tau(   2) = (   2.7173139   0.0000000  10.0000000  )
         3           Pt1 tau(   3) = (   1.3586570   2.4650146  10.0000000  )
         4           Pt1 tau(   4) = (  -1.3586570   2.4650146  10.0000000  )
         5           Re1 tau(   5) = (   2.7173139   1.4977183  12.2672968  )
         6           Re1 tau(   6) = (   0.0000000   1.4977183  12.2672968  )
         7           Pt1 tau(   7) = (  -1.3586570   3.9627329  12.2672968  )
         8           Pt1 tau(   8) = (   1.3586570   3.9627329  12.2672968  )
         9           Re1 tau(   9) = (  -0.0000231   3.0258046  14.4354992  )
        10           Re1 tau(  10) = (   2.7172716   3.0258099  14.4354996  )
        11           Pt1 tau(  11) = (   4.0758976   0.6793075  14.4972416  )
        12           Pt1 tau(  12) = (   1.3586099   0.6793037  14.4972415  )

     number of k points=    20  Fermi-Dirac smearing, width (Ry)=  0.0110
                       cart. coord. in units 2pi/alat
        k(    1) = (   0.0000000   0.0000000   0.0000000), wk =   0.0555556
        k(    2) = (   0.0000000   0.0338064   0.0000000), wk =   0.1111111
        k(    3) = (   0.0000000   0.0676129   0.0000000), wk =   0.1111111
        k(    4) = (   0.0000000  -0.1014193   0.0000000), wk =   0.0555556
        k(    5) = (   0.0306675   0.0169032   0.0000000), wk =   0.1111111
        k(    6) = (   0.0306675   0.0507096   0.0000000), wk =   0.1111111
        k(    7) = (   0.0306675   0.0845161   0.0000000), wk =   0.1111111
        k(    8) = (   0.0306675  -0.0845161   0.0000000), wk =   0.1111111
        k(    9) = (   0.0306675  -0.0507096   0.0000000), wk =   0.1111111
        k(   10) = (   0.0306675  -0.0169032   0.0000000), wk =   0.1111111
        k(   11) = (   0.0613351   0.0338064   0.0000000), wk =   0.1111111
        k(   12) = (   0.0613351   0.0676129   0.0000000), wk =   0.1111111
        k(   13) = (   0.0613351   0.1014193   0.0000000), wk =   0.1111111
        k(   14) = (   0.0613351  -0.0676129   0.0000000), wk =   0.1111111
        k(   15) = (   0.0613351  -0.0338064   0.0000000), wk =   0.1111111
        k(   16) = (   0.0613351   0.0000000   0.0000000), wk =   0.1111111
        k(   17) = (  -0.0920026  -0.0507096   0.0000000), wk =   0.0555556
        k(   18) = (  -0.0920026  -0.0169032   0.0000000), wk =   0.1111111
        k(   19) = (  -0.0920026   0.0169032   0.0000000), wk =   0.1111111
        k(   20) = (  -0.0920026  -0.1521289   0.0000000), wk =   0.0555556

     Largest allocated arrays     est. size (Mb)     dimensions
     Largest temporary arrays     est. size (Mb)     dimensions

     Initial potential from superposition of free atoms
     Check: negative starting charge=   -1.871210

     starting charge  179.99966, renormalised to  186.00000

[...]

     *
     * You are using vdW-DF for exchange-correlation in this calculation.
     * Please cite the following three references that made this development
     * possible:
     *
     *   M. Dion, H. Rydberg, E. Schroder, D. C. Langreth, and
     *   B. I. Lundqvist, Phys. Rev. Lett. 92, 246401 (2004).
     *
     *   T. Thonhauser, V. R. Cooper, S. Li, A. Puzder, P. Hyldgaard, and
     *   D. C. Langreth, Phys. Rev. B 76, 125112 (2007).
     *
     *   G. Roman-Perez and J. M. Soler, Phys. Rev. Lett. 103, 096102 (2009).
     *
     *
     * If you are using vdW-DF2, please also cite:
     *
     *   K. Lee, E. D. Murray, L. Kong, B. I. Lundqvist, and
     *   D. C. Langreth, Phys. Rev. B 82, 081101(R) (2010).
     *
     *
     * If you are calculating the stress with vdW-DF, please also cite:
     *
     *   R. Sabatini, E. Kucukbenli, B. Kolb, T. Thonhauser, and
     *   S. de Gironcoli, J. Phys.: Condens. Matter 24, 424209 (2012).
     *

     Carrying out vdW-DF run using the following parameters:

     Nqs =      20    Nr_points =    1024   r_max =   100.000
     q_mesh =
               0.00001000     0.04494208     0.09755937     0.15916263
               0.23128650     0.31572767     0.41458969     0.53033537
               0.66584808     0.82450364     1.01025438     1.22772762
               1.48234092     1.78043706     2.12944203     2.53805004
               3.01644009     3.57652955     4.23227104     5.00000000

     Gradients computed in reciprocal space

[...]

     Starting wfc are  150 randomized atomic wfcs

     Self-consistent Calculation

[...]

     total energy              =   -2426.93518132 Ry
     Harris-Foulkes estimate   =   -2426.93518106 Ry
     estimated scf accuracy    <       0.00000156 Ry

     iteration # 18     ecut=    36.75 Ry     beta=0.10
     Davidson diagonalization with overlap
     ethr =  6.11E-10,  avg # of iterations =  1.6

[...]

     negative rho (up, down):  1.846E+00 0.000E+00

     Adding external electric field

     Computed dipole along edir(3) :
        Dipole                0.0212 Ry au,          0.0540 Debye
        Dipole field          0.0001 Ry au

        Potential amp.       -0.0054 Ry
        Total length         45.2046 bohr

     End of self-consistent calculation

[...]

          k = 0.0613 0.0000 0.0000 ( 16680 PWs)   bands (ev):

[...]

          k =-0.0920-0.1521 0.0000 ( 16746 PWs)   bands (ev):

   -78.7240 -78.7240 -78.2641 -78.2639 -78.2051 -78.2051 -51.3009 -51.3009
   -51.2637 -51.2637 -51.1886 -51.1885 -50.8590 -50.8590 -50.8320 -50.8320
   -50.7312 -50.7312 -50.6804 -50.6804 -50.6741 -50.6741 -50.5141 -50.5141
   -40.5077 -40.5077 -40.4306 -40.4306 -40.3859 -40.3859 -40.0023 -40.0021
   -39.9262 -39.9262 -39.9032 -39.9030 -39.8772 -39.8771 -39.8472 -39.8472
   -39.7516 -39.7516  -5.1647  -5.1647  -3.6745  -3.6745  -3.4198  -3.4198
    -3.3275  -3.3275  -3.2285  -3.2285  -2.7759  -2.7759  -2.4046  -2.4046
    -2.3814  -2.3813  -2.0992  -2.0992  -1.7763  -1.7763  -1.5619  -1.5619
    -1.0922  -1.0922  -1.0729  -1.0728  -0.9567  -0.9567  -0.8495  -0.8495
    -0.6796  -0.6796  -0.2309  -0.2309  -0.1064  -0.1064   0.2299   0.2299
     0.3801   0.3802   0.6978   0.6978   1.2257   1.2257   1.6071   1.6071
     1.8556   1.8556   1.9555   1.9556   2.1257   2.1257   2.2311   2.2311
     2.4372   2.4373   3.0110   3.0111   3.1712   3.1712   3.8531   3.8531
     4.1912   4.1912   4.9938   4.9939   5.6648   5.6648   6.2994   6.2994
     7.2577   7.2577   7.9691   7.9691   8.5512   8.5512   9.1486   9.1486
     9.2245   9.2245  10.2345

     the Fermi energy is     2.4593 ev

!    total energy              =   -2426.93518207 Ry
     Harris-Foulkes estimate   =   -2426.93518165 Ry
     estimated scf accuracy    <       0.00000041 Ry

     The total energy is the sum of the following terms:

     one-electron contribution =  -19272.55342286 Ry
     hartree contribution      =    9643.96643298 Ry
     xc contribution           =    -676.05882957 Ry
     ewald contribution        =    7877.78296172 Ry
     electric field correction =       0.00000128 Ry
     smearing contrib. (-TS)   =      -0.07232561 Ry

     convergence has been achieved in  18 iterations

 BEEF-vdW xc energy contributions
           1 :   -601.712044259615
           2 :    559.960126851705
           3 :   -484.896639984162
           4 :    390.619452028537
           5 :   -292.761013769055
           6 :    204.492235752419
           7 :   -133.848597144921
           8 :    82.9707491603906
           9 :   -49.2061974634831
          10 :    27.3783150490030
          11 :   -12.2368056703137
          12 :   0.195230677654990
          13 :    10.0823630556301
          14 :   -18.1672103358110
          15 :    22.9488138362557
          16 :   -23.7339440811336
          17 :    20.8917897338697
          18 :   -15.8561113429296
          19 :    10.5887475979367
          20 :   -6.82724981750130
          21 :    5.47587226508244
          22 :   -6.38872269218155
          23 :    8.58684029437791
          24 :   -10.7700929618698
          25 :    11.8775393834534
          26 :   -11.4671798830923
          27 :    9.78638405756828
          28 :   -7.55223206032088
          29 :    5.57654093995279
          30 :   -4.41850434341632
          31 :   -49.5775592297913
          32 :   -36.7557441963180

     Forces acting on atoms (Ry/au):

     negative rho (up, down):  1.846E+00 0.000E+00
     atom    1 type  1   force =    -0.00000443    0.02019490    0.02536546
     atom    2 type  1   force =    -0.00000276    0.02019552    0.02536509
     atom    3 type  2   force =    -0.00000505   -0.03545937   -0.00143304
     atom    4 type  2   force =    -0.00000471   -0.03546022   -0.00143236
     atom    5 type  1   force =     0.00000056    0.00172573   -0.02038351
     atom    6 type  1   force =    -0.00000020    0.00175470   -0.02035496
     atom    7 type  2   force =    -0.00000815    0.01361927   -0.00437647
     atom    8 type  2   force =    -0.00000044    0.01362003   -0.00437776
     atom    9 type  1   force =     0.00000810   -0.00016622    0.00020871
     atom   10 type  1   force =     0.00000902   -0.00016659    0.00020699
     atom   11 type  2   force =     0.00001453    0.00007141    0.00060595
     atom   12 type  2   force =    -0.00000647    0.00007085    0.00060590

     Total force =     0.076599     Total SCF correction =     0.002936

     entering subroutine stress ...

     negative rho (up, down):  1.846E+00 0.000E+00
          total   stress  (Ry/bohr**3)                   (kbar)     P=  -28.81
  -0.00020859  -0.00000001   0.00000002        -30.68     -0.00      0.00
  -0.00000001  -0.00031023   0.00002877         -0.00    -45.64      4.23
   0.00000002   0.00002877  -0.00006866          0.00      4.23    -10.10

 !ASE

     Writing output data file calc.save

     General routines

     Parallel routines

   This run was terminated on:   2:57: 4  19Dec2018

   JOB DONE.
Job  /afs/slac/g/suncat/bin/suncat-tsmpirun -x LD_LIBRARY_PATH -wdir /scratch/qe530454_ItORb pw.x -in pw.inp

TID   HOST_NAME   COMMAND_LINE            STATUS            TERMINATION_TIME
00000 suncat2044 pw.x -in pw.inp   Done                     12/19/2018 02:57:04
00001 suncat2044 pw.x -in pw.inp   Done                     12/19/2018 02:57:04
00002 suncat2044 pw.x -in pw.inp   Done                     12/19/2018 02:57:04
00003 suncat2044 pw.x -in pw.inp   Done                     12/19/2018 02:57:04
00004 suncat2044 pw.x -in pw.inp   Done                     12/19/2018 02:57:04
00005 suncat2044 pw.x -in pw.inp   Done                     12/19/2018 02:57:04
00006 suncat2044 pw.x -in pw.inp   Done                     12/19/2018 02:57:04
00007 suncat2044 pw.x -in pw.inp   Done                     12/19/2018 02:57:04
00008 suncat2044 pw.x -in pw.inp   Done                     12/19/2018 02:57:04
00009 suncat2044 pw.x -in pw.inp   Done                     12/19/2018 02:57:04
00010 suncat2044 pw.x -in pw.inp   Done                     12/19/2018 02:57:04
00011 suncat2044 pw.x -in pw.inp   Done                     12/19/2018 02:57:04
00012 suncat2044 pw.x -in pw.inp   Done                     12/19/2018 02:57:04
00013 suncat2044 pw.x -in pw.inp   Done                     12/19/2018 02:57:04
00014 suncat2044 pw.x -in pw.inp   Done                     12/19/2018 02:57:04
00015 suncat2044 pw.x -in pw.inp   Done                     12/19/2018 02:57:04
00016 suncat2043 pw.x -in pw.inp   Done                     12/19/2018 02:57:04
00017 suncat2043 pw.x -in pw.inp   Done                     12/19/2018 02:57:04
00018 suncat2043 pw.x -in pw.inp   Done                     12/19/2018 02:57:04
00019 suncat2043 pw.x -in pw.inp   Done                     12/19/2018 02:57:04
00020 suncat2043 pw.x -in pw.inp   Done                     12/19/2018 02:57:04
00021 suncat2043 pw.x -in pw.inp   Done                     12/19/2018 02:57:04
00022 suncat2043 pw.x -in pw.inp   Done                     12/19/2018 02:57:04
00023 suncat2043 pw.x -in pw.inp   Done                     12/19/2018 02:57:04
00024 suncat2043 pw.x -in pw.inp   Done                     12/19/2018 02:57:04
00025 suncat2043 pw.x -in pw.inp   Done                     12/19/2018 02:57:04
00026 suncat2043 pw.x -in pw.inp   Done                     12/19/2018 02:57:04
00027 suncat2043 pw.x -in pw.inp   Done                     12/19/2018 02:57:04
00028 suncat2043 pw.x -in pw.inp   Done                     12/19/2018 02:57:04
00029 suncat2043 pw.x -in pw.inp   Done                     12/19/2018 02:57:04
00030 suncat2043 pw.x -in pw.inp   Done                     12/19/2018 02:57:04
00031 suncat2043 pw.x -in pw.inp   Done                     12/19/2018 02:57:04