     Program PWSCF v.5.1rc2 (svn rev. 11289) starts on 19Dec2018 at  5:51:54

     Current dimensions of program PWSCF are:
     Max number of different atomic species (ntypx) = 10
     Max number of k-points (npk) =  40000
     Max angular momentum in pseudopotentials (lmaxx) =  3
     Presently stress not available with electric field

     IMPORTANT: XC functional enforced from input :
     Exchange-correlation      = BEEF-VDW ( 1  4 27 13 2)
     Any further DFT definition will be discarded
     Please, verify this is what you really want

     Subspace diagonalization in iterative solution of the eigenvalue problem:
     a serial algorithm will be used

     Found symmetry operation: I + ( -0.5000 -0.5000  0.0000)
     This is a supercell, fractional translations are disabled

     bravais-lattice index     =            0
     lattice parameter (alat)  =       1.8897  a.u.
     unit-cell volume          =    6154.6751 (a.u.)^3
     number of atoms/cell      =           12
     number of atomic types    =            2
     number of electrons       =       150.00
     number of Kohn-Sham states=          105
     kinetic-energy cutoff     =      36.7493  Ry
     charge density cutoff     =     367.4932  Ry
     convergence threshold     =      1.0E-06
     mixing beta               =       0.1000
     number of iterations used =           10  plain     mixing
     Exchange-correlation      = BEEF-VDW ( 1  4 27 13 2)
     nstep                     =           50

     celldm(1)=   1.889726  celldm(2)=   0.000000  celldm(3)=   0.000000
     celldm(4)=   0.000000  celldm(5)=   0.000000  celldm(6)=   0.000000

     crystal axes: (cart. coord. in units of alat)
               a(1) = (   6.234964   0.000000   0.000000 )
               a(2) = (   2.234922   5.820644   0.000000 )
               a(3) = (   0.000000   0.000000  25.130641 )

     reciprocal axes: (cart. coord. in units 2 pi/alat)
               b(1) = (  0.160386 -0.061583  0.000000 )
               b(2) = (  0.000000  0.171802  0.000000 )
               b(3) = (  0.000000  0.000000  0.039792 )

     PseudoPot. # 1 for Sn read from file:
     /afs/slac.stanford.edu/u/if/mamunm/psp/gbrv1.5pbe/Sn.UPF
     MD5 check sum: 469debedee59599fedebd795477fea03
     Pseudo is Ultrasoft + core correction, Zval = 14.0
     Generated by new atomic code, or converted to UPF format
     Using radial grid of  891 points,  6 beta functions with:
                l(1) =   0
                l(2) =   0
                l(3) =   1
                l(4) =   1
                l(5) =   2
                l(6) =   2
     Q(r) pseudized with  8 coefficients,  rinner =    1.350   1.350   1.350
                                                       1.350   1.350

     PseudoPot. # 2 for Au read from file:
     /afs/slac.stanford.edu/u/if/mamunm/psp/gbrv1.5pbe/Au.UPF
     MD5 check sum: 9d7f43293ad2c663164586bc4b293ffc
     Pseudo is Ultrasoft + core correction, Zval = 11.0
     Generated by new atomic code, or converted to UPF format
     Using radial grid of  985 points,  7 beta functions with:
                l(1) =   0
                l(2) =   0
                l(3) =   1
                l(4) =   1
                l(5) =   2
                l(6) =   2
                l(7) =   3
     Q(r) pseudized with  6 coefficients,  rinner =    1.900   1.900   1.900
                                                       1.900   1.900   1.900
                                                       1.900

     vdW kernel table read from file vdW_kernel_table
     MD5 check sum: 095c7af220d748ca6e76c0b4c6cfb241

     atomic species   valence    mass     pseudopotential
        Sn1           14.00   118.71000     Sn( 1.00)
        Au1           11.00   196.96657     Au( 1.00)

     No symmetry found

   Cartesian axes

     site n.     atom                  positions (alat units)
         1           Sn1 tau(   1) = (   0.0000000   0.0000000  10.0000000  )
         2           Sn1 tau(   2) = (   4.2349428   2.9103220  10.0000000  )
         3           Au1 tau(   3) = (   3.1174819   0.0000000  10.0000000  )
         4           Au1 tau(   4) = (   1.1174610   2.9103220  10.0000000  )
         5           Sn1 tau(   5) = (   6.2349637   4.2847690  12.5653205  )
         6           Sn1 tau(   6) = (   2.0000209   1.3744471  12.5653205  )
         7           Au1 tau(   7) = (   3.1174819   4.2847690  12.5653205  )
         8           Au1 tau(   8) = (   5.1175027   1.3744471  12.5653205  )
         9           Sn1 tau(   9) = (   4.0000417   2.7488941  15.1306410  )
        10           Sn1 tau(  10) = (   8.2349846   5.6592161  15.1306410  )
        11           Au1 tau(  11) = (   7.1175236   2.7488941  15.1306410  )
        12           Au1 tau(  12) = (   5.1175027   5.6592161  15.1306410  )

     number of k points=    20  Fermi-Dirac smearing, width (Ry)=  0.0110
                       cart. coord. in units 2pi/alat
        k(    1) = (   0.0000000   0.0000000   0.0000000), wk =   0.0555556
        k(    2) = (   0.0000000   0.0286337   0.0000000), wk =   0.1111111
        k(    3) = (   0.0000000   0.0572674   0.0000000), wk =   0.1111111
        k(    4) = (   0.0000000  -0.0859011   0.0000000), wk =   0.0555556
        k(    5) = (   0.0267310  -0.0102638   0.0000000), wk =   0.1111111
        k(    6) = (   0.0267310   0.0183700   0.0000000), wk =   0.1111111
        k(    7) = (   0.0267310   0.0470037   0.0000000), wk =   0.1111111
        k(    8) = (   0.0267310  -0.0961649   0.0000000), wk =   0.1111111
        k(    9) = (   0.0267310  -0.0675312   0.0000000), wk =   0.1111111
        k(   10) = (   0.0267310  -0.0388975   0.0000000), wk =   0.1111111
        k(   11) = (   0.0534620  -0.0205275   0.0000000), wk =   0.1111111
        k(   12) = (   0.0534620   0.0081062   0.0000000), wk =   0.1111111
        k(   13) = (   0.0534620   0.0367399   0.0000000), wk =   0.1111111
        k(   14) = (   0.0534620  -0.1064287   0.0000000), wk =   0.1111111
        k(   15) = (   0.0534620  -0.0777949   0.0000000), wk =   0.1111111
        k(   16) = (   0.0534620  -0.0491612   0.0000000), wk =   0.1111111
        k(   17) = (  -0.0801929   0.0307913   0.0000000), wk =   0.0555556
        k(   18) = (  -0.0801929   0.0594250   0.0000000), wk =   0.1111111
        k(   19) = (  -0.0801929   0.0880587   0.0000000), wk =   0.1111111
        k(   20) = (  -0.0801929  -0.0551099   0.0000000), wk =   0.0555556

     Largest allocated arrays     est. size (Mb)     dimensions
     Largest temporary arrays     est. size (Mb)     dimensions

     Check: negative/imaginary core charge=   -0.000001    0.000000

     Initial potential from superposition of free atoms
     Check: negative starting charge=   -0.000970

     starting charge  143.99900, renormalised to  150.00000

     negative rho (up, down):  1.011E-03 0.000E+00

     *
     * You are using vdW-DF for exchange-correlation in this calculation.
     * Please cite the following three references that made this development
     * possible:
     *
     *   M. Dion, H. Rydberg, E. Schroder, D. C. Langreth, and
     *   B. I. Lundqvist, Phys. Rev. Lett. 92, 246401 (2004).
     *
     *   T. Thonhauser, V. R. Cooper, S. Li, A. Puzder, P. Hyldgaard, and
     *   D. C. Langreth, Phys. Rev. B 76, 125112 (2007).
     *
     *   G. Roman-Perez and J. M. Soler, Phys. Rev. Lett. 103, 096102 (2009).
     *
     *
     * If you are using vdW-DF2, please also cite:
     *
     *   K. Lee, E. D. Murray, L. Kong, B. I. Lundqvist, and
     *   D. C. Langreth, Phys. Rev. B 82, 081101(R) (2010).
     *
     *
     * If you are calculating the stress with vdW-DF, please also cite:
     *
     *   R. Sabatini, E. Kucukbenli, B. Kolb, T. Thonhauser, and
     *   S. de Gironcoli, J. Phys.: Condens. Matter 24, 424209 (2012).
     *

     Carrying out vdW-DF run using the following parameters:

     Nqs =      20    Nr_points =    1024   r_max =   100.000
     q_mesh =
               0.00001000     0.04494208     0.09755937     0.15916263
               0.23128650     0.31572767     0.41458969     0.53033537
               0.66584808     0.82450364     1.01025438     1.22772762
               1.48234092     1.78043706     2.12944203     2.53805004
               3.01644009     3.57652955     4.23227104     5.00000000

     Gradients computed in reciprocal space

     Adding external electric field

     Computed dipole along edir(3) :
        Dipole                0.0000 Ry au,          0.0000 Debye
        Dipole field          0.0000 Ry au

        Potential amp.       -0.0000 Ry
        Total length         46.3028 bohr

     Starting wfc are  108 randomized atomic wfcs

     Self-consistent Calculation

     iteration #  1     ecut=    36.75 Ry     beta=0.10
     Davidson diagonalization with overlap
     ethr =  1.00E-02,  avg # of iterations =  8.3

[...]

     total energy              =   -1665.13234842 Ry
     Harris-Foulkes estimate   =   -1666.02858568 Ry
     estimated scf accuracy    <       5.38085042 Ry

[...]

     End of self-consistent calculation

          k = 0.0000 0.0000 0.0000 ( 23173 PWs)   bands (ev):

   -21.7561 -21.7286 -21.7251 -21.7231 -21.7161 -21.7139 -21.7104 -21.6981
   -21.6910 -21.6715 -21.6596 -21.6575 -21.6344 -21.6336 -21.6186 -21.6177
   -21.6131 -21.6127 -21.6103 -21.6096 -21.6081 -21.6074 -21.6066 -21.6063
   -21.5997 -21.5970 -21.5880 -21.5874 -21.5659 -21.5627  -9.4685  -8.1436
    -7.1603  -6.9538  -6.5366  -6.4378  -4.5047  -4.4161  -4.2067  -4.0864
    -4.0543  -4.0375  -3.9964  -3.9930  -3.9175  -3.8364  -3.7015  -3.6272
    -3.5950  -3.5920  -3.5330  -3.4568  -3.3118  -3.3100  -3.2948  -3.1976
    -3.1703  -3.1081  -3.0362  -3.0360  -3.0003  -2.7494  -2.7466  -2.5869
    -2.3192  -2.1909  -2.1825  -2.0180  -2.0114  -1.8246  -1.4535  -1.3768
    -1.3049  -1.1320  -0.5344  -0.4495  -0.3013   0.2990   0.9278   0.9317
     0.9574   1.2064   2.3599   2.4405   3.1385   3.4985   3.7220   3.9210
     4.2935   4.3005   4.5071   4.9521   5.0600   5.3046   5.3942   5.5001
     6.4062   7.0234   7.1415   7.2347   7.3598   7.4187   7.4630   7.8815
     7.8967

[...]

          k =-0.0802 0.0308 0.0000 ( 23152 PWs)   bands (ev):

[...]

     the Fermi energy is     0.3710 ev

!    total energy              =   -1664.49090747 Ry
     Harris-Foulkes estimate   =   -1664.49090556 Ry
     estimated scf accuracy    <       0.00000070 Ry

     The total energy is the sum of the following terms:

     one-electron contribution =   -8884.46494077 Ry
     hartree contribution      =    4520.17650718 Ry
     xc contribution           =    -650.68025811 Ry
     ewald contribution        =    3350.50985427 Ry
     electric field correction =       0.00000000 Ry
     smearing contrib. (-TS)   =      -0.03207005 Ry

     convergence has been achieved in  14 iterations

 BEEF-vdW xc energy contributions
           1 :   -577.634424653501
           2 :    533.447954191528
           3 :   -456.341194360896
           4 :    364.252854198431
           5 :   -275.259939856380
           6 :    201.983468044413
           7 :   -149.019989813158
           8 :    113.884485156818
           9 :   -90.4404618606718
[...]
00030 suncat2070 pw.x -in pw.inp   Done                     12/19/2018 06:06:08
00031 suncat2070 pw.x -in pw.inp   Done                     12/19/2018 06:06:08

     Program PWSCF v.5.1rc2 (svn rev. 11289) starts on 19Dec2018 at  6: 6:15

[...]

   This run was terminated on:   6:21:17  19Dec2018

[...]

     Found symmetry operation: I + ( -0.5000 -0.5000  0.0000)
     This is a supercell, fractional translations are disabled

[...]

     Program PWSCF v.5.1rc2 (svn rev. 11289) starts on 19Dec2018 at  6:36:26

     Current dimensions of program PWSCF are:
     Max number of different atomic species (ntypx) = 10
     Max number of k-points (npk) =  40000
     Max angular momentum in pseudopotentials (lmaxx) =  3
     Presently stress not available with electric field

     IMPORTANT: XC functional enforced from input :
     Exchange-correlation      = BEEF-VDW ( 1  4 27 13 2)
     Any further DFT definition will be discarded
     Please, verify this is what you really want

     Subspace diagonalization in iterative solution of the eigenvalue problem:
     a serial algorithm will be used

     bravais-lattice index     =            0
     lattice parameter (alat)  =       1.8897  a.u.
     unit-cell volume          =    6154.6751 (a.u.)^3
     number of atoms/cell      =           12
     number of atomic types    =            2
     number of electrons       =       150.00
     number of Kohn-Sham states=          105
     kinetic-energy cutoff     =      36.7493  Ry
     charge density cutoff     =     367.4932  Ry
     convergence threshold     =      1.0E-06
     mixing beta               =       0.1000
     number of iterations used =           10  plain     mixing
     Exchange-correlation      = BEEF-VDW ( 1  4 27 13 2)
     nstep                     =           50

     celldm(1)=   1.889726  celldm(2)=   0.000000  celldm(3)=   0.000000
     celldm(4)=   0.000000  celldm(5)=   0.000000  celldm(6)=   0.000000

     crystal axes: (cart. coord. in units of alat)
               a(1) = (   6.234964   0.000000   0.000000 )
               a(2) = (   2.234922   5.820644   0.000000 )
               a(3) = (   0.000000   0.000000  25.130641 )

     reciprocal axes: (cart. coord. in units 2 pi/alat)
               b(1) = (  0.160386 -0.061583  0.000000 )
               b(2) = (  0.000000  0.171802  0.000000 )
               b(3) = (  0.000000  0.000000  0.039792 )

     PseudoPot. # 1 for Sn read from file:
     /afs/slac.stanford.edu/u/if/mamunm/psp/gbrv1.5pbe/Sn.UPF
     MD5 check sum: 469debedee59599fedebd795477fea03
     Pseudo is Ultrasoft + core correction, Zval = 14.0
     Generated by new atomic code, or converted to UPF format
     Using radial grid of  891 points,  6 beta functions with:
                l(1) =   0
                l(2) =   0
                l(3) =   1
                l(4) =   1
                l(5) =   2
                l(6) =   2
     Q(r) pseudized with  8 coefficients,  rinner =    1.350   1.350   1.350
                                                       1.350   1.350

     PseudoPot. # 2 for Au read from file:
     /afs/slac.stanford.edu/u/if/mamunm/psp/gbrv1.5pbe/Au.UPF
     MD5 check sum: 9d7f43293ad2c663164586bc4b293ffc
     Pseudo is Ultrasoft + core correction, Zval = 11.0
     Generated by new atomic code, or converted to UPF format
     Using radial grid of  985 points,  7 beta functions with:
                l(1) =   0
                l(2) =   0
                l(3) =   1
                l(4) =   1
                l(5) =   2
                l(6) =   2
                l(7) =   3
     Q(r) pseudized with  6 coefficients,  rinner =    1.900   1.900   1.900
                                                       1.900   1.900   1.900
                                                       1.900

     vdW kernel table read from file vdW_kernel_table
     MD5 check sum: 095c7af220d748ca6e76c0b4c6cfb241

     atomic species   valence    mass     pseudopotential
        Sn1           14.00   118.71000     Sn( 1.00)
        Au1           11.00   196.96657     Au( 1.00)

     No symmetry found

   Cartesian axes

     site n.     atom                  positions (alat units)
         1           Sn1 tau(   1) = (   0.0000000   0.0000000  10.0000000  )
         2           Sn1 tau(   2) = (   4.2349428   2.9103220  10.0000000  )
         3           Au1 tau(   3) = (   3.1174819   0.0000000  10.0000000  )
         4           Au1 tau(   4) = (   1.1174610   2.9103220  10.0000000  )
         5           Sn1 tau(   5) = (   6.2349637   4.2847690  12.5653205  )
         6           Sn1 tau(   6) = (   2.0000209   1.3744471  12.5653205  )
         7           Au1 tau(   7) = (   3.1174819   4.2847690  12.5653205  )
         8           Au1 tau(   8) = (   5.1175027   1.3744471  12.5653205  )
         9           Sn1 tau(   9) = (   4.0379986   2.7748456  15.0970423  )
        10           Sn1 tau(  10) = (   8.2728519   5.6852553  15.0970906  )
        11           Au1 tau(  11) = (   7.1148381   2.7470645  15.0344130  )
        12           Au1 tau(  12) = (   5.1148278   5.6573630  15.0344277  )

     number of k points=    20  Fermi-Dirac smearing, width (Ry)=  0.0110
                       cart. coord. in units 2pi/alat
        k(    1) = (   0.0000000   0.0000000   0.0000000), wk =   0.0555556
        k(    2) = (   0.0000000   0.0286337   0.0000000), wk =   0.1111111
        k(    3) = (   0.0000000   0.0572674   0.0000000), wk =   0.1111111
        k(    4) = (   0.0000000  -0.0859011   0.0000000), wk =   0.0555556
        k(    5) = (   0.0267310  -0.0102638   0.0000000), wk =   0.1111111
        k(    6) = (   0.0267310   0.0183700   0.0000000), wk =   0.1111111
        k(    7) = (   0.0267310   0.0470037   0.0000000), wk =   0.1111111
        k(    8) = (   0.0267310  -0.0961649   0.0000000), wk =   0.1111111
        k(    9) = (   0.0267310  -0.0675312   0.0000000), wk =   0.1111111
        k(   10) = (   0.0267310  -0.0388975   0.0000000), wk =   0.1111111
        k(   11) = (   0.0534620  -0.0205275   0.0000000), wk =   0.1111111
        k(   12) = (   0.0534620   0.0081062   0.0000000), wk =   0.1111111
        k(   13) = (   0.0534620   0.0367399   0.0000000), wk =   0.1111111
        k(   14) = (   0.0534620  -0.1064287   0.0000000), wk =   0.1111111
        k(   15) = (   0.0534620  -0.0777949   0.0000000), wk =   0.1111111
        k(   16) = (   0.0534620  -0.0491612   0.0000000), wk =   0.1111111
        k(   17) = (  -0.0801929   0.0307913   0.0000000), wk =   0.0555556
        k(   18) = (  -0.0801929   0.0594250   0.0000000), wk =   0.1111111
        k(   19) = (  -0.0801929   0.0880587   0.0000000), wk =   0.1111111
        k(   20) = (  -0.0801929  -0.0551099   0.0000000), wk =   0.0555556

     Largest allocated arrays     est. size (Mb)     dimensions
     Largest temporary arrays     est. size (Mb)     dimensions

     Check: negative/imaginary core charge=   -0.000002    0.000000

     Initial potential from superposition of free atoms
     Check: negative starting charge=   -0.000995

     starting charge  143.99900, renormalised to  150.00000

[...]

     *
     * You are using vdW-DF for exchange-correlation in this calculation.
     * Please cite the following three references that made this development
     * possible:
     *
     *   M. Dion, H. Rydberg, E. Schroder, D. C. Langreth, and
     *   B. I. Lundqvist, Phys. Rev. Lett. 92, 246401 (2004).
     *
     *   T. Thonhauser, V. R. Cooper, S. Li, A. Puzder, P. Hyldgaard, and
     *   D. C. Langreth, Phys. Rev. B 76, 125112 (2007).
     *
     *   G. Roman-Perez and J. M. Soler, Phys. Rev. Lett. 103, 096102 (2009).
     *
     *
     * If you are using vdW-DF2, please also cite:
     *
     *   K. Lee, E. D. Murray, L. Kong, B. I. Lundqvist, and
     *   D. C. Langreth, Phys. Rev. B 82, 081101(R) (2010).
     *
     *
     * If you are calculating the stress with vdW-DF, please also cite:
     *
     *   R. Sabatini, E. Kucukbenli, B. Kolb, T. Thonhauser, and
     *   S. de Gironcoli, J. Phys.: Condens. Matter 24, 424209 (2012).
     *

     Carrying out vdW-DF run using the following parameters:

     Nqs =      20    Nr_points =    1024   r_max =   100.000
     q_mesh =
               0.00001000     0.04494208     0.09755937     0.15916263
               0.23128650     0.31572767     0.41458969     0.53033537
               0.66584808     0.82450364     1.01025438     1.22772762
               1.48234092     1.78043706     2.12944203     2.53805004
               3.01644009     3.57652955     4.23227104     5.00000000

     Gradients computed in reciprocal space

[...]

     Starting wfc are  108 randomized atomic wfcs

     Self-consistent Calculation

[...]

     total energy              =   -1664.49185750 Ry
     Harris-Foulkes estimate   =   -1664.49185920 Ry
     estimated scf accuracy    <       0.00000408 Ry

     iteration # 15     ecut=    36.75 Ry     beta=0.10
     Davidson diagonalization with overlap
     ethr =  2.50E-09,  avg # of iterations =  2.0

[...]

     negative rho (up, down):  3.348E-04 0.000E+00

     Adding external electric field

     Computed dipole along edir(3) :
        Dipole                0.0133 Ry au,          0.0338 Debye
        Dipole field          0.0000 Ry au

        Potential amp.       -0.0025 Ry
        Total length         46.3028 bohr

     End of self-consistent calculation

[...]

          k = 0.0535-0.0492 0.0000 ( 23169 PWs)   bands (ev):

[...]

          k =-0.0802-0.0551 0.0000 ( 23102 PWs)   bands (ev):

   -21.7505 -21.7222 -21.7149 -21.7147 -21.7128 -21.7056 -21.7047 -21.6918
   -21.6857 -21.6620 -21.6506 -21.6435 -21.6265 -21.6230 -21.6085 -21.6054
   -21.6027 -21.6010 -21.6002 -21.5997 -21.5978 -21.5978 -21.5975 -21.5973
   -21.5955 -21.5845 -21.5800 -21.5771 -21.5589 -21.5559  -8.2346  -8.0751
    -7.3203  -7.2238  -6.4361  -5.5896  -5.5177  -5.0048  -4.9681  -4.8614
    -4.7823  -4.4424  -4.3470  -4.2214  -4.2114  -4.0558  -4.0307  -4.0189
    -3.9128  -3.8358  -3.8271  -3.8125  -3.6867  -3.6138  -3.5968  -3.4594
    -3.3865  -3.3380  -3.3237  -3.2528  -3.1403  -3.1085  -3.0095  -2.9880
    -2.8665  -2.8049  -2.6554  -2.3460  -2.1996  -2.0106  -1.8614  -0.1958
     0.2136   0.7062   1.1165   1.3217   1.7722   2.3581   2.8272   2.8812
     2.9451   3.1393   3.3207   3.3879   4.1120   4.1929   4.6241   4.6616
     4.8854   4.9954   5.0059   5.1352   5.3284   5.4876   5.6497   5.7388
     5.7848   5.8482   5.8989   5.9520   6.2502   6.4361   6.6114   6.6558
     6.6833

     the Fermi energy is     0.3781 ev

!    total energy              =   -1664.49185867 Ry
     Harris-Foulkes estimate   =   -1664.49185783 Ry
     estimated scf accuracy    <       0.00000048 Ry

     The total energy is the sum of the following terms:

     one-electron contribution =   -8961.66187465 Ry
     hartree contribution      =    4558.73117707 Ry
     xc contribution           =    -650.72955157 Ry
     ewald contribution        =    3389.20096285 Ry
     electric field correction =       0.00000036 Ry
     smearing contrib. (-TS)   =      -0.03257272 Ry

     convergence has been achieved in  15 iterations

 BEEF-vdW xc energy contributions
           1 :   -577.689377060513
           2 :    533.542388036109
           3 :   -456.483787750926
           4 :    364.412479050639
           5 :   -275.384225755279
           6 :    202.030708295867
           7 :   -148.985452380343
           8 :    113.805314316690
           9 :   -90.3757885515628
          10 :    72.8065599479556
          11 :   -57.9452241522122
          12 :    45.6288104041948
          13 :   -37.1440091893995
          14 :    33.2155653595158
          15 :   -32.8534435920017
          16 :    33.6186225842300
          17 :   -32.9328846774127
          18 :    29.4709941175039
          19 :   -23.7596342214973
          20 :    17.6832980496341
          21 :   -13.2936583996576
          22 :    11.6790262742408
          23 :   -12.5315752247575
          24 :    14.5521645023279
          25 :   -16.3304160995358
          26 :    17.1079087325946
          27 :   -17.0011605267840
          28 :    16.6522758956944
          29 :   -16.6345363385334
          30 :    17.0344731019086
          31 :   -47.5444929606379
          32 :   -34.5651858348008

     Forces acting on atoms (Ry/au):

     negative rho (up, down):  3.348E-04 0.000E+00
     atom    1 type  1   force =    -0.00140847   -0.00096547    0.00139033
     atom    2 type  1   force =    -0.00140562   -0.00096566    0.00139329
     atom    3 type  2   force =     0.00004348    0.00002672    0.00362523
     atom    4 type  2   force =     0.00004148    0.00002890    0.00362507
     atom    5 type  1   force =     0.00098510    0.00067877   -0.00397834
     atom    6 type  1   force =     0.00098819    0.00067594   -0.00397606
     atom    7 type  2   force =    -0.00034126   -0.00023485   -0.00193782
     atom    8 type  2   force =    -0.00034206   -0.00023666   -0.00194193
     atom    9 type  1   force =    -0.00004739   -0.00002876    0.00091797
     atom   10 type  1   force =    -0.00004005   -0.00002856    0.00091587
     atom   11 type  2   force =     0.00076488    0.00052322   -0.00001584
     atom   12 type  2   force =     0.00076173    0.00052641   -0.00001778

     Total force =     0.009042     Total SCF correction =     0.001506
     SCF correction compared to forces is large: reduce conv_thr to get better values

     entering subroutine stress ...

     negative rho (up, down):  3.348E-04 0.000E+00
          total   stress  (Ry/bohr**3)                   (kbar)     P=   -9.12
  -0.00009042  -0.00000615   0.00000317        -13.30     -0.91      0.47
  -0.00000615  -0.00008570   0.00000218         -0.91    -12.61      0.32
   0.00000317   0.00000218  -0.00000992          0.47      0.32     -1.46

 !ASE

     Writing output data file calc.save

     General routines

     Parallel routines

   This run was terminated on:   6:51:17  19Dec2018

   JOB DONE.
Job  /afs/slac/g/suncat/bin/suncat-tsmpirun -x LD_LIBRARY_PATH -wdir /scratch/qe530599_P3yX5 pw.x -in pw.inp

TID   HOST_NAME   COMMAND_LINE            STATUS            TERMINATION_TIME
00000 suncat2071 pw.x -in pw.inp   Done                     12/19/2018 06:51:17
00001 suncat2071 pw.x -in pw.inp   Done                     12/19/2018 06:51:17
00002 suncat2071 pw.x -in pw.inp   Done                     12/19/2018 06:51:17
00003 suncat2071 pw.x -in pw.inp   Done                     12/19/2018 06:51:17
00004 suncat2071 pw.x -in pw.inp   Done                     12/19/2018 06:51:17
00005 suncat2071 pw.x -in pw.inp   Done                     12/19/2018 06:51:17
00006 suncat2071 pw.x -in pw.inp   Done                     12/19/2018 06:51:17
00007 suncat2071 pw.x -in pw.inp   Done                     12/19/2018 06:51:17
00008 suncat2071 pw.x -in pw.inp   Done                     12/19/2018 06:51:17
00009 suncat2071 pw.x -in pw.inp   Done                     12/19/2018 06:51:17
00010 suncat2071 pw.x -in pw.inp   Done                     12/19/2018 06:51:17
00011 suncat2071 pw.x -in pw.inp   Done                     12/19/2018 06:51:17
00012 suncat2071 pw.x -in pw.inp   Done                     12/19/2018 06:51:17
00013 suncat2071 pw.x -in pw.inp   Done                     12/19/2018 06:51:17
00014 suncat2071 pw.x -in pw.inp   Done                     12/19/2018 06:51:17
00015 suncat2071 pw.x -in pw.inp   Done                     12/19/2018 06:51:17
00016 suncat2070 pw.x -in pw.inp   Done                     12/19/2018 06:51:17
00017 suncat2070 pw.x -in pw.inp   Done                     12/19/2018 06:51:17
00018 suncat2070 pw.x -in pw.inp   Done                     12/19/2018 06:51:17
00019 suncat2070 pw.x -in pw.inp   Done                     12/19/2018 06:51:17
00020 suncat2070 pw.x -in pw.inp   Done                     12/19/2018 06:51:17
00021 suncat2070 pw.x -in pw.inp   Done                     12/19/2018 06:51:17
00022 suncat2070 pw.x -in pw.inp   Done                     12/19/2018 06:51:17
00023 suncat2070 pw.x -in pw.inp   Done                     12/19/2018 06:51:17
00024 suncat2070 pw.x -in pw.inp   Done                     12/19/2018 06:51:17
00025 suncat2070 pw.x -in pw.inp   Done                     12/19/2018 06:51:17
00026 suncat2070 pw.x -in pw.inp   Done                     12/19/2018 06:51:17
00027 suncat2070 pw.x -in pw.inp   Done                     12/19/2018 06:51:17
00028 suncat2070 pw.x -in pw.inp   Done                     12/19/2018 06:51:17
00029 suncat2070 pw.x -in pw.inp   Done                     12/19/2018 06:51:17
00030 suncat2070 pw.x -in pw.inp   Done                     12/19/2018 06:51:17
00031 suncat2070 pw.x -in pw.inp   Done                     12/19/2018 06:51:17