     Program PWSCF v.5.1rc2 (svn rev. 11289) starts on 25Dec2018 at  7: 6:55

     Current dimensions of program PWSCF are:
     Max number of different atomic species (ntypx) = 10
     Max number of k-points (npk) =  40000
     Max angular momentum in pseudopotentials (lmaxx) =  3
     Presently stress not available with electric field

     IMPORTANT: XC functional enforced from input :
     Exchange-correlation      = BEEF-VDW ( 1  4 27 13 2)
     Any further DFT definition will be discarded
     Please, verify this is what you really want

     Subspace diagonalization in iterative solution of the eigenvalue problem:
     a serial algorithm will be used

     Found symmetry operation: I + ( -0.5000 -0.5000  0.0000)
     This is a supercell, fractional translations are disabled

     bravais-lattice index     =            0
     lattice parameter (alat)  =       1.8897  a.u.
     unit-cell volume          =    5794.6243 (a.u.)^3
     number of atoms/cell      =           12
     number of atomic types    =            2
     number of electrons       =       144.00
     number of Kohn-Sham states=          102
     kinetic-energy cutoff     =      36.7493  Ry
     charge density cutoff     =     367.4932  Ry
     convergence threshold     =      1.0E-06
     mixing beta               =       0.1000
     number of iterations used =           10  plain     mixing
     Exchange-correlation      = BEEF-VDW ( 1  4 27 13 2)
     nstep                     =           50

     celldm(1)=   1.889726  celldm(2)=   0.000000  celldm(3)=   0.000000
     celldm(4)=   0.000000  celldm(5)=   0.000000  celldm(6)=   0.000000

     crystal axes: (cart. coord. in units of alat)
               a(1) = (   6.240569   0.000000   0.000000 )
               a(2) = (   2.992682   5.476180   0.000000 )
               a(3) = (   0.000000   0.000000  25.126199 )

     reciprocal axes: (cart. coord. in units 2 pi/alat)
               b(1) = (  0.160242 -0.087571  0.000000 )
               b(2) = (  0.000000  0.182609  0.000000 )
               b(3) = (  0.000000  0.000000  0.039799 )

     PseudoPot. # 1 for Zr read from file:
     /afs/slac.stanford.edu/u/if/mamunm/psp/gbrv1.5pbe/Zr.UPF
     MD5 check sum: 5db81b1e868ab7776c4564c113de050b
     Pseudo is Ultrasoft + core correction, Zval = 12.0
     Generated by new atomic code, or converted to UPF format
     Using radial grid of  887 points,  6 beta functions with:
                l(1) =   0
                l(2) =   0
                l(3) =   1
                l(4) =   1
                l(5) =   2
                l(6) =   2
     Q(r) pseudized with  6 coefficients,  rinner =    1.200   1.200   1.200
                                                       1.200   1.200

     PseudoPot. # 2 for Hg read from file:
     /afs/slac.stanford.edu/u/if/mamunm/psp/gbrv1.5pbe/Hg.UPF
     MD5 check sum: 8f42caffe07f7fd9c0a564347f8c5498
     Pseudo is Ultrasoft + core correction, Zval = 12.0
     Generated by new atomic code, or converted to UPF format
     Using radial grid of  985 points,  6 beta functions with:
                l(1) =   0
                l(2) =   0
                l(3) =   1
                l(4) =   1
                l(5) =   2
                l(6) =   2
     Q(r) pseudized with  8 coefficients,  rinner =    2.000   2.000   2.000
                                                       2.000   2.000

     vdW kernel table read from file vdW_kernel_table
     MD5 check sum: 095c7af220d748ca6e76c0b4c6cfb241

     atomic species   valence    mass     pseudopotential
        Zr1           12.00    91.22400     Zr( 1.00)
        Hg1           12.00   200.59200     Hg( 1.00)

     No symmetry found

   Cartesian axes

     site n.     atom                  positions (alat units)
         1           Zr1 tau(   1) = (   0.0000000   0.0000000  10.0000000  )
         2           Zr1 tau(   2) = (   4.6166255   2.7380901  10.0000000  )
         3           Hg1 tau(   3) = (   3.1202843   0.0000000  10.0000000  )
         4           Hg1 tau(   4) = (   1.4963412   2.7380901  10.0000000  )
         5           Zr1 tau(   5) = (   6.2405686   3.7012400  12.5630996  )
         6           Zr1 tau(   6) = (   1.6239431   0.9631499  12.5630996  )
         7           Hg1 tau(   7) = (   3.1202843   3.7012400  12.5630996  )
         8           Hg1 tau(   8) = (   4.7442274   0.9631499  12.5630996  )
         9           Zr1 tau(   9) = (   3.2478862   1.9262998  15.1261991  )
        10           Zr1 tau(  10) = (   7.8645117   4.6643899  15.1261991  )
        11           Hg1 tau(  11) = (   6.3681705   1.9262998  15.1261991  )
        12           Hg1 tau(  12) = (   4.7442274   4.6643899  15.1261991  )

     number of k points=    20  Fermi-Dirac smearing, width (Ry)=  0.0110
                       cart. coord. in units 2pi/alat
        k(    1) = (   0.0000000   0.0000000   0.0000000), wk =   0.0555556
        k(    2) = (   0.0000000   0.0304348   0.0000000), wk =   0.1111111
        k(    3) = (   0.0000000   0.0608697   0.0000000), wk =   0.1111111
        k(    4) = (   0.0000000  -0.0913045   0.0000000), wk =   0.0555556
        k(    5) = (   0.0267070  -0.0145951   0.0000000), wk =   0.1111111
        k(    6) = (   0.0267070   0.0158397   0.0000000), wk =   0.1111111
        k(    7) = (   0.0267070   0.0462746   0.0000000), wk =   0.1111111
        k(    8) = (   0.0267070  -0.1058996   0.0000000), wk =   0.1111111
        k(    9) = (   0.0267070  -0.0754648   0.0000000), wk =   0.1111111
        k(   10) = (   0.0267070  -0.0450300   0.0000000), wk =   0.1111111
        k(   11) = (   0.0534139  -0.0291902   0.0000000), wk =   0.1111111
        k(   12) = (   0.0534139   0.0012446   0.0000000), wk =   0.1111111
        k(   13) = (   0.0534139   0.0316795   0.0000000), wk =   0.1111111
        k(   14) = (   0.0534139  -0.1204947   0.0000000), wk =   0.1111111
        k(   15) = (   0.0534139  -0.0900599   0.0000000), wk =   0.1111111
        k(   16) = (   0.0534139  -0.0596251   0.0000000), wk =   0.1111111
        k(   17) = (  -0.0801209   0.0437853   0.0000000), wk =   0.0555556
        k(   18) = (  -0.0801209   0.0742202   0.0000000), wk =   0.1111111
        k(   19) = (  -0.0801209   0.1046550   0.0000000), wk =   0.1111111
        k(   20) = (  -0.0801209  -0.0475192   0.0000000), wk =   0.0555556

     Largest allocated arrays     est. size (Mb)     dimensions
     Largest temporary arrays     est. size (Mb)     dimensions

     Initial potential from superposition of free atoms
     Check: negative starting charge=   -0.365360

     starting charge  143.98676, renormalised to  144.00000

     negative rho (up, down):  3.654E-01 0.000E+00

     *
     * You are using vdW-DF for exchange-correlation in this calculation.
     * Please cite the following three references that made this development
     * possible:
     *
     *   M. Dion, H. Rydberg, E. Schroder, D. C. Langreth, and
     *   B. I. Lundqvist, Phys. Rev. Lett. 92, 246401 (2004).
     *
     *   T. Thonhauser, V. R. Cooper, S. Li, A. Puzder, P. Hyldgaard, and
     *   D. C. Langreth, Phys. Rev. B 76, 125112 (2007).
     *
     *   G. Roman-Perez and J. M. Soler, Phys. Rev. Lett. 103, 096102 (2009).
     *
     *
     * If you are using vdW-DF2, please also cite:
     *
     *   K. Lee, E. D. Murray, L. Kong, B. I. Lundqvist, and
     *   D. C. Langreth, Phys. Rev. B 82, 081101(R) (2010).
     *
     *
     * If you are calculating the stress with vdW-DF, please also cite:
     *
     *   R. Sabatini, E. Kucukbenli, B. Kolb, T. Thonhauser, and
     *   S. de Gironcoli, J. Phys.: Condens. Matter 24, 424209 (2012).
     *

     Carrying out vdW-DF run using the following parameters:

     Nqs =      20    Nr_points =    1024   r_max =   100.000
     q_mesh =
               0.00001000     0.04494208     0.09755937     0.15916263
               0.23128650     0.31572767     0.41458969     0.53033537
               0.66584808     0.82450364     1.01025438     1.22772762
               1.48234092     1.78043706     2.12944203     2.53805004
               3.01644009     3.57652955     4.23227104     5.00000000

     Gradients computed in reciprocal space

     Adding external electric field

     Computed dipole along edir(3) :
        Dipole               -0.0000 Ry au,         -0.0000 Debye
        Dipole field         -0.0000 Ry au

        Potential amp.        0.0000 Ry
        Total length         46.2946 bohr

     Starting wfc are  132 randomized atomic wfcs

     Self-consistent Calculation

     iteration #  1     ecut=    36.75 Ry     beta=0.10
     Davidson diagonalization with overlap
     ethr =  1.00E-02,  avg # of iterations =  4.9

[...]

     total energy              =   -1252.98477183 Ry
     Harris-Foulkes estimate   =   -1253.30384127 Ry
     estimated scf accuracy    <       1.89950559 Ry

[...]

     End of self-consistent calculation

          k = 0.0000 0.0000 0.0000 ( 21823 PWs)   bands (ev):

   -48.2883 -48.2874 -48.2414 -48.2407 -47.9335 -47.8854 -26.3862 -26.3777
   -26.3385 -26.3376 -26.3310 -26.3204 -26.2920 -26.2365 -26.2340 -26.1808
   -26.0950 -26.0460 -25.9836 -25.8380 -25.8372 -25.7681 -25.7143 -25.5816
    -6.7510  -6.5915  -6.5348  -6.5113  -6.4841  -6.4340  -6.3640  -6.3131
    -6.2823  -6.2700  -6.2443  -6.1150  -6.0093  -5.9980  -5.8816  -5.8718
    -5.8560  -5.8113  -5.7334  -5.6905  -5.6846  -5.6545  -5.6514  -5.5747
    -5.5594  -5.5290  -5.4760  -5.3794  -5.3074  -5.2973  -4.9079  -4.7219
    -3.2468  -2.5302  -1.8612  -1.4814  -0.0678   0.0558   0.1169   0.4657
     0.4990   0.5033   0.7876   0.8497   1.1586   1.4350   1.4580   1.5746
     1.6506   1.6734   1.7720   2.2641   2.3177   2.3346   2.6139   2.9200
     3.0638   3.0958   3.1248   3.4728   3.7676   3.7678   3.8950   3.9458
     4.0508   4.2251   4.3100   4.3175   4.4730   4.4779   4.6126   4.6262
     4.6522   4.8339   4.9557   4.9906   5.6189   5.8701

[...]

          k =-0.0801 0.0438 0.0000 ( 21780 PWs)   bands (ev):

[...]

     the Fermi energy is     1.4286 ev

!    total energy              =   -1253.03640280 Ry
     Harris-Foulkes estimate   =   -1253.03640285 Ry
     estimated scf accuracy    <       0.00000060 Ry

     The total energy is the sum of the following terms:

     one-electron contribution =   -8534.66304137 Ry
     hartree contribution      =    4308.87971145 Ry
     xc contribution           =    -352.87113938 Ry
     ewald contribution        =    3325.70204694 Ry
     electric field correction =       0.00000000 Ry
     smearing contrib. (-TS)   =      -0.08398044 Ry

     convergence has been achieved in  15 iterations

 BEEF-vdW xc energy contributions
           1 :   -307.296611037594
           2 :    281.765070885493
           3 :   -237.598879044104
           4 :    185.628630192903
           5 :   -136.480544339615
           6 :    97.2559160930456
           7 :   -70.2088824863570
           8 :    53.4761413375159
           9 :   -43.0728588956580
          10 :    35.0660516476707
          11 :   -27.0460139389439
          12 :    18.5026078040225
          13 :   -10.2615472326551
          14 :    3.50852507033653
[...]
               b(2) = (  0.000000  0.182609  0.000000 )
               b(3) = (  0.000000  0.000000  0.039799 )

     PseudoPot. # 1 for Zr read from file:
     /afs/slac.stanford.edu/u/if/mamunm/psp/gbrv1.5pbe/Zr.UPF
     MD5 check sum: 5db81b1e868ab7776c4564c113de050b
     Pseudo is Ultrasoft + core correction, Zval = 12.0
     Generated by new atomic code, or converted to UPF format
     Using radial grid of  887 points,  6 beta functions with:
                l(1) =   0
                l(2) =   0
                l(3) =   1
                l(4) =   1
                l(5) =   2
                l(6) =   2
     Q(r) pseudized with  6 coefficients,  rinner =    1.200   1.200   1.200
                                                       1.200   1.200

     PseudoPot. # 2 for Hg read from file:
     /afs/slac.stanford.edu/u/if/mamunm/psp/gbrv1.5pbe/Hg.UPF
     MD5 check sum: 8f42caffe07f7fd9c0a564347f8c5498
     Pseudo is Ultrasoft + core correction, Zval = 12.0
     Generated by new atomic code, or converted to UPF format
     Using radial grid of  985 points,  6 beta functions with:
                l(1) =   0
                l(2) =   0
                l(3) =   1
                l(4) =   1
                l(5) =   2
                l(6) =   2
     Q(r) pseudized with  8 coefficients,  rinner =    2.000   2.000   2.000
                                                       2.000   2.000

     vdW kernel table read from file vdW_kernel_table
     MD5 check sum: 095c7af220d748ca6e76c0b4c6cfb241

     atomic species   valence    mass     pseudopotential
        Zr1           12.00    91.22400     Zr( 1.00)
        Hg1           12.00   200.59200     Hg( 1.00)

     No symmetry found

   Cartesian axes

     site n.     atom                  positions (alat units)
         1           Zr1 tau(   1) = (   0.0000000   0.0000000  10.0000000  )
         2           Zr1 tau(   2) = (   4.6166255   2.7380901  10.0000000  )
         3           Hg1 tau(   3) = (   3.1202843   0.0000000  10.0000000  )
         4           Hg1 tau(   4) = (   1.4963412   2.7380901  10.0000000  )
         5           Zr1 tau(   5) = (   6.2405686   3.7012400  12.5630996  )
         6           Zr1 tau(   6) = (   1.6239431   0.9631499  12.5630996  )
         7           Hg1 tau(   7) = (   3.1202843   3.7012400  12.5630996  )
         8           Hg1 tau(   8) = (   4.7442274   0.9631499  12.5630996  )
         9           Zr1 tau(   9) = (   3.2370042   1.9198438  15.0131341  )
        10           Zr1 tau(  10) = (   7.8536227   4.6579336  15.0131331  )
        11           Hg1 tau(  11) = (   6.3561428   1.9191624  15.2776226  )
        12           Hg1 tau(  12) = (   4.7321986   4.6572550  15.2776304  )

     number of k points=    20  Fermi-Dirac smearing, width (Ry)=  0.0110
                       cart. coord. in units 2pi/alat
        k(    1) = (   0.0000000   0.0000000   0.0000000), wk =   0.0555556
        k(    2) = (   0.0000000   0.0304348   0.0000000), wk =   0.1111111
        k(    3) = (   0.0000000   0.0608697   0.0000000), wk =   0.1111111
        k(    4) = (   0.0000000  -0.0913045   0.0000000), wk =   0.0555556
        k(    5) = (   0.0267070  -0.0145951   0.0000000), wk =   0.1111111
        k(    6) = (   0.0267070   0.0158397   0.0000000), wk =   0.1111111
        k(    7) = (   0.0267070   0.0462746   0.0000000), wk =   0.1111111
        k(    8) = (   0.0267070  -0.1058996   0.0000000), wk =   0.1111111
        k(    9) = (   0.0267070  -0.0754648   0.0000000), wk =   0.1111111
        k(   10) = (   0.0267070  -0.0450300   0.0000000), wk =   0.1111111
        k(   11) = (   0.0534139  -0.0291902   0.0000000), wk =   0.1111111
        k(   12) = (   0.0534139   0.0012446   0.0000000), wk =   0.1111111
        k(   13) = (   0.0534139   0.0316795   0.0000000), wk =   0.1111111
        k(   14) = (   0.0534139  -0.1204947   0.0000000), wk =   0.1111111
        k(   15) = (   0.0534139  -0.0900599   0.0000000), wk =   0.1111111
        k(   16) = (   0.0534139  -0.0596251   0.0000000), wk =   0.1111111
        k(   17) = (  -0.0801209   0.0437853   0.0000000), wk =   0.0555556
        k(   18) = (  -0.0801209   0.0742202   0.0000000), wk =   0.1111111
        k(   19) = (  -0.0801209   0.1046550   0.0000000), wk =   0.1111111
        k(   20) = (  -0.0801209  -0.0475192   0.0000000), wk =   0.0555556

     Largest allocated arrays     est. size (Mb)     dimensions
     Largest temporary arrays     est. size (Mb)     dimensions

     Initial potential from superposition of free atoms
     Check: negative starting charge=   -0.365880

     starting charge  143.98676, renormalised to  144.00000

[...]

     *
     * You are using vdW-DF for exchange-correlation in this calculation.
     * Please cite the following three references that made this development
     * possible:
     *
     *   M. Dion, H. Rydberg, E. Schroder, D. C. Langreth, and
     *   B. I. Lundqvist, Phys. Rev. Lett. 92, 246401 (2004).
     *
     *   T. Thonhauser, V. R. Cooper, S. Li, A. Puzder, P. Hyldgaard, and
     *   D. C. Langreth, Phys. Rev. B 76, 125112 (2007).
     *
     *   G. Roman-Perez and J. M. Soler, Phys. Rev. Lett. 103, 096102 (2009).
     *
     *
     * If you are using vdW-DF2, please also cite:
     *
     *   K. Lee, E. D. Murray, L. Kong, B. I. Lundqvist, and
     *   D. C. Langreth, Phys. Rev. B 82, 081101(R) (2010).
     *
     *
     * If you are calculating the stress with vdW-DF, please also cite:
     *
     *   R. Sabatini, E. Kucukbenli, B. Kolb, T. Thonhauser, and
     *   S. de Gironcoli, J. Phys.: Condens. Matter 24, 424209 (2012).
     *

     Carrying out vdW-DF run using the following parameters:

     Nqs =      20    Nr_points =    1024   r_max =   100.000
     q_mesh =
               0.00001000     0.04494208     0.09755937     0.15916263
               0.23128650     0.31572767     0.41458969     0.53033537
               0.66584808     0.82450364     1.01025438     1.22772762
               1.48234092     1.78043706     2.12944203     2.53805004
               3.01644009     3.57652955     4.23227104     5.00000000

     Gradients computed in reciprocal space

[...]

     Starting wfc are  132 randomized atomic wfcs

     Self-consistent Calculation

[...]

     total energy              =   -1253.04495145 Ry
     Harris-Foulkes estimate   =   -1253.04495165 Ry
     estimated scf accuracy    <       0.00000183 Ry

     iteration # 16     ecut=    36.75 Ry     beta=0.10
     Davidson diagonalization with overlap
     ethr =  1.27E-09,  avg # of iterations =  2.0

[...]

     negative rho (up, down):  3.701E-01 0.000E+00

     Adding external electric field

     Computed dipole along edir(3) :
        Dipole               -0.0589 Ry au,         -0.1498 Debye
        Dipole field         -0.0001 Ry au

        Potential amp.        0.0118 Ry
        Total length         46.2946 bohr

     End of self-consistent calculation

[...]

          k = 0.0534-0.0596 0.0000 ( 21805 PWs)   bands (ev):

[...]

          k =-0.0801-0.0475 0.0000 ( 21852 PWs)   bands (ev):

   -48.3483 -48.3017 -48.2630 -48.2161 -47.9646 -47.9165 -26.4442 -26.3995
   -26.3849 -26.3722 -26.3435 -26.3417 -26.3108 -26.2774 -26.2530 -26.1920
   -26.1362 -26.0750 -26.0166 -25.8967 -25.8368 -25.7699 -25.7174 -25.6232
    -6.7269  -6.5204  -6.4942  -6.4105  -6.3703  -6.3689  -6.2464  -6.2051
    -6.1737  -6.1478  -6.0852  -6.0553  -5.8612  -5.8564  -5.8357  -5.7761
    -5.7588  -5.7542  -5.7461  -5.7129  -5.6809  -5.6767  -5.6371  -5.5446
    -5.4748  -5.4535  -5.4185  -5.3106  -5.2915  -4.9754  -4.9353  -4.5817
    -3.2630  -2.2642  -2.1710  -1.7456  -1.3792  -1.0083  -0.6617  -0.6550
    -0.4224  -0.1695  -0.0904   0.0449   0.2974   0.4129   0.4797   0.8011
     0.9732   1.0473   1.1995   1.3286   2.2478   2.3839   2.5556   2.7107
     3.0475   3.0701   3.1894   3.2348   3.4188   3.4624   3.5972   3.7457
     3.8684   4.1371   4.2014   4.6206   4.6651   4.9941   5.5104   5.5606
     5.8888   6.1054   6.1607   6.2509   6.3184   6.5206

     the Fermi energy is     1.3710 ev

!    total energy              =   -1253.04495172 Ry
     Harris-Foulkes estimate   =   -1253.04495159 Ry
     estimated scf accuracy    <       0.00000032 Ry

     The total energy is the sum of the following terms:

     one-electron contribution =   -8507.90961067 Ry
     hartree contribution      =    4295.35363202 Ry
     xc contribution           =    -352.88971176 Ry
     ewald contribution        =    3312.48478138 Ry
     electric field correction =       0.00000753 Ry
     smearing contrib. (-TS)   =      -0.08405022 Ry

     convergence has been achieved in  16 iterations

 BEEF-vdW xc energy contributions
           1 :   -307.309988742484
           2 :    281.760917256908
           3 :   -237.576047245071
           4 :    185.600992347610
           5 :   -136.464717953807
           6 :    97.2603656672786
           7 :   -70.2281480303500
           8 :    53.4918777362197
           9 :   -43.0630770213617
          10 :    35.0186605090521
          11 :   -26.9672920151863
          12 :    18.4139645173260
          13 :   -10.1873164710218
          14 :    3.46353171529086
          15 :    1.03329600630053
          16 :   -3.33444974020102
          17 :    4.06064157814353
          18 :   -4.03418462760135
          19 :    3.92275462016448
          20 :   -4.05380765745639
          21 :    4.41630055592225
          22 :   -4.79570380111647
          23 :    4.95533213917668
          24 :   -4.77939515261875
          25 :    4.32499916953066
          26 :   -3.78104179849640
          27 :    3.36793911942709
          28 :   -3.22813042757741
          29 :    3.35500550261241
          30 :   -3.59568273763000
          31 :   -30.7104888674825
          32 :   -22.7827424977282

     Forces acting on atoms (Ry/au):

     negative rho (up, down):  3.701E-01 0.000E+00
     atom    1 type  1   force =     0.00303632    0.00180054    0.01888017
     atom    2 type  1   force =     0.00303636    0.00180062    0.01888035
     atom    3 type  2   force =    -0.00035543   -0.00020999   -0.01504103
     atom    4 type  2   force =    -0.00035606   -0.00021022   -0.01504035
     atom    5 type  1   force =    -0.00674623   -0.00400089    0.00079316
     atom    6 type  1   force =    -0.00674680   -0.00400165    0.00079306
     atom    7 type  2   force =     0.00479407    0.00284144   -0.00568864
     atom    8 type  2   force =     0.00479215    0.00284304   -0.00568907
     atom    9 type  1   force =    -0.00116284   -0.00068942   -0.00001519
     atom   10 type  1   force =    -0.00116238   -0.00068972   -0.00001473
     atom   11 type  2   force =     0.00043517    0.00025823    0.00107125
     atom   12 type  2   force =     0.00043566    0.00025802    0.00107102

     Total force =     0.038056     Total SCF correction =     0.000826

     entering subroutine stress ...

     negative rho (up, down):  3.701E-01 0.000E+00
          total   stress  (Ry/bohr**3)                   (kbar)     P=   -7.26
  -0.00007758  -0.00001101  -0.00000563        -11.41     -1.62     -0.83
  -0.00001101  -0.00006555  -0.00000334         -1.62     -9.64     -0.49
  -0.00000563  -0.00000334  -0.00000500         -0.83     -0.49     -0.74

 !ASE

     Writing output data file calc.save

     General routines

     Parallel routines

   This run was terminated on:   8:59:16  25Dec2018

   JOB DONE.
Job  /afs/slac/g/suncat/bin/suncat-tsmpirun -x LD_LIBRARY_PATH -wdir /scratch/qe109270_Ndcg1 pw.x -in pw.inp

TID   HOST_NAME   COMMAND_LINE            STATUS            TERMINATION_TIME
00000 suncat0048 pw.x -in pw.inp   Done                     12/25/2018 08:59:16
00001 suncat0048 pw.x -in pw.inp   Done                     12/25/2018 08:59:16
00002 suncat0048 pw.x -in pw.inp   Done                     12/25/2018 08:59:16
00003 suncat0048 pw.x -in pw.inp   Done                     12/25/2018 08:59:16
00004 suncat0048 pw.x -in pw.inp   Done                     12/25/2018 08:59:16
00005 suncat0048 pw.x -in pw.inp   Done                     12/25/2018 08:59:16
00006 suncat0048 pw.x -in pw.inp   Done                     12/25/2018 08:59:16
00007 suncat0048 pw.x -in pw.inp   Done                     12/25/2018 08:59:16
00008 suncat0047 pw.x -in pw.inp   Done                     12/25/2018 08:59:16
00009 suncat0047 pw.x -in pw.inp   Done                     12/25/2018 08:59:16
00010 suncat0047 pw.x -in pw.inp   Done                     12/25/2018 08:59:16
00011 suncat0047 pw.x -in pw.inp   Done                     12/25/2018 08:59:16
00012 suncat0047 pw.x -in pw.inp   Done                     12/25/2018 08:59:16
00013 suncat0047 pw.x -in pw.inp   Done                     12/25/2018 08:59:16
00014 suncat0047 pw.x -in pw.inp   Done                     12/25/2018 08:59:16
00015 suncat0047 pw.x -in pw.inp   Done                     12/25/2018 08:59:16
00016 suncat0193 pw.x -in pw.inp   Done                     12/25/2018 08:59:16
00017 suncat0193 pw.x -in pw.inp   Done                     12/25/2018 08:59:16
00018 suncat0193 pw.x -in pw.inp   Done                     12/25/2018 08:59:16
00019 suncat0193 pw.x -in pw.inp   Done                     12/25/2018 08:59:16
00020 suncat0193 pw.x -in pw.inp   Done                     12/25/2018 08:59:16
00021 suncat0193 pw.x -in pw.inp   Done                     12/25/2018 08:59:16
00022 suncat0193 pw.x -in pw.inp   Done                     12/25/2018 08:59:16
00023 suncat0193 pw.x -in pw.inp   Done                     12/25/2018 08:59:16
00024 suncat0192 pw.x -in pw.inp   Done                     12/25/2018 08:59:16
00025 suncat0192 pw.x -in pw.inp   Done                     12/25/2018 08:59:16
00026 suncat0192 pw.x -in pw.inp   Done                     12/25/2018 08:59:16
00027 suncat0192 pw.x -in pw.inp   Done                     12/25/2018 08:59:16
00028 suncat0192 pw.x -in pw.inp   Done                     12/25/2018 08:59:16
00029 suncat0192 pw.x -in pw.inp   Done                     12/25/2018 08:59:16
00030 suncat0192 pw.x -in pw.inp   Done                     12/25/2018 08:59:16
00031 suncat0192 pw.x -in pw.inp   Done                     12/25/2018 08:59:16
00032 suncat0155 pw.x -in pw.inp   Done                     12/25/2018 08:59:16
00033 suncat0155 pw.x -in pw.inp   Done                     12/25/2018 08:59:16
00034 suncat0155 pw.x -in pw.inp   Done                     12/25/2018 08:59:16
00035 suncat0155 pw.x -in pw.inp   Done                     12/25/2018 08:59:16
00036 suncat0155 pw.x -in pw.inp   Done                     12/25/2018 08:59:16
00037 suncat0155 pw.x -in pw.inp   Done                     12/25/2018 08:59:16
00038 suncat0155 pw.x -in pw.inp   Done                     12/25/2018 08:59:16
00039 suncat0155 pw.x -in pw.inp   Done                     12/25/2018 08:59:16
00040 suncat0154 pw.x -in pw.inp   Done                     12/25/2018 08:59:16
00041 suncat0154 pw.x -in pw.inp   Done                     12/25/2018 08:59:16
00042 suncat0154 pw.x -in pw.inp   Done                     12/25/2018 08:59:16
00043 suncat0154 pw.x -in pw.inp   Done                     12/25/2018 08:59:16
00044 suncat0154 pw.x -in pw.inp   Done                     12/25/2018 08:59:16
00045 suncat0154 pw.x -in pw.inp   Done                     12/25/2018 08:59:16
00046 suncat0154 pw.x -in pw.inp   Done                     12/25/2018 08:59:16
00047 suncat0154 pw.x -in pw.inp   Done                     12/25/2018 08:59:16
00048 suncat0209 pw.x -in pw.inp   Done                     12/25/2018 08:59:16
00049 suncat0209 pw.x -in pw.inp   Done                     12/25/2018 08:59:16
00050 suncat0209 pw.x -in pw.inp   Done                     12/25/2018 08:59:16
00051 suncat0209 pw.x -in pw.inp   Done                     12/25/2018 08:59:16
00052 suncat0209 pw.x -in pw.inp   Done                     12/25/2018 08:59:16
00053 suncat0209 pw.x -in pw.inp   Done                     12/25/2018 08:59:16
00054 suncat0209 pw.x -in pw.inp   Done                     12/25/2018 08:59:16
00055 suncat0209 pw.x -in pw.inp   Done                     12/25/2018 08:59:16
00056 suncat0203 pw.x -in pw.inp   Done                     12/25/2018 08:59:16
00057 suncat0203 pw.x -in pw.inp   Done                     12/25/2018 08:59:16
00058 suncat0203 pw.x -in pw.inp   Done                     12/25/2018 08:59:16
00059 suncat0203 pw.x -in pw.inp   Done                     12/25/2018 08:59:16
00060 suncat0203 pw.x -in pw.inp   Done                     12/25/2018 08:59:16
00061 suncat0203 pw.x -in pw.inp   Done                     12/25/2018 08:59:16
00062 suncat0203 pw.x -in pw.inp   Done                     12/25/2018 08:59:16
00063 suncat0203 pw.x -in pw.inp   Done                     12/25/2018 08:59:16