     Program PWSCF v.5.1rc2 (svn rev. 11289) starts on 18Dec2018 at 18:15:23

     Current dimensions of program PWSCF are:
     Max number of different atomic species (ntypx) = 10
     Max number of k-points (npk) =  40000
     Max angular momentum in pseudopotentials (lmaxx) =  3
     Presently stress not available with electric field

     IMPORTANT: XC functional enforced from input :
     Exchange-correlation      = BEEF-VDW ( 1  4 27 13 2)
     Any further DFT definition will be discarded
     Please, verify this is what you really want

     Subspace diagonalization in iterative solution of the eigenvalue problem:
     a serial algorithm will be used

     Found symmetry operation: I + ( -0.5000  0.0000  0.0000)
     This is a supercell, fractional translations are disabled

     bravais-lattice index     =            0
     lattice parameter (alat)  =       1.8897  a.u.
     unit-cell volume          =    4628.7727 (a.u.)^3
     number of atoms/cell      =           12
     number of atomic types    =            2
     number of electrons       =        90.00
     number of Kohn-Sham states=           75
     kinetic-energy cutoff     =      36.7493  Ry
     charge density cutoff     =     367.4932  Ry
     convergence threshold     =      1.0E-06
     mixing beta               =       0.1000
     number of iterations used =           10  plain     mixing
     Exchange-correlation      = BEEF-VDW ( 1  4 27 13 2)
     nstep                     =           50

     celldm(1)=   1.889726  celldm(2)=   0.000000  celldm(3)=   0.000000
     celldm(4)=   0.000000  celldm(5)=   0.000000  celldm(6)=   0.000000

     crystal axes: (cart. coord. in units of alat)
               a(1) = (   5.630833   0.000000   0.000000 )
               a(2) = (  -2.815416   4.945855   0.000000 )
               a(3) = (   0.000000   0.000000  24.629480 )

     reciprocal axes: (cart. coord. in units 2 pi/alat)
               b(1) = (  0.177594  0.101095  0.000000 )
               b(2) = (  0.000000  0.202190  0.000000 )
               b(3) = (  0.000000  0.000000  0.040602 )

     PseudoPot. # 1 for Al read from file:
     /afs/slac.stanford.edu/u/if/mamunm/psp/gbrv1.5pbe/Al.UPF
     MD5 check sum: 0a6289f5291fc8f409219462bc851e1f
     Pseudo is Ultrasoft + core correction, Zval =  3.0
     Generated by new atomic code, or converted to UPF format
     Using radial grid of  893 points,  3 beta functions with:
                l(1) =   0
                l(2) =   1
                l(3) =   2
     Q(r) pseudized with  8 coefficients,  rinner =    0.900   0.900   0.900
                                                       0.900   0.900

     PseudoPot. # 2 for Ti read from file:
     /afs/slac.stanford.edu/u/if/mamunm/psp/gbrv1.5pbe/Ti.UPF
     MD5 check sum: 88a00a6731bd790ddea75d31a80cb452
     Pseudo is Ultrasoft + core correction, Zval = 12.0
     Generated by new atomic code, or converted to UPF format
     Using radial grid of  851 points,  6 beta functions with:
                l(1) =   0
                l(2) =   0
                l(3) =   1
                l(4) =   1
                l(5) =   2
                l(6) =   2
     Q(r) pseudized with  6 coefficients,  rinner =    1.000   1.000   1.000
                                                       1.000   1.000

     vdW kernel table read from file vdW_kernel_table
     MD5 check sum: 095c7af220d748ca6e76c0b4c6cfb241

     atomic species   valence    mass     pseudopotential
        Al1            3.00    26.98154     Al( 1.00)
        Ti1           12.00    47.86700     Ti( 1.00)

     No symmetry found

   Cartesian axes

     site n.     atom                  positions (alat units)
         1           Al1 tau(   1) = (   0.0000000   0.0000000  10.0000000  )
         2           Al1 tau(   2) = (   2.8154163   0.0000000  10.0000000  )
         3           Ti1 tau(   3) = (   1.4077082   2.4729276  10.0000000  )
         4           Ti1 tau(   4) = (  -1.4077082   2.4729276  10.0000000  )
         5           Al1 tau(   5) = (   2.8154163   1.6026691  12.3147399  )
         6           Al1 tau(   6) = (   0.0000000   1.6026691  12.3147399  )
         7           Ti1 tau(   7) = (  -1.4077082   4.0755966  12.3147399  )
         8           Ti1 tau(   8) = (   1.4077082   4.0755966  12.3147399  )
         9           Al1 tau(   9) = (  -0.0000000   3.2053382  14.6294798  )
        10           Al1 tau(  10) = (   2.8154163   3.2053382  14.6294798  )
        11           Ti1 tau(  11) = (   4.2231245   0.7324106  14.6294798  )
        12           Ti1 tau(  12) = (   1.4077082   0.7324106  14.6294798  )

     number of k points=    20  Fermi-Dirac smearing, width (Ry)=  0.0110
                       cart. coord. in units 2pi/alat
        k(    1) = (   0.0000000   0.0000000   0.0000000), wk =   0.0555556
        k(    2) = (   0.0000000   0.0336983   0.0000000), wk =   0.1111111
        k(    3) = (   0.0000000   0.0673965   0.0000000), wk =   0.1111111
        k(    4) = (   0.0000000  -0.1010948   0.0000000), wk =   0.0555556
        k(    5) = (   0.0295989   0.0168491   0.0000000), wk =   0.1111111
        k(    6) = (   0.0295989   0.0505474   0.0000000), wk =   0.1111111
        k(    7) = (   0.0295989   0.0842456   0.0000000), wk =   0.1111111
        k(    8) = (   0.0295989  -0.0842456   0.0000000), wk =   0.1111111
        k(    9) = (   0.0295989  -0.0505474   0.0000000), wk =   0.1111111
        k(   10) = (   0.0295989  -0.0168491   0.0000000), wk =   0.1111111
        k(   11) = (   0.0591979   0.0336983   0.0000000), wk =   0.1111111
        k(   12) = (   0.0591979   0.0673965   0.0000000), wk =   0.1111111
        k(   13) = (   0.0591979   0.1010948   0.0000000), wk =   0.1111111
        k(   14) = (   0.0591979  -0.0673965   0.0000000), wk =   0.1111111
        k(   15) = (   0.0591979  -0.0336983   0.0000000), wk =   0.1111111
        k(   16) = (   0.0591979   0.0000000   0.0000000), wk =   0.1111111
        k(   17) = (  -0.0887968  -0.0505474   0.0000000), wk =   0.0555556
        k(   18) = (  -0.0887968  -0.0168491   0.0000000), wk =   0.1111111
        k(   19) = (  -0.0887968   0.0168491   0.0000000), wk =   0.1111111
        k(   20) = (  -0.0887968  -0.1516421   0.0000000), wk =   0.0555556

     Largest allocated arrays     est. size (Mb)     dimensions
     Largest temporary arrays     est. size (Mb)     dimensions

     Check: negative/imaginary core charge=   -0.000004    0.000000

     Initial potential from superposition of free atoms
     Check: negative starting charge=   -0.008260

     starting charge   83.98494, renormalised to   90.00000

     negative rho (up, down):  8.852E-03 0.000E+00

     *
     * You are using vdW-DF for exchange-correlation in this calculation.
     * Please cite the following three references that made this development
     * possible:
     *
     *   M. Dion, H. Rydberg, E. Schroder, D. C. Langreth, and
     *   B. I. Lundqvist, Phys. Rev. Lett. 92, 246401 (2004).
     *
     *   T. Thonhauser, V. R. Cooper, S. Li, A. Puzder, P. Hyldgaard, and
     *   D. C. Langreth, Phys. Rev. B 76, 125112 (2007).
     *
     *   G. Roman-Perez and J. M. Soler, Phys. Rev. Lett. 103, 096102 (2009).
     *
     *
     * If you are using vdW-DF2, please also cite:
     *
     *   K. Lee, E. D. Murray, L. Kong, B. I. Lundqvist, and
     *   D. C. Langreth, Phys. Rev. B 82, 081101(R) (2010).
     *
     *
     * If you are calculating the stress with vdW-DF, please also cite:
     *
     *   R. Sabatini, E. Kucukbenli, B. Kolb, T. Thonhauser, and
     *   S. de Gironcoli, J. Phys.: Condens. Matter 24, 424209 (2012).
     *

     Carrying out vdW-DF run using the following parameters:

     Nqs =      20    Nr_points =    1024   r_max =   100.000
     q_mesh =
               0.00001000     0.04494208     0.09755937     0.15916263
               0.23128650     0.31572767     0.41458969     0.53033537
               0.66584808     0.82450364     1.01025438     1.22772762
               1.48234092     1.78043706     2.12944203     2.53805004
               3.01644009     3.57652955     4.23227104     5.00000000

     Gradients computed in reciprocal space

     Adding external electric field

     Computed dipole along edir(3) :
        Dipole                0.0000 Ry au,          0.0000 Debye
        Dipole field          0.0000 Ry au

        Potential amp.       -0.0000 Ry
        Total length         45.3794 bohr

     Starting wfc are   84 randomized atomic wfcs

     Self-consistent Calculation

     iteration #  1     ecut=    36.75 Ry     beta=0.10
     Davidson diagonalization with overlap
     ethr =  1.00E-02,  avg # of iterations =  4.0

[...]

     total energy              =    -760.92729667 Ry
     Harris-Foulkes estimate   =    -761.57513643 Ry
     estimated scf accuracy    <       3.83993886 Ry

[...]

     End of self-consistent calculation

          k = 0.0000 0.0000 0.0000 ( 17489 PWs)   bands (ev):

   -57.1131 -57.1119 -57.0566 -57.0555 -56.7626 -56.7050 -33.5031 -33.4817
   -33.4496 -33.4288 -33.4097 -33.4078 -33.3644 -33.3270 -33.3088 -33.2740
   -33.1526 -33.1034 -33.0456 -32.9554 -32.9545 -32.9124 -32.8631 -32.6902
    -8.4971  -6.9644  -5.3416  -4.5022  -3.4526  -3.0532  -2.9446  -2.4121
    -2.3393  -2.2548  -1.9312  -1.7213  -1.5014  -1.1065  -0.8574  -0.7653
    -0.7001  -0.4957  -0.3768  -0.2430  -0.0193   0.0649   0.1474   0.1877
     0.3450   0.5839   0.6017   0.6125   0.9078   1.2095   1.2265   1.4308
     1.6617   1.7614   1.8399   2.0533   2.0634   2.2088   2.2226   2.2961
     2.6612   2.9070   3.0471   3.0557   3.2724   3.4084   3.4320   3.9016
     4.1592   4.2876   4.3833

[...]

          k =-0.0888-0.0505 0.0000 ( 17388 PWs)   bands (ev):

[...]

     the Fermi energy is    -0.0105 ev

!    total energy              =    -760.74731045 Ry
     Harris-Foulkes estimate   =    -760.74731171 Ry
     estimated scf accuracy    <       0.00000066 Ry

     The total energy is the sum of the following terms:

     one-electron contribution =   -4552.40761466 Ry
     hartree contribution      =    2270.80394373 Ry
     xc contribution           =    -139.22634559 Ry
     ewald contribution        =    1660.16028205 Ry
     electric field correction =       0.00000001 Ry
     smearing contrib. (-TS)   =      -0.07757599 Ry

     convergence has been achieved in  18 iterations

 BEEF-vdW xc energy contributions
           1 :   -118.678893711193
           2 :    105.334893383747
           3 :   -83.8040442491271
           4 :    61.3524299679443
           5 :   -43.5698484495616
           6 :    32.1960017827584
           7 :   -25.5331097225000
           8 :    20.5835317379704
           9 :   -15.2254863784859
          10 :    9.13220807027456
          11 :   -3.26730308318776
          12 :   -1.30291749105581
          13 :    4.28969746608280
          14 :   -6.23376739290705
          15 :    7.90310477699214
          16 :   -9.65306286739445
          17 :    11.2452791915018
          18 :   -12.1649851774609
          19 :    12.0809057006755
          20 :   -11.0764433998113
          21 :    9.54085195219422
          22 :   -7.88521292287965
[...]
00024 suncat0050 pw.x -in pw.inp   Done                     12/18/2018 18:27:31
00025 suncat0050 pw.x -in pw.inp   Done                     12/18/2018 18:27:31
00026 suncat0050 pw.x -in pw.inp   Done                     12/18/2018 18:27:31
00027 suncat0050 pw.x -in pw.inp   Done                     12/18/2018 18:27:31
00028 suncat0050 pw.x -in pw.inp   Done                     12/18/2018 18:27:31
00029 suncat0050 pw.x -in pw.inp   Done                     12/18/2018 18:27:31
00030 suncat0050 pw.x -in pw.inp   Done                     12/18/2018 18:27:31
00031 suncat0050 pw.x -in pw.inp   Done                     12/18/2018 18:27:31

[...]

   This run was terminated on:  18:39: 1  18Dec2018

[...]

     Program PWSCF v.5.1rc2 (svn rev. 11289) starts on 18Dec2018 at 18:39: 7

[...]

   This run was terminated on:  18:51:41  18Dec2018

[...]

     Program PWSCF v.5.1rc2 (svn rev. 11289) starts on 18Dec2018 at 18:51:47

     Current dimensions of program PWSCF are:
     Max number of different atomic species (ntypx) = 10
     Max number of k-points (npk) =  40000
     Max angular momentum in pseudopotentials (lmaxx) =  3
     Presently stress not available with electric field

     IMPORTANT: XC functional enforced from input :
     Exchange-correlation      = BEEF-VDW ( 1  4 27 13 2)
     Any further DFT definition will be discarded
     Please, verify this is what you really want

     Subspace diagonalization in iterative solution of the eigenvalue problem:
     a serial algorithm will be used

     Found symmetry operation: I + ( -0.5000  0.0000  0.0000)
     This is a supercell, fractional translations are disabled

     bravais-lattice index     =            0
     lattice parameter (alat)  =       1.8897  a.u.
     unit-cell volume          =    4628.7727 (a.u.)^3
     number of atoms/cell      =           12
     number of atomic types    =            2
     number of electrons       =        90.00
     number of Kohn-Sham states=           75
     kinetic-energy cutoff     =      36.7493  Ry
     charge density cutoff     =     367.4932  Ry
     convergence threshold     =      1.0E-06
     mixing beta               =       0.1000
     number of iterations used =           10  plain     mixing
     Exchange-correlation      = BEEF-VDW ( 1  4 27 13 2)
     nstep                     =           50

     celldm(1)=   1.889726  celldm(2)=   0.000000  celldm(3)=   0.000000
     celldm(4)=   0.000000  celldm(5)=   0.000000  celldm(6)=   0.000000

     crystal axes: (cart. coord. in units of alat)
               a(1) = (   5.630833   0.000000   0.000000 )
               a(2) = (  -2.815416   4.945855   0.000000 )
               a(3) = (   0.000000   0.000000  24.629480 )

     reciprocal axes: (cart. coord. in units 2 pi/alat)
               b(1) = (  0.177594  0.101095  0.000000 )
               b(2) = (  0.000000  0.202190  0.000000 )
               b(3) = (  0.000000  0.000000  0.040602 )

     PseudoPot. # 1 for Al read from file:
     /afs/slac.stanford.edu/u/if/mamunm/psp/gbrv1.5pbe/Al.UPF
     MD5 check sum: 0a6289f5291fc8f409219462bc851e1f
     Pseudo is Ultrasoft + core correction, Zval =  3.0
     Generated by new atomic code, or converted to UPF format
     Using radial grid of  893 points,  3 beta functions with:
                l(1) =   0
                l(2) =   1
                l(3) =   2
     Q(r) pseudized with  8 coefficients,  rinner =    0.900   0.900   0.900
                                                       0.900   0.900

     PseudoPot. # 2 for Ti read from file:
     /afs/slac.stanford.edu/u/if/mamunm/psp/gbrv1.5pbe/Ti.UPF
     MD5 check sum: 88a00a6731bd790ddea75d31a80cb452
     Pseudo is Ultrasoft + core correction, Zval = 12.0
     Generated by new atomic code, or converted to UPF format
     Using radial grid of  851 points,  6 beta functions with:
                l(1) =   0
                l(2) =   0
                l(3) =   1
                l(4) =   1
                l(5) =   2
                l(6) =   2
     Q(r) pseudized with  6 coefficients,  rinner =    1.000   1.000   1.000
                                                       1.000   1.000

     vdW kernel table read from file vdW_kernel_table
     MD5 check sum: 095c7af220d748ca6e76c0b4c6cfb241

     atomic species   valence    mass     pseudopotential
        Al1            3.00    26.98154     Al( 1.00)
        Ti1           12.00    47.86700     Ti( 1.00)

     No symmetry found

   Cartesian axes

     site n.     atom                  positions (alat units)
         1           Al1 tau(   1) = (   0.0000000   0.0000000  10.0000000  )
         2           Al1 tau(   2) = (   2.8154163   0.0000000  10.0000000  )
         3           Ti1 tau(   3) = (   1.4077082   2.4729276  10.0000000  )
         4           Ti1 tau(   4) = (  -1.4077082   2.4729276  10.0000000  )
         5           Al1 tau(   5) = (   2.8154163   1.6026691  12.3147399  )
         6           Al1 tau(   6) = (   0.0000000   1.6026691  12.3147399  )
         7           Ti1 tau(   7) = (  -1.4077082   4.0755966  12.3147399  )
         8           Ti1 tau(   8) = (   1.4077082   4.0755966  12.3147399  )
         9           Al1 tau(   9) = (   0.0000030   3.1858320  14.6954790  )
        10           Al1 tau(  10) = (   2.8154127   3.1858324  14.6954791  )
        11           Ti1 tau(  11) = (   4.2231234   0.7318182  14.5505036  )
        12           Ti1 tau(  12) = (   1.4077079   0.7318122  14.5504995  )

     number of k points=    20  Fermi-Dirac smearing, width (Ry)=  0.0110
                       cart. coord. in units 2pi/alat
        k(    1) = (   0.0000000   0.0000000   0.0000000), wk =   0.0555556
        k(    2) = (   0.0000000   0.0336983   0.0000000), wk =   0.1111111
        k(    3) = (   0.0000000   0.0673965   0.0000000), wk =   0.1111111
        k(    4) = (   0.0000000  -0.1010948   0.0000000), wk =   0.0555556
        k(    5) = (   0.0295989   0.0168491   0.0000000), wk =   0.1111111
        k(    6) = (   0.0295989   0.0505474   0.0000000), wk =   0.1111111
        k(    7) = (   0.0295989   0.0842456   0.0000000), wk =   0.1111111
        k(    8) = (   0.0295989  -0.0842456   0.0000000), wk =   0.1111111
        k(    9) = (   0.0295989  -0.0505474   0.0000000), wk =   0.1111111
        k(   10) = (   0.0295989  -0.0168491   0.0000000), wk =   0.1111111
        k(   11) = (   0.0591979   0.0336983   0.0000000), wk =   0.1111111
        k(   12) = (   0.0591979   0.0673965   0.0000000), wk =   0.1111111
        k(   13) = (   0.0591979   0.1010948   0.0000000), wk =   0.1111111
        k(   14) = (   0.0591979  -0.0673965   0.0000000), wk =   0.1111111
        k(   15) = (   0.0591979  -0.0336983   0.0000000), wk =   0.1111111
        k(   16) = (   0.0591979   0.0000000   0.0000000), wk =   0.1111111
        k(   17) = (  -0.0887968  -0.0505474   0.0000000), wk =   0.0555556
        k(   18) = (  -0.0887968  -0.0168491   0.0000000), wk =   0.1111111
        k(   19) = (  -0.0887968   0.0168491   0.0000000), wk =   0.1111111
        k(   20) = (  -0.0887968  -0.1516421   0.0000000), wk =   0.0555556

     Largest allocated arrays     est. size (Mb)     dimensions
     Largest temporary arrays     est. size (Mb)     dimensions

     Check: negative/imaginary core charge=   -0.000004    0.000000

     Initial potential from superposition of free atoms
     Check: negative starting charge=   -0.008177

     starting charge   83.98494, renormalised to   90.00000

[...]

     *
     * You are using vdW-DF for exchange-correlation in this calculation.
     * Please cite the following three references that made this development
     * possible:
     *
     *   M. Dion, H. Rydberg, E. Schroder, D. C. Langreth, and
     *   B. I. Lundqvist, Phys. Rev. Lett. 92, 246401 (2004).
     *
     *   T. Thonhauser, V. R. Cooper, S. Li, A. Puzder, P. Hyldgaard, and
     *   D. C. Langreth, Phys. Rev. B 76, 125112 (2007).
     *
     *   G. Roman-Perez and J. M. Soler, Phys. Rev. Lett. 103, 096102 (2009).
     *
     *
     * If you are using vdW-DF2, please also cite:
     *
     *   K. Lee, E. D. Murray, L. Kong, B. I. Lundqvist, and
     *   D. C. Langreth, Phys. Rev. B 82, 081101(R) (2010).
     *
     *
     * If you are calculating the stress with vdW-DF, please also cite:
     *
     *   R. Sabatini, E. Kucukbenli, B. Kolb, T. Thonhauser, and
     *   S. de Gironcoli, J. Phys.: Condens. Matter 24, 424209 (2012).
     *

     Carrying out vdW-DF run using the following parameters:

     Nqs =      20    Nr_points =    1024   r_max =   100.000
     q_mesh =
               0.00001000     0.04494208     0.09755937     0.15916263
               0.23128650     0.31572767     0.41458969     0.53033537
               0.66584808     0.82450364     1.01025438     1.22772762
               1.48234092     1.78043706     2.12944203     2.53805004
               3.01644009     3.57652955     4.23227104     5.00000000

     Gradients computed in reciprocal space

[...]

     Starting wfc are   84 randomized atomic wfcs

     Self-consistent Calculation

[...]

     total energy              =    -760.75110808 Ry
     Harris-Foulkes estimate   =    -760.75110794 Ry
     estimated scf accuracy    <       0.00000113 Ry

     iteration # 19     ecut=    36.75 Ry     beta=0.10
     Davidson diagonalization with overlap
     ethr =  1.26E-09,  avg # of iterations =  2.1

[...]

     negative rho (up, down):  5.447E-03 0.000E+00

     Adding external electric field

     Computed dipole along edir(3) :
        Dipole               -0.0265 Ry au,         -0.0674 Debye
        Dipole field         -0.0001 Ry au

        Potential amp.        0.0065 Ry
        Total length         45.3794 bohr

     End of self-consistent calculation

[...]

          k = 0.0592 0.0000 0.0000 ( 17434 PWs)   bands (ev):

[...]

          k =-0.0888-0.1516 0.0000 ( 17388 PWs)   bands (ev):

   -57.1264 -57.1264 -57.0505 -57.0505 -56.7683 -56.7683 -33.5126 -33.5125
   -33.4293 -33.4293 -33.3627 -33.3626 -33.2932 -33.2931 -33.2264 -33.2263
   -33.1707 -33.1707 -33.1057 -33.1056 -32.9627 -32.9627 -32.9038 -32.9038
    -7.0270  -7.0270  -5.7155  -5.7155  -4.4391  -4.4391  -2.7148  -2.7148
    -2.1742  -2.1742  -1.3220  -1.3220  -1.0412  -1.0411  -0.7443  -0.7443
    -0.5497  -0.5496  -0.1637  -0.1637   0.0674   0.0675   0.2024   0.2024
     0.5184   0.5184   0.7594   0.7594   1.0673   1.0673   1.2890   1.2890
     1.4690   1.4691   1.8007   1.8007   2.0702   2.0702   2.1482   2.1482
     2.5623   2.5623   3.2407   3.2407   4.3049   4.3049   4.4262   4.4262
     4.8252   4.8252   5.0126

     the Fermi energy is    -0.0507 ev

!    total energy              =    -760.75110877 Ry
     Harris-Foulkes estimate   =    -760.75110810 Ry
     estimated scf accuracy    <       0.00000021 Ry

     The total energy is the sum of the following terms:

     one-electron contribution =   -4581.87117158 Ry
     hartree contribution      =    2285.47789121 Ry
     xc contribution           =    -139.23899287 Ry
     ewald contribution        =    1674.95877894 Ry
     electric field correction =       0.00000191 Ry
     smearing contrib. (-TS)   =      -0.07761638 Ry

     convergence has been achieved in  19 iterations

 BEEF-vdW xc energy contributions
           1 :   -118.692950872954
           2 :    105.354164603274
           3 :   -83.8237914218691
           4 :    61.3598415285121
           5 :   -43.5560854815337
           6 :    32.1654187669817
           7 :   -25.5001489655914
           8 :    20.5616861906286
           9 :   -15.2189593747584
          10 :    9.13535279637414
          11 :   -3.26917147499887
          12 :   -1.31121487700028
          13 :    4.30865510592344
          14 :   -6.25477116326505
          15 :    7.91516216485846
          16 :   -9.65194094351835
          17 :    11.2368890493542
          18 :   -12.1602183332390
          19 :    12.0863683778985
          20 :   -11.0892349012199
          21 :    9.55178599531089
          22 :   -7.88649288424693
          23 :    6.30613295449831
          24 :   -4.78140008172909
          25 :    3.16247326996213
          26 :   -1.34985326084617
          27 :  -0.605019396775333
          28 :    2.51471133118955
          29 :   -4.15468666665890
          30 :    5.37095486234949
          31 :   -13.5216136010558
          32 :   -9.70741053995113

     Forces acting on atoms (Ry/au):

     negative rho (up, down):  5.447E-03 0.000E+00
     atom    1 type  1   force =     0.00000076    0.00419184   -0.01096280
     atom    2 type  1   force =    -0.00000081    0.00419180   -0.01096278
     atom    3 type  2   force =     0.00000012   -0.00086014    0.01480065
     atom    4 type  2   force =    -0.00000003   -0.00086077    0.01479650
     atom    5 type  1   force =    -0.00000233    0.00183079   -0.00614871
     atom    6 type  1   force =     0.00000221    0.00183079   -0.00614867
     atom    7 type  2   force =    -0.00000003   -0.00393609    0.00001156
     atom    8 type  2   force =     0.00000006   -0.00393326    0.00001420
     atom    9 type  1   force =    -0.00000132   -0.00046716    0.00134764
     atom   10 type  1   force =     0.00000123   -0.00046725    0.00134764
     atom   11 type  2   force =     0.00000026   -0.00076122    0.00095209
     atom   12 type  2   force =    -0.00000013   -0.00075934    0.00095267

     Total force =     0.028902     Total SCF correction =     0.000513

     entering subroutine stress ...

     negative rho (up, down):  5.447E-03 0.000E+00
          total   stress  (Ry/bohr**3)                   (kbar)     P=   -7.24
  -0.00005394   0.00000000   0.00000000         -7.93      0.00      0.00
   0.00000000  -0.00008969  -0.00000857          0.00    -13.19     -1.26
   0.00000000  -0.00000857  -0.00000410          0.00     -1.26     -0.60

 !ASE

     Writing output data file calc.save

     General routines

     Parallel routines

   This run was terminated on:  19: 4:25  18Dec2018

   JOB DONE.
Job  /afs/slac/g/suncat/bin/suncat-tsmpirun -x LD_LIBRARY_PATH -wdir /scratch/qe529620_qHFC8 pw.x -in pw.inp

TID   HOST_NAME   COMMAND_LINE            STATUS            TERMINATION_TIME
00000 suncat0053 pw.x -in pw.inp   Done                     12/18/2018 19:04:25
00001 suncat0053 pw.x -in pw.inp   Done                     12/18/2018 19:04:25
00002 suncat0053 pw.x -in pw.inp   Done                     12/18/2018 19:04:25
00003 suncat0053 pw.x -in pw.inp   Done                     12/18/2018 19:04:25
00004 suncat0053 pw.x -in pw.inp   Done                     12/18/2018 19:04:25
00005 suncat0053 pw.x -in pw.inp   Done                     12/18/2018 19:04:25
00006 suncat0053 pw.x -in pw.inp   Done                     12/18/2018 19:04:25
00007 suncat0053 pw.x -in pw.inp   Done                     12/18/2018 19:04:25
00008 suncat0052 pw.x -in pw.inp   Done                     12/18/2018 19:04:25
00009 suncat0052 pw.x -in pw.inp   Done                     12/18/2018 19:04:25
00010 suncat0052 pw.x -in pw.inp   Done                     12/18/2018 19:04:25
00011 suncat0052 pw.x -in pw.inp   Done                     12/18/2018 19:04:25
00012 suncat0052 pw.x -in pw.inp   Done                     12/18/2018 19:04:25
00013 suncat0052 pw.x -in pw.inp   Done                     12/18/2018 19:04:25
00014 suncat0052 pw.x -in pw.inp   Done                     12/18/2018 19:04:25
00015 suncat0052 pw.x -in pw.inp   Done                     12/18/2018 19:04:25
00016 suncat0051 pw.x -in pw.inp   Done                     12/18/2018 19:04:25
00017 suncat0051 pw.x -in pw.inp   Done                     12/18/2018 19:04:25
00018 suncat0051 pw.x -in pw.inp   Done                     12/18/2018 19:04:25
00019 suncat0051 pw.x -in pw.inp   Done                     12/18/2018 19:04:25
00020 suncat0051 pw.x -in pw.inp   Done                     12/18/2018 19:04:25
00021 suncat0051 pw.x -in pw.inp   Done                     12/18/2018 19:04:25
00022 suncat0051 pw.x -in pw.inp   Done                     12/18/2018 19:04:25
00023 suncat0051 pw.x -in pw.inp   Done                     12/18/2018 19:04:25
00024 suncat0050 pw.x -in pw.inp   Done                     12/18/2018 19:04:25
00025 suncat0050 pw.x -in pw.inp   Done                     12/18/2018 19:04:25
00026 suncat0050 pw.x -in pw.inp   Done                     12/18/2018 19:04:25
00027 suncat0050 pw.x -in pw.inp   Done                     12/18/2018 19:04:25
00028 suncat0050 pw.x -in pw.inp   Done                     12/18/2018 19:04:25
00029 suncat0050 pw.x -in pw.inp   Done                     12/18/2018 19:04:25
00030 suncat0050 pw.x -in pw.inp   Done                     12/18/2018 19:04:25
00031 suncat0050 pw.x -in pw.inp   Done                     12/18/2018 19:04:25