     Program PWSCF v.5.1rc2 (svn rev. 11289) starts on 18Dec2018 at 18:25:53

     Current dimensions of program PWSCF are:
     Max number of different atomic species (ntypx) = 10
     Max number of k-points (npk) =  40000
     Max angular momentum in pseudopotentials (lmaxx) =  3
     Presently stress not available with electric field

     IMPORTANT: XC functional enforced from input :
     Exchange-correlation      = BEEF-VDW ( 1  4 27 13 2)
     Any further DFT definition will be discarded
     Please, verify this is what you really want

     Subspace diagonalization in iterative solution of the eigenvalue problem:
     a serial algorithm will be used

     Found symmetry operation: I + (  0.5000  0.5000  0.0000)
     This is a supercell, fractional translations are disabled

     bravais-lattice index     =            0
     lattice parameter (alat)  =       1.8897  a.u.
     unit-cell volume          =    4603.9040 (a.u.)^3
     number of atoms/cell      =           12
     number of atomic types    =            2
     number of electrons       =       138.00
     number of Kohn-Sham states=           99
     kinetic-energy cutoff     =      36.7493  Ry
     charge density cutoff     =     367.4932  Ry
     convergence threshold     =      1.0E-06
     mixing beta               =       0.1000
     number of iterations used =           10  plain     mixing
     Exchange-correlation      = BEEF-VDW ( 1  4 27 13 2)
     nstep                     =           50

     celldm(1)=   1.889726  celldm(2)=   0.000000  celldm(3)=   0.000000
     celldm(4)=   0.000000  celldm(5)=   0.000000  celldm(6)=   0.000000

     crystal axes: (cart. coord. in units of alat)
               a(1) = (   5.653041   0.000000   0.000000 )
               a(2) = (   2.815360   4.902104   0.000000 )
               a(3) = (   0.000000   0.000000  24.618693 )

     reciprocal axes: (cart. coord. in units 2 pi/alat)
               b(1) = (  0.176896 -0.101594  0.000000 )
               b(2) = (  0.000000  0.203994  0.000000 )
               b(3) = (  0.000000  0.000000  0.040620 )

     PseudoPot. # 1 for Al read from file:
     /afs/slac.stanford.edu/u/if/mamunm/psp/gbrv1.5pbe/Al.UPF
     MD5 check sum: 0a6289f5291fc8f409219462bc851e1f
     Pseudo is Ultrasoft + core correction, Zval =  3.0
     Generated by new atomic code, or converted to UPF format
     Using radial grid of  893 points,  3 beta functions with:
                l(1) =   0
                l(2) =   1
                l(3) =   2
     Q(r) pseudized with  8 coefficients,  rinner =    0.900   0.900   0.900
                                                       0.900   0.900

     PseudoPot. # 2 for Zn read from file:
     /afs/slac.stanford.edu/u/if/mamunm/psp/gbrv1.5pbe/Zn.UPF
     MD5 check sum: df62231357ef9e81f77b2b3087fa5675
     Pseudo is Ultrasoft, Zval = 20.0
     Generated by new atomic code, or converted to UPF format
     Using radial grid of  943 points,  6 beta functions with:
                l(1) =   0
                l(2) =   0
                l(3) =   1
                l(4) =   1
                l(5) =   2
                l(6) =   2
     Q(r) pseudized with  8 coefficients,  rinner =    1.100   1.100   1.100
                                                       1.100   1.100

     vdW kernel table read from file vdW_kernel_table
     MD5 check sum: 095c7af220d748ca6e76c0b4c6cfb241

     atomic species   valence    mass     pseudopotential
        Al1            3.00    26.98154     Al( 1.00)
        Zn1           20.00    65.38000     Zn( 1.00)

     No symmetry found

   Cartesian axes

     site n.     atom                  positions (alat units)
         1           Al1 tau(   1) = (   0.0000000   0.0000000  10.0000000  )
         2           Al1 tau(   2) = (   4.2342008   2.4510519  10.0000000  )
         3           Zn1 tau(   3) = (   2.8265206   0.0000000  10.0000000  )
         4           Zn1 tau(   4) = (   1.4076802   2.4510519  10.0000000  )
         5           Al1 tau(   5) = (   5.6530413   3.2723761  12.3093467  )
         6           Al1 tau(   6) = (   1.4188405   0.8213242  12.3093467  )
         7           Zn1 tau(   7) = (   2.8265206   3.2723761  12.3093467  )
         8           Zn1 tau(   8) = (   4.2453611   0.8213242  12.3093467  )
         9           Al1 tau(   9) = (   2.8376809   1.6426484  14.6186933  )
        10           Al1 tau(  10) = (   7.0718817   4.0937003  14.6186933  )
        11           Zn1 tau(  11) = (   5.6642016   1.6426484  14.6186933  )
        12           Zn1 tau(  12) = (   4.2453611   4.0937003  14.6186933  )

     number of k points=    20  Fermi-Dirac smearing, width (Ry)=  0.0110
                       cart. coord. in units 2pi/alat
        k(    1) = (   0.0000000   0.0000000   0.0000000), wk =   0.0555556
        k(    2) = (   0.0000000   0.0339990   0.0000000), wk =   0.1111111
        k(    3) = (   0.0000000   0.0679980   0.0000000), wk =   0.1111111
        k(    4) = (   0.0000000  -0.1019970   0.0000000), wk =   0.0555556
        k(    5) = (   0.0294827  -0.0169324   0.0000000), wk =   0.1111111
        k(    6) = (   0.0294827   0.0170666   0.0000000), wk =   0.1111111
        k(    7) = (   0.0294827   0.0510656   0.0000000), wk =   0.1111111
        k(    8) = (   0.0294827  -0.1189294   0.0000000), wk =   0.1111111
        k(    9) = (   0.0294827  -0.0849304   0.0000000), wk =   0.1111111
        k(   10) = (   0.0294827  -0.0509314   0.0000000), wk =   0.1111111
        k(   11) = (   0.0589653  -0.0338648   0.0000000), wk =   0.1111111
        k(   12) = (   0.0589653   0.0001342   0.0000000), wk =   0.1111111
        k(   13) = (   0.0589653   0.0341333   0.0000000), wk =   0.1111111
        k(   14) = (   0.0589653  -0.1358618   0.0000000), wk =   0.1111111
        k(   15) = (   0.0589653  -0.1018628   0.0000000), wk =   0.1111111
        k(   16) = (   0.0589653  -0.0678638   0.0000000), wk =   0.1111111
        k(   17) = (  -0.0884480   0.0507971   0.0000000), wk =   0.0555556
        k(   18) = (  -0.0884480   0.0847962   0.0000000), wk =   0.1111111
        k(   19) = (  -0.0884480   0.1187952   0.0000000), wk =   0.1111111
        k(   20) = (  -0.0884480  -0.0511999   0.0000000), wk =   0.0555556

     Largest allocated arrays     est. size (Mb)     dimensions
     Largest temporary arrays     est. size (Mb)     dimensions

     Initial potential from superposition of free atoms
     Check: negative starting charge=   -0.000625

     starting charge  137.98436, renormalised to  138.00000

     negative rho (up, down):  6.247E-04 0.000E+00

     *
     * You are using vdW-DF for exchange-correlation in this calculation.
     * Please cite the following three references that made this development
     * possible:
     *
     *   M. Dion, H. Rydberg, E. Schroder, D. C. Langreth, and
     *   B. I. Lundqvist, Phys. Rev. Lett. 92, 246401 (2004).
     *
     *   T. Thonhauser, V. R. Cooper, S. Li, A. Puzder, P. Hyldgaard, and
     *   D. C. Langreth, Phys. Rev. B 76, 125112 (2007).
     *
     *   G. Roman-Perez and J. M. Soler, Phys. Rev. Lett. 103, 096102 (2009).
     *
     *
     * If you are using vdW-DF2, please also cite:
     *
     *   K. Lee, E. D. Murray, L. Kong, B. I. Lundqvist, and
     *   D. C. Langreth, Phys. Rev. B 82, 081101(R) (2010).
     *
     *
     * If you are calculating the stress with vdW-DF, please also cite:
     *
     *   R. Sabatini, E. Kucukbenli, B. Kolb, T. Thonhauser, and
     *   S. de Gironcoli, J. Phys.: Condens. Matter 24, 424209 (2012).
     *

     Carrying out vdW-DF run using the following parameters:

     Nqs =      20    Nr_points =    1024   r_max =   100.000
     q_mesh =
               0.00001000     0.04494208     0.09755937     0.15916263
               0.23128650     0.31572767     0.41458969     0.53033537
               0.66584808     0.82450364     1.01025438     1.22772762
               1.48234092     1.78043706     2.12944203     2.53805004
               3.01644009     3.57652955     4.23227104     5.00000000

     Gradients computed in reciprocal space

     Adding external electric field

     Computed dipole along edir(3) :
        Dipole               -0.0000 Ry au,         -0.0000 Debye
        Dipole field         -0.0000 Ry au

        Potential amp.        0.0000 Ry
        Total length         45.3595 bohr

     Starting wfc are  102 randomized atomic wfcs

     Self-consistent Calculation

     iteration #  1     ecut=    36.75 Ry     beta=0.10
     Davidson diagonalization with overlap
     ethr =  1.00E-02,  avg # of iterations =  7.9

     Threshold (ethr) on eigenvalues was too large:
     Diagonalizing with lowered threshold

     Davidson diagonalization with overlap
     ethr =  3.59E-04,  avg # of iterations =  4.0

[...]

     total energy              =   -2817.81300663 Ry
     Harris-Foulkes estimate   =   -2817.89049691 Ry
     estimated scf accuracy    <       0.50234503 Ry

[...]

     End of self-consistent calculation

          k = 0.0000 0.0000 0.0000 ( 17379 PWs)   bands (ev):

  -126.9770-126.9764-126.8292-126.8291-126.8287-126.8286 -81.1545 -81.1538
   -81.1509 -81.1508 -81.1499 -81.1426 -81.0061 -81.0059 -81.0059 -81.0058
   -81.0054 -81.0053 -81.0052 -81.0051 -81.0046 -81.0045 -80.9978 -80.9976
   -10.3496  -8.7789  -8.3658  -8.3460  -8.2716  -8.2345  -8.0983  -8.0588
    -8.0569  -8.0479  -8.0062  -7.9582  -7.9521  -7.9034  -7.7761  -7.7687
    -7.7579  -7.7286  -7.7259  -7.7078  -7.7011  -7.6829  -7.6417  -7.6358
    -7.6016  -7.5793  -7.5549  -7.5512  -7.5293  -7.5051  -7.4962  -7.3482
    -5.4067  -4.1588  -3.9502  -3.8043  -3.7693  -3.6689  -3.6402  -2.7346
    -2.7051  -2.4084  -2.3931  -1.8602  -1.6892  -1.5283   0.3486   0.3558
     0.4179   0.5973   0.6453   0.8310   1.1935   2.8450   3.5048   3.6462
     3.6601   3.7075   3.7852   3.8267   3.8675   4.3153   4.5928   6.0843
     6.1951   6.5053   6.9162   7.0092   7.0397   7.2066   7.2477   7.3759
     7.6045   7.8626   8.3382

[...]

          k =-0.0884 0.0508 0.0000 ( 17316 PWs)   bands (ev):

[...]

     the Fermi energy is    -0.1561 ev

!    total energy              =   -2817.79120412 Ry
     Harris-Foulkes estimate   =   -2817.79120014 Ry
     estimated scf accuracy    <       0.00000033 Ry

     The total energy is the sum of the following terms:

     one-electron contribution =  -12725.89667410 Ry
     hartree contribution      =    6352.89112499 Ry
     xc contribution           =    -286.83077260 Ry
     ewald contribution        =    3842.07203880 Ry
     electric field correction =       0.00000000 Ry
     smearing contrib. (-TS)   =      -0.02692120 Ry

     convergence has been achieved in  13 iterations

 BEEF-vdW xc energy contributions
           1 :   -253.113005406713
           2 :    228.409519505094
           3 :   -187.386663557486
           4 :    142.429057155466
           5 :   -104.065366153407
           6 :    76.9892135031621
           7 :   -59.7797819205186
           8 :    47.7715029202606
           9 :   -36.8010395196950
          10 :    25.4696601760564
          11 :   -14.9684120354146
          12 :    7.23795175535736
[...]
00031 suncat0066 pw.x -in pw.inp   Done                     12/18/2018 18:36:53

     Program PWSCF v.5.1rc2 (svn rev. 11289) starts on 18Dec2018 at 18:37: 0

[...]

     Total force =     0.018293     Total SCF correction =     0.001051

[...]

   This run was terminated on:  19: 0: 6  18Dec2018

[...]

     Program PWSCF v.5.1rc2 (svn rev. 11289) starts on 18Dec2018 at 19: 0:12

[...]

     Program PWSCF v.5.1rc2 (svn rev. 11289) starts on 18Dec2018 at 19:22:29

     Current dimensions of program PWSCF are:
     Max number of different atomic species (ntypx) = 10
     Max number of k-points (npk) =  40000
     Max angular momentum in pseudopotentials (lmaxx) =  3
     Presently stress not available with electric field

     IMPORTANT: XC functional enforced from input :
     Exchange-correlation      = BEEF-VDW ( 1  4 27 13 2)
     Any further DFT definition will be discarded
     Please, verify this is what you really want

     Subspace diagonalization in iterative solution of the eigenvalue problem:
     a serial algorithm will be used

     Found symmetry operation: I + (  0.5000  0.5000  0.0000)
     This is a supercell, fractional translations are disabled

     bravais-lattice index     =            0
     lattice parameter (alat)  =       1.8897  a.u.
     unit-cell volume          =    4603.9040 (a.u.)^3
     number of atoms/cell      =           12
     number of atomic types    =            2
     number of electrons       =       138.00
     number of Kohn-Sham states=           99
     kinetic-energy cutoff     =      36.7493  Ry
     charge density cutoff     =     367.4932  Ry
     convergence threshold     =      1.0E-06
     mixing beta               =       0.1000
     number of iterations used =           10  plain     mixing
     Exchange-correlation      = BEEF-VDW ( 1  4 27 13 2)
     nstep                     =           50

     celldm(1)=   1.889726  celldm(2)=   0.000000  celldm(3)=   0.000000
     celldm(4)=   0.000000  celldm(5)=   0.000000  celldm(6)=   0.000000

     crystal axes: (cart. coord. in units of alat)
               a(1) = (   5.653041   0.000000   0.000000 )
               a(2) = (   2.815360   4.902104   0.000000 )
               a(3) = (   0.000000   0.000000  24.618693 )

     reciprocal axes: (cart. coord. in units 2 pi/alat)
               b(1) = (  0.176896 -0.101594  0.000000 )
               b(2) = (  0.000000  0.203994  0.000000 )
               b(3) = (  0.000000  0.000000  0.040620 )

     PseudoPot. # 1 for Al read from file:
     /afs/slac.stanford.edu/u/if/mamunm/psp/gbrv1.5pbe/Al.UPF
     MD5 check sum: 0a6289f5291fc8f409219462bc851e1f
     Pseudo is Ultrasoft + core correction, Zval =  3.0
     Generated by new atomic code, or converted to UPF format
     Using radial grid of  893 points,  3 beta functions with:
                l(1) =   0
                l(2) =   1
                l(3) =   2
     Q(r) pseudized with  8 coefficients,  rinner =    0.900   0.900   0.900
                                                       0.900   0.900

     PseudoPot. # 2 for Zn read from file:
     /afs/slac.stanford.edu/u/if/mamunm/psp/gbrv1.5pbe/Zn.UPF
     MD5 check sum: df62231357ef9e81f77b2b3087fa5675
     Pseudo is Ultrasoft, Zval = 20.0
     Generated by new atomic code, or converted to UPF format
     Using radial grid of  943 points,  6 beta functions with:
                l(1) =   0
                l(2) =   0
                l(3) =   1
                l(4) =   1
                l(5) =   2
                l(6) =   2
     Q(r) pseudized with  8 coefficients,  rinner =    1.100   1.100   1.100
                                                       1.100   1.100

     vdW kernel table read from file vdW_kernel_table
     MD5 check sum: 095c7af220d748ca6e76c0b4c6cfb241

     atomic species   valence    mass     pseudopotential
        Al1            3.00    26.98154     Al( 1.00)
        Zn1           20.00    65.38000     Zn( 1.00)

     No symmetry found

   Cartesian axes

     site n.     atom                  positions (alat units)
         1           Al1 tau(   1) = (   0.0000000   0.0000000  10.0000000  )
         2           Al1 tau(   2) = (   4.2342008   2.4510519  10.0000000  )
         3           Zn1 tau(   3) = (   2.8265206   0.0000000  10.0000000  )
         4           Zn1 tau(   4) = (   1.4076802   2.4510519  10.0000000  )
         5           Al1 tau(   5) = (   5.6530413   3.2723761  12.3093467  )
         6           Al1 tau(   6) = (   1.4188405   0.8213242  12.3093467  )
         7           Zn1 tau(   7) = (   2.8265206   3.2723761  12.3093467  )
         8           Zn1 tau(   8) = (   4.2453611   0.8213242  12.3093467  )
         9           Al1 tau(   9) = (   2.8442389   1.6464443  14.6798484  )
        10           Al1 tau(  10) = (   7.0784400   4.0974963  14.6798484  )
        11           Zn1 tau(  11) = (   5.6709581   1.6465573  14.7247253  )
        12           Zn1 tau(  12) = (   4.2521205   4.0976123  14.7247199  )

     number of k points=    20  Fermi-Dirac smearing, width (Ry)=  0.0110
                       cart. coord. in units 2pi/alat
        k(    1) = (   0.0000000   0.0000000   0.0000000), wk =   0.0555556
        k(    2) = (   0.0000000   0.0339990   0.0000000), wk =   0.1111111
        k(    3) = (   0.0000000   0.0679980   0.0000000), wk =   0.1111111
        k(    4) = (   0.0000000  -0.1019970   0.0000000), wk =   0.0555556
        k(    5) = (   0.0294827  -0.0169324   0.0000000), wk =   0.1111111
        k(    6) = (   0.0294827   0.0170666   0.0000000), wk =   0.1111111
        k(    7) = (   0.0294827   0.0510656   0.0000000), wk =   0.1111111
        k(    8) = (   0.0294827  -0.1189294   0.0000000), wk =   0.1111111
        k(    9) = (   0.0294827  -0.0849304   0.0000000), wk =   0.1111111
        k(   10) = (   0.0294827  -0.0509314   0.0000000), wk =   0.1111111
        k(   11) = (   0.0589653  -0.0338648   0.0000000), wk =   0.1111111
        k(   12) = (   0.0589653   0.0001342   0.0000000), wk =   0.1111111
        k(   13) = (   0.0589653   0.0341333   0.0000000), wk =   0.1111111
        k(   14) = (   0.0589653  -0.1358618   0.0000000), wk =   0.1111111
        k(   15) = (   0.0589653  -0.1018628   0.0000000), wk =   0.1111111
        k(   16) = (   0.0589653  -0.0678638   0.0000000), wk =   0.1111111
        k(   17) = (  -0.0884480   0.0507971   0.0000000), wk =   0.0555556
        k(   18) = (  -0.0884480   0.0847962   0.0000000), wk =   0.1111111
        k(   19) = (  -0.0884480   0.1187952   0.0000000), wk =   0.1111111
        k(   20) = (  -0.0884480  -0.0511999   0.0000000), wk =   0.0555556

     Largest allocated arrays     est. size (Mb)     dimensions
     Largest temporary arrays     est. size (Mb)     dimensions

     Initial potential from superposition of free atoms
     Check: negative starting charge=   -0.000606

     starting charge  137.98436, renormalised to  138.00000

[...]

     *
     * You are using vdW-DF for exchange-correlation in this calculation.
     * Please cite the following three references that made this development
     * possible:
     *
     *   M. Dion, H. Rydberg, E. Schroder, D. C. Langreth, and
     *   B. I. Lundqvist, Phys. Rev. Lett. 92, 246401 (2004).
     *
     *   T. Thonhauser, V. R. Cooper, S. Li, A. Puzder, P. Hyldgaard, and
     *   D. C. Langreth, Phys. Rev. B 76, 125112 (2007).
     *
     *   G. Roman-Perez and J. M. Soler, Phys. Rev. Lett. 103, 096102 (2009).
     *
     *
     * If you are using vdW-DF2, please also cite:
     *
     *   K. Lee, E. D. Murray, L. Kong, B. I. Lundqvist, and
     *   D. C. Langreth, Phys. Rev. B 82, 081101(R) (2010).
     *
     *
     * If you are calculating the stress with vdW-DF, please also cite:
     *
     *   R. Sabatini, E. Kucukbenli, B. Kolb, T. Thonhauser, and
     *   S. de Gironcoli, J. Phys.: Condens. Matter 24, 424209 (2012).
     *

     Carrying out vdW-DF run using the following parameters:

     Nqs =      20    Nr_points =    1024   r_max =   100.000
     q_mesh =
               0.00001000     0.04494208     0.09755937     0.15916263
               0.23128650     0.31572767     0.41458969     0.53033537
               0.66584808     0.82450364     1.01025438     1.22772762
               1.48234092     1.78043706     2.12944203     2.53805004
               3.01644009     3.57652955     4.23227104     5.00000000

     Gradients computed in reciprocal space

[...]

     Starting wfc are  102 randomized atomic wfcs

     Self-consistent Calculation

[...]

     Threshold (ethr) on eigenvalues was too large:
     Diagonalizing with lowered threshold

     Davidson diagonalization with overlap
     ethr =  3.46E-04,  avg # of iterations =  3.9

[...]

     total energy              =   -2817.79362507 Ry
     Harris-Foulkes estimate   =   -2817.79362476 Ry
     estimated scf accuracy    <       0.00000155 Ry

     iteration # 13     ecut=    36.75 Ry     beta=0.10
     Davidson diagonalization with overlap
     ethr =  1.12E-09,  avg # of iterations =  2.0

[...]

     negative rho (up, down):  8.150E-04 0.000E+00

     Adding external electric field

     Computed dipole along edir(3) :
        Dipole                0.0078 Ry au,          0.0199 Debye
        Dipole field          0.0000 Ry au

        Potential amp.       -0.0019 Ry
        Total length         45.3595 bohr

     End of self-consistent calculation

[...]

          k = 0.0590-0.0679 0.0000 ( 17305 PWs)   bands (ev):

[...]

          k =-0.0884-0.0512 0.0000 ( 17336 PWs)   bands (ev):

  -126.9272-126.9267-126.8038-126.8033-126.7607-126.7602 -81.1038 -81.1031
   -81.1022 -81.1012 -81.1005 -81.0936 -80.9808 -80.9805 -80.9801 -80.9798
   -80.9794 -80.9722 -80.9385 -80.9379 -80.9378 -80.9373 -80.9366 -80.9293
    -8.8207  -8.7598  -8.1816  -8.1653  -8.1300  -8.1207  -8.0439  -8.0076
    -7.9735  -7.9705  -7.9537  -7.9433  -7.9065  -7.8898  -7.8500  -7.7352
    -7.7312  -7.7188  -7.6721  -7.6712  -7.6598  -7.6498  -7.6259  -7.6024
    -7.5683  -7.5494  -7.5276  -7.4929  -7.4810  -7.4523  -7.4433  -7.3153
    -6.9324  -6.4593  -5.3861  -5.0346  -4.1054  -4.0823  -3.6719  -3.6046
    -1.2828  -1.1288  -0.9831  -0.8455   0.7557   0.9527   0.9710   0.9716
     1.9627   2.1014   2.1294   2.4114   2.4513   2.7243   2.7884   3.0082
     3.7136   4.1499   4.3616   4.4889   4.6167   4.8175   4.9337   5.1195
     5.1583   5.3273   5.4813   5.5032   5.6044   5.7689   5.7853   5.7946
     6.1279   6.1635   7.1560

     the Fermi energy is    -0.1340 ev

!    total energy              =   -2817.79362986 Ry
     Harris-Foulkes estimate   =   -2817.79362530 Ry
     estimated scf accuracy    <       0.00000036 Ry

     The total energy is the sum of the following terms:

     one-electron contribution =  -12584.01055338 Ry
     hartree contribution      =    6282.15999115 Ry
     xc contribution           =    -286.77508851 Ry
     ewald contribution        =    3770.85792977 Ry
     electric field correction =       0.00000017 Ry
     smearing contrib. (-TS)   =      -0.02590906 Ry

     convergence has been achieved in  13 iterations

 BEEF-vdW xc energy contributions
           1 :   -253.056019187686
           2 :    228.323326267901
           3 :   -187.267616321388
           4 :    142.301458133458
           5 :   -103.959125778101
           6 :    76.9131834535818
           7 :   -59.7133454046909
           8 :    47.6813013670668
           9 :   -36.6681184024563
          10 :    25.3045694009185
          11 :   -14.8023907682743
          12 :    7.09872634147229
          13 :   -3.00382462696331
          14 :    1.60111217619408
          15 :   -1.02077726054301
          16 :  -0.244957082787323
          17 :    2.49455035308665
          18 :   -4.92052216175273
          19 :    6.41890078527416
          20 :   -6.45397037239320
          21 :    5.40570597043217
          22 :   -4.24499393994552
          23 :    3.82976319992429
          24 :   -4.33520446431999
          25 :    5.20029810576932
          26 :   -5.59857400073372
          27 :    5.07230732496714
          28 :   -3.86365473019828
          29 :    2.70653390180257
          30 :   -2.25220858213390
          31 :   -21.1102932148702
          32 :   -14.5529279472004

     Forces acting on atoms (Ry/au):

     negative rho (up, down):  8.150E-04 0.000E+00
     atom    1 type  1   force =    -0.00121145   -0.00070132   -0.00524384
     atom    2 type  1   force =    -0.00121149   -0.00070130   -0.00524382
     atom    3 type  2   force =     0.00052382    0.00030375   -0.00814049
     atom    4 type  2   force =     0.00052443    0.00030335   -0.00814115
     atom    5 type  1   force =    -0.00007123   -0.00004134    0.00719886
     atom    6 type  1   force =    -0.00007127   -0.00004126    0.00719884
     atom    7 type  2   force =     0.00032322    0.00018762    0.00603342
     atom    8 type  2   force =     0.00032560    0.00018818    0.00603382
     atom    9 type  1   force =     0.00061353    0.00035525   -0.00085158
     atom   10 type  1   force =     0.00061355    0.00035492   -0.00085158
     atom   11 type  2   force =    -0.00017959   -0.00010396    0.00100388
     atom   12 type  2   force =    -0.00017909   -0.00010389    0.00100363

     Total force =     0.019326     Total SCF correction =     0.003154
     SCF correction compared to forces is large: reduce conv_thr to get better values

     entering subroutine stress ...

     negative rho (up, down):  8.150E-04 0.000E+00
          total   stress  (Ry/bohr**3)                   (kbar)     P=  -14.91
  -0.00015129  -0.00000293  -0.00000001        -22.26     -0.43     -0.00
  -0.00000293  -0.00014793  -0.00000000         -0.43    -21.76     -0.00
  -0.00000001  -0.00000000  -0.00000483         -0.00     -0.00     -0.71

 !ASE

     Writing output data file calc.save

     General routines

     Parallel routines

   This run was terminated on:  19:33:35  18Dec2018

   JOB DONE.
Job  /afs/slac/g/suncat/bin/suncat-tsmpirun -x LD_LIBRARY_PATH -wdir /scratch/qe529629_OZha3 pw.x -in pw.inp

TID   HOST_NAME   COMMAND_LINE            STATUS            TERMINATION_TIME
00000 suncat0070 pw.x -in pw.inp   Done                     12/18/2018 19:33:35
00001 suncat0070 pw.x -in pw.inp   Done                     12/18/2018 19:33:35
00002 suncat0070 pw.x -in pw.inp   Done                     12/18/2018 19:33:35
00003 suncat0070 pw.x -in pw.inp   Done                     12/18/2018 19:33:35
00004 suncat0070 pw.x -in pw.inp   Done                     12/18/2018 19:33:35
00005 suncat0070 pw.x -in pw.inp   Done                     12/18/2018 19:33:35
00006 suncat0070 pw.x -in pw.inp   Done                     12/18/2018 19:33:35
00007 suncat0070 pw.x -in pw.inp   Done                     12/18/2018 19:33:35
00008 suncat0069 pw.x -in pw.inp   Done                     12/18/2018 19:33:35
00009 suncat0069 pw.x -in pw.inp   Done                     12/18/2018 19:33:35
00010 suncat0069 pw.x -in pw.inp   Done                     12/18/2018 19:33:35
00011 suncat0069 pw.x -in pw.inp   Done                     12/18/2018 19:33:35
00012 suncat0069 pw.x -in pw.inp   Done                     12/18/2018 19:33:35
00013 suncat0069 pw.x -in pw.inp   Done                     12/18/2018 19:33:35
00014 suncat0069 pw.x -in pw.inp   Done                     12/18/2018 19:33:35
00015 suncat0069 pw.x -in pw.inp   Done                     12/18/2018 19:33:35
00016 suncat0068 pw.x -in pw.inp   Done                     12/18/2018 19:33:35
00017 suncat0068 pw.x -in pw.inp   Done                     12/18/2018 19:33:35
00018 suncat0068 pw.x -in pw.inp   Done                     12/18/2018 19:33:35
00019 suncat0068 pw.x -in pw.inp   Done                     12/18/2018 19:33:35
00020 suncat0068 pw.x -in pw.inp   Done                     12/18/2018 19:33:35
00021 suncat0068 pw.x -in pw.inp   Done                     12/18/2018 19:33:35
00022 suncat0068 pw.x -in pw.inp   Done                     12/18/2018 19:33:35
00023 suncat0068 pw.x -in pw.inp   Done                     12/18/2018 19:33:35
00024 suncat0066 pw.x -in pw.inp   Done                     12/18/2018 19:33:35
00025 suncat0066 pw.x -in pw.inp   Done                     12/18/2018 19:33:35
00026 suncat0066 pw.x -in pw.inp   Done                     12/18/2018 19:33:35
00027 suncat0066 pw.x -in pw.inp   Done                     12/18/2018 19:33:35
00028 suncat0066 pw.x -in pw.inp   Done                     12/18/2018 19:33:35
00029 suncat0066 pw.x -in pw.inp   Done                     12/18/2018 19:33:35
00030 suncat0066 pw.x -in pw.inp   Done                     12/18/2018 19:33:35
00031 suncat0066 pw.x -in pw.inp   Done                     12/18/2018 19:33:35