     Program PWSCF v.5.1rc2 (svn rev. 11289) starts on 18Dec2018 at 16:49:49

     Current dimensions of program PWSCF are:
     Max number of different atomic species (ntypx) = 10
     Max number of k-points (npk) =  40000
     Max angular momentum in pseudopotentials (lmaxx) =  3
     Presently stress not available with electric field

     IMPORTANT: XC functional enforced from input :
     Exchange-correlation      = BEEF-VDW ( 1  4 27 13 2)
     Any further DFT definition will be discarded
     Please, verify this is what you really want

     Subspace diagonalization in iterative solution of the eigenvalue problem:
     a serial algorithm will be used

     Found symmetry operation: I + ( -0.5000  0.0000  0.0000)
     This is a supercell, fractional translations are disabled

     bravais-lattice index     =            0
     lattice parameter (alat)  =       1.8897  a.u.
     unit-cell volume          =    3998.8642 (a.u.)^3
     number of atoms/cell      =           12
     number of atomic types    =            2
     number of electrons       =       102.00
     number of Kohn-Sham states=           81
     kinetic-energy cutoff     =      36.7493  Ry
     charge density cutoff     =     367.4932  Ry
     convergence threshold     =      1.0E-06
     mixing beta               =       0.1000
     number of iterations used =           10  plain     mixing
     Exchange-correlation      = BEEF-VDW ( 1  4 27 13 2)
     nstep                     =           50

     celldm(1)=   1.889726  celldm(2)=   0.000000  celldm(3)=   0.000000
     celldm(4)=   0.000000  celldm(5)=   0.000000  celldm(6)=   0.000000

     crystal axes: (cart. coord. in units of alat)
               a(1) = (   5.163761   0.000000   0.000000 )
               a(2) = (  -2.581880   4.718180   0.000000 )
               a(3) = (   0.000000   0.000000  24.322011 )

     reciprocal axes: (cart. coord. in units 2 pi/alat)
               b(1) = (  0.193657  0.105973  0.000000 )
               b(2) = (  0.000000  0.211946  0.000000 )
               b(3) = (  0.000000  0.000000  0.041115 )

     PseudoPot. # 1 for Al read from file:
     /afs/slac.stanford.edu/u/if/mamunm/psp/gbrv1.5pbe/Al.UPF
     MD5 check sum: 0a6289f5291fc8f409219462bc851e1f
     Pseudo is Ultrasoft + core correction, Zval =  3.0
     Generated by new atomic code, or converted to UPF format
     Using radial grid of  893 points,  3 beta functions with:
                l(1) =   0
                l(2) =   1
                l(3) =   2
     Q(r) pseudized with  8 coefficients,  rinner =    0.900   0.900   0.900
                                                       0.900   0.900

     PseudoPot. # 2 for Cr read from file:
     /afs/slac.stanford.edu/u/if/mamunm/psp/gbrv1.5pbe/Cr.UPF
     MD5 check sum: 0d52af634a40206e4dee301ad30da4bf
     Pseudo is Ultrasoft + core correction, Zval = 14.0
     Generated by new atomic code, or converted to UPF format
     Using radial grid of  857 points,  6 beta functions with:
                l(1) =   0
                l(2) =   0
                l(3) =   1
                l(4) =   1
                l(5) =   2
                l(6) =   2
     Q(r) pseudized with  8 coefficients,  rinner =    0.950   0.950   0.950
                                                       0.950   0.950

     vdW kernel table read from file vdW_kernel_table
     MD5 check sum: 095c7af220d748ca6e76c0b4c6cfb241

     atomic species   valence    mass     pseudopotential
        Al1            3.00    26.98154     Al( 1.00)
        Cr1           14.00    51.99610     Cr( 1.00)

     No symmetry found

   Cartesian axes

     site n.     atom                  positions (alat units)
         1           Al1 tau(   1) = (   0.0000000   0.0000000  10.0000000  )
         2           Al1 tau(   2) = (   2.5818803   0.0000000  10.0000000  )
         3           Cr1 tau(   3) = (   1.2909402   2.3590898  10.0000000  )
         4           Cr1 tau(   4) = (  -1.2909402   2.3590898  10.0000000  )
         5           Al1 tau(   5) = (   2.5818803   1.4128555  12.1610056  )
         6           Al1 tau(   6) = (  -0.0000000   1.4128555  12.1610056  )
         7           Cr1 tau(   7) = (  -1.2909402   3.7719453  12.1610056  )
         8           Cr1 tau(   8) = (   1.2909402   3.7719453  12.1610056  )
         9           Al1 tau(   9) = (  -0.0000000   2.8257111  14.3220112  )
        10           Al1 tau(  10) = (   2.5818803   2.8257111  14.3220112  )
        11           Cr1 tau(  11) = (   3.8728205   0.4666213  14.3220112  )
        12           Cr1 tau(  12) = (   1.2909402   0.4666213  14.3220112  )

     number of k points=    20  Fermi-Dirac smearing, width (Ry)=  0.0110
                       cart. coord. in units 2pi/alat
        k(    1) = (   0.0000000   0.0000000   0.0000000), wk =   0.0555556
        k(    2) = (   0.0000000   0.0353244   0.0000000), wk =   0.1111111
        k(    3) = (   0.0000000   0.0706487   0.0000000), wk =   0.1111111
        k(    4) = (   0.0000000  -0.1059731   0.0000000), wk =   0.0555556
        k(    5) = (   0.0322762   0.0176622   0.0000000), wk =   0.1111111
        k(    6) = (   0.0322762   0.0529865   0.0000000), wk =   0.1111111
        k(    7) = (   0.0322762   0.0883109   0.0000000), wk =   0.1111111
        k(    8) = (   0.0322762  -0.0883109   0.0000000), wk =   0.1111111
        k(    9) = (   0.0322762  -0.0529865   0.0000000), wk =   0.1111111
        k(   10) = (   0.0322762  -0.0176622   0.0000000), wk =   0.1111111
        k(   11) = (   0.0645524   0.0353244   0.0000000), wk =   0.1111111
        k(   12) = (   0.0645524   0.0706487   0.0000000), wk =   0.1111111
        k(   13) = (   0.0645524   0.1059731   0.0000000), wk =   0.1111111
        k(   14) = (   0.0645524  -0.0706487   0.0000000), wk =   0.1111111
        k(   15) = (   0.0645524  -0.0353244   0.0000000), wk =   0.1111111
        k(   16) = (   0.0645524   0.0000000   0.0000000), wk =   0.1111111
        k(   17) = (  -0.0968287  -0.0529865   0.0000000), wk =   0.0555556
        k(   18) = (  -0.0968287  -0.0176622   0.0000000), wk =   0.1111111
        k(   19) = (  -0.0968287   0.0176622   0.0000000), wk =   0.1111111
        k(   20) = (  -0.0968287  -0.1589596   0.0000000), wk =   0.0555556

     Largest allocated arrays     est. size (Mb)     dimensions
     Largest temporary arrays     est. size (Mb)     dimensions

     Check: negative/imaginary core charge=   -0.000002    0.000000

     Initial potential from superposition of free atoms
     Check: negative starting charge=   -0.006795

     starting charge   95.98512, renormalised to  102.00000

     negative rho (up, down):  7.220E-03 0.000E+00

     *
     * You are using vdW-DF for exchange-correlation in this calculation.
     * Please cite the following three references that made this development
     * possible:
     *
     *   M. Dion, H. Rydberg, E. Schroder, D. C. Langreth, and
     *   B. I. Lundqvist, Phys. Rev. Lett. 92, 246401 (2004).
     *
     *   T. Thonhauser, V. R. Cooper, S. Li, A. Puzder, P. Hyldgaard, and
     *   D. C. Langreth, Phys. Rev. B 76, 125112 (2007).
     *
     *   G. Roman-Perez and J. M. Soler, Phys. Rev. Lett. 103, 096102 (2009).
     *
     *
     * If you are using vdW-DF2, please also cite:
     *
     *   K. Lee, E. D. Murray, L. Kong, B. I. Lundqvist, and
     *   D. C. Langreth, Phys. Rev. B 82, 081101(R) (2010).
     *
     *
     * If you are calculating the stress with vdW-DF, please also cite:
     *
     *   R. Sabatini, E. Kucukbenli, B. Kolb, T. Thonhauser, and
     *   S. de Gironcoli, J. Phys.: Condens. Matter 24, 424209 (2012).
     *

     Carrying out vdW-DF run using the following parameters:

     Nqs =      20    Nr_points =    1024   r_max =   100.000
     q_mesh =
               0.00001000     0.04494208     0.09755937     0.15916263
               0.23128650     0.31572767     0.41458969     0.53033537
               0.66584808     0.82450364     1.01025438     1.22772762
               1.48234092     1.78043706     2.12944203     2.53805004
               3.01644009     3.57652955     4.23227104     5.00000000

     Gradients computed in reciprocal space

     Adding external electric field

     Computed dipole along edir(3) :
        Dipole                0.0000 Ry au,          0.0000 Debye
        Dipole field          0.0000 Ry au

        Potential amp.       -0.0000 Ry
        Total length         44.8129 bohr

     Starting wfc are   84 randomized atomic wfcs

     Self-consistent Calculation

     iteration #  1     ecut=    36.75 Ry     beta=0.10
     Davidson diagonalization with overlap
     ethr =  1.00E-02,  avg # of iterations =  6.5

[...]

     total energy              =   -1098.73813601 Ry
     Harris-Foulkes estimate   =   -1102.25837207 Ry
     estimated scf accuracy    <      20.31341213 Ry

[...]

     End of self-consistent calculation

          k = 0.0000 0.0000 0.0000 ( 15077 PWs)   bands (ev):

   -71.6770 -71.6254 -71.4662 -71.4645 -71.4150 -71.4134 -43.1618 -43.0795
   -43.0301 -42.9529 -42.9187 -42.9171 -42.9063 -42.7998 -42.7968 -42.7787
   -42.7580 -42.7544 -42.7511 -42.7342 -42.7081 -42.6688 -42.5180 -42.5173
    -9.5201  -7.6917  -5.6525  -4.7031  -3.5010  -3.4561  -3.4080  -3.0474
    -2.9613  -2.8920  -2.4187  -2.2816  -2.0067  -1.8112  -1.5102  -1.3512
    -1.2740  -1.1396  -1.1153  -0.9611  -0.9348  -0.3839  -0.3533  -0.3367
    -0.1478  -0.0843   0.1458   0.1729   0.3077   0.3794   0.6225   0.6383
     0.6933   0.7726   0.9031   1.0712   1.1828   1.2057   1.2960   1.3015
     1.6717   2.0353   2.2733   3.1783   3.2531   3.5241   3.6184   3.9821
     4.3210   4.3244   4.3250   4.5652   4.9539   5.3744   5.7764   5.7892
     5.8458

[...]

          k =-0.0968-0.0530 0.0000 ( 15010 PWs)   bands (ev):

[...]

     the Fermi energy is     0.1056 ev

!    total energy              =   -1098.74622690 Ry
     Harris-Foulkes estimate   =   -1098.74623739 Ry
     estimated scf accuracy    <       0.00000094 Ry

     The total energy is the sum of the following terms:

     one-electron contribution =   -6972.59263246 Ry
     hartree contribution      =    3482.62468028 Ry
     xc contribution           =    -166.54110927 Ry
     ewald contribution        =    2557.85007941 Ry
     electric field correction =       0.00000002 Ry
     smearing contrib. (-TS)   =      -0.08724487 Ry

     convergence has been achieved in  23 iterations

 BEEF-vdW xc energy contributions
           1 :   -143.002922806008
           2 :    127.794683195130
           3 :   -102.871900995823
           4 :    76.3031759279825
           5 :   -54.8933044913255
           6 :    41.6047568871903
           7 :   -35.3633408253708
           8 :    32.8516662573682
           9 :   -30.8839923248705
          10 :    27.9433033331024
          11 :   -24.2972622766423
          12 :    21.0681482102507
          13 :   -19.1224883357952
          14 :    18.4852746942340
          15 :   -18.4714912422444
          16 :    18.2481661901951
          17 :   -17.3691931813312
          18 :    15.9587715642291
          19 :   -14.5108231006484
          20 :    13.5036181236493
[...]
00031 suncat0050 pw.x -in pw.inp   Done                     12/18/2018 17:02:02

     Program PWSCF v.5.1rc2 (svn rev. 11289) starts on 18Dec2018 at 17: 2: 8

[...]

   This run was terminated on:  17:15: 6  18Dec2018

[...]

     iteration #  9     ecut=    36.75 Ry     beta=0.10
     Davidson diagonalization with overlap
     c_bands:  1 eigenvalues not converged
     ethr =  2.61E-05,  avg # of iterations =  3.6

[...]

   This run was terminated on:  17:27:12  18Dec2018

[...]

     Program PWSCF v.5.1rc2 (svn rev. 11289) starts on 18Dec2018 at 17:39: 5

[...]

   This run was terminated on:  17:51: 6  18Dec2018

[...]

     Program PWSCF v.5.1rc2 (svn rev. 11289) starts on 18Dec2018 at 17:51:13

[...]

   This run was terminated on:  18: 2:47  18Dec2018

[...]

     Program PWSCF v.5.1rc2 (svn rev. 11289) starts on 18Dec2018 at 18: 2:54

     Current dimensions of program PWSCF are:
     Max number of different atomic species (ntypx) = 10
     Max number of k-points (npk) =  40000
     Max angular momentum in pseudopotentials (lmaxx) =  3
     Presently stress not available with electric field

     IMPORTANT: XC functional enforced from input :
     Exchange-correlation      = BEEF-VDW ( 1  4 27 13 2)
     Any further DFT definition will be discarded
     Please, verify this is what you really want

     Subspace diagonalization in iterative solution of the eigenvalue problem:
     a serial algorithm will be used

     Found symmetry operation: I + ( -0.5000  0.0000  0.0000)
     This is a supercell, fractional translations are disabled

     bravais-lattice index     =            0
     lattice parameter (alat)  =       1.8897  a.u.
     unit-cell volume          =    3998.8642 (a.u.)^3
     number of atoms/cell      =           12
     number of atomic types    =            2
     number of electrons       =       102.00
     number of Kohn-Sham states=           81
     kinetic-energy cutoff     =      36.7493  Ry
     charge density cutoff     =     367.4932  Ry
     convergence threshold     =      1.0E-06
     mixing beta               =       0.1000
     number of iterations used =           10  plain     mixing
     Exchange-correlation      = BEEF-VDW ( 1  4 27 13 2)
     nstep                     =           50

     celldm(1)=   1.889726  celldm(2)=   0.000000  celldm(3)=   0.000000
     celldm(4)=   0.000000  celldm(5)=   0.000000  celldm(6)=   0.000000

     crystal axes: (cart. coord. in units of alat)
               a(1) = (   5.163761   0.000000   0.000000 )
               a(2) = (  -2.581880   4.718180   0.000000 )
               a(3) = (   0.000000   0.000000  24.322011 )

     reciprocal axes: (cart. coord. in units 2 pi/alat)
               b(1) = (  0.193657  0.105973  0.000000 )
               b(2) = (  0.000000  0.211946  0.000000 )
               b(3) = (  0.000000  0.000000  0.041115 )

     PseudoPot. # 1 for Al read from file:
     /afs/slac.stanford.edu/u/if/mamunm/psp/gbrv1.5pbe/Al.UPF
     MD5 check sum: 0a6289f5291fc8f409219462bc851e1f
     Pseudo is Ultrasoft + core correction, Zval =  3.0
     Generated by new atomic code, or converted to UPF format
     Using radial grid of  893 points,  3 beta functions with:
                l(1) =   0
                l(2) =   1
                l(3) =   2
     Q(r) pseudized with  8 coefficients,  rinner =    0.900   0.900   0.900
                                                       0.900   0.900

     PseudoPot. # 2 for Cr read from file:
     /afs/slac.stanford.edu/u/if/mamunm/psp/gbrv1.5pbe/Cr.UPF
     MD5 check sum: 0d52af634a40206e4dee301ad30da4bf
     Pseudo is Ultrasoft + core correction, Zval = 14.0
     Generated by new atomic code, or converted to UPF format
     Using radial grid of  857 points,  6 beta functions with:
                l(1) =   0
                l(2) =   0
                l(3) =   1
                l(4) =   1
                l(5) =   2
                l(6) =   2
     Q(r) pseudized with  8 coefficients,  rinner =    0.950   0.950   0.950
                                                       0.950   0.950

     vdW kernel table read from file vdW_kernel_table
     MD5 check sum: 095c7af220d748ca6e76c0b4c6cfb241

     atomic species   valence    mass     pseudopotential
        Al1            3.00    26.98154     Al( 1.00)
        Cr1           14.00    51.99610     Cr( 1.00)

     No symmetry found

   Cartesian axes

     site n.     atom                  positions (alat units)
         1           Al1 tau(   1) = (   0.0000000   0.0000000  10.0000000  )
         2           Al1 tau(   2) = (   2.5818803   0.0000000  10.0000000  )
         3           Cr1 tau(   3) = (   1.2909402   2.3590898  10.0000000  )
         4           Cr1 tau(   4) = (  -1.2909402   2.3590898  10.0000000  )
         5           Al1 tau(   5) = (   2.5818803   1.4128555  12.1610056  )
         6           Al1 tau(   6) = (  -0.0000000   1.4128555  12.1610056  )
         7           Cr1 tau(   7) = (  -1.2909402   3.7719453  12.1610056  )
         8           Cr1 tau(   8) = (   1.2909402   3.7719453  12.1610056  )
         9           Al1 tau(   9) = (   0.0001023   2.7031589  14.5326177  )
        10           Al1 tau(  10) = (   2.5819613   2.7031592  14.5326186  )
        11           Cr1 tau(  11) = (   3.8728577   0.2901749  14.1293760  )
        12           Cr1 tau(  12) = (   1.2909793   0.2901740  14.1293546  )

     number of k points=    20  Fermi-Dirac smearing, width (Ry)=  0.0110
                       cart. coord. in units 2pi/alat
        k(    1) = (   0.0000000   0.0000000   0.0000000), wk =   0.0555556
        k(    2) = (   0.0000000   0.0353244   0.0000000), wk =   0.1111111
        k(    3) = (   0.0000000   0.0706487   0.0000000), wk =   0.1111111
        k(    4) = (   0.0000000  -0.1059731   0.0000000), wk =   0.0555556
        k(    5) = (   0.0322762   0.0176622   0.0000000), wk =   0.1111111
        k(    6) = (   0.0322762   0.0529865   0.0000000), wk =   0.1111111
        k(    7) = (   0.0322762   0.0883109   0.0000000), wk =   0.1111111
        k(    8) = (   0.0322762  -0.0883109   0.0000000), wk =   0.1111111
        k(    9) = (   0.0322762  -0.0529865   0.0000000), wk =   0.1111111
        k(   10) = (   0.0322762  -0.0176622   0.0000000), wk =   0.1111111
        k(   11) = (   0.0645524   0.0353244   0.0000000), wk =   0.1111111
        k(   12) = (   0.0645524   0.0706487   0.0000000), wk =   0.1111111
        k(   13) = (   0.0645524   0.1059731   0.0000000), wk =   0.1111111
        k(   14) = (   0.0645524  -0.0706487   0.0000000), wk =   0.1111111
        k(   15) = (   0.0645524  -0.0353244   0.0000000), wk =   0.1111111
        k(   16) = (   0.0645524   0.0000000   0.0000000), wk =   0.1111111
        k(   17) = (  -0.0968287  -0.0529865   0.0000000), wk =   0.0555556
        k(   18) = (  -0.0968287  -0.0176622   0.0000000), wk =   0.1111111
        k(   19) = (  -0.0968287   0.0176622   0.0000000), wk =   0.1111111
        k(   20) = (  -0.0968287  -0.1589596   0.0000000), wk =   0.0555556

     Largest allocated arrays     est. size (Mb)     dimensions
     Largest temporary arrays     est. size (Mb)     dimensions

     Check: negative/imaginary core charge=   -0.000002    0.000000

     Initial potential from superposition of free atoms
     Check: negative starting charge=   -0.007354

     starting charge   95.98512, renormalised to  102.00000

[...]

     *
     * You are using vdW-DF for exchange-correlation in this calculation.
     * Please cite the following three references that made this development
     * possible:
     *
     *   M. Dion, H. Rydberg, E. Schroder, D. C. Langreth, and
     *   B. I. Lundqvist, Phys. Rev. Lett. 92, 246401 (2004).
     *
     *   T. Thonhauser, V. R. Cooper, S. Li, A. Puzder, P. Hyldgaard, and
     *   D. C. Langreth, Phys. Rev. B 76, 125112 (2007).
     *
     *   G. Roman-Perez and J. M. Soler, Phys. Rev. Lett. 103, 096102 (2009).
     *
     *
     * If you are using vdW-DF2, please also cite:
     *
     *   K. Lee, E. D. Murray, L. Kong, B. I. Lundqvist, and
     *   D. C. Langreth, Phys. Rev. B 82, 081101(R) (2010).
     *
     *
     * If you are calculating the stress with vdW-DF, please also cite:
     *
     *   R. Sabatini, E. Kucukbenli, B. Kolb, T. Thonhauser, and
     *   S. de Gironcoli, J. Phys.: Condens. Matter 24, 424209 (2012).
     *

     Carrying out vdW-DF run using the following parameters:

     Nqs =      20    Nr_points =    1024   r_max =   100.000
     q_mesh =
               0.00001000     0.04494208     0.09755937     0.15916263
               0.23128650     0.31572767     0.41458969     0.53033537
               0.66584808     0.82450364     1.01025438     1.22772762
               1.48234092     1.78043706     2.12944203     2.53805004
               3.01644009     3.57652955     4.23227104     5.00000000

     Gradients computed in reciprocal space

[...]

     Starting wfc are   84 randomized atomic wfcs

     Self-consistent Calculation

[...]

     total energy              =   -1098.78304402 Ry
     Harris-Foulkes estimate   =   -1098.78304477 Ry
     estimated scf accuracy    <       0.00000168 Ry

     iteration # 23     ecut=    36.75 Ry     beta=0.10
     Davidson diagonalization with overlap
     ethr =  1.56E-09,  avg # of iterations =  2.5

[...]

     negative rho (up, down):  6.980E-03 0.000E+00

     Adding external electric field

     Computed dipole along edir(3) :
        Dipole                0.0141 Ry au,          0.0358 Debye
        Dipole field          0.0000 Ry au

        Potential amp.       -0.0040 Ry
        Total length         44.8129 bohr

     End of self-consistent calculation

[...]

          k = 0.0646 0.0000 0.0000 ( 14991 PWs)   bands (ev):

[...]

          k =-0.0968-0.1590 0.0000 ( 15010 PWs)   bands (ev):

   -71.6448 -71.6448 -71.4191 -71.4190 -71.4138 -71.4138 -43.1767 -43.1767
   -42.9356 -42.9356 -42.9276 -42.9276 -42.7500 -42.7498 -42.7435 -42.7434
   -42.7366 -42.7365 -42.7064 -42.7063 -42.6877 -42.6876 -42.5845 -42.5844
    -7.7095  -7.7094  -6.1451  -6.1451  -4.6316  -4.6316  -3.3304  -3.3304
    -2.4940  -2.4940  -1.8845  -1.8845  -1.6148  -1.6148  -1.3644  -1.3644
    -1.2327  -1.2327  -1.0529  -1.0529  -0.4938  -0.4938  -0.3889  -0.3888
    -0.1836  -0.1836  -0.0166  -0.0166   0.0974   0.0974   0.4703   0.4703
     0.7044   0.7045   1.0157   1.0157   1.1886   1.1886   1.5397   1.5397
     2.0764   2.0764   2.7911   2.7911   4.2788   4.2788   4.6503   4.6504
     5.1995   5.1995   5.5628   5.5629   5.6188   5.6190   5.9389   5.9392
     6.2439

     the Fermi energy is     0.1272 ev

!    total energy              =   -1098.78303653 Ry
     Harris-Foulkes estimate   =   -1098.78304426 Ry
     estimated scf accuracy    <       0.00000025 Ry

     The total energy is the sum of the following terms:

     one-electron contribution =   -7087.34296115 Ry
     hartree contribution      =    3540.02865764 Ry
     xc contribution           =    -166.54568742 Ry
     ewald contribution        =    2615.15918355 Ry
     electric field correction =       0.00000062 Ry
     smearing contrib. (-TS)   =      -0.08222977 Ry

     convergence has been achieved in  23 iterations

 BEEF-vdW xc energy contributions
           1 :   -143.019349372471
           2 :    127.832168005976
           3 :   -102.918098012512
           4 :    76.3084229847389
           5 :   -54.7997823363356
           6 :    41.3839747613931
           7 :   -35.0333340965952
           8 :    32.4661139592676
           9 :   -30.5044668161226
          10 :    27.6097603004148
          11 :   -24.0085533477510
          12 :    20.7819888122311
          13 :   -18.7795383238934
          14 :    18.0482863819223
          15 :   -17.9547547083303
          16 :    17.7126883292745
          17 :   -16.8828486222546
          18 :    15.5510704811219
          19 :   -14.1577377887886
          20 :    13.1521238445153
          21 :   -12.7066108577051
          22 :    12.6452001134629
          23 :   -12.5951207260719
          24 :    12.2382232085969
          25 :   -11.5001487319767
          26 :    10.5708522000668
          27 :   -9.76163781848962
          28 :    9.29721234631310
          29 :   -9.17478088180420
          30 :    9.17527251545951
          31 :   -15.2056359306695
          32 :   -10.9655534137291

     Forces acting on atoms (Ry/au):

     negative rho (up, down):  6.980E-03 0.000E+00
     atom    1 type  1   force =    -0.00000029   -0.00762423   -0.03924030
     atom    2 type  1   force =    -0.00000242   -0.00762424   -0.03924032
     atom    3 type  2   force =    -0.00000471    0.00761247    0.04121460
     atom    4 type  2   force =    -0.00000490    0.00760292    0.04121148
     atom    5 type  1   force =    -0.00002417    0.01278557   -0.00255795
     atom    6 type  1   force =    -0.00001097    0.01278548   -0.00255796
     atom    7 type  2   force =    -0.00000737   -0.01244067    0.00351380
     atom    8 type  2   force =    -0.00000727   -0.01243618    0.00350563
     atom    9 type  1   force =     0.00002105   -0.00059825   -0.00124004
     atom   10 type  1   force =     0.00003501   -0.00059817   -0.00124017
     atom   11 type  2   force =     0.00000314    0.00026663   -0.00168811
     atom   12 type  2   force =     0.00000291    0.00026869   -0.00168065

     Total force =     0.085979     Total SCF correction =     0.001335

     entering subroutine stress ...

     negative rho (up, down):  6.980E-03 0.000E+00
          total   stress  (Ry/bohr**3)                   (kbar)     P=  -14.04
  -0.00009246   0.00000001  -0.00000001        -13.60      0.00     -0.00
   0.00000001  -0.00017835  -0.00000055          0.00    -26.24     -0.08
  -0.00000001  -0.00000055  -0.00001546         -0.00     -0.08     -2.27

 !ASE

     Writing output data file calc.save

     General routines

     Parallel routines

   This run was terminated on:  18:14:56  18Dec2018

   JOB DONE.
Job  /afs/slac/g/suncat/bin/suncat-tsmpirun -x LD_LIBRARY_PATH -wdir /scratch/qe529577_eontd pw.x -in pw.inp

TID   HOST_NAME   COMMAND_LINE            STATUS            TERMINATION_TIME
00000 suncat0053 pw.x -in pw.inp   Done                     12/18/2018 18:14:56
00001 suncat0053 pw.x -in pw.inp   Done                     12/18/2018 18:14:56
00002 suncat0053 pw.x -in pw.inp   Done                     12/18/2018 18:14:56
00003 suncat0053 pw.x -in pw.inp   Done                     12/18/2018 18:14:56
00004 suncat0053 pw.x -in pw.inp   Done                     12/18/2018 18:14:56
00005 suncat0053 pw.x -in pw.inp   Done                     12/18/2018 18:14:56
00006 suncat0053 pw.x -in pw.inp   Done                     12/18/2018 18:14:56
00007 suncat0053 pw.x -in pw.inp   Done                     12/18/2018 18:14:56
00008 suncat0052 pw.x -in pw.inp   Done                     12/18/2018 18:14:56
00009 suncat0052 pw.x -in pw.inp   Done                     12/18/2018 18:14:56
00010 suncat0052 pw.x -in pw.inp   Done                     12/18/2018 18:14:56
00011 suncat0052 pw.x -in pw.inp   Done                     12/18/2018 18:14:56
00012 suncat0052 pw.x -in pw.inp   Done                     12/18/2018 18:14:56
00013 suncat0052 pw.x -in pw.inp   Done                     12/18/2018 18:14:56
00014 suncat0052 pw.x -in pw.inp   Done                     12/18/2018 18:14:56
00015 suncat0052 pw.x -in pw.inp   Done                     12/18/2018 18:14:56
00016 suncat0051 pw.x -in pw.inp   Done                     12/18/2018 18:14:56
00017 suncat0051 pw.x -in pw.inp   Done                     12/18/2018 18:14:56
00018 suncat0051 pw.x -in pw.inp   Done                     12/18/2018 18:14:56
00019 suncat0051 pw.x -in pw.inp   Done                     12/18/2018 18:14:56
00020 suncat0051 pw.x -in pw.inp   Done                     12/18/2018 18:14:56
00021 suncat0051 pw.x -in pw.inp   Done                     12/18/2018 18:14:56
00022 suncat0051 pw.x -in pw.inp   Done                     12/18/2018 18:14:56
00023 suncat0051 pw.x -in pw.inp   Done                     12/18/2018 18:14:56
00024 suncat0050 pw.x -in pw.inp   Done                     12/18/2018 18:14:56
00025 suncat0050 pw.x -in pw.inp   Done                     12/18/2018 18:14:56
00026 suncat0050 pw.x -in pw.inp   Done                     12/18/2018 18:14:56
00027 suncat0050 pw.x -in pw.inp   Done                     12/18/2018 18:14:56
00028 suncat0050 pw.x -in pw.inp   Done                     12/18/2018 18:14:56
00029 suncat0050 pw.x -in pw.inp   Done                     12/18/2018 18:14:56
00030 suncat0050 pw.x -in pw.inp   Done                     12/18/2018 18:14:56
00031 suncat0050 pw.x -in pw.inp   Done                     12/18/2018 18:14:56