     Program PWSCF v.5.1rc2 (svn rev. 11289) starts on 19Dec2018 at  5:40:17

     Current dimensions of program PWSCF are:
     Max number of different atomic species (ntypx) = 10
     Max number of k-points (npk) =  40000
     Max angular momentum in pseudopotentials (lmaxx) =  3
     Presently stress not available with electric field

     IMPORTANT: XC functional enforced from input :
     Exchange-correlation      = BEEF-VDW ( 1  4 27 13 2)
     Any further DFT definition will be discarded
     Please, verify this is what you really want

     Subspace diagonalization in iterative solution of the eigenvalue problem:
     a serial algorithm will be used

     Found symmetry operation: I + (  0.5000  0.5000  0.0000)
     This is a supercell, fractional translations are disabled

     Generating pointlists ...
     new r_m :   0.4125 (alat units)  0.7795 (a.u.) for type    1
     new r_m :   0.4125 (alat units)  0.7795 (a.u.) for type    2

     bravais-lattice index     =            0
     lattice parameter (alat)  =       1.8897  a.u.
     unit-cell volume          =    6031.6571 (a.u.)^3
     number of atoms/cell      =           12
     number of atomic types    =            2
     number of electrons       =       168.00
     number of Kohn-Sham states=          114
     kinetic-energy cutoff     =      36.7493  Ry
     charge density cutoff     =     367.4932  Ry
     convergence threshold     =      1.0E-06
     mixing beta               =       0.1000
     number of iterations used =           10  plain     mixing
     Exchange-correlation      = BEEF-VDW ( 1  4 27 13 2)
     nstep                     =           50

     celldm(1)=   1.889726  celldm(2)=   0.000000  celldm(3)=   0.000000
     celldm(4)=   0.000000  celldm(5)=   0.000000  celldm(6)=   0.000000

     crystal axes: (cart. coord. in units of alat)
               a(1) = (   6.155772   0.000000   0.000000 )
               a(2) = (   2.058661   5.801331   0.000000 )
               a(3) = (   0.000000   0.000000  25.028214 )

     reciprocal axes: (cart. coord. in units 2 pi/alat)
               b(1) = (  0.162449 -0.057647  0.000000 )
               b(2) = (  0.000000  0.172374  0.000000 )
               b(3) = (  0.000000  0.000000  0.039955 )

     PseudoPot. # 1 for Co read from file:
     /afs/slac.stanford.edu/u/if/mamunm/psp/gbrv1.5pbe/Co.UPF
     MD5 check sum: 5f91765df6ddd3222702df6e7b74a16d
     Pseudo is Ultrasoft + core correction, Zval = 17.0
     Generated by new atomic code, or converted to UPF format
     Using radial grid of  863 points,  6 beta functions with:
                l(1) =   0
                l(2) =   0
                l(3) =   1
                l(4) =   1
                l(5) =   2
                l(6) =   2
     Q(r) pseudized with  8 coefficients,  rinner =    1.200   1.200   1.200
                                                       1.200   1.200

     PseudoPot. # 2 for La read from file:
     /afs/slac.stanford.edu/u/if/mamunm/psp/gbrv1.5pbe/La.UPF
     MD5 check sum: 5937b0c7494ba0601a847275249473aa
     Pseudo is Ultrasoft + core correction, Zval = 11.0
     Generated by new atomic code, or converted to UPF format
     Using radial grid of  995 points,  8 beta functions with:
                l(1) =   0
                l(2) =   0
                l(3) =   1
                l(4) =   1
                l(5) =   2
                l(6) =   2
                l(7) =   3
                l(8) =   3
     Q(r) pseudized with  8 coefficients,  rinner =    1.700   1.700   1.700
                                                       1.700   1.700   1.700
                                                       1.700

     vdW kernel table read from file vdW_kernel_table
     MD5 check sum: 095c7af220d748ca6e76c0b4c6cfb241

     atomic species   valence    mass     pseudopotential
        Co1           17.00    58.93319     Co( 1.00)
        La1           11.00   138.90547     La( 1.00)

     Starting magnetic structure
     atomic species   magnetization
        Co1          0.118
        La1          0.182

     No symmetry found

   Cartesian axes

     site n.     atom                  positions (alat units)
         1           Co1 tau(   1) = (   0.0000000   0.0000000  10.0000000  )
         2           Co1 tau(   2) = (   4.1072165   2.9006656  10.0000000  )
         3           La1 tau(   3) = (   3.0778860   0.0000000  10.0000000  )
         4           La1 tau(   4) = (   1.0293305   2.9006656  10.0000000  )
         5           Co1 tau(   5) = (   6.1557720   4.3474300  12.5141070  )
         6           Co1 tau(   6) = (   2.0485555   1.4467644  12.5141070  )
         7           La1 tau(   7) = (   3.0778860   4.3474300  12.5141070  )
         8           La1 tau(   8) = (   5.1264415   1.4467644  12.5141070  )
         9           Co1 tau(   9) = (   4.0971110   2.8935287  15.0282139  )
        10           Co1 tau(  10) = (   8.2043275   5.7941943  15.0282139  )
        11           La1 tau(  11) = (   7.1749970   2.8935287  15.0282139  )
        12           La1 tau(  12) = (   5.1264415   5.7941943  15.0282139  )

     number of k points=    40  Fermi-Dirac smearing, width (Ry)=  0.0110
                       cart. coord. in units 2pi/alat
        k(    1) = (   0.0000000   0.0000000   0.0000000), wk =   0.0277778
        k(    2) = (   0.0000000   0.0287290   0.0000000), wk =   0.0555556
        k(    3) = (   0.0000000   0.0574581   0.0000000), wk =   0.0555556
        k(    4) = (   0.0000000  -0.0861871   0.0000000), wk =   0.0277778
        k(    5) = (   0.0270749  -0.0096078   0.0000000), wk =   0.0555556
        k(    6) = (   0.0270749   0.0191213   0.0000000), wk =   0.0555556
        k(    7) = (   0.0270749   0.0478503   0.0000000), wk =   0.0555556
        k(    8) = (   0.0270749  -0.0957949   0.0000000), wk =   0.0555556
        k(    9) = (   0.0270749  -0.0670659   0.0000000), wk =   0.0555556
        k(   10) = (   0.0270749  -0.0383368   0.0000000), wk =   0.0555556
        k(   11) = (   0.0541497  -0.0192156   0.0000000), wk =   0.0555556
        k(   12) = (   0.0541497   0.0095135   0.0000000), wk =   0.0555556
        k(   13) = (   0.0541497   0.0382425   0.0000000), wk =   0.0555556
        k(   14) = (   0.0541497  -0.1054027   0.0000000), wk =   0.0555556
        k(   15) = (   0.0541497  -0.0766737   0.0000000), wk =   0.0555556
        k(   16) = (   0.0541497  -0.0479446   0.0000000), wk =   0.0555556
        k(   17) = (  -0.0812246   0.0288234   0.0000000), wk =   0.0277778
        k(   18) = (  -0.0812246   0.0575524   0.0000000), wk =   0.0555556
        k(   19) = (  -0.0812246   0.0862814   0.0000000), wk =   0.0555556
        k(   20) = (  -0.0812246  -0.0573638   0.0000000), wk =   0.0277778
        k(   21) = (   0.0000000   0.0000000   0.0000000), wk =   0.0277778
        k(   22) = (   0.0000000   0.0287290   0.0000000), wk =   0.0555556
        k(   23) = (   0.0000000   0.0574581   0.0000000), wk =   0.0555556
        k(   24) = (   0.0000000  -0.0861871   0.0000000), wk =   0.0277778
        k(   25) = (   0.0270749  -0.0096078   0.0000000), wk =   0.0555556
        k(   26) = (   0.0270749   0.0191213   0.0000000), wk =   0.0555556
        k(   27) = (   0.0270749   0.0478503   0.0000000), wk =   0.0555556
        k(   28) = (   0.0270749  -0.0957949   0.0000000), wk =   0.0555556
        k(   29) = (   0.0270749  -0.0670659   0.0000000), wk =   0.0555556
        k(   30) = (   0.0270749  -0.0383368   0.0000000), wk =   0.0555556
        k(   31) = (   0.0541497  -0.0192156   0.0000000), wk =   0.0555556
        k(   32) = (   0.0541497   0.0095135   0.0000000), wk =   0.0555556
        k(   33) = (   0.0541497   0.0382425   0.0000000), wk =   0.0555556
        k(   34) = (   0.0541497  -0.1054027   0.0000000), wk =   0.0555556
        k(   35) = (   0.0541497  -0.0766737   0.0000000), wk =   0.0555556
        k(   36) = (   0.0541497  -0.0479446   0.0000000), wk =   0.0555556
        k(   37) = (  -0.0812246   0.0288234   0.0000000), wk =   0.0277778
        k(   38) = (  -0.0812246   0.0575524   0.0000000), wk =   0.0555556
        k(   39) = (  -0.0812246   0.0862814   0.0000000), wk =   0.0555556
        k(   40) = (  -0.0812246  -0.0573638   0.0000000), wk =   0.0277778

     Largest allocated arrays     est. size (Mb)     dimensions
     Largest temporary arrays     est. size (Mb)     dimensions

     Check: negative/imaginary core charge=   -0.000003    0.000000

     Initial potential from superposition of free atoms
     Check: negative starting charge=(component1):   -0.248878
     Check: negative starting charge=(component2):   -0.172252

     starting charge  161.80755, renormalised to  168.00000

     negative rho (up, down):  2.584E-01 1.788E-01

     *
     * You are using vdW-DF for exchange-correlation in this calculation.
     * Please cite the following three references that made this development
     * possible:
     *
     *   M. Dion, H. Rydberg, E. Schroder, D. C. Langreth, and
     *   B. I. Lundqvist, Phys. Rev. Lett. 92, 246401 (2004).
     *
     *   T. Thonhauser, V. R. Cooper, S. Li, A. Puzder, P. Hyldgaard, and
     *   D. C. Langreth, Phys. Rev. B 76, 125112 (2007).
     *
     *   G. Roman-Perez and J. M. Soler, Phys. Rev. Lett. 103, 096102 (2009).
     *
     *
     * If you are using vdW-DF2, please also cite:
     *
     *   K. Lee, E. D. Murray, L. Kong, B. I. Lundqvist, and
     *   D. C. Langreth, Phys. Rev. B 82, 081101(R) (2010).
     *
     *
     * If you are calculating the stress with vdW-DF, please also cite:
     *
     *   R. Sabatini, E. Kucukbenli, B. Kolb, T. Thonhauser, and
     *   S. de Gironcoli, J. Phys.: Condens. Matter 24, 424209 (2012).
     *

     Carrying out vdW-DF run using the following parameters:

     Nqs =      20    Nr_points =    1024   r_max =   100.000
     q_mesh =
               0.00001000     0.04494208     0.09755937     0.15916263
               0.23128650     0.31572767     0.41458969     0.53033537
               0.66584808     0.82450364     1.01025438     1.22772762
               1.48234092     1.78043706     2.12944203     2.53805004
               3.01644009     3.57652955     4.23227104     5.00000000

     Gradients computed in reciprocal space

     Adding external electric field

     Computed dipole along edir(3) :
        Dipole                0.0000 Ry au,          0.0000 Debye
        Dipole field          0.0000 Ry au

        Potential amp.       -0.0000 Ry
        Total length         46.1141 bohr

[...]

     Starting wfc are  198 randomized atomic wfcs

     Self-consistent Calculation

     iteration #  1     ecut=    36.75 Ry     beta=0.10
     Davidson diagonalization with overlap
     ethr =  1.00E-02,  avg # of iterations =  2.1

[...]

     Magnetic moment per site:
     atom:    1    charge:    8.2497    magn:    0.9301    constr:    0.0000
     atom:    2    charge:    8.2497    magn:    0.9302    constr:    0.0000
     atom:    3    charge:    0.1791    magn:    0.0527    constr:    0.0000
     atom:    4    charge:    0.1790    magn:    0.0527    constr:    0.0000
[...]
     MD5 check sum: 5937b0c7494ba0601a847275249473aa
     Pseudo is Ultrasoft + core correction, Zval = 11.0
     Generated by new atomic code, or converted to UPF format
     Using radial grid of  995 points,  8 beta functions with:
                l(1) =   0
                l(2) =   0
                l(3) =   1
                l(4) =   1
                l(5) =   2
                l(6) =   2
                l(7) =   3
                l(8) =   3
     Q(r) pseudized with  8 coefficients,  rinner =    1.700   1.700   1.700
                                                       1.700   1.700   1.700
                                                       1.700

     vdW kernel table read from file vdW_kernel_table
     MD5 check sum: 095c7af220d748ca6e76c0b4c6cfb241

     atomic species   valence    mass     pseudopotential
        Co1           17.00    58.93319     Co( 1.00)
        La1           11.00   138.90547     La( 1.00)

     Starting magnetic structure
     atomic species   magnetization
        Co1          0.118
        La1          0.182

     No symmetry found

   Cartesian axes

     site n.     atom                  positions (alat units)
         1           Co1 tau(   1) = (   0.0000000   0.0000000  10.0000000  )
         2           Co1 tau(   2) = (   4.1072165   2.9006656  10.0000000  )
         3           La1 tau(   3) = (   3.0778860   0.0000000  10.0000000  )
         4           La1 tau(   4) = (   1.0293305   2.9006656  10.0000000  )
         5           Co1 tau(   5) = (   6.1557720   4.3474300  12.5141070  )
         6           Co1 tau(   6) = (   2.0485555   1.4467644  12.5141070  )
         7           La1 tau(   7) = (   3.0778860   4.3474300  12.5141070  )
         8           La1 tau(   8) = (   5.1264415   1.4467644  12.5141070  )
         9           Co1 tau(   9) = (   4.0942688   2.8915498  14.6870397  )
        10           Co1 tau(  10) = (   8.2016334   5.7922805  14.6870075  )
        11           La1 tau(  11) = (   7.1805472   2.8974502  15.0624719  )
        12           La1 tau(  12) = (   5.1319857   5.7981147  15.0625265  )

     number of k points=    40  Fermi-Dirac smearing, width (Ry)=  0.0110
                       cart. coord. in units 2pi/alat
        k(    1) = (   0.0000000   0.0000000   0.0000000), wk =   0.0277778
        k(    2) = (   0.0000000   0.0287290   0.0000000), wk =   0.0555556
        k(    3) = (   0.0000000   0.0574581   0.0000000), wk =   0.0555556
        k(    4) = (   0.0000000  -0.0861871   0.0000000), wk =   0.0277778
        k(    5) = (   0.0270749  -0.0096078   0.0000000), wk =   0.0555556
        k(    6) = (   0.0270749   0.0191213   0.0000000), wk =   0.0555556
        k(    7) = (   0.0270749   0.0478503   0.0000000), wk =   0.0555556
        k(    8) = (   0.0270749  -0.0957949   0.0000000), wk =   0.0555556
        k(    9) = (   0.0270749  -0.0670659   0.0000000), wk =   0.0555556
        k(   10) = (   0.0270749  -0.0383368   0.0000000), wk =   0.0555556
        k(   11) = (   0.0541497  -0.0192156   0.0000000), wk =   0.0555556
        k(   12) = (   0.0541497   0.0095135   0.0000000), wk =   0.0555556
        k(   13) = (   0.0541497   0.0382425   0.0000000), wk =   0.0555556
        k(   14) = (   0.0541497  -0.1054027   0.0000000), wk =   0.0555556
        k(   15) = (   0.0541497  -0.0766737   0.0000000), wk =   0.0555556
        k(   16) = (   0.0541497  -0.0479446   0.0000000), wk =   0.0555556
        k(   17) = (  -0.0812246   0.0288234   0.0000000), wk =   0.0277778
        k(   18) = (  -0.0812246   0.0575524   0.0000000), wk =   0.0555556
        k(   19) = (  -0.0812246   0.0862814   0.0000000), wk =   0.0555556
        k(   20) = (  -0.0812246  -0.0573638   0.0000000), wk =   0.0277778
        k(   21) = (   0.0000000   0.0000000   0.0000000), wk =   0.0277778
        k(   22) = (   0.0000000   0.0287290   0.0000000), wk =   0.0555556
        k(   23) = (   0.0000000   0.0574581   0.0000000), wk =   0.0555556
        k(   24) = (   0.0000000  -0.0861871   0.0000000), wk =   0.0277778
        k(   25) = (   0.0270749  -0.0096078   0.0000000), wk =   0.0555556
        k(   26) = (   0.0270749   0.0191213   0.0000000), wk =   0.0555556
        k(   27) = (   0.0270749   0.0478503   0.0000000), wk =   0.0555556
        k(   28) = (   0.0270749  -0.0957949   0.0000000), wk =   0.0555556
        k(   29) = (   0.0270749  -0.0670659   0.0000000), wk =   0.0555556
        k(   30) = (   0.0270749  -0.0383368   0.0000000), wk =   0.0555556
        k(   31) = (   0.0541497  -0.0192156   0.0000000), wk =   0.0555556
        k(   32) = (   0.0541497   0.0095135   0.0000000), wk =   0.0555556
        k(   33) = (   0.0541497   0.0382425   0.0000000), wk =   0.0555556
        k(   34) = (   0.0541497  -0.1054027   0.0000000), wk =   0.0555556
        k(   35) = (   0.0541497  -0.0766737   0.0000000), wk =   0.0555556
        k(   36) = (   0.0541497  -0.0479446   0.0000000), wk =   0.0555556
        k(   37) = (  -0.0812246   0.0288234   0.0000000), wk =   0.0277778
        k(   38) = (  -0.0812246   0.0575524   0.0000000), wk =   0.0555556
        k(   39) = (  -0.0812246   0.0862814   0.0000000), wk =   0.0555556
        k(   40) = (  -0.0812246  -0.0573638   0.0000000), wk =   0.0277778

     Largest allocated arrays     est. size (Mb)     dimensions
     Largest temporary arrays     est. size (Mb)     dimensions

     Check: negative/imaginary core charge=   -0.000003    0.000000

     Initial potential from superposition of free atoms
     Check: negative starting charge=(component1):   -0.248972
     Check: negative starting charge=(component2):   -0.172311

     starting charge  161.80755, renormalised to  168.00000

[...]

     *
     * You are using vdW-DF for exchange-correlation in this calculation.
     * Please cite the following three references that made this development
     * possible:
     *
     *   M. Dion, H. Rydberg, E. Schroder, D. C. Langreth, and
     *   B. I. Lundqvist, Phys. Rev. Lett. 92, 246401 (2004).
     *
     *   T. Thonhauser, V. R. Cooper, S. Li, A. Puzder, P. Hyldgaard, and
     *   D. C. Langreth, Phys. Rev. B 76, 125112 (2007).
     *
     *   G. Roman-Perez and J. M. Soler, Phys. Rev. Lett. 103, 096102 (2009).
     *
     *
     * If you are using vdW-DF2, please also cite:
     *
     *   K. Lee, E. D. Murray, L. Kong, B. I. Lundqvist, and
     *   D. C. Langreth, Phys. Rev. B 82, 081101(R) (2010).
     *
     *
     * If you are calculating the stress with vdW-DF, please also cite:
     *
     *   R. Sabatini, E. Kucukbenli, B. Kolb, T. Thonhauser, and
     *   S. de Gironcoli, J. Phys.: Condens. Matter 24, 424209 (2012).
     *

     Carrying out vdW-DF run using the following parameters:

     Nqs =      20    Nr_points =    1024   r_max =   100.000
     q_mesh =
               0.00001000     0.04494208     0.09755937     0.15916263
               0.23128650     0.31572767     0.41458969     0.53033537
               0.66584808     0.82450364     1.01025438     1.22772762
               1.48234092     1.78043706     2.12944203     2.53805004
               3.01644009     3.57652955     4.23227104     5.00000000

     Gradients computed in reciprocal space

[...]

     Starting wfc are  198 randomized atomic wfcs

     Self-consistent Calculation

[...]

     iteration # 30     ecut=    36.75 Ry     beta=0.10
     Davidson diagonalization with overlap
     c_bands:  1 eigenvalues not converged
     c_bands:  1 eigenvalues not converged
     ethr =  9.47E-08,  avg # of iterations =  5.0

[...]

     total energy              =   -2421.23258161 Ry
     Harris-Foulkes estimate   =   -2421.23258232 Ry
     estimated scf accuracy    <       0.00000159 Ry

[...]

     iteration # 47     ecut=    36.75 Ry     beta=0.10
     Davidson diagonalization with overlap
     ethr =  9.46E-10,  avg # of iterations =  2.7

[...]

     negative rho (up, down):  1.575E-01 1.039E-01

[...]

     Adding external electric field

     Computed dipole along edir(3) :
        Dipole                0.1477 Ry au,          0.3755 Debye
        Dipole field          0.0003 Ry au

        Potential amp.       -0.0284 Ry
        Total length         46.1141 bohr

     Magnetic moment per site:
     atom:    1    charge:    8.2941    magn:    0.6649    constr:    0.0000
     atom:    2    charge:    8.2941    magn:    0.6648    constr:    0.0000
     atom:    3    charge:    0.1649    magn:   -0.0233    constr:    0.0000
     atom:    4    charge:    0.1649    magn:   -0.0233    constr:    0.0000
     atom:    5    charge:    8.2914    magn:    0.5542    constr:    0.0000
     atom:    6    charge:    8.2913    magn:    0.5543    constr:    0.0000
     atom:    7    charge:    0.1691    magn:   -0.0175    constr:    0.0000
     atom:    8    charge:    0.1691    magn:   -0.0175    constr:    0.0000
     atom:    9    charge:    8.2978    magn:    0.4819    constr:    0.0000
     atom:   10    charge:    8.2977    magn:    0.4820    constr:    0.0000
     atom:   11    charge:    0.1637    magn:   -0.0195    constr:    0.0000
     atom:   12    charge:    0.1637    magn:   -0.0195    constr:    0.0000

     End of self-consistent calculation

 ------ SPIN UP ------------

[...]

 ------ SPIN DOWN ----------

[...]

          k = 0.0541-0.0479 0.0000 ( 22708 PWs)   bands (ev):

[...]

          k =-0.0812-0.0574 0.0000 ( 22686 PWs)   bands (ev):

   -91.9651 -91.9650 -91.8463 -91.8461 -91.7091 -91.7090 -55.3285 -55.3282
   -55.3179 -55.3153 -55.2834 -55.2831 -55.2334 -55.2331 -55.2102 -55.2076
   -55.1567 -55.1564 -55.1248 -55.1245 -55.0625 -55.0600 -55.0218 -55.0216
   -31.3390 -31.2659 -31.2277 -31.1542 -30.4424 -30.3151 -15.5501 -15.4965
   -15.2757 -15.2061 -15.0318 -15.0264 -14.9755 -14.8957 -14.8904 -14.7690
   -14.7668 -14.3974 -14.3399 -14.0601 -14.0578 -14.0105 -13.9324 -13.5813
    -0.7526  -0.6749  -0.3634  -0.2898   0.0871   0.1661   0.2475   0.2960
     0.4424   0.4945   0.5018   0.6134   0.7454   0.8042   0.9082   0.9651
     1.0134   1.0179   1.0357   1.1366   1.1692   1.1710   1.1762   1.2180
     1.2252   1.2854   1.3202   1.3409   1.3735   1.3751   1.4080   1.4256
     1.4615   1.4714   1.5644   1.6015   1.6751   1.6925   1.7853   1.9477
     2.1456   2.2280   2.3128   2.4377   2.5195   2.5880   2.8261   2.9812
     3.1953   3.2180   3.3338   3.3560   3.4559   3.4772   3.5652   3.5994
     3.6085   3.7422   3.7785   3.7930   3.8001   3.8098   3.8257   3.8472
     3.8846   3.8882

     the Fermi energy is     1.8117 ev

!    total energy              =   -2421.23258345 Ry
     Harris-Foulkes estimate   =   -2421.23258094 Ry
     estimated scf accuracy    <       0.00000089 Ry

     The total energy is the sum of the following terms:

     one-electron contribution =  -12773.00617770 Ry
     hartree contribution      =    6402.37933970 Ry
     xc contribution           =    -507.44715681 Ry
     ewald contribution        =    4456.93341458 Ry
     electric field correction =       0.00004546 Ry
     smearing contrib. (-TS)   =      -0.09204869 Ry

     total magnetization       =     3.49 Bohr mag/cell
     absolute magnetization    =     9.76 Bohr mag/cell

     convergence has been achieved in  47 iterations

 BEEF-vdW xc energy contributions
           1 :   -448.579123780820
           2 :    410.044674134080
           3 :   -343.020159385510
           4 :    263.393800010012
           5 :   -186.973799846645
           6 :    124.642181215686
           7 :   -80.3965537478119
           8 :    52.3625398275910
           9 :   -35.6290140302748
          10 :    25.2099592249262
          11 :   -17.8039400027885
          12 :    11.9327703301718
          13 :   -7.06426561189045
          14 :    2.71561327294313
          15 :    1.76725644347323
          16 :   -6.78799843494477
          17 :    11.9726412415103
          18 :   -16.1216254608592
          19 :    17.7949117587154
          20 :   -16.2001101302242
          21 :    11.7958643146994
          22 :   -6.21109568623871
          23 :    1.50252943092033
          24 :   0.807921586641271
          25 :  -0.379217495536125
          26 :   -1.94728170613092
          27 :    4.71378426855409
          28 :   -6.61599877753218
          29 :    7.05108311592085
          30 :   -6.21930027459194
          31 :   -37.9948487166546
          32 :   -26.8075119214573

     Forces acting on atoms (Ry/au):

     negative rho (up, down):  1.575E-01 1.039E-01
     atom    1 type  1   force =     0.00012317    0.00008856    0.02156958
     atom    2 type  1   force =     0.00010892    0.00007488    0.02154332
     atom    3 type  2   force =    -0.00039159   -0.00027977   -0.01322484
     atom    4 type  2   force =    -0.00039516   -0.00027431   -0.01322462
     atom    5 type  1   force =     0.00016593    0.00011622    0.00549164
     atom    6 type  1   force =     0.00012427    0.00008904    0.00549774
     atom    7 type  2   force =     0.00026913    0.00017232   -0.01273731
     atom    8 type  2   force =     0.00024807    0.00019382   -0.01273524
     atom    9 type  1   force =    -0.00011551   -0.00008313   -0.00166681
     atom   10 type  1   force =    -0.00010726   -0.00007742   -0.00167230
     atom   11 type  2   force =    -0.00001629   -0.00000920    0.00058206
     atom   12 type  2   force =    -0.00001367   -0.00001100    0.00057678

     Total force =     0.040878     Total SCF correction =     0.001424

     entering subroutine stress ...

     negative rho (up, down):  1.575E-01 1.039E-01
          total   stress  (Ry/bohr**3)                   (kbar)     P=  -10.97
  -0.00011368  -0.00004541   0.00000032        -16.72     -6.68      0.05
  -0.00004541  -0.00008145   0.00000023         -6.68    -11.98      0.03
   0.00000032   0.00000023  -0.00002852          0.05      0.03     -4.20

 !ASE

     Writing output data file calc.save

     General routines

     Parallel routines

   This run was terminated on:  16:38:59  19Dec2018

   JOB DONE.
Job  /afs/slac/g/suncat/bin/suncat-tsmpirun -x LD_LIBRARY_PATH -wdir /scratch/qe529684_tXOVe pw.x -in pw.inp

TID   HOST_NAME   COMMAND_LINE            STATUS            TERMINATION_TIME
00000 suncat0070 pw.x -in pw.inp   Done                     12/19/2018 16:38:59
00001 suncat0070 pw.x -in pw.inp   Done                     12/19/2018 16:38:59
00002 suncat0070 pw.x -in pw.inp   Done                     12/19/2018 16:38:59
00003 suncat0070 pw.x -in pw.inp   Done                     12/19/2018 16:38:59
00004 suncat0070 pw.x -in pw.inp   Done                     12/19/2018 16:38:59
00005 suncat0070 pw.x -in pw.inp   Done                     12/19/2018 16:38:59
00006 suncat0070 pw.x -in pw.inp   Done                     12/19/2018 16:38:59
00007 suncat0070 pw.x -in pw.inp   Done                     12/19/2018 16:38:59
00008 suncat0069 pw.x -in pw.inp   Done                     12/19/2018 16:38:59
00009 suncat0069 pw.x -in pw.inp   Done                     12/19/2018 16:38:59
00010 suncat0069 pw.x -in pw.inp   Done                     12/19/2018 16:38:59
00011 suncat0069 pw.x -in pw.inp   Done                     12/19/2018 16:38:59
00012 suncat0069 pw.x -in pw.inp   Done                     12/19/2018 16:38:59
00013 suncat0069 pw.x -in pw.inp   Done                     12/19/2018 16:38:59
00014 suncat0069 pw.x -in pw.inp   Done                     12/19/2018 16:38:59
00015 suncat0069 pw.x -in pw.inp   Done                     12/19/2018 16:38:59
00016 suncat0068 pw.x -in pw.inp   Done                     12/19/2018 16:38:59
00017 suncat0068 pw.x -in pw.inp   Done                     12/19/2018 16:38:59
00018 suncat0068 pw.x -in pw.inp   Done                     12/19/2018 16:38:59
00019 suncat0068 pw.x -in pw.inp   Done                     12/19/2018 16:38:59
00020 suncat0068 pw.x -in pw.inp   Done                     12/19/2018 16:38:59
00021 suncat0068 pw.x -in pw.inp   Done                     12/19/2018 16:38:59
00022 suncat0068 pw.x -in pw.inp   Done                     12/19/2018 16:38:59
00023 suncat0068 pw.x -in pw.inp   Done                     12/19/2018 16:38:59
00024 suncat0066 pw.x -in pw.inp   Done                     12/19/2018 16:38:59
00025 suncat0066 pw.x -in pw.inp   Done                     12/19/2018 16:38:59
00026 suncat0066 pw.x -in pw.inp   Done                     12/19/2018 16:38:59
00027 suncat0066 pw.x -in pw.inp   Done                     12/19/2018 16:38:59
00028 suncat0066 pw.x -in pw.inp   Done                     12/19/2018 16:38:59
00029 suncat0066 pw.x -in pw.inp   Done                     12/19/2018 16:38:59
00030 suncat0066 pw.x -in pw.inp   Done                     12/19/2018 16:38:59
00031 suncat0066 pw.x -in pw.inp   Done                     12/19/2018 16:38:59