     Program PWSCF v.5.1rc2 (svn rev. 11289) starts on 19Dec2018 at  8:36:14

     Current dimensions of program PWSCF are:
     Max number of different atomic species (ntypx) = 10
     Max number of k-points (npk) =  40000
     Max angular momentum in pseudopotentials (lmaxx) =  3
     Presently stress not available with electric field

     IMPORTANT: XC functional enforced from input :
     Exchange-correlation      = BEEF-VDW ( 1  4 27 13 2)
     Any further DFT definition will be discarded
     Please, verify this is what you really want

     Subspace diagonalization in iterative solution of the eigenvalue problem:
     a serial algorithm will be used

     Found symmetry operation: I + ( -0.5000 -0.5000  0.0000)
     This is a supercell, fractional translations are disabled

     bravais-lattice index     =            0
     lattice parameter (alat)  =       1.8897  a.u.
     unit-cell volume          =    4526.4627 (a.u.)^3
     number of atoms/cell      =           12
     number of atomic types    =            2
     number of electrons       =       192.00
     number of Kohn-Sham states=          126
     kinetic-energy cutoff     =      36.7493  Ry
     charge density cutoff     =     367.4932  Ry
     convergence threshold     =      1.0E-06
     mixing beta               =       0.1000
     number of iterations used =           10  plain     mixing
     Exchange-correlation      = BEEF-VDW ( 1  4 27 13 2)
     nstep                     =           50

     celldm(1)=   1.889726  celldm(2)=   0.000000  celldm(3)=   0.000000
     celldm(4)=   0.000000  celldm(5)=   0.000000  celldm(6)=   0.000000

     crystal axes: (cart. coord. in units of alat)
               a(1) = (   5.565795   0.000000   0.000000 )
               a(2) = (   2.633934   4.903108   0.000000 )
               a(3) = (   0.000000   0.000000  24.578972 )

     reciprocal axes: (cart. coord. in units 2 pi/alat)
               b(1) = (  0.179669 -0.096518  0.000000 )
               b(2) = (  0.000000  0.203952  0.000000 )
               b(3) = (  0.000000  0.000000  0.040685 )

     PseudoPot. # 1 for Ti read from file:
     /afs/slac.stanford.edu/u/if/mamunm/psp/gbrv1.5pbe/Ti.UPF
     MD5 check sum: 88a00a6731bd790ddea75d31a80cb452
     Pseudo is Ultrasoft + core correction, Zval = 12.0
     Generated by new atomic code, or converted to UPF format
     Using radial grid of  851 points,  6 beta functions with:
                l(1) =   0
                l(2) =   0
                l(3) =   1
                l(4) =   1
                l(5) =   2
                l(6) =   2
     Q(r) pseudized with  6 coefficients,  rinner =    1.000   1.000   1.000
                                                       1.000   1.000

     PseudoPot. # 2 for Zn read from file:
     /afs/slac.stanford.edu/u/if/mamunm/psp/gbrv1.5pbe/Zn.UPF
     MD5 check sum: df62231357ef9e81f77b2b3087fa5675
     Pseudo is Ultrasoft, Zval = 20.0
     Generated by new atomic code, or converted to UPF format
     Using radial grid of  943 points,  6 beta functions with:
                l(1) =   0
                l(2) =   0
                l(3) =   1
                l(4) =   1
                l(5) =   2
                l(6) =   2
     Q(r) pseudized with  8 coefficients,  rinner =    1.100   1.100   1.100
                                                       1.100   1.100

     vdW kernel table read from file vdW_kernel_table
     MD5 check sum: 095c7af220d748ca6e76c0b4c6cfb241

     atomic species   valence    mass     pseudopotential
        Ti1           12.00    47.86700     Ti( 1.00)
        Zn1           20.00    65.38000     Zn( 1.00)

     No symmetry found

   Cartesian axes

     site n.     atom                  positions (alat units)
         1           Ti1 tau(   1) = (   0.0000000   0.0000000  10.0000000  )
         2           Ti1 tau(   2) = (   4.0998647   2.4515538  10.0000000  )
         3           Zn1 tau(   3) = (   2.7828975   0.0000000  10.0000000  )
         4           Zn1 tau(   4) = (   1.3169672   2.4515538  10.0000000  )
         5           Ti1 tau(   5) = (   5.5657950   3.3281211  12.2894859  )
         6           Ti1 tau(   6) = (   1.4659304   0.8765673  12.2894859  )
         7           Zn1 tau(   7) = (   2.7828975   3.3281211  12.2894859  )
         8           Zn1 tau(   8) = (   4.2488279   0.8765673  12.2894859  )
         9           Ti1 tau(   9) = (   2.9318607   1.7531345  14.5789719  )
        10           Ti1 tau(  10) = (   7.0317254   4.2046883  14.5789719  )
        11           Zn1 tau(  11) = (   5.7147582   1.7531345  14.5789719  )
        12           Zn1 tau(  12) = (   4.2488279   4.2046883  14.5789719  )

     number of k points=    20  Fermi-Dirac smearing, width (Ry)=  0.0110
                       cart. coord. in units 2pi/alat
        k(    1) = (   0.0000000   0.0000000   0.0000000), wk =   0.0555556
        k(    2) = (   0.0000000   0.0339920   0.0000000), wk =   0.1111111
        k(    3) = (   0.0000000   0.0679841   0.0000000), wk =   0.1111111
        k(    4) = (   0.0000000  -0.1019761   0.0000000), wk =   0.0555556
        k(    5) = (   0.0299448  -0.0160863   0.0000000), wk =   0.1111111
        k(    6) = (   0.0299448   0.0179058   0.0000000), wk =   0.1111111
        k(    7) = (   0.0299448   0.0518978   0.0000000), wk =   0.1111111
        k(    8) = (   0.0299448  -0.1180624   0.0000000), wk =   0.1111111
        k(    9) = (   0.0299448  -0.0840704   0.0000000), wk =   0.1111111
        k(   10) = (   0.0299448  -0.0500783   0.0000000), wk =   0.1111111
        k(   11) = (   0.0598896  -0.0321725   0.0000000), wk =   0.1111111
        k(   12) = (   0.0598896   0.0018195   0.0000000), wk =   0.1111111
        k(   13) = (   0.0598896   0.0358116   0.0000000), wk =   0.1111111
        k(   14) = (   0.0598896  -0.1341487   0.0000000), wk =   0.1111111
        k(   15) = (   0.0598896  -0.1001566   0.0000000), wk =   0.1111111
        k(   16) = (   0.0598896  -0.0661646   0.0000000), wk =   0.1111111
        k(   17) = (  -0.0898344   0.0482588   0.0000000), wk =   0.0555556
        k(   18) = (  -0.0898344   0.0822508   0.0000000), wk =   0.1111111
        k(   19) = (  -0.0898344   0.1162429   0.0000000), wk =   0.1111111
        k(   20) = (  -0.0898344  -0.0537174   0.0000000), wk =   0.0555556

     Largest allocated arrays     est. size (Mb)     dimensions
     Largest temporary arrays     est. size (Mb)     dimensions

     Check: negative/imaginary core charge=   -0.000005    0.000000

     Initial potential from superposition of free atoms
     Check: negative starting charge=   -0.008207

     starting charge  185.99889, renormalised to  192.00000

     negative rho (up, down):  8.472E-03 0.000E+00

     *
     * You are using vdW-DF for exchange-correlation in this calculation.
     * Please cite the following three references that made this development
     * possible:
     *
     *   M. Dion, H. Rydberg, E. Schroder, D. C. Langreth, and
     *   B. I. Lundqvist, Phys. Rev. Lett. 92, 246401 (2004).
     *
     *   T. Thonhauser, V. R. Cooper, S. Li, A. Puzder, P. Hyldgaard, and
     *   D. C. Langreth, Phys. Rev. B 76, 125112 (2007).
     *
     *   G. Roman-Perez and J. M. Soler, Phys. Rev. Lett. 103, 096102 (2009).
     *
     *
     * If you are using vdW-DF2, please also cite:
     *
     *   K. Lee, E. D. Murray, L. Kong, B. I. Lundqvist, and
     *   D. C. Langreth, Phys. Rev. B 82, 081101(R) (2010).
     *
     *
     * If you are calculating the stress with vdW-DF, please also cite:
     *
     *   R. Sabatini, E. Kucukbenli, B. Kolb, T. Thonhauser, and
     *   S. de Gironcoli, J. Phys.: Condens. Matter 24, 424209 (2012).
     *

     Carrying out vdW-DF run using the following parameters:

     Nqs =      20    Nr_points =    1024   r_max =   100.000
     q_mesh =
               0.00001000     0.04494208     0.09755937     0.15916263
               0.23128650     0.31572767     0.41458969     0.53033537
               0.66584808     0.82450364     1.01025438     1.22772762
               1.48234092     1.78043706     2.12944203     2.53805004
               3.01644009     3.57652955     4.23227104     5.00000000

     Gradients computed in reciprocal space

     Adding external electric field

     Computed dipole along edir(3) :
        Dipole                0.0000 Ry au,          0.0000 Debye
        Dipole field          0.0000 Ry au

        Potential amp.       -0.0000 Ry
        Total length         45.2863 bohr

     Starting wfc are  138 randomized atomic wfcs

     Self-consistent Calculation

     iteration #  1     ecut=    36.75 Ry     beta=0.10
     Davidson diagonalization with overlap
     ethr =  1.00E-02,  avg # of iterations =  6.2

[...]

     total energy              =   -3421.49839084 Ry
     Harris-Foulkes estimate   =   -3523.92557470 Ry
     estimated scf accuracy    <     559.14074917 Ry

[...]

     End of self-consistent calculation

          k = 0.0000 0.0000 0.0000 ( 17027 PWs)   bands (ev):

  -125.4157-125.4157-125.4153-125.4153-125.4136-125.4131 -79.5891 -79.5884
   -79.5882 -79.5875 -79.5867 -79.5866 -79.5841 -79.5835 -79.5832 -79.5792
   -79.5792 -79.5767 -79.5765 -79.5762 -79.5760 -79.5757 -79.5694 -79.5687
   -56.4484 -56.4472 -56.4003 -56.3994 -56.1646 -56.1159 -32.8076 -32.7934
   -32.7626 -32.7475 -32.7267 -32.7254 -32.7181 -32.6814 -32.6720 -32.6364
   -32.5283 -32.4975 -32.4477 -32.3275 -32.3267 -32.3096 -32.2669 -32.1235
    -7.0624  -6.7143  -6.6814  -6.6665  -6.6469  -6.6133  -6.5869  -6.5748
    -6.5259  -6.5230  -6.5099  -6.4866  -6.4370  -6.4251  -6.3363  -6.3321
    -6.3151  -6.3112  -6.2643  -6.2299  -6.2093  -6.2004  -6.1744  -6.1678
    -6.1577  -6.1525  -6.1065  -6.1051  -6.0696  -6.0441  -5.8756  -5.2450
    -3.4686  -2.6824  -1.9781  -1.7476  -0.7827  -0.6310  -0.6126  -0.4148
    -0.1674  -0.1319   0.0098   0.1556   0.4799   0.7896   0.8075   0.8267
     0.8524   0.9452   1.0858   1.5052   1.5458   1.5475   1.6561   1.7371
     1.9157   2.1016   2.2156   2.3287   2.5754   2.6848   2.7300   2.8366
     2.9034   2.9436   2.9905   3.1924   3.2954   3.3656   3.4631   3.7588
     4.1645   4.3240   4.3366   4.6014   4.6318   4.8080

[...]

          k =-0.0898 0.0483 0.0000 ( 17018 PWs)   bands (ev):

[...]

     the Fermi energy is     0.7568 ev

!    total energy              =   -3495.97111167 Ry
     Harris-Foulkes estimate   =   -3495.97111035 Ry
     estimated scf accuracy    <       0.00000019 Ry

     The total energy is the sum of the following terms:

     one-electron contribution =  -22279.26608489 Ry
     hartree contribution      =   11124.43581203 Ry
     xc contribution           =    -372.92275207 Ry
     ewald contribution        =    8031.87546537 Ry
     electric field correction =       0.00000000 Ry
     smearing contrib. (-TS)   =      -0.09355211 Ry

     convergence has been achieved in  23 iterations

 BEEF-vdW xc energy contributions
           1 :   -328.206152296389
           2 :    296.423964320995
           3 :   -243.383144446189
           4 :    184.801347563331
           5 :   -134.342702945069
           6 :    98.4750327958633
[...]

[...]

     Total force =     0.022527     Total SCF correction =     0.003281
     SCF correction compared to forces is large: reduce conv_thr to get better values

[...]

     Found symmetry operation: I + ( -0.5000 -0.5000  0.0000)
     This is a supercell, fractional translations are disabled

[...]

   This run was terminated on:   8:54:52  19Dec2018

[...]

     Program PWSCF v.5.1rc2 (svn rev. 11289) starts on 19Dec2018 at  8:54:58

     Current dimensions of program PWSCF are:
     Max number of different atomic species (ntypx) = 10
     Max number of k-points (npk) =  40000
     Max angular momentum in pseudopotentials (lmaxx) =  3
     Presently stress not available with electric field

     IMPORTANT: XC functional enforced from input :
     Exchange-correlation      = BEEF-VDW ( 1  4 27 13 2)
     Any further DFT definition will be discarded
     Please, verify this is what you really want

     Subspace diagonalization in iterative solution of the eigenvalue problem:
     a serial algorithm will be used

     bravais-lattice index     =            0
     lattice parameter (alat)  =       1.8897  a.u.
     unit-cell volume          =    4526.4627 (a.u.)^3
     number of atoms/cell      =           12
     number of atomic types    =            2
     number of electrons       =       192.00
     number of Kohn-Sham states=          126
     kinetic-energy cutoff     =      36.7493  Ry
     charge density cutoff     =     367.4932  Ry
     convergence threshold     =      1.0E-06
     mixing beta               =       0.1000
     number of iterations used =           10  plain     mixing
     Exchange-correlation      = BEEF-VDW ( 1  4 27 13 2)
     nstep                     =           50

     celldm(1)=   1.889726  celldm(2)=   0.000000  celldm(3)=   0.000000
     celldm(4)=   0.000000  celldm(5)=   0.000000  celldm(6)=   0.000000

     crystal axes: (cart. coord. in units of alat)
               a(1) = (   5.565795   0.000000   0.000000 )
               a(2) = (   2.633934   4.903108   0.000000 )
               a(3) = (   0.000000   0.000000  24.578972 )

     reciprocal axes: (cart. coord. in units 2 pi/alat)
               b(1) = (  0.179669 -0.096518  0.000000 )
               b(2) = (  0.000000  0.203952  0.000000 )
               b(3) = (  0.000000  0.000000  0.040685 )

     PseudoPot. # 1 for Ti read from file:
     /afs/slac.stanford.edu/u/if/mamunm/psp/gbrv1.5pbe/Ti.UPF
     MD5 check sum: 88a00a6731bd790ddea75d31a80cb452
     Pseudo is Ultrasoft + core correction, Zval = 12.0
     Generated by new atomic code, or converted to UPF format
     Using radial grid of  851 points,  6 beta functions with:
                l(1) =   0
                l(2) =   0
                l(3) =   1
                l(4) =   1
                l(5) =   2
                l(6) =   2
     Q(r) pseudized with  6 coefficients,  rinner =    1.000   1.000   1.000
                                                       1.000   1.000

     PseudoPot. # 2 for Zn read from file:
     /afs/slac.stanford.edu/u/if/mamunm/psp/gbrv1.5pbe/Zn.UPF
     MD5 check sum: df62231357ef9e81f77b2b3087fa5675
     Pseudo is Ultrasoft, Zval = 20.0
     Generated by new atomic code, or converted to UPF format
     Using radial grid of  943 points,  6 beta functions with:
                l(1) =   0
                l(2) =   0
                l(3) =   1
                l(4) =   1
                l(5) =   2
                l(6) =   2
     Q(r) pseudized with  8 coefficients,  rinner =    1.100   1.100   1.100
                                                       1.100   1.100

     vdW kernel table read from file vdW_kernel_table
     MD5 check sum: 095c7af220d748ca6e76c0b4c6cfb241

     atomic species   valence    mass     pseudopotential
        Ti1           12.00    47.86700     Ti( 1.00)
        Zn1           20.00    65.38000     Zn( 1.00)

     No symmetry found

   Cartesian axes

     site n.     atom                  positions (alat units)
         1           Ti1 tau(   1) = (   0.0000000   0.0000000  10.0000000  )
         2           Ti1 tau(   2) = (   4.0998647   2.4515538  10.0000000  )
         3           Zn1 tau(   3) = (   2.7828975   0.0000000  10.0000000  )
         4           Zn1 tau(   4) = (   1.3169672   2.4515538  10.0000000  )
         5           Ti1 tau(   5) = (   5.5657950   3.3281211  12.2894859  )
         6           Ti1 tau(   6) = (   1.4659304   0.8765673  12.2894859  )
         7           Zn1 tau(   7) = (   2.7828975   3.3281211  12.2894859  )
         8           Zn1 tau(   8) = (   4.2488279   0.8765673  12.2894859  )
         9           Ti1 tau(   9) = (   2.9226378   1.7476202  14.5150511  )
        10           Ti1 tau(  10) = (   7.0224874   4.1991640  14.5150224  )
        11           Zn1 tau(  11) = (   5.6946837   1.7414203  14.6436145  )
        12           Zn1 tau(  12) = (   4.2290056   4.1925476  14.6436175  )

     number of k points=    20  Fermi-Dirac smearing, width (Ry)=  0.0110
                       cart. coord. in units 2pi/alat
        k(    1) = (   0.0000000   0.0000000   0.0000000), wk =   0.0555556
        k(    2) = (   0.0000000   0.0339920   0.0000000), wk =   0.1111111
        k(    3) = (   0.0000000   0.0679841   0.0000000), wk =   0.1111111
        k(    4) = (   0.0000000  -0.1019761   0.0000000), wk =   0.0555556
        k(    5) = (   0.0299448  -0.0160863   0.0000000), wk =   0.1111111
        k(    6) = (   0.0299448   0.0179058   0.0000000), wk =   0.1111111
        k(    7) = (   0.0299448   0.0518978   0.0000000), wk =   0.1111111
        k(    8) = (   0.0299448  -0.1180624   0.0000000), wk =   0.1111111
        k(    9) = (   0.0299448  -0.0840704   0.0000000), wk =   0.1111111
        k(   10) = (   0.0299448  -0.0500783   0.0000000), wk =   0.1111111
        k(   11) = (   0.0598896  -0.0321725   0.0000000), wk =   0.1111111
        k(   12) = (   0.0598896   0.0018195   0.0000000), wk =   0.1111111
        k(   13) = (   0.0598896   0.0358116   0.0000000), wk =   0.1111111
        k(   14) = (   0.0598896  -0.1341487   0.0000000), wk =   0.1111111
        k(   15) = (   0.0598896  -0.1001566   0.0000000), wk =   0.1111111
        k(   16) = (   0.0598896  -0.0661646   0.0000000), wk =   0.1111111
        k(   17) = (  -0.0898344   0.0482588   0.0000000), wk =   0.0555556
        k(   18) = (  -0.0898344   0.0822508   0.0000000), wk =   0.1111111
        k(   19) = (  -0.0898344   0.1162429   0.0000000), wk =   0.1111111
        k(   20) = (  -0.0898344  -0.0537174   0.0000000), wk =   0.0555556

     Largest allocated arrays     est. size (Mb)     dimensions
     Largest temporary arrays     est. size (Mb)     dimensions

     Check: negative/imaginary core charge=   -0.000005    0.000000

     Initial potential from superposition of free atoms
     Check: negative starting charge=   -0.008274

     starting charge  185.99889, renormalised to  192.00000

[...]

     *
     * You are using vdW-DF for exchange-correlation in this calculation.
     * Please cite the following three references that made this development
     * possible:
     *
     *   M. Dion, H. Rydberg, E. Schroder, D. C. Langreth, and
     *   B. I. Lundqvist, Phys. Rev. Lett. 92, 246401 (2004).
     *
     *   T. Thonhauser, V. R. Cooper, S. Li, A. Puzder, P. Hyldgaard, and
     *   D. C. Langreth, Phys. Rev. B 76, 125112 (2007).
     *
     *   G. Roman-Perez and J. M. Soler, Phys. Rev. Lett. 103, 096102 (2009).
     *
     *
     * If you are using vdW-DF2, please also cite:
     *
     *   K. Lee, E. D. Murray, L. Kong, B. I. Lundqvist, and
     *   D. C. Langreth, Phys. Rev. B 82, 081101(R) (2010).
     *
     *
     * If you are calculating the stress with vdW-DF, please also cite:
     *
     *   R. Sabatini, E. Kucukbenli, B. Kolb, T. Thonhauser, and
     *   S. de Gironcoli, J. Phys.: Condens. Matter 24, 424209 (2012).
     *

     Carrying out vdW-DF run using the following parameters:

     Nqs =      20    Nr_points =    1024   r_max =   100.000
     q_mesh =
               0.00001000     0.04494208     0.09755937     0.15916263
               0.23128650     0.31572767     0.41458969     0.53033537
               0.66584808     0.82450364     1.01025438     1.22772762
               1.48234092     1.78043706     2.12944203     2.53805004
               3.01644009     3.57652955     4.23227104     5.00000000

     Gradients computed in reciprocal space

[...]

     Starting wfc are  138 randomized atomic wfcs

     Self-consistent Calculation

[...]

     total energy              =   -3495.97350828 Ry
     Harris-Foulkes estimate   =   -3495.97350762 Ry
     estimated scf accuracy    <       0.00000152 Ry

     iteration # 23     ecut=    36.75 Ry     beta=0.10
     Davidson diagonalization with overlap
     ethr =  7.90E-10,  avg # of iterations =  2.4

[...]

     negative rho (up, down):  5.190E-03 0.000E+00

     Adding external electric field

     Computed dipole along edir(3) :
        Dipole               -0.0284 Ry au,         -0.0722 Debye
        Dipole field         -0.0001 Ry au

        Potential amp.        0.0071 Ry
        Total length         45.2863 bohr

     End of self-consistent calculation

[...]

          k = 0.0599-0.0662 0.0000 ( 17020 PWs)   bands (ev):

[...]

          k =-0.0898-0.0537 0.0000 ( 17084 PWs)   bands (ev):

  -125.4591-125.4586-125.4525-125.4521-125.4178-125.4173 -79.6291 -79.6290
   -79.6287 -79.6244 -79.6242 -79.6233 -79.6210 -79.6161 -79.6157 -79.6153
   -79.6139 -79.6133 -79.5931 -79.5928 -79.5907 -79.5828 -79.5761 -79.5755
   -56.4831 -56.4376 -56.4354 -56.3897 -56.1910 -56.1423 -32.8398 -32.7921
   -32.7900 -32.7613 -32.7477 -32.7427 -32.7315 -32.6950 -32.6915 -32.6426
   -32.5608 -32.5229 -32.4766 -32.3612 -32.3300 -32.3178 -32.2762 -32.1568
    -6.7470  -6.6800  -6.6611  -6.6331  -6.6095  -6.5511  -6.5188  -6.5096
    -6.4892  -6.4832  -6.4715  -6.4578  -6.3712  -6.3502  -6.3294  -6.3171
    -6.3082  -6.2749  -6.2572  -6.2440  -6.2383  -6.2092  -6.1959  -6.1752
    -6.1478  -6.1426  -6.1305  -6.0905  -6.0717  -5.9101  -5.3687  -5.0986
    -3.5991  -2.9996  -2.5319  -2.2188  -1.9519  -1.5313  -1.1660  -1.0526
    -0.8847  -0.7343  -0.3911  -0.3118  -0.0388  -0.0197   0.1245   0.3200
     0.4242   0.5554   0.7660   0.7804   1.6398   1.7333   1.7374   1.9463
     2.0513   2.3556   2.4508   2.4583   2.5670   2.6543   2.7015   2.7985
     2.8427   2.9672   3.4702   3.4920   3.5588   3.8594   4.6706   4.7080
     4.8417   5.0478   5.5379   5.5490   5.5677   6.0007

     the Fermi energy is     0.7230 ev

!    total energy              =   -3495.97350964 Ry
     Harris-Foulkes estimate   =   -3495.97350837 Ry
     estimated scf accuracy    <       0.00000070 Ry

     The total energy is the sum of the following terms:

     one-electron contribution =  -22232.26600615 Ry
     hartree contribution      =   11100.76660930 Ry
     xc contribution           =    -372.93651974 Ry
     ewald contribution        =    8008.55634908 Ry
     electric field correction =       0.00000224 Ry
     smearing contrib. (-TS)   =      -0.09394437 Ry

     convergence has been achieved in  23 iterations

 BEEF-vdW xc energy contributions
           1 :   -328.219142381625
           2 :    296.436197262453
           3 :   -243.391847990065
           4 :    184.803592023168
           5 :   -134.339434385315
           6 :    98.4719814311746
           7 :   -75.8010099623179
           8 :    60.3328801800828
           9 :   -46.1732179031105
          10 :    30.7937971638363
          11 :   -15.4103138497755
          12 :    2.92611696806978
          13 :    4.73371154488950
          14 :   -8.04464264269836
          15 :    9.33198120384441
          16 :   -10.9772349033220
          17 :    13.8420753775133
          18 :   -16.9955391341688
          19 :    18.7396664685427
          20 :   -18.0271776757942
          21 :    15.2200827142050
          22 :   -11.7497265388734
          23 :    9.05549788134067
          24 :   -7.64075812712906
          25 :    6.89912571491828
          26 :   -5.74890549534501
          27 :    3.52915298205789
          28 :  -0.487811953065261
          29 :   -2.44388600926720
          30 :    4.34941436098035
          31 :   -28.1186851483095
          32 :   -19.5117321597501

     Forces acting on atoms (Ry/au):

     negative rho (up, down):  5.190E-03 0.000E+00
     atom    1 type  1   force =     0.00017328    0.00010376    0.00960359
     atom    2 type  1   force =     0.00017244    0.00010299    0.00959908
     atom    3 type  2   force =     0.00298126    0.00180459   -0.00788973
     atom    4 type  2   force =     0.00299954    0.00177210   -0.00789052
     atom    5 type  1   force =    -0.00283025   -0.00169214    0.00255655
     atom    6 type  1   force =    -0.00283402   -0.00169477    0.00258582
     atom    7 type  2   force =     0.00133104    0.00077748   -0.00596771
     atom    8 type  2   force =     0.00131403    0.00080369   -0.00596749
     atom    9 type  1   force =    -0.00120147   -0.00071873    0.00119975
     atom   10 type  1   force =    -0.00114690   -0.00068543    0.00120530
     atom   11 type  2   force =    -0.00045075   -0.00033634    0.00048338
     atom   12 type  2   force =    -0.00050821   -0.00023720    0.00048198

     Total force =     0.021259     Total SCF correction =     0.003743
     SCF correction compared to forces is large: reduce conv_thr to get better values

     entering subroutine stress ...

     negative rho (up, down):  5.190E-03 0.000E+00
          total   stress  (Ry/bohr**3)                   (kbar)     P=   -9.78
  -0.00007789   0.00001555  -0.00001130        -11.46      2.29     -1.66
   0.00001555  -0.00009459  -0.00000676          2.29    -13.92     -0.99
  -0.00001130  -0.00000676  -0.00002691         -1.66     -0.99     -3.96

 !ASE

     Writing output data file calc.save

     General routines

     Parallel routines

   This run was terminated on:   9: 1:19  19Dec2018

   JOB DONE.
Job  /afs/slac/g/suncat/bin/suncat-tsmpirun -x LD_LIBRARY_PATH -wdir /scratch/qe530735_EIp9J pw.x -in pw.inp

TID   HOST_NAME   COMMAND_LINE            STATUS            TERMINATION_TIME
00000 suncat2046 pw.x -in pw.inp   Done                     12/19/2018 09:01:19
00001 suncat2046 pw.x -in pw.inp   Done                     12/19/2018 09:01:19
00002 suncat2046 pw.x -in pw.inp   Done                     12/19/2018 09:01:19
00003 suncat2046 pw.x -in pw.inp   Done                     12/19/2018 09:01:19
00004 suncat2046 pw.x -in pw.inp   Done                     12/19/2018 09:01:19
00005 suncat2046 pw.x -in pw.inp   Done                     12/19/2018 09:01:19
00006 suncat2046 pw.x -in pw.inp   Done                     12/19/2018 09:01:19
00007 suncat2046 pw.x -in pw.inp   Done                     12/19/2018 09:01:19
00008 suncat2046 pw.x -in pw.inp   Done                     12/19/2018 09:01:19
00009 suncat2046 pw.x -in pw.inp   Done                     12/19/2018 09:01:19
00010 suncat2046 pw.x -in pw.inp   Done                     12/19/2018 09:01:19
00011 suncat2046 pw.x -in pw.inp   Done                     12/19/2018 09:01:19
00012 suncat2046 pw.x -in pw.inp   Done                     12/19/2018 09:01:19
00013 suncat2046 pw.x -in pw.inp   Done                     12/19/2018 09:01:19
00014 suncat2046 pw.x -in pw.inp   Done                     12/19/2018 09:01:19
00015 suncat2046 pw.x -in pw.inp   Done                     12/19/2018 09:01:19
00016 suncat2045 pw.x -in pw.inp   Done                     12/19/2018 09:01:19
00017 suncat2045 pw.x -in pw.inp   Done                     12/19/2018 09:01:19
00018 suncat2045 pw.x -in pw.inp   Done                     12/19/2018 09:01:19
00019 suncat2045 pw.x -in pw.inp   Done                     12/19/2018 09:01:19
00020 suncat2045 pw.x -in pw.inp   Done                     12/19/2018 09:01:19
00021 suncat2045 pw.x -in pw.inp   Done                     12/19/2018 09:01:19
00022 suncat2045 pw.x -in pw.inp   Done                     12/19/2018 09:01:19
00023 suncat2045 pw.x -in pw.inp   Done                     12/19/2018 09:01:19
00024 suncat2045 pw.x -in pw.inp   Done                     12/19/2018 09:01:19
00025 suncat2045 pw.x -in pw.inp   Done                     12/19/2018 09:01:19
00026 suncat2045 pw.x -in pw.inp   Done                     12/19/2018 09:01:19
00027 suncat2045 pw.x -in pw.inp   Done                     12/19/2018 09:01:19
00028 suncat2045 pw.x -in pw.inp   Done                     12/19/2018 09:01:19
00029 suncat2045 pw.x -in pw.inp   Done                     12/19/2018 09:01:19
00030 suncat2045 pw.x -in pw.inp   Done                     12/19/2018 09:01:19
00031 suncat2045 pw.x -in pw.inp   Done                     12/19/2018 09:01:19