     Program PWSCF v.5.1rc2 (svn rev. 11289) starts on 24Dec2018 at 20:24:30

     Current dimensions of program PWSCF are:
     Max number of different atomic species (ntypx) = 10
     Max number of k-points (npk) =  40000
     Max angular momentum in pseudopotentials (lmaxx) =  3
     Presently stress not available with electric field

     IMPORTANT: XC functional enforced from input :
     Exchange-correlation      = BEEF-VDW ( 1  4 27 13 2)
     Any further DFT definition will be discarded
     Please, verify this is what you really want

     Subspace diagonalization in iterative solution of the eigenvalue problem:
     a serial algorithm will be used

     Found symmetry operation: I + (  0.5000 -0.5000  0.0000)
     This is a supercell, fractional translations are disabled

     bravais-lattice index     =            0
     lattice parameter (alat)  =       1.8897  a.u.
     unit-cell volume          =    5346.4432 (a.u.)^3
     number of atoms/cell      =           12
     number of atomic types    =            2
     number of electrons       =       138.00
     number of Kohn-Sham states=           99
     kinetic-energy cutoff     =      36.7493  Ry
     charge density cutoff     =     367.4932  Ry
     convergence threshold     =      1.0E-06
     mixing beta               =       0.1000
     number of iterations used =           10  plain     mixing
     Exchange-correlation      = BEEF-VDW ( 1  4 27 13 2)
     nstep                     =           50

     celldm(1)=   1.889726  celldm(2)=   0.000000  celldm(3)=   0.000000
     celldm(4)=   0.000000  celldm(5)=   0.000000  celldm(6)=   0.000000

     crystal axes: (cart. coord. in units of alat)
               a(1) = (   5.951077   0.000000   0.000000 )
               a(2) = (   2.623432   5.341622   0.000000 )
               a(3) = (   0.000000   0.000000  24.922963 )

     reciprocal axes: (cart. coord. in units 2 pi/alat)
               b(1) = (  0.168037 -0.082528  0.000000 )
               b(2) = (  0.000000  0.187209  0.000000 )
               b(3) = (  0.000000  0.000000  0.040124 )

     PseudoPot. # 1 for Hf read from file:
     /afs/slac.stanford.edu/u/if/mamunm/psp/gbrv1.5pbe/Hf.UPF
     MD5 check sum: 8ee9378dfe14276e333edf04c5e4aa26
     Pseudo is Ultrasoft + core correction, Zval = 12.0
     Generated by new atomic code, or converted to UPF format
     Using radial grid of  921 points,  8 beta functions with:
                l(1) =   0
                l(2) =   0
                l(3) =   0
                l(4) =   1
                l(5) =   1
                l(6) =   2
                l(7) =   2
                l(8) =   3
     Q(r) pseudized with  6 coefficients,  rinner =    1.200   1.200   1.200
                                                       1.200   1.200   1.200
                                                       1.200

     PseudoPot. # 2 for Au read from file:
     /afs/slac.stanford.edu/u/if/mamunm/psp/gbrv1.5pbe/Au.UPF
     MD5 check sum: 9d7f43293ad2c663164586bc4b293ffc
     Pseudo is Ultrasoft + core correction, Zval = 11.0
     Generated by new atomic code, or converted to UPF format
     Using radial grid of  985 points,  7 beta functions with:
                l(1) =   0
                l(2) =   0
                l(3) =   1
                l(4) =   1
                l(5) =   2
                l(6) =   2
                l(7) =   3
     Q(r) pseudized with  6 coefficients,  rinner =    1.900   1.900   1.900
                                                       1.900   1.900   1.900
                                                       1.900

     vdW kernel table read from file vdW_kernel_table
     MD5 check sum: 095c7af220d748ca6e76c0b4c6cfb241

     atomic species   valence    mass     pseudopotential
        Hf1           12.00   178.49000     Hf( 1.00)
        Au1           11.00   196.96657     Au( 1.00)

     No symmetry found

   Cartesian axes

     site n.     atom                  positions (alat units)
         1           Hf1 tau(   1) = (   0.0000000   0.0000000  10.0000000  )
         2           Hf1 tau(   2) = (   4.2872545   2.6708108  10.0000000  )
         3           Au1 tau(   3) = (   2.9755385   0.0000000  10.0000000  )
         4           Au1 tau(   4) = (   1.3117160   2.6708108  10.0000000  )
         5           Hf1 tau(   5) = (   5.9510770   3.7073145  12.4614814  )
         6           Hf1 tau(   6) = (   1.6638225   1.0365037  12.4614814  )
         7           Au1 tau(   7) = (   2.9755385   3.7073145  12.4614814  )
         8           Au1 tau(   8) = (   4.6393610   1.0365037  12.4614814  )
         9           Hf1 tau(   9) = (   3.3276450   2.0730074  14.9229627  )
        10           Hf1 tau(  10) = (   7.6148995   4.7438182  14.9229627  )
        11           Au1 tau(  11) = (   6.3031835   2.0730074  14.9229627  )
        12           Au1 tau(  12) = (   4.6393610   4.7438182  14.9229627  )

     number of k points=    20  Fermi-Dirac smearing, width (Ry)=  0.0110
                       cart. coord. in units 2pi/alat
        k(    1) = (   0.0000000   0.0000000   0.0000000), wk =   0.0555556
        k(    2) = (   0.0000000   0.0312015   0.0000000), wk =   0.1111111
        k(    3) = (   0.0000000   0.0624030   0.0000000), wk =   0.1111111
        k(    4) = (   0.0000000  -0.0936045   0.0000000), wk =   0.0555556
        k(    5) = (   0.0280061  -0.0137547   0.0000000), wk =   0.1111111
        k(    6) = (   0.0280061   0.0174469   0.0000000), wk =   0.1111111
        k(    7) = (   0.0280061   0.0486484   0.0000000), wk =   0.1111111
        k(    8) = (   0.0280061  -0.1073592   0.0000000), wk =   0.1111111
        k(    9) = (   0.0280061  -0.0761577   0.0000000), wk =   0.1111111
        k(   10) = (   0.0280061  -0.0449562   0.0000000), wk =   0.1111111
        k(   11) = (   0.0560123  -0.0275093   0.0000000), wk =   0.1111111
        k(   12) = (   0.0560123   0.0036922   0.0000000), wk =   0.1111111
        k(   13) = (   0.0560123   0.0348937   0.0000000), wk =   0.1111111
        k(   14) = (   0.0560123  -0.1211139   0.0000000), wk =   0.1111111
        k(   15) = (   0.0560123  -0.0899123   0.0000000), wk =   0.1111111
        k(   16) = (   0.0560123  -0.0587108   0.0000000), wk =   0.1111111
        k(   17) = (  -0.0840184   0.0412640   0.0000000), wk =   0.0555556
        k(   18) = (  -0.0840184   0.0724655   0.0000000), wk =   0.1111111
        k(   19) = (  -0.0840184   0.1036670   0.0000000), wk =   0.1111111
        k(   20) = (  -0.0840184  -0.0523406   0.0000000), wk =   0.0555556

     Largest allocated arrays     est. size (Mb)     dimensions
     Largest temporary arrays     est. size (Mb)     dimensions

     Check: negative/imaginary core charge=   -0.000003    0.000000

     Initial potential from superposition of free atoms
     Check: negative starting charge=   -0.640042

     starting charge  125.99925, renormalised to  138.00000

     negative rho (up, down):  7.010E-01 0.000E+00

     *
     * You are using vdW-DF for exchange-correlation in this calculation.
     * Please cite the following three references that made this development
     * possible:
     *
     *   M. Dion, H. Rydberg, E. Schroder, D. C. Langreth, and
     *   B. I. Lundqvist, Phys. Rev. Lett. 92, 246401 (2004).
     *
     *   T. Thonhauser, V. R. Cooper, S. Li, A. Puzder, P. Hyldgaard, and
     *   D. C. Langreth, Phys. Rev. B 76, 125112 (2007).
     *
     *   G. Roman-Perez and J. M. Soler, Phys. Rev. Lett. 103, 096102 (2009).
     *
     *
     * If you are using vdW-DF2, please also cite:
     *
     *   K. Lee, E. D. Murray, L. Kong, B. I. Lundqvist, and
     *   D. C. Langreth, Phys. Rev. B 82, 081101(R) (2010).
     *
     *
     * If you are calculating the stress with vdW-DF, please also cite:
     *
     *   R. Sabatini, E. Kucukbenli, B. Kolb, T. Thonhauser, and
     *   S. de Gironcoli, J. Phys.: Condens. Matter 24, 424209 (2012).
     *

     Carrying out vdW-DF run using the following parameters:

     Nqs =      20    Nr_points =    1024   r_max =   100.000
     q_mesh =
               0.00001000     0.04494208     0.09755937     0.15916263
               0.23128650     0.31572767     0.41458969     0.53033537
               0.66584808     0.82450364     1.01025438     1.22772762
               1.48234092     1.78043706     2.12944203     2.53805004
               3.01644009     3.57652955     4.23227104     5.00000000

     Gradients computed in reciprocal space

     Adding external electric field

     Computed dipole along edir(3) :
        Dipole                0.0000 Ry au,          0.0000 Debye
        Dipole field          0.0000 Ry au

        Potential amp.       -0.0000 Ry
        Total length         45.9201 bohr

     Starting wfc are  132 randomized atomic wfcs

     Self-consistent Calculation

     iteration #  1     ecut=    36.75 Ry     beta=0.10
     Davidson diagonalization with overlap
     ethr =  1.00E-02,  avg # of iterations =  8.2

[...]

     total energy              =   -1660.14512478 Ry
     Harris-Foulkes estimate   =   -1670.75423858 Ry
     estimated scf accuracy    <      62.76273048 Ry

[...]

     End of self-consistent calculation

          k = 0.0000 0.0000 0.0000 ( 20131 PWs)   bands (ev):

   -61.7379 -61.7377 -61.7175 -61.7173 -61.4083 -61.3874 -30.3690 -30.3613
   -30.3267 -30.3165 -30.2755 -30.2752 -30.2700 -30.2316 -30.2277 -30.1885
   -30.0850 -30.0450 -29.9952 -29.8604 -29.8598 -29.8096 -29.7665 -29.6580
    -6.6613  -5.2776  -4.8528  -4.7202  -4.6003  -4.5673  -4.4393  -4.4143
    -4.2880  -4.2656  -4.2456  -4.0930  -4.0759  -3.9890  -3.7728  -3.4986
    -3.3356  -3.3288  -3.1985  -3.1982  -3.1192  -3.0837  -3.0599  -2.9191
    -2.8888  -2.8887  -2.8615  -2.7630  -2.7223  -2.4406  -2.3639  -1.8434
    -1.5178  -0.6227  -0.2625  -0.0735   0.2940   0.4121   0.4866   0.9008
     1.0768   1.1529   1.4084   1.5291   1.6683   1.8898   2.0290   2.0663
     2.0819   2.1316   2.4129   2.8096   3.1004   3.1512   3.2041   3.6478
     3.7435   3.8484   4.1879   4.4866   4.6489   4.7602   4.9484   4.9859
     5.1011   5.1019   5.1782   5.2249   5.2762   5.3822   5.3961   5.4092
     5.5617   5.8718   5.9851

[...]

          k =-0.0840 0.0413 0.0000 ( 20070 PWs)   bands (ev):

[...]

     the Fermi energy is     1.5396 ev

!    total energy              =   -1663.84898772 Ry
     Harris-Foulkes estimate   =   -1663.84898722 Ry
     estimated scf accuracy    <       0.00000097 Ry

     The total energy is the sum of the following terms:

     one-electron contribution =   -8489.23361605 Ry
     hartree contribution      =    4283.46859009 Ry
     xc contribution           =    -847.66618758 Ry
     ewald contribution        =    3389.65989746 Ry
     electric field correction =       0.00000000 Ry
     smearing contrib. (-TS)   =      -0.07767163 Ry

     convergence has been achieved in  18 iterations

 BEEF-vdW xc energy contributions
           1 :   -762.798251713976
           2 :    709.449512117117
           3 :   -614.207144887302
           4 :    495.799071608709
           5 :   -374.234976519588
           6 :    265.477682484549
           7 :   -178.666949952886
[...]
     Generated by new atomic code, or converted to UPF format
     Using radial grid of  921 points,  8 beta functions with:
                l(1) =   0
                l(2) =   0
                l(3) =   0
                l(4) =   1
                l(5) =   1
                l(6) =   2
                l(7) =   2
                l(8) =   3
     Q(r) pseudized with  6 coefficients,  rinner =    1.200   1.200   1.200
                                                       1.200   1.200   1.200
                                                       1.200

     PseudoPot. # 2 for Au read from file:
     /afs/slac.stanford.edu/u/if/mamunm/psp/gbrv1.5pbe/Au.UPF
     MD5 check sum: 9d7f43293ad2c663164586bc4b293ffc
     Pseudo is Ultrasoft + core correction, Zval = 11.0
     Generated by new atomic code, or converted to UPF format
     Using radial grid of  985 points,  7 beta functions with:
                l(1) =   0
                l(2) =   0
                l(3) =   1
                l(4) =   1
                l(5) =   2
                l(6) =   2
                l(7) =   3
     Q(r) pseudized with  6 coefficients,  rinner =    1.900   1.900   1.900
                                                       1.900   1.900   1.900
                                                       1.900

     vdW kernel table read from file vdW_kernel_table
     MD5 check sum: 095c7af220d748ca6e76c0b4c6cfb241

     atomic species   valence    mass     pseudopotential
        Hf1           12.00   178.49000     Hf( 1.00)
        Au1           11.00   196.96657     Au( 1.00)

     No symmetry found

   Cartesian axes

     site n.     atom                  positions (alat units)
         1           Hf1 tau(   1) = (   0.0000000   0.0000000  10.0000000  )
         2           Hf1 tau(   2) = (   4.2872545   2.6708108  10.0000000  )
         3           Au1 tau(   3) = (   2.9755385   0.0000000  10.0000000  )
         4           Au1 tau(   4) = (   1.3117160   2.6708108  10.0000000  )
         5           Hf1 tau(   5) = (   5.9510770   3.7073145  12.4614814  )
         6           Hf1 tau(   6) = (   1.6638225   1.0365037  12.4614814  )
         7           Au1 tau(   7) = (   2.9755385   3.7073145  12.4614814  )
         8           Au1 tau(   8) = (   4.6393610   1.0365037  12.4614814  )
         9           Hf1 tau(   9) = (   3.3279049   2.0731709  14.8354604  )
        10           Hf1 tau(  10) = (   7.6151648   4.7439865  14.8354674  )
        11           Au1 tau(  11) = (   6.3137704   2.0796150  14.9200174  )
        12           Au1 tau(  12) = (   4.6499533   4.7504177  14.9199520  )

     number of k points=    20  Fermi-Dirac smearing, width (Ry)=  0.0110
                       cart. coord. in units 2pi/alat
        k(    1) = (   0.0000000   0.0000000   0.0000000), wk =   0.0555556
        k(    2) = (   0.0000000   0.0312015   0.0000000), wk =   0.1111111
        k(    3) = (   0.0000000   0.0624030   0.0000000), wk =   0.1111111
        k(    4) = (   0.0000000  -0.0936045   0.0000000), wk =   0.0555556
        k(    5) = (   0.0280061  -0.0137547   0.0000000), wk =   0.1111111
        k(    6) = (   0.0280061   0.0174469   0.0000000), wk =   0.1111111
        k(    7) = (   0.0280061   0.0486484   0.0000000), wk =   0.1111111
        k(    8) = (   0.0280061  -0.1073592   0.0000000), wk =   0.1111111
        k(    9) = (   0.0280061  -0.0761577   0.0000000), wk =   0.1111111
        k(   10) = (   0.0280061  -0.0449562   0.0000000), wk =   0.1111111
        k(   11) = (   0.0560123  -0.0275093   0.0000000), wk =   0.1111111
        k(   12) = (   0.0560123   0.0036922   0.0000000), wk =   0.1111111
        k(   13) = (   0.0560123   0.0348937   0.0000000), wk =   0.1111111
        k(   14) = (   0.0560123  -0.1211139   0.0000000), wk =   0.1111111
        k(   15) = (   0.0560123  -0.0899123   0.0000000), wk =   0.1111111
        k(   16) = (   0.0560123  -0.0587108   0.0000000), wk =   0.1111111
        k(   17) = (  -0.0840184   0.0412640   0.0000000), wk =   0.0555556
        k(   18) = (  -0.0840184   0.0724655   0.0000000), wk =   0.1111111
        k(   19) = (  -0.0840184   0.1036670   0.0000000), wk =   0.1111111
        k(   20) = (  -0.0840184  -0.0523406   0.0000000), wk =   0.0555556

     Largest allocated arrays     est. size (Mb)     dimensions
     Largest temporary arrays     est. size (Mb)     dimensions

     Check: negative/imaginary core charge=   -0.000003    0.000000

     Initial potential from superposition of free atoms
     Check: negative starting charge=   -0.640142

     starting charge  125.99925, renormalised to  138.00000

[...]

     *
     * You are using vdW-DF for exchange-correlation in this calculation.
     * Please cite the following three references that made this development
     * possible:
     *
     *   M. Dion, H. Rydberg, E. Schroder, D. C. Langreth, and
     *   B. I. Lundqvist, Phys. Rev. Lett. 92, 246401 (2004).
     *
     *   T. Thonhauser, V. R. Cooper, S. Li, A. Puzder, P. Hyldgaard, and
     *   D. C. Langreth, Phys. Rev. B 76, 125112 (2007).
     *
     *   G. Roman-Perez and J. M. Soler, Phys. Rev. Lett. 103, 096102 (2009).
     *
     *
     * If you are using vdW-DF2, please also cite:
     *
     *   K. Lee, E. D. Murray, L. Kong, B. I. Lundqvist, and
     *   D. C. Langreth, Phys. Rev. B 82, 081101(R) (2010).
     *
     *
     * If you are calculating the stress with vdW-DF, please also cite:
     *
     *   R. Sabatini, E. Kucukbenli, B. Kolb, T. Thonhauser, and
     *   S. de Gironcoli, J. Phys.: Condens. Matter 24, 424209 (2012).
     *

     Carrying out vdW-DF run using the following parameters:

     Nqs =      20    Nr_points =    1024   r_max =   100.000
     q_mesh =
               0.00001000     0.04494208     0.09755937     0.15916263
               0.23128650     0.31572767     0.41458969     0.53033537
               0.66584808     0.82450364     1.01025438     1.22772762
               1.48234092     1.78043706     2.12944203     2.53805004
               3.01644009     3.57652955     4.23227104     5.00000000

     Gradients computed in reciprocal space

[...]

     Starting wfc are  132 randomized atomic wfcs

     Self-consistent Calculation

[...]

     total energy              =   -1663.85130397 Ry
     Harris-Foulkes estimate   =   -1663.85130376 Ry
     estimated scf accuracy    <       0.00000186 Ry

     iteration # 19     ecut=    36.75 Ry     beta=0.10
     Davidson diagonalization with overlap
     ethr =  1.35E-09,  avg # of iterations =  2.9

[...]

     negative rho (up, down):  6.801E-01 0.000E+00

     Adding external electric field

     Computed dipole along edir(3) :
        Dipole               -0.0179 Ry au,         -0.0456 Debye
        Dipole field         -0.0000 Ry au

        Potential amp.        0.0039 Ry
        Total length         45.9201 bohr

     End of self-consistent calculation

[...]

          k = 0.0560-0.0587 0.0000 ( 20107 PWs)   bands (ev):

[...]

          k =-0.0840-0.0523 0.0000 ( 20178 PWs)   bands (ev):

   -61.7477 -61.7274 -61.6776 -61.6572 -61.3778 -61.3567 -30.3795 -30.3329
   -30.3171 -30.2909 -30.2768 -30.2703 -30.2471 -30.2240 -30.2099 -30.1607
   -30.0707 -30.0204 -29.9769 -29.8725 -29.8253 -29.7712 -29.7285 -29.6411
    -5.3014  -4.9416  -4.4201  -4.3525  -4.2771  -4.1493  -4.0726  -3.9988
    -3.9779  -3.9584  -3.7954  -3.6866  -3.6821  -3.6679  -3.5832  -3.4317
    -3.2664  -3.2015  -3.1915  -3.1729  -3.1232  -3.0174  -2.9864  -2.9744
    -2.9601  -2.8662  -2.7176  -2.6491  -2.6261  -2.6156  -2.5662  -2.3451
    -1.8954  -1.7933  -1.6407  -0.6893  -0.6151  -0.5004  -0.1957  -0.1907
    -0.0513   0.0810   0.5276   0.6204   0.6863   0.9640   0.9955   1.2067
     1.4151   1.4771   1.6499   1.9812   2.7855   2.9568   3.0423   3.1768
     3.6177   3.7485   3.9190   4.0132   4.0232   4.2929   4.5856   4.7362
     4.8119   4.9642   5.0874   5.5110   5.6552   5.7704   6.1850   6.3720
     6.4625   6.5534   6.9111

     the Fermi energy is     1.5231 ev

!    total energy              =   -1663.85130490 Ry
     Harris-Foulkes estimate   =   -1663.85130424 Ry
     estimated scf accuracy    <       0.00000054 Ry

     The total energy is the sum of the following terms:

     one-electron contribution =   -8547.06803328 Ry
     hartree contribution      =    4312.35420539 Ry
     xc contribution           =    -847.75061804 Ry
     ewald contribution        =    3418.69037626 Ry
     electric field correction =       0.00000076 Ry
     smearing contrib. (-TS)   =      -0.07723599 Ry

     convergence has been achieved in  19 iterations

 BEEF-vdW xc energy contributions
           1 :   -762.883766239133
           2 :    709.564293739660
           3 :   -614.354952832963
           4 :    495.950705787875
           5 :   -374.344434534317
           6 :    265.511411205678
           7 :   -178.624984684852
           8 :    116.056852195638
           9 :   -75.2881956156796
          10 :    51.3482539846556
          11 :   -38.7769756170342
          12 :    32.7057863953471
          13 :   -29.2514443534313
          14 :    25.5940375940964
          15 :   -20.0415209018709
          16 :    12.1004993431391
          17 :   -2.41829299023550
          18 :   -7.55199847663607
          19 :    16.1155477518691
          20 :   -21.9273743501102
          21 :    24.3608920177418
          22 :   -23.5542009275099
          23 :    20.2076392292217
          24 :   -15.3194208351614
          25 :    9.99300096355000
          26 :   -5.33351812235503
          27 :    2.34200701550492
          28 :   -1.72976087840300
          29 :    3.66586418045506
          30 :   -7.59125530285587
          31 :   -57.1793250632647
          32 :   -41.4427768883462

     Forces acting on atoms (Ry/au):

     negative rho (up, down):  6.801E-01 0.000E+00
     atom    1 type  1   force =     0.00227692    0.00141799    0.01320572
     atom    2 type  1   force =     0.00227657    0.00141880    0.01320563
     atom    3 type  2   force =    -0.00210716   -0.00131251   -0.00029410
     atom    4 type  2   force =    -0.00210694   -0.00131186   -0.00029997
     atom    5 type  1   force =    -0.00241026   -0.00150319   -0.00477706
     atom    6 type  1   force =    -0.00241232   -0.00150068   -0.00477678
     atom    7 type  2   force =     0.00119842    0.00074666   -0.00790712
     atom    8 type  2   force =     0.00120126    0.00074751   -0.00790833
     atom    9 type  1   force =     0.00080004    0.00049825   -0.00010019
     atom   10 type  1   force =     0.00079934    0.00049860   -0.00010108
     atom   11 type  2   force =     0.00024258    0.00015070   -0.00012618
     atom   12 type  2   force =     0.00024154    0.00014973   -0.00012055

     Total force =     0.023843     Total SCF correction =     0.003270
     SCF correction compared to forces is large: reduce conv_thr to get better values

     entering subroutine stress ...

     negative rho (up, down):  6.801E-01 0.000E+00
          total   stress  (Ry/bohr**3)                   (kbar)     P=  -12.76
  -0.00011446  -0.00000491  -0.00000030        -16.84     -0.72     -0.04
  -0.00000491  -0.00010964  -0.00000019         -0.72    -16.13     -0.03
  -0.00000030  -0.00000019  -0.00003621         -0.04     -0.03     -5.33

 !ASE

     Writing output data file calc.save

     General routines

     Parallel routines

   This run was terminated on:  21:15:43  24Dec2018

   JOB DONE.
Job  /afs/slac/g/suncat/bin/suncat-tsmpirun -x LD_LIBRARY_PATH -wdir /scratch/qe108993_w6zgk pw.x -in pw.inp

TID   HOST_NAME   COMMAND_LINE            STATUS            TERMINATION_TIME
00000 suncat0081 pw.x -in pw.inp   Done                     12/24/2018 21:15:43
00001 suncat0081 pw.x -in pw.inp   Done                     12/24/2018 21:15:43
00002 suncat0081 pw.x -in pw.inp   Done                     12/24/2018 21:15:43
00003 suncat0081 pw.x -in pw.inp   Done                     12/24/2018 21:15:43
00004 suncat0081 pw.x -in pw.inp   Done                     12/24/2018 21:15:43
00005 suncat0081 pw.x -in pw.inp   Done                     12/24/2018 21:15:43
00006 suncat0081 pw.x -in pw.inp   Done                     12/24/2018 21:15:43
00007 suncat0081 pw.x -in pw.inp   Done                     12/24/2018 21:15:43
00008 suncat0080 pw.x -in pw.inp   Done                     12/24/2018 21:15:43
00009 suncat0080 pw.x -in pw.inp   Done                     12/24/2018 21:15:43
00010 suncat0080 pw.x -in pw.inp   Done                     12/24/2018 21:15:43
00011 suncat0080 pw.x -in pw.inp   Done                     12/24/2018 21:15:43
00012 suncat0080 pw.x -in pw.inp   Done                     12/24/2018 21:15:43
00013 suncat0080 pw.x -in pw.inp   Done                     12/24/2018 21:15:43
00014 suncat0080 pw.x -in pw.inp   Done                     12/24/2018 21:15:43
00015 suncat0080 pw.x -in pw.inp   Done                     12/24/2018 21:15:43
00016 suncat0172 pw.x -in pw.inp   Done                     12/24/2018 21:15:43
00017 suncat0172 pw.x -in pw.inp   Done                     12/24/2018 21:15:43
00018 suncat0172 pw.x -in pw.inp   Done                     12/24/2018 21:15:43
00019 suncat0172 pw.x -in pw.inp   Done                     12/24/2018 21:15:43
00020 suncat0172 pw.x -in pw.inp   Done                     12/24/2018 21:15:43
00021 suncat0172 pw.x -in pw.inp   Done                     12/24/2018 21:15:43
00022 suncat0172 pw.x -in pw.inp   Done                     12/24/2018 21:15:43
00023 suncat0172 pw.x -in pw.inp   Done                     12/24/2018 21:15:43
00024 suncat0171 pw.x -in pw.inp   Done                     12/24/2018 21:15:43
00025 suncat0171 pw.x -in pw.inp   Done                     12/24/2018 21:15:43
00026 suncat0171 pw.x -in pw.inp   Done                     12/24/2018 21:15:43
00027 suncat0171 pw.x -in pw.inp   Done                     12/24/2018 21:15:43
00028 suncat0171 pw.x -in pw.inp   Done                     12/24/2018 21:15:43
00029 suncat0171 pw.x -in pw.inp   Done                     12/24/2018 21:15:43
00030 suncat0171 pw.x -in pw.inp   Done                     12/24/2018 21:15:43
00031 suncat0171 pw.x -in pw.inp   Done                     12/24/2018 21:15:43
00032 suncat0270 pw.x -in pw.inp   Done                     12/24/2018 21:15:43
00033 suncat0270 pw.x -in pw.inp   Done                     12/24/2018 21:15:43
00034 suncat0270 pw.x -in pw.inp   Done                     12/24/2018 21:15:43
00035 suncat0270 pw.x -in pw.inp   Done                     12/24/2018 21:15:43
00036 suncat0270 pw.x -in pw.inp   Done                     12/24/2018 21:15:43
00037 suncat0270 pw.x -in pw.inp   Done                     12/24/2018 21:15:43
00038 suncat0270 pw.x -in pw.inp   Done                     12/24/2018 21:15:43
00039 suncat0270 pw.x -in pw.inp   Done                     12/24/2018 21:15:43
00040 suncat0268 pw.x -in pw.inp   Done                     12/24/2018 21:15:43
00041 suncat0268 pw.x -in pw.inp   Done                     12/24/2018 21:15:43
00042 suncat0268 pw.x -in pw.inp   Done                     12/24/2018 21:15:43
00043 suncat0268 pw.x -in pw.inp   Done                     12/24/2018 21:15:43
00044 suncat0268 pw.x -in pw.inp   Done                     12/24/2018 21:15:43
00045 suncat0268 pw.x -in pw.inp   Done                     12/24/2018 21:15:43
00046 suncat0268 pw.x -in pw.inp   Done                     12/24/2018 21:15:43
00047 suncat0268 pw.x -in pw.inp   Done                     12/24/2018 21:15:43
00048 suncat0207 pw.x -in pw.inp   Done                     12/24/2018 21:15:43
00049 suncat0207 pw.x -in pw.inp   Done                     12/24/2018 21:15:43
00050 suncat0207 pw.x -in pw.inp   Done                     12/24/2018 21:15:43
00051 suncat0207 pw.x -in pw.inp   Done                     12/24/2018 21:15:43
00052 suncat0207 pw.x -in pw.inp   Done                     12/24/2018 21:15:43
00053 suncat0207 pw.x -in pw.inp   Done                     12/24/2018 21:15:43
00054 suncat0207 pw.x -in pw.inp   Done                     12/24/2018 21:15:43
00055 suncat0207 pw.x -in pw.inp   Done                     12/24/2018 21:15:43
00056 suncat0206 pw.x -in pw.inp   Done                     12/24/2018 21:15:43
00057 suncat0206 pw.x -in pw.inp   Done                     12/24/2018 21:15:43
00058 suncat0206 pw.x -in pw.inp   Done                     12/24/2018 21:15:43
00059 suncat0206 pw.x -in pw.inp   Done                     12/24/2018 21:15:43
00060 suncat0206 pw.x -in pw.inp   Done                     12/24/2018 21:15:43
00061 suncat0206 pw.x -in pw.inp   Done                     12/24/2018 21:15:43
00062 suncat0206 pw.x -in pw.inp   Done                     12/24/2018 21:15:43
00063 suncat0206 pw.x -in pw.inp   Done                     12/24/2018 21:15:43