     Program PWSCF v.5.1rc2 (svn rev. 11289) starts on 24Dec2018 at 22:57: 2

     Current dimensions of program PWSCF are:
     Max number of different atomic species (ntypx) = 10
     Max number of k-points (npk) =  40000
     Max angular momentum in pseudopotentials (lmaxx) =  3
     Presently stress not available with electric field

     IMPORTANT: XC functional enforced from input :
     Exchange-correlation      = BEEF-VDW ( 1  4 27 13 2)
     Any further DFT definition will be discarded
     Please, verify this is what you really want

     Subspace diagonalization in iterative solution of the eigenvalue problem:
     a serial algorithm will be used

     Found symmetry operation: I + ( -0.5000 -0.5000  0.0000)
     This is a supercell, fractional translations are disabled

     bravais-lattice index     =            0
     lattice parameter (alat)  =       1.8897  a.u.
     unit-cell volume          =    5255.1163 (a.u.)^3
     number of atoms/cell      =           12
     number of atomic types    =            2
     number of electrons       =       174.00
     number of Kohn-Sham states=          117
     kinetic-energy cutoff     =      36.7493  Ry
     charge density cutoff     =     367.4932  Ry
     convergence threshold     =      1.0E-06
     mixing beta               =       0.1000
     number of iterations used =           10  plain     mixing
     Exchange-correlation      = BEEF-VDW ( 1  4 27 13 2)
     nstep                     =           50

     celldm(1)=   1.889726  celldm(2)=   0.000000  celldm(3)=   0.000000
     celldm(4)=   0.000000  celldm(5)=   0.000000  celldm(6)=   0.000000

     crystal axes: (cart. coord. in units of alat)
               a(1) = (   5.779422   0.000000   0.000000 )
               a(2) = (   1.919226   5.451448   0.000000 )
               a(3) = (   0.000000   0.000000  24.716640 )

     reciprocal axes: (cart. coord. in units 2 pi/alat)
               b(1) = (  0.173028 -0.060916  0.000000 )
               b(2) = (  0.000000  0.183437  0.000000 )
               b(3) = (  0.000000  0.000000  0.040459 )

     PseudoPot. # 1 for In read from file:
     /afs/slac.stanford.edu/u/if/mamunm/psp/gbrv1.5pbe/In.UPF
     MD5 check sum: 90777abd96fbb83f2e67db2a40c566b9
     Pseudo is Ultrasoft + core correction, Zval = 13.0
     Generated by new atomic code, or converted to UPF format
     Using radial grid of  889 points,  6 beta functions with:
                l(1) =   0
                l(2) =   0
                l(3) =   1
                l(4) =   1
                l(5) =   2
                l(6) =   2
     Q(r) pseudized with  6 coefficients,  rinner =    1.400   1.400   1.400
                                                       1.400   1.400

     PseudoPot. # 2 for Pt read from file:
     /afs/slac.stanford.edu/u/if/mamunm/psp/gbrv1.5pbe/Pt.UPF
     MD5 check sum: f09d6de1a584b5a045c4fc126da2d0c4
     Pseudo is Ultrasoft + core correction, Zval = 16.0
     Generated by new atomic code, or converted to UPF format
     Using radial grid of  985 points,  6 beta functions with:
                l(1) =   0
                l(2) =   0
                l(3) =   1
                l(4) =   1
                l(5) =   2
                l(6) =   2
     Q(r) pseudized with  8 coefficients,  rinner =    1.300   1.300   1.300
                                                       1.300   1.300

     vdW kernel table read from file vdW_kernel_table
     MD5 check sum: 095c7af220d748ca6e76c0b4c6cfb241

     atomic species   valence    mass     pseudopotential
        In1           13.00   114.81800     In( 1.00)
        Pt1           16.00   195.08400     Pt( 1.00)

     No symmetry found

   Cartesian axes

     site n.     atom                  positions (alat units)
         1           In1 tau(   1) = (   0.0000000   0.0000000  10.0000000  )
         2           In1 tau(   2) = (   3.8493238   2.7257242  10.0000000  )
         3           Pt1 tau(   3) = (   2.8897109   0.0000000  10.0000000  )
         4           Pt1 tau(   4) = (   0.9596129   2.7257242  10.0000000  )
         5           In1 tau(   5) = (   5.7794219   4.0924357  12.3583198  )
         6           In1 tau(   6) = (   1.9300981   1.3667115  12.3583198  )
         7           Pt1 tau(   7) = (   2.8897109   4.0924357  12.3583198  )
         8           Pt1 tau(   8) = (   4.8198090   1.3667115  12.3583198  )
         9           In1 tau(   9) = (   3.8601962   2.7334230  14.7166396  )
        10           In1 tau(  10) = (   0.0108723   0.0076988  14.7166396  )
        11           Pt1 tau(  11) = (   0.9704852   2.7334230  14.7166396  )
        12           Pt1 tau(  12) = (   2.9005833   0.0076988  14.7166396  )

     number of k points=    20  Fermi-Dirac smearing, width (Ry)=  0.0110
                       cart. coord. in units 2pi/alat
        k(    1) = (   0.0000000   0.0000000   0.0000000), wk =   0.0555556
        k(    2) = (   0.0000000   0.0305729   0.0000000), wk =   0.1111111
        k(    3) = (   0.0000000   0.0611458   0.0000000), wk =   0.1111111
        k(    4) = (   0.0000000  -0.0917187   0.0000000), wk =   0.0555556
        k(    5) = (   0.0288379  -0.0101526   0.0000000), wk =   0.1111111
        k(    6) = (   0.0288379   0.0204203   0.0000000), wk =   0.1111111
        k(    7) = (   0.0288379   0.0509932   0.0000000), wk =   0.1111111
        k(    8) = (   0.0288379  -0.1018714   0.0000000), wk =   0.1111111
        k(    9) = (   0.0288379  -0.0712985   0.0000000), wk =   0.1111111
        k(   10) = (   0.0288379  -0.0407255   0.0000000), wk =   0.1111111
        k(   11) = (   0.0576759  -0.0203053   0.0000000), wk =   0.1111111
        k(   12) = (   0.0576759   0.0102677   0.0000000), wk =   0.1111111
        k(   13) = (   0.0576759   0.0408406   0.0000000), wk =   0.1111111
        k(   14) = (   0.0576759  -0.1120240   0.0000000), wk =   0.1111111
        k(   15) = (   0.0576759  -0.0814511   0.0000000), wk =   0.1111111
        k(   16) = (   0.0576759  -0.0508782   0.0000000), wk =   0.1111111
        k(   17) = (  -0.0865138   0.0304579   0.0000000), wk =   0.0555556
        k(   18) = (  -0.0865138   0.0610308   0.0000000), wk =   0.1111111
        k(   19) = (  -0.0865138   0.0916037   0.0000000), wk =   0.1111111
        k(   20) = (  -0.0865138  -0.0612609   0.0000000), wk =   0.0555556

     Largest allocated arrays     est. size (Mb)     dimensions
     Largest temporary arrays     est. size (Mb)     dimensions

     Initial potential from superposition of free atoms
     Check: negative starting charge=   -1.106225

     starting charge  161.99993, renormalised to  174.00000

     negative rho (up, down):  1.188E+00 0.000E+00

     *
     * You are using vdW-DF for exchange-correlation in this calculation.
     * Please cite the following three references that made this development
     * possible:
     *
     *   M. Dion, H. Rydberg, E. Schroder, D. C. Langreth, and
     *   B. I. Lundqvist, Phys. Rev. Lett. 92, 246401 (2004).
     *
     *   T. Thonhauser, V. R. Cooper, S. Li, A. Puzder, P. Hyldgaard, and
     *   D. C. Langreth, Phys. Rev. B 76, 125112 (2007).
     *
     *   G. Roman-Perez and J. M. Soler, Phys. Rev. Lett. 103, 096102 (2009).
     *
     *
     * If you are using vdW-DF2, please also cite:
     *
     *   K. Lee, E. D. Murray, L. Kong, B. I. Lundqvist, and
     *   D. C. Langreth, Phys. Rev. B 82, 081101(R) (2010).
     *
     *
     * If you are calculating the stress with vdW-DF, please also cite:
     *
     *   R. Sabatini, E. Kucukbenli, B. Kolb, T. Thonhauser, and
     *   S. de Gironcoli, J. Phys.: Condens. Matter 24, 424209 (2012).
     *

     Carrying out vdW-DF run using the following parameters:

     Nqs =      20    Nr_points =    1024   r_max =   100.000
     q_mesh =
               0.00001000     0.04494208     0.09755937     0.15916263
               0.23128650     0.31572767     0.41458969     0.53033537
               0.66584808     0.82450364     1.01025438     1.22772762
               1.48234092     1.78043706     2.12944203     2.53805004
               3.01644009     3.57652955     4.23227104     5.00000000

     Gradients computed in reciprocal space

     Adding external electric field

     Computed dipole along edir(3) :
        Dipole                0.0000 Ry au,          0.0000 Debye
        Dipole field          0.0000 Ry au

        Potential amp.       -0.0000 Ry
        Total length         45.5400 bohr

     Starting wfc are  126 randomized atomic wfcs

     Self-consistent Calculation

     iteration #  1     ecut=    36.75 Ry     beta=0.10
     Davidson diagonalization with overlap
     ethr =  1.00E-02,  avg # of iterations =  7.3

[...]

     total energy              =   -2070.07352377 Ry
     Harris-Foulkes estimate   =   -2093.79570389 Ry
     estimated scf accuracy    <     140.06577628 Ry

[...]

     End of self-consistent calculation

          k = 0.0000 0.0000 0.0000 ( 19823 PWs)   bands (ev):

   -51.5024 -51.4749 -51.4742 -51.4721 -51.4502 -51.4481 -51.1654 -51.1651
   -51.1633 -51.1629 -51.1241 -51.1240 -51.0973 -51.0972 -50.9641 -50.9638
   -50.9619 -50.9617 -14.0048 -13.9774 -13.9286 -13.9222 -13.9146 -13.8438
   -13.8405 -13.8135 -13.7814 -13.7740 -13.7644 -13.7442 -13.7081 -13.7075
   -13.6954 -13.6889 -13.6355 -13.6349 -13.6327 -13.6058 -13.6057 -13.5904
   -13.5852 -13.5789 -13.5621 -13.5555 -13.5205 -13.4997 -13.4475 -13.4169
    -8.4250  -6.5524  -5.0324  -5.0039  -4.5726  -4.3579  -2.8976  -2.8666
    -2.6546  -2.4603  -2.3567  -2.2891  -2.1814  -2.1604  -1.8154  -1.7992
    -1.6927  -1.4222  -1.4105  -1.2702  -1.2560  -1.2485  -1.2435  -1.0111
    -0.9560  -0.8389  -0.8221  -0.7371  -0.5576  -0.5491  -0.5292  -0.4418
    -0.3798  -0.2453  -0.1303   0.3157   0.3252   0.3454   0.3978   0.5848
     0.6347   2.2520   2.2936   2.3358   2.4030   2.7818   3.3174   3.4681
     4.0073   4.0804   4.2047   4.5598   5.1697   5.1829   5.5598   5.9642
     6.0616   6.4980   6.7140   6.7184   7.3104   7.5883   8.1392   8.1880
     8.2484   8.2645   8.6859   9.2617   9.3471

[...]

          k =-0.0865 0.0305 0.0000 ( 19798 PWs)   bands (ev):

[...]

     the Fermi energy is     1.0895 ev

!    total energy              =   -2083.04827726 Ry
     Harris-Foulkes estimate   =   -2083.04826022 Ry
     estimated scf accuracy    <       0.00000028 Ry

     The total energy is the sum of the following terms:

     one-electron contribution =  -14195.92252008 Ry
     hartree contribution      =    7156.06518048 Ry
     xc contribution           =    -587.07650635 Ry
     ewald contribution        =    5543.91795522 Ry
     electric field correction =       0.00000000 Ry
     smearing contrib. (-TS)   =      -0.03238652 Ry

     convergence has been achieved in  16 iterations

 BEEF-vdW xc energy contributions
           1 :   -519.457799772308
           2 :    480.156982607774
           3 :   -411.496968895968
           4 :    329.245941321185
           5 :   -249.160226030443
           6 :    182.070638316688
           7 :   -131.771867548382
           8 :    96.0465017533911
           9 :   -69.7567955929098
          10 :    48.1631449779672
[...]
     MD5 check sum: 90777abd96fbb83f2e67db2a40c566b9
     Pseudo is Ultrasoft + core correction, Zval = 13.0
     Generated by new atomic code, or converted to UPF format
     Using radial grid of  889 points,  6 beta functions with:
                l(1) =   0
                l(2) =   0
                l(3) =   1
                l(4) =   1
                l(5) =   2
                l(6) =   2
     Q(r) pseudized with  6 coefficients,  rinner =    1.400   1.400   1.400
                                                       1.400   1.400

     PseudoPot. # 2 for Pt read from file:
     /afs/slac.stanford.edu/u/if/mamunm/psp/gbrv1.5pbe/Pt.UPF
     MD5 check sum: f09d6de1a584b5a045c4fc126da2d0c4
     Pseudo is Ultrasoft + core correction, Zval = 16.0
     Generated by new atomic code, or converted to UPF format
     Using radial grid of  985 points,  6 beta functions with:
                l(1) =   0
                l(2) =   0
                l(3) =   1
                l(4) =   1
                l(5) =   2
                l(6) =   2
     Q(r) pseudized with  8 coefficients,  rinner =    1.300   1.300   1.300
                                                       1.300   1.300

     vdW kernel table read from file vdW_kernel_table
     MD5 check sum: 095c7af220d748ca6e76c0b4c6cfb241

     atomic species   valence    mass     pseudopotential
        In1           13.00   114.81800     In( 1.00)
        Pt1           16.00   195.08400     Pt( 1.00)

     No symmetry found

   Cartesian axes

     site n.     atom                  positions (alat units)
         1           In1 tau(   1) = (   0.0000000   0.0000000  10.0000000  )
         2           In1 tau(   2) = (   3.8493238   2.7257242  10.0000000  )
         3           Pt1 tau(   3) = (   2.8897109   0.0000000  10.0000000  )
         4           Pt1 tau(   4) = (   0.9596129   2.7257242  10.0000000  )
         5           In1 tau(   5) = (   5.7794219   4.0924357  12.3583198  )
         6           In1 tau(   6) = (   1.9300981   1.3667115  12.3583198  )
         7           Pt1 tau(   7) = (   2.8897109   4.0924357  12.3583198  )
         8           Pt1 tau(   8) = (   4.8198090   1.3667115  12.3583198  )
         9           In1 tau(   9) = (   3.8595440   2.7329582  14.9016672  )
        10           In1 tau(  10) = (   0.0102199   0.0072354  14.9016701  )
        11           Pt1 tau(  11) = (   0.9701354   2.7331750  14.5708982  )
        12           Pt1 tau(  12) = (   2.9002334   0.0074507  14.5708981  )

     number of k points=    20  Fermi-Dirac smearing, width (Ry)=  0.0110
                       cart. coord. in units 2pi/alat
        k(    1) = (   0.0000000   0.0000000   0.0000000), wk =   0.0555556
        k(    2) = (   0.0000000   0.0305729   0.0000000), wk =   0.1111111
        k(    3) = (   0.0000000   0.0611458   0.0000000), wk =   0.1111111
        k(    4) = (   0.0000000  -0.0917187   0.0000000), wk =   0.0555556
        k(    5) = (   0.0288379  -0.0101526   0.0000000), wk =   0.1111111
        k(    6) = (   0.0288379   0.0204203   0.0000000), wk =   0.1111111
        k(    7) = (   0.0288379   0.0509932   0.0000000), wk =   0.1111111
        k(    8) = (   0.0288379  -0.1018714   0.0000000), wk =   0.1111111
        k(    9) = (   0.0288379  -0.0712985   0.0000000), wk =   0.1111111
        k(   10) = (   0.0288379  -0.0407255   0.0000000), wk =   0.1111111
        k(   11) = (   0.0576759  -0.0203053   0.0000000), wk =   0.1111111
        k(   12) = (   0.0576759   0.0102677   0.0000000), wk =   0.1111111
        k(   13) = (   0.0576759   0.0408406   0.0000000), wk =   0.1111111
        k(   14) = (   0.0576759  -0.1120240   0.0000000), wk =   0.1111111
        k(   15) = (   0.0576759  -0.0814511   0.0000000), wk =   0.1111111
        k(   16) = (   0.0576759  -0.0508782   0.0000000), wk =   0.1111111
        k(   17) = (  -0.0865138   0.0304579   0.0000000), wk =   0.0555556
        k(   18) = (  -0.0865138   0.0610308   0.0000000), wk =   0.1111111
        k(   19) = (  -0.0865138   0.0916037   0.0000000), wk =   0.1111111
        k(   20) = (  -0.0865138  -0.0612609   0.0000000), wk =   0.0555556

     Largest allocated arrays     est. size (Mb)     dimensions
     Largest temporary arrays     est. size (Mb)     dimensions

     Initial potential from superposition of free atoms
     Check: negative starting charge=   -1.110012

     starting charge  161.99993, renormalised to  174.00000

[...]

     *
     * You are using vdW-DF for exchange-correlation in this calculation.
     * Please cite the following three references that made this development
     * possible:
     *
     *   M. Dion, H. Rydberg, E. Schroder, D. C. Langreth, and
     *   B. I. Lundqvist, Phys. Rev. Lett. 92, 246401 (2004).
     *
     *   T. Thonhauser, V. R. Cooper, S. Li, A. Puzder, P. Hyldgaard, and
     *   D. C. Langreth, Phys. Rev. B 76, 125112 (2007).
     *
     *   G. Roman-Perez and J. M. Soler, Phys. Rev. Lett. 103, 096102 (2009).
     *
     *
     * If you are using vdW-DF2, please also cite:
     *
     *   K. Lee, E. D. Murray, L. Kong, B. I. Lundqvist, and
     *   D. C. Langreth, Phys. Rev. B 82, 081101(R) (2010).
     *
     *
     * If you are calculating the stress with vdW-DF, please also cite:
     *
     *   R. Sabatini, E. Kucukbenli, B. Kolb, T. Thonhauser, and
     *   S. de Gironcoli, J. Phys.: Condens. Matter 24, 424209 (2012).
     *

     Carrying out vdW-DF run using the following parameters:

     Nqs =      20    Nr_points =    1024   r_max =   100.000
     q_mesh =
               0.00001000     0.04494208     0.09755937     0.15916263
               0.23128650     0.31572767     0.41458969     0.53033537
               0.66584808     0.82450364     1.01025438     1.22772762
               1.48234092     1.78043706     2.12944203     2.53805004
               3.01644009     3.57652955     4.23227104     5.00000000

     Gradients computed in reciprocal space

[...]

     Starting wfc are  126 randomized atomic wfcs

     Self-consistent Calculation

[...]

     total energy              =   -2083.06377646 Ry
     Harris-Foulkes estimate   =   -2083.06377232 Ry
     estimated scf accuracy    <       0.00000273 Ry

     iteration # 18     ecut=    36.75 Ry     beta=0.10
     Davidson diagonalization with overlap
     ethr =  1.57E-09,  avg # of iterations =  2.0

[...]

     negative rho (up, down):  1.068E+00 0.000E+00

     Adding external electric field

     Computed dipole along edir(3) :
        Dipole                0.1010 Ry au,          0.2567 Debye
        Dipole field          0.0002 Ry au

        Potential amp.       -0.0220 Ry
        Total length         45.5400 bohr

     End of self-consistent calculation

[...]

          k = 0.0577-0.0509 0.0000 ( 19776 PWs)   bands (ev):

[...]

          k =-0.0865-0.0613 0.0000 ( 19650 PWs)   bands (ev):

   -51.2992 -51.2936 -51.2917 -51.2719 -51.2503 -51.2465 -51.1800 -51.1786
   -51.1467 -51.1198 -51.0662 -51.0641 -51.0438 -51.0418 -51.0216 -50.9948
   -50.8643 -50.8622 -13.8304 -13.7719 -13.7451 -13.7304 -13.7198 -13.7006
   -13.6761 -13.6714 -13.6335 -13.6214 -13.6188 -13.5913 -13.5761 -13.5534
   -13.5414 -13.5309 -13.5232 -13.5158 -13.5125 -13.4945 -13.4914 -13.4878
   -13.4817 -13.4787 -13.4601 -13.4360 -13.4144 -13.3850 -13.3549 -13.3176
    -6.3626  -6.2598  -4.8992  -4.6999  -4.5450  -4.4262  -4.1093  -3.2362
    -3.2322  -3.1712  -2.9801  -2.5977  -2.3924  -2.3362  -2.2619  -2.1918
    -2.1588  -1.9044  -1.8119  -1.6612  -1.6400  -1.6020  -1.5125  -1.4940
    -1.4697  -1.1406  -1.1279  -0.7107  -0.6972  -0.6963  -0.6413  -0.5391
    -0.4992  -0.1672  -0.0953  -0.0418   0.5050   0.5191   0.9140   1.0271
     1.2450   2.2364   2.8743   3.4215   3.7673   4.6860   5.1499   5.4447
     5.6930   5.7393   6.2205   6.2710   6.7340   6.7815   6.8299   6.9204
     6.9384   7.1064   7.2063   7.6493   7.8444   7.8674   7.9669   8.1301
     8.2415   8.4276   8.4589   8.6524   8.7439

     the Fermi energy is     1.2159 ev

!    total energy              =   -2083.06379143 Ry
     Harris-Foulkes estimate   =   -2083.06377920 Ry
     estimated scf accuracy    <       0.00000088 Ry

     The total energy is the sum of the following terms:

     one-electron contribution =  -14182.84350879 Ry
     hartree contribution      =    7150.11588253 Ry
     xc contribution           =    -587.03755904 Ry
     ewald contribution        =    5536.73428986 Ry
     electric field correction =       0.00002440 Ry
     smearing contrib. (-TS)   =      -0.03292040 Ry

     convergence has been achieved in  18 iterations

 BEEF-vdW xc energy contributions
           1 :   -519.420901152536
           2 :    480.110549778884
           3 :   -411.431849218009
           4 :    329.160736854843
           5 :   -249.064579612051
           6 :    181.979257501745
           7 :   -131.694603164867
           8 :    95.9841641121984
           9 :   -69.7048551699712
          10 :    48.1177973033535
          11 :   -28.8702591832142
          12 :    12.0714154229473
          13 :   0.981593666522144
          14 :   -9.32681930825026
          15 :    13.1772746103632
          16 :   -13.8125694312047
          17 :    12.8716453796727
          18 :   -11.6403385045923
          19 :    10.7360014607618
          20 :   -10.2322366737088
          21 :    9.98210793469923
          22 :   -9.86631633803665
          23 :    9.84272180580251
          24 :   -9.87116442475110
          25 :    9.85462415266579
          26 :   -9.67360185540133
          27 :    9.27051919884263
          28 :   -8.69427597961101
          29 :    8.05646916871922
          30 :   -7.44233500838675
          31 :   -44.3045028930273
          32 :   -32.5301870824755

     Forces acting on atoms (Ry/au):

     negative rho (up, down):  1.068E+00 0.000E+00
     atom    1 type  1   force =     0.00011352    0.00007950   -0.02320911
     atom    2 type  1   force =     0.00011346    0.00008108   -0.02320915
     atom    3 type  2   force =    -0.00001356   -0.00000995    0.02432163
     atom    4 type  2   force =    -0.00001349   -0.00000930    0.02432172
     atom    5 type  1   force =    -0.00011298   -0.00007913   -0.01189234
     atom    6 type  1   force =    -0.00011299   -0.00008066   -0.01189301
     atom    7 type  2   force =     0.00006190    0.00004394    0.00937694
     atom    8 type  2   force =     0.00006243    0.00004402    0.00937680
     atom    9 type  1   force =    -0.00000339   -0.00000310    0.00039708
     atom   10 type  1   force =    -0.00000639   -0.00000341    0.00039643
     atom   11 type  2   force =    -0.00004448   -0.00003135    0.00100660
     atom   12 type  2   force =    -0.00004404   -0.00003163    0.00100639

     Total force =     0.052169     Total SCF correction =     0.005582
     SCF correction compared to forces is large: reduce conv_thr to get better values

     entering subroutine stress ...

     negative rho (up, down):  1.068E+00 0.000E+00
          total   stress  (Ry/bohr**3)                   (kbar)     P=  -17.61
  -0.00018371  -0.00002393  -0.00000029        -27.03     -3.52     -0.04
  -0.00002393  -0.00016686  -0.00000021         -3.52    -24.55     -0.03
  -0.00000029  -0.00000021  -0.00000860         -0.04     -0.03     -1.27

 !ASE

     Writing output data file calc.save

     General routines

     Parallel routines

   This run was terminated on:   0:33:35  25Dec2018

   JOB DONE.
Job  /afs/slac/g/suncat/bin/suncat-tsmpirun -x LD_LIBRARY_PATH -wdir /scratch/qe109026_tVRcr pw.x -in pw.inp

TID   HOST_NAME   COMMAND_LINE            STATUS            TERMINATION_TIME
00000 suncat0152 pw.x -in pw.inp   Done                     12/25/2018 00:33:35
00001 suncat0152 pw.x -in pw.inp   Done                     12/25/2018 00:33:35
00002 suncat0152 pw.x -in pw.inp   Done                     12/25/2018 00:33:35
00003 suncat0152 pw.x -in pw.inp   Done                     12/25/2018 00:33:35
00004 suncat0152 pw.x -in pw.inp   Done                     12/25/2018 00:33:35
00005 suncat0152 pw.x -in pw.inp   Done                     12/25/2018 00:33:35
00006 suncat0152 pw.x -in pw.inp   Done                     12/25/2018 00:33:35
00007 suncat0152 pw.x -in pw.inp   Done                     12/25/2018 00:33:35
00008 suncat0150 pw.x -in pw.inp   Done                     12/25/2018 00:33:35
00009 suncat0150 pw.x -in pw.inp   Done                     12/25/2018 00:33:35
00010 suncat0150 pw.x -in pw.inp   Done                     12/25/2018 00:33:35
00011 suncat0150 pw.x -in pw.inp   Done                     12/25/2018 00:33:35
00012 suncat0150 pw.x -in pw.inp   Done                     12/25/2018 00:33:35
00013 suncat0150 pw.x -in pw.inp   Done                     12/25/2018 00:33:35
00014 suncat0150 pw.x -in pw.inp   Done                     12/25/2018 00:33:35
00015 suncat0150 pw.x -in pw.inp   Done                     12/25/2018 00:33:35
00016 suncat0248 pw.x -in pw.inp   Done                     12/25/2018 00:33:35
00017 suncat0248 pw.x -in pw.inp   Done                     12/25/2018 00:33:35
00018 suncat0248 pw.x -in pw.inp   Done                     12/25/2018 00:33:35
00019 suncat0248 pw.x -in pw.inp   Done                     12/25/2018 00:33:35
00020 suncat0248 pw.x -in pw.inp   Done                     12/25/2018 00:33:35
00021 suncat0248 pw.x -in pw.inp   Done                     12/25/2018 00:33:35
00022 suncat0248 pw.x -in pw.inp   Done                     12/25/2018 00:33:35
00023 suncat0248 pw.x -in pw.inp   Done                     12/25/2018 00:33:35
00024 suncat0247 pw.x -in pw.inp   Done                     12/25/2018 00:33:35
00025 suncat0247 pw.x -in pw.inp   Done                     12/25/2018 00:33:35
00026 suncat0247 pw.x -in pw.inp   Done                     12/25/2018 00:33:35
00027 suncat0247 pw.x -in pw.inp   Done                     12/25/2018 00:33:35
00028 suncat0247 pw.x -in pw.inp   Done                     12/25/2018 00:33:35
00029 suncat0247 pw.x -in pw.inp   Done                     12/25/2018 00:33:35
00030 suncat0247 pw.x -in pw.inp   Done                     12/25/2018 00:33:35
00031 suncat0247 pw.x -in pw.inp   Done                     12/25/2018 00:33:35
00032 suncat0246 pw.x -in pw.inp   Done                     12/25/2018 00:33:35
00033 suncat0246 pw.x -in pw.inp   Done                     12/25/2018 00:33:35
00034 suncat0246 pw.x -in pw.inp   Done                     12/25/2018 00:33:35
00035 suncat0246 pw.x -in pw.inp   Done                     12/25/2018 00:33:35
00036 suncat0246 pw.x -in pw.inp   Done                     12/25/2018 00:33:35
00037 suncat0246 pw.x -in pw.inp   Done                     12/25/2018 00:33:35
00038 suncat0246 pw.x -in pw.inp   Done                     12/25/2018 00:33:35
00039 suncat0246 pw.x -in pw.inp   Done                     12/25/2018 00:33:35
00040 suncat0245 pw.x -in pw.inp   Done                     12/25/2018 00:33:35
00041 suncat0245 pw.x -in pw.inp   Done                     12/25/2018 00:33:35
00042 suncat0245 pw.x -in pw.inp   Done                     12/25/2018 00:33:35
00043 suncat0245 pw.x -in pw.inp   Done                     12/25/2018 00:33:35
00044 suncat0245 pw.x -in pw.inp   Done                     12/25/2018 00:33:35
00045 suncat0245 pw.x -in pw.inp   Done                     12/25/2018 00:33:35
00046 suncat0245 pw.x -in pw.inp   Done                     12/25/2018 00:33:35
00047 suncat0245 pw.x -in pw.inp   Done                     12/25/2018 00:33:35
00048 suncat0214 pw.x -in pw.inp   Done                     12/25/2018 00:33:35
00049 suncat0214 pw.x -in pw.inp   Done                     12/25/2018 00:33:35
00050 suncat0214 pw.x -in pw.inp   Done                     12/25/2018 00:33:35
00051 suncat0214 pw.x -in pw.inp   Done                     12/25/2018 00:33:35
00052 suncat0214 pw.x -in pw.inp   Done                     12/25/2018 00:33:35
00053 suncat0214 pw.x -in pw.inp   Done                     12/25/2018 00:33:35
00054 suncat0214 pw.x -in pw.inp   Done                     12/25/2018 00:33:35
00055 suncat0214 pw.x -in pw.inp   Done                     12/25/2018 00:33:35
00056 suncat0213 pw.x -in pw.inp   Done                     12/25/2018 00:33:35
00057 suncat0213 pw.x -in pw.inp   Done                     12/25/2018 00:33:35
00058 suncat0213 pw.x -in pw.inp   Done                     12/25/2018 00:33:35
00059 suncat0213 pw.x -in pw.inp   Done                     12/25/2018 00:33:35
00060 suncat0213 pw.x -in pw.inp   Done                     12/25/2018 00:33:35
00061 suncat0213 pw.x -in pw.inp   Done                     12/25/2018 00:33:35
00062 suncat0213 pw.x -in pw.inp   Done                     12/25/2018 00:33:35
00063 suncat0213 pw.x -in pw.inp   Done                     12/25/2018 00:33:35