     Program PWSCF v.5.1rc2 (svn rev. 11289) starts on 19Dec2018 at  6:58:16

     Current dimensions of program PWSCF are:
     Max number of different atomic species (ntypx) = 10
     Max number of k-points (npk) =  40000
     Max angular momentum in pseudopotentials (lmaxx) =  3
     Presently stress not available with electric field

     IMPORTANT: XC functional enforced from input :
     Exchange-correlation      = BEEF-VDW ( 1  4 27 13 2)
     Any further DFT definition will be discarded
     Please, verify this is what you really want

     Subspace diagonalization in iterative solution of the eigenvalue problem:
     a serial algorithm will be used

     Found symmetry operation: I + (  0.5000  0.5000  0.0000)
     This is a supercell, fractional translations are disabled

     bravais-lattice index     =            0
     lattice parameter (alat)  =       1.8897  a.u.
     unit-cell volume          =    4782.8662 (a.u.)^3
     number of atoms/cell      =           12
     number of atomic types    =            2
     number of electrons       =       168.00
     number of Kohn-Sham states=          114
     kinetic-energy cutoff     =      36.7493  Ry
     charge density cutoff     =     367.4932  Ry
     convergence threshold     =      1.0E-06
     mixing beta               =       0.1000
     number of iterations used =           10  plain     mixing
     Exchange-correlation      = BEEF-VDW ( 1  4 27 13 2)
     nstep                     =           50

     celldm(1)=   1.889726  celldm(2)=   0.000000  celldm(3)=   0.000000
     celldm(4)=   0.000000  celldm(5)=   0.000000  celldm(6)=   0.000000

     crystal axes: (cart. coord. in units of alat)
               a(1) = (   5.530750   0.000000   0.000000 )
               a(2) = (   1.798307   5.230228   0.000000 )
               a(3) = (   0.000000   0.000000  24.501181 )

     reciprocal axes: (cart. coord. in units 2 pi/alat)
               b(1) = (  0.180807 -0.062167  0.000000 )
               b(2) = (  0.000000  0.191196  0.000000 )
               b(3) = (  0.000000  0.000000  0.040814 )

     PseudoPot. # 1 for Ta read from file:
     /afs/slac.stanford.edu/u/if/mamunm/psp/gbrv1.5pbe/Ta.UPF
     MD5 check sum: f8bbe9446314a3b8ea5d9f3e3836c939
     Pseudo is Ultrasoft + core correction, Zval = 13.0
     Generated by new atomic code, or converted to UPF format
     Using radial grid of  921 points,  7 beta functions with:
                l(1) =   0
                l(2) =   0
                l(3) =   1
                l(4) =   1
                l(5) =   2
                l(6) =   2
                l(7) =   3
     Q(r) pseudized with  6 coefficients,  rinner =    1.300   1.300   1.300
                                                       1.300   1.300   1.300
                                                       1.300

     PseudoPot. # 2 for Re read from file:
     /afs/slac.stanford.edu/u/if/mamunm/psp/gbrv1.5pbe/Re.UPF
     MD5 check sum: 85f993410f3e006da9d71c142b4ad953
     Pseudo is Ultrasoft + core correction, Zval = 15.0
     Generated by new atomic code, or converted to UPF format
     Using radial grid of  981 points,  8 beta functions with:
                l(1) =   0
                l(2) =   0
                l(3) =   1
                l(4) =   1
                l(5) =   2
                l(6) =   2
                l(7) =   3
                l(8) =   3
     Q(r) pseudized with  8 coefficients,  rinner =    1.150   1.150   1.150
                                                       1.150   1.150   1.150
                                                       1.150

     vdW kernel table read from file vdW_kernel_table
     MD5 check sum: 095c7af220d748ca6e76c0b4c6cfb241

     atomic species   valence    mass     pseudopotential
        Ta1           13.00   180.94788     Ta( 1.00)
        Re1           15.00   186.20700     Re( 1.00)

     No symmetry found

   Cartesian axes

     site n.     atom                  positions (alat units)
         1           Ta1 tau(   1) = (   0.0000000   0.0000000  10.0000000  )
         2           Ta1 tau(   2) = (   3.6645282   2.6151140  10.0000000  )
         3           Re1 tau(   3) = (   2.7653748   0.0000000  10.0000000  )
         4           Re1 tau(   4) = (   0.8991534   2.6151140  10.0000000  )
         5           Ta1 tau(   5) = (   5.5307497   3.9469039  12.2505903  )
         6           Ta1 tau(   6) = (   1.8662214   1.3317899  12.2505903  )
         7           Re1 tau(   7) = (   2.7653748   3.9469039  12.2505903  )
         8           Re1 tau(   8) = (   4.6315963   1.3317899  12.2505903  )
         9           Ta1 tau(   9) = (   3.7324429   2.6635798  14.5011806  )
        10           Ta1 tau(  10) = (   0.0679146   0.0484659  14.5011806  )
        11           Re1 tau(  11) = (   0.9670680   2.6635798  14.5011806  )
        12           Re1 tau(  12) = (   2.8332895   0.0484659  14.5011806  )

     number of k points=    20  Fermi-Dirac smearing, width (Ry)=  0.0110
                       cart. coord. in units 2pi/alat
        k(    1) = (   0.0000000   0.0000000   0.0000000), wk =   0.0555556
        k(    2) = (   0.0000000   0.0318660   0.0000000), wk =   0.1111111
        k(    3) = (   0.0000000   0.0637321   0.0000000), wk =   0.1111111
        k(    4) = (   0.0000000  -0.0955981   0.0000000), wk =   0.0555556
        k(    5) = (   0.0301346  -0.0103611   0.0000000), wk =   0.1111111
        k(    6) = (   0.0301346   0.0215049   0.0000000), wk =   0.1111111
        k(    7) = (   0.0301346   0.0533709   0.0000000), wk =   0.1111111
        k(    8) = (   0.0301346  -0.1059593   0.0000000), wk =   0.1111111
        k(    9) = (   0.0301346  -0.0740932   0.0000000), wk =   0.1111111
        k(   10) = (   0.0301346  -0.0422272   0.0000000), wk =   0.1111111
        k(   11) = (   0.0602691  -0.0207223   0.0000000), wk =   0.1111111
        k(   12) = (   0.0602691   0.0111437   0.0000000), wk =   0.1111111
        k(   13) = (   0.0602691   0.0430098   0.0000000), wk =   0.1111111
        k(   14) = (   0.0602691  -0.1163204   0.0000000), wk =   0.1111111
        k(   15) = (   0.0602691  -0.0844544   0.0000000), wk =   0.1111111
        k(   16) = (   0.0602691  -0.0525883   0.0000000), wk =   0.1111111
        k(   17) = (  -0.0904037   0.0310834   0.0000000), wk =   0.0555556
        k(   18) = (  -0.0904037   0.0629495   0.0000000), wk =   0.1111111
        k(   19) = (  -0.0904037   0.0948155   0.0000000), wk =   0.1111111
        k(   20) = (  -0.0904037  -0.0645147   0.0000000), wk =   0.0555556

     Largest allocated arrays     est. size (Mb)     dimensions
     Largest temporary arrays     est. size (Mb)     dimensions

     Initial potential from superposition of free atoms
     Check: negative starting charge=   -1.330961

     starting charge  164.99306, renormalised to  168.00000

     negative rho (up, down):  1.355E+00 0.000E+00

     *
     * You are using vdW-DF for exchange-correlation in this calculation.
     * Please cite the following three references that made this development
     * possible:
     *
     *   M. Dion, H. Rydberg, E. Schroder, D. C. Langreth, and
     *   B. I. Lundqvist, Phys. Rev. Lett. 92, 246401 (2004).
     *
     *   T. Thonhauser, V. R. Cooper, S. Li, A. Puzder, P. Hyldgaard, and
     *   D. C. Langreth, Phys. Rev. B 76, 125112 (2007).
     *
     *   G. Roman-Perez and J. M. Soler, Phys. Rev. Lett. 103, 096102 (2009).
     *
     *
     * If you are using vdW-DF2, please also cite:
     *
     *   K. Lee, E. D. Murray, L. Kong, B. I. Lundqvist, and
     *   D. C. Langreth, Phys. Rev. B 82, 081101(R) (2010).
     *
     *
     * If you are calculating the stress with vdW-DF, please also cite:
     *
     *   R. Sabatini, E. Kucukbenli, B. Kolb, T. Thonhauser, and
     *   S. de Gironcoli, J. Phys.: Condens. Matter 24, 424209 (2012).
     *

     Carrying out vdW-DF run using the following parameters:

     Nqs =      20    Nr_points =    1024   r_max =   100.000
     q_mesh =
               0.00001000     0.04494208     0.09755937     0.15916263
               0.23128650     0.31572767     0.41458969     0.53033537
               0.66584808     0.82450364     1.01025438     1.22772762
               1.48234092     1.78043706     2.12944203     2.53805004
               3.01644009     3.57652955     4.23227104     5.00000000

     Gradients computed in reciprocal space

     Adding external electric field

     Computed dipole along edir(3) :
        Dipole                0.0000 Ry au,          0.0000 Debye
        Dipole field          0.0000 Ry au

        Potential amp.       -0.0000 Ry
        Total length         45.1430 bohr

     Starting wfc are  156 randomized atomic wfcs

     Self-consistent Calculation

     iteration #  1     ecut=    36.75 Ry     beta=0.10
     Davidson diagonalization with overlap
     ethr =  1.00E-02,  avg # of iterations =  2.0

[...]

     total energy              =   -2012.41189822 Ry
     Harris-Foulkes estimate   =   -2012.76962258 Ry
     estimated scf accuracy    <       2.28114823 Ry

[...]

     End of self-consistent calculation

          k = 0.0000 0.0000 0.0000 ( 17999 PWs)   bands (ev):

   -78.1083 -78.1037 -77.7165 -77.7165 -77.7121 -77.7121 -66.1436 -66.1433
   -66.1332 -66.1331 -66.0274 -66.0175 -39.9453 -39.8745 -39.8622 -39.8186
   -39.8058 -39.7964 -39.4883 -39.4863 -39.4761 -39.4751 -39.4700 -39.4679
   -39.4206 -39.4145 -39.4031 -39.3913 -39.3301 -39.3291 -32.6263 -32.6220
   -32.6209 -32.6022 -32.4989 -32.4817 -32.4773 -32.4641 -32.4317 -32.3723
   -32.3684 -32.3635 -32.3193 -32.3009 -32.2702 -32.2513 -32.2474 -32.2435
    -6.0094  -3.9934  -3.3315  -3.0121  -2.9120  -2.8726  -2.7277  -2.6291
    -2.3647  -2.3264  -1.6198  -1.6046  -1.6012  -0.7427  -0.6725  -0.6610
    -0.4789  -0.3812  -0.3662  -0.1942  -0.1540  -0.1382   0.3253   0.8076
     0.8964   0.9516   1.1798   1.2446   1.7178   1.9821   2.1732   2.2122
     2.5600   2.5987   2.9986   3.2103   3.2982   3.7472   3.7617   3.7667
     3.9523   4.3423   4.4323   4.5346   4.6133   4.6511   4.7187   4.7457
     4.7678   4.8221   4.9807   5.0175   5.0541   5.1821   5.3629   5.3863
     5.6676   5.7230   5.7473   5.9150   6.0806   6.2448   6.5875   6.7018
     6.7986   6.8987

[...]

          k =-0.0904 0.0311 0.0000 ( 17978 PWs)   bands (ev):

[...]

     the Fermi energy is     2.3531 ev

!    total energy              =   -2012.30855784 Ry
     Harris-Foulkes estimate   =   -2012.30855747 Ry
     estimated scf accuracy    <       0.00000021 Ry

     The total energy is the sum of the following terms:

     one-electron contribution =  -14473.10856045 Ry
     hartree contribution      =    7219.14770467 Ry
     xc contribution           =    -586.20949776 Ry
     ewald contribution        =    5827.92177731 Ry
     electric field correction =       0.00000000 Ry
     smearing contrib. (-TS)   =      -0.05998161 Ry

     convergence has been achieved in  16 iterations

 BEEF-vdW xc energy contributions
           1 :   -519.079000661957
           2 :    481.167669763015
           3 :   -413.895684519796
           4 :    331.230858324834
           5 :   -247.948488729966
[...]

[...]

   This run was terminated on:   7:13:26  19Dec2018

[...]

     Program PWSCF v.5.1rc2 (svn rev. 11289) starts on 19Dec2018 at  7:13:32

     Current dimensions of program PWSCF are:
     Max number of different atomic species (ntypx) = 10
     Max number of k-points (npk) =  40000
     Max angular momentum in pseudopotentials (lmaxx) =  3
     Presently stress not available with electric field

     IMPORTANT: XC functional enforced from input :
     Exchange-correlation      = BEEF-VDW ( 1  4 27 13 2)
     Any further DFT definition will be discarded
     Please, verify this is what you really want

     Subspace diagonalization in iterative solution of the eigenvalue problem:
     a serial algorithm will be used

     Found symmetry operation: I + (  0.5000  0.5000  0.0000)
     This is a supercell, fractional translations are disabled

     bravais-lattice index     =            0
     lattice parameter (alat)  =       1.8897  a.u.
     unit-cell volume          =    4782.8662 (a.u.)^3
     number of atoms/cell      =           12
     number of atomic types    =            2
     number of electrons       =       168.00
     number of Kohn-Sham states=          114
     kinetic-energy cutoff     =      36.7493  Ry
     charge density cutoff     =     367.4932  Ry
     convergence threshold     =      1.0E-06
     mixing beta               =       0.1000
     number of iterations used =           10  plain     mixing
     Exchange-correlation      = BEEF-VDW ( 1  4 27 13 2)
     nstep                     =           50

     celldm(1)=   1.889726  celldm(2)=   0.000000  celldm(3)=   0.000000
     celldm(4)=   0.000000  celldm(5)=   0.000000  celldm(6)=   0.000000

     crystal axes: (cart. coord. in units of alat)
               a(1) = (   5.530750   0.000000   0.000000 )
               a(2) = (   1.798307   5.230228   0.000000 )
               a(3) = (   0.000000   0.000000  24.501181 )

     reciprocal axes: (cart. coord. in units 2 pi/alat)
               b(1) = (  0.180807 -0.062167  0.000000 )
               b(2) = (  0.000000  0.191196  0.000000 )
               b(3) = (  0.000000  0.000000  0.040814 )

     PseudoPot. # 1 for Ta read from file:
     /afs/slac.stanford.edu/u/if/mamunm/psp/gbrv1.5pbe/Ta.UPF
     MD5 check sum: f8bbe9446314a3b8ea5d9f3e3836c939
     Pseudo is Ultrasoft + core correction, Zval = 13.0
     Generated by new atomic code, or converted to UPF format
     Using radial grid of  921 points,  7 beta functions with:
                l(1) =   0
                l(2) =   0
                l(3) =   1
                l(4) =   1
                l(5) =   2
                l(6) =   2
                l(7) =   3
     Q(r) pseudized with  6 coefficients,  rinner =    1.300   1.300   1.300
                                                       1.300   1.300   1.300
                                                       1.300

     PseudoPot. # 2 for Re read from file:
     /afs/slac.stanford.edu/u/if/mamunm/psp/gbrv1.5pbe/Re.UPF
     MD5 check sum: 85f993410f3e006da9d71c142b4ad953
     Pseudo is Ultrasoft + core correction, Zval = 15.0
     Generated by new atomic code, or converted to UPF format
     Using radial grid of  981 points,  8 beta functions with:
                l(1) =   0
                l(2) =   0
                l(3) =   1
                l(4) =   1
                l(5) =   2
                l(6) =   2
                l(7) =   3
                l(8) =   3
     Q(r) pseudized with  8 coefficients,  rinner =    1.150   1.150   1.150
                                                       1.150   1.150   1.150
                                                       1.150

     vdW kernel table read from file vdW_kernel_table
     MD5 check sum: 095c7af220d748ca6e76c0b4c6cfb241

     atomic species   valence    mass     pseudopotential
        Ta1           13.00   180.94788     Ta( 1.00)
        Re1           15.00   186.20700     Re( 1.00)

     No symmetry found

   Cartesian axes

     site n.     atom                  positions (alat units)
         1           Ta1 tau(   1) = (   0.0000000   0.0000000  10.0000000  )
         2           Ta1 tau(   2) = (   3.6645282   2.6151140  10.0000000  )
         3           Re1 tau(   3) = (   2.7653748   0.0000000  10.0000000  )
         4           Re1 tau(   4) = (   0.8991534   2.6151140  10.0000000  )
         5           Ta1 tau(   5) = (   5.5307497   3.9469039  12.2505903  )
         6           Ta1 tau(   6) = (   1.8662214   1.3317899  12.2505903  )
         7           Re1 tau(   7) = (   2.7653748   3.9469039  12.2505903  )
         8           Re1 tau(   8) = (   4.6315963   1.3317899  12.2505903  )
         9           Ta1 tau(   9) = (   3.7038850   2.6432030  14.5043784  )
        10           Ta1 tau(  10) = (   0.0393495   0.0280854  14.5043841  )
        11           Re1 tau(  11) = (   0.9402132   2.6444061  14.3940844  )
        12           Re1 tau(  12) = (   2.8064262   0.0292930  14.3940910  )

     number of k points=    20  Fermi-Dirac smearing, width (Ry)=  0.0110
                       cart. coord. in units 2pi/alat
        k(    1) = (   0.0000000   0.0000000   0.0000000), wk =   0.0555556
        k(    2) = (   0.0000000   0.0318660   0.0000000), wk =   0.1111111
        k(    3) = (   0.0000000   0.0637321   0.0000000), wk =   0.1111111
        k(    4) = (   0.0000000  -0.0955981   0.0000000), wk =   0.0555556
        k(    5) = (   0.0301346  -0.0103611   0.0000000), wk =   0.1111111
        k(    6) = (   0.0301346   0.0215049   0.0000000), wk =   0.1111111
        k(    7) = (   0.0301346   0.0533709   0.0000000), wk =   0.1111111
        k(    8) = (   0.0301346  -0.1059593   0.0000000), wk =   0.1111111
        k(    9) = (   0.0301346  -0.0740932   0.0000000), wk =   0.1111111
        k(   10) = (   0.0301346  -0.0422272   0.0000000), wk =   0.1111111
        k(   11) = (   0.0602691  -0.0207223   0.0000000), wk =   0.1111111
        k(   12) = (   0.0602691   0.0111437   0.0000000), wk =   0.1111111
        k(   13) = (   0.0602691   0.0430098   0.0000000), wk =   0.1111111
        k(   14) = (   0.0602691  -0.1163204   0.0000000), wk =   0.1111111
        k(   15) = (   0.0602691  -0.0844544   0.0000000), wk =   0.1111111
        k(   16) = (   0.0602691  -0.0525883   0.0000000), wk =   0.1111111
        k(   17) = (  -0.0904037   0.0310834   0.0000000), wk =   0.0555556
        k(   18) = (  -0.0904037   0.0629495   0.0000000), wk =   0.1111111
        k(   19) = (  -0.0904037   0.0948155   0.0000000), wk =   0.1111111
        k(   20) = (  -0.0904037  -0.0645147   0.0000000), wk =   0.0555556

     Largest allocated arrays     est. size (Mb)     dimensions
     Largest temporary arrays     est. size (Mb)     dimensions

     Initial potential from superposition of free atoms
     Check: negative starting charge=   -1.331025

     starting charge  164.99306, renormalised to  168.00000

[...]

     *
     * You are using vdW-DF for exchange-correlation in this calculation.
     * Please cite the following three references that made this development
     * possible:
     *
     *   M. Dion, H. Rydberg, E. Schroder, D. C. Langreth, and
     *   B. I. Lundqvist, Phys. Rev. Lett. 92, 246401 (2004).
     *
     *   T. Thonhauser, V. R. Cooper, S. Li, A. Puzder, P. Hyldgaard, and
     *   D. C. Langreth, Phys. Rev. B 76, 125112 (2007).
     *
     *   G. Roman-Perez and J. M. Soler, Phys. Rev. Lett. 103, 096102 (2009).
     *
     *
     * If you are using vdW-DF2, please also cite:
     *
     *   K. Lee, E. D. Murray, L. Kong, B. I. Lundqvist, and
     *   D. C. Langreth, Phys. Rev. B 82, 081101(R) (2010).
     *
     *
     * If you are calculating the stress with vdW-DF, please also cite:
     *
     *   R. Sabatini, E. Kucukbenli, B. Kolb, T. Thonhauser, and
     *   S. de Gironcoli, J. Phys.: Condens. Matter 24, 424209 (2012).
     *

     Carrying out vdW-DF run using the following parameters:

     Nqs =      20    Nr_points =    1024   r_max =   100.000
     q_mesh =
               0.00001000     0.04494208     0.09755937     0.15916263
               0.23128650     0.31572767     0.41458969     0.53033537
               0.66584808     0.82450364     1.01025438     1.22772762
               1.48234092     1.78043706     2.12944203     2.53805004
               3.01644009     3.57652955     4.23227104     5.00000000

     Gradients computed in reciprocal space

[...]

     Starting wfc are  156 randomized atomic wfcs

     Self-consistent Calculation

[...]

     iteration # 10     ecut=    36.75 Ry     beta=0.10
     Davidson diagonalization with overlap
     c_bands:  1 eigenvalues not converged
     ethr =  1.49E-06,  avg # of iterations =  8.3

[...]

     total energy              =   -2012.31791323 Ry
     Harris-Foulkes estimate   =   -2012.31791338 Ry
     estimated scf accuracy    <       0.00000130 Ry

     iteration # 17     ecut=    36.75 Ry     beta=0.10
     Davidson diagonalization with overlap
     ethr =  7.72E-10,  avg # of iterations =  2.7

[...]

     negative rho (up, down):  1.384E+00 0.000E+00

     Adding external electric field

     Computed dipole along edir(3) :
        Dipole                0.0309 Ry au,          0.0787 Debye
        Dipole field          0.0001 Ry au

        Potential amp.       -0.0073 Ry
        Total length         45.1430 bohr

     End of self-consistent calculation

[...]

          k = 0.0603-0.0526 0.0000 ( 18001 PWs)   bands (ev):

[...]

          k =-0.0904-0.0645 0.0000 ( 18040 PWs)   bands (ev):

   -78.0476 -78.0431 -77.6849 -77.6806 -77.6220 -77.6175 -66.1208 -66.1106
   -66.1028 -66.0925 -65.8909 -65.8797 -39.8688 -39.8018 -39.7872 -39.7579
   -39.7415 -39.7318 -39.4599 -39.4475 -39.4265 -39.3968 -39.3850 -39.3760
   -39.3619 -39.3522 -39.3215 -39.3126 -39.2962 -39.2646 -32.6469 -32.6014
   -32.5705 -32.5520 -32.4849 -32.4601 -32.4553 -32.4429 -32.4022 -32.3969
   -32.3706 -32.3059 -32.2503 -32.2237 -32.2167 -32.1802 -32.1634 -32.1540
    -3.7296  -3.6121  -2.3632  -2.0885  -2.0568  -1.8195  -1.6166  -1.5430
    -1.4328  -1.2235  -0.6839  -0.5743  -0.4774  -0.4096  -0.3183  -0.2253
    -0.2106  -0.0471   0.0131   0.5420   0.5501   0.5567   0.7106   0.8273
     0.9442   0.9991   1.1534   1.2280   1.4159   1.4279   1.4481   1.5057
     1.5222   1.5807   1.8557   1.8685   1.8951   1.9195   2.3682   2.5363
     2.8760   2.9592   2.9991   3.1448   3.3462   3.5992   3.6432   3.6787
     3.9284   3.9435   4.1420   4.3276   4.3349   4.5697   4.5785   4.7630
     5.0368   5.1569   5.1923   5.3718   5.7515   6.0071   6.2567   6.4823
     6.6131   6.7842

     the Fermi energy is     2.3800 ev

!    total energy              =   -2012.31791420 Ry
     Harris-Foulkes estimate   =   -2012.31791377 Ry
     estimated scf accuracy    <       0.00000020 Ry

     The total energy is the sum of the following terms:

     one-electron contribution =  -14588.13710371 Ry
     hartree contribution      =    7277.01304163 Ry
     xc contribution           =    -586.34383936 Ry
     ewald contribution        =    5885.20902100 Ry
     electric field correction =       0.00000252 Ry
     smearing contrib. (-TS)   =      -0.05903628 Ry

     convergence has been achieved in  17 iterations

 BEEF-vdW xc energy contributions
           1 :   -519.214409614172
           2 :    481.347412572846
           3 :   -414.134245981450
           4 :    331.499185882724
           5 :   -248.184256476026
           6 :    175.607403232429
           7 :   -119.559812604527
           8 :    80.2162405743680
           9 :   -53.9653107464751
          10 :    35.9544524450005
          11 :   -22.2200082889673
          12 :    10.7109074351372
          13 :   -1.14175512838733
          14 :   -5.89023263141439
          15 :    9.89384064978344
          16 :   -11.0778974194285
          17 :    10.3679050446555
          18 :   -8.99189411249972
          19 :    7.95784970558555
          20 :   -7.72305921739689
          21 :    8.18395483634481
          22 :   -8.91725036625621
          23 :    9.48666805632729
          24 :   -9.64782318702305
          25 :    9.38627613735639
          26 :   -8.83166316275685
          27 :    8.13888306933859
          28 :   -7.41289384377581
          29 :    6.70094123493175
          30 :   -6.02748542987672
          31 :   -44.4849782348456
          32 :   -33.0152598838688

     Forces acting on atoms (Ry/au):

     negative rho (up, down):  1.384E+00 0.000E+00
     atom    1 type  1   force =     0.00501647    0.00358215   -0.00700267
     atom    2 type  1   force =     0.00501792    0.00357947   -0.00700377
     atom    3 type  2   force =     0.00226983    0.00161906    0.03440356
     atom    4 type  2   force =     0.00226665    0.00161806    0.03440524
     atom    5 type  1   force =    -0.00325698   -0.00232454   -0.01730210
     atom    6 type  1   force =    -0.00325864   -0.00232508   -0.01730149
     atom    7 type  2   force =    -0.00277211   -0.00197762   -0.01164237
     atom    8 type  2   force =    -0.00276980   -0.00197793   -0.01164348
     atom    9 type  1   force =    -0.00065641   -0.00046992    0.00127218
     atom   10 type  1   force =    -0.00065410   -0.00046837    0.00127072
     atom   11 type  2   force =    -0.00060190   -0.00042908    0.00027227
     atom   12 type  2   force =    -0.00060093   -0.00042621    0.00027190

     Total force =     0.059057     Total SCF correction =     0.002194

     entering subroutine stress ...

     negative rho (up, down):  1.384E+00 0.000E+00
          total   stress  (Ry/bohr**3)                   (kbar)     P=  -29.95
  -0.00024873   0.00004028  -0.00001515        -36.59      5.93     -2.23
   0.00004028  -0.00027643  -0.00001081          5.93    -40.66     -1.59
  -0.00001515  -0.00001081  -0.00008557         -2.23     -1.59    -12.59

 !ASE

     Writing output data file calc.save

     General routines

     Parallel routines

   This run was terminated on:   7:18:38  19Dec2018

   JOB DONE.
Job  /afs/slac/g/suncat/bin/suncat-tsmpirun -x LD_LIBRARY_PATH -wdir /scratch/qe530632_sJacU pw.x -in pw.inp

TID   HOST_NAME   COMMAND_LINE            STATUS            TERMINATION_TIME
00000 suncat2060 pw.x -in pw.inp   Done                     12/19/2018 07:18:38
00001 suncat2060 pw.x -in pw.inp   Done                     12/19/2018 07:18:38
00002 suncat2060 pw.x -in pw.inp   Done                     12/19/2018 07:18:38
00003 suncat2060 pw.x -in pw.inp   Done                     12/19/2018 07:18:38
00004 suncat2060 pw.x -in pw.inp   Done                     12/19/2018 07:18:38
00005 suncat2060 pw.x -in pw.inp   Done                     12/19/2018 07:18:38
00006 suncat2060 pw.x -in pw.inp   Done                     12/19/2018 07:18:38
00007 suncat2060 pw.x -in pw.inp   Done                     12/19/2018 07:18:38
00008 suncat2060 pw.x -in pw.inp   Done                     12/19/2018 07:18:38
00009 suncat2060 pw.x -in pw.inp   Done                     12/19/2018 07:18:38
00010 suncat2060 pw.x -in pw.inp   Done                     12/19/2018 07:18:38
00011 suncat2060 pw.x -in pw.inp   Done                     12/19/2018 07:18:38
00012 suncat2060 pw.x -in pw.inp   Done                     12/19/2018 07:18:38
00013 suncat2060 pw.x -in pw.inp   Done                     12/19/2018 07:18:38
00014 suncat2060 pw.x -in pw.inp   Done                     12/19/2018 07:18:38
00015 suncat2060 pw.x -in pw.inp   Done                     12/19/2018 07:18:38
00016 suncat2059 pw.x -in pw.inp   Done                     12/19/2018 07:18:38
00017 suncat2059 pw.x -in pw.inp   Done                     12/19/2018 07:18:38
00018 suncat2059 pw.x -in pw.inp   Done                     12/19/2018 07:18:38
00019 suncat2059 pw.x -in pw.inp   Done                     12/19/2018 07:18:38
00020 suncat2059 pw.x -in pw.inp   Done                     12/19/2018 07:18:38
00021 suncat2059 pw.x -in pw.inp   Done                     12/19/2018 07:18:38
00022 suncat2059 pw.x -in pw.inp   Done                     12/19/2018 07:18:38
00023 suncat2059 pw.x -in pw.inp   Done                     12/19/2018 07:18:38
00024 suncat2059 pw.x -in pw.inp   Done                     12/19/2018 07:18:38
00025 suncat2059 pw.x -in pw.inp   Done                     12/19/2018 07:18:38
00026 suncat2059 pw.x -in pw.inp   Done                     12/19/2018 07:18:38
00027 suncat2059 pw.x -in pw.inp   Done                     12/19/2018 07:18:38
00028 suncat2059 pw.x -in pw.inp   Done                     12/19/2018 07:18:38
00029 suncat2059 pw.x -in pw.inp   Done                     12/19/2018 07:18:38
00030 suncat2059 pw.x -in pw.inp   Done                     12/19/2018 07:18:38
00031 suncat2059 pw.x -in pw.inp   Done                     12/19/2018 07:18:38