     Program PWSCF v.5.1rc2 (svn rev. 11289) starts on 18Dec2018 at 23:21: 8

     Current dimensions of program PWSCF are:
     Max number of different atomic species (ntypx) = 10
     Max number of k-points (npk) =  40000
     Max angular momentum in pseudopotentials (lmaxx) =  3
     Presently stress not available with electric field

     IMPORTANT: XC functional enforced from input :
     Exchange-correlation      = BEEF-VDW ( 1  4 27 13 2)
     Any further DFT definition will be discarded
     Please, verify this is what you really want

     Subspace diagonalization in iterative solution of the eigenvalue problem:
     a serial algorithm will be used

     Found symmetry operation: I + (  0.5000 -0.5000  0.0000)
     This is a supercell, fractional translations are disabled

     Generating pointlists ...
     new r_m :   0.4125 (alat units)  0.7795 (a.u.) for type    1
     new r_m :   0.4125 (alat units)  0.7795 (a.u.) for type    2

     bravais-lattice index     =            0
     lattice parameter (alat)  =       1.8897  a.u.
     unit-cell volume          =    4278.3963 (a.u.)^3
     number of atoms/cell      =           12
     number of atomic types    =            2
     number of electrons       =       186.00
     number of Kohn-Sham states=          123
     kinetic-energy cutoff     =      36.7493  Ry
     charge density cutoff     =     367.4932  Ry
     convergence threshold     =      1.0E-06
     mixing beta               =       0.1000
     number of iterations used =           10  plain     mixing
     Exchange-correlation      = BEEF-VDW ( 1  4 27 13 2)
     nstep                     =           50

     celldm(1)=   1.889726  celldm(2)=   0.000000  celldm(3)=   0.000000
     celldm(4)=   0.000000  celldm(5)=   0.000000  celldm(6)=   0.000000

     crystal axes: (cart. coord. in units of alat)
               a(1) = (   5.439701   0.000000   0.000000 )
               a(2) = (   2.625792   4.763986   0.000000 )
               a(3) = (   0.000000   0.000000  24.464648 )

     reciprocal axes: (cart. coord. in units 2 pi/alat)
               b(1) = (  0.183834 -0.101325  0.000000 )
               b(2) = (  0.000000  0.209908  0.000000 )
               b(3) = (  0.000000  0.000000  0.040875 )

     PseudoPot. # 1 for Ni read from file:
     /afs/slac.stanford.edu/u/if/mamunm/psp/gbrv1.5pbe/Ni.UPF
     MD5 check sum: 1ee80287db30b12d2bc1f57a5b5d6409
     Pseudo is Ultrasoft + core correction, Zval = 18.0
     Generated by new atomic code, or converted to UPF format
     Using radial grid of  865 points,  6 beta functions with:
                l(1) =   0
                l(2) =   0
                l(3) =   1
                l(4) =   1
                l(5) =   2
                l(6) =   2
     Q(r) pseudized with 10 coefficients,  rinner =    0.980   0.980   0.980
                                                       0.980   0.980

     PseudoPot. # 2 for Ta read from file:
     /afs/slac.stanford.edu/u/if/mamunm/psp/gbrv1.5pbe/Ta.UPF
     MD5 check sum: f8bbe9446314a3b8ea5d9f3e3836c939
     Pseudo is Ultrasoft + core correction, Zval = 13.0
     Generated by new atomic code, or converted to UPF format
     Using radial grid of  921 points,  7 beta functions with:
                l(1) =   0
                l(2) =   0
                l(3) =   1
                l(4) =   1
                l(5) =   2
                l(6) =   2
                l(7) =   3
     Q(r) pseudized with  6 coefficients,  rinner =    1.300   1.300   1.300
                                                       1.300   1.300   1.300
                                                       1.300

     vdW kernel table read from file vdW_kernel_table
     MD5 check sum: 095c7af220d748ca6e76c0b4c6cfb241

     atomic species   valence    mass     pseudopotential
        Ni1           18.00    58.69340     Ni( 1.00)
        Ta1           13.00   180.94788     Ta( 1.00)

     Starting magnetic structure
     atomic species   magnetization
        Ni1          0.111
        Ta1          0.154

     No symmetry found

   Cartesian axes

     site n.     atom                  positions (alat units)
         1           Ni1 tau(   1) = (   0.0000000   0.0000000  10.0000000  )
         2           Ni1 tau(   2) = (   4.0327462   2.3819928  10.0000000  )
         3           Ta1 tau(   3) = (   2.7198503   0.0000000  10.0000000  )
         4           Ta1 tau(   4) = (   1.3128959   2.3819928  10.0000000  )
         5           Ni1 tau(   5) = (   5.4397006   3.2130283  12.2323239  )
         6           Ni1 tau(   6) = (   1.4069544   0.8310355  12.2323239  )
         7           Ta1 tau(   7) = (   2.7198503   3.2130283  12.2323239  )
         8           Ta1 tau(   8) = (   4.1268046   0.8310355  12.2323239  )
         9           Ni1 tau(   9) = (   2.8139087   1.6620710  14.4646477  )
        10           Ni1 tau(  10) = (   6.8466549   4.0440638  14.4646477  )
        11           Ta1 tau(  11) = (   5.5337590   1.6620710  14.4646477  )
        12           Ta1 tau(  12) = (   4.1268046   4.0440638  14.4646477  )

     number of k points=    40  Fermi-Dirac smearing, width (Ry)=  0.0110
                       cart. coord. in units 2pi/alat
        k(    1) = (   0.0000000   0.0000000   0.0000000), wk =   0.0277778
        k(    2) = (   0.0000000   0.0349847   0.0000000), wk =   0.0555556
        k(    3) = (   0.0000000   0.0699694   0.0000000), wk =   0.0555556
        k(    4) = (   0.0000000  -0.1049541   0.0000000), wk =   0.0277778
        k(    5) = (   0.0306389  -0.0168874   0.0000000), wk =   0.0555556
        k(    6) = (   0.0306389   0.0180973   0.0000000), wk =   0.0555556
        k(    7) = (   0.0306389   0.0530820   0.0000000), wk =   0.0555556
        k(    8) = (   0.0306389  -0.1218416   0.0000000), wk =   0.0555556
        k(    9) = (   0.0306389  -0.0868569   0.0000000), wk =   0.0555556
        k(   10) = (   0.0306389  -0.0518721   0.0000000), wk =   0.0555556
        k(   11) = (   0.0612779  -0.0337749   0.0000000), wk =   0.0555556
        k(   12) = (   0.0612779   0.0012098   0.0000000), wk =   0.0555556
        k(   13) = (   0.0612779   0.0361946   0.0000000), wk =   0.0555556
        k(   14) = (   0.0612779  -0.1387290   0.0000000), wk =   0.0555556
        k(   15) = (   0.0612779  -0.1037443   0.0000000), wk =   0.0555556
        k(   16) = (   0.0612779  -0.0687596   0.0000000), wk =   0.0555556
        k(   17) = (  -0.0919168   0.0506623   0.0000000), wk =   0.0277778
        k(   18) = (  -0.0919168   0.0856470   0.0000000), wk =   0.0555556
        k(   19) = (  -0.0919168   0.1206317   0.0000000), wk =   0.0555556
        k(   20) = (  -0.0919168  -0.0542918   0.0000000), wk =   0.0277778
        k(   21) = (   0.0000000   0.0000000   0.0000000), wk =   0.0277778
        k(   22) = (   0.0000000   0.0349847   0.0000000), wk =   0.0555556
        k(   23) = (   0.0000000   0.0699694   0.0000000), wk =   0.0555556
        k(   24) = (   0.0000000  -0.1049541   0.0000000), wk =   0.0277778
        k(   25) = (   0.0306389  -0.0168874   0.0000000), wk =   0.0555556
        k(   26) = (   0.0306389   0.0180973   0.0000000), wk =   0.0555556
        k(   27) = (   0.0306389   0.0530820   0.0000000), wk =   0.0555556
        k(   28) = (   0.0306389  -0.1218416   0.0000000), wk =   0.0555556
        k(   29) = (   0.0306389  -0.0868569   0.0000000), wk =   0.0555556
        k(   30) = (   0.0306389  -0.0518721   0.0000000), wk =   0.0555556
        k(   31) = (   0.0612779  -0.0337749   0.0000000), wk =   0.0555556
        k(   32) = (   0.0612779   0.0012098   0.0000000), wk =   0.0555556
        k(   33) = (   0.0612779   0.0361946   0.0000000), wk =   0.0555556
        k(   34) = (   0.0612779  -0.1387290   0.0000000), wk =   0.0555556
        k(   35) = (   0.0612779  -0.1037443   0.0000000), wk =   0.0555556
        k(   36) = (   0.0612779  -0.0687596   0.0000000), wk =   0.0555556
        k(   37) = (  -0.0919168   0.0506623   0.0000000), wk =   0.0277778
        k(   38) = (  -0.0919168   0.0856470   0.0000000), wk =   0.0555556
        k(   39) = (  -0.0919168   0.1206317   0.0000000), wk =   0.0555556
        k(   40) = (  -0.0919168  -0.0542918   0.0000000), wk =   0.0277778

     Largest allocated arrays     est. size (Mb)     dimensions
     Largest temporary arrays     est. size (Mb)     dimensions

     Initial potential from superposition of free atoms
     Check: negative starting charge=(component1):   -0.328169
     Check: negative starting charge=(component2):   -0.240673

     starting charge  173.99333, renormalised to  186.00000

     negative rho (up, down):  3.508E-01 2.573E-01

     *
     * You are using vdW-DF for exchange-correlation in this calculation.
     * Please cite the following three references that made this development
     * possible:
     *
     *   M. Dion, H. Rydberg, E. Schroder, D. C. Langreth, and
     *   B. I. Lundqvist, Phys. Rev. Lett. 92, 246401 (2004).
     *
     *   T. Thonhauser, V. R. Cooper, S. Li, A. Puzder, P. Hyldgaard, and
     *   D. C. Langreth, Phys. Rev. B 76, 125112 (2007).
     *
     *   G. Roman-Perez and J. M. Soler, Phys. Rev. Lett. 103, 096102 (2009).
     *
     *
     * If you are using vdW-DF2, please also cite:
     *
     *   K. Lee, E. D. Murray, L. Kong, B. I. Lundqvist, and
     *   D. C. Langreth, Phys. Rev. B 82, 081101(R) (2010).
     *
     *
     * If you are calculating the stress with vdW-DF, please also cite:
     *
     *   R. Sabatini, E. Kucukbenli, B. Kolb, T. Thonhauser, and
     *   S. de Gironcoli, J. Phys.: Condens. Matter 24, 424209 (2012).
     *

     Carrying out vdW-DF run using the following parameters:

     Nqs =      20    Nr_points =    1024   r_max =   100.000
     q_mesh =
               0.00001000     0.04494208     0.09755937     0.15916263
               0.23128650     0.31572767     0.41458969     0.53033537
               0.66584808     0.82450364     1.01025438     1.22772762
               1.48234092     1.78043706     2.12944203     2.53805004
               3.01644009     3.57652955     4.23227104     5.00000000

     Gradients computed in reciprocal space

     Adding external electric field

     Computed dipole along edir(3) :
        Dipole                0.0000 Ry au,          0.0000 Debye
        Dipole field          0.0000 Ry au

        Potential amp.       -0.0000 Ry
        Total length         45.0757 bohr

[...]

     Starting wfc are  156 randomized atomic wfcs

     Self-consistent Calculation

     iteration #  1     ecut=    36.75 Ry     beta=0.10
     Davidson diagonalization with overlap
     ethr =  1.00E-02,  avg # of iterations =  7.8

[...]

     Magnetic moment per site:
     atom:    1    charge:    9.5499    magn:    1.0137    constr:    0.0000
     atom:    2    charge:    9.5499    magn:    1.0137    constr:    0.0000
     atom:    3    charge:    1.4409    magn:    0.2015    constr:    0.0000
     atom:    4    charge:    1.4409    magn:    0.2015    constr:    0.0000
     atom:    5    charge:    9.5619    magn:    1.0174    constr:    0.0000
     atom:    6    charge:    9.5619    magn:    1.0174    constr:    0.0000
[...]
                l(6) =   2
     Q(r) pseudized with 10 coefficients,  rinner =    0.980   0.980   0.980
                                                       0.980   0.980

     PseudoPot. # 2 for Ta read from file:
     /afs/slac.stanford.edu/u/if/mamunm/psp/gbrv1.5pbe/Ta.UPF
     MD5 check sum: f8bbe9446314a3b8ea5d9f3e3836c939
     Pseudo is Ultrasoft + core correction, Zval = 13.0
     Generated by new atomic code, or converted to UPF format
     Using radial grid of  921 points,  7 beta functions with:
                l(1) =   0
                l(2) =   0
                l(3) =   1
                l(4) =   1
                l(5) =   2
                l(6) =   2
                l(7) =   3
     Q(r) pseudized with  6 coefficients,  rinner =    1.300   1.300   1.300
                                                       1.300   1.300   1.300
                                                       1.300

     vdW kernel table read from file vdW_kernel_table
     MD5 check sum: 095c7af220d748ca6e76c0b4c6cfb241

     atomic species   valence    mass     pseudopotential
        Ni1           18.00    58.69340     Ni( 1.00)
        Ta1           13.00   180.94788     Ta( 1.00)

     Starting magnetic structure
     atomic species   magnetization
        Ni1          0.111
        Ta1          0.154

     No symmetry found

   Cartesian axes

     site n.     atom                  positions (alat units)
         1           Ni1 tau(   1) = (   0.0000000   0.0000000  10.0000000  )
         2           Ni1 tau(   2) = (   4.0327462   2.3819928  10.0000000  )
         3           Ta1 tau(   3) = (   2.7198503   0.0000000  10.0000000  )
         4           Ta1 tau(   4) = (   1.3128959   2.3819928  10.0000000  )
         5           Ni1 tau(   5) = (   5.4397006   3.2130283  12.2323239  )
         6           Ni1 tau(   6) = (   1.4069544   0.8310355  12.2323239  )
         7           Ta1 tau(   7) = (   2.7198503   3.2130283  12.2323239  )
         8           Ta1 tau(   8) = (   4.1268046   0.8310355  12.2323239  )
         9           Ni1 tau(   9) = (   2.8803714   1.7013251  14.4168443  )
        10           Ni1 tau(  10) = (   6.9130008   4.0832540  14.4168763  )
        11           Ta1 tau(  11) = (   5.6255011   1.7164386  14.3767371  )
        12           Ta1 tau(  12) = (   4.2186995   4.0981640  14.3767376  )

     number of k points=    40  Fermi-Dirac smearing, width (Ry)=  0.0110
                       cart. coord. in units 2pi/alat
        k(    1) = (   0.0000000   0.0000000   0.0000000), wk =   0.0277778
        k(    2) = (   0.0000000   0.0349847   0.0000000), wk =   0.0555556
        k(    3) = (   0.0000000   0.0699694   0.0000000), wk =   0.0555556
        k(    4) = (   0.0000000  -0.1049541   0.0000000), wk =   0.0277778
        k(    5) = (   0.0306389  -0.0168874   0.0000000), wk =   0.0555556
        k(    6) = (   0.0306389   0.0180973   0.0000000), wk =   0.0555556
        k(    7) = (   0.0306389   0.0530820   0.0000000), wk =   0.0555556
        k(    8) = (   0.0306389  -0.1218416   0.0000000), wk =   0.0555556
        k(    9) = (   0.0306389  -0.0868569   0.0000000), wk =   0.0555556
        k(   10) = (   0.0306389  -0.0518721   0.0000000), wk =   0.0555556
        k(   11) = (   0.0612779  -0.0337749   0.0000000), wk =   0.0555556
        k(   12) = (   0.0612779   0.0012098   0.0000000), wk =   0.0555556
        k(   13) = (   0.0612779   0.0361946   0.0000000), wk =   0.0555556
        k(   14) = (   0.0612779  -0.1387290   0.0000000), wk =   0.0555556
        k(   15) = (   0.0612779  -0.1037443   0.0000000), wk =   0.0555556
        k(   16) = (   0.0612779  -0.0687596   0.0000000), wk =   0.0555556
        k(   17) = (  -0.0919168   0.0506623   0.0000000), wk =   0.0277778
        k(   18) = (  -0.0919168   0.0856470   0.0000000), wk =   0.0555556
        k(   19) = (  -0.0919168   0.1206317   0.0000000), wk =   0.0555556
        k(   20) = (  -0.0919168  -0.0542918   0.0000000), wk =   0.0277778
        k(   21) = (   0.0000000   0.0000000   0.0000000), wk =   0.0277778
        k(   22) = (   0.0000000   0.0349847   0.0000000), wk =   0.0555556
        k(   23) = (   0.0000000   0.0699694   0.0000000), wk =   0.0555556
        k(   24) = (   0.0000000  -0.1049541   0.0000000), wk =   0.0277778
        k(   25) = (   0.0306389  -0.0168874   0.0000000), wk =   0.0555556
        k(   26) = (   0.0306389   0.0180973   0.0000000), wk =   0.0555556
        k(   27) = (   0.0306389   0.0530820   0.0000000), wk =   0.0555556
        k(   28) = (   0.0306389  -0.1218416   0.0000000), wk =   0.0555556
        k(   29) = (   0.0306389  -0.0868569   0.0000000), wk =   0.0555556
        k(   30) = (   0.0306389  -0.0518721   0.0000000), wk =   0.0555556
        k(   31) = (   0.0612779  -0.0337749   0.0000000), wk =   0.0555556
        k(   32) = (   0.0612779   0.0012098   0.0000000), wk =   0.0555556
        k(   33) = (   0.0612779   0.0361946   0.0000000), wk =   0.0555556
        k(   34) = (   0.0612779  -0.1387290   0.0000000), wk =   0.0555556
        k(   35) = (   0.0612779  -0.1037443   0.0000000), wk =   0.0555556
        k(   36) = (   0.0612779  -0.0687596   0.0000000), wk =   0.0555556
        k(   37) = (  -0.0919168   0.0506623   0.0000000), wk =   0.0277778
        k(   38) = (  -0.0919168   0.0856470   0.0000000), wk =   0.0555556
        k(   39) = (  -0.0919168   0.1206317   0.0000000), wk =   0.0555556
        k(   40) = (  -0.0919168  -0.0542918   0.0000000), wk =   0.0277778

     Largest allocated arrays     est. size (Mb)     dimensions
     Largest temporary arrays     est. size (Mb)     dimensions

     Initial potential from superposition of free atoms
     Check: negative starting charge=(component1):   -0.328347
     Check: negative starting charge=(component2):   -0.240804

     starting charge  173.99333, renormalised to  186.00000

[...]

     *
     * You are using vdW-DF for exchange-correlation in this calculation.
     * Please cite the following three references that made this development
     * possible:
     *
     *   M. Dion, H. Rydberg, E. Schroder, D. C. Langreth, and
     *   B. I. Lundqvist, Phys. Rev. Lett. 92, 246401 (2004).
     *
     *   T. Thonhauser, V. R. Cooper, S. Li, A. Puzder, P. Hyldgaard, and
     *   D. C. Langreth, Phys. Rev. B 76, 125112 (2007).
     *
     *   G. Roman-Perez and J. M. Soler, Phys. Rev. Lett. 103, 096102 (2009).
     *
     *
     * If you are using vdW-DF2, please also cite:
     *
     *   K. Lee, E. D. Murray, L. Kong, B. I. Lundqvist, and
     *   D. C. Langreth, Phys. Rev. B 82, 081101(R) (2010).
     *
     *
     * If you are calculating the stress with vdW-DF, please also cite:
     *
     *   R. Sabatini, E. Kucukbenli, B. Kolb, T. Thonhauser, and
     *   S. de Gironcoli, J. Phys.: Condens. Matter 24, 424209 (2012).
     *

     Carrying out vdW-DF run using the following parameters:

     Nqs =      20    Nr_points =    1024   r_max =   100.000
     q_mesh =
               0.00001000     0.04494208     0.09755937     0.15916263
               0.23128650     0.31572767     0.41458969     0.53033537
               0.66584808     0.82450364     1.01025438     1.22772762
               1.48234092     1.78043706     2.12944203     2.53805004
               3.01644009     3.57652955     4.23227104     5.00000000

     Gradients computed in reciprocal space

[...]

     Starting wfc are  156 randomized atomic wfcs

     Self-consistent Calculation

[...]

     total energy              =   -2925.83077831 Ry
     Harris-Foulkes estimate   =   -2925.83077541 Ry
     estimated scf accuracy    <       0.00000155 Ry

[...]

     iteration # 32     ecut=    36.75 Ry     beta=0.10
     Davidson diagonalization with overlap
     ethr =  8.35E-10,  avg # of iterations =  2.0

[...]

     negative rho (up, down):  2.958E-01 2.958E-01

[...]

     Adding external electric field

     Computed dipole along edir(3) :
        Dipole                0.0115 Ry au,          0.0292 Debye
        Dipole field          0.0000 Ry au

        Potential amp.       -0.0030 Ry
        Total length         45.0757 bohr

     Magnetic moment per site:
     atom:    1    charge:    9.3411    magn:   -0.0013    constr:    0.0000
     atom:    2    charge:    9.3413    magn:   -0.0013    constr:    0.0000
     atom:    3    charge:    1.3605    magn:   -0.0000    constr:    0.0000
     atom:    4    charge:    1.3605    magn:   -0.0000    constr:    0.0000
     atom:    5    charge:    9.3384    magn:    0.0009    constr:    0.0000
     atom:    6    charge:    9.3383    magn:    0.0009    constr:    0.0000
     atom:    7    charge:    1.3642    magn:   -0.0000    constr:    0.0000
     atom:    8    charge:    1.3642    magn:   -0.0000    constr:    0.0000
     atom:    9    charge:    9.3408    magn:   -0.0006    constr:    0.0000
     atom:   10    charge:    9.3408    magn:   -0.0005    constr:    0.0000
     atom:   11    charge:    1.3612    magn:   -0.0000    constr:    0.0000
     atom:   12    charge:    1.3612    magn:   -0.0000    constr:    0.0000

     End of self-consistent calculation

 ------ SPIN UP ------------

[...]

 ------ SPIN DOWN ----------

[...]

          k = 0.0613-0.0688 0.0000 ( 16124 PWs)   bands (ev):

[...]

          k =-0.0919-0.0543 0.0000 ( 16108 PWs)   bands (ev):

  -102.0038-102.0014-101.7078-101.7054-101.6675-101.6651 -66.8701 -66.8416
   -66.7982 -66.7693 -66.5777 -66.5036 -62.4533 -62.4513 -62.3506 -62.3290
   -62.3269 -62.3161 -62.2071 -62.2052 -62.1733 -62.1713 -62.0446 -62.0101
   -62.0096 -62.0073 -62.0020 -61.9677 -61.9611 -61.9587 -33.6051 -33.5792
   -33.5070 -33.4602 -33.3704 -33.3246 -33.2969 -33.2219 -33.2109 -33.1606
   -33.1004 -33.0149 -32.9051 -32.6782 -32.5764 -32.5757 -32.5612 -32.4402
    -4.4823  -4.2504  -3.1561  -2.4712  -2.3029  -2.1967  -2.1960  -1.7916
    -1.7621  -1.5910  -1.5151  -1.2440  -1.1759  -1.0257  -0.9832  -0.8630
    -0.8587  -0.7862  -0.5862  -0.5741  -0.5151  -0.4408  -0.4093  -0.2960
    -0.2490  -0.2303  -0.2292  -0.1864  -0.1770   0.0035   0.0310   0.0370
     0.0763   0.1660   0.1897   0.2825   0.3301   0.3646   0.3851   0.4480
     0.5604   0.5947   0.6659   0.7865   0.8026   1.0607   1.1743   1.1869
     1.2074   2.0584   2.1762   2.5698   3.0316   3.1141   3.1297   3.2426
     3.9167   4.0337   4.4765   4.6530   5.0125   5.0600   5.1064   5.1741
     5.5717   5.7253   6.2194   6.3747   6.6754   7.0024   7.2777   7.3152
     7.4534   7.9292   7.9846

     the Fermi energy is     1.5674 ev

!    total energy              =   -2925.83078744 Ry
     Harris-Foulkes estimate   =   -2925.83077864 Ry
     estimated scf accuracy    <       0.00000067 Ry

     The total energy is the sum of the following terms:

     one-electron contribution =  -21303.91169473 Ry
     hartree contribution      =   10650.10477729 Ry
     xc contribution           =    -482.15704894 Ry
     ewald contribution        =    8210.20770293 Ry
     electric field correction =       0.00000039 Ry
     smearing contrib. (-TS)   =      -0.07452438 Ry

     total magnetization       =    -0.01 Bohr mag/cell
     absolute magnetization    =     0.02 Bohr mag/cell

     convergence has been achieved in  32 iterations

 BEEF-vdW xc energy contributions
           1 :   -424.764693040663
           2 :    389.121776239022
           3 :   -327.860698419314
           4 :    256.717108987018
           5 :   -190.917226374293
           6 :    140.027138668904
           7 :   -106.012942455076
           8 :    84.8324262025419
           9 :   -70.1624903730553
          10 :    57.0458406036400
          11 :   -43.7244127782873
          12 :    31.2099653949410
          13 :   -21.4510987419471
          14 :    15.5014932574043
          15 :   -12.7641093675834
          16 :    11.4968949638304
          17 :   -9.98532798798067
          18 :    7.50346912769857
          19 :   -4.50189064737708
          20 :    2.03546954901140
          21 :  -0.920145957627028
          22 :    1.18529246443211
          23 :   -2.12077636840513
          24 :    2.79197498814733
          25 :   -2.62934250890652
          26 :    1.70425155652163
          27 :  -0.566872576791923
          28 :  -0.186446528519127
          29 :   0.294987772131492
          30 :   6.720727175331831E-002
          31 :   -36.6497234555524
          32 :   -26.5362677200022

     Forces acting on atoms (Ry/au):

     negative rho (up, down):  2.958E-01 2.958E-01
     atom    1 type  1   force =     0.00012555    0.00007445    0.00963812
     atom    2 type  1   force =     0.00009591    0.00005645    0.00963867
     atom    3 type  2   force =    -0.00685554   -0.00405772    0.01469664
     atom    4 type  2   force =    -0.00686282   -0.00404522    0.01469669
     atom    5 type  1   force =     0.00403636    0.00238404   -0.01405546
     atom    6 type  1   force =     0.00398224    0.00235226   -0.01408356
     atom    7 type  2   force =     0.00226171    0.00131988   -0.00999152
     atom    8 type  2   force =     0.00224796    0.00134374   -0.00999141
     atom    9 type  1   force =     0.00024794    0.00014667   -0.00046025
     atom   10 type  1   force =     0.00030672    0.00018102   -0.00048168
     atom   11 type  2   force =     0.00026589    0.00002224    0.00019685
     atom   12 type  2   force =     0.00014808    0.00022218    0.00019691

     Total force =     0.037393     Total SCF correction =     0.001454

     entering subroutine stress ...

     negative rho (up, down):  2.958E-01 2.958E-01
          total   stress  (Ry/bohr**3)                   (kbar)     P=  -46.80
  -0.00036618  -0.00004016   0.00001337        -53.87     -5.91      1.97
  -0.00004016  -0.00032191   0.00000790         -5.91    -47.35      1.16
   0.00001337   0.00000790  -0.00026644          1.97      1.16    -39.19

 !ASE

     Writing output data file calc.save

     General routines

     Parallel routines

   This run was terminated on:   1:53:28  19Dec2018

   JOB DONE.
Job  /afs/slac/g/suncat/bin/suncat-tsmpirun -x LD_LIBRARY_PATH -wdir /scratch/qe530382_wI3j8 pw.x -in pw.inp

TID   HOST_NAME   COMMAND_LINE            STATUS            TERMINATION_TIME
00000 suncat2058 pw.x -in pw.inp   Done                     12/19/2018 01:53:28
00001 suncat2058 pw.x -in pw.inp   Done                     12/19/2018 01:53:28
00002 suncat2058 pw.x -in pw.inp   Done                     12/19/2018 01:53:28
00003 suncat2058 pw.x -in pw.inp   Done                     12/19/2018 01:53:28
00004 suncat2058 pw.x -in pw.inp   Done                     12/19/2018 01:53:28
00005 suncat2058 pw.x -in pw.inp   Done                     12/19/2018 01:53:28
00006 suncat2058 pw.x -in pw.inp   Done                     12/19/2018 01:53:28
00007 suncat2058 pw.x -in pw.inp   Done                     12/19/2018 01:53:28
00008 suncat2058 pw.x -in pw.inp   Done                     12/19/2018 01:53:28
00009 suncat2058 pw.x -in pw.inp   Done                     12/19/2018 01:53:28
00010 suncat2058 pw.x -in pw.inp   Done                     12/19/2018 01:53:28
00011 suncat2058 pw.x -in pw.inp   Done                     12/19/2018 01:53:28
00012 suncat2058 pw.x -in pw.inp   Done                     12/19/2018 01:53:28
00013 suncat2058 pw.x -in pw.inp   Done                     12/19/2018 01:53:28
00014 suncat2058 pw.x -in pw.inp   Done                     12/19/2018 01:53:28
00015 suncat2058 pw.x -in pw.inp   Done                     12/19/2018 01:53:28
00016 suncat2057 pw.x -in pw.inp   Done                     12/19/2018 01:53:28
00017 suncat2057 pw.x -in pw.inp   Done                     12/19/2018 01:53:28
00018 suncat2057 pw.x -in pw.inp   Done                     12/19/2018 01:53:28
00019 suncat2057 pw.x -in pw.inp   Done                     12/19/2018 01:53:28
00020 suncat2057 pw.x -in pw.inp   Done                     12/19/2018 01:53:28
00021 suncat2057 pw.x -in pw.inp   Done                     12/19/2018 01:53:28
00022 suncat2057 pw.x -in pw.inp   Done                     12/19/2018 01:53:28
00023 suncat2057 pw.x -in pw.inp   Done                     12/19/2018 01:53:28
00024 suncat2057 pw.x -in pw.inp   Done                     12/19/2018 01:53:28
00025 suncat2057 pw.x -in pw.inp   Done                     12/19/2018 01:53:28
00026 suncat2057 pw.x -in pw.inp   Done                     12/19/2018 01:53:28
00027 suncat2057 pw.x -in pw.inp   Done                     12/19/2018 01:53:28
00028 suncat2057 pw.x -in pw.inp   Done                     12/19/2018 01:53:28
00029 suncat2057 pw.x -in pw.inp   Done                     12/19/2018 01:53:28
00030 suncat2057 pw.x -in pw.inp   Done                     12/19/2018 01:53:28
00031 suncat2057 pw.x -in pw.inp   Done                     12/19/2018 01:53:28