     Program PWSCF v.5.1rc2 (svn rev. 11289) starts on 19Dec2018 at  8:37:43

     Current dimensions of program PWSCF are:
     Max number of different atomic species (ntypx) = 10
     Max number of k-points (npk) =  40000
     Max angular momentum in pseudopotentials (lmaxx) =  3
     Presently stress not available with electric field

     IMPORTANT: XC functional enforced from input :
     Exchange-correlation      = BEEF-VDW ( 1  4 27 13 2)
     Any further DFT definition will be discarded
     Please, verify this is what you really want

     Subspace diagonalization in iterative solution of the eigenvalue problem:
     a serial algorithm will be used

     Found symmetry operation: I + ( -0.5000 -0.5000  0.0000)
     This is a supercell, fractional translations are disabled

     bravais-lattice index     =            0
     lattice parameter (alat)  =       1.8897  a.u.
     unit-cell volume          =    5141.9631 (a.u.)^3
     number of atoms/cell      =           12
     number of atomic types    =            2
     number of electrons       =       192.00
     number of Kohn-Sham states=          126
     kinetic-energy cutoff     =      36.7493  Ry
     charge density cutoff     =     367.4932  Ry
     convergence threshold     =      1.0E-06
     mixing beta               =       0.1000
     number of iterations used =           10  plain     mixing
     Exchange-correlation      = BEEF-VDW ( 1  4 27 13 2)
     nstep                     =           50

     celldm(1)=   1.889726  celldm(2)=   0.000000  celldm(3)=   0.000000
     celldm(4)=   0.000000  celldm(5)=   0.000000  celldm(6)=   0.000000

     crystal axes: (cart. coord. in units of alat)
               a(1) = (   5.799841   0.000000   0.000000 )
               a(2) = (   2.363301   5.296505   0.000000 )
               a(3) = (   0.000000   0.000000  24.804294 )

     reciprocal axes: (cart. coord. in units 2 pi/alat)
               b(1) = (  0.172419 -0.076933  0.000000 )
               b(2) = (  0.000000  0.188804  0.000000 )
               b(3) = (  0.000000  0.000000  0.040316 )

     PseudoPot. # 1 for Cu read from file:
     /afs/slac.stanford.edu/u/if/mamunm/psp/gbrv1.5pbe/Cu.UPF
     MD5 check sum: 6e991ff952a84172a2a52a1c1e996048
     Pseudo is Ultrasoft + core correction, Zval = 19.0
     Generated by new atomic code, or converted to UPF format
     Using radial grid of  867 points,  6 beta functions with:
                l(1) =   0
                l(2) =   0
                l(3) =   1
                l(4) =   1
                l(5) =   2
                l(6) =   2
     Q(r) pseudized with  8 coefficients,  rinner =    1.150   1.150   1.150
                                                       1.150   1.150

     PseudoPot. # 2 for In read from file:
     /afs/slac.stanford.edu/u/if/mamunm/psp/gbrv1.5pbe/In.UPF
     MD5 check sum: 90777abd96fbb83f2e67db2a40c566b9
     Pseudo is Ultrasoft + core correction, Zval = 13.0
     Generated by new atomic code, or converted to UPF format
     Using radial grid of  889 points,  6 beta functions with:
                l(1) =   0
                l(2) =   0
                l(3) =   1
                l(4) =   1
                l(5) =   2
                l(6) =   2
     Q(r) pseudized with  6 coefficients,  rinner =    1.400   1.400   1.400
                                                       1.400   1.400

     vdW kernel table read from file vdW_kernel_table
     MD5 check sum: 095c7af220d748ca6e76c0b4c6cfb241

     atomic species   valence    mass     pseudopotential
        Cu1           19.00    63.54600     Cu( 1.00)
        In1           13.00   114.81800     In( 1.00)

     No symmetry found

   Cartesian axes

     site n.     atom                  positions (alat units)
         1           Cu1 tau(   1) = (   0.0000000   0.0000000  10.0000000  )
         2           Cu1 tau(   2) = (   4.0815712   2.6482525  10.0000000  )
         3           In1 tau(   3) = (   2.8999206   0.0000000  10.0000000  )
         4           In1 tau(   4) = (   1.1816507   2.6482525  10.0000000  )
         5           Cu1 tau(   5) = (   5.7998412   3.7631203  12.4021471  )
         6           Cu1 tau(   6) = (   1.7182699   1.1148679  12.4021471  )
         7           In1 tau(   7) = (   2.8999206   3.7631203  12.4021471  )
         8           In1 tau(   8) = (   4.6181905   1.1148679  12.4021471  )
         9           Cu1 tau(   9) = (   3.4365399   2.2297357  14.8042942  )
        10           Cu1 tau(  10) = (   7.5181111   4.8779882  14.8042942  )
        11           In1 tau(  11) = (   6.3364604   2.2297357  14.8042942  )
        12           In1 tau(  12) = (   4.6181905   4.8779882  14.8042942  )

     number of k points=    20  Fermi-Dirac smearing, width (Ry)=  0.0110
                       cart. coord. in units 2pi/alat
        k(    1) = (   0.0000000   0.0000000   0.0000000), wk =   0.0555556
        k(    2) = (   0.0000000   0.0314673   0.0000000), wk =   0.1111111
        k(    3) = (   0.0000000   0.0629346   0.0000000), wk =   0.1111111
        k(    4) = (   0.0000000  -0.0944019   0.0000000), wk =   0.0555556
        k(    5) = (   0.0287364  -0.0128222   0.0000000), wk =   0.1111111
        k(    6) = (   0.0287364   0.0186451   0.0000000), wk =   0.1111111
        k(    7) = (   0.0287364   0.0501124   0.0000000), wk =   0.1111111
        k(    8) = (   0.0287364  -0.1072241   0.0000000), wk =   0.1111111
        k(    9) = (   0.0287364  -0.0757568   0.0000000), wk =   0.1111111
        k(   10) = (   0.0287364  -0.0442895   0.0000000), wk =   0.1111111
        k(   11) = (   0.0574728  -0.0256444   0.0000000), wk =   0.1111111
        k(   12) = (   0.0574728   0.0058229   0.0000000), wk =   0.1111111
        k(   13) = (   0.0574728   0.0372902   0.0000000), wk =   0.1111111
        k(   14) = (   0.0574728  -0.1200463   0.0000000), wk =   0.1111111
        k(   15) = (   0.0574728  -0.0885790   0.0000000), wk =   0.1111111
        k(   16) = (   0.0574728  -0.0571117   0.0000000), wk =   0.1111111
        k(   17) = (  -0.0862093   0.0384666   0.0000000), wk =   0.0555556
        k(   18) = (  -0.0862093   0.0699339   0.0000000), wk =   0.1111111
        k(   19) = (  -0.0862093   0.1014012   0.0000000), wk =   0.1111111
        k(   20) = (  -0.0862093  -0.0559353   0.0000000), wk =   0.0555556

     Largest allocated arrays     est. size (Mb)     dimensions
     Largest temporary arrays     est. size (Mb)     dimensions

     Initial potential from superposition of free atoms
     Check: negative starting charge=   -0.000181

     starting charge  176.99999, renormalised to  192.00000

     negative rho (up, down):  1.960E-04 0.000E+00

     *
     * You are using vdW-DF for exchange-correlation in this calculation.
     * Please cite the following three references that made this development
     * possible:
     *
     *   M. Dion, H. Rydberg, E. Schroder, D. C. Langreth, and
     *   B. I. Lundqvist, Phys. Rev. Lett. 92, 246401 (2004).
     *
     *   T. Thonhauser, V. R. Cooper, S. Li, A. Puzder, P. Hyldgaard, and
     *   D. C. Langreth, Phys. Rev. B 76, 125112 (2007).
     *
     *   G. Roman-Perez and J. M. Soler, Phys. Rev. Lett. 103, 096102 (2009).
     *
     *
     * If you are using vdW-DF2, please also cite:
     *
     *   K. Lee, E. D. Murray, L. Kong, B. I. Lundqvist, and
     *   D. C. Langreth, Phys. Rev. B 82, 081101(R) (2010).
     *
     *
     * If you are calculating the stress with vdW-DF, please also cite:
     *
     *   R. Sabatini, E. Kucukbenli, B. Kolb, T. Thonhauser, and
     *   S. de Gironcoli, J. Phys.: Condens. Matter 24, 424209 (2012).
     *

     Carrying out vdW-DF run using the following parameters:

     Nqs =      20    Nr_points =    1024   r_max =   100.000
     q_mesh =
               0.00001000     0.04494208     0.09755937     0.15916263
               0.23128650     0.31572767     0.41458969     0.53033537
               0.66584808     0.82450364     1.01025438     1.22772762
               1.48234092     1.78043706     2.12944203     2.53805004
               3.01644009     3.57652955     4.23227104     5.00000000

     Gradients computed in reciprocal space

     Adding external electric field

     Computed dipole along edir(3) :
        Dipole               -0.0000 Ry au,         -0.0000 Debye
        Dipole field         -0.0000 Ry au

        Potential amp.        0.0000 Ry
        Total length         45.7015 bohr

     Starting wfc are  132 randomized atomic wfcs

     Self-consistent Calculation

     iteration #  1     ecut=    36.75 Ry     beta=0.10
     Davidson diagonalization with overlap
     ethr =  1.00E-02,  avg # of iterations =  8.8

[...]

     total energy              =   -3131.96637599 Ry
     Harris-Foulkes estimate   =   -3280.88054557 Ry
     estimated scf accuracy    <     831.38547378 Ry

[...]

     End of self-consistent calculation

          k = 0.0000 0.0000 0.0000 ( 19417 PWs)   bands (ev):

  -112.4256-112.4255-112.0542-112.0541-112.0541-112.0539 -69.8558 -69.8555
   -69.8190 -69.8153 -69.8146 -69.8143 -69.5090 -69.5089 -69.5087 -69.5086
   -69.4625 -69.4624 -69.4588 -69.4587 -69.4203 -69.4203 -69.4201 -69.4200
   -14.7984 -14.6884 -14.6531 -14.6410 -14.6160 -14.6038 -14.5834 -14.5785
   -14.5263 -14.4844 -14.4759 -14.4718 -14.4556 -14.4419 -14.4290 -14.3911
   -14.3847 -14.3694 -14.3632 -14.3467 -14.3464 -14.3420 -14.2956 -14.2860
   -14.2673 -14.2597 -14.2589 -14.2303 -14.1547 -14.1163  -8.7924  -7.1081
    -5.1286  -4.5815  -4.0620  -3.8104  -3.1193  -3.0843  -3.0692  -2.8321
    -2.7381  -2.6967  -2.6703  -2.5832  -2.5735  -2.5285  -2.4829  -2.4375
    -2.4345  -2.3854  -2.3340  -2.3031  -2.2077  -2.1500  -2.1496  -2.1263
    -2.0994  -2.0689  -2.0588  -2.0136  -1.9670  -1.8982  -1.8818  -1.6429
    -1.6092  -1.4115  -1.3809  -1.3311  -1.2025  -0.8956  -0.7569  -0.4140
    -0.2801   0.4824   0.6530   0.9150   0.9398   2.0344   2.3743   2.5121
     2.5382   2.7227   3.3661   3.9350   4.3112   4.5195   5.2028   5.2646
     5.4837   5.5075   5.6235   5.9271   6.2391   7.0181   7.2071   7.4647
     7.5685   7.8369   8.0944   8.1917   8.4329   9.0301

[...]

          k =-0.0862 0.0385 0.0000 ( 19324 PWs)   bands (ev):

[...]

     the Fermi energy is     0.4769 ev

!    total energy              =   -3238.18153376 Ry
     Harris-Foulkes estimate   =   -3238.18152862 Ry
     estimated scf accuracy    <       0.00000093 Ry

     The total energy is the sum of the following terms:

     one-electron contribution =  -19367.42309500 Ry
     hartree contribution      =    9729.43788307 Ry
     xc contribution           =    -474.86458548 Ry
     ewald contribution        =    6874.69321448 Ry
     electric field correction =       0.00000000 Ry
     smearing contrib. (-TS)   =      -0.02495082 Ry

     convergence has been achieved in  24 iterations

 BEEF-vdW xc energy contributions
           1 :   -418.532659492169
           2 :    380.986394275909
           3 :   -317.548700812276
           4 :    245.976230566847
           5 :   -182.363223675489
           6 :    135.242916919898
           7 :   -104.198558872957
           8 :    82.9517092390449
[...]

[...]

     Program PWSCF v.5.1rc2 (svn rev. 11289) starts on 19Dec2018 at 16: 9: 9

[...]

   This run was terminated on:  17: 1: 2  19Dec2018

[...]

     Program PWSCF v.5.1rc2 (svn rev. 11289) starts on 19Dec2018 at 17: 1:10

[...]

   This run was terminated on:  17:27: 8  19Dec2018

[...]

     Total force =     0.031394     Total SCF correction =     0.002457

[...]

     Program PWSCF v.5.1rc2 (svn rev. 11289) starts on 19Dec2018 at 17:53:46

     Current dimensions of program PWSCF are:
     Max number of different atomic species (ntypx) = 10
     Max number of k-points (npk) =  40000
     Max angular momentum in pseudopotentials (lmaxx) =  3
     Presently stress not available with electric field

     IMPORTANT: XC functional enforced from input :
     Exchange-correlation      = BEEF-VDW ( 1  4 27 13 2)
     Any further DFT definition will be discarded
     Please, verify this is what you really want

     Subspace diagonalization in iterative solution of the eigenvalue problem:
     a serial algorithm will be used

     bravais-lattice index     =            0
     lattice parameter (alat)  =       1.8897  a.u.
     unit-cell volume          =    5141.9631 (a.u.)^3
     number of atoms/cell      =           12
     number of atomic types    =            2
     number of electrons       =       192.00
     number of Kohn-Sham states=          126
     kinetic-energy cutoff     =      36.7493  Ry
     charge density cutoff     =     367.4932  Ry
     convergence threshold     =      1.0E-06
     mixing beta               =       0.1000
     number of iterations used =           10  plain     mixing
     Exchange-correlation      = BEEF-VDW ( 1  4 27 13 2)
     nstep                     =           50

     celldm(1)=   1.889726  celldm(2)=   0.000000  celldm(3)=   0.000000
     celldm(4)=   0.000000  celldm(5)=   0.000000  celldm(6)=   0.000000

     crystal axes: (cart. coord. in units of alat)
               a(1) = (   5.799841   0.000000   0.000000 )
               a(2) = (   2.363301   5.296505   0.000000 )
               a(3) = (   0.000000   0.000000  24.804294 )

     reciprocal axes: (cart. coord. in units 2 pi/alat)
               b(1) = (  0.172419 -0.076933  0.000000 )
               b(2) = (  0.000000  0.188804  0.000000 )
               b(3) = (  0.000000  0.000000  0.040316 )

     PseudoPot. # 1 for Cu read from file:
     /afs/slac.stanford.edu/u/if/mamunm/psp/gbrv1.5pbe/Cu.UPF
     MD5 check sum: 6e991ff952a84172a2a52a1c1e996048
     Pseudo is Ultrasoft + core correction, Zval = 19.0
     Generated by new atomic code, or converted to UPF format
     Using radial grid of  867 points,  6 beta functions with:
                l(1) =   0
                l(2) =   0
                l(3) =   1
                l(4) =   1
                l(5) =   2
                l(6) =   2
     Q(r) pseudized with  8 coefficients,  rinner =    1.150   1.150   1.150
                                                       1.150   1.150

     PseudoPot. # 2 for In read from file:
     /afs/slac.stanford.edu/u/if/mamunm/psp/gbrv1.5pbe/In.UPF
     MD5 check sum: 90777abd96fbb83f2e67db2a40c566b9
     Pseudo is Ultrasoft + core correction, Zval = 13.0
     Generated by new atomic code, or converted to UPF format
     Using radial grid of  889 points,  6 beta functions with:
                l(1) =   0
                l(2) =   0
                l(3) =   1
                l(4) =   1
                l(5) =   2
                l(6) =   2
     Q(r) pseudized with  6 coefficients,  rinner =    1.400   1.400   1.400
                                                       1.400   1.400

     vdW kernel table read from file vdW_kernel_table
     MD5 check sum: 095c7af220d748ca6e76c0b4c6cfb241

     atomic species   valence    mass     pseudopotential
        Cu1           19.00    63.54600     Cu( 1.00)
        In1           13.00   114.81800     In( 1.00)

     No symmetry found

   Cartesian axes

     site n.     atom                  positions (alat units)
         1           Cu1 tau(   1) = (   0.0000000   0.0000000  10.0000000  )
         2           Cu1 tau(   2) = (   4.0815712   2.6482525  10.0000000  )
         3           In1 tau(   3) = (   2.8999206   0.0000000  10.0000000  )
         4           In1 tau(   4) = (   1.1816507   2.6482525  10.0000000  )
         5           Cu1 tau(   5) = (   5.7998412   3.7631203  12.4021471  )
         6           Cu1 tau(   6) = (   1.7182699   1.1148679  12.4021471  )
         7           In1 tau(   7) = (   2.8999206   3.7631203  12.4021471  )
         8           In1 tau(   8) = (   4.6181905   1.1148679  12.4021471  )
         9           Cu1 tau(   9) = (   3.0993149   2.0110495  14.5869187  )
        10           Cu1 tau(  10) = (   7.1834305   4.6607591  14.5842315  )
        11           In1 tau(  11) = (   6.0854457   2.0679650  15.1287391  )
        12           In1 tau(  12) = (   4.3682330   4.7147823  15.1288509  )

     number of k points=    20  Fermi-Dirac smearing, width (Ry)=  0.0110
                       cart. coord. in units 2pi/alat
        k(    1) = (   0.0000000   0.0000000   0.0000000), wk =   0.0555556
        k(    2) = (   0.0000000   0.0314673   0.0000000), wk =   0.1111111
        k(    3) = (   0.0000000   0.0629346   0.0000000), wk =   0.1111111
        k(    4) = (   0.0000000  -0.0944019   0.0000000), wk =   0.0555556
        k(    5) = (   0.0287364  -0.0128222   0.0000000), wk =   0.1111111
        k(    6) = (   0.0287364   0.0186451   0.0000000), wk =   0.1111111
        k(    7) = (   0.0287364   0.0501124   0.0000000), wk =   0.1111111
        k(    8) = (   0.0287364  -0.1072241   0.0000000), wk =   0.1111111
        k(    9) = (   0.0287364  -0.0757568   0.0000000), wk =   0.1111111
        k(   10) = (   0.0287364  -0.0442895   0.0000000), wk =   0.1111111
        k(   11) = (   0.0574728  -0.0256444   0.0000000), wk =   0.1111111
        k(   12) = (   0.0574728   0.0058229   0.0000000), wk =   0.1111111
        k(   13) = (   0.0574728   0.0372902   0.0000000), wk =   0.1111111
        k(   14) = (   0.0574728  -0.1200463   0.0000000), wk =   0.1111111
        k(   15) = (   0.0574728  -0.0885790   0.0000000), wk =   0.1111111
        k(   16) = (   0.0574728  -0.0571117   0.0000000), wk =   0.1111111
        k(   17) = (  -0.0862093   0.0384666   0.0000000), wk =   0.0555556
        k(   18) = (  -0.0862093   0.0699339   0.0000000), wk =   0.1111111
        k(   19) = (  -0.0862093   0.1014012   0.0000000), wk =   0.1111111
        k(   20) = (  -0.0862093  -0.0559353   0.0000000), wk =   0.0555556

     Largest allocated arrays     est. size (Mb)     dimensions
     Largest temporary arrays     est. size (Mb)     dimensions

     Initial potential from superposition of free atoms
     Check: negative starting charge=   -0.000176

     starting charge  176.99999, renormalised to  192.00000

[...]

     *
     * You are using vdW-DF for exchange-correlation in this calculation.
     * Please cite the following three references that made this development
     * possible:
     *
     *   M. Dion, H. Rydberg, E. Schroder, D. C. Langreth, and
     *   B. I. Lundqvist, Phys. Rev. Lett. 92, 246401 (2004).
     *
     *   T. Thonhauser, V. R. Cooper, S. Li, A. Puzder, P. Hyldgaard, and
     *   D. C. Langreth, Phys. Rev. B 76, 125112 (2007).
     *
     *   G. Roman-Perez and J. M. Soler, Phys. Rev. Lett. 103, 096102 (2009).
     *
     *
     * If you are using vdW-DF2, please also cite:
     *
     *   K. Lee, E. D. Murray, L. Kong, B. I. Lundqvist, and
     *   D. C. Langreth, Phys. Rev. B 82, 081101(R) (2010).
     *
     *
     * If you are calculating the stress with vdW-DF, please also cite:
     *
     *   R. Sabatini, E. Kucukbenli, B. Kolb, T. Thonhauser, and
     *   S. de Gironcoli, J. Phys.: Condens. Matter 24, 424209 (2012).
     *

     Carrying out vdW-DF run using the following parameters:

     Nqs =      20    Nr_points =    1024   r_max =   100.000
     q_mesh =
               0.00001000     0.04494208     0.09755937     0.15916263
               0.23128650     0.31572767     0.41458969     0.53033537
               0.66584808     0.82450364     1.01025438     1.22772762
               1.48234092     1.78043706     2.12944203     2.53805004
               3.01644009     3.57652955     4.23227104     5.00000000

     Gradients computed in reciprocal space

[...]

     Starting wfc are  132 randomized atomic wfcs

     Self-consistent Calculation

[...]

     total energy              =   -3238.19510937 Ry
     Harris-Foulkes estimate   =   -3238.19510867 Ry
     estimated scf accuracy    <       0.00000122 Ry

     iteration # 27     ecut=    36.75 Ry     beta=0.10
     Davidson diagonalization with overlap
     ethr =  6.34E-10,  avg # of iterations =  2.0

[...]

     negative rho (up, down):  1.084E-03 0.000E+00

     Adding external electric field

     Computed dipole along edir(3) :
        Dipole                0.0631 Ry au,          0.1604 Debye
        Dipole field          0.0002 Ry au

        Potential amp.       -0.0141 Ry
        Total length         45.7015 bohr

     End of self-consistent calculation

[...]

          k = 0.0575-0.0571 0.0000 ( 19327 PWs)   bands (ev):

[...]

          k =-0.0862-0.0559 0.0000 ( 19302 PWs)   bands (ev):

  -112.1973-112.1969-112.0283-112.0261-111.9840-111.9839 -69.6352 -69.6347
   -69.5869 -69.5835 -69.5832 -69.5830 -69.4703 -69.4683 -69.4361 -69.4358
   -69.4276 -69.4234 -69.4096 -69.4071 -69.3940 -69.3903 -69.3510 -69.3508
   -14.6841 -14.5672 -14.5616 -14.5278 -14.5075 -14.4873 -14.4404 -14.4394
   -14.4220 -14.4126 -14.3881 -14.3487 -14.3474 -14.3250 -14.3213 -14.3056
   -14.2899 -14.2787 -14.2618 -14.2441 -14.2337 -14.2311 -14.2227 -14.2210
   -14.1970 -14.1743 -14.1654 -14.1369 -14.0738 -14.0246  -7.1950  -6.7071
    -5.6067  -4.9199  -4.6251  -4.3923  -3.7602  -3.4407  -3.0784  -3.0005
    -2.9592  -2.9088  -2.7224  -2.6865  -2.5986  -2.5914  -2.5746  -2.5094
    -2.4491  -2.3470  -2.3259  -2.2980  -2.2962  -2.2304  -2.2016  -2.1539
    -2.0726  -2.0592  -2.0454  -2.0241  -1.9826  -1.9683  -1.9214  -1.8823
    -1.8306  -1.7370  -1.4031  -1.2513  -1.1588  -1.0243  -0.3822   0.4410
     0.8076   1.3866   2.6404   2.9642   3.2351   3.3235   3.4986   3.6105
     4.1995   4.5291   4.6615   4.7737   4.8078   5.3709   5.4050   5.4231
     5.4701   5.9146   6.1028   6.5630   6.5687   6.8160   6.9094   7.0083
     7.0118   7.0371   7.2640   7.3877   7.5781   7.6190

     the Fermi energy is     0.5176 ev

!    total energy              =   -3238.19511180 Ry
     Harris-Foulkes estimate   =   -3238.19510979 Ry
     estimated scf accuracy    <       0.00000033 Ry

     The total energy is the sum of the following terms:

     one-electron contribution =  -19340.76091434 Ry
     hartree contribution      =    9716.84069939 Ry
     xc contribution           =    -474.79771236 Ry
     ewald contribution        =    6860.54662362 Ry
     electric field correction =       0.00000973 Ry
     smearing contrib. (-TS)   =      -0.02381785 Ry

     convergence has been achieved in  27 iterations

 BEEF-vdW xc energy contributions
           1 :   -418.462595044785
           2 :    380.868627111666
           3 :   -317.365227782433
           4 :    245.749297143167
           5 :   -182.141077513915
           6 :    135.070016560525
           7 :   -104.088145037334
           8 :    82.8790465159440
           9 :   -64.4647065538548
          10 :    45.3161768916504
          11 :   -26.3281975413026
          12 :    10.7922068721408
          13 :   -1.27864614390671
          14 :   -2.35456794526226
          15 :    2.73463541012694
          16 :   -3.07851321137633
          17 :    5.18254110935999
          18 :   -8.66778528417927
          19 :    11.7798457191757
          20 :   -12.9527132392230
          21 :    11.9534273564213
          22 :   -9.89642256284264
          23 :    8.29729721522057
          24 :   -7.97934136166140
          25 :    8.62908574056405
          26 :   -9.22673308692646
          27 :    8.91812789942583
          28 :   -7.63801839193485
          29 :    6.06273555605316
          30 :   -5.01334423260897
          31 :   -35.5286693372996
          32 :   -25.0564371678641

     Forces acting on atoms (Ry/au):

     negative rho (up, down):  1.084E-03 0.000E+00
     atom    1 type  1   force =     0.00416659    0.00270020    0.00599945
     atom    2 type  1   force =     0.00417303    0.00270776    0.00592933
     atom    3 type  2   force =    -0.00535295   -0.00347152   -0.01607585
     atom    4 type  2   force =    -0.00535312   -0.00347359   -0.01607493
     atom    5 type  1   force =    -0.00291275   -0.00188976    0.00878485
     atom    6 type  1   force =    -0.00293842   -0.00190834    0.00885285
     atom    7 type  2   force =     0.00450489    0.00282576    0.00061614
     atom    8 type  2   force =     0.00440816    0.00296065    0.00061832
     atom    9 type  1   force =    -0.00063237   -0.00040907    0.00086596
     atom   10 type  1   force =    -0.00077789   -0.00050542    0.00092909
     atom   11 type  2   force =     0.00042884    0.00012344   -0.00022008
     atom   12 type  2   force =     0.00028601    0.00033989   -0.00022513

     Total force =     0.030975     Total SCF correction =     0.003640
     SCF correction compared to forces is large: reduce conv_thr to get better values

     entering subroutine stress ...

     negative rho (up, down):  1.084E-03 0.000E+00
          total   stress  (Ry/bohr**3)                   (kbar)     P=  -15.60
  -0.00016240  -0.00002669   0.00000228        -23.89     -3.93      0.33
  -0.00002669  -0.00013858   0.00000148         -3.93    -20.39      0.22
   0.00000228   0.00000148  -0.00001720          0.33      0.22     -2.53

 !ASE

     Writing output data file calc.save

     General routines

     Parallel routines

   This run was terminated on:  18:20:39  19Dec2018

   JOB DONE.
Job  /afs/slac/g/suncat/bin/suncat-tsmpirun -x LD_LIBRARY_PATH -wdir /scratch/qe529789_eYvnZ pw.x -in pw.inp

TID   HOST_NAME   COMMAND_LINE            STATUS            TERMINATION_TIME
00000 suncat0109 pw.x -in pw.inp   Done                     12/19/2018 18:20:39
00001 suncat0109 pw.x -in pw.inp   Done                     12/19/2018 18:20:39
00002 suncat0109 pw.x -in pw.inp   Done                     12/19/2018 18:20:39
00003 suncat0109 pw.x -in pw.inp   Done                     12/19/2018 18:20:39
00004 suncat0109 pw.x -in pw.inp   Done                     12/19/2018 18:20:39
00005 suncat0109 pw.x -in pw.inp   Done                     12/19/2018 18:20:39
00006 suncat0109 pw.x -in pw.inp   Done                     12/19/2018 18:20:39
00007 suncat0109 pw.x -in pw.inp   Done                     12/19/2018 18:20:39
00008 suncat0108 pw.x -in pw.inp   Done                     12/19/2018 18:20:39
00009 suncat0108 pw.x -in pw.inp   Done                     12/19/2018 18:20:39
00010 suncat0108 pw.x -in pw.inp   Done                     12/19/2018 18:20:39
00011 suncat0108 pw.x -in pw.inp   Done                     12/19/2018 18:20:39
00012 suncat0108 pw.x -in pw.inp   Done                     12/19/2018 18:20:39
00013 suncat0108 pw.x -in pw.inp   Done                     12/19/2018 18:20:39
00014 suncat0108 pw.x -in pw.inp   Done                     12/19/2018 18:20:39
00015 suncat0108 pw.x -in pw.inp   Done                     12/19/2018 18:20:39
00016 suncat0107 pw.x -in pw.inp   Done                     12/19/2018 18:20:39
00017 suncat0107 pw.x -in pw.inp   Done                     12/19/2018 18:20:39
00018 suncat0107 pw.x -in pw.inp   Done                     12/19/2018 18:20:39
00019 suncat0107 pw.x -in pw.inp   Done                     12/19/2018 18:20:39
00020 suncat0107 pw.x -in pw.inp   Done                     12/19/2018 18:20:39
00021 suncat0107 pw.x -in pw.inp   Done                     12/19/2018 18:20:39
00022 suncat0107 pw.x -in pw.inp   Done                     12/19/2018 18:20:39
00023 suncat0107 pw.x -in pw.inp   Done                     12/19/2018 18:20:39
00024 suncat0106 pw.x -in pw.inp   Done                     12/19/2018 18:20:39
00025 suncat0106 pw.x -in pw.inp   Done                     12/19/2018 18:20:39
00026 suncat0106 pw.x -in pw.inp   Done                     12/19/2018 18:20:39
00027 suncat0106 pw.x -in pw.inp   Done                     12/19/2018 18:20:39
00028 suncat0106 pw.x -in pw.inp   Done                     12/19/2018 18:20:39
00029 suncat0106 pw.x -in pw.inp   Done                     12/19/2018 18:20:39
00030 suncat0106 pw.x -in pw.inp   Done                     12/19/2018 18:20:39
00031 suncat0106 pw.x -in pw.inp   Done                     12/19/2018 18:20:39