     Program PWSCF v.5.1rc2 (svn rev. 11289) starts on 19Dec2018 at  8:16:54

     Current dimensions of program PWSCF are:
     Max number of different atomic species (ntypx) = 10
     Max number of k-points (npk) =  40000
     Max angular momentum in pseudopotentials (lmaxx) =  3
     Presently stress not available with electric field

     IMPORTANT: XC functional enforced from input :
     Exchange-correlation      = BEEF-VDW ( 1  4 27 13 2)
     Any further DFT definition will be discarded
     Please, verify this is what you really want

     Subspace diagonalization in iterative solution of the eigenvalue problem:
     a serial algorithm will be used

     Found symmetry operation: I + ( -0.5000 -0.5000  0.0000)
     This is a supercell, fractional translations are disabled

     bravais-lattice index     =            0
     lattice parameter (alat)  =       1.8897  a.u.
     unit-cell volume          =    5389.0503 (a.u.)^3
     number of atoms/cell      =           12
     number of atomic types    =            2
     number of electrons       =       156.00
     number of Kohn-Sham states=          108
     kinetic-energy cutoff     =      36.7493  Ry
     charge density cutoff     =     367.4932  Ry
     convergence threshold     =      1.0E-06
     mixing beta               =       0.1000
     number of iterations used =           10  plain     mixing
     Exchange-correlation      = BEEF-VDW ( 1  4 27 13 2)
     nstep                     =           50

     celldm(1)=   1.889726  celldm(2)=   0.000000  celldm(3)=   0.000000
     celldm(4)=   0.000000  celldm(5)=   0.000000  celldm(6)=   0.000000

     crystal axes: (cart. coord. in units of alat)
               a(1) = (   6.018053   0.000000   0.000000 )
               a(2) = (   2.818698   5.317133   0.000000 )
               a(3) = (   0.000000   0.000000  24.956409 )

     reciprocal axes: (cart. coord. in units 2 pi/alat)
               b(1) = (  0.166167 -0.088088  0.000000 )
               b(2) = (  0.000000  0.188071  0.000000 )
               b(3) = (  0.000000  0.000000  0.040070 )

     PseudoPot. # 1 for Ti read from file:
     /afs/slac.stanford.edu/u/if/mamunm/psp/gbrv1.5pbe/Ti.UPF
     MD5 check sum: 88a00a6731bd790ddea75d31a80cb452
     Pseudo is Ultrasoft + core correction, Zval = 12.0
     Generated by new atomic code, or converted to UPF format
     Using radial grid of  851 points,  6 beta functions with:
                l(1) =   0
                l(2) =   0
                l(3) =   1
                l(4) =   1
                l(5) =   2
                l(6) =   2
     Q(r) pseudized with  6 coefficients,  rinner =    1.000   1.000   1.000
                                                       1.000   1.000

     PseudoPot. # 2 for Sn read from file:
     /afs/slac.stanford.edu/u/if/mamunm/psp/gbrv1.5pbe/Sn.UPF
     MD5 check sum: 469debedee59599fedebd795477fea03
     Pseudo is Ultrasoft + core correction, Zval = 14.0
     Generated by new atomic code, or converted to UPF format
     Using radial grid of  891 points,  6 beta functions with:
                l(1) =   0
                l(2) =   0
                l(3) =   1
                l(4) =   1
                l(5) =   2
                l(6) =   2
     Q(r) pseudized with  8 coefficients,  rinner =    1.350   1.350   1.350
                                                       1.350   1.350

     vdW kernel table read from file vdW_kernel_table
     MD5 check sum: 095c7af220d748ca6e76c0b4c6cfb241

     atomic species   valence    mass     pseudopotential
        Ti1           12.00    47.86700     Ti( 1.00)
        Sn1           14.00   118.71000     Sn( 1.00)

     No symmetry found

   Cartesian axes

     site n.     atom                  positions (alat units)
         1           Ti1 tau(   1) = (   0.0000000   0.0000000  10.0000000  )
         2           Ti1 tau(   2) = (   4.4183752   2.6585666  10.0000000  )
         3           Sn1 tau(   3) = (   3.0090264   0.0000000  10.0000000  )
         4           Sn1 tau(   4) = (   1.4093488   2.6585666  10.0000000  )
         5           Ti1 tau(   5) = (   6.0180529   3.6211036  12.4782047  )
         6           Ti1 tau(   6) = (   1.5996777   0.9625370  12.4782047  )
         7           Sn1 tau(   7) = (   3.0090264   3.6211036  12.4782047  )
         8           Sn1 tau(   8) = (   4.6087041   0.9625370  12.4782047  )
         9           Ti1 tau(   9) = (   3.1993554   1.9250740  14.9564095  )
        10           Ti1 tau(  10) = (   7.6177305   4.5836406  14.9564095  )
        11           Sn1 tau(  11) = (   6.2083818   1.9250740  14.9564095  )
        12           Sn1 tau(  12) = (   4.6087041   4.5836406  14.9564095  )

     number of k points=    20  Fermi-Dirac smearing, width (Ry)=  0.0110
                       cart. coord. in units 2pi/alat
        k(    1) = (   0.0000000   0.0000000   0.0000000), wk =   0.0555556
        k(    2) = (   0.0000000   0.0313452   0.0000000), wk =   0.1111111
        k(    3) = (   0.0000000   0.0626904   0.0000000), wk =   0.1111111
        k(    4) = (   0.0000000  -0.0940356   0.0000000), wk =   0.0555556
        k(    5) = (   0.0276945  -0.0146813   0.0000000), wk =   0.1111111
        k(    6) = (   0.0276945   0.0166639   0.0000000), wk =   0.1111111
        k(    7) = (   0.0276945   0.0480092   0.0000000), wk =   0.1111111
        k(    8) = (   0.0276945  -0.1087169   0.0000000), wk =   0.1111111
        k(    9) = (   0.0276945  -0.0773717   0.0000000), wk =   0.1111111
        k(   10) = (   0.0276945  -0.0460265   0.0000000), wk =   0.1111111
        k(   11) = (   0.0553889  -0.0293625   0.0000000), wk =   0.1111111
        k(   12) = (   0.0553889   0.0019827   0.0000000), wk =   0.1111111
        k(   13) = (   0.0553889   0.0333279   0.0000000), wk =   0.1111111
        k(   14) = (   0.0553889  -0.1233982   0.0000000), wk =   0.1111111
        k(   15) = (   0.0553889  -0.0920530   0.0000000), wk =   0.1111111
        k(   16) = (   0.0553889  -0.0607078   0.0000000), wk =   0.1111111
        k(   17) = (  -0.0830834   0.0440438   0.0000000), wk =   0.0555556
        k(   18) = (  -0.0830834   0.0753890   0.0000000), wk =   0.1111111
        k(   19) = (  -0.0830834   0.1067342   0.0000000), wk =   0.1111111
        k(   20) = (  -0.0830834  -0.0499918   0.0000000), wk =   0.0555556

     Largest allocated arrays     est. size (Mb)     dimensions
     Largest temporary arrays     est. size (Mb)     dimensions

     Check: negative/imaginary core charge=   -0.000003    0.000000

     Initial potential from superposition of free atoms
     Check: negative starting charge=   -0.007549

     starting charge  143.99946, renormalised to  156.00000

     negative rho (up, down):  8.179E-03 0.000E+00

     *
     * You are using vdW-DF for exchange-correlation in this calculation.
     * Please cite the following three references that made this development
     * possible:
     *
     *   M. Dion, H. Rydberg, E. Schroder, D. C. Langreth, and
     *   B. I. Lundqvist, Phys. Rev. Lett. 92, 246401 (2004).
     *
     *   T. Thonhauser, V. R. Cooper, S. Li, A. Puzder, P. Hyldgaard, and
     *   D. C. Langreth, Phys. Rev. B 76, 125112 (2007).
     *
     *   G. Roman-Perez and J. M. Soler, Phys. Rev. Lett. 103, 096102 (2009).
     *
     *
     * If you are using vdW-DF2, please also cite:
     *
     *   K. Lee, E. D. Murray, L. Kong, B. I. Lundqvist, and
     *   D. C. Langreth, Phys. Rev. B 82, 081101(R) (2010).
     *
     *
     * If you are calculating the stress with vdW-DF, please also cite:
     *
     *   R. Sabatini, E. Kucukbenli, B. Kolb, T. Thonhauser, and
     *   S. de Gironcoli, J. Phys.: Condens. Matter 24, 424209 (2012).
     *

     Carrying out vdW-DF run using the following parameters:

     Nqs =      20    Nr_points =    1024   r_max =   100.000
     q_mesh =
               0.00001000     0.04494208     0.09755937     0.15916263
               0.23128650     0.31572767     0.41458969     0.53033537
               0.66584808     0.82450364     1.01025438     1.22772762
               1.48234092     1.78043706     2.12944203     2.53805004
               3.01644009     3.57652955     4.23227104     5.00000000

     Gradients computed in reciprocal space

     Adding external electric field

     Computed dipole along edir(3) :
        Dipole               -0.0000 Ry au,         -0.0000 Debye
        Dipole field         -0.0000 Ry au

        Potential amp.        0.0000 Ry
        Total length         45.9818 bohr

     Starting wfc are  114 randomized atomic wfcs

     Self-consistent Calculation

     iteration #  1     ecut=    36.75 Ry     beta=0.10
     Davidson diagonalization with overlap
     ethr =  1.00E-02,  avg # of iterations =  7.0

[...]

     total energy              =   -1686.12060498 Ry
     Harris-Foulkes estimate   =   -1688.15056932 Ry
     estimated scf accuracy    <      11.87184126 Ry

[...]

     End of self-consistent calculation

          k = 0.0000 0.0000 0.0000 ( 20231 PWs)   bands (ev):

   -56.2167 -56.2166 -56.1990 -56.1989 -55.9569 -55.9386 -32.5948 -32.5928
   -32.5758 -32.5731 -32.4231 -32.4133 -32.4052 -32.4052 -32.4028 -32.3936
   -32.3142 -32.2923 -32.2526 -32.2217 -32.2217 -32.0998 -32.0799 -32.0628
   -20.8645 -20.7812 -20.7193 -20.6740 -20.6686 -20.6663 -20.6547 -20.6534
   -20.6067 -20.5299 -20.4814 -20.4679 -20.3950 -20.3933 -20.3318 -20.3306
   -20.2902 -20.2885 -20.2724 -20.2623 -20.2581 -20.2554 -20.2420 -20.2418
   -20.2248 -20.2227 -20.2192 -20.2191 -20.1442 -20.1429  -9.1644  -7.7152
    -6.4116  -5.7790  -4.7599  -3.9787  -3.0647  -2.3590  -2.1156  -1.8020
    -1.5569  -1.5365  -1.2102  -0.7621  -0.4378   0.0877   0.1212   0.2728
     0.5254   0.6311   0.7437   0.8995   0.9115   0.9549   1.0778   1.1203
     1.5333   1.6303   1.6781   1.9894   2.0630   2.0759   2.2219   2.4275
     2.4460   2.4623   2.5357   2.5832   2.6009   2.6012   2.7275   2.7772
     2.9632   3.1741   3.3166   3.6162   3.6586   3.7706   4.1311   4.5743
     4.6032   4.9648   5.0201   5.1904

[...]

          k =-0.0831 0.0440 0.0000 ( 20254 PWs)   bands (ev):

[...]

     the Fermi energy is     1.2653 ev

!    total energy              =   -1683.64007424 Ry
     Harris-Foulkes estimate   =   -1683.64007255 Ry
     estimated scf accuracy    <       0.00000057 Ry

     The total energy is the sum of the following terms:

     one-electron contribution =  -11225.23374533 Ry
     hartree contribution      =    5639.14402399 Ry
     xc contribution           =    -379.93528382 Ry
     ewald contribution        =    4282.46202832 Ry
     electric field correction =       0.00000000 Ry
     smearing contrib. (-TS)   =      -0.07709740 Ry

     convergence has been achieved in  21 iterations

 BEEF-vdW xc energy contributions
           1 :   -331.844175381896
           2 :    302.041031529271
           3 :   -252.057558329052
           4 :    196.399977465479
           5 :   -148.033977835989
           6 :    113.705742699392
           7 :   -93.0031008047249
           8 :    80.8081915354503
           9 :   -71.1999621698890
          10 :    60.5597857831940
          11 :   -48.5672782487275
[...]

[...]

     Program PWSCF v.5.1rc2 (svn rev. 11289) starts on 19Dec2018 at  8:53:57

[...]

     Program PWSCF v.5.1rc2 (svn rev. 11289) starts on 19Dec2018 at  8:59: 3

[...]

   This run was terminated on:   9: 4:16  19Dec2018

[...]

     Program PWSCF v.5.1rc2 (svn rev. 11289) starts on 19Dec2018 at  9: 4:21

[...]

     iteration # 11     ecut=    36.75 Ry     beta=0.10
     Davidson diagonalization with overlap
     c_bands:  1 eigenvalues not converged
     ethr =  6.81E-06,  avg # of iterations =  4.1

[...]

   This run was terminated on:   9: 9:32  19Dec2018

[...]

     Program PWSCF v.5.1rc2 (svn rev. 11289) starts on 19Dec2018 at  9: 9:38

     Current dimensions of program PWSCF are:
     Max number of different atomic species (ntypx) = 10
     Max number of k-points (npk) =  40000
     Max angular momentum in pseudopotentials (lmaxx) =  3
     Presently stress not available with electric field

     IMPORTANT: XC functional enforced from input :
     Exchange-correlation      = BEEF-VDW ( 1  4 27 13 2)
     Any further DFT definition will be discarded
     Please, verify this is what you really want

     Subspace diagonalization in iterative solution of the eigenvalue problem:
     a serial algorithm will be used

     bravais-lattice index     =            0
     lattice parameter (alat)  =       1.8897  a.u.
     unit-cell volume          =    5389.0503 (a.u.)^3
     number of atoms/cell      =           12
     number of atomic types    =            2
     number of electrons       =       156.00
     number of Kohn-Sham states=          108
     kinetic-energy cutoff     =      36.7493  Ry
     charge density cutoff     =     367.4932  Ry
     convergence threshold     =      1.0E-06
     mixing beta               =       0.1000
     number of iterations used =           10  plain     mixing
     Exchange-correlation      = BEEF-VDW ( 1  4 27 13 2)
     nstep                     =           50

     celldm(1)=   1.889726  celldm(2)=   0.000000  celldm(3)=   0.000000
     celldm(4)=   0.000000  celldm(5)=   0.000000  celldm(6)=   0.000000

     crystal axes: (cart. coord. in units of alat)
               a(1) = (   6.018053   0.000000   0.000000 )
               a(2) = (   2.818698   5.317133   0.000000 )
               a(3) = (   0.000000   0.000000  24.956409 )

     reciprocal axes: (cart. coord. in units 2 pi/alat)
               b(1) = (  0.166167 -0.088088  0.000000 )
               b(2) = (  0.000000  0.188071  0.000000 )
               b(3) = (  0.000000  0.000000  0.040070 )

     PseudoPot. # 1 for Ti read from file:
     /afs/slac.stanford.edu/u/if/mamunm/psp/gbrv1.5pbe/Ti.UPF
     MD5 check sum: 88a00a6731bd790ddea75d31a80cb452
     Pseudo is Ultrasoft + core correction, Zval = 12.0
     Generated by new atomic code, or converted to UPF format
     Using radial grid of  851 points,  6 beta functions with:
                l(1) =   0
                l(2) =   0
                l(3) =   1
                l(4) =   1
                l(5) =   2
                l(6) =   2
     Q(r) pseudized with  6 coefficients,  rinner =    1.000   1.000   1.000
                                                       1.000   1.000

     PseudoPot. # 2 for Sn read from file:
     /afs/slac.stanford.edu/u/if/mamunm/psp/gbrv1.5pbe/Sn.UPF
     MD5 check sum: 469debedee59599fedebd795477fea03
     Pseudo is Ultrasoft + core correction, Zval = 14.0
     Generated by new atomic code, or converted to UPF format
     Using radial grid of  891 points,  6 beta functions with:
                l(1) =   0
                l(2) =   0
                l(3) =   1
                l(4) =   1
                l(5) =   2
                l(6) =   2
     Q(r) pseudized with  8 coefficients,  rinner =    1.350   1.350   1.350
                                                       1.350   1.350

     vdW kernel table read from file vdW_kernel_table
     MD5 check sum: 095c7af220d748ca6e76c0b4c6cfb241

     atomic species   valence    mass     pseudopotential
        Ti1           12.00    47.86700     Ti( 1.00)
        Sn1           14.00   118.71000     Sn( 1.00)

     No symmetry found

   Cartesian axes

     site n.     atom                  positions (alat units)
         1           Ti1 tau(   1) = (   0.0000000   0.0000000  10.0000000  )
         2           Ti1 tau(   2) = (   4.4183752   2.6585666  10.0000000  )
         3           Sn1 tau(   3) = (   3.0090264   0.0000000  10.0000000  )
         4           Sn1 tau(   4) = (   1.4093488   2.6585666  10.0000000  )
         5           Ti1 tau(   5) = (   6.0180529   3.6211036  12.4782047  )
         6           Ti1 tau(   6) = (   1.5996777   0.9625370  12.4782047  )
         7           Sn1 tau(   7) = (   3.0090264   3.6211036  12.4782047  )
         8           Sn1 tau(   8) = (   4.6087041   0.9625370  12.4782047  )
         9           Ti1 tau(   9) = (   3.0379902   1.8279886  14.7642218  )
        10           Ti1 tau(  10) = (   7.4561834   4.4864655  14.7643146  )
        11           Sn1 tau(  11) = (   6.1018884   1.8608957  15.2050241  )
        12           Sn1 tau(  12) = (   4.5021467   4.5195640  15.2049779  )

     number of k points=    20  Fermi-Dirac smearing, width (Ry)=  0.0110
                       cart. coord. in units 2pi/alat
        k(    1) = (   0.0000000   0.0000000   0.0000000), wk =   0.0555556
        k(    2) = (   0.0000000   0.0313452   0.0000000), wk =   0.1111111
        k(    3) = (   0.0000000   0.0626904   0.0000000), wk =   0.1111111
        k(    4) = (   0.0000000  -0.0940356   0.0000000), wk =   0.0555556
        k(    5) = (   0.0276945  -0.0146813   0.0000000), wk =   0.1111111
        k(    6) = (   0.0276945   0.0166639   0.0000000), wk =   0.1111111
        k(    7) = (   0.0276945   0.0480092   0.0000000), wk =   0.1111111
        k(    8) = (   0.0276945  -0.1087169   0.0000000), wk =   0.1111111
        k(    9) = (   0.0276945  -0.0773717   0.0000000), wk =   0.1111111
        k(   10) = (   0.0276945  -0.0460265   0.0000000), wk =   0.1111111
        k(   11) = (   0.0553889  -0.0293625   0.0000000), wk =   0.1111111
        k(   12) = (   0.0553889   0.0019827   0.0000000), wk =   0.1111111
        k(   13) = (   0.0553889   0.0333279   0.0000000), wk =   0.1111111
        k(   14) = (   0.0553889  -0.1233982   0.0000000), wk =   0.1111111
        k(   15) = (   0.0553889  -0.0920530   0.0000000), wk =   0.1111111
        k(   16) = (   0.0553889  -0.0607078   0.0000000), wk =   0.1111111
        k(   17) = (  -0.0830834   0.0440438   0.0000000), wk =   0.0555556
        k(   18) = (  -0.0830834   0.0753890   0.0000000), wk =   0.1111111
        k(   19) = (  -0.0830834   0.1067342   0.0000000), wk =   0.1111111
        k(   20) = (  -0.0830834  -0.0499918   0.0000000), wk =   0.0555556

     Largest allocated arrays     est. size (Mb)     dimensions
     Largest temporary arrays     est. size (Mb)     dimensions

     Check: negative/imaginary core charge=   -0.000004    0.000000

     Initial potential from superposition of free atoms
     Check: negative starting charge=   -0.008508

     starting charge  143.99946, renormalised to  156.00000

[...]

     *
     * You are using vdW-DF for exchange-correlation in this calculation.
     * Please cite the following three references that made this development
     * possible:
     *
     *   M. Dion, H. Rydberg, E. Schroder, D. C. Langreth, and
     *   B. I. Lundqvist, Phys. Rev. Lett. 92, 246401 (2004).
     *
     *   T. Thonhauser, V. R. Cooper, S. Li, A. Puzder, P. Hyldgaard, and
     *   D. C. Langreth, Phys. Rev. B 76, 125112 (2007).
     *
     *   G. Roman-Perez and J. M. Soler, Phys. Rev. Lett. 103, 096102 (2009).
     *
     *
     * If you are using vdW-DF2, please also cite:
     *
     *   K. Lee, E. D. Murray, L. Kong, B. I. Lundqvist, and
     *   D. C. Langreth, Phys. Rev. B 82, 081101(R) (2010).
     *
     *
     * If you are calculating the stress with vdW-DF, please also cite:
     *
     *   R. Sabatini, E. Kucukbenli, B. Kolb, T. Thonhauser, and
     *   S. de Gironcoli, J. Phys.: Condens. Matter 24, 424209 (2012).
     *

     Carrying out vdW-DF run using the following parameters:

     Nqs =      20    Nr_points =    1024   r_max =   100.000
     q_mesh =
               0.00001000     0.04494208     0.09755937     0.15916263
               0.23128650     0.31572767     0.41458969     0.53033537
               0.66584808     0.82450364     1.01025438     1.22772762
               1.48234092     1.78043706     2.12944203     2.53805004
               3.01644009     3.57652955     4.23227104     5.00000000

     Gradients computed in reciprocal space

[...]

     Starting wfc are  114 randomized atomic wfcs

     Self-consistent Calculation

[...]

     total energy              =   -1683.67317782 Ry
     Harris-Foulkes estimate   =   -1683.67317717 Ry
     estimated scf accuracy    <       0.00000104 Ry

     iteration # 21     ecut=    36.75 Ry     beta=0.10
     Davidson diagonalization with overlap
     ethr =  6.68E-10,  avg # of iterations =  2.2

[...]

     negative rho (up, down):  4.622E-03 0.000E+00

     Adding external electric field

     Computed dipole along edir(3) :
        Dipole               -0.0472 Ry au,         -0.1201 Debye
        Dipole field         -0.0001 Ry au

        Potential amp.        0.0101 Ry
        Total length         45.9818 bohr

     End of self-consistent calculation

[...]

          k = 0.0554-0.0607 0.0000 ( 20284 PWs)   bands (ev):

[...]

          k =-0.0831-0.0500 0.0000 ( 20310 PWs)   bands (ev):

   -56.2949 -56.2773 -56.1465 -56.1286 -55.9895 -55.9714 -32.6710 -32.6512
   -32.5147 -32.4947 -32.4932 -32.4868 -32.4735 -32.3822 -32.3693 -32.3604
   -32.3570 -32.3358 -32.3029 -32.2961 -32.1819 -32.1087 -32.0734 -32.0553
   -20.8788 -20.7929 -20.7348 -20.6838 -20.6807 -20.6744 -20.6648 -20.6638
   -20.6270 -20.5515 -20.5456 -20.5207 -20.4684 -20.4438 -20.3798 -20.3764
   -20.3656 -20.3521 -20.3401 -20.3222 -20.3142 -20.3103 -20.3080 -20.3033
   -20.2842 -20.2786 -20.2750 -20.2708 -20.2052 -20.1960  -8.4011  -7.4971
    -6.6422  -5.8884  -4.5947  -3.9289  -3.9228  -3.1508  -3.0892  -2.5705
    -2.2090  -2.1238  -1.4641  -0.9707  -0.8625  -0.5921  -0.4944  -0.3221
     0.4527   0.5786   0.8126   0.8257   1.1628   1.6560   1.7115   1.7243
     1.8149   1.9471   2.0174   2.0326   2.0713   2.1364   2.1580   2.3760
     2.5407   2.5420   2.6423   2.6980   2.8427   2.8977   3.3082   3.7103
     3.7328   3.7849   3.8161   3.8699   4.4822   4.5826   4.6626   4.8336
     5.1737   5.4529   5.5852   5.7117

     the Fermi energy is     1.1972 ev

!    total energy              =   -1683.67318027 Ry
     Harris-Foulkes estimate   =   -1683.67317732 Ry
     estimated scf accuracy    <       0.00000042 Ry

     The total energy is the sum of the following terms:

     one-electron contribution =  -11145.28741947 Ry
     hartree contribution      =    5598.96205003 Ry
     xc contribution           =    -379.89894478 Ry
     ewald contribution        =    4242.62249946 Ry
     electric field correction =       0.00000521 Ry
     smearing contrib. (-TS)   =      -0.07137072 Ry

     convergence has been achieved in  21 iterations

 BEEF-vdW xc energy contributions
           1 :   -331.806635214983
           2 :    301.973596013699
           3 :   -251.943178026742
           4 :    196.244707217738
           5 :   -147.868510241078
           6 :    113.568513835702
           7 :   -92.9125481069399
           8 :    80.7509259446427
           9 :   -71.1466590961255
          10 :    60.4894106429629
          11 :   -48.4753493386913
          12 :    37.0235614798421
          13 :   -28.2868883283824
          14 :    23.1163244217000
          15 :   -20.7528031186609
          16 :    19.5929073709808
          17 :   -18.2823731403499
          18 :    16.3921270006986
          19 :   -14.3951150142087
          20 :    13.1366674647368
          21 :   -13.2201708927061
          22 :    14.6517779731004
          23 :   -16.8763353072838
          24 :    19.1102009377926
          25 :   -20.7567691723044
          26 :    21.6780753446304
          27 :   -22.1936423009130
          28 :    22.8192632531170
          29 :   -23.9018381117478
          30 :    25.3646269020026
          31 :   -30.7698945041797
          32 :   -22.3339453411788

     Forces acting on atoms (Ry/au):

     negative rho (up, down):  4.622E-03 0.000E+00
     atom    1 type  1   force =     0.00898627    0.00540633    0.03424902
     atom    2 type  1   force =     0.00898961    0.00540945    0.03424425
     atom    3 type  2   force =    -0.00443051   -0.00267028   -0.03608532
     atom    4 type  2   force =    -0.00443543   -0.00265203   -0.03608994
     atom    5 type  1   force =    -0.01166091   -0.00701669    0.00786283
     atom    6 type  1   force =    -0.01165115   -0.00701074    0.00785236
     atom    7 type  2   force =     0.00676360    0.00408935   -0.00525946
     atom    8 type  2   force =     0.00678466    0.00406092   -0.00525316
     atom    9 type  1   force =    -0.00035064   -0.00021105   -0.00009643
     atom   10 type  1   force =    -0.00030831   -0.00019081   -0.00012115
     atom   11 type  2   force =     0.00064449    0.00040871   -0.00064885
     atom   12 type  2   force =     0.00066833    0.00037684   -0.00065415

     Total force =     0.076812     Total SCF correction =     0.002866

     entering subroutine stress ...

     negative rho (up, down):  4.622E-03 0.000E+00
          total   stress  (Ry/bohr**3)                   (kbar)     P=  -14.14
  -0.00016396  -0.00004591  -0.00000788        -24.12     -6.75     -1.16
  -0.00004591  -0.00011528  -0.00000474         -6.75    -16.96     -0.70
  -0.00000788  -0.00000474  -0.00000905         -1.16     -0.70     -1.33

 !ASE

     Writing output data file calc.save

     General routines

     Parallel routines

   This run was terminated on:   9:14:51  19Dec2018

   JOB DONE.
Job  /afs/slac/g/suncat/bin/suncat-tsmpirun -x LD_LIBRARY_PATH -wdir /scratch/qe530722_pVJs3 pw.x -in pw.inp

TID   HOST_NAME   COMMAND_LINE            STATUS            TERMINATION_TIME
00000 suncat2054 pw.x -in pw.inp   Done                     12/19/2018 09:14:51
00001 suncat2054 pw.x -in pw.inp   Done                     12/19/2018 09:14:51
00002 suncat2054 pw.x -in pw.inp   Done                     12/19/2018 09:14:51
00003 suncat2054 pw.x -in pw.inp   Done                     12/19/2018 09:14:51
00004 suncat2054 pw.x -in pw.inp   Done                     12/19/2018 09:14:51
00005 suncat2054 pw.x -in pw.inp   Done                     12/19/2018 09:14:51
00006 suncat2054 pw.x -in pw.inp   Done                     12/19/2018 09:14:51
00007 suncat2054 pw.x -in pw.inp   Done                     12/19/2018 09:14:51
00008 suncat2054 pw.x -in pw.inp   Done                     12/19/2018 09:14:51
00009 suncat2054 pw.x -in pw.inp   Done                     12/19/2018 09:14:51
00010 suncat2054 pw.x -in pw.inp   Done                     12/19/2018 09:14:51
00011 suncat2054 pw.x -in pw.inp   Done                     12/19/2018 09:14:51
00012 suncat2054 pw.x -in pw.inp   Done                     12/19/2018 09:14:51
00013 suncat2054 pw.x -in pw.inp   Done                     12/19/2018 09:14:51
00014 suncat2054 pw.x -in pw.inp   Done                     12/19/2018 09:14:51
00015 suncat2054 pw.x -in pw.inp   Done                     12/19/2018 09:14:51
00016 suncat2053 pw.x -in pw.inp   Done                     12/19/2018 09:14:51
00017 suncat2053 pw.x -in pw.inp   Done                     12/19/2018 09:14:51
00018 suncat2053 pw.x -in pw.inp   Done                     12/19/2018 09:14:51
00019 suncat2053 pw.x -in pw.inp   Done                     12/19/2018 09:14:51
00020 suncat2053 pw.x -in pw.inp   Done                     12/19/2018 09:14:51
00021 suncat2053 pw.x -in pw.inp   Done                     12/19/2018 09:14:51
00022 suncat2053 pw.x -in pw.inp   Done                     12/19/2018 09:14:51
00023 suncat2053 pw.x -in pw.inp   Done                     12/19/2018 09:14:51
00024 suncat2053 pw.x -in pw.inp   Done                     12/19/2018 09:14:51
00025 suncat2053 pw.x -in pw.inp   Done                     12/19/2018 09:14:51
00026 suncat2053 pw.x -in pw.inp   Done                     12/19/2018 09:14:51
00027 suncat2053 pw.x -in pw.inp   Done                     12/19/2018 09:14:51
00028 suncat2053 pw.x -in pw.inp   Done                     12/19/2018 09:14:51
00029 suncat2053 pw.x -in pw.inp   Done                     12/19/2018 09:14:51
00030 suncat2053 pw.x -in pw.inp   Done                     12/19/2018 09:14:51
00031 suncat2053 pw.x -in pw.inp   Done                     12/19/2018 09:14:51