     Program PWSCF v.5.1rc2 (svn rev. 11289) starts on 18Dec2018 at 21:40:26

     Current dimensions of program PWSCF are:
     Max number of different atomic species (ntypx) = 10
     Max number of k-points (npk) =  40000
     Max angular momentum in pseudopotentials (lmaxx) =  3
     Presently stress not available with electric field

     IMPORTANT: XC functional enforced from input :
     Exchange-correlation      = BEEF-VDW ( 1  4 27 13 2)
     Any further DFT definition will be discarded
     Please, verify this is what you really want

     Subspace diagonalization in iterative solution of the eigenvalue problem:
     a serial algorithm will be used

     Found symmetry operation: I + ( -0.5000 -0.5000  0.0000)
     This is a supercell, fractional translations are disabled

     Generating pointlists ...
     new r_m :   0.4125 (alat units)  0.7795 (a.u.) for type    1
     new r_m :   0.4125 (alat units)  0.7795 (a.u.) for type    2

     bravais-lattice index     =            0
     lattice parameter (alat)  =       1.8897  a.u.
     unit-cell volume          =    4271.4953 (a.u.)^3
     number of atoms/cell      =           12
     number of atomic types    =            2
     number of electrons       =       186.00
     number of Kohn-Sham states=          123
     kinetic-energy cutoff     =      36.7493  Ry
     charge density cutoff     =     367.4932  Ry
     convergence threshold     =      1.0E-06
     mixing beta               =       0.1000
     number of iterations used =           10  plain     mixing
     Exchange-correlation      = BEEF-VDW ( 1  4 27 13 2)
     nstep                     =           50

     celldm(1)=   1.889726  celldm(2)=   0.000000  celldm(3)=   0.000000
     celldm(4)=   0.000000  celldm(5)=   0.000000  celldm(6)=   0.000000

     crystal axes: (cart. coord. in units of alat)
               a(1) = (   5.450520   0.000000   0.000000 )
               a(2) = (   2.677999   4.747261   0.000000 )
               a(3) = (   0.000000   0.000000  24.462579 )

     reciprocal axes: (cart. coord. in units 2 pi/alat)
               b(1) = (  0.183469 -0.103497  0.000000 )
               b(2) = (  0.000000  0.210648  0.000000 )
               b(3) = (  0.000000  0.000000  0.040879 )

     PseudoPot. # 1 for Ni read from file:
     /afs/slac.stanford.edu/u/if/mamunm/psp/gbrv1.5pbe/Ni.UPF
     MD5 check sum: 1ee80287db30b12d2bc1f57a5b5d6409
     Pseudo is Ultrasoft + core correction, Zval = 18.0
     Generated by new atomic code, or converted to UPF format
     Using radial grid of  865 points,  6 beta functions with:
                l(1) =   0
                l(2) =   0
                l(3) =   1
                l(4) =   1
                l(5) =   2
                l(6) =   2
     Q(r) pseudized with 10 coefficients,  rinner =    0.980   0.980   0.980
                                                       0.980   0.980

     PseudoPot. # 2 for Nb read from file:
     /afs/slac.stanford.edu/u/if/mamunm/psp/gbrv1.5pbe/Nb.UPF
     MD5 check sum: 573aab8a2fa660278ed4a62cd769473f
     Pseudo is Ultrasoft + core correction, Zval = 13.0
     Generated by new atomic code, or converted to UPF format
     Using radial grid of  887 points,  6 beta functions with:
                l(1) =   0
                l(2) =   0
                l(3) =   1
                l(4) =   1
                l(5) =   2
                l(6) =   2
     Q(r) pseudized with  6 coefficients,  rinner =    1.000   1.000   1.000
                                                       1.000   1.000

     vdW kernel table read from file vdW_kernel_table
     MD5 check sum: 095c7af220d748ca6e76c0b4c6cfb241

     atomic species   valence    mass     pseudopotential
        Ni1           18.00    58.69340     Ni( 1.00)
        Nb1           13.00    92.90637     Nb( 1.00)

     Starting magnetic structure
     atomic species   magnetization
        Ni1          0.111
        Nb1          0.154

     No symmetry found

   Cartesian axes

     site n.     atom                  positions (alat units)
         1           Ni1 tau(   1) = (   0.0000000   0.0000000  10.0000000  )
         2           Ni1 tau(   2) = (   4.0642597   2.3736307  10.0000000  )
         3           Nb1 tau(   3) = (   2.7252601   0.0000000  10.0000000  )
         4           Nb1 tau(   4) = (   1.3389996   2.3736307  10.0000000  )
         5           Ni1 tau(   5) = (   5.4505202   3.1832420  12.2312894  )
         6           Ni1 tau(   6) = (   1.3862605   0.8096113  12.2312894  )
         7           Nb1 tau(   7) = (   2.7252601   3.1832420  12.2312894  )
         8           Nb1 tau(   8) = (   4.1115206   0.8096113  12.2312894  )
         9           Ni1 tau(   9) = (   2.7725210   1.6192225  14.4625787  )
        10           Ni1 tau(  10) = (   6.8367807   3.9928532  14.4625787  )
        11           Nb1 tau(  11) = (   5.4977811   1.6192225  14.4625787  )
        12           Nb1 tau(  12) = (   4.1115206   3.9928532  14.4625787  )

     number of k points=    40  Fermi-Dirac smearing, width (Ry)=  0.0110
                       cart. coord. in units 2pi/alat
        k(    1) = (   0.0000000   0.0000000   0.0000000), wk =   0.0277778
        k(    2) = (   0.0000000   0.0351080   0.0000000), wk =   0.0555556
        k(    3) = (   0.0000000   0.0702159   0.0000000), wk =   0.0555556
        k(    4) = (   0.0000000  -0.1053239   0.0000000), wk =   0.0277778
        k(    5) = (   0.0305781  -0.0172496   0.0000000), wk =   0.0555556
        k(    6) = (   0.0305781   0.0178584   0.0000000), wk =   0.0555556
        k(    7) = (   0.0305781   0.0529664   0.0000000), wk =   0.0555556
        k(    8) = (   0.0305781  -0.1225734   0.0000000), wk =   0.0555556
        k(    9) = (   0.0305781  -0.0874655   0.0000000), wk =   0.0555556
        k(   10) = (   0.0305781  -0.0523575   0.0000000), wk =   0.0555556
        k(   11) = (   0.0611562  -0.0344991   0.0000000), wk =   0.0555556
        k(   12) = (   0.0611562   0.0006088   0.0000000), wk =   0.0555556
        k(   13) = (   0.0611562   0.0357168   0.0000000), wk =   0.0555556
        k(   14) = (   0.0611562  -0.1398230   0.0000000), wk =   0.0555556
        k(   15) = (   0.0611562  -0.1047150   0.0000000), wk =   0.0555556
        k(   16) = (   0.0611562  -0.0696071   0.0000000), wk =   0.0555556
        k(   17) = (  -0.0917344   0.0517487   0.0000000), wk =   0.0277778
        k(   18) = (  -0.0917344   0.0868567   0.0000000), wk =   0.0555556
        k(   19) = (  -0.0917344   0.1219646   0.0000000), wk =   0.0555556
        k(   20) = (  -0.0917344  -0.0535752   0.0000000), wk =   0.0277778
        k(   21) = (   0.0000000   0.0000000   0.0000000), wk =   0.0277778
        k(   22) = (   0.0000000   0.0351080   0.0000000), wk =   0.0555556
        k(   23) = (   0.0000000   0.0702159   0.0000000), wk =   0.0555556
        k(   24) = (   0.0000000  -0.1053239   0.0000000), wk =   0.0277778
        k(   25) = (   0.0305781  -0.0172496   0.0000000), wk =   0.0555556
        k(   26) = (   0.0305781   0.0178584   0.0000000), wk =   0.0555556
        k(   27) = (   0.0305781   0.0529664   0.0000000), wk =   0.0555556
        k(   28) = (   0.0305781  -0.1225734   0.0000000), wk =   0.0555556
        k(   29) = (   0.0305781  -0.0874655   0.0000000), wk =   0.0555556
        k(   30) = (   0.0305781  -0.0523575   0.0000000), wk =   0.0555556
        k(   31) = (   0.0611562  -0.0344991   0.0000000), wk =   0.0555556
        k(   32) = (   0.0611562   0.0006088   0.0000000), wk =   0.0555556
        k(   33) = (   0.0611562   0.0357168   0.0000000), wk =   0.0555556
        k(   34) = (   0.0611562  -0.1398230   0.0000000), wk =   0.0555556
        k(   35) = (   0.0611562  -0.1047150   0.0000000), wk =   0.0555556
        k(   36) = (   0.0611562  -0.0696071   0.0000000), wk =   0.0555556
        k(   37) = (  -0.0917344   0.0517487   0.0000000), wk =   0.0277778
        k(   38) = (  -0.0917344   0.0868567   0.0000000), wk =   0.0555556
        k(   39) = (  -0.0917344   0.1219646   0.0000000), wk =   0.0555556
        k(   40) = (  -0.0917344  -0.0535752   0.0000000), wk =   0.0277778

     Largest allocated arrays     est. size (Mb)     dimensions
     Largest temporary arrays     est. size (Mb)     dimensions

     Check: negative/imaginary core charge=   -0.000001    0.000000

     Initial potential from superposition of free atoms
     Check: negative starting charge=(component1):   -0.002115
     Check: negative starting charge=(component2):   -0.001553

     starting charge  173.98360, renormalised to  186.00000

     negative rho (up, down):  2.261E-03 1.660E-03

     *
     * You are using vdW-DF for exchange-correlation in this calculation.
     * Please cite the following three references that made this development
     * possible:
     *
     *   M. Dion, H. Rydberg, E. Schroder, D. C. Langreth, and
     *   B. I. Lundqvist, Phys. Rev. Lett. 92, 246401 (2004).
     *
     *   T. Thonhauser, V. R. Cooper, S. Li, A. Puzder, P. Hyldgaard, and
     *   D. C. Langreth, Phys. Rev. B 76, 125112 (2007).
     *
     *   G. Roman-Perez and J. M. Soler, Phys. Rev. Lett. 103, 096102 (2009).
     *
     *
     * If you are using vdW-DF2, please also cite:
     *
     *   K. Lee, E. D. Murray, L. Kong, B. I. Lundqvist, and
     *   D. C. Langreth, Phys. Rev. B 82, 081101(R) (2010).
     *
     *
     * If you are calculating the stress with vdW-DF, please also cite:
     *
     *   R. Sabatini, E. Kucukbenli, B. Kolb, T. Thonhauser, and
     *   S. de Gironcoli, J. Phys.: Condens. Matter 24, 424209 (2012).
     *

     Carrying out vdW-DF run using the following parameters:

     Nqs =      20    Nr_points =    1024   r_max =   100.000
     q_mesh =
               0.00001000     0.04494208     0.09755937     0.15916263
               0.23128650     0.31572767     0.41458969     0.53033537
               0.66584808     0.82450364     1.01025438     1.22772762
               1.48234092     1.78043706     2.12944203     2.53805004
               3.01644009     3.57652955     4.23227104     5.00000000

     Gradients computed in reciprocal space

     Adding external electric field

     Computed dipole along edir(3) :
        Dipole               -0.0000 Ry au,         -0.0000 Debye
        Dipole field         -0.0000 Ry au

        Potential amp.        0.0000 Ry
        Total length         45.0719 bohr

[...]

     Starting wfc are  156 randomized atomic wfcs

     Self-consistent Calculation

     iteration #  1     ecut=    36.75 Ry     beta=0.10
     Davidson diagonalization with overlap
     ethr =  1.00E-02,  avg # of iterations =  7.9

[...]

     Magnetic moment per site:
     atom:    1    charge:    9.5614    magn:    1.0180    constr:    0.0000
     atom:    2    charge:    9.5614    magn:    1.0180    constr:    0.0000
     atom:    3    charge:    1.5686    magn:    0.2217    constr:    0.0000
     atom:    4    charge:    1.5686    magn:    0.2217    constr:    0.0000
     atom:    5    charge:    9.5801    magn:    1.0224    constr:    0.0000
     atom:    6    charge:    9.5801    magn:    1.0224    constr:    0.0000
[...]
                l(5) =   2
                l(6) =   2
     Q(r) pseudized with 10 coefficients,  rinner =    0.980   0.980   0.980
                                                       0.980   0.980

     PseudoPot. # 2 for Nb read from file:
     /afs/slac.stanford.edu/u/if/mamunm/psp/gbrv1.5pbe/Nb.UPF
     MD5 check sum: 573aab8a2fa660278ed4a62cd769473f
     Pseudo is Ultrasoft + core correction, Zval = 13.0
     Generated by new atomic code, or converted to UPF format
     Using radial grid of  887 points,  6 beta functions with:
                l(1) =   0
                l(2) =   0
                l(3) =   1
                l(4) =   1
                l(5) =   2
                l(6) =   2
     Q(r) pseudized with  6 coefficients,  rinner =    1.000   1.000   1.000
                                                       1.000   1.000

     vdW kernel table read from file vdW_kernel_table
     MD5 check sum: 095c7af220d748ca6e76c0b4c6cfb241

     atomic species   valence    mass     pseudopotential
        Ni1           18.00    58.69340     Ni( 1.00)
        Nb1           13.00    92.90637     Nb( 1.00)

     Starting magnetic structure
     atomic species   magnetization
        Ni1          0.111
        Nb1          0.154

     No symmetry found

   Cartesian axes

     site n.     atom                  positions (alat units)
         1           Ni1 tau(   1) = (   0.0000000   0.0000000  10.0000000  )
         2           Ni1 tau(   2) = (   4.0642597   2.3736307  10.0000000  )
         3           Nb1 tau(   3) = (   2.7252601   0.0000000  10.0000000  )
         4           Nb1 tau(   4) = (   1.3389996   2.3736307  10.0000000  )
         5           Ni1 tau(   5) = (   5.4505202   3.1832420  12.2312894  )
         6           Ni1 tau(   6) = (   1.3862605   0.8096113  12.2312894  )
         7           Nb1 tau(   7) = (   2.7252601   3.1832420  12.2312894  )
         8           Nb1 tau(   8) = (   4.1115206   0.8096113  12.2312894  )
         9           Ni1 tau(   9) = (   2.8292322   1.6523451  14.3963761  )
        10           Ni1 tau(  10) = (   6.8933673   4.0258977  14.3962476  )
        11           Nb1 tau(  11) = (   5.5800538   1.6672597  14.3756834  )
        12           Nb1 tau(  12) = (   4.1937844   4.0409111  14.3756832  )

     number of k points=    40  Fermi-Dirac smearing, width (Ry)=  0.0110
                       cart. coord. in units 2pi/alat
        k(    1) = (   0.0000000   0.0000000   0.0000000), wk =   0.0277778
        k(    2) = (   0.0000000   0.0351080   0.0000000), wk =   0.0555556
        k(    3) = (   0.0000000   0.0702159   0.0000000), wk =   0.0555556
        k(    4) = (   0.0000000  -0.1053239   0.0000000), wk =   0.0277778
        k(    5) = (   0.0305781  -0.0172496   0.0000000), wk =   0.0555556
        k(    6) = (   0.0305781   0.0178584   0.0000000), wk =   0.0555556
        k(    7) = (   0.0305781   0.0529664   0.0000000), wk =   0.0555556
        k(    8) = (   0.0305781  -0.1225734   0.0000000), wk =   0.0555556
        k(    9) = (   0.0305781  -0.0874655   0.0000000), wk =   0.0555556
        k(   10) = (   0.0305781  -0.0523575   0.0000000), wk =   0.0555556
        k(   11) = (   0.0611562  -0.0344991   0.0000000), wk =   0.0555556
        k(   12) = (   0.0611562   0.0006088   0.0000000), wk =   0.0555556
        k(   13) = (   0.0611562   0.0357168   0.0000000), wk =   0.0555556
        k(   14) = (   0.0611562  -0.1398230   0.0000000), wk =   0.0555556
        k(   15) = (   0.0611562  -0.1047150   0.0000000), wk =   0.0555556
        k(   16) = (   0.0611562  -0.0696071   0.0000000), wk =   0.0555556
        k(   17) = (  -0.0917344   0.0517487   0.0000000), wk =   0.0277778
        k(   18) = (  -0.0917344   0.0868567   0.0000000), wk =   0.0555556
        k(   19) = (  -0.0917344   0.1219646   0.0000000), wk =   0.0555556
        k(   20) = (  -0.0917344  -0.0535752   0.0000000), wk =   0.0277778
        k(   21) = (   0.0000000   0.0000000   0.0000000), wk =   0.0277778
        k(   22) = (   0.0000000   0.0351080   0.0000000), wk =   0.0555556
        k(   23) = (   0.0000000   0.0702159   0.0000000), wk =   0.0555556
        k(   24) = (   0.0000000  -0.1053239   0.0000000), wk =   0.0277778
        k(   25) = (   0.0305781  -0.0172496   0.0000000), wk =   0.0555556
        k(   26) = (   0.0305781   0.0178584   0.0000000), wk =   0.0555556
        k(   27) = (   0.0305781   0.0529664   0.0000000), wk =   0.0555556
        k(   28) = (   0.0305781  -0.1225734   0.0000000), wk =   0.0555556
        k(   29) = (   0.0305781  -0.0874655   0.0000000), wk =   0.0555556
        k(   30) = (   0.0305781  -0.0523575   0.0000000), wk =   0.0555556
        k(   31) = (   0.0611562  -0.0344991   0.0000000), wk =   0.0555556
        k(   32) = (   0.0611562   0.0006088   0.0000000), wk =   0.0555556
        k(   33) = (   0.0611562   0.0357168   0.0000000), wk =   0.0555556
        k(   34) = (   0.0611562  -0.1398230   0.0000000), wk =   0.0555556
        k(   35) = (   0.0611562  -0.1047150   0.0000000), wk =   0.0555556
        k(   36) = (   0.0611562  -0.0696071   0.0000000), wk =   0.0555556
        k(   37) = (  -0.0917344   0.0517487   0.0000000), wk =   0.0277778
        k(   38) = (  -0.0917344   0.0868567   0.0000000), wk =   0.0555556
        k(   39) = (  -0.0917344   0.1219646   0.0000000), wk =   0.0555556
        k(   40) = (  -0.0917344  -0.0535752   0.0000000), wk =   0.0277778

     Largest allocated arrays     est. size (Mb)     dimensions
     Largest temporary arrays     est. size (Mb)     dimensions

     Check: negative/imaginary core charge=   -0.000001    0.000000

     Initial potential from superposition of free atoms
     Check: negative starting charge=(component1):   -0.002151
     Check: negative starting charge=(component2):   -0.001580

     starting charge  173.98360, renormalised to  186.00000

[...]

     *
     * You are using vdW-DF for exchange-correlation in this calculation.
     * Please cite the following three references that made this development
     * possible:
     *
     *   M. Dion, H. Rydberg, E. Schroder, D. C. Langreth, and
     *   B. I. Lundqvist, Phys. Rev. Lett. 92, 246401 (2004).
     *
     *   T. Thonhauser, V. R. Cooper, S. Li, A. Puzder, P. Hyldgaard, and
     *   D. C. Langreth, Phys. Rev. B 76, 125112 (2007).
     *
     *   G. Roman-Perez and J. M. Soler, Phys. Rev. Lett. 103, 096102 (2009).
     *
     *
     * If you are using vdW-DF2, please also cite:
     *
     *   K. Lee, E. D. Murray, L. Kong, B. I. Lundqvist, and
     *   D. C. Langreth, Phys. Rev. B 82, 081101(R) (2010).
     *
     *
     * If you are calculating the stress with vdW-DF, please also cite:
     *
     *   R. Sabatini, E. Kucukbenli, B. Kolb, T. Thonhauser, and
     *   S. de Gironcoli, J. Phys.: Condens. Matter 24, 424209 (2012).
     *

     Carrying out vdW-DF run using the following parameters:

     Nqs =      20    Nr_points =    1024   r_max =   100.000
     q_mesh =
               0.00001000     0.04494208     0.09755937     0.15916263
               0.23128650     0.31572767     0.41458969     0.53033537
               0.66584808     0.82450364     1.01025438     1.22772762
               1.48234092     1.78043706     2.12944203     2.53805004
               3.01644009     3.57652955     4.23227104     5.00000000

     Gradients computed in reciprocal space

[...]

     Starting wfc are  156 randomized atomic wfcs

     Self-consistent Calculation

[...]

     total energy              =   -2777.77179053 Ry
     Harris-Foulkes estimate   =   -2777.77178719 Ry
     estimated scf accuracy    <       0.00000110 Ry

[...]

     iteration # 36     ecut=    36.75 Ry     beta=0.10
     Davidson diagonalization with overlap
     ethr =  5.91E-10,  avg # of iterations =  2.0

[...]

     negative rho (up, down):  1.849E-03 1.850E-03

[...]

     Adding external electric field

     Computed dipole along edir(3) :
        Dipole                0.0148 Ry au,          0.0375 Debye
        Dipole field          0.0000 Ry au

        Potential amp.       -0.0039 Ry
        Total length         45.0719 bohr

     Magnetic moment per site:
     atom:    1    charge:    9.3439    magn:   -0.0004    constr:    0.0000
     atom:    2    charge:    9.3439    magn:   -0.0004    constr:    0.0000
     atom:    3    charge:    1.4859    magn:   -0.0000    constr:    0.0000
     atom:    4    charge:    1.4859    magn:   -0.0000    constr:    0.0000
     atom:    5    charge:    9.3445    magn:    0.0017    constr:    0.0000
     atom:    6    charge:    9.3445    magn:    0.0017    constr:    0.0000
     atom:    7    charge:    1.4924    magn:    0.0000    constr:    0.0000
     atom:    8    charge:    1.4924    magn:    0.0000    constr:    0.0000
     atom:    9    charge:    9.3470    magn:   -0.0009    constr:    0.0000
     atom:   10    charge:    9.3469    magn:   -0.0009    constr:    0.0000
     atom:   11    charge:    1.4832    magn:    0.0000    constr:    0.0000
     atom:   12    charge:    1.4832    magn:    0.0000    constr:    0.0000

     End of self-consistent calculation

 ------ SPIN UP ------------

[...]

 ------ SPIN DOWN ----------

[...]

          k = 0.0612-0.0696 0.0000 ( 16093 PWs)   bands (ev):

[...]

          k =-0.0917-0.0536 0.0000 ( 16072 PWs)   bands (ev):

  -101.9413-101.9387-101.6439-101.6413-101.5972-101.5946 -62.3907 -62.3872
   -62.2896 -62.2714 -62.2682 -62.2519 -62.1407 -62.1374 -62.1007 -62.0975
   -61.9899 -61.9522 -61.9507 -61.9477 -61.9423 -61.9048 -61.8947 -61.8918
   -53.6773 -53.6489 -53.5232 -53.4942 -53.4435 -53.2856 -30.2116 -30.1590
   -30.0654 -30.0645 -29.8858 -29.7688 -29.7646 -29.6951 -29.6214 -29.5843
   -29.5381 -29.5132 -29.3801 -29.1135 -28.9857 -28.9630 -28.9396 -28.8568
    -3.4361  -3.2661  -2.2163  -2.1713  -2.0128  -1.9625  -1.6161  -1.4837
    -1.4393  -1.4355  -1.3419  -1.1747  -1.0536  -0.9703  -0.8784  -0.7890
    -0.7446  -0.6836  -0.5726  -0.4808  -0.4501  -0.2743  -0.2700  -0.1800
    -0.1538  -0.1482  -0.1373  -0.1174  -0.1021   0.0378   0.0581   0.0867
     0.1721   0.2299   0.2516   0.2647   0.3629   0.3852   0.4428   0.5706
     0.5864   0.6388   0.6883   0.7734   0.8361   0.9967   1.0296   1.1726
     1.2223   1.9999   2.0316   2.8091   2.8276   2.9230   3.0156   3.3515
     3.5337   3.7554   4.1160   4.1626   4.4263   4.5715   4.8402   4.9245
     4.9534   4.9939   5.7783   6.0026   6.1083   6.7915   7.0921   7.2368
     7.2466   7.6392   7.6867

     the Fermi energy is     1.5324 ev

!    total energy              =   -2777.77180671 Ry
     Harris-Foulkes estimate   =   -2777.77179068 Ry
     estimated scf accuracy    <       0.00000068 Ry

     The total energy is the sum of the following terms:

     one-electron contribution =  -21374.91854964 Ry
     hartree contribution      =   10690.94847075 Ry
     xc contribution           =    -334.91256765 Ry
     ewald contribution        =    8241.19085720 Ry
     electric field correction =       0.00000064 Ry
     smearing contrib. (-TS)   =      -0.08001800 Ry

     total magnetization       =     0.00 Bohr mag/cell
     absolute magnetization    =     0.02 Bohr mag/cell

     convergence has been achieved in  36 iterations

 BEEF-vdW xc energy contributions
           1 :   -292.464424483017
           2 :    265.585571939549
           3 :   -220.046540782580
           4 :    168.565251971330
           5 :   -123.113320542290
           6 :    90.6513960869181
           7 :   -71.7089679444357
           8 :    61.9632640299490
           9 :   -55.5556950156567
          10 :    48.2030686596427
          11 :   -38.6841518180553
          12 :    28.3494062878603
          13 :   -19.4329215313971
          14 :    13.3642326286599
          15 :   -10.0316902531961
          16 :    8.16352782507431
          17 :   -6.34233431812379
          18 :    3.87393645050133
          19 :   -1.01687518208337
          20 :   -1.44454832638780
          21 :    2.85811919217906
          22 :   -3.13140276777432
          23 :    2.68910570824539
          24 :   -2.09910200693650
          25 :    1.67954216127998
          26 :   -1.37310224725803
          27 :   0.917795183562362
          28 :  -0.147080619404164
          29 :  -0.833138689017460
          30 :    1.70238218178497
          31 :   -27.4029932782736
          32 :   -19.8233300173631

     Forces acting on atoms (Ry/au):

     negative rho (up, down):  1.849E-03 1.850E-03
     atom    1 type  1   force =    -0.00038720   -0.00022628    0.00985576
     atom    2 type  1   force =    -0.00038558   -0.00022500    0.00985555
     atom    3 type  2   force =    -0.00628488   -0.00366956    0.01437561
     atom    4 type  2   force =    -0.00628407   -0.00367100    0.01437557
     atom    5 type  1   force =     0.00333503    0.00194783   -0.01298157
     atom    6 type  1   force =     0.00330439    0.00192974   -0.01300830
     atom    7 type  2   force =     0.00293900    0.00171177   -0.01153195
     atom    8 type  2   force =     0.00293476    0.00171858   -0.01153189
     atom    9 type  1   force =     0.00024574    0.00014328    0.00142987
     atom   10 type  1   force =     0.00026404    0.00015466    0.00145790
     atom   11 type  2   force =     0.00015862    0.00009412   -0.00114825
     atom   12 type  2   force =     0.00016014    0.00009185   -0.00114829

     Total force =     0.037113     Total SCF correction =     0.002012

     entering subroutine stress ...

     negative rho (up, down):  1.849E-03 1.850E-03
          total   stress  (Ry/bohr**3)                   (kbar)     P=  -41.13
  -0.00031586  -0.00002907   0.00001189        -46.47     -4.28      1.75
  -0.00002907  -0.00028307   0.00000694         -4.28    -41.64      1.02
   0.00001189   0.00000694  -0.00023981          1.75      1.02    -35.28

 !ASE

     Writing output data file calc.save

     General routines

     Parallel routines

   This run was terminated on:   3:36:36  19Dec2018

   JOB DONE.
Job  /afs/slac/g/suncat/bin/suncat-tsmpirun -x LD_LIBRARY_PATH -wdir /scratch/qe530361_32Nj1 pw.x -in pw.inp

TID   HOST_NAME   COMMAND_LINE            STATUS            TERMINATION_TIME
00000 suncat2032 pw.x -in pw.inp   Done                     12/19/2018 03:36:36
00001 suncat2032 pw.x -in pw.inp   Done                     12/19/2018 03:36:36
00002 suncat2032 pw.x -in pw.inp   Done                     12/19/2018 03:36:36
00003 suncat2032 pw.x -in pw.inp   Done                     12/19/2018 03:36:36
00004 suncat2032 pw.x -in pw.inp   Done                     12/19/2018 03:36:36
00005 suncat2032 pw.x -in pw.inp   Done                     12/19/2018 03:36:36
00006 suncat2032 pw.x -in pw.inp   Done                     12/19/2018 03:36:36
00007 suncat2032 pw.x -in pw.inp   Done                     12/19/2018 03:36:36
00008 suncat2032 pw.x -in pw.inp   Done                     12/19/2018 03:36:36
00009 suncat2032 pw.x -in pw.inp   Done                     12/19/2018 03:36:36
00010 suncat2032 pw.x -in pw.inp   Done                     12/19/2018 03:36:36
00011 suncat2032 pw.x -in pw.inp   Done                     12/19/2018 03:36:36
00012 suncat2032 pw.x -in pw.inp   Done                     12/19/2018 03:36:36
00013 suncat2032 pw.x -in pw.inp   Done                     12/19/2018 03:36:36
00014 suncat2032 pw.x -in pw.inp   Done                     12/19/2018 03:36:36
00015 suncat2032 pw.x -in pw.inp   Done                     12/19/2018 03:36:36
00016 suncat2031 pw.x -in pw.inp   Done                     12/19/2018 03:36:36
00017 suncat2031 pw.x -in pw.inp   Done                     12/19/2018 03:36:36
00018 suncat2031 pw.x -in pw.inp   Done                     12/19/2018 03:36:36
00019 suncat2031 pw.x -in pw.inp   Done                     12/19/2018 03:36:36
00020 suncat2031 pw.x -in pw.inp   Done                     12/19/2018 03:36:36
00021 suncat2031 pw.x -in pw.inp   Done                     12/19/2018 03:36:36
00022 suncat2031 pw.x -in pw.inp   Done                     12/19/2018 03:36:36
00023 suncat2031 pw.x -in pw.inp   Done                     12/19/2018 03:36:36
00024 suncat2031 pw.x -in pw.inp   Done                     12/19/2018 03:36:36
00025 suncat2031 pw.x -in pw.inp   Done                     12/19/2018 03:36:36
00026 suncat2031 pw.x -in pw.inp   Done                     12/19/2018 03:36:36
00027 suncat2031 pw.x -in pw.inp   Done                     12/19/2018 03:36:36
00028 suncat2031 pw.x -in pw.inp   Done                     12/19/2018 03:36:36
00029 suncat2031 pw.x -in pw.inp   Done                     12/19/2018 03:36:36
00030 suncat2031 pw.x -in pw.inp   Done                     12/19/2018 03:36:36
00031 suncat2031 pw.x -in pw.inp   Done                     12/19/2018 03:36:36