     Program PWSCF v.5.1rc2 (svn rev. 11289) starts on 25Dec2018 at  4:20:54

     Current dimensions of program PWSCF are:
     Max number of different atomic species (ntypx) = 10
     Max number of k-points (npk) =  40000
     Max angular momentum in pseudopotentials (lmaxx) =  3
     Presently stress not available with electric field

     IMPORTANT: XC functional enforced from input :
     Exchange-correlation      = BEEF-VDW ( 1  4 27 13 2)
     Any further DFT definition will be discarded
     Please, verify this is what you really want

     Subspace diagonalization in iterative solution of the eigenvalue problem:
     a serial algorithm will be used

     Found symmetry operation: I + ( -0.5000 -0.5000  0.0000)
     This is a supercell, fractional translations are disabled

     bravais-lattice index     =            0
     lattice parameter (alat)  =       1.8897  a.u.
     unit-cell volume          =    4829.1864 (a.u.)^3
     number of atoms/cell      =           12
     number of atomic types    =            2
     number of electrons       =       234.00
     number of Kohn-Sham states=          147
     kinetic-energy cutoff     =      36.7493  Ry
     charge density cutoff     =     367.4932  Ry
     convergence threshold     =      1.0E-06
     mixing beta               =       0.1000
     number of iterations used =           10  plain     mixing
     Exchange-correlation      = BEEF-VDW ( 1  4 27 13 2)
     nstep                     =           50

     celldm(1)=   1.889726  celldm(2)=   0.000000  celldm(3)=   0.000000
     celldm(4)=   0.000000  celldm(5)=   0.000000  celldm(6)=   0.000000

     crystal axes: (cart. coord. in units of alat)
               a(1) = (   5.583832   0.000000   0.000000 )
               a(2) = (   2.007434   5.210508   0.000000 )
               a(3) = (   0.000000   0.000000  24.596028 )

     reciprocal axes: (cart. coord. in units 2 pi/alat)
               b(1) = (  0.179088 -0.068997  0.000000 )
               b(2) = (  0.000000  0.191920  0.000000 )
               b(3) = (  0.000000  0.000000  0.040657 )

     PseudoPot. # 1 for Zn read from file:
     /afs/slac.stanford.edu/u/if/mamunm/psp/gbrv1.5pbe/Zn.UPF
     MD5 check sum: df62231357ef9e81f77b2b3087fa5675
     Pseudo is Ultrasoft, Zval = 20.0
     Generated by new atomic code, or converted to UPF format
     Using radial grid of  943 points,  6 beta functions with:
                l(1) =   0
                l(2) =   0
                l(3) =   1
                l(4) =   1
                l(5) =   2
                l(6) =   2
     Q(r) pseudized with  8 coefficients,  rinner =    1.100   1.100   1.100
                                                       1.100   1.100

     PseudoPot. # 2 for Ag read from file:
     /afs/slac.stanford.edu/u/if/mamunm/psp/gbrv1.5pbe/Ag.UPF
     MD5 check sum: d66d668201baa78d5eb5b04ef7011058
     Pseudo is Ultrasoft + core correction, Zval = 19.0
     Generated by new atomic code, or converted to UPF format
     Using radial grid of  887 points,  6 beta functions with:
                l(1) =   0
                l(2) =   0
                l(3) =   1
                l(4) =   1
                l(5) =   2
                l(6) =   2
     Q(r) pseudized with  6 coefficients,  rinner =    1.300   1.300   1.300
                                                       1.300   1.300

     vdW kernel table read from file vdW_kernel_table
     MD5 check sum: 095c7af220d748ca6e76c0b4c6cfb241

     atomic species   valence    mass     pseudopotential
        Zn1           20.00    65.38000     Zn( 1.00)
        Ag1           19.00   107.86820     Ag( 1.00)

     No symmetry found

   Cartesian axes

     site n.     atom                  positions (alat units)
         1           Zn1 tau(   1) = (   0.0000000   0.0000000  10.0000000  )
         2           Zn1 tau(   2) = (   3.7956330   2.6052538  10.0000000  )
         3           Ag1 tau(   3) = (   2.7919161   0.0000000  10.0000000  )
         4           Ag1 tau(   4) = (   1.0037169   2.6052538  10.0000000  )
         5           Zn1 tau(   5) = (   5.5838321   3.8326414  12.2980138  )
         6           Zn1 tau(   6) = (   1.7881991   1.2273875  12.2980138  )
         7           Ag1 tau(   7) = (   2.7919161   3.8326414  12.2980138  )
         8           Ag1 tau(   8) = (   4.5801152   1.2273875  12.2980138  )
         9           Zn1 tau(   9) = (   3.5763982   2.4547751  14.5960276  )
        10           Zn1 tau(  10) = (   7.3720312   5.0600289  14.5960276  )
        11           Ag1 tau(  11) = (   6.3683143   2.4547751  14.5960276  )
        12           Ag1 tau(  12) = (   4.5801152   5.0600289  14.5960276  )

     number of k points=    20  Fermi-Dirac smearing, width (Ry)=  0.0110
                       cart. coord. in units 2pi/alat
        k(    1) = (   0.0000000   0.0000000   0.0000000), wk =   0.0555556
        k(    2) = (   0.0000000   0.0319866   0.0000000), wk =   0.1111111
        k(    3) = (   0.0000000   0.0639733   0.0000000), wk =   0.1111111
        k(    4) = (   0.0000000  -0.0959599   0.0000000), wk =   0.0555556
        k(    5) = (   0.0298481  -0.0114995   0.0000000), wk =   0.1111111
        k(    6) = (   0.0298481   0.0204872   0.0000000), wk =   0.1111111
        k(    7) = (   0.0298481   0.0524738   0.0000000), wk =   0.1111111
        k(    8) = (   0.0298481  -0.1074594   0.0000000), wk =   0.1111111
        k(    9) = (   0.0298481  -0.0754728   0.0000000), wk =   0.1111111
        k(   10) = (   0.0298481  -0.0434861   0.0000000), wk =   0.1111111
        k(   11) = (   0.0596962  -0.0229989   0.0000000), wk =   0.1111111
        k(   12) = (   0.0596962   0.0089877   0.0000000), wk =   0.1111111
        k(   13) = (   0.0596962   0.0409744   0.0000000), wk =   0.1111111
        k(   14) = (   0.0596962  -0.1189589   0.0000000), wk =   0.1111111
        k(   15) = (   0.0596962  -0.0869722   0.0000000), wk =   0.1111111
        k(   16) = (   0.0596962  -0.0549856   0.0000000), wk =   0.1111111
        k(   17) = (  -0.0895442   0.0344984   0.0000000), wk =   0.0555556
        k(   18) = (  -0.0895442   0.0664850   0.0000000), wk =   0.1111111
        k(   19) = (  -0.0895442   0.0984717   0.0000000), wk =   0.1111111
        k(   20) = (  -0.0895442  -0.0614615   0.0000000), wk =   0.0555556

     Largest allocated arrays     est. size (Mb)     dimensions
     Largest temporary arrays     est. size (Mb)     dimensions

     Initial potential from superposition of free atoms
     Check: negative starting charge=   -0.001673

     starting charge  230.99887, renormalised to  234.00000

     negative rho (up, down):  1.694E-03 0.000E+00

     *
     * You are using vdW-DF for exchange-correlation in this calculation.
     * Please cite the following three references that made this development
     * possible:
     *
     *   M. Dion, H. Rydberg, E. Schroder, D. C. Langreth, and
     *   B. I. Lundqvist, Phys. Rev. Lett. 92, 246401 (2004).
     *
     *   T. Thonhauser, V. R. Cooper, S. Li, A. Puzder, P. Hyldgaard, and
     *   D. C. Langreth, Phys. Rev. B 76, 125112 (2007).
     *
     *   G. Roman-Perez and J. M. Soler, Phys. Rev. Lett. 103, 096102 (2009).
     *
     *
     * If you are using vdW-DF2, please also cite:
     *
     *   K. Lee, E. D. Murray, L. Kong, B. I. Lundqvist, and
     *   D. C. Langreth, Phys. Rev. B 82, 081101(R) (2010).
     *
     *
     * If you are calculating the stress with vdW-DF, please also cite:
     *
     *   R. Sabatini, E. Kucukbenli, B. Kolb, T. Thonhauser, and
     *   S. de Gironcoli, J. Phys.: Condens. Matter 24, 424209 (2012).
     *

     Carrying out vdW-DF run using the following parameters:

     Nqs =      20    Nr_points =    1024   r_max =   100.000
     q_mesh =
               0.00001000     0.04494208     0.09755937     0.15916263
               0.23128650     0.31572767     0.41458969     0.53033537
               0.66584808     0.82450364     1.01025438     1.22772762
               1.48234092     1.78043706     2.12944203     2.53805004
               3.01644009     3.57652955     4.23227104     5.00000000

     Gradients computed in reciprocal space

     Adding external electric field

     Computed dipole along edir(3) :
        Dipole                0.0000 Ry au,          0.0000 Debye
        Dipole field          0.0000 Ry au

        Potential amp.       -0.0000 Ry
        Total length         45.3178 bohr

     Starting wfc are  156 randomized atomic wfcs

     Self-consistent Calculation

     iteration #  1     ecut=    36.75 Ry     beta=0.10
     Davidson diagonalization with overlap
     ethr =  1.00E-02,  avg # of iterations =  7.3

[...]

     total energy              =   -4556.90832939 Ry
     Harris-Foulkes estimate   =   -4557.98023258 Ry
     estimated scf accuracy    <       6.29778084 Ry

[...]

     End of self-consistent calculation

          k = 0.0000 0.0000 0.0000 ( 18175 PWs)   bands (ev):

  -125.8114-125.8114-125.5501-125.5501-125.5500-125.5500 -91.9170 -91.9156
   -91.5090 -91.5090 -91.5076 -91.5076 -79.9946 -79.9933 -79.9931 -79.9931
   -79.9926 -79.9925 -79.7495 -79.7494 -79.7493 -79.7493 -79.7263 -79.7263
   -79.7250 -79.7249 -79.7216 -79.7216 -79.7215 -79.7215 -55.4315 -55.4066
   -55.4042 -55.4033 -55.3945 -55.3922 -55.0280 -55.0279 -55.0256 -55.0254
   -55.0120 -55.0120 -54.9841 -54.9841 -54.9622 -54.9620 -54.9600 -54.9597
    -7.4811  -7.0658  -7.0597  -6.9935  -6.9759  -6.9474  -6.9231  -6.9058
    -6.8026  -6.7973  -6.7844  -6.7480  -6.7266  -6.7258  -6.7221  -6.6584
    -6.6415  -6.6135  -6.5944  -6.5719  -6.5383  -6.5146  -6.4937  -6.4838
    -6.4750  -6.4284  -6.3970  -6.3847  -6.3749  -6.3373  -6.2769  -5.5849
    -5.2229  -5.1984  -5.0806  -4.6569  -4.6259  -4.3792  -4.2330  -4.1881
    -4.1651  -4.0963  -4.0795  -3.8808  -3.8561  -3.8204  -3.8063  -3.7716
    -3.7035  -3.6990  -3.6273  -3.5637  -3.5546  -3.4293  -3.4106  -3.3145
    -3.3006  -3.2875  -3.2796  -3.2687  -3.2257  -2.9967  -1.5764  -0.7362
    -0.4036  -0.1839  -0.0131   0.2556   0.2971   0.4754   0.5424   1.6755
     2.1487   2.6369   2.7548   3.1207   3.4097   4.0067   4.0972   4.3296
     4.5677   4.7750   4.9159   5.1301   5.8469   6.0936   6.0956   6.3748
     7.1822   7.1986   7.4976   7.7866   7.9835   8.0355   8.2935   8.4328
     9.3161   9.4216   9.5349

[...]

          k =-0.0895 0.0345 0.0000 ( 18156 PWs)   bands (ev):

[...]

     the Fermi energy is     0.8661 ev

!    total energy              =   -4556.53475403 Ry
     Harris-Foulkes estimate   =   -4556.53475308 Ry
     estimated scf accuracy    <       0.00000007 Ry

     The total energy is the sum of the following terms:

     one-electron contribution =  -30477.86638034 Ry
     hartree contribution      =   15221.94113156 Ry
     xc contribution           =    -440.87199987 Ry
     ewald contribution        =   11140.28847478 Ry
     electric field correction =       0.00000000 Ry
     smearing contrib. (-TS)   =      -0.02598015 Ry

     convergence has been achieved in  14 iterations

 BEEF-vdW xc energy contributions
           1 :   -387.867393688610
           2 :    351.547032855623
           3 :   -290.688286986293
[...]
                l(1) =   0
                l(2) =   0
                l(3) =   1
                l(4) =   1
                l(5) =   2
                l(6) =   2
     Q(r) pseudized with  8 coefficients,  rinner =    1.100   1.100   1.100
                                                       1.100   1.100

     PseudoPot. # 2 for Ag read from file:
     /afs/slac.stanford.edu/u/if/mamunm/psp/gbrv1.5pbe/Ag.UPF
     MD5 check sum: d66d668201baa78d5eb5b04ef7011058
     Pseudo is Ultrasoft + core correction, Zval = 19.0
     Generated by new atomic code, or converted to UPF format
     Using radial grid of  887 points,  6 beta functions with:
                l(1) =   0
                l(2) =   0
                l(3) =   1
                l(4) =   1
                l(5) =   2
                l(6) =   2
     Q(r) pseudized with  6 coefficients,  rinner =    1.300   1.300   1.300
                                                       1.300   1.300

     vdW kernel table read from file vdW_kernel_table
     MD5 check sum: 095c7af220d748ca6e76c0b4c6cfb241

     atomic species   valence    mass     pseudopotential
        Zn1           20.00    65.38000     Zn( 1.00)
        Ag1           19.00   107.86820     Ag( 1.00)

     No symmetry found

   Cartesian axes

     site n.     atom                  positions (alat units)
         1           Zn1 tau(   1) = (   0.0000000   0.0000000  10.0000000  )
         2           Zn1 tau(   2) = (   3.7956330   2.6052538  10.0000000  )
         3           Ag1 tau(   3) = (   2.7919161   0.0000000  10.0000000  )
         4           Ag1 tau(   4) = (   1.0037169   2.6052538  10.0000000  )
         5           Zn1 tau(   5) = (   5.5838321   3.8326414  12.2980138  )
         6           Zn1 tau(   6) = (   1.7881991   1.2273875  12.2980138  )
         7           Ag1 tau(   7) = (   2.7919161   3.8326414  12.2980138  )
         8           Ag1 tau(   8) = (   4.5801152   1.2273875  12.2980138  )
         9           Zn1 tau(   9) = (   3.5760007   2.4544903  14.7845929  )
        10           Zn1 tau(  10) = (   7.3716474   5.0597748  14.7845915  )
        11           Ag1 tau(  11) = (   6.3736427   2.4584310  14.6901113  )
        12           Ag1 tau(  12) = (   4.5854402   5.0636847  14.6901103  )

     number of k points=    20  Fermi-Dirac smearing, width (Ry)=  0.0110
                       cart. coord. in units 2pi/alat
        k(    1) = (   0.0000000   0.0000000   0.0000000), wk =   0.0555556
        k(    2) = (   0.0000000   0.0319866   0.0000000), wk =   0.1111111
        k(    3) = (   0.0000000   0.0639733   0.0000000), wk =   0.1111111
        k(    4) = (   0.0000000  -0.0959599   0.0000000), wk =   0.0555556
        k(    5) = (   0.0298481  -0.0114995   0.0000000), wk =   0.1111111
        k(    6) = (   0.0298481   0.0204872   0.0000000), wk =   0.1111111
        k(    7) = (   0.0298481   0.0524738   0.0000000), wk =   0.1111111
        k(    8) = (   0.0298481  -0.1074594   0.0000000), wk =   0.1111111
        k(    9) = (   0.0298481  -0.0754728   0.0000000), wk =   0.1111111
        k(   10) = (   0.0298481  -0.0434861   0.0000000), wk =   0.1111111
        k(   11) = (   0.0596962  -0.0229989   0.0000000), wk =   0.1111111
        k(   12) = (   0.0596962   0.0089877   0.0000000), wk =   0.1111111
        k(   13) = (   0.0596962   0.0409744   0.0000000), wk =   0.1111111
        k(   14) = (   0.0596962  -0.1189589   0.0000000), wk =   0.1111111
        k(   15) = (   0.0596962  -0.0869722   0.0000000), wk =   0.1111111
        k(   16) = (   0.0596962  -0.0549856   0.0000000), wk =   0.1111111
        k(   17) = (  -0.0895442   0.0344984   0.0000000), wk =   0.0555556
        k(   18) = (  -0.0895442   0.0664850   0.0000000), wk =   0.1111111
        k(   19) = (  -0.0895442   0.0984717   0.0000000), wk =   0.1111111
        k(   20) = (  -0.0895442  -0.0614615   0.0000000), wk =   0.0555556

     Largest allocated arrays     est. size (Mb)     dimensions
     Largest temporary arrays     est. size (Mb)     dimensions

     Initial potential from superposition of free atoms
     Check: negative starting charge=   -0.001643

     starting charge  230.99887, renormalised to  234.00000

[...]

     *
     * You are using vdW-DF for exchange-correlation in this calculation.
     * Please cite the following three references that made this development
     * possible:
     *
     *   M. Dion, H. Rydberg, E. Schroder, D. C. Langreth, and
     *   B. I. Lundqvist, Phys. Rev. Lett. 92, 246401 (2004).
     *
     *   T. Thonhauser, V. R. Cooper, S. Li, A. Puzder, P. Hyldgaard, and
     *   D. C. Langreth, Phys. Rev. B 76, 125112 (2007).
     *
     *   G. Roman-Perez and J. M. Soler, Phys. Rev. Lett. 103, 096102 (2009).
     *
     *
     * If you are using vdW-DF2, please also cite:
     *
     *   K. Lee, E. D. Murray, L. Kong, B. I. Lundqvist, and
     *   D. C. Langreth, Phys. Rev. B 82, 081101(R) (2010).
     *
     *
     * If you are calculating the stress with vdW-DF, please also cite:
     *
     *   R. Sabatini, E. Kucukbenli, B. Kolb, T. Thonhauser, and
     *   S. de Gironcoli, J. Phys.: Condens. Matter 24, 424209 (2012).
     *

     Carrying out vdW-DF run using the following parameters:

     Nqs =      20    Nr_points =    1024   r_max =   100.000
     q_mesh =
               0.00001000     0.04494208     0.09755937     0.15916263
               0.23128650     0.31572767     0.41458969     0.53033537
               0.66584808     0.82450364     1.01025438     1.22772762
               1.48234092     1.78043706     2.12944203     2.53805004
               3.01644009     3.57652955     4.23227104     5.00000000

     Gradients computed in reciprocal space

[...]

     Starting wfc are  156 randomized atomic wfcs

     Self-consistent Calculation

[...]

     total energy              =   -4556.53950400 Ry
     Harris-Foulkes estimate   =   -4556.53950495 Ry
     estimated scf accuracy    <       0.00000445 Ry

     iteration # 14     ecut=    36.75 Ry     beta=0.10
     Davidson diagonalization with overlap
     ethr =  1.90E-09,  avg # of iterations =  2.0

[...]

     negative rho (up, down):  1.684E-03 0.000E+00

     Adding external electric field

     Computed dipole along edir(3) :
        Dipole                0.0068 Ry au,          0.0174 Debye
        Dipole field          0.0000 Ry au

        Potential amp.       -0.0016 Ry
        Total length         45.3178 bohr

     End of self-consistent calculation

[...]

          k = 0.0597-0.0550 0.0000 ( 18126 PWs)   bands (ev):

[...]

          k =-0.0895-0.0615 0.0000 ( 18252 PWs)   bands (ev):

  -125.7542-125.7541-125.5448-125.5447-125.4685-125.4685 -91.8074 -91.8060
   -91.5046 -91.5031 -91.4263 -91.4249 -79.9376 -79.9363 -79.9361 -79.9361
   -79.9350 -79.9348 -79.7434 -79.7433 -79.7216 -79.7202 -79.7169 -79.7167
   -79.6682 -79.6681 -79.6450 -79.6436 -79.6405 -79.6403 -55.3204 -55.3051
   -55.3029 -55.2921 -55.2767 -55.2743 -55.0236 -55.0215 -55.0089 -54.9808
   -54.9569 -54.9547 -54.9512 -54.9491 -54.9295 -54.9014 -54.8718 -54.8696
    -6.8955  -6.8575  -6.8046  -6.7643  -6.7609  -6.7436  -6.7128  -6.6565
    -6.6331  -6.6297  -6.6109  -6.5994  -6.5497  -6.5485  -6.5482  -6.5273
    -6.4941  -6.4686  -6.4564  -6.4279  -6.4166  -6.4030  -6.3938  -6.3843
    -6.3659  -6.3129  -6.3016  -6.2902  -6.2832  -6.2219  -5.5323  -5.3521
    -4.9144  -4.7862  -4.6829  -4.6635  -4.6099  -4.5078  -4.4390  -4.3731
    -4.2781  -4.2633  -4.2548  -4.2509  -4.1481  -3.9999  -3.9327  -3.8995
    -3.8815  -3.7973  -3.7867  -3.6907  -3.6667  -3.5822  -3.5116  -3.5072
    -3.4853  -3.4064  -3.3106  -3.2288  -3.2196  -3.1936  -3.0076  -2.6908
    -1.8354  -1.1718  -0.9941  -0.0886  -0.0212   0.0610   1.0843   2.3808
     2.7366   2.9283   4.3936   4.8742   5.2642   5.3374   5.6449   5.8752
     5.8873   6.3795   6.4647   6.4825   6.5033   6.8178   6.8662   7.1158
     7.2004   7.6970   7.7374   7.8023   7.8148   7.8724   7.9250   7.9792
     8.4840   8.5475   8.5958

     the Fermi energy is     0.8725 ev

!    total energy              =   -4556.53950547 Ry
     Harris-Foulkes estimate   =   -4556.53950474 Ry
     estimated scf accuracy    <       0.00000006 Ry

     The total energy is the sum of the following terms:

     one-electron contribution =  -29915.76934716 Ry
     hartree contribution      =   14941.35424325 Ry
     xc contribution           =    -440.79658642 Ry
     ewald contribution        =   10858.69617515 Ry
     electric field correction =       0.00000012 Ry
     smearing contrib. (-TS)   =      -0.02399042 Ry

     convergence has been achieved in  14 iterations

 BEEF-vdW xc energy contributions
           1 :   -387.778870535477
           2 :    351.376876859937
           3 :   -290.421074489275
           4 :    222.876505207238
           5 :   -164.852584468893
           6 :    124.616037439958
           7 :   -101.274833514792
           8 :    87.9993435887243
           9 :   -77.2805542907109
          10 :    65.0230947167514
          11 :   -51.5195873476774
          12 :    39.5297813569402
          13 :   -31.3768982070717
          14 :    27.1579392356800
          15 :   -24.9928994191021
          16 :    22.6732366925238
          17 :   -19.2430495986930
          18 :    15.3715408800215
          19 :   -12.4547195235910
          20 :    11.3185821669758
          21 :   -11.5601706778571
          22 :    11.9353805888957
          23 :   -11.3644672400187
          24 :    9.71279076813039
          25 :   -7.78019165272872
          26 :    6.59361927690293
          27 :   -6.61274517938574
          28 :    7.45053487908348
          29 :   -8.25679200930892
          30 :    8.39635810695569
          31 :   -33.4223041216321
          32 :   -23.5006223967208

     Forces acting on atoms (Ry/au):

     negative rho (up, down):  1.684E-03 0.000E+00
     atom    1 type  1   force =     0.00024192    0.00016898   -0.01074419
     atom    2 type  1   force =     0.00024660    0.00016618   -0.01074548
     atom    3 type  2   force =    -0.00045086   -0.00031000   -0.00614974
     atom    4 type  2   force =    -0.00045235   -0.00030985   -0.00615010
     atom    5 type  1   force =    -0.00014152   -0.00009617    0.00651569
     atom    6 type  1   force =    -0.00014085   -0.00009758    0.00651662
     atom    7 type  2   force =     0.00008250    0.00005695    0.00958781
     atom    8 type  2   force =     0.00008254    0.00005651    0.00958646
     atom    9 type  1   force =     0.00063166    0.00043382    0.00134464
     atom   10 type  1   force =     0.00062903    0.00043137    0.00134475
     atom   11 type  2   force =    -0.00036452   -0.00024875   -0.00055320
     atom   12 type  2   force =    -0.00036416   -0.00025147   -0.00055325

     Total force =     0.024123     Total SCF correction =     0.002375

     entering subroutine stress ...

     negative rho (up, down):  1.684E-03 0.000E+00
          total   stress  (Ry/bohr**3)                   (kbar)     P=  -11.92
  -0.00011302   0.00001525   0.00000036        -16.63      2.24      0.05
   0.00001525  -0.00012478   0.00000025          2.24    -18.36      0.04
   0.00000036   0.00000025  -0.00000520          0.05      0.04     -0.76

 !ASE

     Writing output data file calc.save

     General routines

     Parallel routines

   This run was terminated on:   5:41:27  25Dec2018

   JOB DONE.
Job  /afs/slac/g/suncat/bin/suncat-tsmpirun -x LD_LIBRARY_PATH -wdir /scratch/qe109201_KdGBW pw.x -in pw.inp

TID   HOST_NAME   COMMAND_LINE            STATUS            TERMINATION_TIME
00000 suncat0050 pw.x -in pw.inp   Done                     12/25/2018 05:41:27
00001 suncat0050 pw.x -in pw.inp   Done                     12/25/2018 05:41:27
00002 suncat0050 pw.x -in pw.inp   Done                     12/25/2018 05:41:27
00003 suncat0050 pw.x -in pw.inp   Done                     12/25/2018 05:41:27
00004 suncat0050 pw.x -in pw.inp   Done                     12/25/2018 05:41:27
00005 suncat0050 pw.x -in pw.inp   Done                     12/25/2018 05:41:27
00006 suncat0050 pw.x -in pw.inp   Done                     12/25/2018 05:41:27
00007 suncat0050 pw.x -in pw.inp   Done                     12/25/2018 05:41:27
00008 suncat0049 pw.x -in pw.inp   Done                     12/25/2018 05:41:27
00009 suncat0049 pw.x -in pw.inp   Done                     12/25/2018 05:41:27
00010 suncat0049 pw.x -in pw.inp   Done                     12/25/2018 05:41:27
00011 suncat0049 pw.x -in pw.inp   Done                     12/25/2018 05:41:27
00012 suncat0049 pw.x -in pw.inp   Done                     12/25/2018 05:41:27
00013 suncat0049 pw.x -in pw.inp   Done                     12/25/2018 05:41:27
00014 suncat0049 pw.x -in pw.inp   Done                     12/25/2018 05:41:27
00015 suncat0049 pw.x -in pw.inp   Done                     12/25/2018 05:41:27
00016 suncat0031 pw.x -in pw.inp   Done                     12/25/2018 05:41:27
00017 suncat0031 pw.x -in pw.inp   Done                     12/25/2018 05:41:27
00018 suncat0031 pw.x -in pw.inp   Done                     12/25/2018 05:41:27
00019 suncat0031 pw.x -in pw.inp   Done                     12/25/2018 05:41:27
00020 suncat0031 pw.x -in pw.inp   Done                     12/25/2018 05:41:27
00021 suncat0031 pw.x -in pw.inp   Done                     12/25/2018 05:41:27
00022 suncat0031 pw.x -in pw.inp   Done                     12/25/2018 05:41:27
00023 suncat0031 pw.x -in pw.inp   Done                     12/25/2018 05:41:27
00024 suncat0030 pw.x -in pw.inp   Done                     12/25/2018 05:41:27
00025 suncat0030 pw.x -in pw.inp   Done                     12/25/2018 05:41:27
00026 suncat0030 pw.x -in pw.inp   Done                     12/25/2018 05:41:27
00027 suncat0030 pw.x -in pw.inp   Done                     12/25/2018 05:41:27
00028 suncat0030 pw.x -in pw.inp   Done                     12/25/2018 05:41:27
00029 suncat0030 pw.x -in pw.inp   Done                     12/25/2018 05:41:27
00030 suncat0030 pw.x -in pw.inp   Done                     12/25/2018 05:41:27
00031 suncat0030 pw.x -in pw.inp   Done                     12/25/2018 05:41:27
00032 suncat0280 pw.x -in pw.inp   Done                     12/25/2018 05:41:27
00033 suncat0280 pw.x -in pw.inp   Done                     12/25/2018 05:41:27
00034 suncat0280 pw.x -in pw.inp   Done                     12/25/2018 05:41:27
00035 suncat0280 pw.x -in pw.inp   Done                     12/25/2018 05:41:27
00036 suncat0280 pw.x -in pw.inp   Done                     12/25/2018 05:41:27
00037 suncat0280 pw.x -in pw.inp   Done                     12/25/2018 05:41:27
00038 suncat0280 pw.x -in pw.inp   Done                     12/25/2018 05:41:27
00039 suncat0280 pw.x -in pw.inp   Done                     12/25/2018 05:41:27
00040 suncat0279 pw.x -in pw.inp   Done                     12/25/2018 05:41:27
00041 suncat0279 pw.x -in pw.inp   Done                     12/25/2018 05:41:27
00042 suncat0279 pw.x -in pw.inp   Done                     12/25/2018 05:41:27
00043 suncat0279 pw.x -in pw.inp   Done                     12/25/2018 05:41:27
00044 suncat0279 pw.x -in pw.inp   Done                     12/25/2018 05:41:27
00045 suncat0279 pw.x -in pw.inp   Done                     12/25/2018 05:41:27
00046 suncat0279 pw.x -in pw.inp   Done                     12/25/2018 05:41:27
00047 suncat0279 pw.x -in pw.inp   Done                     12/25/2018 05:41:27
00048 suncat0278 pw.x -in pw.inp   Done                     12/25/2018 05:41:27
00049 suncat0278 pw.x -in pw.inp   Done                     12/25/2018 05:41:27
00050 suncat0278 pw.x -in pw.inp   Done                     12/25/2018 05:41:27
00051 suncat0278 pw.x -in pw.inp   Done                     12/25/2018 05:41:27
00052 suncat0278 pw.x -in pw.inp   Done                     12/25/2018 05:41:27
00053 suncat0278 pw.x -in pw.inp   Done                     12/25/2018 05:41:27
00054 suncat0278 pw.x -in pw.inp   Done                     12/25/2018 05:41:27
00055 suncat0278 pw.x -in pw.inp   Done                     12/25/2018 05:41:27
00056 suncat0099 pw.x -in pw.inp   Done                     12/25/2018 05:41:27
00057 suncat0099 pw.x -in pw.inp   Done                     12/25/2018 05:41:27
00058 suncat0099 pw.x -in pw.inp   Done                     12/25/2018 05:41:27
00059 suncat0099 pw.x -in pw.inp   Done                     12/25/2018 05:41:27
00060 suncat0099 pw.x -in pw.inp   Done                     12/25/2018 05:41:27
00061 suncat0099 pw.x -in pw.inp   Done                     12/25/2018 05:41:27
00062 suncat0099 pw.x -in pw.inp   Done                     12/25/2018 05:41:27
00063 suncat0099 pw.x -in pw.inp   Done                     12/25/2018 05:41:27