     Program PWSCF v.5.1rc2 (svn rev. 11289) starts on 29Dec2018 at 22: 4:49

     Current dimensions of program PWSCF are:
     Max number of different atomic species (ntypx) = 10
     Max number of k-points (npk) =  40000
     Max angular momentum in pseudopotentials (lmaxx) =  3
     Presently stress not available with electric field

     IMPORTANT: XC functional enforced from input :
     Exchange-correlation      = BEEF-VDW ( 1  4 27 13 2)
     Any further DFT definition will be discarded
     Please, verify this is what you really want

     Subspace diagonalization in iterative solution of the eigenvalue problem:
     a serial algorithm will be used

     Found symmetry operation: I + (  0.5000 -0.5000  0.0000)
     This is a supercell, fractional translations are disabled

     bravais-lattice index     =            0
     lattice parameter (alat)  =       1.8897  a.u.
     unit-cell volume          =    4734.1244 (a.u.)^3
     number of atoms/cell      =           12
     number of atomic types    =            2
     number of electrons       =       168.00
     number of Kohn-Sham states=          114
     kinetic-energy cutoff     =      36.7493  Ry
     charge density cutoff     =     367.4932  Ry
     convergence threshold     =      1.0E-06
     mixing beta               =       0.1000
     number of iterations used =           10  plain     mixing
     Exchange-correlation      = BEEF-VDW ( 1  4 27 13 2)
     nstep                     =           50

     celldm(1)=   1.889726  celldm(2)=   0.000000  celldm(3)=   0.000000
     celldm(4)=   0.000000  celldm(5)=   0.000000  celldm(6)=   0.000000

     crystal axes: (cart. coord. in units of alat)
               a(1) = (   5.506925   0.000000   0.000000 )
               a(2) = (   1.806082   5.202335   0.000000 )
               a(3) = (   0.000000   0.000000  24.486996 )

     reciprocal axes: (cart. coord. in units 2 pi/alat)
               b(1) = (  0.181590 -0.063042  0.000000 )
               b(2) = (  0.000000  0.192221  0.000000 )
               b(3) = (  0.000000  0.000000  0.040838 )

     PseudoPot. # 1 for Tc read from file:
     /afs/slac.stanford.edu/u/if/mamunm/psp/gbrv1.5pbe/Tc.UPF
     MD5 check sum: 9eb49e5b028550b2339a02317eb7b844
     Pseudo is Ultrasoft + core correction, Zval = 15.0
     Generated by new atomic code, or converted to UPF format
     Using radial grid of  965 points,  6 beta functions with:
                l(1) =   0
                l(2) =   0
                l(3) =   1
                l(4) =   1
                l(5) =   2
                l(6) =   2
     Q(r) pseudized with  8 coefficients,  rinner =    1.300   1.300   1.300
                                                       1.300   1.300

     PseudoPot. # 2 for Ta read from file:
     /afs/slac.stanford.edu/u/if/mamunm/psp/gbrv1.5pbe/Ta.UPF
     MD5 check sum: f8bbe9446314a3b8ea5d9f3e3836c939
     Pseudo is Ultrasoft + core correction, Zval = 13.0
     Generated by new atomic code, or converted to UPF format
     Using radial grid of  921 points,  7 beta functions with:
                l(1) =   0
                l(2) =   0
                l(3) =   1
                l(4) =   1
                l(5) =   2
                l(6) =   2
                l(7) =   3
     Q(r) pseudized with  6 coefficients,  rinner =    1.300   1.300   1.300
                                                       1.300   1.300   1.300
                                                       1.300

     vdW kernel table read from file vdW_kernel_table
     MD5 check sum: 095c7af220d748ca6e76c0b4c6cfb241

     atomic species   valence    mass     pseudopotential
        Tc1           15.00    97.90721     Tc( 1.00)
        Ta1           13.00   180.94788     Ta( 1.00)

     No symmetry found

   Cartesian axes

     site n.     atom                  positions (alat units)
         1           Tc1 tau(   1) = (   0.0000000   0.0000000  10.0000000  )
         2           Tc1 tau(   2) = (   3.6565039   2.6011677  10.0000000  )
         3           Ta1 tau(   3) = (   2.7534627   0.0000000  10.0000000  )
         4           Ta1 tau(   4) = (   0.9030412   2.6011677  10.0000000  )
         5           Tc1 tau(   5) = (   5.5069255   3.9175227  12.2434980  )
         6           Tc1 tau(   6) = (   1.8504216   1.3163549  12.2434980  )
         7           Ta1 tau(   7) = (   2.7534627   3.9175227  12.2434980  )
         8           Ta1 tau(   8) = (   4.6038843   1.3163549  12.2434980  )
         9           Tc1 tau(   9) = (   3.7008431   2.6327098  14.4869960  )
        10           Tc1 tau(  10) = (   0.0443392   0.0315421  14.4869960  )
        11           Ta1 tau(  11) = (   0.9473804   2.6327098  14.4869960  )
        12           Ta1 tau(  12) = (   2.7978019   0.0315421  14.4869960  )

     number of k points=    20  Fermi-Dirac smearing, width (Ry)=  0.0110
                       cart. coord. in units 2pi/alat
        k(    1) = (   0.0000000   0.0000000   0.0000000), wk =   0.0555556
        k(    2) = (   0.0000000   0.0320369   0.0000000), wk =   0.1111111
        k(    3) = (   0.0000000   0.0640738   0.0000000), wk =   0.1111111
        k(    4) = (   0.0000000  -0.0961107   0.0000000), wk =   0.0555556
        k(    5) = (   0.0302649  -0.0105070   0.0000000), wk =   0.1111111
        k(    6) = (   0.0302649   0.0215299   0.0000000), wk =   0.1111111
        k(    7) = (   0.0302649   0.0535668   0.0000000), wk =   0.1111111
        k(    8) = (   0.0302649  -0.1066177   0.0000000), wk =   0.1111111
        k(    9) = (   0.0302649  -0.0745808   0.0000000), wk =   0.1111111
        k(   10) = (   0.0302649  -0.0425439   0.0000000), wk =   0.1111111
        k(   11) = (   0.0605298  -0.0210140   0.0000000), wk =   0.1111111
        k(   12) = (   0.0605298   0.0110229   0.0000000), wk =   0.1111111
        k(   13) = (   0.0605298   0.0430598   0.0000000), wk =   0.1111111
        k(   14) = (   0.0605298  -0.1171247   0.0000000), wk =   0.1111111
        k(   15) = (   0.0605298  -0.0850878   0.0000000), wk =   0.1111111
        k(   16) = (   0.0605298  -0.0530509   0.0000000), wk =   0.1111111
        k(   17) = (  -0.0907948   0.0315210   0.0000000), wk =   0.0555556
        k(   18) = (  -0.0907948   0.0635579   0.0000000), wk =   0.1111111
        k(   19) = (  -0.0907948   0.0955948   0.0000000), wk =   0.1111111
        k(   20) = (  -0.0907948  -0.0645897   0.0000000), wk =   0.0555556

     Largest allocated arrays     est. size (Mb)     dimensions
     Largest temporary arrays     est. size (Mb)     dimensions

     Check: negative/imaginary core charge=   -0.000010    0.000000

     Initial potential from superposition of free atoms
     Check: negative starting charge=   -1.315826

     starting charge  161.99316, renormalised to  168.00000

     negative rho (up, down):  1.365E+00 0.000E+00

     *
     * You are using vdW-DF for exchange-correlation in this calculation.
     * Please cite the following three references that made this development
     * possible:
     *
     *   M. Dion, H. Rydberg, E. Schroder, D. C. Langreth, and
     *   B. I. Lundqvist, Phys. Rev. Lett. 92, 246401 (2004).
     *
     *   T. Thonhauser, V. R. Cooper, S. Li, A. Puzder, P. Hyldgaard, and
     *   D. C. Langreth, Phys. Rev. B 76, 125112 (2007).
     *
     *   G. Roman-Perez and J. M. Soler, Phys. Rev. Lett. 103, 096102 (2009).
     *
     *
     * If you are using vdW-DF2, please also cite:
     *
     *   K. Lee, E. D. Murray, L. Kong, B. I. Lundqvist, and
     *   D. C. Langreth, Phys. Rev. B 82, 081101(R) (2010).
     *
     *
     * If you are calculating the stress with vdW-DF, please also cite:
     *
     *   R. Sabatini, E. Kucukbenli, B. Kolb, T. Thonhauser, and
     *   S. de Gironcoli, J. Phys.: Condens. Matter 24, 424209 (2012).
     *

     Carrying out vdW-DF run using the following parameters:

     Nqs =      20    Nr_points =    1024   r_max =   100.000
     q_mesh =
               0.00001000     0.04494208     0.09755937     0.15916263
               0.23128650     0.31572767     0.41458969     0.53033537
               0.66584808     0.82450364     1.01025438     1.22772762
               1.48234092     1.78043706     2.12944203     2.53805004
               3.01644009     3.57652955     4.23227104     5.00000000

     Gradients computed in reciprocal space

     Adding external electric field

     Computed dipole along edir(3) :
        Dipole                0.0000 Ry au,          0.0000 Debye
        Dipole field          0.0000 Ry au

        Potential amp.       -0.0000 Ry
        Total length         45.1169 bohr

     Starting wfc are  156 randomized atomic wfcs

     Self-consistent Calculation

     iteration #  1     ecut=    36.75 Ry     beta=0.10
     Davidson diagonalization with overlap
     ethr =  1.00E-02,  avg # of iterations =  2.3

[...]

     total energy              =   -1911.85803074 Ry
     Harris-Foulkes estimate   =   -1912.30932076 Ry
     estimated scf accuracy    <       3.23188578 Ry

[...]

     End of self-consistent calculation

          k = 0.0000 0.0000 0.0000 ( 17755 PWs)   bands (ev):

   -66.4530 -66.4507 -66.4373 -66.4372 -66.3018 -66.2868 -64.8404 -64.8353
   -64.3801 -64.3786 -64.3727 -64.3726 -37.0297 -36.9413 -36.9203 -36.8825
   -36.8673 -36.8457 -36.5085 -36.4897 -36.4772 -36.4692 -36.4502 -36.4491
   -36.4336 -36.4318 -36.4213 -36.4192 -36.3231 -36.3201 -32.9024 -32.8803
   -32.8796 -32.8761 -32.7596 -32.7350 -32.7150 -32.7086 -32.6809 -32.6369
   -32.6369 -32.6068 -32.5614 -32.5500 -32.5357 -32.5285 -32.5142 -32.4975
    -5.0539  -3.2828  -2.9431  -2.7769  -2.6166  -2.5352  -2.3439  -2.2530
    -2.1706  -2.1352  -1.5354  -1.5067  -1.1369  -0.7785  -0.6901  -0.6693
    -0.5543  -0.4376  -0.3544  -0.2076  -0.1883  -0.1818   0.2142   0.7636
     0.8419   0.9765   1.0061   1.2738   1.6760   1.7612   1.9039   2.0795
     2.2391   2.7098   2.9346   3.0161   3.3055   3.4646   3.5699   3.8481
     3.9099   3.9946   4.0290   4.0527   4.0971   4.1954   4.3415   4.4391
     4.4591   4.4741   4.5034   4.5156   4.5674   4.7752   4.9201   5.1864
     5.2362   5.4344   5.5956   5.7189   5.8714   5.9730   6.1719   6.2307
     6.4963   6.5830

[...]

          k =-0.0908 0.0315 0.0000 ( 17760 PWs)   bands (ev):

[...]

     the Fermi energy is     2.2157 ev

!    total energy              =   -1911.17219264 Ry
     Harris-Foulkes estimate   =   -1911.17218632 Ry
     estimated scf accuracy    <       0.00000098 Ry

     The total energy is the sum of the following terms:

     one-electron contribution =  -14683.83963386 Ry
     hartree contribution      =    7331.74177489 Ry
     xc contribution           =    -460.19959173 Ry
     ewald contribution        =    5901.18405391 Ry
     electric field correction =       0.00000001 Ry
     smearing contrib. (-TS)   =      -0.05879586 Ry

     convergence has been achieved in  15 iterations

 BEEF-vdW xc energy contributions
           1 :   -404.459616335642
           2 :    372.877396891551
           3 :   -317.206503985592
           4 :    249.478692933516
           5 :   -182.171845693370
           6 :    124.489112230745
[...]
     Pseudo is Ultrasoft + core correction, Zval = 15.0
     Generated by new atomic code, or converted to UPF format
     Using radial grid of  965 points,  6 beta functions with:
                l(1) =   0
                l(2) =   0
                l(3) =   1
                l(4) =   1
                l(5) =   2
                l(6) =   2
     Q(r) pseudized with  8 coefficients,  rinner =    1.300   1.300   1.300
                                                       1.300   1.300

     PseudoPot. # 2 for Ta read from file:
     /afs/slac.stanford.edu/u/if/mamunm/psp/gbrv1.5pbe/Ta.UPF
     MD5 check sum: f8bbe9446314a3b8ea5d9f3e3836c939
     Pseudo is Ultrasoft + core correction, Zval = 13.0
     Generated by new atomic code, or converted to UPF format
     Using radial grid of  921 points,  7 beta functions with:
                l(1) =   0
                l(2) =   0
                l(3) =   1
                l(4) =   1
                l(5) =   2
                l(6) =   2
                l(7) =   3
     Q(r) pseudized with  6 coefficients,  rinner =    1.300   1.300   1.300
                                                       1.300   1.300   1.300
                                                       1.300

     vdW kernel table read from file vdW_kernel_table
     MD5 check sum: 095c7af220d748ca6e76c0b4c6cfb241

     atomic species   valence    mass     pseudopotential
        Tc1           15.00    97.90721     Tc( 1.00)
        Ta1           13.00   180.94788     Ta( 1.00)

     No symmetry found

   Cartesian axes

     site n.     atom                  positions (alat units)
         1           Tc1 tau(   1) = (   0.0000000   0.0000000  10.0000000  )
         2           Tc1 tau(   2) = (   3.6565039   2.6011677  10.0000000  )
         3           Ta1 tau(   3) = (   2.7534627   0.0000000  10.0000000  )
         4           Ta1 tau(   4) = (   0.9030412   2.6011677  10.0000000  )
         5           Tc1 tau(   5) = (   5.5069255   3.9175227  12.2434980  )
         6           Tc1 tau(   6) = (   1.8504216   1.3163549  12.2434980  )
         7           Ta1 tau(   7) = (   2.7534627   3.9175227  12.2434980  )
         8           Ta1 tau(   8) = (   4.6038843   1.3163549  12.2434980  )
         9           Tc1 tau(   9) = (   3.6864631   2.6224806  14.3873620  )
        10           Tc1 tau(  10) = (   0.0299601   0.0213137  14.3873665  )
        11           Ta1 tau(  11) = (   0.9309393   2.6210142  14.4593597  )
        12           Ta1 tau(  12) = (   2.7813600   0.0198461  14.4593604  )

     number of k points=    20  Fermi-Dirac smearing, width (Ry)=  0.0110
                       cart. coord. in units 2pi/alat
        k(    1) = (   0.0000000   0.0000000   0.0000000), wk =   0.0555556
        k(    2) = (   0.0000000   0.0320369   0.0000000), wk =   0.1111111
        k(    3) = (   0.0000000   0.0640738   0.0000000), wk =   0.1111111
        k(    4) = (   0.0000000  -0.0961107   0.0000000), wk =   0.0555556
        k(    5) = (   0.0302649  -0.0105070   0.0000000), wk =   0.1111111
        k(    6) = (   0.0302649   0.0215299   0.0000000), wk =   0.1111111
        k(    7) = (   0.0302649   0.0535668   0.0000000), wk =   0.1111111
        k(    8) = (   0.0302649  -0.1066177   0.0000000), wk =   0.1111111
        k(    9) = (   0.0302649  -0.0745808   0.0000000), wk =   0.1111111
        k(   10) = (   0.0302649  -0.0425439   0.0000000), wk =   0.1111111
        k(   11) = (   0.0605298  -0.0210140   0.0000000), wk =   0.1111111
        k(   12) = (   0.0605298   0.0110229   0.0000000), wk =   0.1111111
        k(   13) = (   0.0605298   0.0430598   0.0000000), wk =   0.1111111
        k(   14) = (   0.0605298  -0.1171247   0.0000000), wk =   0.1111111
        k(   15) = (   0.0605298  -0.0850878   0.0000000), wk =   0.1111111
        k(   16) = (   0.0605298  -0.0530509   0.0000000), wk =   0.1111111
        k(   17) = (  -0.0907948   0.0315210   0.0000000), wk =   0.0555556
        k(   18) = (  -0.0907948   0.0635579   0.0000000), wk =   0.1111111
        k(   19) = (  -0.0907948   0.0955948   0.0000000), wk =   0.1111111
        k(   20) = (  -0.0907948  -0.0645897   0.0000000), wk =   0.0555556

     Largest allocated arrays     est. size (Mb)     dimensions
     Largest temporary arrays     est. size (Mb)     dimensions

     Check: negative/imaginary core charge=   -0.000010    0.000000

     Initial potential from superposition of free atoms
     Check: negative starting charge=   -1.318039

     starting charge  161.99316, renormalised to  168.00000

[...]

     *
     * You are using vdW-DF for exchange-correlation in this calculation.
     * Please cite the following three references that made this development
     * possible:
     *
     *   M. Dion, H. Rydberg, E. Schroder, D. C. Langreth, and
     *   B. I. Lundqvist, Phys. Rev. Lett. 92, 246401 (2004).
     *
     *   T. Thonhauser, V. R. Cooper, S. Li, A. Puzder, P. Hyldgaard, and
     *   D. C. Langreth, Phys. Rev. B 76, 125112 (2007).
     *
     *   G. Roman-Perez and J. M. Soler, Phys. Rev. Lett. 103, 096102 (2009).
     *
     *
     * If you are using vdW-DF2, please also cite:
     *
     *   K. Lee, E. D. Murray, L. Kong, B. I. Lundqvist, and
     *   D. C. Langreth, Phys. Rev. B 82, 081101(R) (2010).
     *
     *
     * If you are calculating the stress with vdW-DF, please also cite:
     *
     *   R. Sabatini, E. Kucukbenli, B. Kolb, T. Thonhauser, and
     *   S. de Gironcoli, J. Phys.: Condens. Matter 24, 424209 (2012).
     *

     Carrying out vdW-DF run using the following parameters:

     Nqs =      20    Nr_points =    1024   r_max =   100.000
     q_mesh =
               0.00001000     0.04494208     0.09755937     0.15916263
               0.23128650     0.31572767     0.41458969     0.53033537
               0.66584808     0.82450364     1.01025438     1.22772762
               1.48234092     1.78043706     2.12944203     2.53805004
               3.01644009     3.57652955     4.23227104     5.00000000

     Gradients computed in reciprocal space

[...]

     Starting wfc are  156 randomized atomic wfcs

     Self-consistent Calculation

[...]

     total energy              =   -1911.17858358 Ry
     Harris-Foulkes estimate   =   -1911.17858192 Ry
     estimated scf accuracy    <       0.00000125 Ry

     iteration # 16     ecut=    36.75 Ry     beta=0.10
     Davidson diagonalization with overlap
     ethr =  7.45E-10,  avg # of iterations =  2.0

[...]

     negative rho (up, down):  1.382E+00 0.000E+00

     Adding external electric field

     Computed dipole along edir(3) :
        Dipole                0.0235 Ry au,          0.0598 Debye
        Dipole field          0.0001 Ry au

        Potential amp.       -0.0056 Ry
        Total length         45.1169 bohr

     End of self-consistent calculation

[...]

          k = 0.0605-0.0531 0.0000 ( 17835 PWs)   bands (ev):

[...]

          k =-0.0908-0.0646 0.0000 ( 17904 PWs)   bands (ev):

   -66.4294 -66.4175 -66.4156 -66.4037 -66.2013 -66.1871 -64.8107 -64.8022
   -64.3599 -64.3505 -64.3394 -64.3305 -36.9700 -36.8650 -36.8558 -36.8489
   -36.8314 -36.8091 -36.4582 -36.4345 -36.4311 -36.4154 -36.4042 -36.3914
   -36.3902 -36.3855 -36.3812 -36.3748 -36.2973 -36.2890 -32.9285 -32.8811
   -32.8425 -32.8305 -32.7934 -32.7566 -32.7480 -32.7404 -32.6964 -32.6722
   -32.6686 -32.5817 -32.5329 -32.5276 -32.5089 -32.4514 -32.4332 -32.4225
    -2.9631  -2.9222  -1.9608  -1.7693  -1.6017  -1.4774  -1.4007  -1.3477
    -1.2528  -0.7042  -0.6754  -0.5677  -0.4283  -0.3086  -0.2800  -0.2585
    -0.1963  -0.0561  -0.0524   0.3360   0.4827   0.5643   0.7190   0.7199
     0.9568   0.9661   0.9740   1.0920   1.1462   1.2489   1.4387   1.4639
     1.5265   1.5850   1.6179   1.6769   1.7003   1.7297   2.0285   2.0868
     2.4129   2.6126   2.8706   2.9421   3.1136   3.2959   3.4237   3.4345
     3.5719   3.6656   3.8035   3.8266   4.0147   4.0531   4.1493   4.3923
     4.7236   4.8942   4.9107   4.9491   5.3702   5.5211   6.0122   6.1087
     6.3584   6.5896

     the Fermi energy is     2.2300 ev

!    total energy              =   -1911.17858934 Ry
     Harris-Foulkes estimate   =   -1911.17858396 Ry
     estimated scf accuracy    <       0.00000064 Ry

     The total energy is the sum of the following terms:

     one-electron contribution =  -14822.23074914 Ry
     hartree contribution      =    7401.17371840 Ry
     xc contribution           =    -460.34821317 Ry
     ewald contribution        =    5970.28457885 Ry
     electric field correction =       0.00000147 Ry
     smearing contrib. (-TS)   =      -0.05792575 Ry

     convergence has been achieved in  16 iterations

 BEEF-vdW xc energy contributions
           1 :   -404.610604238545
           2 :    373.079338848945
           3 :   -317.472649141011
           4 :    249.770514518206
           5 :   -182.416420760817
           6 :    124.618506383964
           7 :   -80.5158221110564
           8 :    49.4958855933766
           9 :   -28.1251984721173
          10 :    12.4930687114246
          11 :   3.972629782060721E-002
          12 :   -10.2618096731483
          13 :    17.5766638520057
          14 :   -21.0231605693485
          15 :    20.2126355845926
          16 :   -15.7781672604928
          17 :    9.21349041780854
          18 :   -2.31634007129412
          19 :   -3.43178767741767
          20 :    7.23181521509218
          21 :   -8.97283185881759
          22 :    8.96022277940398
          23 :   -7.58836929060817
          24 :    5.14356311044753
          25 :   -1.81156170407843
          26 :   -2.18940917612156
          27 :    6.48053669038359
          28 :   -10.5106462899005
          29 :    13.6732803370857
          30 :   -15.4854314364131
          31 :   -37.0530019329763
          32 :   -27.3917802163900

     Forces acting on atoms (Ry/au):

     negative rho (up, down):  1.382E+00 0.000E+00
     atom    1 type  1   force =     0.00156268    0.00111196    0.02661062
     atom    2 type  1   force =     0.00156270    0.00111154    0.02661263
     atom    3 type  2   force =     0.00299336    0.00212922    0.00227940
     atom    4 type  2   force =     0.00299295    0.00212932    0.00227912
     atom    5 type  1   force =    -0.00140542   -0.00099995   -0.01426852
     atom    6 type  1   force =    -0.00139988   -0.00099581   -0.01426925
     atom    7 type  2   force =    -0.00171347   -0.00123121   -0.01537991
     atom    8 type  2   force =    -0.00172497   -0.00121488   -0.01537995
     atom    9 type  1   force =    -0.00079291   -0.00056447    0.00052745
     atom   10 type  1   force =    -0.00079355   -0.00056424    0.00052887
     atom   11 type  2   force =    -0.00064093   -0.00045585    0.00022983
     atom   12 type  2   force =    -0.00064057   -0.00045563    0.00022970

     Total force =     0.048580     Total SCF correction =     0.002309

     entering subroutine stress ...

     negative rho (up, down):  1.382E+00 0.000E+00
          total   stress  (Ry/bohr**3)                   (kbar)     P=  -26.32
  -0.00022477   0.00000713  -0.00001169        -33.07      1.05     -1.72
   0.00000713  -0.00022973  -0.00000831          1.05    -33.79     -1.22
  -0.00001169  -0.00000831  -0.00008218         -1.72     -1.22    -12.09

 !ASE

     Writing output data file calc.save

     General routines

     Parallel routines

   This run was terminated on:  22:54:37  29Dec2018

   JOB DONE.
Job  /afs/slac/g/suncat/bin/suncat-tsmpirun -x LD_LIBRARY_PATH -wdir /scratch/qe387731_gC2xh pw.x -in pw.inp

TID   HOST_NAME   COMMAND_LINE            STATUS            TERMINATION_TIME
00000 suncat0056 pw.x -in pw.inp   Done                     12/29/2018 22:54:37
00001 suncat0056 pw.x -in pw.inp   Done                     12/29/2018 22:54:37
00002 suncat0056 pw.x -in pw.inp   Done                     12/29/2018 22:54:37
00003 suncat0056 pw.x -in pw.inp   Done                     12/29/2018 22:54:37
00004 suncat0056 pw.x -in pw.inp   Done                     12/29/2018 22:54:37
00005 suncat0056 pw.x -in pw.inp   Done                     12/29/2018 22:54:37
00006 suncat0056 pw.x -in pw.inp   Done                     12/29/2018 22:54:37
00007 suncat0056 pw.x -in pw.inp   Done                     12/29/2018 22:54:37
00008 suncat0052 pw.x -in pw.inp   Done                     12/29/2018 22:54:37
00009 suncat0052 pw.x -in pw.inp   Done                     12/29/2018 22:54:37
00010 suncat0052 pw.x -in pw.inp   Done                     12/29/2018 22:54:37
00011 suncat0052 pw.x -in pw.inp   Done                     12/29/2018 22:54:37
00012 suncat0052 pw.x -in pw.inp   Done                     12/29/2018 22:54:37
00013 suncat0052 pw.x -in pw.inp   Done                     12/29/2018 22:54:37
00014 suncat0052 pw.x -in pw.inp   Done                     12/29/2018 22:54:37
00015 suncat0052 pw.x -in pw.inp   Done                     12/29/2018 22:54:37
00016 suncat0048 pw.x -in pw.inp   Done                     12/29/2018 22:54:37
00017 suncat0048 pw.x -in pw.inp   Done                     12/29/2018 22:54:37
00018 suncat0048 pw.x -in pw.inp   Done                     12/29/2018 22:54:37
00019 suncat0048 pw.x -in pw.inp   Done                     12/29/2018 22:54:37
00020 suncat0048 pw.x -in pw.inp   Done                     12/29/2018 22:54:37
00021 suncat0048 pw.x -in pw.inp   Done                     12/29/2018 22:54:37
00022 suncat0048 pw.x -in pw.inp   Done                     12/29/2018 22:54:37
00023 suncat0048 pw.x -in pw.inp   Done                     12/29/2018 22:54:37
00024 suncat0047 pw.x -in pw.inp   Done                     12/29/2018 22:54:37
00025 suncat0047 pw.x -in pw.inp   Done                     12/29/2018 22:54:37
00026 suncat0047 pw.x -in pw.inp   Done                     12/29/2018 22:54:37
00027 suncat0047 pw.x -in pw.inp   Done                     12/29/2018 22:54:37
00028 suncat0047 pw.x -in pw.inp   Done                     12/29/2018 22:54:37
00029 suncat0047 pw.x -in pw.inp   Done                     12/29/2018 22:54:37
00030 suncat0047 pw.x -in pw.inp   Done                     12/29/2018 22:54:37
00031 suncat0047 pw.x -in pw.inp   Done                     12/29/2018 22:54:37
00032 suncat0041 pw.x -in pw.inp   Done                     12/29/2018 22:54:37
00033 suncat0041 pw.x -in pw.inp   Done                     12/29/2018 22:54:37
00034 suncat0041 pw.x -in pw.inp   Done                     12/29/2018 22:54:37
00035 suncat0041 pw.x -in pw.inp   Done                     12/29/2018 22:54:37
00036 suncat0041 pw.x -in pw.inp   Done                     12/29/2018 22:54:37
00037 suncat0041 pw.x -in pw.inp   Done                     12/29/2018 22:54:37
00038 suncat0041 pw.x -in pw.inp   Done                     12/29/2018 22:54:37
00039 suncat0041 pw.x -in pw.inp   Done                     12/29/2018 22:54:37
00040 suncat0039 pw.x -in pw.inp   Done                     12/29/2018 22:54:37
00041 suncat0039 pw.x -in pw.inp   Done                     12/29/2018 22:54:37
00042 suncat0039 pw.x -in pw.inp   Done                     12/29/2018 22:54:37
00043 suncat0039 pw.x -in pw.inp   Done                     12/29/2018 22:54:37
00044 suncat0039 pw.x -in pw.inp   Done                     12/29/2018 22:54:37
00045 suncat0039 pw.x -in pw.inp   Done                     12/29/2018 22:54:37
00046 suncat0039 pw.x -in pw.inp   Done                     12/29/2018 22:54:37
00047 suncat0039 pw.x -in pw.inp   Done                     12/29/2018 22:54:37
00048 suncat0207 pw.x -in pw.inp   Done                     12/29/2018 22:54:37
00049 suncat0207 pw.x -in pw.inp   Done                     12/29/2018 22:54:37
00050 suncat0207 pw.x -in pw.inp   Done                     12/29/2018 22:54:37
00051 suncat0207 pw.x -in pw.inp   Done                     12/29/2018 22:54:37
00052 suncat0207 pw.x -in pw.inp   Done                     12/29/2018 22:54:37
00053 suncat0207 pw.x -in pw.inp   Done                     12/29/2018 22:54:37
00054 suncat0207 pw.x -in pw.inp   Done                     12/29/2018 22:54:37
00055 suncat0207 pw.x -in pw.inp   Done                     12/29/2018 22:54:37
00056 suncat0206 pw.x -in pw.inp   Done                     12/29/2018 22:54:37
00057 suncat0206 pw.x -in pw.inp   Done                     12/29/2018 22:54:37
00058 suncat0206 pw.x -in pw.inp   Done                     12/29/2018 22:54:37
00059 suncat0206 pw.x -in pw.inp   Done                     12/29/2018 22:54:37
00060 suncat0206 pw.x -in pw.inp   Done                     12/29/2018 22:54:37
00061 suncat0206 pw.x -in pw.inp   Done                     12/29/2018 22:54:37
00062 suncat0206 pw.x -in pw.inp   Done                     12/29/2018 22:54:37
00063 suncat0206 pw.x -in pw.inp   Done                     12/29/2018 22:54:37