     Program PWSCF v.5.1rc2 (svn rev. 11289) starts on 19Dec2018 at  5:45:59

     Current dimensions of program PWSCF are:
     Max number of different atomic species (ntypx) = 10
     Max number of k-points (npk) =  40000
     Max angular momentum in pseudopotentials (lmaxx) =  3
     Presently stress not available with electric field

     IMPORTANT: XC functional enforced from input :
     Exchange-correlation      = BEEF-VDW ( 1  4 27 13 2)
     Any further DFT definition will be discarded
     Please, verify this is what you really want

     Subspace diagonalization in iterative solution of the eigenvalue problem:
     a serial algorithm will be used

     Found symmetry operation: I + ( -0.5000 -0.5000  0.0000)
     This is a supercell, fractional translations are disabled

     Generating pointlists ...
     new r_m :   0.4125 (alat units)  0.7795 (a.u.) for type    1
     new r_m :   0.4125 (alat units)  0.7795 (a.u.) for type    2

     bravais-lattice index     =            0
     lattice parameter (alat)  =       1.8897  a.u.
     unit-cell volume          =    5251.5911 (a.u.)^3
     number of atoms/cell      =           12
     number of atomic types    =            2
     number of electrons       =       186.00
     number of Kohn-Sham states=          123
     kinetic-energy cutoff     =      36.7493  Ry
     charge density cutoff     =     367.4932  Ry
     convergence threshold     =      1.0E-06
     mixing beta               =       0.1000
     number of iterations used =           10  plain     mixing
     Exchange-correlation      = BEEF-VDW ( 1  4 27 13 2)
     nstep                     =           50

     celldm(1)=   1.889726  celldm(2)=   0.000000  celldm(3)=   0.000000
     celldm(4)=   0.000000  celldm(5)=   0.000000  celldm(6)=   0.000000

     crystal axes: (cart. coord. in units of alat)
               a(1) = (   5.780105   0.000000   0.000000 )
               a(2) = (   1.937127   5.445838   0.000000 )
               a(3) = (   0.000000   0.000000  24.722588 )

     reciprocal axes: (cart. coord. in units 2 pi/alat)
               b(1) = (  0.173007 -0.061540  0.000000 )
               b(2) = (  0.000000  0.183626  0.000000 )
               b(3) = (  0.000000  0.000000  0.040449 )

     PseudoPot. # 1 for Co read from file:
     /afs/slac.stanford.edu/u/if/mamunm/psp/gbrv1.5pbe/Co.UPF
     MD5 check sum: 5f91765df6ddd3222702df6e7b74a16d
     Pseudo is Ultrasoft + core correction, Zval = 17.0
     Generated by new atomic code, or converted to UPF format
     Using radial grid of  863 points,  6 beta functions with:
                l(1) =   0
                l(2) =   0
                l(3) =   1
                l(4) =   1
                l(5) =   2
                l(6) =   2
     Q(r) pseudized with  8 coefficients,  rinner =    1.200   1.200   1.200
                                                       1.200   1.200

     PseudoPot. # 2 for Pb read from file:
     /afs/slac.stanford.edu/u/if/mamunm/psp/gbrv1.5pbe/Pb.UPF
     MD5 check sum: 3d1c1779aa92214d1e8f3a7db79003e2
     Pseudo is Ultrasoft + core correction, Zval = 14.0
     Generated by new atomic code, or converted to UPF format
     Using radial grid of  899 points,  6 beta functions with:
                l(1) =   0
                l(2) =   0
                l(3) =   1
                l(4) =   1
                l(5) =   2
                l(6) =   2
     Q(r) pseudized with  6 coefficients,  rinner =    1.000   1.000   1.000
                                                       1.000   1.000

     vdW kernel table read from file vdW_kernel_table
     MD5 check sum: 095c7af220d748ca6e76c0b4c6cfb241

     atomic species   valence    mass     pseudopotential
        Co1           17.00    58.93319     Co( 1.00)
        Pb1           14.00   207.20000     Pb( 1.00)

     Starting magnetic structure
     atomic species   magnetization
        Co1          0.118
        Pb1          0.143

     No symmetry found

   Cartesian axes

     site n.     atom                  positions (alat units)
         1           Co1 tau(   1) = (   0.0000000   0.0000000  10.0000000  )
         2           Co1 tau(   2) = (   3.8586160   2.7229188  10.0000000  )
         3           Pb1 tau(   3) = (   2.8900523   0.0000000  10.0000000  )
         4           Pb1 tau(   4) = (   0.9685637   2.7229188  10.0000000  )
         5           Co1 tau(   5) = (   5.7801045   4.0788602  12.3612940  )
         6           Co1 tau(   6) = (   1.9214886   1.3559414  12.3612940  )
         7           Pb1 tau(   7) = (   2.8900523   4.0788602  12.3612940  )
         8           Pb1 tau(   8) = (   4.8115409   1.3559414  12.3612940  )
         9           Co1 tau(   9) = (   3.8429772   2.7118829  14.7225880  )
        10           Co1 tau(  10) = (   7.7015931   5.4348016  14.7225880  )
        11           Pb1 tau(  11) = (   6.7330294   2.7118829  14.7225880  )
        12           Pb1 tau(  12) = (   4.8115409   5.4348016  14.7225880  )

     number of k points=    40  Fermi-Dirac smearing, width (Ry)=  0.0110
                       cart. coord. in units 2pi/alat
        k(    1) = (   0.0000000   0.0000000   0.0000000), wk =   0.0277778
        k(    2) = (   0.0000000   0.0306044   0.0000000), wk =   0.0555556
        k(    3) = (   0.0000000   0.0612088   0.0000000), wk =   0.0555556
        k(    4) = (   0.0000000  -0.0918132   0.0000000), wk =   0.0277778
        k(    5) = (   0.0288345  -0.0102567   0.0000000), wk =   0.0555556
        k(    6) = (   0.0288345   0.0203477   0.0000000), wk =   0.0555556
        k(    7) = (   0.0288345   0.0509522   0.0000000), wk =   0.0555556
        k(    8) = (   0.0288345  -0.1020699   0.0000000), wk =   0.0555556
        k(    9) = (   0.0288345  -0.0714655   0.0000000), wk =   0.0555556
        k(   10) = (   0.0288345  -0.0408611   0.0000000), wk =   0.0555556
        k(   11) = (   0.0576691  -0.0205133   0.0000000), wk =   0.0555556
        k(   12) = (   0.0576691   0.0100911   0.0000000), wk =   0.0555556
        k(   13) = (   0.0576691   0.0406955   0.0000000), wk =   0.0555556
        k(   14) = (   0.0576691  -0.1123266   0.0000000), wk =   0.0555556
        k(   15) = (   0.0576691  -0.0817222   0.0000000), wk =   0.0555556
        k(   16) = (   0.0576691  -0.0511178   0.0000000), wk =   0.0555556
        k(   17) = (  -0.0865036   0.0307700   0.0000000), wk =   0.0277778
        k(   18) = (  -0.0865036   0.0613744   0.0000000), wk =   0.0555556
        k(   19) = (  -0.0865036   0.0919789   0.0000000), wk =   0.0555556
        k(   20) = (  -0.0865036  -0.0610432   0.0000000), wk =   0.0277778
        k(   21) = (   0.0000000   0.0000000   0.0000000), wk =   0.0277778
        k(   22) = (   0.0000000   0.0306044   0.0000000), wk =   0.0555556
        k(   23) = (   0.0000000   0.0612088   0.0000000), wk =   0.0555556
        k(   24) = (   0.0000000  -0.0918132   0.0000000), wk =   0.0277778
        k(   25) = (   0.0288345  -0.0102567   0.0000000), wk =   0.0555556
        k(   26) = (   0.0288345   0.0203477   0.0000000), wk =   0.0555556
        k(   27) = (   0.0288345   0.0509522   0.0000000), wk =   0.0555556
        k(   28) = (   0.0288345  -0.1020699   0.0000000), wk =   0.0555556
        k(   29) = (   0.0288345  -0.0714655   0.0000000), wk =   0.0555556
        k(   30) = (   0.0288345  -0.0408611   0.0000000), wk =   0.0555556
        k(   31) = (   0.0576691  -0.0205133   0.0000000), wk =   0.0555556
        k(   32) = (   0.0576691   0.0100911   0.0000000), wk =   0.0555556
        k(   33) = (   0.0576691   0.0406955   0.0000000), wk =   0.0555556
        k(   34) = (   0.0576691  -0.1123266   0.0000000), wk =   0.0555556
        k(   35) = (   0.0576691  -0.0817222   0.0000000), wk =   0.0555556
        k(   36) = (   0.0576691  -0.0511178   0.0000000), wk =   0.0555556
        k(   37) = (  -0.0865036   0.0307700   0.0000000), wk =   0.0277778
        k(   38) = (  -0.0865036   0.0613744   0.0000000), wk =   0.0555556
        k(   39) = (  -0.0865036   0.0919789   0.0000000), wk =   0.0555556
        k(   40) = (  -0.0865036  -0.0610432   0.0000000), wk =   0.0277778

     Largest allocated arrays     est. size (Mb)     dimensions
     Largest temporary arrays     est. size (Mb)     dimensions

     Check: negative/imaginary core charge=   -0.000003    0.000000

     Initial potential from superposition of free atoms
     Check: negative starting charge=(component1):   -0.055760
     Check: negative starting charge=(component2):   -0.041816

     starting charge  179.98585, renormalised to  186.00000

     negative rho (up, down):  5.762E-02 4.321E-02

     *
     * You are using vdW-DF for exchange-correlation in this calculation.
     * Please cite the following three references that made this development
     * possible:
     *
     *   M. Dion, H. Rydberg, E. Schroder, D. C. Langreth, and
     *   B. I. Lundqvist, Phys. Rev. Lett. 92, 246401 (2004).
     *
     *   T. Thonhauser, V. R. Cooper, S. Li, A. Puzder, P. Hyldgaard, and
     *   D. C. Langreth, Phys. Rev. B 76, 125112 (2007).
     *
     *   G. Roman-Perez and J. M. Soler, Phys. Rev. Lett. 103, 096102 (2009).
     *
     *
     * If you are using vdW-DF2, please also cite:
     *
     *   K. Lee, E. D. Murray, L. Kong, B. I. Lundqvist, and
     *   D. C. Langreth, Phys. Rev. B 82, 081101(R) (2010).
     *
     *
     * If you are calculating the stress with vdW-DF, please also cite:
     *
     *   R. Sabatini, E. Kucukbenli, B. Kolb, T. Thonhauser, and
     *   S. de Gironcoli, J. Phys.: Condens. Matter 24, 424209 (2012).
     *

     Carrying out vdW-DF run using the following parameters:

     Nqs =      20    Nr_points =    1024   r_max =   100.000
     q_mesh =
               0.00001000     0.04494208     0.09755937     0.15916263
               0.23128650     0.31572767     0.41458969     0.53033537
               0.66584808     0.82450364     1.01025438     1.22772762
               1.48234092     1.78043706     2.12944203     2.53805004
               3.01644009     3.57652955     4.23227104     5.00000000

     Gradients computed in reciprocal space

     Adding external electric field

     Computed dipole along edir(3) :
        Dipole               -0.0000 Ry au,         -0.0000 Debye
        Dipole field         -0.0000 Ry au

        Potential amp.        0.0000 Ry
        Total length         45.5509 bohr

[...]

     Starting wfc are  132 randomized atomic wfcs

     Self-consistent Calculation

     iteration #  1     ecut=    36.75 Ry     beta=0.10
     Davidson diagonalization with overlap
     ethr =  1.00E-02,  avg # of iterations =  8.0

[...]

     Magnetic moment per site:
     atom:    1    charge:    8.3944    magn:    1.0170    constr:    0.0000
     atom:    2    charge:    8.3944    magn:    1.0170    constr:    0.0000
     atom:    3    charge:    1.7891    magn:    0.2319    constr:    0.0000
     atom:    4    charge:    1.7891    magn:    0.2319    constr:    0.0000
     atom:    5    charge:    8.4011    magn:    1.0040    constr:    0.0000
     atom:    6    charge:    8.4011    magn:    1.0040    constr:    0.0000
[...]

     PseudoPot. # 2 for Pb read from file:
     /afs/slac.stanford.edu/u/if/mamunm/psp/gbrv1.5pbe/Pb.UPF
     MD5 check sum: 3d1c1779aa92214d1e8f3a7db79003e2
     Pseudo is Ultrasoft + core correction, Zval = 14.0
     Generated by new atomic code, or converted to UPF format
     Using radial grid of  899 points,  6 beta functions with:
                l(1) =   0
                l(2) =   0
                l(3) =   1
                l(4) =   1
                l(5) =   2
                l(6) =   2
     Q(r) pseudized with  6 coefficients,  rinner =    1.000   1.000   1.000
                                                       1.000   1.000

     vdW kernel table read from file vdW_kernel_table
     MD5 check sum: 095c7af220d748ca6e76c0b4c6cfb241

     atomic species   valence    mass     pseudopotential
        Co1           17.00    58.93319     Co( 1.00)
        Pb1           14.00   207.20000     Pb( 1.00)

     Starting magnetic structure
     atomic species   magnetization
        Co1          0.118
        Pb1          0.143

     No symmetry found

   Cartesian axes

     site n.     atom                  positions (alat units)
         1           Co1 tau(   1) = (   0.0000000   0.0000000  10.0000000  )
         2           Co1 tau(   2) = (   3.8586160   2.7229188  10.0000000  )
         3           Pb1 tau(   3) = (   2.8900523   0.0000000  10.0000000  )
         4           Pb1 tau(   4) = (   0.9685637   2.7229188  10.0000000  )
         5           Co1 tau(   5) = (   5.7801045   4.0788602  12.3612940  )
         6           Co1 tau(   6) = (   1.9214886   1.3559414  12.3612940  )
         7           Pb1 tau(   7) = (   2.8900523   4.0788602  12.3612940  )
         8           Pb1 tau(   8) = (   4.8115409   1.3559414  12.3612940  )
         9           Co1 tau(   9) = (   3.8432574   2.7121071  14.4647566  )
        10           Co1 tau(  10) = (   7.7019899   5.4350565  14.4648480  )
        11           Pb1 tau(  11) = (   6.7358589   2.7139401  15.0077372  )
        12           Pb1 tau(  12) = (   4.8144419   5.4367770  15.0077461  )

     number of k points=    40  Fermi-Dirac smearing, width (Ry)=  0.0110
                       cart. coord. in units 2pi/alat
        k(    1) = (   0.0000000   0.0000000   0.0000000), wk =   0.0277778
        k(    2) = (   0.0000000   0.0306044   0.0000000), wk =   0.0555556
        k(    3) = (   0.0000000   0.0612088   0.0000000), wk =   0.0555556
        k(    4) = (   0.0000000  -0.0918132   0.0000000), wk =   0.0277778
        k(    5) = (   0.0288345  -0.0102567   0.0000000), wk =   0.0555556
        k(    6) = (   0.0288345   0.0203477   0.0000000), wk =   0.0555556
        k(    7) = (   0.0288345   0.0509522   0.0000000), wk =   0.0555556
        k(    8) = (   0.0288345  -0.1020699   0.0000000), wk =   0.0555556
        k(    9) = (   0.0288345  -0.0714655   0.0000000), wk =   0.0555556
        k(   10) = (   0.0288345  -0.0408611   0.0000000), wk =   0.0555556
        k(   11) = (   0.0576691  -0.0205133   0.0000000), wk =   0.0555556
        k(   12) = (   0.0576691   0.0100911   0.0000000), wk =   0.0555556
        k(   13) = (   0.0576691   0.0406955   0.0000000), wk =   0.0555556
        k(   14) = (   0.0576691  -0.1123266   0.0000000), wk =   0.0555556
        k(   15) = (   0.0576691  -0.0817222   0.0000000), wk =   0.0555556
        k(   16) = (   0.0576691  -0.0511178   0.0000000), wk =   0.0555556
        k(   17) = (  -0.0865036   0.0307700   0.0000000), wk =   0.0277778
        k(   18) = (  -0.0865036   0.0613744   0.0000000), wk =   0.0555556
        k(   19) = (  -0.0865036   0.0919789   0.0000000), wk =   0.0555556
        k(   20) = (  -0.0865036  -0.0610432   0.0000000), wk =   0.0277778
        k(   21) = (   0.0000000   0.0000000   0.0000000), wk =   0.0277778
        k(   22) = (   0.0000000   0.0306044   0.0000000), wk =   0.0555556
        k(   23) = (   0.0000000   0.0612088   0.0000000), wk =   0.0555556
        k(   24) = (   0.0000000  -0.0918132   0.0000000), wk =   0.0277778
        k(   25) = (   0.0288345  -0.0102567   0.0000000), wk =   0.0555556
        k(   26) = (   0.0288345   0.0203477   0.0000000), wk =   0.0555556
        k(   27) = (   0.0288345   0.0509522   0.0000000), wk =   0.0555556
        k(   28) = (   0.0288345  -0.1020699   0.0000000), wk =   0.0555556
        k(   29) = (   0.0288345  -0.0714655   0.0000000), wk =   0.0555556
        k(   30) = (   0.0288345  -0.0408611   0.0000000), wk =   0.0555556
        k(   31) = (   0.0576691  -0.0205133   0.0000000), wk =   0.0555556
        k(   32) = (   0.0576691   0.0100911   0.0000000), wk =   0.0555556
        k(   33) = (   0.0576691   0.0406955   0.0000000), wk =   0.0555556
        k(   34) = (   0.0576691  -0.1123266   0.0000000), wk =   0.0555556
        k(   35) = (   0.0576691  -0.0817222   0.0000000), wk =   0.0555556
        k(   36) = (   0.0576691  -0.0511178   0.0000000), wk =   0.0555556
        k(   37) = (  -0.0865036   0.0307700   0.0000000), wk =   0.0277778
        k(   38) = (  -0.0865036   0.0613744   0.0000000), wk =   0.0555556
        k(   39) = (  -0.0865036   0.0919789   0.0000000), wk =   0.0555556
        k(   40) = (  -0.0865036  -0.0610432   0.0000000), wk =   0.0277778

     Largest allocated arrays     est. size (Mb)     dimensions
     Largest temporary arrays     est. size (Mb)     dimensions

     Check: negative/imaginary core charge=   -0.000003    0.000000

     Initial potential from superposition of free atoms
     Check: negative starting charge=(component1):   -0.056446
     Check: negative starting charge=(component2):   -0.042330

     starting charge  179.98585, renormalised to  186.00000

[...]

     *
     * You are using vdW-DF for exchange-correlation in this calculation.
     * Please cite the following three references that made this development
     * possible:
     *
     *   M. Dion, H. Rydberg, E. Schroder, D. C. Langreth, and
     *   B. I. Lundqvist, Phys. Rev. Lett. 92, 246401 (2004).
     *
     *   T. Thonhauser, V. R. Cooper, S. Li, A. Puzder, P. Hyldgaard, and
     *   D. C. Langreth, Phys. Rev. B 76, 125112 (2007).
     *
     *   G. Roman-Perez and J. M. Soler, Phys. Rev. Lett. 103, 096102 (2009).
     *
     *
     * If you are using vdW-DF2, please also cite:
     *
     *   K. Lee, E. D. Murray, L. Kong, B. I. Lundqvist, and
     *   D. C. Langreth, Phys. Rev. B 82, 081101(R) (2010).
     *
     *
     * If you are calculating the stress with vdW-DF, please also cite:
     *
     *   R. Sabatini, E. Kucukbenli, B. Kolb, T. Thonhauser, and
     *   S. de Gironcoli, J. Phys.: Condens. Matter 24, 424209 (2012).
     *

     Carrying out vdW-DF run using the following parameters:

     Nqs =      20    Nr_points =    1024   r_max =   100.000
     q_mesh =
               0.00001000     0.04494208     0.09755937     0.15916263
               0.23128650     0.31572767     0.41458969     0.53033537
               0.66584808     0.82450364     1.01025438     1.22772762
               1.48234092     1.78043706     2.12944203     2.53805004
               3.01644009     3.57652955     4.23227104     5.00000000

     Gradients computed in reciprocal space

[...]

     Starting wfc are  132 randomized atomic wfcs

     Self-consistent Calculation

[...]

     iteration # 18     ecut=    36.75 Ry     beta=0.10
     Davidson diagonalization with overlap
     c_bands:  1 eigenvalues not converged
     ethr =  2.74E-07,  avg # of iterations =  1.5

[...]

     total energy              =   -2792.85002648 Ry
     Harris-Foulkes estimate   =   -2792.85002652 Ry
     estimated scf accuracy    <       0.00000200 Ry

[...]

     iteration # 35     ecut=    36.75 Ry     beta=0.10
     Davidson diagonalization with overlap
     ethr =  6.61E-10,  avg # of iterations =  1.4

[...]

     negative rho (up, down):  5.347E-02 5.463E-02

[...]

     Adding external electric field

     Computed dipole along edir(3) :
        Dipole                0.0512 Ry au,          0.1301 Debye
        Dipole field          0.0001 Ry au

        Potential amp.       -0.0112 Ry
        Total length         45.5509 bohr

     Magnetic moment per site:
     atom:    1    charge:    8.3086    magn:    0.8220    constr:    0.0000
     atom:    2    charge:    8.3087    magn:    0.8219    constr:    0.0000
     atom:    3    charge:    1.7464    magn:   -0.0015    constr:    0.0000
     atom:    4    charge:    1.7464    magn:   -0.0015    constr:    0.0000
     atom:    5    charge:    8.3118    magn:    0.6748    constr:    0.0000
     atom:    6    charge:    8.3118    magn:    0.6748    constr:    0.0000
     atom:    7    charge:    1.7561    magn:   -0.0020    constr:    0.0000
     atom:    8    charge:    1.7561    magn:   -0.0020    constr:    0.0000
     atom:    9    charge:    8.3031    magn:    0.7423    constr:    0.0000
     atom:   10    charge:    8.3031    magn:    0.7424    constr:    0.0000
     atom:   11    charge:    1.7490    magn:   -0.0013    constr:    0.0000
     atom:   12    charge:    1.7490    magn:   -0.0013    constr:    0.0000

     End of self-consistent calculation

 ------ SPIN UP ------------

[...]

 ------ SPIN DOWN ----------

[...]

          k = 0.0577-0.0511 0.0000 ( 19769 PWs)   bands (ev):

[...]

          k =-0.0865-0.0610 0.0000 ( 19630 PWs)   bands (ev):

   -92.4970 -92.4967 -92.4367 -92.4365 -92.4043 -92.4041 -55.8927 -55.8923
   -55.8623 -55.8566 -55.8495 -55.8488 -55.8405 -55.8347 -55.8149 -55.8146
   -55.8026 -55.8011 -55.8007 -55.7968 -55.7949 -55.7944 -55.7627 -55.7623
   -16.1983 -16.1219 -16.1150 -16.0878 -16.0726 -16.0656 -16.0244 -15.9872
   -15.9775 -15.9503 -15.9477 -15.9450 -15.9357 -15.9346 -15.9202 -15.8812
   -15.8764 -15.8738 -15.8660 -15.8560 -15.8560 -15.8397 -15.8371 -15.8189
   -15.8033 -15.8008 -15.7943 -15.7180 -15.7068 -15.6584  -8.8013  -8.4074
    -7.9402  -7.6847  -6.3242  -4.9498  -4.1661  -3.9611  -3.2644  -2.5451
    -1.9116  -1.8044  -1.3127  -0.8729  -0.4044  -0.3804   0.1770   0.2088
     0.2479   0.2963   0.3365   0.3402   0.3469   0.4906   0.5084   0.5477
     0.7138   0.8012   0.9596   1.0008   1.0078   1.0161   1.0282   1.0306
     1.1014   1.3252   1.3933   1.4413   1.6245   1.6470   1.7025   1.9389
     2.1052   2.2341   2.5939   2.8691   4.0686   4.3225   4.4121   4.5840
     4.8269   5.1313   5.1442   5.3813   5.7768   5.9184   6.1065   6.2728
     6.4597   6.5460   6.5871   6.7080   7.0697   7.0972   7.1306   7.2620
     7.3806   7.5367   7.5558

     the Fermi energy is     1.1679 ev

!    total energy              =   -2792.85002543 Ry
     Harris-Foulkes estimate   =   -2792.85002635 Ry
     estimated scf accuracy    <       0.00000039 Ry

     The total energy is the sum of the following terms:

     one-electron contribution =  -17161.21049598 Ry
     hartree contribution      =    8622.72368397 Ry
     xc contribution           =    -594.92267012 Ry
     ewald contribution        =    6340.65436372 Ry
     electric field correction =       0.00000627 Ry
     smearing contrib. (-TS)   =      -0.09491330 Ry

     total magnetization       =     8.14 Bohr mag/cell
     absolute magnetization    =     9.65 Bohr mag/cell

     convergence has been achieved in  35 iterations

 BEEF-vdW xc energy contributions
           1 :   -528.216674169361
           2 :    486.641383494835
           3 :   -414.534883591824
           4 :    329.223070376766
           5 :   -247.567999767332
           6 :    180.472015028249
           7 :   -130.848821886369
           8 :    95.2786277425071
           9 :   -67.8421990929378
          10 :    43.8393571764293
          11 :   -21.6635615287146
          12 :    2.40924357320660
          13 :    11.9069074822189
          14 :   -20.1421044556976
          15 :    22.8202210576630
          16 :   -21.7667102289570
          17 :    19.1141599155130
          18 :   -16.4210222276467
          19 :    14.3335689156081
          20 :   -12.7870943852039
          21 :    11.4315783734744
          22 :   -9.97851208655538
          23 :    8.33378997727061
          24 :   -6.58388248592405
          25 :    4.93833427278469
          26 :   -3.68030600207294
          27 :    3.08586993650715
          28 :   -3.29392661499298
          29 :    4.17118239270462
          30 :   -5.28895126016334
          31 :   -43.0078152778005
          32 :   -30.9345938161119

     Forces acting on atoms (Ry/au):

     negative rho (up, down):  5.347E-02 5.463E-02
     atom    1 type  1   force =     0.00011376    0.00008080    0.02717349
     atom    2 type  1   force =     0.00011332    0.00007946    0.02717758
     atom    3 type  2   force =    -0.00042681   -0.00029827   -0.02967337
     atom    4 type  2   force =    -0.00042445   -0.00030236   -0.02967247
     atom    5 type  1   force =    -0.00008476   -0.00006021    0.01237262
     atom    6 type  1   force =    -0.00006572   -0.00004661    0.01239568
     atom    7 type  2   force =     0.00036607    0.00025056   -0.00754815
     atom    8 type  2   force =     0.00035772    0.00026062   -0.00754421
     atom    9 type  1   force =     0.00004032    0.00002707   -0.00060837
     atom   10 type  1   force =     0.00005542    0.00003974   -0.00059988
     atom   11 type  2   force =    -0.00000922   -0.00003472   -0.00173548
     atom   12 type  2   force =    -0.00003565    0.00000391   -0.00173744

     Total force =     0.060551     Total SCF correction =     0.001048

     entering subroutine stress ...

     negative rho (up, down):  5.347E-02 5.463E-02
          total   stress  (Ry/bohr**3)                   (kbar)     P=  -13.04
  -0.00013970  -0.00004155   0.00000044        -20.55     -6.11      0.06
  -0.00004155  -0.00011015   0.00000031         -6.11    -16.20      0.05
   0.00000044   0.00000031  -0.00001601          0.06      0.05     -2.36

 !ASE

     Writing output data file calc.save

     General routines

     Parallel routines

   This run was terminated on:  10:20:46  19Dec2018

   JOB DONE.
Job  /afs/slac/g/suncat/bin/suncat-tsmpirun -x LD_LIBRARY_PATH -wdir /scratch/qe529690_10FlE pw.x -in pw.inp

TID   HOST_NAME   COMMAND_LINE            STATUS            TERMINATION_TIME
00000 suncat0150 pw.x -in pw.inp   Done                     12/19/2018 10:20:46
00001 suncat0150 pw.x -in pw.inp   Done                     12/19/2018 10:20:46
00002 suncat0150 pw.x -in pw.inp   Done                     12/19/2018 10:20:46
00003 suncat0150 pw.x -in pw.inp   Done                     12/19/2018 10:20:46
00004 suncat0150 pw.x -in pw.inp   Done                     12/19/2018 10:20:46
00005 suncat0150 pw.x -in pw.inp   Done                     12/19/2018 10:20:46
00006 suncat0150 pw.x -in pw.inp   Done                     12/19/2018 10:20:46
00007 suncat0150 pw.x -in pw.inp   Done                     12/19/2018 10:20:46
00008 suncat0149 pw.x -in pw.inp   Done                     12/19/2018 10:20:46
00009 suncat0149 pw.x -in pw.inp   Done                     12/19/2018 10:20:46
00010 suncat0149 pw.x -in pw.inp   Done                     12/19/2018 10:20:46
00011 suncat0149 pw.x -in pw.inp   Done                     12/19/2018 10:20:46
00012 suncat0149 pw.x -in pw.inp   Done                     12/19/2018 10:20:46
00013 suncat0149 pw.x -in pw.inp   Done                     12/19/2018 10:20:46
00014 suncat0149 pw.x -in pw.inp   Done                     12/19/2018 10:20:46
00015 suncat0149 pw.x -in pw.inp   Done                     12/19/2018 10:20:46
00016 suncat0148 pw.x -in pw.inp   Done                     12/19/2018 10:20:46
00017 suncat0148 pw.x -in pw.inp   Done                     12/19/2018 10:20:46
00018 suncat0148 pw.x -in pw.inp   Done                     12/19/2018 10:20:46
00019 suncat0148 pw.x -in pw.inp   Done                     12/19/2018 10:20:46
00020 suncat0148 pw.x -in pw.inp   Done                     12/19/2018 10:20:46
00021 suncat0148 pw.x -in pw.inp   Done                     12/19/2018 10:20:46
00022 suncat0148 pw.x -in pw.inp   Done                     12/19/2018 10:20:46
00023 suncat0148 pw.x -in pw.inp   Done                     12/19/2018 10:20:46
00024 suncat0147 pw.x -in pw.inp   Done                     12/19/2018 10:20:46
00025 suncat0147 pw.x -in pw.inp   Done                     12/19/2018 10:20:46
00026 suncat0147 pw.x -in pw.inp   Done                     12/19/2018 10:20:46
00027 suncat0147 pw.x -in pw.inp   Done                     12/19/2018 10:20:46
00028 suncat0147 pw.x -in pw.inp   Done                     12/19/2018 10:20:46
00029 suncat0147 pw.x -in pw.inp   Done                     12/19/2018 10:20:46
00030 suncat0147 pw.x -in pw.inp   Done                     12/19/2018 10:20:46
00031 suncat0147 pw.x -in pw.inp   Done                     12/19/2018 10:20:46