     Program PWSCF v.5.1rc2 (svn rev. 11289) starts on 18Dec2018 at 18:27:53

     Current dimensions of program PWSCF are:
     Max number of different atomic species (ntypx) = 10
     Max number of k-points (npk) =  40000
     Max angular momentum in pseudopotentials (lmaxx) =  3
     Presently stress not available with electric field

     IMPORTANT: XC functional enforced from input :
     Exchange-correlation      = BEEF-VDW ( 1  4 27 13 2)
     Any further DFT definition will be discarded
     Please, verify this is what you really want

     Subspace diagonalization in iterative solution of the eigenvalue problem:
     a serial algorithm will be used

     Found symmetry operation: I + ( -0.5000  0.5000  0.0000)
     This is a supercell, fractional translations are disabled

     bravais-lattice index     =            0
     lattice parameter (alat)  =       1.8897  a.u.
     unit-cell volume          =    5693.0227 (a.u.)^3
     number of atoms/cell      =           12
     number of atomic types    =            2
     number of electrons       =       138.00
     number of Kohn-Sham states=           99
     kinetic-energy cutoff     =      36.7493  Ry
     charge density cutoff     =     367.4932  Ry
     convergence threshold     =      1.0E-06
     mixing beta               =       0.1000
     number of iterations used =           10  plain     mixing
     Exchange-correlation      = BEEF-VDW ( 1  4 27 13 2)
     nstep                     =           50

     celldm(1)=   1.889726  celldm(2)=   0.000000  celldm(3)=   0.000000
     celldm(4)=   0.000000  celldm(5)=   0.000000  celldm(6)=   0.000000

     crystal axes: (cart. coord. in units of alat)
               a(1) = (   6.148750   0.000000   0.000000 )
               a(2) = (   2.805342   5.471489   0.000000 )
               a(3) = (   0.000000   0.000000  25.075750 )

     reciprocal axes: (cart. coord. in units 2 pi/alat)
               b(1) = (  0.162635 -0.083386  0.000000 )
               b(2) = (  0.000000  0.182766  0.000000 )
               b(3) = (  0.000000  0.000000  0.039879 )

     PseudoPot. # 1 for Au read from file:
     /afs/slac.stanford.edu/u/if/mamunm/psp/gbrv1.5pbe/Au.UPF
     MD5 check sum: 9d7f43293ad2c663164586bc4b293ffc
     Pseudo is Ultrasoft + core correction, Zval = 11.0
     Generated by new atomic code, or converted to UPF format
     Using radial grid of  985 points,  7 beta functions with:
                l(1) =   0
                l(2) =   0
                l(3) =   1
                l(4) =   1
                l(5) =   2
                l(6) =   2
                l(7) =   3
     Q(r) pseudized with  6 coefficients,  rinner =    1.900   1.900   1.900
                                                       1.900   1.900   1.900
                                                       1.900

     PseudoPot. # 2 for Hg read from file:
     /afs/slac.stanford.edu/u/if/mamunm/psp/gbrv1.5pbe/Hg.UPF
     MD5 check sum: 8f42caffe07f7fd9c0a564347f8c5498
     Pseudo is Ultrasoft + core correction, Zval = 12.0
     Generated by new atomic code, or converted to UPF format
     Using radial grid of  985 points,  6 beta functions with:
                l(1) =   0
                l(2) =   0
                l(3) =   1
                l(4) =   1
                l(5) =   2
                l(6) =   2
     Q(r) pseudized with  8 coefficients,  rinner =    2.000   2.000   2.000
                                                       2.000   2.000

     vdW kernel table read from file vdW_kernel_table
     MD5 check sum: 095c7af220d748ca6e76c0b4c6cfb241

     atomic species   valence    mass     pseudopotential
        Au1           11.00   196.96657     Au( 1.00)
        Hg1           12.00   200.59200     Hg( 1.00)

     No symmetry found

   Cartesian axes

     site n.     atom                  positions (alat units)
         1           Au1 tau(   1) = (   0.0000000   0.0000000  10.0000000  )
         2           Au1 tau(   2) = (   4.4770460   2.7357444  10.0000000  )
         3           Hg1 tau(   3) = (   3.0743752   0.0000000  10.0000000  )
         4           Hg1 tau(   4) = (   1.4026708   2.7357444  10.0000000  )
         5           Au1 tau(   5) = (   6.1487504   3.7572563  12.5378752  )
         6           Au1 tau(   6) = (   1.6717043   1.0215119  12.5378752  )
         7           Hg1 tau(   7) = (   3.0743752   3.7572563  12.5378752  )
         8           Hg1 tau(   8) = (   4.7460795   1.0215119  12.5378752  )
         9           Au1 tau(   9) = (   3.3434087   2.0430238  15.0757505  )
        10           Au1 tau(  10) = (   7.8204547   4.7787682  15.0757505  )
        11           Hg1 tau(  11) = (   6.4177839   2.0430238  15.0757505  )
        12           Hg1 tau(  12) = (   4.7460795   4.7787682  15.0757505  )

     number of k points=    20  Fermi-Dirac smearing, width (Ry)=  0.0110
                       cart. coord. in units 2pi/alat
        k(    1) = (   0.0000000   0.0000000   0.0000000), wk =   0.0555556
        k(    2) = (   0.0000000   0.0304609   0.0000000), wk =   0.1111111
        k(    3) = (   0.0000000   0.0609219   0.0000000), wk =   0.1111111
        k(    4) = (   0.0000000  -0.0913828   0.0000000), wk =   0.0555556
        k(    5) = (   0.0271058  -0.0138977   0.0000000), wk =   0.1111111
        k(    6) = (   0.0271058   0.0165633   0.0000000), wk =   0.1111111
        k(    7) = (   0.0271058   0.0470242   0.0000000), wk =   0.1111111
        k(    8) = (   0.0271058  -0.1052805   0.0000000), wk =   0.1111111
        k(    9) = (   0.0271058  -0.0748195   0.0000000), wk =   0.1111111
        k(   10) = (   0.0271058  -0.0443586   0.0000000), wk =   0.1111111
        k(   11) = (   0.0542116  -0.0277953   0.0000000), wk =   0.1111111
        k(   12) = (   0.0542116   0.0026656   0.0000000), wk =   0.1111111
        k(   13) = (   0.0542116   0.0331265   0.0000000), wk =   0.1111111
        k(   14) = (   0.0542116  -0.1191782   0.0000000), wk =   0.1111111
        k(   15) = (   0.0542116  -0.0887172   0.0000000), wk =   0.1111111
        k(   16) = (   0.0542116  -0.0582563   0.0000000), wk =   0.1111111
        k(   17) = (  -0.0813173   0.0416930   0.0000000), wk =   0.0555556
        k(   18) = (  -0.0813173   0.0721540   0.0000000), wk =   0.1111111
        k(   19) = (  -0.0813173   0.1026149   0.0000000), wk =   0.1111111
        k(   20) = (  -0.0813173  -0.0496898   0.0000000), wk =   0.0555556

     Largest allocated arrays     est. size (Mb)     dimensions
     Largest temporary arrays     est. size (Mb)     dimensions

     Check: negative/imaginary core charge=   -0.000001    0.000000

     Initial potential from superposition of free atoms

     starting charge  137.99892, renormalised to  138.00000

     negative rho (up, down):  8.905E-05 0.000E+00

     *
     * You are using vdW-DF for exchange-correlation in this calculation.
     * Please cite the following three references that made this development
     * possible:
     *
     *   M. Dion, H. Rydberg, E. Schroder, D. C. Langreth, and
     *   B. I. Lundqvist, Phys. Rev. Lett. 92, 246401 (2004).
     *
     *   T. Thonhauser, V. R. Cooper, S. Li, A. Puzder, P. Hyldgaard, and
     *   D. C. Langreth, Phys. Rev. B 76, 125112 (2007).
     *
     *   G. Roman-Perez and J. M. Soler, Phys. Rev. Lett. 103, 096102 (2009).
     *
     *
     * If you are using vdW-DF2, please also cite:
     *
     *   K. Lee, E. D. Murray, L. Kong, B. I. Lundqvist, and
     *   D. C. Langreth, Phys. Rev. B 82, 081101(R) (2010).
     *
     *
     * If you are calculating the stress with vdW-DF, please also cite:
     *
     *   R. Sabatini, E. Kucukbenli, B. Kolb, T. Thonhauser, and
     *   S. de Gironcoli, J. Phys.: Condens. Matter 24, 424209 (2012).
     *

     Carrying out vdW-DF run using the following parameters:

     Nqs =      20    Nr_points =    1024   r_max =   100.000
     q_mesh =
               0.00001000     0.04494208     0.09755937     0.15916263
               0.23128650     0.31572767     0.41458969     0.53033537
               0.66584808     0.82450364     1.01025438     1.22772762
               1.48234092     1.78043706     2.12944203     2.53805004
               3.01644009     3.57652955     4.23227104     5.00000000

     Gradients computed in reciprocal space

     Adding external electric field

     Computed dipole along edir(3) :
        Dipole               -0.0000 Ry au,         -0.0000 Debye
        Dipole field         -0.0000 Ry au

        Potential amp.        0.0000 Ry
        Total length         46.2016 bohr

     Starting wfc are  108 randomized atomic wfcs

     Self-consistent Calculation

     iteration #  1     ecut=    36.75 Ry     beta=0.10
     Davidson diagonalization with overlap
     ethr =  1.00E-02,  avg # of iterations =  8.3

     Threshold (ethr) on eigenvalues was too large:
     Diagonalizing with lowered threshold

     Davidson diagonalization with overlap
     ethr =  9.01E-05,  avg # of iterations =  6.5

[...]

     total energy              =   -1354.78311767 Ry
     Harris-Foulkes estimate   =   -1354.79675209 Ry
     estimated scf accuracy    <       0.12281186 Ry

[...]

     iteration #  5     ecut=    36.75 Ry     beta=0.10
     Davidson diagonalization with overlap
     c_bands:  1 eigenvalues not converged
     ethr =  2.31E-06,  avg # of iterations =  7.8

[...]

     End of self-consistent calculation

          k = 0.0000 0.0000 0.0000 ( 21347 PWs)   bands (ev):

    -8.0804  -7.5822  -7.5368  -7.4615  -7.4440  -7.3408  -7.2920  -7.2275
    -7.2105  -7.1617  -7.1425  -7.1272  -6.9612  -6.8423  -6.8128  -6.7347
    -6.6942  -6.6817  -6.5902  -6.5818  -6.5425  -6.5280  -6.4646  -6.3857
    -6.3518  -6.3492  -6.3100  -6.1818  -6.1584  -6.1535  -5.9047  -5.8099
    -4.8110  -4.5490  -4.2034  -4.1766  -3.9586  -3.9270  -3.9154  -3.7355
    -3.6469  -3.5474  -3.3018  -3.2356  -3.2290  -3.1738  -3.1179  -3.0318
    -2.9983  -2.9751  -2.9500  -2.8773  -2.8631  -2.7459  -2.6841  -2.6794
    -2.5661  -2.5407  -2.5259  -2.4979  -2.4556  -2.1681  -1.9564  -0.6384
    -0.3966  -0.3633  -0.1354  -0.0524   0.2715   0.3349   0.4468   0.6403
     0.7756   0.9821   1.6340   1.7766   2.1549   2.7770   3.0496   3.0745
     3.2171   3.3588   3.6355   4.4276   4.6071   5.6618   5.7867   6.4108
     6.4898   6.8392   6.9561   7.1831   7.4194   7.8216   7.8492   8.3647
     8.3837   8.4061   8.5994

[...]

          k =-0.0813 0.0417 0.0000 ( 21432 PWs)   bands (ev):

[...]

     the Fermi energy is     0.2091 ev

!    total energy              =   -1354.76308524 Ry
     Harris-Foulkes estimate   =   -1354.76308329 Ry
     estimated scf accuracy    <       0.00000059 Ry

     The total energy is the sum of the following terms:

     one-electron contribution =   -7894.22175524 Ry
     hartree contribution      =    4040.54386938 Ry
     xc contribution           =    -626.65421207 Ry
     ewald contribution        =    3125.59571032 Ry
     electric field correction =       0.00000000 Ry
     smearing contrib. (-TS)   =      -0.02669763 Ry

     convergence has been achieved in  12 iterations

 BEEF-vdW xc energy contributions
           1 :   -556.012820355670
[...]

[...]

     Program PWSCF v.5.1rc2 (svn rev. 11289) starts on 18Dec2018 at 20: 5: 3

[...]

     Program PWSCF v.5.1rc2 (svn rev. 11289) starts on 18Dec2018 at 20:17: 2

[...]

     Program PWSCF v.5.1rc2 (svn rev. 11289) starts on 18Dec2018 at 21: 3:55

[...]

     Program PWSCF v.5.1rc2 (svn rev. 11289) starts on 18Dec2018 at 21:27: 2

[...]

   This run was terminated on:  21:51:48  18Dec2018

[...]

     Program PWSCF v.5.1rc2 (svn rev. 11289) starts on 18Dec2018 at 21:51:54

     Current dimensions of program PWSCF are:
     Max number of different atomic species (ntypx) = 10
     Max number of k-points (npk) =  40000
     Max angular momentum in pseudopotentials (lmaxx) =  3
     Presently stress not available with electric field

     IMPORTANT: XC functional enforced from input :
     Exchange-correlation      = BEEF-VDW ( 1  4 27 13 2)
     Any further DFT definition will be discarded
     Please, verify this is what you really want

     Subspace diagonalization in iterative solution of the eigenvalue problem:
     a serial algorithm will be used

     bravais-lattice index     =            0
     lattice parameter (alat)  =       1.8897  a.u.
     unit-cell volume          =    5693.0227 (a.u.)^3
     number of atoms/cell      =           12
     number of atomic types    =            2
     number of electrons       =       138.00
     number of Kohn-Sham states=           99
     kinetic-energy cutoff     =      36.7493  Ry
     charge density cutoff     =     367.4932  Ry
     convergence threshold     =      1.0E-06
     mixing beta               =       0.1000
     number of iterations used =           10  plain     mixing
     Exchange-correlation      = BEEF-VDW ( 1  4 27 13 2)
     nstep                     =           50

     celldm(1)=   1.889726  celldm(2)=   0.000000  celldm(3)=   0.000000
     celldm(4)=   0.000000  celldm(5)=   0.000000  celldm(6)=   0.000000

     crystal axes: (cart. coord. in units of alat)
               a(1) = (   6.148750   0.000000   0.000000 )
               a(2) = (   2.805342   5.471489   0.000000 )
               a(3) = (   0.000000   0.000000  25.075750 )

     reciprocal axes: (cart. coord. in units 2 pi/alat)
               b(1) = (  0.162635 -0.083386  0.000000 )
               b(2) = (  0.000000  0.182766  0.000000 )
               b(3) = (  0.000000  0.000000  0.039879 )

     PseudoPot. # 1 for Au read from file:
     /afs/slac.stanford.edu/u/if/mamunm/psp/gbrv1.5pbe/Au.UPF
     MD5 check sum: 9d7f43293ad2c663164586bc4b293ffc
     Pseudo is Ultrasoft + core correction, Zval = 11.0
     Generated by new atomic code, or converted to UPF format
     Using radial grid of  985 points,  7 beta functions with:
                l(1) =   0
                l(2) =   0
                l(3) =   1
                l(4) =   1
                l(5) =   2
                l(6) =   2
                l(7) =   3
     Q(r) pseudized with  6 coefficients,  rinner =    1.900   1.900   1.900
                                                       1.900   1.900   1.900
                                                       1.900

     PseudoPot. # 2 for Hg read from file:
     /afs/slac.stanford.edu/u/if/mamunm/psp/gbrv1.5pbe/Hg.UPF
     MD5 check sum: 8f42caffe07f7fd9c0a564347f8c5498
     Pseudo is Ultrasoft + core correction, Zval = 12.0
     Generated by new atomic code, or converted to UPF format
     Using radial grid of  985 points,  6 beta functions with:
                l(1) =   0
                l(2) =   0
                l(3) =   1
                l(4) =   1
                l(5) =   2
                l(6) =   2
     Q(r) pseudized with  8 coefficients,  rinner =    2.000   2.000   2.000
                                                       2.000   2.000

     vdW kernel table read from file vdW_kernel_table
     MD5 check sum: 095c7af220d748ca6e76c0b4c6cfb241

     atomic species   valence    mass     pseudopotential
        Au1           11.00   196.96657     Au( 1.00)
        Hg1           12.00   200.59200     Hg( 1.00)

     No symmetry found

   Cartesian axes

     site n.     atom                  positions (alat units)
         1           Au1 tau(   1) = (   0.0000000   0.0000000  10.0000000  )
         2           Au1 tau(   2) = (   4.4770460   2.7357444  10.0000000  )
         3           Hg1 tau(   3) = (   3.0743752   0.0000000  10.0000000  )
         4           Hg1 tau(   4) = (   1.4026708   2.7357444  10.0000000  )
         5           Au1 tau(   5) = (   6.1487504   3.7572563  12.5378752  )
         6           Au1 tau(   6) = (   1.6717043   1.0215119  12.5378752  )
         7           Hg1 tau(   7) = (   3.0743752   3.7572563  12.5378752  )
         8           Hg1 tau(   8) = (   4.7460795   1.0215119  12.5378752  )
         9           Au1 tau(   9) = (   3.0319086   1.8525777  14.9752342  )
        10           Au1 tau(  10) = (   7.5088479   4.5886607  14.9757650  )
        11           Hg1 tau(  11) = (   6.1069716   1.8532182  15.6412183  )
        12           Hg1 tau(  12) = (   4.4352147   4.5887306  15.6410063  )

     number of k points=    20  Fermi-Dirac smearing, width (Ry)=  0.0110
                       cart. coord. in units 2pi/alat
        k(    1) = (   0.0000000   0.0000000   0.0000000), wk =   0.0555556
        k(    2) = (   0.0000000   0.0304609   0.0000000), wk =   0.1111111
        k(    3) = (   0.0000000   0.0609219   0.0000000), wk =   0.1111111
        k(    4) = (   0.0000000  -0.0913828   0.0000000), wk =   0.0555556
        k(    5) = (   0.0271058  -0.0138977   0.0000000), wk =   0.1111111
        k(    6) = (   0.0271058   0.0165633   0.0000000), wk =   0.1111111
        k(    7) = (   0.0271058   0.0470242   0.0000000), wk =   0.1111111
        k(    8) = (   0.0271058  -0.1052805   0.0000000), wk =   0.1111111
        k(    9) = (   0.0271058  -0.0748195   0.0000000), wk =   0.1111111
        k(   10) = (   0.0271058  -0.0443586   0.0000000), wk =   0.1111111
        k(   11) = (   0.0542116  -0.0277953   0.0000000), wk =   0.1111111
        k(   12) = (   0.0542116   0.0026656   0.0000000), wk =   0.1111111
        k(   13) = (   0.0542116   0.0331265   0.0000000), wk =   0.1111111
        k(   14) = (   0.0542116  -0.1191782   0.0000000), wk =   0.1111111
        k(   15) = (   0.0542116  -0.0887172   0.0000000), wk =   0.1111111
        k(   16) = (   0.0542116  -0.0582563   0.0000000), wk =   0.1111111
        k(   17) = (  -0.0813173   0.0416930   0.0000000), wk =   0.0555556
        k(   18) = (  -0.0813173   0.0721540   0.0000000), wk =   0.1111111
        k(   19) = (  -0.0813173   0.1026149   0.0000000), wk =   0.1111111
        k(   20) = (  -0.0813173  -0.0496898   0.0000000), wk =   0.0555556

     Largest allocated arrays     est. size (Mb)     dimensions
     Largest temporary arrays     est. size (Mb)     dimensions

     Check: negative/imaginary core charge=   -0.000001    0.000000

     Initial potential from superposition of free atoms

     starting charge  137.99892, renormalised to  138.00000

[...]

     *
     * You are using vdW-DF for exchange-correlation in this calculation.
     * Please cite the following three references that made this development
     * possible:
     *
     *   M. Dion, H. Rydberg, E. Schroder, D. C. Langreth, and
     *   B. I. Lundqvist, Phys. Rev. Lett. 92, 246401 (2004).
     *
     *   T. Thonhauser, V. R. Cooper, S. Li, A. Puzder, P. Hyldgaard, and
     *   D. C. Langreth, Phys. Rev. B 76, 125112 (2007).
     *
     *   G. Roman-Perez and J. M. Soler, Phys. Rev. Lett. 103, 096102 (2009).
     *
     *
     * If you are using vdW-DF2, please also cite:
     *
     *   K. Lee, E. D. Murray, L. Kong, B. I. Lundqvist, and
     *   D. C. Langreth, Phys. Rev. B 82, 081101(R) (2010).
     *
     *
     * If you are calculating the stress with vdW-DF, please also cite:
     *
     *   R. Sabatini, E. Kucukbenli, B. Kolb, T. Thonhauser, and
     *   S. de Gironcoli, J. Phys.: Condens. Matter 24, 424209 (2012).
     *

     Carrying out vdW-DF run using the following parameters:

     Nqs =      20    Nr_points =    1024   r_max =   100.000
     q_mesh =
               0.00001000     0.04494208     0.09755937     0.15916263
               0.23128650     0.31572767     0.41458969     0.53033537
               0.66584808     0.82450364     1.01025438     1.22772762
               1.48234092     1.78043706     2.12944203     2.53805004
               3.01644009     3.57652955     4.23227104     5.00000000

     Gradients computed in reciprocal space

[...]

     Starting wfc are  108 randomized atomic wfcs

     Self-consistent Calculation

[...]

     Threshold (ethr) on eigenvalues was too large:
     Diagonalizing with lowered threshold

     Davidson diagonalization with overlap
     ethr =  8.37E-05,  avg # of iterations =  6.9

[...]

     total energy              =   -1354.77933672 Ry
     Harris-Foulkes estimate   =   -1354.77933589 Ry
     estimated scf accuracy    <       0.00000216 Ry

     iteration # 12     ecut=    36.75 Ry     beta=0.10
     Davidson diagonalization with overlap
     ethr =  1.57E-09,  avg # of iterations =  2.0

[...]

     negative rho (up, down):  1.419E-04 0.000E+00

     Adding external electric field

     Computed dipole along edir(3) :
        Dipole                0.0708 Ry au,          0.1799 Debye
        Dipole field          0.0002 Ry au

        Potential amp.       -0.0144 Ry
        Total length         46.2016 bohr

     End of self-consistent calculation

[...]

          k = 0.0542-0.0583 0.0000 ( 21420 PWs)   bands (ev):

[...]

          k =-0.0813-0.0497 0.0000 ( 21436 PWs)   bands (ev):

    -7.4539  -7.2122  -7.1985  -7.1232  -7.0291  -6.9599  -6.8812  -6.8739
    -6.8624  -6.8508  -6.7203  -6.6421  -6.5850  -6.5420  -6.5188  -6.4556
    -6.4228  -6.4223  -6.4117  -6.3005  -6.2821  -6.2332  -6.1957  -6.1485
    -6.1336  -6.0855  -5.9247  -5.9179  -5.8834  -5.8383  -5.6651  -5.5311
    -4.7627  -4.3993  -4.3019  -4.2744  -4.2252  -4.1236  -4.0719  -3.9118
    -3.8913  -3.8534  -3.7735  -3.7367  -3.6689  -3.6065  -3.4033  -3.3274
    -3.3150  -3.1431  -3.1412  -3.1057  -3.0388  -2.9990  -2.9377  -2.7878
    -2.7715  -2.6757  -2.6711  -2.5172  -2.5067  -2.4494  -2.3754  -2.3390
    -1.9456  -1.1582  -1.1385  -0.8036  -0.7367   0.0239   0.2752   1.4851
     2.2593   2.5659   3.9356   4.0483   4.2514   4.3646   4.5693   4.8021
     5.1086   5.2339   5.6754   5.7446   5.8659   5.9111   5.9274   6.0853
     6.4257   6.7940   6.8141   6.9281   7.0263   7.0426   7.0738   7.2413
     7.6687   8.0610   8.0622

     the Fermi energy is     0.2492 ev

!    total energy              =   -1354.77933957 Ry
     Harris-Foulkes estimate   =   -1354.77933692 Ry
     estimated scf accuracy    <       0.00000076 Ry

     The total energy is the sum of the following terms:

     one-electron contribution =   -7597.90378651 Ry
     hartree contribution      =    3892.90271735 Ry
     xc contribution           =    -626.52974116 Ry
     ewald contribution        =    2976.77996560 Ry
     electric field correction =       0.00001106 Ry
     smearing contrib. (-TS)   =      -0.02850591 Ry

     convergence has been achieved in  12 iterations

 BEEF-vdW xc energy contributions
           1 :   -555.862033927752
           2 :    514.418271948342
           3 :   -441.350631078923
           4 :    352.407405817073
           5 :   -263.847872705342
           6 :    187.814836817372
           7 :   -130.006139548390
           8 :    89.9874927372189
           9 :   -63.4965302748841
          10 :    45.3896159069145
          11 :   -31.8833066312657
          12 :    21.3169032442639
          13 :   -13.5500563541275
          14 :    8.74204579519403
          15 :   -6.40217002081397
          16 :    5.21679721561293
          17 :   -3.60717424620907
          18 :   0.544671898496858
          19 :    3.91966427965417
          20 :   -8.73229479901079
          21 :    12.4536624835097
          22 :   -14.0467501685222
          23 :    13.3916739997258
          24 :   -11.2725619415529
          25 :    8.89327891130677
          26 :   -7.23578595674917
          27 :    6.62161452497935
          28 :   -6.69211938733656
          29 :    6.76512991730499
          30 :   -6.32427508683554
          31 :   -46.8230760873681
          32 :   -34.1690798652461

     Forces acting on atoms (Ry/au):

     negative rho (up, down):  1.419E-04 0.000E+00
     atom    1 type  1   force =     0.00265356    0.00161654    0.00016661
     atom    2 type  1   force =     0.00265026    0.00161913    0.00015344
     atom    3 type  2   force =    -0.00232046   -0.00141924   -0.01837432
     atom    4 type  2   force =    -0.00232127   -0.00141701   -0.01837331
     atom    5 type  1   force =    -0.00713518   -0.00436253    0.00700212
     atom    6 type  1   force =    -0.00715445   -0.00436796    0.00698440
     atom    7 type  2   force =     0.00684150    0.00419480    0.01010355
     atom    8 type  2   force =     0.00685829    0.00417951    0.01009490
     atom    9 type  1   force =    -0.00021718   -0.00013090    0.00053998
     atom   10 type  1   force =    -0.00021859   -0.00013470    0.00050394
     atom   11 type  2   force =     0.00019140    0.00010560    0.00059979
     atom   12 type  2   force =     0.00017210    0.00011675    0.00059889

     Total force =     0.035801     Total SCF correction =     0.001733

     entering subroutine stress ...

     negative rho (up, down):  1.419E-04 0.000E+00
          total   stress  (Ry/bohr**3)                   (kbar)     P=   -6.79
  -0.00009090  -0.00001042  -0.00000099        -13.37     -1.53     -0.15
  -0.00001042  -0.00008022  -0.00000061         -1.53    -11.80     -0.09
  -0.00000099  -0.00000061   0.00003257         -0.15     -0.09      4.79

 !ASE

     Writing output data file calc.save

     General routines

     Parallel routines

   This run was terminated on:  22: 3:25  18Dec2018

   JOB DONE.
Job  /afs/slac/g/suncat/bin/suncat-tsmpirun -x LD_LIBRARY_PATH -wdir /scratch/qe529633_95pwc pw.x -in pw.inp

TID   HOST_NAME   COMMAND_LINE            STATUS            TERMINATION_TIME
00000 suncat0187 pw.x -in pw.inp   Done                     12/18/2018 22:03:25
00001 suncat0187 pw.x -in pw.inp   Done                     12/18/2018 22:03:25
00002 suncat0187 pw.x -in pw.inp   Done                     12/18/2018 22:03:25
00003 suncat0187 pw.x -in pw.inp   Done                     12/18/2018 22:03:25
00004 suncat0187 pw.x -in pw.inp   Done                     12/18/2018 22:03:25
00005 suncat0187 pw.x -in pw.inp   Done                     12/18/2018 22:03:25
00006 suncat0187 pw.x -in pw.inp   Done                     12/18/2018 22:03:25
00007 suncat0187 pw.x -in pw.inp   Done                     12/18/2018 22:03:25
00008 suncat0186 pw.x -in pw.inp   Done                     12/18/2018 22:03:25
00009 suncat0186 pw.x -in pw.inp   Done                     12/18/2018 22:03:25
00010 suncat0186 pw.x -in pw.inp   Done                     12/18/2018 22:03:25
00011 suncat0186 pw.x -in pw.inp   Done                     12/18/2018 22:03:25
00012 suncat0186 pw.x -in pw.inp   Done                     12/18/2018 22:03:25
00013 suncat0186 pw.x -in pw.inp   Done                     12/18/2018 22:03:25
00014 suncat0186 pw.x -in pw.inp   Done                     12/18/2018 22:03:25
00015 suncat0186 pw.x -in pw.inp   Done                     12/18/2018 22:03:25
00016 suncat0185 pw.x -in pw.inp   Done                     12/18/2018 22:03:25
00017 suncat0185 pw.x -in pw.inp   Done                     12/18/2018 22:03:25
00018 suncat0185 pw.x -in pw.inp   Done                     12/18/2018 22:03:25
00019 suncat0185 pw.x -in pw.inp   Done                     12/18/2018 22:03:25
00020 suncat0185 pw.x -in pw.inp   Done                     12/18/2018 22:03:25
00021 suncat0185 pw.x -in pw.inp   Done                     12/18/2018 22:03:25
00022 suncat0185 pw.x -in pw.inp   Done                     12/18/2018 22:03:25
00023 suncat0185 pw.x -in pw.inp   Done                     12/18/2018 22:03:25
00024 suncat0184 pw.x -in pw.inp   Done                     12/18/2018 22:03:25
00025 suncat0184 pw.x -in pw.inp   Done                     12/18/2018 22:03:25
00026 suncat0184 pw.x -in pw.inp   Done                     12/18/2018 22:03:25
00027 suncat0184 pw.x -in pw.inp   Done                     12/18/2018 22:03:25
00028 suncat0184 pw.x -in pw.inp   Done                     12/18/2018 22:03:25
00029 suncat0184 pw.x -in pw.inp   Done                     12/18/2018 22:03:25
00030 suncat0184 pw.x -in pw.inp   Done                     12/18/2018 22:03:25
00031 suncat0184 pw.x -in pw.inp   Done                     12/18/2018 22:03:25