     Program PWSCF v.5.1rc2 (svn rev. 11289) starts on 25Dec2018 at  6:23:52

     Current dimensions of program PWSCF are:
     Max number of different atomic species (ntypx) = 10
     Max number of k-points (npk) =  40000
     Max angular momentum in pseudopotentials (lmaxx) =  3
     Presently stress not available with electric field

     IMPORTANT: XC functional enforced from input :
     Exchange-correlation      = BEEF-VDW ( 1  4 27 13 2)
     Any further DFT definition will be discarded
     Please, verify this is what you really want

     Subspace diagonalization in iterative solution of the eigenvalue problem:
     a serial algorithm will be used

     Found symmetry operation: I + ( -0.5000  0.5000  0.0000)
     This is a supercell, fractional translations are disabled

     bravais-lattice index     =            0
     lattice parameter (alat)  =       1.8897  a.u.
     unit-cell volume          =    6728.7263 (a.u.)^3
     number of atoms/cell      =           12
     number of atomic types    =            2
     number of electrons       =       198.00
     number of Kohn-Sham states=          129
     kinetic-energy cutoff     =      36.7493  Ry
     charge density cutoff     =     367.4932  Ry
     convergence threshold     =      1.0E-06
     mixing beta               =       0.1000
     number of iterations used =           10  plain     mixing
     Exchange-correlation      = BEEF-VDW ( 1  4 27 13 2)
     nstep                     =           50

     celldm(1)=   1.889726  celldm(2)=   0.000000  celldm(3)=   0.000000
     celldm(4)=   0.000000  celldm(5)=   0.000000  celldm(6)=   0.000000

     crystal axes: (cart. coord. in units of alat)
               a(1) = (   6.488661   0.000000   0.000000 )
               a(2) = (   2.305139   6.065398   0.000000 )
               a(3) = (   0.000000   0.000000  25.335054 )

     reciprocal axes: (cart. coord. in units 2 pi/alat)
               b(1) = (  0.154115 -0.058571  0.000000 )
               b(2) = (  0.000000  0.164870  0.000000 )
               b(3) = (  0.000000  0.000000  0.039471 )

     PseudoPot. # 1 for Zn read from file:
     /afs/slac.stanford.edu/u/if/mamunm/psp/gbrv1.5pbe/Zn.UPF
     MD5 check sum: df62231357ef9e81f77b2b3087fa5675
     Pseudo is Ultrasoft, Zval = 20.0
     Generated by new atomic code, or converted to UPF format
     Using radial grid of  943 points,  6 beta functions with:
                l(1) =   0
                l(2) =   0
                l(3) =   1
                l(4) =   1
                l(5) =   2
                l(6) =   2
     Q(r) pseudized with  8 coefficients,  rinner =    1.100   1.100   1.100
                                                       1.100   1.100

     PseudoPot. # 2 for Tl read from file:
     /afs/slac.stanford.edu/u/if/mamunm/psp/gbrv1.5pbe/Tl.UPF
     MD5 check sum: b76cf1f7e72655a2b2c53cf6385d7059
     Pseudo is Ultrasoft + core correction, Zval = 13.0
     Generated by new atomic code, or converted to UPF format
     Using radial grid of  899 points,  6 beta functions with:
                l(1) =   0
                l(2) =   0
                l(3) =   1
                l(4) =   1
                l(5) =   2
                l(6) =   2
     Q(r) pseudized with  6 coefficients,  rinner =    1.100   1.100   1.100
                                                       1.100   1.100

     vdW kernel table read from file vdW_kernel_table
     MD5 check sum: 095c7af220d748ca6e76c0b4c6cfb241

     atomic species   valence    mass     pseudopotential
        Zn1           20.00    65.38000     Zn( 1.00)
        Tl1           13.00   204.38000     Tl( 1.00)

     No symmetry found

   Cartesian axes

     site n.     atom                  positions (alat units)
         1           Zn1 tau(   1) = (   0.0000000   0.0000000  10.0000000  )
         2           Zn1 tau(   2) = (   4.3969001   3.0326992  10.0000000  )
         3           Tl1 tau(   3) = (   3.2443306   0.0000000  10.0000000  )
         4           Tl1 tau(   4) = (   1.1525695   3.0326992  10.0000000  )
         5           Zn1 tau(   5) = (   6.4886611   4.4754615  12.6675271  )
         6           Zn1 tau(   6) = (   2.0917610   1.4427624  12.6675271  )
         7           Tl1 tau(   7) = (   3.2443306   4.4754615  12.6675271  )
         8           Tl1 tau(   8) = (   5.3360916   1.4427624  12.6675271  )
         9           Zn1 tau(   9) = (   4.1835221   2.8855247  15.3350543  )
        10           Zn1 tau(  10) = (   8.5804221   5.9182239  15.3350543  )
        11           Tl1 tau(  11) = (   7.4278526   2.8855247  15.3350543  )
        12           Tl1 tau(  12) = (   5.3360916   5.9182239  15.3350543  )

     number of k points=    20  Fermi-Dirac smearing, width (Ry)=  0.0110
                       cart. coord. in units 2pi/alat
        k(    1) = (   0.0000000   0.0000000   0.0000000), wk =   0.0555556
        k(    2) = (   0.0000000   0.0274783   0.0000000), wk =   0.1111111
        k(    3) = (   0.0000000   0.0549565   0.0000000), wk =   0.1111111
        k(    4) = (   0.0000000  -0.0824348   0.0000000), wk =   0.0555556
        k(    5) = (   0.0256858  -0.0097618   0.0000000), wk =   0.1111111
        k(    6) = (   0.0256858   0.0177164   0.0000000), wk =   0.1111111
        k(    7) = (   0.0256858   0.0451947   0.0000000), wk =   0.1111111
        k(    8) = (   0.0256858  -0.0921967   0.0000000), wk =   0.1111111
        k(    9) = (   0.0256858  -0.0647184   0.0000000), wk =   0.1111111
        k(   10) = (   0.0256858  -0.0372401   0.0000000), wk =   0.1111111
        k(   11) = (   0.0513717  -0.0195237   0.0000000), wk =   0.1111111
        k(   12) = (   0.0513717   0.0079546   0.0000000), wk =   0.1111111
        k(   13) = (   0.0513717   0.0354329   0.0000000), wk =   0.1111111
        k(   14) = (   0.0513717  -0.1019585   0.0000000), wk =   0.1111111
        k(   15) = (   0.0513717  -0.0744802   0.0000000), wk =   0.1111111
        k(   16) = (   0.0513717  -0.0470019   0.0000000), wk =   0.1111111
        k(   17) = (  -0.0770575   0.0292855   0.0000000), wk =   0.0555556
        k(   18) = (  -0.0770575   0.0567638   0.0000000), wk =   0.1111111
        k(   19) = (  -0.0770575   0.0842420   0.0000000), wk =   0.1111111
        k(   20) = (  -0.0770575  -0.0531493   0.0000000), wk =   0.0555556

     Largest allocated arrays     est. size (Mb)     dimensions
     Largest temporary arrays     est. size (Mb)     dimensions

     Check: negative/imaginary core charge=   -0.000001    0.000000

     Initial potential from superposition of free atoms
     Check: negative starting charge=   -0.307952

     starting charge  197.96996, renormalised to  198.00000

     negative rho (up, down):  3.080E-01 0.000E+00

     *
     * You are using vdW-DF for exchange-correlation in this calculation.
     * Please cite the following three references that made this development
     * possible:
     *
     *   M. Dion, H. Rydberg, E. Schroder, D. C. Langreth, and
     *   B. I. Lundqvist, Phys. Rev. Lett. 92, 246401 (2004).
     *
     *   T. Thonhauser, V. R. Cooper, S. Li, A. Puzder, P. Hyldgaard, and
     *   D. C. Langreth, Phys. Rev. B 76, 125112 (2007).
     *
     *   G. Roman-Perez and J. M. Soler, Phys. Rev. Lett. 103, 096102 (2009).
     *
     *
     * If you are using vdW-DF2, please also cite:
     *
     *   K. Lee, E. D. Murray, L. Kong, B. I. Lundqvist, and
     *   D. C. Langreth, Phys. Rev. B 82, 081101(R) (2010).
     *
     *
     * If you are calculating the stress with vdW-DF, please also cite:
     *
     *   R. Sabatini, E. Kucukbenli, B. Kolb, T. Thonhauser, and
     *   S. de Gironcoli, J. Phys.: Condens. Matter 24, 424209 (2012).
     *

     Carrying out vdW-DF run using the following parameters:

     Nqs =      20    Nr_points =    1024   r_max =   100.000
     q_mesh =
               0.00001000     0.04494208     0.09755937     0.15916263
               0.23128650     0.31572767     0.41458969     0.53033537
               0.66584808     0.82450364     1.01025438     1.22772762
               1.48234092     1.78043706     2.12944203     2.53805004
               3.01644009     3.57652955     4.23227104     5.00000000

     Gradients computed in reciprocal space

     Adding external electric field

     Computed dipole along edir(3) :
        Dipole                0.0000 Ry au,          0.0000 Debye
        Dipole field          0.0000 Ry au

        Potential amp.       -0.0000 Ry
        Total length         46.6794 bohr

     Starting wfc are  132 randomized atomic wfcs

     Self-consistent Calculation

     iteration #  1     ecut=    36.75 Ry     beta=0.10
     Davidson diagonalization with overlap
     ethr =  1.00E-02,  avg # of iterations =  8.1

     Threshold (ethr) on eigenvalues was too large:
     Diagonalizing with lowered threshold

     Davidson diagonalization with overlap
     ethr =  3.71E-05,  avg # of iterations =  8.1

[...]

     total energy              =   -3657.33238009 Ry
     Harris-Foulkes estimate   =   -3657.34306892 Ry
     estimated scf accuracy    <       0.07666942 Ry

[...]

     End of self-consistent calculation

          k = 0.0000 0.0000 0.0000 ( 25299 PWs)   bands (ev):

  -126.2159-126.2159-126.1187-126.1187-126.1187-126.1187 -80.3990 -80.3989
   -80.3971 -80.3969 -80.3961 -80.3958 -80.3038 -80.3037 -80.3036 -80.3035
   -80.3010 -80.3009 -80.3007 -80.3007 -80.3006 -80.3006 -80.3003 -80.3002
   -11.8198 -11.7918 -11.7834 -11.7638 -11.7599 -11.7575 -11.7447 -11.7247
   -11.7089 -11.6900 -11.6841 -11.6617 -11.6602 -11.6590 -11.6540 -11.6403
   -11.6401 -11.6335 -11.6226 -11.6118 -11.6091 -11.6062 -11.5976 -11.5787
   -11.5531 -11.5362 -11.5127 -11.4919 -11.4640 -11.4250  -8.5080  -7.4807
    -7.3316  -7.3153  -7.2755  -7.1682  -7.1485  -7.1157  -7.0962  -7.0907
    -7.0718  -7.0554  -7.0539  -7.0517  -7.0487  -7.0477  -7.0371  -7.0141
    -7.0127  -7.0006  -6.9997  -6.9924  -6.9789  -6.9783  -6.9732  -6.9699
    -6.9664  -6.9660  -6.9628  -6.9404  -6.9285  -6.8303  -5.4432  -4.9877
    -4.9454  -4.5697  -2.8903  -2.8174  -2.4519  -1.8577  -1.7109  -1.4564
    -1.4300  -1.2515  -0.8888  -0.7015  -0.3082   0.0075   0.0393   0.2579
     0.4582   1.4199   1.6513   2.6893   3.1246   3.3339   3.3342   3.4723
     3.4920   4.0986   4.2571   4.4049   4.4507   4.6586   4.7979   5.2459
     5.2644   6.0187   6.2908   6.3360   6.4591   6.5625   6.8293   6.9502
     6.9824

[...]

          k =-0.0771 0.0293 0.0000 ( 25270 PWs)   bands (ev):

[...]

     the Fermi energy is     0.1198 ev

!    total energy              =   -3657.33138169 Ry
     Harris-Foulkes estimate   =   -3657.33130008 Ry
     estimated scf accuracy    <       0.00000016 Ry

     The total energy is the sum of the following terms:

     one-electron contribution =  -16412.18023220 Ry
     hartree contribution      =    8233.84441613 Ry
     xc contribution           =    -643.98199684 Ry
     ewald contribution        =    5165.02060263 Ry
     electric field correction =       0.00000000 Ry
     smearing contrib. (-TS)   =      -0.03417141 Ry

     convergence has been achieved in  12 iterations

 BEEF-vdW xc energy contributions
[...]
                l(6) =   2
     Q(r) pseudized with  8 coefficients,  rinner =    1.100   1.100   1.100
                                                       1.100   1.100

     PseudoPot. # 2 for Tl read from file:
     /afs/slac.stanford.edu/u/if/mamunm/psp/gbrv1.5pbe/Tl.UPF
     MD5 check sum: b76cf1f7e72655a2b2c53cf6385d7059
     Pseudo is Ultrasoft + core correction, Zval = 13.0
     Generated by new atomic code, or converted to UPF format
     Using radial grid of  899 points,  6 beta functions with:
                l(1) =   0
                l(2) =   0
                l(3) =   1
                l(4) =   1
                l(5) =   2
                l(6) =   2
     Q(r) pseudized with  6 coefficients,  rinner =    1.100   1.100   1.100
                                                       1.100   1.100

     vdW kernel table read from file vdW_kernel_table
     MD5 check sum: 095c7af220d748ca6e76c0b4c6cfb241

     atomic species   valence    mass     pseudopotential
        Zn1           20.00    65.38000     Zn( 1.00)
        Tl1           13.00   204.38000     Tl( 1.00)

     No symmetry found

   Cartesian axes

     site n.     atom                  positions (alat units)
         1           Zn1 tau(   1) = (   0.0000000   0.0000000  10.0000000  )
         2           Zn1 tau(   2) = (   4.3969001   3.0326992  10.0000000  )
         3           Tl1 tau(   3) = (   3.2443306   0.0000000  10.0000000  )
         4           Tl1 tau(   4) = (   1.1525695   3.0326992  10.0000000  )
         5           Zn1 tau(   5) = (   6.4886611   4.4754615  12.6675271  )
         6           Zn1 tau(   6) = (   2.0917610   1.4427624  12.6675271  )
         7           Tl1 tau(   7) = (   3.2443306   4.4754615  12.6675271  )
         8           Tl1 tau(   8) = (   5.3360916   1.4427624  12.6675271  )
         9           Zn1 tau(   9) = (   4.1736080   2.8786694  15.3715080  )
        10           Zn1 tau(  10) = (   8.5660473   5.9083376  15.3716690  )
        11           Tl1 tau(  11) = (   7.4455880   2.8995257  15.4110522  )
        12           Tl1 tau(  12) = (   5.3555246   5.9297865  15.4111007  )

     number of k points=    20  Fermi-Dirac smearing, width (Ry)=  0.0110
                       cart. coord. in units 2pi/alat
        k(    1) = (   0.0000000   0.0000000   0.0000000), wk =   0.0555556
        k(    2) = (   0.0000000   0.0274783   0.0000000), wk =   0.1111111
        k(    3) = (   0.0000000   0.0549565   0.0000000), wk =   0.1111111
        k(    4) = (   0.0000000  -0.0824348   0.0000000), wk =   0.0555556
        k(    5) = (   0.0256858  -0.0097618   0.0000000), wk =   0.1111111
        k(    6) = (   0.0256858   0.0177164   0.0000000), wk =   0.1111111
        k(    7) = (   0.0256858   0.0451947   0.0000000), wk =   0.1111111
        k(    8) = (   0.0256858  -0.0921967   0.0000000), wk =   0.1111111
        k(    9) = (   0.0256858  -0.0647184   0.0000000), wk =   0.1111111
        k(   10) = (   0.0256858  -0.0372401   0.0000000), wk =   0.1111111
        k(   11) = (   0.0513717  -0.0195237   0.0000000), wk =   0.1111111
        k(   12) = (   0.0513717   0.0079546   0.0000000), wk =   0.1111111
        k(   13) = (   0.0513717   0.0354329   0.0000000), wk =   0.1111111
        k(   14) = (   0.0513717  -0.1019585   0.0000000), wk =   0.1111111
        k(   15) = (   0.0513717  -0.0744802   0.0000000), wk =   0.1111111
        k(   16) = (   0.0513717  -0.0470019   0.0000000), wk =   0.1111111
        k(   17) = (  -0.0770575   0.0292855   0.0000000), wk =   0.0555556
        k(   18) = (  -0.0770575   0.0567638   0.0000000), wk =   0.1111111
        k(   19) = (  -0.0770575   0.0842420   0.0000000), wk =   0.1111111
        k(   20) = (  -0.0770575  -0.0531493   0.0000000), wk =   0.0555556

     Largest allocated arrays     est. size (Mb)     dimensions
     Largest temporary arrays     est. size (Mb)     dimensions

     Check: negative/imaginary core charge=   -0.000001    0.000000

     Initial potential from superposition of free atoms
     Check: negative starting charge=   -0.307956

     starting charge  197.96996, renormalised to  198.00000

[...]

     *
     * You are using vdW-DF for exchange-correlation in this calculation.
     * Please cite the following three references that made this development
     * possible:
     *
     *   M. Dion, H. Rydberg, E. Schroder, D. C. Langreth, and
     *   B. I. Lundqvist, Phys. Rev. Lett. 92, 246401 (2004).
     *
     *   T. Thonhauser, V. R. Cooper, S. Li, A. Puzder, P. Hyldgaard, and
     *   D. C. Langreth, Phys. Rev. B 76, 125112 (2007).
     *
     *   G. Roman-Perez and J. M. Soler, Phys. Rev. Lett. 103, 096102 (2009).
     *
     *
     * If you are using vdW-DF2, please also cite:
     *
     *   K. Lee, E. D. Murray, L. Kong, B. I. Lundqvist, and
     *   D. C. Langreth, Phys. Rev. B 82, 081101(R) (2010).
     *
     *
     * If you are calculating the stress with vdW-DF, please also cite:
     *
     *   R. Sabatini, E. Kucukbenli, B. Kolb, T. Thonhauser, and
     *   S. de Gironcoli, J. Phys.: Condens. Matter 24, 424209 (2012).
     *

     Carrying out vdW-DF run using the following parameters:

     Nqs =      20    Nr_points =    1024   r_max =   100.000
     q_mesh =
               0.00001000     0.04494208     0.09755937     0.15916263
               0.23128650     0.31572767     0.41458969     0.53033537
               0.66584808     0.82450364     1.01025438     1.22772762
               1.48234092     1.78043706     2.12944203     2.53805004
               3.01644009     3.57652955     4.23227104     5.00000000

     Gradients computed in reciprocal space

[...]

     Starting wfc are  132 randomized atomic wfcs

     Self-consistent Calculation

[...]

     Threshold (ethr) on eigenvalues was too large:
     Diagonalizing with lowered threshold

     Davidson diagonalization with overlap
     ethr =  3.67E-05,  avg # of iterations =  8.0

[...]

     total energy              =   -3657.33211808 Ry
     Harris-Foulkes estimate   =   -3657.33206329 Ry
     estimated scf accuracy    <       0.00000291 Ry

     iteration # 11     ecut=    36.75 Ry     beta=0.10
     Davidson diagonalization with overlap
     ethr =  1.47E-09,  avg # of iterations =  2.3

[...]

     negative rho (up, down):  3.182E-01 0.000E+00

     Adding external electric field

     Computed dipole along edir(3) :
        Dipole                0.0112 Ry au,          0.0286 Debye
        Dipole field          0.0000 Ry au

        Potential amp.       -0.0020 Ry
        Total length         46.6794 bohr

     End of self-consistent calculation

[...]

          k = 0.0514-0.0470 0.0000 ( 25280 PWs)   bands (ev):

[...]

          k =-0.0771-0.0531 0.0000 ( 25378 PWs)   bands (ev):

  -126.1929-126.1926-126.1067-126.1063-126.1060-126.1059 -80.3757 -80.3754
   -80.3744 -80.3741 -80.3732 -80.3731 -80.2913 -80.2911 -80.2910 -80.2909
   -80.2891 -80.2887 -80.2885 -80.2879 -80.2878 -80.2878 -80.2877 -80.2872
   -11.7958 -11.7806 -11.7522 -11.7362 -11.7253 -11.7203 -11.7131 -11.7095
   -11.7002 -11.6666 -11.6552 -11.6534 -11.6529 -11.6487 -11.6327 -11.6309
   -11.6305 -11.6116 -11.6045 -11.6018 -11.5942 -11.5897 -11.5815 -11.5552
   -11.5459 -11.5347 -11.5159 -11.5068 -11.4789 -11.4151  -7.3356  -7.3067
    -7.1980  -7.1423  -7.1347  -7.1186  -7.1129  -7.0994  -7.0923  -7.0630
    -7.0520  -7.0516  -7.0481  -7.0473  -7.0465  -7.0433  -7.0345  -7.0212
    -7.0082  -7.0073  -6.9943  -6.9924  -6.9813  -6.9805  -6.9775  -6.9616
    -6.9541  -6.9519  -6.9286  -6.9251  -6.8956  -6.8592  -6.6070  -6.1299
    -5.1587  -4.4870  -4.2727  -4.0730  -3.5598  -3.1077  -3.0291  -1.3777
     0.2888   0.7345   0.7692   1.0287   1.0990   1.5800   1.7811   2.4178
     2.4985   2.5706   2.8017   2.8271   3.0689   3.4838   3.5153   3.7600
     4.3367   4.4211   4.4238   4.6830   4.7377   4.7781   4.7817   4.9558
     4.9850   4.9990   5.0395   5.1038   5.4662   5.5599   5.6186   5.6483
     5.7529

     the Fermi energy is     0.1357 ev

!    total energy              =   -3657.33223078 Ry
     Harris-Foulkes estimate   =   -3657.33211855 Ry
     estimated scf accuracy    <       0.00000058 Ry

     The total energy is the sum of the following terms:

     one-electron contribution =  -16308.64287807 Ry
     hartree contribution      =    8182.17910107 Ry
     xc contribution           =    -643.96048531 Ry
     ewald contribution        =    5113.12625085 Ry
     electric field correction =       0.00000024 Ry
     smearing contrib. (-TS)   =      -0.03421956 Ry

     convergence has been achieved in  11 iterations

 BEEF-vdW xc energy contributions
           1 :   -573.058653881275
           2 :    526.242351695001
           3 :   -446.040431727195
           4 :    353.112869726051
           5 :   -266.734669918848
           6 :    198.152743521385
           7 :   -148.772530491286
           8 :    113.117898417805
           9 :   -84.1373754202258
          10 :    57.5956044762419
          11 :   -33.4297322299319
          12 :    14.0767374816447
          13 :   -1.59092134230889
          14 :   -4.29433634746249
          15 :    6.06175246434407
          16 :   -6.76184212849023
          17 :    8.25184388595687
          18 :   -10.5544293062474
          19 :    12.5419798640997
          20 :   -13.2042641355368
          21 :    12.4924023059515
          22 :   -11.2388524530207
          23 :    10.4046412707146
          24 :   -10.3557671346432
          25 :    10.7155720491511
          26 :   -10.8111887636923
          27 :    10.2618501271470
          28 :   -9.22147394307149
          29 :    8.13767492064221
          30 :   -7.31194050691386
          31 :   -45.2242920911964
          32 :   -31.9833982975606

     Forces acting on atoms (Ry/au):

     negative rho (up, down):  3.182E-01 0.000E+00
     atom    1 type  1   force =     0.00048731    0.00033751   -0.00174581
     atom    2 type  1   force =     0.00050508    0.00034519   -0.00174948
     atom    3 type  2   force =    -0.00077728   -0.00050800   -0.00287036
     atom    4 type  2   force =    -0.00074899   -0.00054675   -0.00286473
     atom    5 type  1   force =    -0.00020196   -0.00014467    0.00156669
     atom    6 type  1   force =    -0.00002312   -0.00001106    0.00161654
     atom    7 type  2   force =     0.00049485    0.00032742    0.00187701
     atom    8 type  2   force =     0.00048280    0.00035026    0.00187644
     atom    9 type  1   force =     0.00071786    0.00049831    0.00114723
     atom   10 type  1   force =     0.00083033    0.00057040    0.00113713
     atom   11 type  2   force =    -0.00082393   -0.00069363    0.00000592
     atom   12 type  2   force =    -0.00094296   -0.00052498    0.00000340

     Total force =     0.006678     Total SCF correction =     0.002503
     SCF correction compared to forces is large: reduce conv_thr to get better values

     entering subroutine stress ...

     negative rho (up, down):  3.182E-01 0.000E+00
          total   stress  (Ry/bohr**3)                   (kbar)     P=   -7.13
  -0.00006132  -0.00000286   0.00000026         -9.02     -0.42      0.04
  -0.00000286  -0.00005915   0.00000018         -0.42     -8.70      0.03
   0.00000026   0.00000018  -0.00002484          0.04      0.03     -3.65

 !ASE

     Writing output data file calc.save

     General routines

     Parallel routines

   This run was terminated on:  23:30:56  25Dec2018

   JOB DONE.
Job  /afs/slac/g/suncat/bin/suncat-tsmpirun -x LD_LIBRARY_PATH -wdir /scratch/qe109251_viYYB pw.x -in pw.inp

TID   HOST_NAME   COMMAND_LINE            STATUS            TERMINATION_TIME
00000 suncat0044 pw.x -in pw.inp   Done                     12/25/2018 23:30:56
00001 suncat0044 pw.x -in pw.inp   Done                     12/25/2018 23:30:56
00002 suncat0044 pw.x -in pw.inp   Done                     12/25/2018 23:30:56
00003 suncat0044 pw.x -in pw.inp   Done                     12/25/2018 23:30:56
00004 suncat0044 pw.x -in pw.inp   Done                     12/25/2018 23:30:56
00005 suncat0044 pw.x -in pw.inp   Done                     12/25/2018 23:30:56
00006 suncat0044 pw.x -in pw.inp   Done                     12/25/2018 23:30:56
00007 suncat0044 pw.x -in pw.inp   Done                     12/25/2018 23:30:56
00008 suncat0038 pw.x -in pw.inp   Done                     12/25/2018 23:30:56
00009 suncat0038 pw.x -in pw.inp   Done                     12/25/2018 23:30:56
00010 suncat0038 pw.x -in pw.inp   Done                     12/25/2018 23:30:56
00011 suncat0038 pw.x -in pw.inp   Done                     12/25/2018 23:30:56
00012 suncat0038 pw.x -in pw.inp   Done                     12/25/2018 23:30:56
00013 suncat0038 pw.x -in pw.inp   Done                     12/25/2018 23:30:56
00014 suncat0038 pw.x -in pw.inp   Done                     12/25/2018 23:30:56
00015 suncat0038 pw.x -in pw.inp   Done                     12/25/2018 23:30:56
00016 suncat0037 pw.x -in pw.inp   Done                     12/25/2018 23:30:56
00017 suncat0037 pw.x -in pw.inp   Done                     12/25/2018 23:30:56
00018 suncat0037 pw.x -in pw.inp   Done                     12/25/2018 23:30:56
00019 suncat0037 pw.x -in pw.inp   Done                     12/25/2018 23:30:56
00020 suncat0037 pw.x -in pw.inp   Done                     12/25/2018 23:30:56
00021 suncat0037 pw.x -in pw.inp   Done                     12/25/2018 23:30:56
00022 suncat0037 pw.x -in pw.inp   Done                     12/25/2018 23:30:56
00023 suncat0037 pw.x -in pw.inp   Done                     12/25/2018 23:30:56
00024 suncat0036 pw.x -in pw.inp   Done                     12/25/2018 23:30:56
00025 suncat0036 pw.x -in pw.inp   Done                     12/25/2018 23:30:56
00026 suncat0036 pw.x -in pw.inp   Done                     12/25/2018 23:30:56
00027 suncat0036 pw.x -in pw.inp   Done                     12/25/2018 23:30:56
00028 suncat0036 pw.x -in pw.inp   Done                     12/25/2018 23:30:56
00029 suncat0036 pw.x -in pw.inp   Done                     12/25/2018 23:30:56
00030 suncat0036 pw.x -in pw.inp   Done                     12/25/2018 23:30:56
00031 suncat0036 pw.x -in pw.inp   Done                     12/25/2018 23:30:56
00032 suncat0035 pw.x -in pw.inp   Done                     12/25/2018 23:30:56
00033 suncat0035 pw.x -in pw.inp   Done                     12/25/2018 23:30:56
00034 suncat0035 pw.x -in pw.inp   Done                     12/25/2018 23:30:56
00035 suncat0035 pw.x -in pw.inp   Done                     12/25/2018 23:30:56
00036 suncat0035 pw.x -in pw.inp   Done                     12/25/2018 23:30:56
00037 suncat0035 pw.x -in pw.inp   Done                     12/25/2018 23:30:56
00038 suncat0035 pw.x -in pw.inp   Done                     12/25/2018 23:30:56
00039 suncat0035 pw.x -in pw.inp   Done                     12/25/2018 23:30:56
00040 suncat0033 pw.x -in pw.inp   Done                     12/25/2018 23:30:56
00041 suncat0033 pw.x -in pw.inp   Done                     12/25/2018 23:30:56
00042 suncat0033 pw.x -in pw.inp   Done                     12/25/2018 23:30:56
00043 suncat0033 pw.x -in pw.inp   Done                     12/25/2018 23:30:56
00044 suncat0033 pw.x -in pw.inp   Done                     12/25/2018 23:30:56
00045 suncat0033 pw.x -in pw.inp   Done                     12/25/2018 23:30:56
00046 suncat0033 pw.x -in pw.inp   Done                     12/25/2018 23:30:56
00047 suncat0033 pw.x -in pw.inp   Done                     12/25/2018 23:30:56
00048 suncat0032 pw.x -in pw.inp   Done                     12/25/2018 23:30:56
00049 suncat0032 pw.x -in pw.inp   Done                     12/25/2018 23:30:56
00050 suncat0032 pw.x -in pw.inp   Done                     12/25/2018 23:30:56
00051 suncat0032 pw.x -in pw.inp   Done                     12/25/2018 23:30:56
00052 suncat0032 pw.x -in pw.inp   Done                     12/25/2018 23:30:56
00053 suncat0032 pw.x -in pw.inp   Done                     12/25/2018 23:30:56
00054 suncat0032 pw.x -in pw.inp   Done                     12/25/2018 23:30:56
00055 suncat0032 pw.x -in pw.inp   Done                     12/25/2018 23:30:56
00056 suncat0019 pw.x -in pw.inp   Done                     12/25/2018 23:30:56
00057 suncat0019 pw.x -in pw.inp   Done                     12/25/2018 23:30:56
00058 suncat0019 pw.x -in pw.inp   Done                     12/25/2018 23:30:56
00059 suncat0019 pw.x -in pw.inp   Done                     12/25/2018 23:30:56
00060 suncat0019 pw.x -in pw.inp   Done                     12/25/2018 23:30:56
00061 suncat0019 pw.x -in pw.inp   Done                     12/25/2018 23:30:56
00062 suncat0019 pw.x -in pw.inp   Done                     12/25/2018 23:30:56
00063 suncat0019 pw.x -in pw.inp   Done                     12/25/2018 23:30:56