     Program PWSCF v.5.1rc2 (svn rev. 11289) starts on 19Dec2018 at  2:15:37

     Current dimensions of program PWSCF are:
     Max number of different atomic species (ntypx) = 10
     Max number of k-points (npk) =  40000
     Max angular momentum in pseudopotentials (lmaxx) =  3
     Presently stress not available with electric field

     IMPORTANT: XC functional enforced from input :
     Exchange-correlation      = BEEF-VDW ( 1  4 27 13 2)
     Any further DFT definition will be discarded
     Please, verify this is what you really want

     Subspace diagonalization in iterative solution of the eigenvalue problem:
     a serial algorithm will be used

     Found symmetry operation: I + ( -0.5000 -0.5000  0.0000)
     This is a supercell, fractional translations are disabled

     bravais-lattice index     =            0
     lattice parameter (alat)  =       1.8897  a.u.
     unit-cell volume          =    4315.9745 (a.u.)^3
     number of atoms/cell      =           12
     number of atomic types    =            2
     number of electrons       =       186.00
     number of Kohn-Sham states=          123
     kinetic-energy cutoff     =      36.7493  Ry
     charge density cutoff     =     367.4932  Ry
     convergence threshold     =      1.0E-06
     mixing beta               =       0.1000
     number of iterations used =           10  plain     mixing
     Exchange-correlation      = BEEF-VDW ( 1  4 27 13 2)
     nstep                     =           50

     celldm(1)=   1.889726  celldm(2)=   0.000000  celldm(3)=   0.000000
     celldm(4)=   0.000000  celldm(5)=   0.000000  celldm(6)=   0.000000

     crystal axes: (cart. coord. in units of alat)
               a(1) = (   5.490834   0.000000   0.000000 )
               a(2) = (   2.741833   4.757269   0.000000 )
               a(3) = (   0.000000   0.000000  24.484219 )

     reciprocal axes: (cart. coord. in units 2 pi/alat)
               b(1) = (  0.182122 -0.104965  0.000000 )
               b(2) = (  0.000000  0.210205  0.000000 )
               b(3) = (  0.000000  0.000000  0.040843 )

     PseudoPot. # 1 for Re read from file:
     /afs/slac.stanford.edu/u/if/mamunm/psp/gbrv1.5pbe/Re.UPF
     MD5 check sum: 85f993410f3e006da9d71c142b4ad953
     Pseudo is Ultrasoft + core correction, Zval = 15.0
     Generated by new atomic code, or converted to UPF format
     Using radial grid of  981 points,  8 beta functions with:
                l(1) =   0
                l(2) =   0
                l(3) =   1
                l(4) =   1
                l(5) =   2
                l(6) =   2
                l(7) =   3
                l(8) =   3
     Q(r) pseudized with  8 coefficients,  rinner =    1.150   1.150   1.150
                                                       1.150   1.150   1.150
                                                       1.150

     PseudoPot. # 2 for Os read from file:
     /afs/slac.stanford.edu/u/if/mamunm/psp/gbrv1.5pbe/Os.UPF
     MD5 check sum: a3fb40a04f0c37c25c34bbc47164c9a8
     Pseudo is Ultrasoft + core correction, Zval = 16.0
     Generated by new atomic code, or converted to UPF format
     Using radial grid of  983 points,  8 beta functions with:
                l(1) =   0
                l(2) =   0
                l(3) =   1
                l(4) =   1
                l(5) =   2
                l(6) =   2
                l(7) =   3
                l(8) =   3
     Q(r) pseudized with  8 coefficients,  rinner =    1.150   1.150   1.150
                                                       1.150   1.150   1.150
                                                       1.150

     vdW kernel table read from file vdW_kernel_table
     MD5 check sum: 095c7af220d748ca6e76c0b4c6cfb241

     atomic species   valence    mass     pseudopotential
        Re1           15.00   186.20700     Re( 1.00)
        Os1           16.00   190.23000     Os( 1.00)

     No symmetry found

   Cartesian axes

     site n.     atom                  positions (alat units)
         1           Re1 tau(   1) = (   0.0000000   0.0000000  10.0000000  )
         2           Re1 tau(   2) = (   4.1163335   2.3786345  10.0000000  )
         3           Os1 tau(   3) = (   2.7454170   0.0000000  10.0000000  )
         4           Os1 tau(   4) = (   1.3709165   2.3786345  10.0000000  )
         5           Re1 tau(   5) = (   5.4908339   3.1728933  12.2421095  )
         6           Re1 tau(   6) = (   1.3745004   0.7942588  12.2421095  )
         7           Os1 tau(   7) = (   2.7454170   3.1728933  12.2421095  )
         8           Os1 tau(   8) = (   4.1199174   0.7942588  12.2421095  )
         9           Re1 tau(   9) = (   2.7490008   1.5885176  14.4842190  )
        10           Re1 tau(  10) = (   6.8653343   3.9671521  14.4842190  )
        11           Os1 tau(  11) = (   5.4944178   1.5885176  14.4842190  )
        12           Os1 tau(  12) = (   4.1199174   3.9671521  14.4842190  )

     number of k points=    20  Fermi-Dirac smearing, width (Ry)=  0.0110
                       cart. coord. in units 2pi/alat
        k(    1) = (   0.0000000   0.0000000   0.0000000), wk =   0.0555556
        k(    2) = (   0.0000000   0.0350341   0.0000000), wk =   0.1111111
        k(    3) = (   0.0000000   0.0700682   0.0000000), wk =   0.1111111
        k(    4) = (   0.0000000  -0.1051023   0.0000000), wk =   0.0555556
        k(    5) = (   0.0303536  -0.0174942   0.0000000), wk =   0.1111111
        k(    6) = (   0.0303536   0.0175399   0.0000000), wk =   0.1111111
        k(    7) = (   0.0303536   0.0525740   0.0000000), wk =   0.1111111
        k(    8) = (   0.0303536  -0.1225965   0.0000000), wk =   0.1111111
        k(    9) = (   0.0303536  -0.0875624   0.0000000), wk =   0.1111111
        k(   10) = (   0.0303536  -0.0525283   0.0000000), wk =   0.1111111
        k(   11) = (   0.0607072  -0.0349884   0.0000000), wk =   0.1111111
        k(   12) = (   0.0607072   0.0000457   0.0000000), wk =   0.1111111
        k(   13) = (   0.0607072   0.0350798   0.0000000), wk =   0.1111111
        k(   14) = (   0.0607072  -0.1400907   0.0000000), wk =   0.1111111
        k(   15) = (   0.0607072  -0.1050566   0.0000000), wk =   0.1111111
        k(   16) = (   0.0607072  -0.0700225   0.0000000), wk =   0.1111111
        k(   17) = (  -0.0910608   0.0524826   0.0000000), wk =   0.0555556
        k(   18) = (  -0.0910608   0.0875167   0.0000000), wk =   0.1111111
        k(   19) = (  -0.0910608   0.1225508   0.0000000), wk =   0.1111111
        k(   20) = (  -0.0910608  -0.0526198   0.0000000), wk =   0.0555556

     Largest allocated arrays     est. size (Mb)     dimensions
     Largest temporary arrays     est. size (Mb)     dimensions

     Initial potential from superposition of free atoms
     Check: negative starting charge=   -1.517325

     starting charge  179.99951, renormalised to  186.00000

     negative rho (up, down):  1.568E+00 0.000E+00

     *
     * You are using vdW-DF for exchange-correlation in this calculation.
     * Please cite the following three references that made this development
     * possible:
     *
     *   M. Dion, H. Rydberg, E. Schroder, D. C. Langreth, and
     *   B. I. Lundqvist, Phys. Rev. Lett. 92, 246401 (2004).
     *
     *   T. Thonhauser, V. R. Cooper, S. Li, A. Puzder, P. Hyldgaard, and
     *   D. C. Langreth, Phys. Rev. B 76, 125112 (2007).
     *
     *   G. Roman-Perez and J. M. Soler, Phys. Rev. Lett. 103, 096102 (2009).
     *
     *
     * If you are using vdW-DF2, please also cite:
     *
     *   K. Lee, E. D. Murray, L. Kong, B. I. Lundqvist, and
     *   D. C. Langreth, Phys. Rev. B 82, 081101(R) (2010).
     *
     *
     * If you are calculating the stress with vdW-DF, please also cite:
     *
     *   R. Sabatini, E. Kucukbenli, B. Kolb, T. Thonhauser, and
     *   S. de Gironcoli, J. Phys.: Condens. Matter 24, 424209 (2012).
     *

     Carrying out vdW-DF run using the following parameters:

     Nqs =      20    Nr_points =    1024   r_max =   100.000
     q_mesh =
               0.00001000     0.04494208     0.09755937     0.15916263
               0.23128650     0.31572767     0.41458969     0.53033537
               0.66584808     0.82450364     1.01025438     1.22772762
               1.48234092     1.78043706     2.12944203     2.53805004
               3.01644009     3.57652955     4.23227104     5.00000000

     Gradients computed in reciprocal space

     Adding external electric field

     Computed dipole along edir(3) :
        Dipole                0.0000 Ry au,          0.0000 Debye
        Dipole field          0.0000 Ry au

        Potential amp.       -0.0000 Ry
        Total length         45.1118 bohr

     Starting wfc are  156 randomized atomic wfcs

     Self-consistent Calculation

     iteration #  1     ecut=    36.75 Ry     beta=0.10
     Davidson diagonalization with overlap
     ethr =  1.00E-02,  avg # of iterations =  6.7

[...]

     total energy              =   -2352.04819714 Ry
     Harris-Foulkes estimate   =   -2352.31981038 Ry
     estimated scf accuracy    <       1.95498055 Ry

[...]

     iteration #  7     ecut=    36.75 Ry     beta=0.10
     Davidson diagonalization with overlap
     c_bands:  2 eigenvalues not converged
     ethr =  1.18E-05,  avg # of iterations =  5.0

[...]

     End of self-consistent calculation

          k = 0.0000 0.0000 0.0000 ( 16111 PWs)   bands (ev):

   -84.0318 -84.0053 -83.5765 -83.5764 -83.5503 -83.5501 -78.0404 -78.0027
   -77.7749 -77.7741 -77.7377 -77.7370 -43.5500 -43.4080 -43.3536 -43.3453
   -43.2850 -43.0776 -43.0706 -43.0568 -42.8859 -42.8718 -42.8541 -42.8281
   -42.8238 -42.7992 -42.7954 -42.7704 -42.5903 -42.5900 -39.9857 -39.8244
   -39.7757 -39.7139 -39.6754 -39.6454 -39.6340 -39.5351 -39.4723 -39.4605
   -39.4188 -39.3933 -39.3923 -39.3566 -39.3196 -39.2762 -39.0507 -39.0482
    -6.5221  -4.5393  -4.0438  -3.6851  -3.6718  -3.6679  -3.3676  -3.3446
    -3.3294  -2.7196  -2.7168  -2.7083  -2.4916  -2.4590  -2.4412  -0.9986
    -0.9534  -0.8856  -0.1088  -0.0912  -0.0832   0.1770   0.2087   0.4453
     0.5597   0.8403   0.8724   1.0267   1.0364   1.0479   1.2148   1.2280
     1.2754   1.3537   1.3545   1.9879   2.6540   2.7412   2.8397   2.8438
     2.8723   3.1995   3.2381   3.2471   3.4054   4.0696   4.2353   4.2477
     4.3908   4.4108   4.4234   4.5145   4.7222   4.7814   5.1731   5.2996
     5.3379   5.3440   5.5075   5.9392   6.0039   6.1152   6.1871   6.4049
     6.5004   6.6203   6.7547   6.7663   6.8091   6.8915   7.3689   7.5474
     7.5699   7.7246   7.9257

[...]

          k =-0.0911 0.0525 0.0000 ( 16182 PWs)   bands (ev):

[...]

     the Fermi energy is     2.8385 ev

!    total energy              =   -2351.56567909 Ry
     Harris-Foulkes estimate   =   -2351.56567459 Ry
     estimated scf accuracy    <       0.00000041 Ry

     The total energy is the sum of the following terms:

     one-electron contribution =  -19657.51219568 Ry
     hartree contribution      =    9811.09838633 Ry
     xc contribution           =    -556.50764882 Ry
     ewald contribution        =    8051.43168542 Ry
     electric field correction =       0.00000000 Ry
[...]
     SCF correction compared to forces is large: reduce conv_thr to get better values

[...]

     Program PWSCF v.5.1rc2 (svn rev. 11289) starts on 19Dec2018 at  2:31:58

     Current dimensions of program PWSCF are:
     Max number of different atomic species (ntypx) = 10
     Max number of k-points (npk) =  40000
     Max angular momentum in pseudopotentials (lmaxx) =  3
     Presently stress not available with electric field

     IMPORTANT: XC functional enforced from input :
     Exchange-correlation      = BEEF-VDW ( 1  4 27 13 2)
     Any further DFT definition will be discarded
     Please, verify this is what you really want

     Subspace diagonalization in iterative solution of the eigenvalue problem:
     a serial algorithm will be used

     Found symmetry operation: I + ( -0.5000 -0.5000  0.0000)
     This is a supercell, fractional translations are disabled

     bravais-lattice index     =            0
     lattice parameter (alat)  =       1.8897  a.u.
     unit-cell volume          =    4315.9745 (a.u.)^3
     number of atoms/cell      =           12
     number of atomic types    =            2
     number of electrons       =       186.00
     number of Kohn-Sham states=          123
     kinetic-energy cutoff     =      36.7493  Ry
     charge density cutoff     =     367.4932  Ry
     convergence threshold     =      1.0E-06
     mixing beta               =       0.1000
     number of iterations used =           10  plain     mixing
     Exchange-correlation      = BEEF-VDW ( 1  4 27 13 2)
     nstep                     =           50

     celldm(1)=   1.889726  celldm(2)=   0.000000  celldm(3)=   0.000000
     celldm(4)=   0.000000  celldm(5)=   0.000000  celldm(6)=   0.000000

     crystal axes: (cart. coord. in units of alat)
               a(1) = (   5.490834   0.000000   0.000000 )
               a(2) = (   2.741833   4.757269   0.000000 )
               a(3) = (   0.000000   0.000000  24.484219 )

     reciprocal axes: (cart. coord. in units 2 pi/alat)
               b(1) = (  0.182122 -0.104965  0.000000 )
               b(2) = (  0.000000  0.210205  0.000000 )
               b(3) = (  0.000000  0.000000  0.040843 )

     PseudoPot. # 1 for Re read from file:
     /afs/slac.stanford.edu/u/if/mamunm/psp/gbrv1.5pbe/Re.UPF
     MD5 check sum: 85f993410f3e006da9d71c142b4ad953
     Pseudo is Ultrasoft + core correction, Zval = 15.0
     Generated by new atomic code, or converted to UPF format
     Using radial grid of  981 points,  8 beta functions with:
                l(1) =   0
                l(2) =   0
                l(3) =   1
                l(4) =   1
                l(5) =   2
                l(6) =   2
                l(7) =   3
                l(8) =   3
     Q(r) pseudized with  8 coefficients,  rinner =    1.150   1.150   1.150
                                                       1.150   1.150   1.150
                                                       1.150

     PseudoPot. # 2 for Os read from file:
     /afs/slac.stanford.edu/u/if/mamunm/psp/gbrv1.5pbe/Os.UPF
     MD5 check sum: a3fb40a04f0c37c25c34bbc47164c9a8
     Pseudo is Ultrasoft + core correction, Zval = 16.0
     Generated by new atomic code, or converted to UPF format
     Using radial grid of  983 points,  8 beta functions with:
                l(1) =   0
                l(2) =   0
                l(3) =   1
                l(4) =   1
                l(5) =   2
                l(6) =   2
                l(7) =   3
                l(8) =   3
     Q(r) pseudized with  8 coefficients,  rinner =    1.150   1.150   1.150
                                                       1.150   1.150   1.150
                                                       1.150

     vdW kernel table read from file vdW_kernel_table
     MD5 check sum: 095c7af220d748ca6e76c0b4c6cfb241

     atomic species   valence    mass     pseudopotential
        Re1           15.00   186.20700     Re( 1.00)
        Os1           16.00   190.23000     Os( 1.00)

     No symmetry found

   Cartesian axes

     site n.     atom                  positions (alat units)
         1           Re1 tau(   1) = (   0.0000000   0.0000000  10.0000000  )
         2           Re1 tau(   2) = (   4.1163335   2.3786345  10.0000000  )
         3           Os1 tau(   3) = (   2.7454170   0.0000000  10.0000000  )
         4           Os1 tau(   4) = (   1.3709165   2.3786345  10.0000000  )
         5           Re1 tau(   5) = (   5.4908339   3.1728933  12.2421095  )
         6           Re1 tau(   6) = (   1.3745004   0.7942588  12.2421095  )
         7           Os1 tau(   7) = (   2.7454170   3.1728933  12.2421095  )
         8           Os1 tau(   8) = (   4.1199174   0.7942588  12.2421095  )
         9           Re1 tau(   9) = (   2.7470012   1.5873640  14.3806736  )
        10           Re1 tau(  10) = (   6.8633339   3.9659922  14.3806780  )
        11           Os1 tau(  11) = (   5.5018807   1.5928351  14.3950178  )
        12           Os1 tau(  12) = (   4.1273775   3.9714621  14.3950192  )

     number of k points=    20  Fermi-Dirac smearing, width (Ry)=  0.0110
                       cart. coord. in units 2pi/alat
        k(    1) = (   0.0000000   0.0000000   0.0000000), wk =   0.0555556
        k(    2) = (   0.0000000   0.0350341   0.0000000), wk =   0.1111111
        k(    3) = (   0.0000000   0.0700682   0.0000000), wk =   0.1111111
        k(    4) = (   0.0000000  -0.1051023   0.0000000), wk =   0.0555556
        k(    5) = (   0.0303536  -0.0174942   0.0000000), wk =   0.1111111
        k(    6) = (   0.0303536   0.0175399   0.0000000), wk =   0.1111111
        k(    7) = (   0.0303536   0.0525740   0.0000000), wk =   0.1111111
        k(    8) = (   0.0303536  -0.1225965   0.0000000), wk =   0.1111111
        k(    9) = (   0.0303536  -0.0875624   0.0000000), wk =   0.1111111
        k(   10) = (   0.0303536  -0.0525283   0.0000000), wk =   0.1111111
        k(   11) = (   0.0607072  -0.0349884   0.0000000), wk =   0.1111111
        k(   12) = (   0.0607072   0.0000457   0.0000000), wk =   0.1111111
        k(   13) = (   0.0607072   0.0350798   0.0000000), wk =   0.1111111
        k(   14) = (   0.0607072  -0.1400907   0.0000000), wk =   0.1111111
        k(   15) = (   0.0607072  -0.1050566   0.0000000), wk =   0.1111111
        k(   16) = (   0.0607072  -0.0700225   0.0000000), wk =   0.1111111
        k(   17) = (  -0.0910608   0.0524826   0.0000000), wk =   0.0555556
        k(   18) = (  -0.0910608   0.0875167   0.0000000), wk =   0.1111111
        k(   19) = (  -0.0910608   0.1225508   0.0000000), wk =   0.1111111
        k(   20) = (  -0.0910608  -0.0526198   0.0000000), wk =   0.0555556

     Largest allocated arrays     est. size (Mb)     dimensions
     Largest temporary arrays     est. size (Mb)     dimensions

     Initial potential from superposition of free atoms
     Check: negative starting charge=   -1.518308

     starting charge  179.99951, renormalised to  186.00000

[...]

     *
     * You are using vdW-DF for exchange-correlation in this calculation.
     * Please cite the following three references that made this development
     * possible:
     *
     *   M. Dion, H. Rydberg, E. Schroder, D. C. Langreth, and
     *   B. I. Lundqvist, Phys. Rev. Lett. 92, 246401 (2004).
     *
     *   T. Thonhauser, V. R. Cooper, S. Li, A. Puzder, P. Hyldgaard, and
     *   D. C. Langreth, Phys. Rev. B 76, 125112 (2007).
     *
     *   G. Roman-Perez and J. M. Soler, Phys. Rev. Lett. 103, 096102 (2009).
     *
     *
     * If you are using vdW-DF2, please also cite:
     *
     *   K. Lee, E. D. Murray, L. Kong, B. I. Lundqvist, and
     *   D. C. Langreth, Phys. Rev. B 82, 081101(R) (2010).
     *
     *
     * If you are calculating the stress with vdW-DF, please also cite:
     *
     *   R. Sabatini, E. Kucukbenli, B. Kolb, T. Thonhauser, and
     *   S. de Gironcoli, J. Phys.: Condens. Matter 24, 424209 (2012).
     *

     Carrying out vdW-DF run using the following parameters:

     Nqs =      20    Nr_points =    1024   r_max =   100.000
     q_mesh =
               0.00001000     0.04494208     0.09755937     0.15916263
               0.23128650     0.31572767     0.41458969     0.53033537
               0.66584808     0.82450364     1.01025438     1.22772762
               1.48234092     1.78043706     2.12944203     2.53805004
               3.01644009     3.57652955     4.23227104     5.00000000

     Gradients computed in reciprocal space

[...]

     Starting wfc are  156 randomized atomic wfcs

     Self-consistent Calculation

[...]

     total energy              =   -2351.57926648 Ry
     Harris-Foulkes estimate   =   -2351.57926609 Ry
     estimated scf accuracy    <       0.00000273 Ry

     iteration # 16     ecut=    36.75 Ry     beta=0.10
     Davidson diagonalization with overlap
     ethr =  1.02E-09,  avg # of iterations =  1.0

[...]

     negative rho (up, down):  1.568E+00 0.000E+00

     Adding external electric field

     Computed dipole along edir(3) :
        Dipole                0.0329 Ry au,          0.0836 Debye
        Dipole field          0.0001 Ry au

        Potential amp.       -0.0086 Ry
        Total length         45.1118 bohr

     End of self-consistent calculation

[...]

          k = 0.0607-0.0700 0.0000 ( 16263 PWs)   bands (ev):

[...]

          k =-0.0911-0.0526 0.0000 ( 16192 PWs)   bands (ev):

   -84.0362 -84.0096 -83.5631 -83.5367 -83.5231 -83.4970 -78.0160 -77.9779
   -77.7414 -77.7245 -77.7040 -77.6869 -43.5625 -43.4201 -43.3627 -43.3465
   -43.2899 -43.0770 -43.0675 -43.0134 -42.8695 -42.8353 -42.8111 -42.7859
   -42.7853 -42.7701 -42.7355 -42.7242 -42.5898 -42.5421 -40.0002 -39.8885
   -39.8175 -39.7299 -39.6768 -39.6405 -39.6258 -39.4792 -39.4601 -39.4262
   -39.4165 -39.4018 -39.3855 -39.3511 -39.2774 -39.2213 -39.0251 -39.0183
    -4.6791  -4.5643  -3.0310  -2.9959  -2.6812  -2.6253  -2.5519  -2.5163
    -2.4575  -2.3395  -1.9547  -1.7041  -1.5857  -1.3125  -1.2836  -1.2165
    -1.0818  -0.9821  -0.7744  -0.7631  -0.4802  -0.1652   0.1548   0.3616
     0.4025   0.4633   0.4639   0.5515   0.6007   0.7192   0.8502   0.8831
     0.9735   1.0667   1.0745   1.0962   1.2158   1.2205   1.2631   1.3930
     1.8580   2.1362   2.4791   2.5051   2.5308   2.6488   2.8247   2.9148
     3.2180   3.3354   3.4345   3.5274   3.5388   3.6355   3.8094   4.0722
     4.2677   4.6173   4.7248   4.9357   5.3478   5.6185   5.7123   5.9642
     6.1861   6.3985   7.2135   7.7092   8.0739   8.3538   8.3566   8.4820
     8.9879   9.0278   9.2937

     the Fermi energy is     2.8634 ev

!    total energy              =   -2351.57926955 Ry
     Harris-Foulkes estimate   =   -2351.57926690 Ry
     estimated scf accuracy    <       0.00000019 Ry

     The total energy is the sum of the following terms:

     one-electron contribution =  -19929.89278676 Ry
     hartree contribution      =    9947.39780589 Ry
     xc contribution           =    -556.79727091 Ry
     ewald contribution        =    8187.78944534 Ry
     electric field correction =       0.00000315 Ry
     smearing contrib. (-TS)   =      -0.07646626 Ry

     convergence has been achieved in  16 iterations

 BEEF-vdW xc energy contributions
           1 :   -492.167536311247
           2 :    457.114989250200
           3 :   -394.543429765611
           4 :    316.989555956581
           5 :   -238.221925133259
           6 :    169.589125725555
           7 :   -117.591541245948
           8 :    83.2461362413158
           9 :   -63.1958213837527
          10 :    51.9122391920736
          11 :   -44.0580106700234
          12 :    36.1638543677627
          13 :   -27.1964181147888
          14 :    18.0738923430513
          15 :   -10.5607022125790
          16 :    6.09698713169746
          17 :   -5.03281167845284
          18 :    6.49228024567685
          19 :   -8.81891680207889
          20 :    10.3236430522670
          21 :   -9.97393006053687
          22 :    7.73038421777551
          23 :   -4.42750828075134
          24 :    1.29917081442466
          25 :   0.607405358526535
          26 :  -0.866976042784586
          27 :  -0.212122675480714
          28 :    1.81160983234395
          29 :   -3.02623503248572
          30 :    3.27324677839329
          31 :   -43.2080820048876
          32 :   -32.4930271781305

     Forces acting on atoms (Ry/au):

     negative rho (up, down):  1.568E+00 0.000E+00
     atom    1 type  1   force =     0.00260996    0.00150746    0.02252258
     atom    2 type  1   force =     0.00261013    0.00150924    0.02252426
     atom    3 type  2   force =    -0.00305493   -0.00176605    0.02037803
     atom    4 type  2   force =    -0.00305580   -0.00176563    0.02037554
     atom    5 type  1   force =     0.00153423    0.00088732   -0.02146331
     atom    6 type  1   force =     0.00153711    0.00088805   -0.02146201
     atom    7 type  2   force =    -0.00150725   -0.00087385   -0.02189541
     atom    8 type  2   force =    -0.00151039   -0.00086937   -0.02189603
     atom    9 type  1   force =     0.00041093    0.00023841    0.00029347
     atom   10 type  1   force =     0.00041464    0.00023888    0.00029276
     atom   11 type  2   force =     0.00000728   -0.00000063    0.00016457
     atom   12 type  2   force =     0.00000409    0.00000616    0.00016556

     Total force =     0.061492     Total SCF correction =     0.002128

     entering subroutine stress ...

     negative rho (up, down):  1.568E+00 0.000E+00
          total   stress  (Ry/bohr**3)                   (kbar)     P=  -31.07
  -0.00026801  -0.00000804   0.00000185        -39.43     -1.18      0.27
  -0.00000804  -0.00025874   0.00000107         -1.18    -38.06      0.16
   0.00000185   0.00000107  -0.00010691          0.27      0.16    -15.73

 !ASE

     Writing output data file calc.save

     General routines

     Parallel routines

   This run was terminated on:   2:37:33  19Dec2018

   JOB DONE.
Job  /afs/slac/g/suncat/bin/suncat-tsmpirun -x LD_LIBRARY_PATH -wdir /scratch/qe530451_c1Ak7 pw.x -in pw.inp

TID   HOST_NAME   COMMAND_LINE            STATUS            TERMINATION_TIME
00000 suncat2046 pw.x -in pw.inp   Done                     12/19/2018 02:37:33
00001 suncat2046 pw.x -in pw.inp   Done                     12/19/2018 02:37:33
00002 suncat2046 pw.x -in pw.inp   Done                     12/19/2018 02:37:33
00003 suncat2046 pw.x -in pw.inp   Done                     12/19/2018 02:37:33
00004 suncat2046 pw.x -in pw.inp   Done                     12/19/2018 02:37:33
00005 suncat2046 pw.x -in pw.inp   Done                     12/19/2018 02:37:33
00006 suncat2046 pw.x -in pw.inp   Done                     12/19/2018 02:37:33
00007 suncat2046 pw.x -in pw.inp   Done                     12/19/2018 02:37:33
00008 suncat2046 pw.x -in pw.inp   Done                     12/19/2018 02:37:33
00009 suncat2046 pw.x -in pw.inp   Done                     12/19/2018 02:37:33
00010 suncat2046 pw.x -in pw.inp   Done                     12/19/2018 02:37:33
00011 suncat2046 pw.x -in pw.inp   Done                     12/19/2018 02:37:33
00012 suncat2046 pw.x -in pw.inp   Done                     12/19/2018 02:37:33
00013 suncat2046 pw.x -in pw.inp   Done                     12/19/2018 02:37:33
00014 suncat2046 pw.x -in pw.inp   Done                     12/19/2018 02:37:33
00015 suncat2046 pw.x -in pw.inp   Done                     12/19/2018 02:37:33
00016 suncat2045 pw.x -in pw.inp   Done                     12/19/2018 02:37:33
00017 suncat2045 pw.x -in pw.inp   Done                     12/19/2018 02:37:33
00018 suncat2045 pw.x -in pw.inp   Done                     12/19/2018 02:37:33
00019 suncat2045 pw.x -in pw.inp   Done                     12/19/2018 02:37:33
00020 suncat2045 pw.x -in pw.inp   Done                     12/19/2018 02:37:33
00021 suncat2045 pw.x -in pw.inp   Done                     12/19/2018 02:37:33
00022 suncat2045 pw.x -in pw.inp   Done                     12/19/2018 02:37:33
00023 suncat2045 pw.x -in pw.inp   Done                     12/19/2018 02:37:33
00024 suncat2045 pw.x -in pw.inp   Done                     12/19/2018 02:37:33
00025 suncat2045 pw.x -in pw.inp   Done                     12/19/2018 02:37:33
00026 suncat2045 pw.x -in pw.inp   Done                     12/19/2018 02:37:33
00027 suncat2045 pw.x -in pw.inp   Done                     12/19/2018 02:37:33
00028 suncat2045 pw.x -in pw.inp   Done                     12/19/2018 02:37:33
00029 suncat2045 pw.x -in pw.inp   Done                     12/19/2018 02:37:33
00030 suncat2045 pw.x -in pw.inp   Done                     12/19/2018 02:37:33
00031 suncat2045 pw.x -in pw.inp   Done                     12/19/2018 02:37:33