     Program PWSCF v.5.1rc2 (svn rev. 11289) starts on 24Dec2018 at 20:48: 5

     Current dimensions of program PWSCF are:
     Max number of different atomic species (ntypx) = 10
     Max number of k-points (npk) =  40000
     Max angular momentum in pseudopotentials (lmaxx) =  3
     Presently stress not available with electric field

     IMPORTANT: XC functional enforced from input :
     Exchange-correlation      = BEEF-VDW ( 1  4 27 13 2)
     Any further DFT definition will be discarded
     Please, verify this is what you really want

     Subspace diagonalization in iterative solution of the eigenvalue problem:
     a serial algorithm will be used

     Found symmetry operation: I + ( -0.5000 -0.5000  0.0000)
     This is a supercell, fractional translations are disabled

     bravais-lattice index     =            0
     lattice parameter (alat)  =       1.8897  a.u.
     unit-cell volume          =    5697.1000 (a.u.)^3
     number of atoms/cell      =           12
     number of atomic types    =            2
     number of electrons       =       144.00
     number of Kohn-Sham states=          102
     kinetic-energy cutoff     =      36.7493  Ry
     charge density cutoff     =     367.4932  Ry
     convergence threshold     =      1.0E-06
     mixing beta               =       0.1000
     number of iterations used =           10  plain     mixing
     Exchange-correlation      = BEEF-VDW ( 1  4 27 13 2)
     nstep                     =           50

     celldm(1)=   1.889726  celldm(2)=   0.000000  celldm(3)=   0.000000
     celldm(4)=   0.000000  celldm(5)=   0.000000  celldm(6)=   0.000000

     crystal axes: (cart. coord. in units of alat)
               a(1) = (   6.226333   0.000000   0.000000 )
               a(2) = (   3.092151   5.404241   0.000000 )
               a(3) = (   0.000000   0.000000  25.089393 )

     reciprocal axes: (cart. coord. in units 2 pi/alat)
               b(1) = (  0.160608 -0.091895  0.000000 )
               b(2) = (  0.000000  0.185040  0.000000 )
               b(3) = (  0.000000  0.000000  0.039857 )

     PseudoPot. # 1 for Hf read from file:
     /afs/slac.stanford.edu/u/if/mamunm/psp/gbrv1.5pbe/Hf.UPF
     MD5 check sum: 8ee9378dfe14276e333edf04c5e4aa26
     Pseudo is Ultrasoft + core correction, Zval = 12.0
     Generated by new atomic code, or converted to UPF format
     Using radial grid of  921 points,  8 beta functions with:
                l(1) =   0
                l(2) =   0
                l(3) =   0
                l(4) =   1
                l(5) =   1
                l(6) =   2
                l(7) =   2
                l(8) =   3
     Q(r) pseudized with  6 coefficients,  rinner =    1.200   1.200   1.200
                                                       1.200   1.200   1.200
                                                       1.200

     PseudoPot. # 2 for Hg read from file:
     /afs/slac.stanford.edu/u/if/mamunm/psp/gbrv1.5pbe/Hg.UPF
     MD5 check sum: 8f42caffe07f7fd9c0a564347f8c5498
     Pseudo is Ultrasoft + core correction, Zval = 12.0
     Generated by new atomic code, or converted to UPF format
     Using radial grid of  985 points,  6 beta functions with:
                l(1) =   0
                l(2) =   0
                l(3) =   1
                l(4) =   1
                l(5) =   2
                l(6) =   2
     Q(r) pseudized with  8 coefficients,  rinner =    2.000   2.000   2.000
                                                       2.000   2.000

     vdW kernel table read from file vdW_kernel_table
     MD5 check sum: 095c7af220d748ca6e76c0b4c6cfb241

     atomic species   valence    mass     pseudopotential
        Hf1           12.00   178.49000     Hf( 1.00)
        Hg1           12.00   200.59200     Hg( 1.00)

     No symmetry found

   Cartesian axes

     site n.     atom                  positions (alat units)
         1           Hf1 tau(   1) = (   0.0000000   0.0000000  10.0000000  )
         2           Hf1 tau(   2) = (   4.6592419   2.7021207  10.0000000  )
         3           Hg1 tau(   3) = (   3.1131665   0.0000000  10.0000000  )
         4           Hg1 tau(   4) = (   1.5460754   2.7021207  10.0000000  )
         5           Hf1 tau(   5) = (   6.2263330   3.6109530  12.5446965  )
         6           Hf1 tau(   6) = (   1.5670911   0.9088323  12.5446965  )
         7           Hg1 tau(   7) = (   3.1131665   3.6109530  12.5446965  )
         8           Hg1 tau(   8) = (   4.6802576   0.9088323  12.5446965  )
         9           Hf1 tau(   9) = (   3.1341822   1.8176645  15.0893930  )
        10           Hf1 tau(  10) = (   7.7934241   4.5197852  15.0893930  )
        11           Hg1 tau(  11) = (   6.2473487   1.8176645  15.0893930  )
        12           Hg1 tau(  12) = (   4.6802576   4.5197852  15.0893930  )

     number of k points=    20  Fermi-Dirac smearing, width (Ry)=  0.0110
                       cart. coord. in units 2pi/alat
        k(    1) = (   0.0000000   0.0000000   0.0000000), wk =   0.0555556
        k(    2) = (   0.0000000   0.0308400   0.0000000), wk =   0.1111111
        k(    3) = (   0.0000000   0.0616799   0.0000000), wk =   0.1111111
        k(    4) = (   0.0000000  -0.0925199   0.0000000), wk =   0.0555556
        k(    5) = (   0.0267680  -0.0153159   0.0000000), wk =   0.1111111
        k(    6) = (   0.0267680   0.0155241   0.0000000), wk =   0.1111111
        k(    7) = (   0.0267680   0.0463641   0.0000000), wk =   0.1111111
        k(    8) = (   0.0267680  -0.1078358   0.0000000), wk =   0.1111111
        k(    9) = (   0.0267680  -0.0769958   0.0000000), wk =   0.1111111
        k(   10) = (   0.0267680  -0.0461559   0.0000000), wk =   0.1111111
        k(   11) = (   0.0535361  -0.0306318   0.0000000), wk =   0.1111111
        k(   12) = (   0.0535361   0.0002082   0.0000000), wk =   0.1111111
        k(   13) = (   0.0535361   0.0310482   0.0000000), wk =   0.1111111
        k(   14) = (   0.0535361  -0.1231517   0.0000000), wk =   0.1111111
        k(   15) = (   0.0535361  -0.0923117   0.0000000), wk =   0.1111111
        k(   16) = (   0.0535361  -0.0614718   0.0000000), wk =   0.1111111
        k(   17) = (  -0.0803041   0.0459477   0.0000000), wk =   0.0555556
        k(   18) = (  -0.0803041   0.0767877   0.0000000), wk =   0.1111111
        k(   19) = (  -0.0803041   0.1076276   0.0000000), wk =   0.1111111
        k(   20) = (  -0.0803041  -0.0465722   0.0000000), wk =   0.0555556

     Largest allocated arrays     est. size (Mb)     dimensions
     Largest temporary arrays     est. size (Mb)     dimensions

     Check: negative/imaginary core charge=   -0.000002    0.000000

     Initial potential from superposition of free atoms
     Check: negative starting charge=   -0.641810

     starting charge  131.99964, renormalised to  144.00000

     negative rho (up, down):  7.002E-01 0.000E+00

     *
     * You are using vdW-DF for exchange-correlation in this calculation.
     * Please cite the following three references that made this development
     * possible:
     *
     *   M. Dion, H. Rydberg, E. Schroder, D. C. Langreth, and
     *   B. I. Lundqvist, Phys. Rev. Lett. 92, 246401 (2004).
     *
     *   T. Thonhauser, V. R. Cooper, S. Li, A. Puzder, P. Hyldgaard, and
     *   D. C. Langreth, Phys. Rev. B 76, 125112 (2007).
     *
     *   G. Roman-Perez and J. M. Soler, Phys. Rev. Lett. 103, 096102 (2009).
     *
     *
     * If you are using vdW-DF2, please also cite:
     *
     *   K. Lee, E. D. Murray, L. Kong, B. I. Lundqvist, and
     *   D. C. Langreth, Phys. Rev. B 82, 081101(R) (2010).
     *
     *
     * If you are calculating the stress with vdW-DF, please also cite:
     *
     *   R. Sabatini, E. Kucukbenli, B. Kolb, T. Thonhauser, and
     *   S. de Gironcoli, J. Phys.: Condens. Matter 24, 424209 (2012).
     *

     Carrying out vdW-DF run using the following parameters:

     Nqs =      20    Nr_points =    1024   r_max =   100.000
     q_mesh =
               0.00001000     0.04494208     0.09755937     0.15916263
               0.23128650     0.31572767     0.41458969     0.53033537
               0.66584808     0.82450364     1.01025438     1.22772762
               1.48234092     1.78043706     2.12944203     2.53805004
               3.01644009     3.57652955     4.23227104     5.00000000

     Gradients computed in reciprocal space

     Adding external electric field

     Computed dipole along edir(3) :
        Dipole               -0.0000 Ry au,         -0.0000 Debye
        Dipole field         -0.0000 Ry au

        Potential amp.        0.0000 Ry
        Total length         46.2268 bohr

     Starting wfc are  132 randomized atomic wfcs

     Self-consistent Calculation

     iteration #  1     ecut=    36.75 Ry     beta=0.10
     Davidson diagonalization with overlap
     ethr =  1.00E-02,  avg # of iterations =  8.0

[...]

     total energy              =   -1616.59055771 Ry
     Harris-Foulkes estimate   =   -1624.70558587 Ry
     estimated scf accuracy    <      48.46135462 Ry

[...]

     End of self-consistent calculation

          k = 0.0000 0.0000 0.0000 ( 21483 PWs)   bands (ev):

   -61.7635 -61.7634 -61.7411 -61.7410 -61.3115 -61.2885 -30.4249 -30.4210
   -30.3785 -30.3731 -30.3044 -30.3039 -30.2855 -30.2468 -30.2362 -30.1997
   -30.0199 -29.9820 -29.9687 -29.8612 -29.8607 -29.6960 -29.6499 -29.5266
    -7.2298  -6.8215  -6.7907  -6.7093  -6.6916  -6.6734  -6.6141  -6.4814
    -6.4589  -6.4407  -6.4190  -6.3882  -6.2207  -6.1329  -5.9728  -5.9528
    -5.9441  -5.8924  -5.8102  -5.7527  -5.7516  -5.7502  -5.7295  -5.6776
    -5.5811  -5.5603  -5.5534  -5.4045  -5.3587  -5.3177  -5.0868  -4.9046
    -3.3420  -2.5053  -1.8147  -1.4009  -0.6896  -0.5012  -0.3120   0.0982
     0.1600   0.4036   0.6485   0.7883   1.0295   1.3233   1.3409   1.4850
     1.5291   1.7296   1.7842   2.0086   2.2777   2.3397   2.8686   3.0083
     3.1216   3.2413   3.3016   3.5029   3.6675   4.1243   4.2490   4.3127
     4.5270   4.5319   4.5441   4.8159   4.8427   4.8770   4.9306   4.9324
     4.9906   4.9958   5.0055   5.4643   5.8440   5.9112

[...]

          k =-0.0803 0.0459 0.0000 ( 21442 PWs)   bands (ev):

[...]

     the Fermi energy is     1.4385 ev

!    total energy              =   -1617.79447880 Ry
     Harris-Foulkes estimate   =   -1617.79447759 Ry
     estimated scf accuracy    <       0.00000034 Ry

     The total energy is the sum of the following terms:

     one-electron contribution =   -8695.36726062 Ry
     hartree contribution      =    4385.07749205 Ry
     xc contribution           =    -706.49486852 Ry
     ewald contribution        =    3399.06560808 Ry
     electric field correction =       0.00000000 Ry
     smearing contrib. (-TS)   =      -0.07544979 Ry

     convergence has been achieved in  18 iterations

 BEEF-vdW xc energy contributions
           1 :   -632.416182985516
           2 :    586.369914595609
           3 :   -505.005975832608
           4 :    405.614228747099
           5 :   -306.131796181434
           6 :    220.047209556161
           7 :   -154.010766675008
           8 :    108.321283804257
           9 :   -79.2458273809306
[...]
     MD5 check sum: 8ee9378dfe14276e333edf04c5e4aa26
     Pseudo is Ultrasoft + core correction, Zval = 12.0
     Generated by new atomic code, or converted to UPF format
     Using radial grid of  921 points,  8 beta functions with:
                l(1) =   0
                l(2) =   0
                l(3) =   0
                l(4) =   1
                l(5) =   1
                l(6) =   2
                l(7) =   2
                l(8) =   3
     Q(r) pseudized with  6 coefficients,  rinner =    1.200   1.200   1.200
                                                       1.200   1.200   1.200
                                                       1.200

     PseudoPot. # 2 for Hg read from file:
     /afs/slac.stanford.edu/u/if/mamunm/psp/gbrv1.5pbe/Hg.UPF
     MD5 check sum: 8f42caffe07f7fd9c0a564347f8c5498
     Pseudo is Ultrasoft + core correction, Zval = 12.0
     Generated by new atomic code, or converted to UPF format
     Using radial grid of  985 points,  6 beta functions with:
                l(1) =   0
                l(2) =   0
                l(3) =   1
                l(4) =   1
                l(5) =   2
                l(6) =   2
     Q(r) pseudized with  8 coefficients,  rinner =    2.000   2.000   2.000
                                                       2.000   2.000

     vdW kernel table read from file vdW_kernel_table
     MD5 check sum: 095c7af220d748ca6e76c0b4c6cfb241

     atomic species   valence    mass     pseudopotential
        Hf1           12.00   178.49000     Hf( 1.00)
        Hg1           12.00   200.59200     Hg( 1.00)

     No symmetry found

   Cartesian axes

     site n.     atom                  positions (alat units)
         1           Hf1 tau(   1) = (   0.0000000   0.0000000  10.0000000  )
         2           Hf1 tau(   2) = (   4.6592419   2.7021207  10.0000000  )
         3           Hg1 tau(   3) = (   3.1131665   0.0000000  10.0000000  )
         4           Hg1 tau(   4) = (   1.5460754   2.7021207  10.0000000  )
         5           Hf1 tau(   5) = (   6.2263330   3.6109530  12.5446965  )
         6           Hf1 tau(   6) = (   1.5670911   0.9088323  12.5446965  )
         7           Hg1 tau(   7) = (   3.1131665   3.6109530  12.5446965  )
         8           Hg1 tau(   8) = (   4.6802576   0.9088323  12.5446965  )
         9           Hf1 tau(   9) = (   3.1393268   1.8206523  14.9923247  )
        10           Hf1 tau(  10) = (   7.7985380   4.5227495  14.9923217  )
        11           Hg1 tau(  11) = (   6.2586032   1.8241956  15.2785824  )
        12           Hg1 tau(  12) = (   4.6915222   4.5263116  15.2785701  )

     number of k points=    20  Fermi-Dirac smearing, width (Ry)=  0.0110
                       cart. coord. in units 2pi/alat
        k(    1) = (   0.0000000   0.0000000   0.0000000), wk =   0.0555556
        k(    2) = (   0.0000000   0.0308400   0.0000000), wk =   0.1111111
        k(    3) = (   0.0000000   0.0616799   0.0000000), wk =   0.1111111
        k(    4) = (   0.0000000  -0.0925199   0.0000000), wk =   0.0555556
        k(    5) = (   0.0267680  -0.0153159   0.0000000), wk =   0.1111111
        k(    6) = (   0.0267680   0.0155241   0.0000000), wk =   0.1111111
        k(    7) = (   0.0267680   0.0463641   0.0000000), wk =   0.1111111
        k(    8) = (   0.0267680  -0.1078358   0.0000000), wk =   0.1111111
        k(    9) = (   0.0267680  -0.0769958   0.0000000), wk =   0.1111111
        k(   10) = (   0.0267680  -0.0461559   0.0000000), wk =   0.1111111
        k(   11) = (   0.0535361  -0.0306318   0.0000000), wk =   0.1111111
        k(   12) = (   0.0535361   0.0002082   0.0000000), wk =   0.1111111
        k(   13) = (   0.0535361   0.0310482   0.0000000), wk =   0.1111111
        k(   14) = (   0.0535361  -0.1231517   0.0000000), wk =   0.1111111
        k(   15) = (   0.0535361  -0.0923117   0.0000000), wk =   0.1111111
        k(   16) = (   0.0535361  -0.0614718   0.0000000), wk =   0.1111111
        k(   17) = (  -0.0803041   0.0459477   0.0000000), wk =   0.0555556
        k(   18) = (  -0.0803041   0.0767877   0.0000000), wk =   0.1111111
        k(   19) = (  -0.0803041   0.1076276   0.0000000), wk =   0.1111111
        k(   20) = (  -0.0803041  -0.0465722   0.0000000), wk =   0.0555556

     Largest allocated arrays     est. size (Mb)     dimensions
     Largest temporary arrays     est. size (Mb)     dimensions

     Check: negative/imaginary core charge=   -0.000002    0.000000

     Initial potential from superposition of free atoms
     Check: negative starting charge=   -0.642383

     starting charge  131.99964, renormalised to  144.00000

[...]

     *
     * You are using vdW-DF for exchange-correlation in this calculation.
     * Please cite the following three references that made this development
     * possible:
     *
     *   M. Dion, H. Rydberg, E. Schroder, D. C. Langreth, and
     *   B. I. Lundqvist, Phys. Rev. Lett. 92, 246401 (2004).
     *
     *   T. Thonhauser, V. R. Cooper, S. Li, A. Puzder, P. Hyldgaard, and
     *   D. C. Langreth, Phys. Rev. B 76, 125112 (2007).
     *
     *   G. Roman-Perez and J. M. Soler, Phys. Rev. Lett. 103, 096102 (2009).
     *
     *
     * If you are using vdW-DF2, please also cite:
     *
     *   K. Lee, E. D. Murray, L. Kong, B. I. Lundqvist, and
     *   D. C. Langreth, Phys. Rev. B 82, 081101(R) (2010).
     *
     *
     * If you are calculating the stress with vdW-DF, please also cite:
     *
     *   R. Sabatini, E. Kucukbenli, B. Kolb, T. Thonhauser, and
     *   S. de Gironcoli, J. Phys.: Condens. Matter 24, 424209 (2012).
     *

     Carrying out vdW-DF run using the following parameters:

     Nqs =      20    Nr_points =    1024   r_max =   100.000
     q_mesh =
               0.00001000     0.04494208     0.09755937     0.15916263
               0.23128650     0.31572767     0.41458969     0.53033537
               0.66584808     0.82450364     1.01025438     1.22772762
               1.48234092     1.78043706     2.12944203     2.53805004
               3.01644009     3.57652955     4.23227104     5.00000000

     Gradients computed in reciprocal space

[...]

     Starting wfc are  132 randomized atomic wfcs

     Self-consistent Calculation

[...]

     total energy              =   -1617.80402295 Ry
     Harris-Foulkes estimate   =   -1617.80402398 Ry
     estimated scf accuracy    <       0.00000135 Ry

     iteration # 19     ecut=    36.75 Ry     beta=0.10
     Davidson diagonalization with overlap
     ethr =  9.40E-10,  avg # of iterations =  2.0

[...]

     negative rho (up, down):  6.785E-01 0.000E+00

     Adding external electric field

     Computed dipole along edir(3) :
        Dipole               -0.0548 Ry au,         -0.1392 Debye
        Dipole field         -0.0001 Ry au

        Potential amp.        0.0112 Ry
        Total length         46.2268 bohr

     End of self-consistent calculation

[...]

          k = 0.0535-0.0615 0.0000 ( 21414 PWs)   bands (ev):

[...]

          k =-0.0803-0.0466 0.0000 ( 21432 PWs)   bands (ev):

   -61.8174 -61.7950 -61.7310 -61.7085 -61.3540 -61.3310 -30.4755 -30.4268
   -30.3964 -30.3587 -30.3467 -30.3335 -30.3004 -30.2815 -30.2437 -30.1932
   -30.0617 -30.0278 -30.0115 -29.9147 -29.8538 -29.7164 -29.6707 -29.5733
    -6.9556  -6.6964  -6.6939  -6.5639  -6.5533  -6.5419  -6.3952  -6.3618
    -6.3157  -6.2765  -6.1941  -6.1563  -5.9976  -5.9564  -5.9333  -5.8778
    -5.8305  -5.8254  -5.8221  -5.7794  -5.7314  -5.7195  -5.6709  -5.5673
    -5.5119  -5.4512  -5.4234  -5.3260  -5.2794  -5.2777  -5.0097  -4.9676
    -3.5322  -3.2587  -2.2681  -2.0253  -1.7036  -1.5816  -1.3256  -0.6894
    -0.4423  -0.3386  -0.1454   0.0202   0.3360   0.3397   0.5461   0.8303
     1.0191   1.0603   1.2894   1.3929   2.2181   2.3756   2.7797   2.7872
     3.2238   3.2947   3.3810   3.4805   3.7647   3.7777   4.0019   4.3644
     4.3831   4.8099   4.8120   4.8810   4.9254   5.5746   5.6324   5.8537
     5.8908   6.0369   6.1848   6.3313   6.4983   6.6198

     the Fermi energy is     1.3832 ev

!    total energy              =   -1617.80402383 Ry
     Harris-Foulkes estimate   =   -1617.80402316 Ry
     estimated scf accuracy    <       0.00000037 Ry

     The total energy is the sum of the following terms:

     one-electron contribution =   -8634.06253171 Ry
     hartree contribution      =    4354.31533847 Ry
     xc contribution           =    -706.49161936 Ry
     ewald contribution        =    3368.51132703 Ry
     electric field correction =       0.00000662 Ry
     smearing contrib. (-TS)   =      -0.07654489 Ry

     convergence has been achieved in  19 iterations

 BEEF-vdW xc energy contributions
           1 :   -632.405801692248
           2 :    586.327087280891
           3 :   -504.925881711735
           4 :    405.522723377040
           5 :   -306.064841110277
           6 :    220.028152583476
           7 :   -154.037137898255
           8 :    108.364601625140
           9 :   -79.2643538259126
          10 :    61.6038675469090
          11 :   -50.7276790896614
          12 :    43.2010356059537
          13 :   -36.7624508873017
          14 :    30.0061868349737
          15 :   -22.1913180262034
          16 :    13.2284996819767
          17 :   -3.68986608258547
          18 :   -5.35058995788256
          19 :    12.6660630161160
          20 :   -17.2886787004294
          21 :    18.7976521713733
          22 :   -17.4017363075336
          23 :    13.8419498398152
          24 :   -9.21079982686649
          25 :    4.74545749519075
          26 :   -1.60792793447922
          27 :   0.640741512161412
          28 :   -2.13305271212721
          29 :    5.67807811859643
          30 :   -10.2235064839284
          31 :   -49.8714333555558
          32 :   -36.2894630769074

     Forces acting on atoms (Ry/au):

     negative rho (up, down):  6.785E-01 0.000E+00
     atom    1 type  1   force =     0.00254687    0.00147672    0.01929227
     atom    2 type  1   force =     0.00254797    0.00147791    0.01929278
     atom    3 type  2   force =    -0.00198569   -0.00115008   -0.01765332
     atom    4 type  2   force =    -0.00198371   -0.00115264   -0.01765275
     atom    5 type  1   force =    -0.00824089   -0.00477949    0.00038828
     atom    6 type  1   force =    -0.00824574   -0.00478195    0.00038714
     atom    7 type  2   force =     0.00700304    0.00405498   -0.00173361
     atom    8 type  2   force =     0.00699696    0.00406507   -0.00173413
     atom    9 type  1   force =     0.00023309    0.00013419   -0.00035324
     atom   10 type  1   force =     0.00023646    0.00013792   -0.00035607
     atom   11 type  2   force =     0.00044825    0.00025526    0.00006141
     atom   12 type  2   force =     0.00044339    0.00026211    0.00006123

     Total force =     0.041417     Total SCF correction =     0.001706

     entering subroutine stress ...

     negative rho (up, down):  6.785E-01 0.000E+00
          total   stress  (Ry/bohr**3)                   (kbar)     P=  -11.01
  -0.00011758  -0.00002494  -0.00000101        -17.30     -3.67     -0.15
  -0.00002494  -0.00008903  -0.00000058         -3.67    -13.10     -0.09
  -0.00000101  -0.00000058  -0.00001783         -0.15     -0.09     -2.62

 !ASE

     Writing output data file calc.save

     General routines

     Parallel routines

   This run was terminated on:  23:16:29  24Dec2018

   JOB DONE.
Job  /afs/slac/g/suncat/bin/suncat-tsmpirun -x LD_LIBRARY_PATH -wdir /scratch/qe108995_kCy6o pw.x -in pw.inp

TID   HOST_NAME   COMMAND_LINE            STATUS            TERMINATION_TIME
00000 suncat0040 pw.x -in pw.inp   Done                     12/24/2018 23:16:29
00001 suncat0040 pw.x -in pw.inp   Done                     12/24/2018 23:16:29
00002 suncat0040 pw.x -in pw.inp   Done                     12/24/2018 23:16:29
00003 suncat0040 pw.x -in pw.inp   Done                     12/24/2018 23:16:29
00004 suncat0040 pw.x -in pw.inp   Done                     12/24/2018 23:16:29
00005 suncat0040 pw.x -in pw.inp   Done                     12/24/2018 23:16:29
00006 suncat0040 pw.x -in pw.inp   Done                     12/24/2018 23:16:29
00007 suncat0040 pw.x -in pw.inp   Done                     12/24/2018 23:16:29
00008 suncat0179 pw.x -in pw.inp   Done                     12/24/2018 23:16:29
00009 suncat0179 pw.x -in pw.inp   Done                     12/24/2018 23:16:29
00010 suncat0179 pw.x -in pw.inp   Done                     12/24/2018 23:16:29
00011 suncat0179 pw.x -in pw.inp   Done                     12/24/2018 23:16:29
00012 suncat0179 pw.x -in pw.inp   Done                     12/24/2018 23:16:29
00013 suncat0179 pw.x -in pw.inp   Done                     12/24/2018 23:16:29
00014 suncat0179 pw.x -in pw.inp   Done                     12/24/2018 23:16:29
00015 suncat0179 pw.x -in pw.inp   Done                     12/24/2018 23:16:29
00016 suncat0147 pw.x -in pw.inp   Done                     12/24/2018 23:16:29
00017 suncat0147 pw.x -in pw.inp   Done                     12/24/2018 23:16:29
00018 suncat0147 pw.x -in pw.inp   Done                     12/24/2018 23:16:29
00019 suncat0147 pw.x -in pw.inp   Done                     12/24/2018 23:16:29
00020 suncat0147 pw.x -in pw.inp   Done                     12/24/2018 23:16:29
00021 suncat0147 pw.x -in pw.inp   Done                     12/24/2018 23:16:29
00022 suncat0147 pw.x -in pw.inp   Done                     12/24/2018 23:16:29
00023 suncat0147 pw.x -in pw.inp   Done                     12/24/2018 23:16:29
00024 suncat0146 pw.x -in pw.inp   Done                     12/24/2018 23:16:29
00025 suncat0146 pw.x -in pw.inp   Done                     12/24/2018 23:16:29
00026 suncat0146 pw.x -in pw.inp   Done                     12/24/2018 23:16:29
00027 suncat0146 pw.x -in pw.inp   Done                     12/24/2018 23:16:29
00028 suncat0146 pw.x -in pw.inp   Done                     12/24/2018 23:16:29
00029 suncat0146 pw.x -in pw.inp   Done                     12/24/2018 23:16:29
00030 suncat0146 pw.x -in pw.inp   Done                     12/24/2018 23:16:29
00031 suncat0146 pw.x -in pw.inp   Done                     12/24/2018 23:16:29
00032 suncat0272 pw.x -in pw.inp   Done                     12/24/2018 23:16:29
00033 suncat0272 pw.x -in pw.inp   Done                     12/24/2018 23:16:29
00034 suncat0272 pw.x -in pw.inp   Done                     12/24/2018 23:16:29
00035 suncat0272 pw.x -in pw.inp   Done                     12/24/2018 23:16:29
00036 suncat0272 pw.x -in pw.inp   Done                     12/24/2018 23:16:29
00037 suncat0272 pw.x -in pw.inp   Done                     12/24/2018 23:16:29
00038 suncat0272 pw.x -in pw.inp   Done                     12/24/2018 23:16:29
00039 suncat0272 pw.x -in pw.inp   Done                     12/24/2018 23:16:29
00040 suncat0271 pw.x -in pw.inp   Done                     12/24/2018 23:16:29
00041 suncat0271 pw.x -in pw.inp   Done                     12/24/2018 23:16:29
00042 suncat0271 pw.x -in pw.inp   Done                     12/24/2018 23:16:29
00043 suncat0271 pw.x -in pw.inp   Done                     12/24/2018 23:16:29
00044 suncat0271 pw.x -in pw.inp   Done                     12/24/2018 23:16:29
00045 suncat0271 pw.x -in pw.inp   Done                     12/24/2018 23:16:29
00046 suncat0271 pw.x -in pw.inp   Done                     12/24/2018 23:16:29
00047 suncat0271 pw.x -in pw.inp   Done                     12/24/2018 23:16:29
00048 suncat0260 pw.x -in pw.inp   Done                     12/24/2018 23:16:29
00049 suncat0260 pw.x -in pw.inp   Done                     12/24/2018 23:16:29
00050 suncat0260 pw.x -in pw.inp   Done                     12/24/2018 23:16:29
00051 suncat0260 pw.x -in pw.inp   Done                     12/24/2018 23:16:29
00052 suncat0260 pw.x -in pw.inp   Done                     12/24/2018 23:16:29
00053 suncat0260 pw.x -in pw.inp   Done                     12/24/2018 23:16:29
00054 suncat0260 pw.x -in pw.inp   Done                     12/24/2018 23:16:29
00055 suncat0260 pw.x -in pw.inp   Done                     12/24/2018 23:16:29
00056 suncat0259 pw.x -in pw.inp   Done                     12/24/2018 23:16:29
00057 suncat0259 pw.x -in pw.inp   Done                     12/24/2018 23:16:29
00058 suncat0259 pw.x -in pw.inp   Done                     12/24/2018 23:16:29
00059 suncat0259 pw.x -in pw.inp   Done                     12/24/2018 23:16:29
00060 suncat0259 pw.x -in pw.inp   Done                     12/24/2018 23:16:29
00061 suncat0259 pw.x -in pw.inp   Done                     12/24/2018 23:16:29
00062 suncat0259 pw.x -in pw.inp   Done                     12/24/2018 23:16:29
00063 suncat0259 pw.x -in pw.inp   Done                     12/24/2018 23:16:29