     Program PWSCF v.5.1rc2 (svn rev. 11289) starts on 19Dec2018 at  9:16:43

     Current dimensions of program PWSCF are:
     Max number of different atomic species (ntypx) = 10
     Max number of k-points (npk) =  40000
     Max angular momentum in pseudopotentials (lmaxx) =  3
     Presently stress not available with electric field

     IMPORTANT: XC functional enforced from input :
     Exchange-correlation      = BEEF-VDW ( 1  4 27 13 2)
     Any further DFT definition will be discarded
     Please, verify this is what you really want

     Subspace diagonalization in iterative solution of the eigenvalue problem:
     a serial algorithm will be used

     Found symmetry operation: I + (  0.5000  0.5000  0.0000)
     This is a supercell, fractional translations are disabled

     bravais-lattice index     =            0
     lattice parameter (alat)  =       1.8897  a.u.
     unit-cell volume          =    4065.4996 (a.u.)^3
     number of atoms/cell      =           12
     number of atomic types    =            2
     number of electrons       =       204.00
     number of Kohn-Sham states=          132
     kinetic-energy cutoff     =      36.7493  Ry
     charge density cutoff     =     367.4932  Ry
     convergence threshold     =      1.0E-06
     mixing beta               =       0.1000
     number of iterations used =           10  plain     mixing
     Exchange-correlation      = BEEF-VDW ( 1  4 27 13 2)
     nstep                     =           50

     celldm(1)=   1.889726  celldm(2)=   0.000000  celldm(3)=   0.000000
     celldm(4)=   0.000000  celldm(5)=   0.000000  celldm(6)=   0.000000

     crystal axes: (cart. coord. in units of alat)
               a(1) = (   5.331832   0.000000   0.000000 )
               a(2) = (   2.630392   4.637830   0.000000 )
               a(3) = (   0.000000   0.000000  24.362736 )

     reciprocal axes: (cart. coord. in units 2 pi/alat)
               b(1) = (  0.187553 -0.106372  0.000000 )
               b(2) = (  0.000000  0.215618  0.000000 )
               b(3) = (  0.000000  0.000000  0.041046 )

     PseudoPot. # 1 for Cu read from file:
     /afs/slac.stanford.edu/u/if/mamunm/psp/gbrv1.5pbe/Cu.UPF
     MD5 check sum: 6e991ff952a84172a2a52a1c1e996048
     Pseudo is Ultrasoft + core correction, Zval = 19.0
     Generated by new atomic code, or converted to UPF format
     Using radial grid of  867 points,  6 beta functions with:
                l(1) =   0
                l(2) =   0
                l(3) =   1
                l(4) =   1
                l(5) =   2
                l(6) =   2
     Q(r) pseudized with  8 coefficients,  rinner =    1.150   1.150   1.150
                                                       1.150   1.150

     PseudoPot. # 2 for Rh read from file:
     /afs/slac.stanford.edu/u/if/mamunm/psp/gbrv1.5pbe/Rh.UPF
     MD5 check sum: 761627e959a2e3a1f56b0b5fe687810e
     Pseudo is Ultrasoft + core correction, Zval = 15.0
     Generated by new atomic code, or converted to UPF format
     Using radial grid of  969 points,  7 beta functions with:
                l(1) =   0
                l(2) =   0
                l(3) =   1
                l(4) =   1
                l(5) =   2
                l(6) =   2
                l(7) =   2
     Q(r) pseudized with  8 coefficients,  rinner =    1.200   1.200   1.200
                                                       1.200   1.200

     vdW kernel table read from file vdW_kernel_table
     MD5 check sum: 095c7af220d748ca6e76c0b4c6cfb241

     atomic species   valence    mass     pseudopotential
        Cu1           19.00    63.54600     Cu( 1.00)
        Rh1           15.00   102.90550     Rh( 1.00)

     No symmetry found

   Cartesian axes

     site n.     atom                  positions (alat units)
         1           Cu1 tau(   1) = (   0.0000000   0.0000000  10.0000000  )
         2           Cu1 tau(   2) = (   3.9811118   2.3189150  10.0000000  )
         3           Rh1 tau(   3) = (   2.6659159   0.0000000  10.0000000  )
         4           Rh1 tau(   4) = (   1.3151959   2.3189150  10.0000000  )
         5           Cu1 tau(   5) = (   5.3318317   3.1056814  12.1813679  )
         6           Cu1 tau(   6) = (   1.3507199   0.7867663  12.1813679  )
         7           Rh1 tau(   7) = (   2.6659159   3.1056814  12.1813679  )
         8           Rh1 tau(   8) = (   4.0166358   0.7867663  12.1813679  )
         9           Cu1 tau(   9) = (   2.7014398   1.5735327  14.3627357  )
        10           Cu1 tau(  10) = (   6.6825516   3.8924477  14.3627357  )
        11           Rh1 tau(  11) = (   5.3673557   1.5735327  14.3627357  )
        12           Rh1 tau(  12) = (   4.0166358   3.8924477  14.3627357  )

     number of k points=    20  Fermi-Dirac smearing, width (Ry)=  0.0110
                       cart. coord. in units 2pi/alat
        k(    1) = (   0.0000000   0.0000000   0.0000000), wk =   0.0555556
        k(    2) = (   0.0000000   0.0359363   0.0000000), wk =   0.1111111
        k(    3) = (   0.0000000   0.0718727   0.0000000), wk =   0.1111111
        k(    4) = (   0.0000000  -0.1078090   0.0000000), wk =   0.0555556
        k(    5) = (   0.0312588  -0.0177287   0.0000000), wk =   0.1111111
        k(    6) = (   0.0312588   0.0182076   0.0000000), wk =   0.1111111
        k(    7) = (   0.0312588   0.0541439   0.0000000), wk =   0.1111111
        k(    8) = (   0.0312588  -0.1255378   0.0000000), wk =   0.1111111
        k(    9) = (   0.0312588  -0.0896014   0.0000000), wk =   0.1111111
        k(   10) = (   0.0312588  -0.0536651   0.0000000), wk =   0.1111111
        k(   11) = (   0.0625176  -0.0354575   0.0000000), wk =   0.1111111
        k(   12) = (   0.0625176   0.0004789   0.0000000), wk =   0.1111111
        k(   13) = (   0.0625176   0.0364152   0.0000000), wk =   0.1111111
        k(   14) = (   0.0625176  -0.1432665   0.0000000), wk =   0.1111111
        k(   15) = (   0.0625176  -0.1073302   0.0000000), wk =   0.1111111
        k(   16) = (   0.0625176  -0.0713938   0.0000000), wk =   0.1111111
        k(   17) = (  -0.0937764   0.0531862   0.0000000), wk =   0.0555556
        k(   18) = (  -0.0937764   0.0891226   0.0000000), wk =   0.1111111
        k(   19) = (  -0.0937764   0.1250589   0.0000000), wk =   0.1111111
        k(   20) = (  -0.0937764  -0.0546228   0.0000000), wk =   0.0555556

     Largest allocated arrays     est. size (Mb)     dimensions
     Largest temporary arrays     est. size (Mb)     dimensions

     Initial potential from superposition of free atoms
     Check: negative starting charge=   -0.325464

     starting charge  194.99940, renormalised to  204.00000

     negative rho (up, down):  3.405E-01 0.000E+00

     *
     * You are using vdW-DF for exchange-correlation in this calculation.
     * Please cite the following three references that made this development
     * possible:
     *
     *   M. Dion, H. Rydberg, E. Schroder, D. C. Langreth, and
     *   B. I. Lundqvist, Phys. Rev. Lett. 92, 246401 (2004).
     *
     *   T. Thonhauser, V. R. Cooper, S. Li, A. Puzder, P. Hyldgaard, and
     *   D. C. Langreth, Phys. Rev. B 76, 125112 (2007).
     *
     *   G. Roman-Perez and J. M. Soler, Phys. Rev. Lett. 103, 096102 (2009).
     *
     *
     * If you are using vdW-DF2, please also cite:
     *
     *   K. Lee, E. D. Murray, L. Kong, B. I. Lundqvist, and
     *   D. C. Langreth, Phys. Rev. B 82, 081101(R) (2010).
     *
     *
     * If you are calculating the stress with vdW-DF, please also cite:
     *
     *   R. Sabatini, E. Kucukbenli, B. Kolb, T. Thonhauser, and
     *   S. de Gironcoli, J. Phys.: Condens. Matter 24, 424209 (2012).
     *

     Carrying out vdW-DF run using the following parameters:

     Nqs =      20    Nr_points =    1024   r_max =   100.000
     q_mesh =
               0.00001000     0.04494208     0.09755937     0.15916263
               0.23128650     0.31572767     0.41458969     0.53033537
               0.66584808     0.82450364     1.01025438     1.22772762
               1.48234092     1.78043706     2.12944203     2.53805004
               3.01644009     3.57652955     4.23227104     5.00000000

     Gradients computed in reciprocal space

     Adding external electric field

     Computed dipole along edir(3) :
        Dipole                0.0000 Ry au,          0.0000 Debye
        Dipole field          0.0000 Ry au

        Potential amp.       -0.0000 Ry
        Total length         44.8879 bohr

     Starting wfc are  150 randomized atomic wfcs

     Self-consistent Calculation

     iteration #  1     ecut=    36.75 Ry     beta=0.10
     Davidson diagonalization with overlap
     ethr =  1.00E-02,  avg # of iterations =  7.3

[...]

     total energy              =   -3462.27974459 Ry
     Harris-Foulkes estimate   =   -3467.17738059 Ry
     estimated scf accuracy    <      28.38334213 Ry

[...]

     iteration # 12     ecut=    36.75 Ry     beta=0.10
     Davidson diagonalization with overlap
     c_bands:  1 eigenvalues not converged
     ethr =  9.95E-07,  avg # of iterations =  2.4

[...]

     End of self-consistent calculation

          k = 0.0000 0.0000 0.0000 ( 15321 PWs)   bands (ev):

  -111.5384-111.5362-111.3218-111.3217-111.3196-111.3195 -68.9437 -68.9410
   -68.9400 -68.9240 -68.9213 -68.9088 -68.7730 -68.7729 -68.7643 -68.7640
   -68.7616 -68.7613 -68.7418 -68.7417 -68.6309 -68.6307 -68.6284 -68.6281
   -45.5674 -45.5077 -45.4667 -45.3732 -45.3715 -45.2482 -45.2086 -45.1822
   -45.0680 -45.0365 -45.0285 -44.9983 -44.9887 -44.9878 -44.9311 -44.9195
   -44.8912 -44.8807  -6.2769  -4.6462  -4.1651  -4.1367  -4.0089  -3.6588
    -3.4541  -3.3973  -3.2934  -3.2798  -3.2118  -3.1410  -3.1281  -3.0847
    -2.7695  -2.3813  -2.2089  -2.1121  -1.9354  -1.8698  -1.8518  -1.7691
    -1.7632  -1.6295  -1.6070  -1.5988  -1.5694  -1.5216  -1.4945  -1.4904
    -1.3723  -1.3105  -1.2207  -1.0036  -0.9823  -0.8294  -0.8174  -0.7748
    -0.7560  -0.6564  -0.5538  -0.5024  -0.4336  -0.1716  -0.1638  -0.1220
    -0.0504  -0.0095   0.2104   0.2302   0.4456   0.4983   0.6443   0.6882
     0.8214   0.8404   0.8759   1.0589   1.0868   1.1728   1.1775   1.2166
     1.6319   1.7882   2.1611   2.3652   2.5809   3.6746   3.7706   3.7832
     3.8833   4.0908   4.1172   5.1810   5.4543   5.9330   6.6798   6.8306
     6.9304   7.3391   7.7014   7.7513   8.0646   8.1295   8.2767   8.4393
     9.1448   9.2053   9.8602  10.5499

[...]

          k =-0.0938 0.0532 0.0000 ( 15294 PWs)   bands (ev):

[...]

     the Fermi energy is     0.8329 ev

!    total energy              =   -3462.73076678 Ry
     Harris-Foulkes estimate   =   -3462.73076199 Ry
     estimated scf accuracy    <       0.00000018 Ry

     The total energy is the sum of the following terms:

     one-electron contribution =  -26955.41144132 Ry
     hartree contribution      =   13506.76223590 Ry
     xc contribution           =    -426.09307611 Ry
     ewald contribution        =   10412.11322479 Ry
     electric field correction =       0.00000000 Ry
     smearing contrib. (-TS)   =      -0.10171005 Ry

     convergence has been achieved in  21 iterations

 BEEF-vdW xc energy contributions
[...]
     This is a supercell, fractional translations are disabled

[...]

     Total force =     0.025713     Total SCF correction =     0.001892

[...]

     Program PWSCF v.5.1rc2 (svn rev. 11289) starts on 19Dec2018 at 11:30:40

[...]

   This run was terminated on:  11:45:57  19Dec2018

[...]

     Program PWSCF v.5.1rc2 (svn rev. 11289) starts on 19Dec2018 at 11:46: 4

     Current dimensions of program PWSCF are:
     Max number of different atomic species (ntypx) = 10
     Max number of k-points (npk) =  40000
     Max angular momentum in pseudopotentials (lmaxx) =  3
     Presently stress not available with electric field

     IMPORTANT: XC functional enforced from input :
     Exchange-correlation      = BEEF-VDW ( 1  4 27 13 2)
     Any further DFT definition will be discarded
     Please, verify this is what you really want

     Subspace diagonalization in iterative solution of the eigenvalue problem:
     a serial algorithm will be used

     bravais-lattice index     =            0
     lattice parameter (alat)  =       1.8897  a.u.
     unit-cell volume          =    4065.4996 (a.u.)^3
     number of atoms/cell      =           12
     number of atomic types    =            2
     number of electrons       =       204.00
     number of Kohn-Sham states=          132
     kinetic-energy cutoff     =      36.7493  Ry
     charge density cutoff     =     367.4932  Ry
     convergence threshold     =      1.0E-06
     mixing beta               =       0.1000
     number of iterations used =           10  plain     mixing
     Exchange-correlation      = BEEF-VDW ( 1  4 27 13 2)
     nstep                     =           50

     celldm(1)=   1.889726  celldm(2)=   0.000000  celldm(3)=   0.000000
     celldm(4)=   0.000000  celldm(5)=   0.000000  celldm(6)=   0.000000

     crystal axes: (cart. coord. in units of alat)
               a(1) = (   5.331832   0.000000   0.000000 )
               a(2) = (   2.630392   4.637830   0.000000 )
               a(3) = (   0.000000   0.000000  24.362736 )

     reciprocal axes: (cart. coord. in units 2 pi/alat)
               b(1) = (  0.187553 -0.106372  0.000000 )
               b(2) = (  0.000000  0.215618  0.000000 )
               b(3) = (  0.000000  0.000000  0.041046 )

     PseudoPot. # 1 for Cu read from file:
     /afs/slac.stanford.edu/u/if/mamunm/psp/gbrv1.5pbe/Cu.UPF
     MD5 check sum: 6e991ff952a84172a2a52a1c1e996048
     Pseudo is Ultrasoft + core correction, Zval = 19.0
     Generated by new atomic code, or converted to UPF format
     Using radial grid of  867 points,  6 beta functions with:
                l(1) =   0
                l(2) =   0
                l(3) =   1
                l(4) =   1
                l(5) =   2
                l(6) =   2
     Q(r) pseudized with  8 coefficients,  rinner =    1.150   1.150   1.150
                                                       1.150   1.150

     PseudoPot. # 2 for Rh read from file:
     /afs/slac.stanford.edu/u/if/mamunm/psp/gbrv1.5pbe/Rh.UPF
     MD5 check sum: 761627e959a2e3a1f56b0b5fe687810e
     Pseudo is Ultrasoft + core correction, Zval = 15.0
     Generated by new atomic code, or converted to UPF format
     Using radial grid of  969 points,  7 beta functions with:
                l(1) =   0
                l(2) =   0
                l(3) =   1
                l(4) =   1
                l(5) =   2
                l(6) =   2
                l(7) =   2
     Q(r) pseudized with  8 coefficients,  rinner =    1.200   1.200   1.200
                                                       1.200   1.200

     vdW kernel table read from file vdW_kernel_table
     MD5 check sum: 095c7af220d748ca6e76c0b4c6cfb241

     atomic species   valence    mass     pseudopotential
        Cu1           19.00    63.54600     Cu( 1.00)
        Rh1           15.00   102.90550     Rh( 1.00)

     No symmetry found

   Cartesian axes

     site n.     atom                  positions (alat units)
         1           Cu1 tau(   1) = (   0.0000000   0.0000000  10.0000000  )
         2           Cu1 tau(   2) = (   3.9811118   2.3189150  10.0000000  )
         3           Rh1 tau(   3) = (   2.6659159   0.0000000  10.0000000  )
         4           Rh1 tau(   4) = (   1.3151959   2.3189150  10.0000000  )
         5           Cu1 tau(   5) = (   5.3318317   3.1056814  12.1813679  )
         6           Cu1 tau(   6) = (   1.3507199   0.7867663  12.1813679  )
         7           Rh1 tau(   7) = (   2.6659159   3.1056814  12.1813679  )
         8           Rh1 tau(   8) = (   4.0166358   0.7867663  12.1813679  )
         9           Cu1 tau(   9) = (   2.5856351   1.5059427  14.3653116  )
        10           Cu1 tau(  10) = (   6.5666166   3.8250822  14.3653239  )
        11           Rh1 tau(  11) = (   5.2629475   1.5127206  14.3450632  )
        12           Rh1 tau(  12) = (   3.9121106   3.8315687  14.3450526  )

     number of k points=    20  Fermi-Dirac smearing, width (Ry)=  0.0110
                       cart. coord. in units 2pi/alat
        k(    1) = (   0.0000000   0.0000000   0.0000000), wk =   0.0555556
        k(    2) = (   0.0000000   0.0359363   0.0000000), wk =   0.1111111
        k(    3) = (   0.0000000   0.0718727   0.0000000), wk =   0.1111111
        k(    4) = (   0.0000000  -0.1078090   0.0000000), wk =   0.0555556
        k(    5) = (   0.0312588  -0.0177287   0.0000000), wk =   0.1111111
        k(    6) = (   0.0312588   0.0182076   0.0000000), wk =   0.1111111
        k(    7) = (   0.0312588   0.0541439   0.0000000), wk =   0.1111111
        k(    8) = (   0.0312588  -0.1255378   0.0000000), wk =   0.1111111
        k(    9) = (   0.0312588  -0.0896014   0.0000000), wk =   0.1111111
        k(   10) = (   0.0312588  -0.0536651   0.0000000), wk =   0.1111111
        k(   11) = (   0.0625176  -0.0354575   0.0000000), wk =   0.1111111
        k(   12) = (   0.0625176   0.0004789   0.0000000), wk =   0.1111111
        k(   13) = (   0.0625176   0.0364152   0.0000000), wk =   0.1111111
        k(   14) = (   0.0625176  -0.1432665   0.0000000), wk =   0.1111111
        k(   15) = (   0.0625176  -0.1073302   0.0000000), wk =   0.1111111
        k(   16) = (   0.0625176  -0.0713938   0.0000000), wk =   0.1111111
        k(   17) = (  -0.0937764   0.0531862   0.0000000), wk =   0.0555556
        k(   18) = (  -0.0937764   0.0891226   0.0000000), wk =   0.1111111
        k(   19) = (  -0.0937764   0.1250589   0.0000000), wk =   0.1111111
        k(   20) = (  -0.0937764  -0.0546228   0.0000000), wk =   0.0555556

     Largest allocated arrays     est. size (Mb)     dimensions
     Largest temporary arrays     est. size (Mb)     dimensions

     Initial potential from superposition of free atoms
     Check: negative starting charge=   -0.325890

     starting charge  194.99940, renormalised to  204.00000

[...]

     *
     * You are using vdW-DF for exchange-correlation in this calculation.
     * Please cite the following three references that made this development
     * possible:
     *
     *   M. Dion, H. Rydberg, E. Schroder, D. C. Langreth, and
     *   B. I. Lundqvist, Phys. Rev. Lett. 92, 246401 (2004).
     *
     *   T. Thonhauser, V. R. Cooper, S. Li, A. Puzder, P. Hyldgaard, and
     *   D. C. Langreth, Phys. Rev. B 76, 125112 (2007).
     *
     *   G. Roman-Perez and J. M. Soler, Phys. Rev. Lett. 103, 096102 (2009).
     *
     *
     * If you are using vdW-DF2, please also cite:
     *
     *   K. Lee, E. D. Murray, L. Kong, B. I. Lundqvist, and
     *   D. C. Langreth, Phys. Rev. B 82, 081101(R) (2010).
     *
     *
     * If you are calculating the stress with vdW-DF, please also cite:
     *
     *   R. Sabatini, E. Kucukbenli, B. Kolb, T. Thonhauser, and
     *   S. de Gironcoli, J. Phys.: Condens. Matter 24, 424209 (2012).
     *

     Carrying out vdW-DF run using the following parameters:

     Nqs =      20    Nr_points =    1024   r_max =   100.000
     q_mesh =
               0.00001000     0.04494208     0.09755937     0.15916263
               0.23128650     0.31572767     0.41458969     0.53033537
               0.66584808     0.82450364     1.01025438     1.22772762
               1.48234092     1.78043706     2.12944203     2.53805004
               3.01644009     3.57652955     4.23227104     5.00000000

     Gradients computed in reciprocal space

[...]

     Starting wfc are  150 randomized atomic wfcs

     Self-consistent Calculation

[...]

     total energy              =   -3462.73289033 Ry
     Harris-Foulkes estimate   =   -3462.73288901 Ry
     estimated scf accuracy    <       0.00000107 Ry

     iteration # 20     ecut=    36.75 Ry     beta=0.10
     Davidson diagonalization with overlap
     ethr =  5.22E-10,  avg # of iterations =  2.0

[...]

     negative rho (up, down):  3.377E-01 0.000E+00

     Adding external electric field

     Computed dipole along edir(3) :
        Dipole                0.0051 Ry au,          0.0131 Debye
        Dipole field          0.0000 Ry au

        Potential amp.       -0.0014 Ry
        Total length         44.8879 bohr

     End of self-consistent calculation

[...]

          k = 0.0625-0.0714 0.0000 ( 15307 PWs)   bands (ev):

[...]

          k =-0.0938-0.0546 0.0000 ( 15278 PWs)   bands (ev):

  -111.5320-111.5298-111.3167-111.3145-111.3104-111.3082 -68.9431 -68.9404
   -68.9286 -68.9183 -68.9157 -68.8975 -68.7679 -68.7596 -68.7581 -68.7574
   -68.7569 -68.7547 -68.7367 -68.7269 -68.6251 -68.6225 -68.6189 -68.6164
   -45.5848 -45.5800 -45.5375 -45.3902 -45.3598 -45.2654 -45.2234 -45.1993
   -45.1019 -45.0622 -45.0365 -45.0063 -44.9974 -44.9753 -44.9595 -44.9201
   -44.9133 -44.8741  -4.6764  -4.5349  -3.5748  -3.5018  -3.2911  -3.2006
    -3.0774  -2.9715  -2.9006  -2.8681  -2.6852  -2.6669  -2.5740  -2.4289
    -2.4102  -2.3005  -2.2472  -2.2189  -2.1535  -2.1028  -2.0607  -1.9233
    -1.7682  -1.7607  -1.5946  -1.5640  -1.5610  -1.5354  -1.5298  -1.5226
    -1.4675  -1.4581  -1.4043  -1.3615  -1.3321  -1.3027  -1.2665  -1.2300
    -1.1483  -1.1020  -1.0903  -1.0832  -1.0703  -1.0016  -0.9046  -0.8937
    -0.8409  -0.7294  -0.4655  -0.2846  -0.2170  -0.1680  -0.1623  -0.1564
     0.3773   0.4802   0.5132   0.6714   0.7189   0.7341   0.8241   0.9288
     1.1469   1.3683   1.9211   2.2306   2.9892   3.0716   4.1072   4.5272
     4.8570   5.1885   5.5717   6.0158   6.7605   6.8028   7.3626   7.4015
     7.6306   7.6455   8.3560   8.4655   8.6516   8.6733   8.7533   9.1526
     9.2276   9.5152   9.6986   9.8701

     the Fermi energy is     0.8382 ev

!    total energy              =   -3462.73289590 Ry
     Harris-Foulkes estimate   =   -3462.73289045 Ry
     estimated scf accuracy    <       0.00000031 Ry

     The total energy is the sum of the following terms:

     one-electron contribution =  -26979.11995424 Ry
     hartree contribution      =   13518.57209045 Ry
     xc contribution           =    -426.10566439 Ry
     ewald contribution        =   10424.02056703 Ry
     electric field correction =       0.00000008 Ry
     smearing contrib. (-TS)   =      -0.09993482 Ry

     convergence has been achieved in  20 iterations

 BEEF-vdW xc energy contributions
           1 :   -374.862443602549
           2 :    341.691595805122
           3 :   -285.058304306841
           4 :    220.016774030259
           5 :   -160.812839965744
           6 :    115.993458130621
           7 :   -86.7831160639510
           8 :    68.8942265970305
           9 :   -56.2607893514016
          10 :    44.4821981989355
          11 :   -32.3435140869189
          12 :    21.1305578279951
          13 :   -12.7269438664651
          14 :    7.93124679822603
          15 :   -5.96008646101006
          16 :    5.14560248986055
          17 :   -4.08358468661544
          18 :    2.36652665038923
          19 :  -0.501664511916545
          20 :  -0.765593879157848
          21 :    1.13732207575646
          22 :  -0.965475144689037
          23 :   0.901317183807862
          24 :   -1.34429903525262
          25 :    2.14634134490967
          26 :   -2.77991363859127
          27 :    2.80117626700684
          28 :   -2.22892926098967
          29 :    1.54540244851302
          30 :   -1.32639944543172
          31 :   -32.8916353515588
          32 :   -23.5011256181875

     Forces acting on atoms (Ry/au):

     negative rho (up, down):  3.377E-01 0.000E+00
     atom    1 type  1   force =     0.00439131    0.00253715   -0.00062274
     atom    2 type  1   force =     0.00437357    0.00256786   -0.00062376
     atom    3 type  2   force =     0.00164960    0.00096062    0.00521876
     atom    4 type  2   force =     0.00164560    0.00095846    0.00521124
     atom    5 type  1   force =    -0.00165070   -0.00088345   -0.00147205
     atom    6 type  1   force =    -0.00158377   -0.00100008   -0.00147339
     atom    7 type  2   force =    -0.00455959   -0.00265496   -0.00210470
     atom    8 type  2   force =    -0.00455030   -0.00265083   -0.00211518
     atom    9 type  1   force =     0.00015616    0.00012460   -0.00103582
     atom   10 type  1   force =     0.00018462    0.00007271   -0.00103664
     atom   11 type  2   force =    -0.00002987   -0.00001694    0.00002843
     atom   12 type  2   force =    -0.00002664   -0.00001516    0.00002585

     Total force =     0.013854     Total SCF correction =     0.002235
     SCF correction compared to forces is large: reduce conv_thr to get better values

     entering subroutine stress ...

     negative rho (up, down):  3.377E-01 0.000E+00
          total   stress  (Ry/bohr**3)                   (kbar)     P=  -31.42
  -0.00023879   0.00001896  -0.00001172        -35.13      2.79     -1.72
   0.00001896  -0.00026030  -0.00000683          2.79    -38.29     -1.00
  -0.00001172  -0.00000683  -0.00014167         -1.72     -1.00    -20.84

 !ASE

     Writing output data file calc.save

     General routines

     Parallel routines

   This run was terminated on:  12: 1:35  19Dec2018

   JOB DONE.
Job  /afs/slac/g/suncat/bin/suncat-tsmpirun -x LD_LIBRARY_PATH -wdir /scratch/qe529805_PDjyi pw.x -in pw.inp

TID   HOST_NAME   COMMAND_LINE            STATUS            TERMINATION_TIME
00000 suncat0266 pw.x -in pw.inp   Done                     12/19/2018 12:01:35
00001 suncat0266 pw.x -in pw.inp   Done                     12/19/2018 12:01:35
00002 suncat0266 pw.x -in pw.inp   Done                     12/19/2018 12:01:35
00003 suncat0266 pw.x -in pw.inp   Done                     12/19/2018 12:01:35
00004 suncat0266 pw.x -in pw.inp   Done                     12/19/2018 12:01:35
00005 suncat0266 pw.x -in pw.inp   Done                     12/19/2018 12:01:35
00006 suncat0266 pw.x -in pw.inp   Done                     12/19/2018 12:01:35
00007 suncat0266 pw.x -in pw.inp   Done                     12/19/2018 12:01:35
00008 suncat0264 pw.x -in pw.inp   Done                     12/19/2018 12:01:35
00009 suncat0264 pw.x -in pw.inp   Done                     12/19/2018 12:01:35
00010 suncat0264 pw.x -in pw.inp   Done                     12/19/2018 12:01:35
00011 suncat0264 pw.x -in pw.inp   Done                     12/19/2018 12:01:35
00012 suncat0264 pw.x -in pw.inp   Done                     12/19/2018 12:01:35
00013 suncat0264 pw.x -in pw.inp   Done                     12/19/2018 12:01:35
00014 suncat0264 pw.x -in pw.inp   Done                     12/19/2018 12:01:35
00015 suncat0264 pw.x -in pw.inp   Done                     12/19/2018 12:01:35
00016 suncat0262 pw.x -in pw.inp   Done                     12/19/2018 12:01:35
00017 suncat0262 pw.x -in pw.inp   Done                     12/19/2018 12:01:35
00018 suncat0262 pw.x -in pw.inp   Done                     12/19/2018 12:01:35
00019 suncat0262 pw.x -in pw.inp   Done                     12/19/2018 12:01:35
00020 suncat0262 pw.x -in pw.inp   Done                     12/19/2018 12:01:35
00021 suncat0262 pw.x -in pw.inp   Done                     12/19/2018 12:01:35
00022 suncat0262 pw.x -in pw.inp   Done                     12/19/2018 12:01:35
00023 suncat0262 pw.x -in pw.inp   Done                     12/19/2018 12:01:35
00024 suncat0254 pw.x -in pw.inp   Done                     12/19/2018 12:01:35
00025 suncat0254 pw.x -in pw.inp   Done                     12/19/2018 12:01:35
00026 suncat0254 pw.x -in pw.inp   Done                     12/19/2018 12:01:35
00027 suncat0254 pw.x -in pw.inp   Done                     12/19/2018 12:01:35
00028 suncat0254 pw.x -in pw.inp   Done                     12/19/2018 12:01:35
00029 suncat0254 pw.x -in pw.inp   Done                     12/19/2018 12:01:35
00030 suncat0254 pw.x -in pw.inp   Done                     12/19/2018 12:01:35
00031 suncat0254 pw.x -in pw.inp   Done                     12/19/2018 12:01:35