     Program PWSCF v.5.1rc2 (svn rev. 11289) starts on 18Dec2018 at 16:49:51

     Current dimensions of program PWSCF are:
     Max number of different atomic species (ntypx) = 10
     Max number of k-points (npk) =  40000
     Max angular momentum in pseudopotentials (lmaxx) =  3
     Presently stress not available with electric field

     IMPORTANT: XC functional enforced from input :
     Exchange-correlation      = BEEF-VDW ( 1  4 27 13 2)
     Any further DFT definition will be discarded
     Please, verify this is what you really want

     Subspace diagonalization in iterative solution of the eigenvalue problem:
     a serial algorithm will be used

     Found symmetry operation: I + (  0.5000 -0.5000  0.0000)
     This is a supercell, fractional translations are disabled

     bravais-lattice index     =            0
     lattice parameter (alat)  =       1.8897  a.u.
     unit-cell volume          =    4217.9305 (a.u.)^3
     number of atoms/cell      =           12
     number of atomic types    =            2
     number of electrons       =       108.00
     number of Kohn-Sham states=           84
     kinetic-energy cutoff     =      36.7493  Ry
     charge density cutoff     =     367.4932  Ry
     convergence threshold     =      1.0E-06
     mixing beta               =       0.1000
     number of iterations used =           10  plain     mixing
     Exchange-correlation      = BEEF-VDW ( 1  4 27 13 2)
     nstep                     =           50

     celldm(1)=   1.889726  celldm(2)=   0.000000  celldm(3)=   0.000000
     celldm(4)=   0.000000  celldm(5)=   0.000000  celldm(6)=   0.000000

     crystal axes: (cart. coord. in units of alat)
               a(1) = (   5.228122   0.000000   0.000000 )
               a(2) = (   1.752751   4.925558   0.000000 )
               a(3) = (   0.000000   0.000000  24.271778 )

     reciprocal axes: (cart. coord. in units 2 pi/alat)
               b(1) = (  0.191273 -0.068064  0.000000 )
               b(2) = (  0.000000  0.203023  0.000000 )
               b(3) = (  0.000000  0.000000  0.041200 )

     PseudoPot. # 1 for Al read from file:
     /afs/slac.stanford.edu/u/if/mamunm/psp/gbrv1.5pbe/Al.UPF
     MD5 check sum: 0a6289f5291fc8f409219462bc851e1f
     Pseudo is Ultrasoft + core correction, Zval =  3.0
     Generated by new atomic code, or converted to UPF format
     Using radial grid of  893 points,  3 beta functions with:
                l(1) =   0
                l(2) =   1
                l(3) =   2
     Q(r) pseudized with  8 coefficients,  rinner =    0.900   0.900   0.900
                                                       0.900   0.900

     PseudoPot. # 2 for Ir read from file:
     /afs/slac.stanford.edu/u/if/mamunm/psp/gbrv1.5pbe/Ir.UPF
     MD5 check sum: 8836f839c3459d2b385c504ce6d91f2c
     Pseudo is Ultrasoft + core correction, Zval = 15.0
     Generated by new atomic code, or converted to UPF format
     Using radial grid of  983 points,  7 beta functions with:
                l(1) =   0
                l(2) =   0
                l(3) =   1
                l(4) =   1
                l(5) =   1
                l(6) =   2
                l(7) =   2
     Q(r) pseudized with  8 coefficients,  rinner =    1.400   1.400   1.400
                                                       1.400   1.400

     vdW kernel table read from file vdW_kernel_table
     MD5 check sum: 095c7af220d748ca6e76c0b4c6cfb241

     atomic species   valence    mass     pseudopotential
        Al1            3.00    26.98154     Al( 1.00)
        Ir1           15.00   192.21700     Ir( 1.00)

     No symmetry found

   Cartesian axes

     site n.     atom                  positions (alat units)
         1           Al1 tau(   1) = (   0.0000000   0.0000000  10.0000000  )
         2           Al1 tau(   2) = (   3.4904368   2.4627792  10.0000000  )
         3           Ir1 tau(   3) = (   2.6140612   0.0000000  10.0000000  )
         4           Ir1 tau(   4) = (   0.8763757   2.4627792  10.0000000  )
         5           Al1 tau(   5) = (   5.2281224   3.6888538  12.1358892  )
         6           Al1 tau(   6) = (   1.7376855   1.2260746  12.1358892  )
         7           Ir1 tau(   7) = (   2.6140612   3.6888538  12.1358892  )
         8           Ir1 tau(   8) = (   4.3517467   1.2260746  12.1358892  )
         9           Al1 tau(   9) = (   3.4753710   2.4521491  14.2717784  )
        10           Al1 tau(  10) = (   6.9658079   4.9149284  14.2717784  )
        11           Ir1 tau(  11) = (   6.0894322   2.4521491  14.2717784  )
        12           Ir1 tau(  12) = (   4.3517467   4.9149284  14.2717784  )

     number of k points=    20  Fermi-Dirac smearing, width (Ry)=  0.0110
                       cart. coord. in units 2pi/alat
        k(    1) = (   0.0000000   0.0000000   0.0000000), wk =   0.0555556
        k(    2) = (   0.0000000   0.0338371   0.0000000), wk =   0.1111111
        k(    3) = (   0.0000000   0.0676742   0.0000000), wk =   0.1111111
        k(    4) = (   0.0000000  -0.1015113   0.0000000), wk =   0.0555556
        k(    5) = (   0.0318789  -0.0113440   0.0000000), wk =   0.1111111
        k(    6) = (   0.0318789   0.0224931   0.0000000), wk =   0.1111111
        k(    7) = (   0.0318789   0.0563302   0.0000000), wk =   0.1111111
        k(    8) = (   0.0318789  -0.1128554   0.0000000), wk =   0.1111111
        k(    9) = (   0.0318789  -0.0790183   0.0000000), wk =   0.1111111
        k(   10) = (   0.0318789  -0.0451812   0.0000000), wk =   0.1111111
        k(   11) = (   0.0637578  -0.0226881   0.0000000), wk =   0.1111111
        k(   12) = (   0.0637578   0.0111490   0.0000000), wk =   0.1111111
        k(   13) = (   0.0637578   0.0449861   0.0000000), wk =   0.1111111
        k(   14) = (   0.0637578  -0.1241994   0.0000000), wk =   0.1111111
        k(   15) = (   0.0637578  -0.0903623   0.0000000), wk =   0.1111111
        k(   16) = (   0.0637578  -0.0565252   0.0000000), wk =   0.1111111
        k(   17) = (  -0.0956366   0.0340321   0.0000000), wk =   0.0555556
        k(   18) = (  -0.0956366   0.0678692   0.0000000), wk =   0.1111111
        k(   19) = (  -0.0956366   0.1017063   0.0000000), wk =   0.1111111
        k(   20) = (  -0.0956366  -0.0674792   0.0000000), wk =   0.0555556

     Largest allocated arrays     est. size (Mb)     dimensions
     Largest temporary arrays     est. size (Mb)     dimensions

     Initial potential from superposition of free atoms
     Check: negative starting charge=   -2.163294

     starting charge  104.98502, renormalised to  108.00000

     negative rho (up, down):  2.225E+00 0.000E+00

     *
     * You are using vdW-DF for exchange-correlation in this calculation.
     * Please cite the following three references that made this development
     * possible:
     *
     *   M. Dion, H. Rydberg, E. Schroder, D. C. Langreth, and
     *   B. I. Lundqvist, Phys. Rev. Lett. 92, 246401 (2004).
     *
     *   T. Thonhauser, V. R. Cooper, S. Li, A. Puzder, P. Hyldgaard, and
     *   D. C. Langreth, Phys. Rev. B 76, 125112 (2007).
     *
     *   G. Roman-Perez and J. M. Soler, Phys. Rev. Lett. 103, 096102 (2009).
     *
     *
     * If you are using vdW-DF2, please also cite:
     *
     *   K. Lee, E. D. Murray, L. Kong, B. I. Lundqvist, and
     *   D. C. Langreth, Phys. Rev. B 82, 081101(R) (2010).
     *
     *
     * If you are calculating the stress with vdW-DF, please also cite:
     *
     *   R. Sabatini, E. Kucukbenli, B. Kolb, T. Thonhauser, and
     *   S. de Gironcoli, J. Phys.: Condens. Matter 24, 424209 (2012).
     *

     Carrying out vdW-DF run using the following parameters:

     Nqs =      20    Nr_points =    1024   r_max =   100.000
     q_mesh =
               0.00001000     0.04494208     0.09755937     0.15916263
               0.23128650     0.31572767     0.41458969     0.53033537
               0.66584808     0.82450364     1.01025438     1.22772762
               1.48234092     1.78043706     2.12944203     2.53805004
               3.01644009     3.57652955     4.23227104     5.00000000

     Gradients computed in reciprocal space

     Adding external electric field

     Computed dipole along edir(3) :
        Dipole                0.0000 Ry au,          0.0000 Debye
        Dipole field          0.0000 Ry au

        Potential amp.       -0.0000 Ry
        Total length         44.7203 bohr

     Starting wfc are   96 randomized atomic wfcs

     Self-consistent Calculation

     iteration #  1     ecut=    36.75 Ry     beta=0.10
     Davidson diagonalization with overlap
     ethr =  1.00E-02,  avg # of iterations =  7.2

[...]

     total energy              =   -1142.32613448 Ry
     Harris-Foulkes estimate   =   -1143.95317388 Ry
     estimated scf accuracy    <      10.22170485 Ry

[...]

     iteration #  8     ecut=    36.75 Ry     beta=0.10
     Davidson diagonalization with overlap
     c_bands:  1 eigenvalues not converged
     c_bands:  1 eigenvalues not converged
     ethr =  4.83E-06,  avg # of iterations =  6.8

[...]

     End of self-consistent calculation

          k = 0.0000 0.0000 0.0000 ( 15869 PWs)   bands (ev):

   -48.4593 -48.3573 -48.3461 -48.3410 -48.3298 -48.3213 -48.0418 -48.0415
   -47.9385 -47.9336 -47.9269 -47.9202 -47.9083 -47.9079 -47.8519 -47.8471
   -47.8385 -47.8337  -9.6706  -7.5180  -6.0937  -6.0866  -5.7223  -5.1198
    -4.2463  -4.1103  -3.6587  -3.5233  -3.4688  -3.3267  -3.2021  -3.0224
    -2.5650  -2.3528  -2.3115  -1.6993  -1.6496  -1.5530  -1.4682  -1.4200
    -1.3363  -1.2549  -1.1408  -0.8346  -0.6417  -0.5261  -0.4651  -0.3678
    -0.3467  -0.3194  -0.2809  -0.1470  -0.0426   0.0610   0.3301   0.6728
     0.8027   1.6078   1.7885   2.9140   3.6478   3.9390   4.0230   4.2350
     4.4845   4.7219   4.7834   5.0075   5.0856   5.1289   5.4961   6.2540
     6.3972   6.5335   6.9335   7.0740   7.4539   7.4889   8.0205   8.2170
     8.3153   8.3900   8.6041   9.2550

[...]

          k =-0.0956 0.0340 0.0000 ( 15886 PWs)   bands (ev):

[...]

     the Fermi energy is     0.5808 ev

!    total energy              =   -1141.77644089 Ry
     Harris-Foulkes estimate   =   -1141.77643493 Ry
     estimated scf accuracy    <       0.00000056 Ry

     The total energy is the sum of the following terms:

     one-electron contribution =   -6966.85760054 Ry
     hartree contribution      =    3498.97098460 Ry
     xc contribution           =    -339.32585006 Ry
     ewald contribution        =    2665.47291368 Ry
     electric field correction =       0.00000000 Ry
     smearing contrib. (-TS)   =      -0.03688858 Ry

     convergence has been achieved in  14 iterations

 BEEF-vdW xc energy contributions
           1 :   -298.932643425952
           2 :    276.584257580597
           3 :   -237.317258087558
           4 :    189.702197719411
           5 :   -142.380567040920
           6 :    101.682711729172
           7 :   -70.6597613022035
           8 :    49.4004089002299
           9 :   -36.0243535763304
          10 :    27.7531283910489
          11 :   -21.7914364883250
          12 :    16.0017737161645
          13 :   -9.36905306372620
          14 :    2.13149582010271
[...]
00028 suncat0079 pw.x -in pw.inp   Done                     12/18/2018 16:58:35
00029 suncat0079 pw.x -in pw.inp   Done                     12/18/2018 16:58:35
00030 suncat0079 pw.x -in pw.inp   Done                     12/18/2018 16:58:35
00031 suncat0079 pw.x -in pw.inp   Done                     12/18/2018 16:58:35

[...]

     iteration #  8     ecut=    36.75 Ry     beta=0.10
     Davidson diagonalization with overlap
     c_bands:  1 eigenvalues not converged
     c_bands:  1 eigenvalues not converged
     ethr =  7.75E-06,  avg # of iterations =  4.7

[...]

   This run was terminated on:  17: 7:29  18Dec2018

[...]

     Program PWSCF v.5.1rc2 (svn rev. 11289) starts on 18Dec2018 at 17: 7:36

[...]

   This run was terminated on:  17:16:42  18Dec2018

[...]

     Program PWSCF v.5.1rc2 (svn rev. 11289) starts on 18Dec2018 at 17:16:48

     Current dimensions of program PWSCF are:
     Max number of different atomic species (ntypx) = 10
     Max number of k-points (npk) =  40000
     Max angular momentum in pseudopotentials (lmaxx) =  3
     Presently stress not available with electric field

     IMPORTANT: XC functional enforced from input :
     Exchange-correlation      = BEEF-VDW ( 1  4 27 13 2)
     Any further DFT definition will be discarded
     Please, verify this is what you really want

     Subspace diagonalization in iterative solution of the eigenvalue problem:
     a serial algorithm will be used

     Found symmetry operation: I + (  0.5000 -0.5000  0.0000)
     This is a supercell, fractional translations are disabled

     bravais-lattice index     =            0
     lattice parameter (alat)  =       1.8897  a.u.
     unit-cell volume          =    4217.9305 (a.u.)^3
     number of atoms/cell      =           12
     number of atomic types    =            2
     number of electrons       =       108.00
     number of Kohn-Sham states=           84
     kinetic-energy cutoff     =      36.7493  Ry
     charge density cutoff     =     367.4932  Ry
     convergence threshold     =      1.0E-06
     mixing beta               =       0.1000
     number of iterations used =           10  plain     mixing
     Exchange-correlation      = BEEF-VDW ( 1  4 27 13 2)
     nstep                     =           50

     celldm(1)=   1.889726  celldm(2)=   0.000000  celldm(3)=   0.000000
     celldm(4)=   0.000000  celldm(5)=   0.000000  celldm(6)=   0.000000

     crystal axes: (cart. coord. in units of alat)
               a(1) = (   5.228122   0.000000   0.000000 )
               a(2) = (   1.752751   4.925558   0.000000 )
               a(3) = (   0.000000   0.000000  24.271778 )

     reciprocal axes: (cart. coord. in units 2 pi/alat)
               b(1) = (  0.191273 -0.068064  0.000000 )
               b(2) = (  0.000000  0.203023  0.000000 )
               b(3) = (  0.000000  0.000000  0.041200 )

     PseudoPot. # 1 for Al read from file:
     /afs/slac.stanford.edu/u/if/mamunm/psp/gbrv1.5pbe/Al.UPF
     MD5 check sum: 0a6289f5291fc8f409219462bc851e1f
     Pseudo is Ultrasoft + core correction, Zval =  3.0
     Generated by new atomic code, or converted to UPF format
     Using radial grid of  893 points,  3 beta functions with:
                l(1) =   0
                l(2) =   1
                l(3) =   2
     Q(r) pseudized with  8 coefficients,  rinner =    0.900   0.900   0.900
                                                       0.900   0.900

     PseudoPot. # 2 for Ir read from file:
     /afs/slac.stanford.edu/u/if/mamunm/psp/gbrv1.5pbe/Ir.UPF
     MD5 check sum: 8836f839c3459d2b385c504ce6d91f2c
     Pseudo is Ultrasoft + core correction, Zval = 15.0
     Generated by new atomic code, or converted to UPF format
     Using radial grid of  983 points,  7 beta functions with:
                l(1) =   0
                l(2) =   0
                l(3) =   1
                l(4) =   1
                l(5) =   1
                l(6) =   2
                l(7) =   2
     Q(r) pseudized with  8 coefficients,  rinner =    1.400   1.400   1.400
                                                       1.400   1.400

     vdW kernel table read from file vdW_kernel_table
     MD5 check sum: 095c7af220d748ca6e76c0b4c6cfb241

     atomic species   valence    mass     pseudopotential
        Al1            3.00    26.98154     Al( 1.00)
        Ir1           15.00   192.21700     Ir( 1.00)

     No symmetry found

   Cartesian axes

     site n.     atom                  positions (alat units)
         1           Al1 tau(   1) = (   0.0000000   0.0000000  10.0000000  )
         2           Al1 tau(   2) = (   3.4904368   2.4627792  10.0000000  )
         3           Ir1 tau(   3) = (   2.6140612   0.0000000  10.0000000  )
         4           Ir1 tau(   4) = (   0.8763757   2.4627792  10.0000000  )
         5           Al1 tau(   5) = (   5.2281224   3.6888538  12.1358892  )
         6           Al1 tau(   6) = (   1.7376855   1.2260746  12.1358892  )
         7           Ir1 tau(   7) = (   2.6140612   3.6888538  12.1358892  )
         8           Ir1 tau(   8) = (   4.3517467   1.2260746  12.1358892  )
         9           Al1 tau(   9) = (   3.4784425   2.4543152  14.3743514  )
        10           Al1 tau(  10) = (   6.9688770   4.9170952  14.3743514  )
        11           Ir1 tau(  11) = (   6.0926437   2.4544117  14.1793201  )
        12           Ir1 tau(  12) = (   4.3549569   4.9171956  14.1793176  )

     number of k points=    20  Fermi-Dirac smearing, width (Ry)=  0.0110
                       cart. coord. in units 2pi/alat
        k(    1) = (   0.0000000   0.0000000   0.0000000), wk =   0.0555556
        k(    2) = (   0.0000000   0.0338371   0.0000000), wk =   0.1111111
        k(    3) = (   0.0000000   0.0676742   0.0000000), wk =   0.1111111
        k(    4) = (   0.0000000  -0.1015113   0.0000000), wk =   0.0555556
        k(    5) = (   0.0318789  -0.0113440   0.0000000), wk =   0.1111111
        k(    6) = (   0.0318789   0.0224931   0.0000000), wk =   0.1111111
        k(    7) = (   0.0318789   0.0563302   0.0000000), wk =   0.1111111
        k(    8) = (   0.0318789  -0.1128554   0.0000000), wk =   0.1111111
        k(    9) = (   0.0318789  -0.0790183   0.0000000), wk =   0.1111111
        k(   10) = (   0.0318789  -0.0451812   0.0000000), wk =   0.1111111
        k(   11) = (   0.0637578  -0.0226881   0.0000000), wk =   0.1111111
        k(   12) = (   0.0637578   0.0111490   0.0000000), wk =   0.1111111
        k(   13) = (   0.0637578   0.0449861   0.0000000), wk =   0.1111111
        k(   14) = (   0.0637578  -0.1241994   0.0000000), wk =   0.1111111
        k(   15) = (   0.0637578  -0.0903623   0.0000000), wk =   0.1111111
        k(   16) = (   0.0637578  -0.0565252   0.0000000), wk =   0.1111111
        k(   17) = (  -0.0956366   0.0340321   0.0000000), wk =   0.0555556
        k(   18) = (  -0.0956366   0.0678692   0.0000000), wk =   0.1111111
        k(   19) = (  -0.0956366   0.1017063   0.0000000), wk =   0.1111111
        k(   20) = (  -0.0956366  -0.0674792   0.0000000), wk =   0.0555556

     Largest allocated arrays     est. size (Mb)     dimensions
     Largest temporary arrays     est. size (Mb)     dimensions

     Initial potential from superposition of free atoms
     Check: negative starting charge=   -2.162599

     starting charge  104.98502, renormalised to  108.00000

[...]

     *
     * You are using vdW-DF for exchange-correlation in this calculation.
     * Please cite the following three references that made this development
     * possible:
     *
     *   M. Dion, H. Rydberg, E. Schroder, D. C. Langreth, and
     *   B. I. Lundqvist, Phys. Rev. Lett. 92, 246401 (2004).
     *
     *   T. Thonhauser, V. R. Cooper, S. Li, A. Puzder, P. Hyldgaard, and
     *   D. C. Langreth, Phys. Rev. B 76, 125112 (2007).
     *
     *   G. Roman-Perez and J. M. Soler, Phys. Rev. Lett. 103, 096102 (2009).
     *
     *
     * If you are using vdW-DF2, please also cite:
     *
     *   K. Lee, E. D. Murray, L. Kong, B. I. Lundqvist, and
     *   D. C. Langreth, Phys. Rev. B 82, 081101(R) (2010).
     *
     *
     * If you are calculating the stress with vdW-DF, please also cite:
     *
     *   R. Sabatini, E. Kucukbenli, B. Kolb, T. Thonhauser, and
     *   S. de Gironcoli, J. Phys.: Condens. Matter 24, 424209 (2012).
     *

     Carrying out vdW-DF run using the following parameters:

     Nqs =      20    Nr_points =    1024   r_max =   100.000
     q_mesh =
               0.00001000     0.04494208     0.09755937     0.15916263
               0.23128650     0.31572767     0.41458969     0.53033537
               0.66584808     0.82450364     1.01025438     1.22772762
               1.48234092     1.78043706     2.12944203     2.53805004
               3.01644009     3.57652955     4.23227104     5.00000000

     Gradients computed in reciprocal space

[...]

     Starting wfc are   96 randomized atomic wfcs

     Self-consistent Calculation

[...]

     total energy              =   -1141.78764462 Ry
     Harris-Foulkes estimate   =   -1141.78763764 Ry
     estimated scf accuracy    <       0.00000429 Ry

     iteration # 15     ecut=    36.75 Ry     beta=0.10
     Davidson diagonalization with overlap
     ethr =  3.97E-09,  avg # of iterations =  2.4

[...]

     negative rho (up, down):  1.957E+00 0.000E+00

     Adding external electric field

     Computed dipole along edir(3) :
        Dipole                0.0306 Ry au,          0.0778 Debye
        Dipole field          0.0001 Ry au

        Potential amp.       -0.0082 Ry
        Total length         44.7203 bohr

     End of self-consistent calculation

[...]

          k = 0.0638-0.0565 0.0000 ( 15879 PWs)   bands (ev):

[...]

          k =-0.0956-0.0675 0.0000 ( 15782 PWs)   bands (ev):

   -48.2913 -48.2169 -48.2029 -48.2002 -48.1835 -48.1531 -48.0295 -47.9715
   -47.9124 -47.8992 -47.8949 -47.8590 -47.8458 -47.8378 -47.8270 -47.8166
   -47.7806 -47.7694  -7.4606  -7.1897  -5.8820  -5.7987  -5.4946  -5.1963
    -5.0400  -4.5358  -4.3859  -4.0681  -3.9946  -3.6034  -3.3031  -3.0256
    -2.8447  -2.7097  -2.4261  -2.3450  -2.2845  -2.1091  -1.7503  -1.6558
    -1.6557  -1.5961  -1.5451  -1.2040  -0.8729  -0.8287  -0.2765  -0.2442
    -0.1743  -0.0290   0.2093   0.2987   0.6129   0.6243   0.7784   1.9739
     2.0072   2.3859   2.4920   3.0742   3.5418   3.6823   4.2983   4.4753
     5.1295   5.7344   5.7807   6.5166   6.6513   6.8020   7.0337   7.2587
     7.3707   7.6086   7.9393   7.9640   8.2525   8.3693   8.4057   8.4574
     8.5624   8.7150   8.8424   8.8426

     the Fermi energy is     0.6362 ev

!    total energy              =   -1141.78764447 Ry
     Harris-Foulkes estimate   =   -1141.78764522 Ry
     estimated scf accuracy    <       0.00000023 Ry

     The total energy is the sum of the following terms:

     one-electron contribution =   -7022.84096409 Ry
     hartree contribution      =    3527.27522560 Ry
     xc contribution           =    -339.32786521 Ry
     ewald contribution        =    2693.14185418 Ry
     electric field correction =       0.00000279 Ry
     smearing contrib. (-TS)   =      -0.03589775 Ry

     convergence has been achieved in  15 iterations

 BEEF-vdW xc energy contributions
           1 :   -298.939125381167
           2 :    276.604340866710
           3 :   -237.348786251070
           4 :    189.725437177945
           5 :   -142.369384782494
           6 :    101.619901786502
           7 :   -70.5470360297566
           8 :    49.2574923853858
           9 :   -35.8770188720658
          10 :    27.6185636452284
          11 :   -21.6712911133756
          12 :    15.8868666185192
          13 :   -9.25091278857894
          14 :    2.00989179408691
          15 :    4.66228123233168
          16 :   -9.37819728131626
          17 :    11.3065789881604
          18 :   -10.6073425995303
          19 :    8.32479344807825
          20 :   -5.85452814983501
          21 :    4.31748336319470
          22 :   -4.16702485636870
          23 :    5.16137449886742
          24 :   -6.62241123341835
          25 :    7.79234304583969
          26 :   -8.12620089952065
          27 :    7.44710260821546
          28 :   -5.96716153632030
          29 :    4.19299597724034
          30 :   -2.73395450430905
          31 :   -26.9570822696314
          32 :   -20.1268765070858

     Forces acting on atoms (Ry/au):

     negative rho (up, down):  1.957E+00 0.000E+00
     atom    1 type  1   force =    -0.00024953   -0.00017604   -0.01804512
     atom    2 type  1   force =    -0.00024958   -0.00017597   -0.01804508
     atom    3 type  2   force =    -0.00042080   -0.00029687    0.03300141
     atom    4 type  2   force =    -0.00042103   -0.00029715    0.03300168
     atom    5 type  1   force =     0.00013165    0.00009250   -0.01611331
     atom    6 type  1   force =     0.00013133    0.00009310   -0.01611402
     atom    7 type  2   force =     0.00008812    0.00006188    0.00051365
     atom    8 type  2   force =     0.00008785    0.00006220    0.00051368
     atom    9 type  1   force =     0.00021498    0.00015205   -0.00000871
     atom   10 type  1   force =     0.00021480    0.00015113   -0.00000866
     atom   11 type  2   force =     0.00023605    0.00016716    0.00065149
     atom   12 type  2   force =     0.00023615    0.00016601    0.00065299

     Total force =     0.057890     Total SCF correction =     0.000564

     entering subroutine stress ...

     negative rho (up, down):  1.957E+00 0.000E+00
          total   stress  (Ry/bohr**3)                   (kbar)     P=  -24.70
  -0.00020973   0.00004501   0.00000210        -30.85      6.62      0.31
   0.00004501  -0.00024176   0.00000148          6.62    -35.56      0.22
   0.00000210   0.00000148  -0.00005227          0.31      0.22     -7.69

 !ASE

     Writing output data file calc.save

     General routines

     Parallel routines

   This run was terminated on:  17:26: 3  18Dec2018

   JOB DONE.
Job  /afs/slac/g/suncat/bin/suncat-tsmpirun -x LD_LIBRARY_PATH -wdir /scratch/qe529588_6e94j pw.x -in pw.inp

TID   HOST_NAME   COMMAND_LINE            STATUS            TERMINATION_TIME
00000 suncat0082 pw.x -in pw.inp   Done                     12/18/2018 17:26:03
00001 suncat0082 pw.x -in pw.inp   Done                     12/18/2018 17:26:03
00002 suncat0082 pw.x -in pw.inp   Done                     12/18/2018 17:26:03
00003 suncat0082 pw.x -in pw.inp   Done                     12/18/2018 17:26:03
00004 suncat0082 pw.x -in pw.inp   Done                     12/18/2018 17:26:03
00005 suncat0082 pw.x -in pw.inp   Done                     12/18/2018 17:26:03
00006 suncat0082 pw.x -in pw.inp   Done                     12/18/2018 17:26:03
00007 suncat0082 pw.x -in pw.inp   Done                     12/18/2018 17:26:03
00008 suncat0081 pw.x -in pw.inp   Done                     12/18/2018 17:26:03
00009 suncat0081 pw.x -in pw.inp   Done                     12/18/2018 17:26:03
00010 suncat0081 pw.x -in pw.inp   Done                     12/18/2018 17:26:03
00011 suncat0081 pw.x -in pw.inp   Done                     12/18/2018 17:26:03
00012 suncat0081 pw.x -in pw.inp   Done                     12/18/2018 17:26:03
00013 suncat0081 pw.x -in pw.inp   Done                     12/18/2018 17:26:03
00014 suncat0081 pw.x -in pw.inp   Done                     12/18/2018 17:26:03
00015 suncat0081 pw.x -in pw.inp   Done                     12/18/2018 17:26:03
00016 suncat0080 pw.x -in pw.inp   Done                     12/18/2018 17:26:03
00017 suncat0080 pw.x -in pw.inp   Done                     12/18/2018 17:26:03
00018 suncat0080 pw.x -in pw.inp   Done                     12/18/2018 17:26:03
00019 suncat0080 pw.x -in pw.inp   Done                     12/18/2018 17:26:03
00020 suncat0080 pw.x -in pw.inp   Done                     12/18/2018 17:26:03
00021 suncat0080 pw.x -in pw.inp   Done                     12/18/2018 17:26:03
00022 suncat0080 pw.x -in pw.inp   Done                     12/18/2018 17:26:03
00023 suncat0080 pw.x -in pw.inp   Done                     12/18/2018 17:26:03
00024 suncat0079 pw.x -in pw.inp   Done                     12/18/2018 17:26:03
00025 suncat0079 pw.x -in pw.inp   Done                     12/18/2018 17:26:03
00026 suncat0079 pw.x -in pw.inp   Done                     12/18/2018 17:26:03
00027 suncat0079 pw.x -in pw.inp   Done                     12/18/2018 17:26:03
00028 suncat0079 pw.x -in pw.inp   Done                     12/18/2018 17:26:03
00029 suncat0079 pw.x -in pw.inp   Done                     12/18/2018 17:26:03
00030 suncat0079 pw.x -in pw.inp   Done                     12/18/2018 17:26:03
00031 suncat0079 pw.x -in pw.inp   Done                     12/18/2018 17:26:03