     Program PWSCF v.5.1rc2 (svn rev. 11289) starts on 19Dec2018 at  4:39:51

     Current dimensions of program PWSCF are:
     Max number of different atomic species (ntypx) = 10
     Max number of k-points (npk) =  40000
     Max angular momentum in pseudopotentials (lmaxx) =  3
     Presently stress not available with electric field

     IMPORTANT: XC functional enforced from input :
     Exchange-correlation      = BEEF-VDW ( 1  4 27 13 2)
     Any further DFT definition will be discarded
     Please, verify this is what you really want

     Subspace diagonalization in iterative solution of the eigenvalue problem:
     a serial algorithm will be used

     Found symmetry operation: I + (  0.5000  0.5000  0.0000)
     This is a supercell, fractional translations are disabled

     bravais-lattice index     =            0
     lattice parameter (alat)  =       1.8897  a.u.
     unit-cell volume          =    5006.5895 (a.u.)^3
     number of atoms/cell      =           12
     number of atomic types    =            2
     number of electrons       =       180.00
     number of Kohn-Sham states=          120
     kinetic-energy cutoff     =      36.7493  Ry
     charge density cutoff     =     367.4932  Ry
     convergence threshold     =      1.0E-06
     mixing beta               =       0.1000
     number of iterations used =           10  plain     mixing
     Exchange-correlation      = BEEF-VDW ( 1  4 27 13 2)
     nstep                     =           50

     celldm(1)=   1.889726  celldm(2)=   0.000000  celldm(3)=   0.000000
     celldm(4)=   0.000000  celldm(5)=   0.000000  celldm(6)=   0.000000

     crystal axes: (cart. coord. in units of alat)
               a(1) = (   5.657904   0.000000   0.000000 )
               a(2) = (   1.914135   5.324280   0.000000 )
               a(3) = (   0.000000   0.000000  24.627987 )

     reciprocal axes: (cart. coord. in units 2 pi/alat)
               b(1) = (  0.176744 -0.063541  0.000000 )
               b(2) = (  0.000000  0.187819  0.000000 )
               b(3) = (  0.000000  0.000000  0.040604 )

     PseudoPot. # 1 for Sc read from file:
     /afs/slac.stanford.edu/u/if/mamunm/psp/gbrv1.5pbe/Sc.UPF
     MD5 check sum: db30a2753ba66ef00f23801d899b7e7f
     Pseudo is Ultrasoft + core correction, Zval = 11.0
     Generated by new atomic code, or converted to UPF format
     Using radial grid of  849 points,  6 beta functions with:
                l(1) =   0
                l(2) =   0
                l(3) =   1
                l(4) =   1
                l(5) =   2
                l(6) =   2
     Q(r) pseudized with  6 coefficients,  rinner =    1.200   1.200   1.200
                                                       1.200   1.200

     PseudoPot. # 2 for Cu read from file:
     /afs/slac.stanford.edu/u/if/mamunm/psp/gbrv1.5pbe/Cu.UPF
     MD5 check sum: 6e991ff952a84172a2a52a1c1e996048
     Pseudo is Ultrasoft + core correction, Zval = 19.0
     Generated by new atomic code, or converted to UPF format
     Using radial grid of  867 points,  6 beta functions with:
                l(1) =   0
                l(2) =   0
                l(3) =   1
                l(4) =   1
                l(5) =   2
                l(6) =   2
     Q(r) pseudized with  8 coefficients,  rinner =    1.150   1.150   1.150
                                                       1.150   1.150

     vdW kernel table read from file vdW_kernel_table
     MD5 check sum: 095c7af220d748ca6e76c0b4c6cfb241

     atomic species   valence    mass     pseudopotential
        Sc1           11.00    44.95591     Sc( 1.00)
        Cu1           19.00    63.54600     Cu( 1.00)

     No symmetry found

   Cartesian axes

     site n.     atom                  positions (alat units)
         1           Sc1 tau(   1) = (   0.0000000   0.0000000  10.0000000  )
         2           Sc1 tau(   2) = (   3.7860195   2.6621401  10.0000000  )
         3           Cu1 tau(   3) = (   2.8289519   0.0000000  10.0000000  )
         4           Cu1 tau(   4) = (   0.9570677   2.6621401  10.0000000  )
         5           Sc1 tau(   5) = (   5.6579037   3.9783558  12.3139936  )
         6           Sc1 tau(   6) = (   1.8718842   1.3162156  12.3139936  )
         7           Cu1 tau(   7) = (   2.8289519   3.9783558  12.3139936  )
         8           Cu1 tau(   8) = (   4.7008361   1.3162156  12.3139936  )
         9           Sc1 tau(   9) = (   3.7437684   2.6324313  14.6279873  )
        10           Sc1 tau(  10) = (   7.5297879   5.2945714  14.6279873  )
        11           Cu1 tau(  11) = (   6.5727203   2.6324313  14.6279873  )
        12           Cu1 tau(  12) = (   4.7008361   5.2945714  14.6279873  )

     number of k points=    20  Fermi-Dirac smearing, width (Ry)=  0.0110
                       cart. coord. in units 2pi/alat
        k(    1) = (   0.0000000   0.0000000   0.0000000), wk =   0.0555556
        k(    2) = (   0.0000000   0.0313031   0.0000000), wk =   0.1111111
        k(    3) = (   0.0000000   0.0626063   0.0000000), wk =   0.1111111
        k(    4) = (   0.0000000  -0.0939094   0.0000000), wk =   0.0555556
        k(    5) = (   0.0294573  -0.0105902   0.0000000), wk =   0.1111111
        k(    6) = (   0.0294573   0.0207129   0.0000000), wk =   0.1111111
        k(    7) = (   0.0294573   0.0520161   0.0000000), wk =   0.1111111
        k(    8) = (   0.0294573  -0.1044996   0.0000000), wk =   0.1111111
        k(    9) = (   0.0294573  -0.0731965   0.0000000), wk =   0.1111111
        k(   10) = (   0.0294573  -0.0418934   0.0000000), wk =   0.1111111
        k(   11) = (   0.0589146  -0.0211804   0.0000000), wk =   0.1111111
        k(   12) = (   0.0589146   0.0101227   0.0000000), wk =   0.1111111
        k(   13) = (   0.0589146   0.0414258   0.0000000), wk =   0.1111111
        k(   14) = (   0.0589146  -0.1150898   0.0000000), wk =   0.1111111
        k(   15) = (   0.0589146  -0.0837867   0.0000000), wk =   0.1111111
        k(   16) = (   0.0589146  -0.0524836   0.0000000), wk =   0.1111111
        k(   17) = (  -0.0883720   0.0317707   0.0000000), wk =   0.0555556
        k(   18) = (  -0.0883720   0.0630738   0.0000000), wk =   0.1111111
        k(   19) = (  -0.0883720   0.0943769   0.0000000), wk =   0.1111111
        k(   20) = (  -0.0883720  -0.0621388   0.0000000), wk =   0.0555556

     Largest allocated arrays     est. size (Mb)     dimensions
     Largest temporary arrays     est. size (Mb)     dimensions

     Initial potential from superposition of free atoms
     Check: negative starting charge=   -0.000220

     starting charge  173.98557, renormalised to  180.00000

     negative rho (up, down):  2.281E-04 0.000E+00

     *
     * You are using vdW-DF for exchange-correlation in this calculation.
     * Please cite the following three references that made this development
     * possible:
     *
     *   M. Dion, H. Rydberg, E. Schroder, D. C. Langreth, and
     *   B. I. Lundqvist, Phys. Rev. Lett. 92, 246401 (2004).
     *
     *   T. Thonhauser, V. R. Cooper, S. Li, A. Puzder, P. Hyldgaard, and
     *   D. C. Langreth, Phys. Rev. B 76, 125112 (2007).
     *
     *   G. Roman-Perez and J. M. Soler, Phys. Rev. Lett. 103, 096102 (2009).
     *
     *
     * If you are using vdW-DF2, please also cite:
     *
     *   K. Lee, E. D. Murray, L. Kong, B. I. Lundqvist, and
     *   D. C. Langreth, Phys. Rev. B 82, 081101(R) (2010).
     *
     *
     * If you are calculating the stress with vdW-DF, please also cite:
     *
     *   R. Sabatini, E. Kucukbenli, B. Kolb, T. Thonhauser, and
     *   S. de Gironcoli, J. Phys.: Condens. Matter 24, 424209 (2012).
     *

     Carrying out vdW-DF run using the following parameters:

     Nqs =      20    Nr_points =    1024   r_max =   100.000
     q_mesh =
               0.00001000     0.04494208     0.09755937     0.15916263
               0.23128650     0.31572767     0.41458969     0.53033537
               0.66584808     0.82450364     1.01025438     1.22772762
               1.48234092     1.78043706     2.12944203     2.53805004
               3.01644009     3.57652955     4.23227104     5.00000000

     Gradients computed in reciprocal space

     Adding external electric field

     Computed dipole along edir(3) :
        Dipole                0.0000 Ry au,          0.0000 Debye
        Dipole field          0.0000 Ry au

        Potential amp.       -0.0000 Ry
        Total length         45.3766 bohr

     Starting wfc are  156 randomized atomic wfcs

     Self-consistent Calculation

     iteration #  1     ecut=    36.75 Ry     beta=0.10
     Davidson diagonalization with overlap
     ethr =  1.00E-02,  avg # of iterations =  3.0

[...]

     total energy              =   -2999.19155831 Ry
     Harris-Foulkes estimate   =   -3000.19743307 Ry
     estimated scf accuracy    <       6.03130524 Ry

[...]

     End of self-consistent calculation

          k = 0.0000 0.0000 0.0000 ( 18827 PWs)   bands (ev):

  -112.3496-112.3495-112.2240-112.2240-112.2239-112.2239 -69.7383 -69.7382
   -69.7221 -69.7207 -69.7205 -69.7197 -69.6571 -69.6571 -69.6570 -69.6569
   -69.6051 -69.6051 -69.6028 -69.6028 -69.5633 -69.5633 -69.5632 -69.5631
   -49.6354 -49.6347 -49.6151 -49.6150 -49.3488 -49.3292 -28.3061 -28.2986
   -28.2890 -28.2739 -28.2369 -28.2359 -28.2086 -28.1976 -28.1957 -28.1769
   -28.0445 -28.0314 -28.0308 -27.9422 -27.9076 -27.8947 -27.8742 -27.8331
    -5.7137  -4.2948  -3.3848  -3.1881  -3.1168  -3.0261  -3.0176  -2.9749
    -2.9346  -2.9195  -2.7760  -2.7653  -2.6882  -2.5740  -2.5668  -2.5179
    -2.4820  -2.4666  -2.4512  -2.4473  -2.4124  -2.3873  -2.3704  -2.2872
    -2.2638  -2.2511  -2.2210  -2.1264  -2.1093  -2.0591  -2.0291  -1.9420
    -1.5614  -1.2368  -1.1931  -0.9803  -0.1104   0.2036   0.3646   0.7661
     0.7730   0.8609   0.9553   1.0578   1.0864   1.2152   1.4285   1.5109
     1.5742   1.6290   1.7137   1.9101   1.9312   2.1536   2.3235   2.5001
     2.5086   2.6383   2.6965   2.8312   2.8480   2.8925   3.0360   3.1557
     3.2104   3.3021   3.4204   3.4838   3.6452   3.8382   3.8452   3.9489

[...]

          k =-0.0884 0.0318 0.0000 ( 18852 PWs)   bands (ev):

[...]

     the Fermi energy is     0.6827 ev

!    total energy              =   -2998.64142670 Ry
     Harris-Foulkes estimate   =   -2998.64142250 Ry
     estimated scf accuracy    <       0.00000025 Ry

     The total energy is the sum of the following terms:

     one-electron contribution =  -17848.82561962 Ry
     hartree contribution      =    8921.08051686 Ry
     xc contribution           =    -322.85248250 Ry
     ewald contribution        =    6252.03130577 Ry
     electric field correction =       0.00000000 Ry
     smearing contrib. (-TS)   =      -0.07514721 Ry

     convergence has been achieved in  18 iterations

 BEEF-vdW xc energy contributions
           1 :   -282.969731683178
           2 :    254.584386211299
           3 :   -207.578807071340
           4 :    156.300685327957
           5 :   -112.824430489104
           6 :    82.4695928332817
           7 :   -63.6575808028892
           8 :    51.1778492495984
           9 :   -40.2661902524874
[...]
00031 suncat2049 pw.x -in pw.inp   Done                     12/19/2018 04:45:20

[...]

     Program PWSCF v.5.1rc2 (svn rev. 11289) starts on 19Dec2018 at  4:55:43

[...]

   This run was terminated on:   5: 0:49  19Dec2018

[...]

     Program PWSCF v.5.1rc2 (svn rev. 11289) starts on 19Dec2018 at  5: 0:57

[...]

   This run was terminated on:   5: 6:19  19Dec2018

[...]

     Program PWSCF v.5.1rc2 (svn rev. 11289) starts on 19Dec2018 at  5: 6:28

     Current dimensions of program PWSCF are:
     Max number of different atomic species (ntypx) = 10
     Max number of k-points (npk) =  40000
     Max angular momentum in pseudopotentials (lmaxx) =  3
     Presently stress not available with electric field

     IMPORTANT: XC functional enforced from input :
     Exchange-correlation      = BEEF-VDW ( 1  4 27 13 2)
     Any further DFT definition will be discarded
     Please, verify this is what you really want

     Subspace diagonalization in iterative solution of the eigenvalue problem:
     a serial algorithm will be used

     Found symmetry operation: I + (  0.5000  0.5000  0.0000)
     This is a supercell, fractional translations are disabled

     bravais-lattice index     =            0
     lattice parameter (alat)  =       1.8897  a.u.
     unit-cell volume          =    5006.5895 (a.u.)^3
     number of atoms/cell      =           12
     number of atomic types    =            2
     number of electrons       =       180.00
     number of Kohn-Sham states=          120
     kinetic-energy cutoff     =      36.7493  Ry
     charge density cutoff     =     367.4932  Ry
     convergence threshold     =      1.0E-06
     mixing beta               =       0.1000
     number of iterations used =           10  plain     mixing
     Exchange-correlation      = BEEF-VDW ( 1  4 27 13 2)
     nstep                     =           50

     celldm(1)=   1.889726  celldm(2)=   0.000000  celldm(3)=   0.000000
     celldm(4)=   0.000000  celldm(5)=   0.000000  celldm(6)=   0.000000

     crystal axes: (cart. coord. in units of alat)
               a(1) = (   5.657904   0.000000   0.000000 )
               a(2) = (   1.914135   5.324280   0.000000 )
               a(3) = (   0.000000   0.000000  24.627987 )

     reciprocal axes: (cart. coord. in units 2 pi/alat)
               b(1) = (  0.176744 -0.063541  0.000000 )
               b(2) = (  0.000000  0.187819  0.000000 )
               b(3) = (  0.000000  0.000000  0.040604 )

     PseudoPot. # 1 for Sc read from file:
     /afs/slac.stanford.edu/u/if/mamunm/psp/gbrv1.5pbe/Sc.UPF
     MD5 check sum: db30a2753ba66ef00f23801d899b7e7f
     Pseudo is Ultrasoft + core correction, Zval = 11.0
     Generated by new atomic code, or converted to UPF format
     Using radial grid of  849 points,  6 beta functions with:
                l(1) =   0
                l(2) =   0
                l(3) =   1
                l(4) =   1
                l(5) =   2
                l(6) =   2
     Q(r) pseudized with  6 coefficients,  rinner =    1.200   1.200   1.200
                                                       1.200   1.200

     PseudoPot. # 2 for Cu read from file:
     /afs/slac.stanford.edu/u/if/mamunm/psp/gbrv1.5pbe/Cu.UPF
     MD5 check sum: 6e991ff952a84172a2a52a1c1e996048
     Pseudo is Ultrasoft + core correction, Zval = 19.0
     Generated by new atomic code, or converted to UPF format
     Using radial grid of  867 points,  6 beta functions with:
                l(1) =   0
                l(2) =   0
                l(3) =   1
                l(4) =   1
                l(5) =   2
                l(6) =   2
     Q(r) pseudized with  8 coefficients,  rinner =    1.150   1.150   1.150
                                                       1.150   1.150

     vdW kernel table read from file vdW_kernel_table
     MD5 check sum: 095c7af220d748ca6e76c0b4c6cfb241

     atomic species   valence    mass     pseudopotential
        Sc1           11.00    44.95591     Sc( 1.00)
        Cu1           19.00    63.54600     Cu( 1.00)

     No symmetry found

   Cartesian axes

     site n.     atom                  positions (alat units)
         1           Sc1 tau(   1) = (   0.0000000   0.0000000  10.0000000  )
         2           Sc1 tau(   2) = (   3.7860195   2.6621401  10.0000000  )
         3           Cu1 tau(   3) = (   2.8289519   0.0000000  10.0000000  )
         4           Cu1 tau(   4) = (   0.9570677   2.6621401  10.0000000  )
         5           Sc1 tau(   5) = (   5.6579037   3.9783558  12.3139936  )
         6           Sc1 tau(   6) = (   1.8718842   1.3162156  12.3139936  )
         7           Cu1 tau(   7) = (   2.8289519   3.9783558  12.3139936  )
         8           Cu1 tau(   8) = (   4.7008361   1.3162156  12.3139936  )
         9           Sc1 tau(   9) = (   3.7508771   2.6374261  14.6277014  )
        10           Sc1 tau(  10) = (   7.5369120   5.2995811  14.6277043  )
        11           Cu1 tau(  11) = (   6.5777044   2.6359576  14.4553799  )
        12           Cu1 tau(  12) = (   4.7058485   5.2980818  14.4553777  )

     number of k points=    20  Fermi-Dirac smearing, width (Ry)=  0.0110
                       cart. coord. in units 2pi/alat
        k(    1) = (   0.0000000   0.0000000   0.0000000), wk =   0.0555556
        k(    2) = (   0.0000000   0.0313031   0.0000000), wk =   0.1111111
        k(    3) = (   0.0000000   0.0626063   0.0000000), wk =   0.1111111
        k(    4) = (   0.0000000  -0.0939094   0.0000000), wk =   0.0555556
        k(    5) = (   0.0294573  -0.0105902   0.0000000), wk =   0.1111111
        k(    6) = (   0.0294573   0.0207129   0.0000000), wk =   0.1111111
        k(    7) = (   0.0294573   0.0520161   0.0000000), wk =   0.1111111
        k(    8) = (   0.0294573  -0.1044996   0.0000000), wk =   0.1111111
        k(    9) = (   0.0294573  -0.0731965   0.0000000), wk =   0.1111111
        k(   10) = (   0.0294573  -0.0418934   0.0000000), wk =   0.1111111
        k(   11) = (   0.0589146  -0.0211804   0.0000000), wk =   0.1111111
        k(   12) = (   0.0589146   0.0101227   0.0000000), wk =   0.1111111
        k(   13) = (   0.0589146   0.0414258   0.0000000), wk =   0.1111111
        k(   14) = (   0.0589146  -0.1150898   0.0000000), wk =   0.1111111
        k(   15) = (   0.0589146  -0.0837867   0.0000000), wk =   0.1111111
        k(   16) = (   0.0589146  -0.0524836   0.0000000), wk =   0.1111111
        k(   17) = (  -0.0883720   0.0317707   0.0000000), wk =   0.0555556
        k(   18) = (  -0.0883720   0.0630738   0.0000000), wk =   0.1111111
        k(   19) = (  -0.0883720   0.0943769   0.0000000), wk =   0.1111111
        k(   20) = (  -0.0883720  -0.0621388   0.0000000), wk =   0.0555556

     Largest allocated arrays     est. size (Mb)     dimensions
     Largest temporary arrays     est. size (Mb)     dimensions

     Initial potential from superposition of free atoms
     Check: negative starting charge=   -0.000221

     starting charge  173.98557, renormalised to  180.00000

[...]

     *
     * You are using vdW-DF for exchange-correlation in this calculation.
     * Please cite the following three references that made this development
     * possible:
     *
     *   M. Dion, H. Rydberg, E. Schroder, D. C. Langreth, and
     *   B. I. Lundqvist, Phys. Rev. Lett. 92, 246401 (2004).
     *
     *   T. Thonhauser, V. R. Cooper, S. Li, A. Puzder, P. Hyldgaard, and
     *   D. C. Langreth, Phys. Rev. B 76, 125112 (2007).
     *
     *   G. Roman-Perez and J. M. Soler, Phys. Rev. Lett. 103, 096102 (2009).
     *
     *
     * If you are using vdW-DF2, please also cite:
     *
     *   K. Lee, E. D. Murray, L. Kong, B. I. Lundqvist, and
     *   D. C. Langreth, Phys. Rev. B 82, 081101(R) (2010).
     *
     *
     * If you are calculating the stress with vdW-DF, please also cite:
     *
     *   R. Sabatini, E. Kucukbenli, B. Kolb, T. Thonhauser, and
     *   S. de Gironcoli, J. Phys.: Condens. Matter 24, 424209 (2012).
     *

     Carrying out vdW-DF run using the following parameters:

     Nqs =      20    Nr_points =    1024   r_max =   100.000
     q_mesh =
               0.00001000     0.04494208     0.09755937     0.15916263
               0.23128650     0.31572767     0.41458969     0.53033537
               0.66584808     0.82450364     1.01025438     1.22772762
               1.48234092     1.78043706     2.12944203     2.53805004
               3.01644009     3.57652955     4.23227104     5.00000000

     Gradients computed in reciprocal space

[...]

     Starting wfc are  156 randomized atomic wfcs

     Self-consistent Calculation

[...]

     total energy              =   -2998.64737406 Ry
     Harris-Foulkes estimate   =   -2998.64737253 Ry
     estimated scf accuracy    <       0.00000126 Ry

     iteration # 18     ecut=    36.75 Ry     beta=0.10
     Davidson diagonalization with overlap
     ethr =  6.98E-10,  avg # of iterations =  3.0

[...]

     negative rho (up, down):  6.536E-04 0.000E+00

     Adding external electric field

     Computed dipole along edir(3) :
        Dipole                0.0503 Ry au,          0.1279 Debye
        Dipole field          0.0001 Ry au

        Potential amp.       -0.0115 Ry
        Total length         45.3766 bohr

     End of self-consistent calculation

[...]

          k = 0.0589-0.0525 0.0000 ( 18816 PWs)   bands (ev):

[...]

          k =-0.0884-0.0621 0.0000 ( 18828 PWs)   bands (ev):

  -112.3107-112.3107-112.2734-112.2733-112.1557-112.1556 -69.7130 -69.7128
   -69.6904 -69.6880 -69.6738 -69.6736 -69.6596 -69.6595 -69.6481 -69.6458
   -69.6447 -69.6445 -69.5885 -69.5883 -69.5378 -69.5355 -69.4949 -69.4948
   -49.5911 -49.5719 -49.5611 -49.5420 -49.1992 -49.1787 -28.2663 -28.2407
   -28.2276 -28.2047 -28.1995 -28.1649 -28.1636 -28.1375 -28.1285 -28.1073
   -27.9916 -27.9569 -27.9076 -27.7913 -27.7770 -27.7596 -27.7334 -27.6932
    -4.0220  -3.9900  -3.2752  -3.2531  -2.7444  -2.7313  -2.6897  -2.6870
    -2.6776  -2.6271  -2.6051  -2.5796  -2.5677  -2.5124  -2.5025  -2.4471
    -2.3596  -2.3547  -2.3542  -2.3503  -2.3476  -2.3268  -2.3218  -2.2313
    -2.2221  -2.2132  -2.1593  -2.1283  -2.1000  -2.0344  -2.0042  -1.9399
    -1.9079  -1.6023  -1.5314  -1.3373  -1.2106  -0.4264  -0.3693  -0.3094
    -0.2960   0.2280   0.3121   0.5340   0.6431   0.9402   1.0139   1.1797
     1.3612   1.6721   1.8052   1.8702   2.0827   2.1198   2.2438   2.2833
     2.2921   2.4551   2.5091   2.6105   2.8155   3.0328   3.0676   3.3881
     3.5336   3.6177   3.7100   4.1954   4.4911   4.6017   4.7083   4.7281

     the Fermi energy is     0.7485 ev

!    total energy              =   -2998.64737779 Ry
     Harris-Foulkes estimate   =   -2998.64737457 Ry
     estimated scf accuracy    <       0.00000025 Ry

     The total energy is the sum of the following terms:

     one-electron contribution =  -18092.75560495 Ry
     hartree contribution      =    9043.32980097 Ry
     xc contribution           =    -322.90063853 Ry
     ewald contribution        =    6373.75254683 Ry
     electric field correction =       0.00000636 Ry
     smearing contrib. (-TS)   =      -0.07348847 Ry

     convergence has been achieved in  18 iterations

 BEEF-vdW xc energy contributions
           1 :   -283.024331671382
           2 :    254.680231152731
           3 :   -207.714296433316
           4 :    156.425648165283
           5 :   -112.876895039838
           6 :    82.4267566369834
           7 :   -63.5596129048387
           8 :    51.1005167893110
           9 :   -40.2615237340581
          10 :    29.1397187541018
          11 :   -18.7270179306361
          12 :    11.1031448325477
          13 :   -7.39767454852489
          14 :    6.89421370859191
          15 :   -7.61905093162585
          16 :    7.69509224914168
          17 :   -6.39825136975207
          18 :    4.29248209059017
          19 :   -2.55573097023864
          20 :    2.07470826273669
          21 :   -2.89514787625808
          22 :    4.28511110058855
          23 :   -5.27103176291803
          24 :    5.25643942619320
          25 :   -4.34761530667140
          26 :    3.22638098956713
          27 :   -2.68400758377015
          28 :    3.10885960247026
          29 :   -4.24005138928430
          30 :    5.34337739888429
          31 :   -25.1935426855264
          32 :   -17.4422022714721

     Forces acting on atoms (Ry/au):

     negative rho (up, down):  6.536E-04 0.000E+00
     atom    1 type  1   force =    -0.00096663   -0.00067883   -0.00287123
     atom    2 type  1   force =    -0.00096647   -0.00068049   -0.00287110
     atom    3 type  2   force =     0.00007424    0.00005376    0.01554879
     atom    4 type  2   force =     0.00007320    0.00004989    0.01555113
     atom    5 type  1   force =     0.00032862    0.00022992   -0.01405397
     atom    6 type  1   force =     0.00032695    0.00023181   -0.01405348
     atom    7 type  2   force =     0.00003250    0.00002223    0.00278636
     atom    8 type  2   force =     0.00003792    0.00002698    0.00278727
     atom    9 type  1   force =     0.00035723    0.00025128   -0.00132184
     atom   10 type  1   force =     0.00035596    0.00025140   -0.00132214
     atom   11 type  2   force =     0.00017220    0.00012083   -0.00009154
     atom   12 type  2   force =     0.00017427    0.00012122   -0.00008826

     Total force =     0.030294     Total SCF correction =     0.001702

     entering subroutine stress ...

     negative rho (up, down):  6.536E-04 0.000E+00
          total   stress  (Ry/bohr**3)                   (kbar)     P=  -11.55
  -0.00009286  -0.00001760   0.00000243        -13.66     -2.59      0.36
  -0.00001760  -0.00008020   0.00000171         -2.59    -11.80      0.25
   0.00000243   0.00000171  -0.00006253          0.36      0.25     -9.20

 !ASE

     Writing output data file calc.save

     General routines

     Parallel routines

   This run was terminated on:   5:11:31  19Dec2018

   JOB DONE.
Job  /afs/slac/g/suncat/bin/suncat-tsmpirun -x LD_LIBRARY_PATH -wdir /scratch/qe530551_EnzyQ pw.x -in pw.inp

TID   HOST_NAME   COMMAND_LINE            STATUS            TERMINATION_TIME
00000 suncat2050 pw.x -in pw.inp   Done                     12/19/2018 05:11:31
00001 suncat2050 pw.x -in pw.inp   Done                     12/19/2018 05:11:31
00002 suncat2050 pw.x -in pw.inp   Done                     12/19/2018 05:11:31
00003 suncat2050 pw.x -in pw.inp   Done                     12/19/2018 05:11:31
00004 suncat2050 pw.x -in pw.inp   Done                     12/19/2018 05:11:31
00005 suncat2050 pw.x -in pw.inp   Done                     12/19/2018 05:11:31
00006 suncat2050 pw.x -in pw.inp   Done                     12/19/2018 05:11:31
00007 suncat2050 pw.x -in pw.inp   Done                     12/19/2018 05:11:31
00008 suncat2050 pw.x -in pw.inp   Done                     12/19/2018 05:11:31
00009 suncat2050 pw.x -in pw.inp   Done                     12/19/2018 05:11:31
00010 suncat2050 pw.x -in pw.inp   Done                     12/19/2018 05:11:31
00011 suncat2050 pw.x -in pw.inp   Done                     12/19/2018 05:11:31
00012 suncat2050 pw.x -in pw.inp   Done                     12/19/2018 05:11:31
00013 suncat2050 pw.x -in pw.inp   Done                     12/19/2018 05:11:31
00014 suncat2050 pw.x -in pw.inp   Done                     12/19/2018 05:11:31
00015 suncat2050 pw.x -in pw.inp   Done                     12/19/2018 05:11:31
00016 suncat2049 pw.x -in pw.inp   Done                     12/19/2018 05:11:31
00017 suncat2049 pw.x -in pw.inp   Done                     12/19/2018 05:11:31
00018 suncat2049 pw.x -in pw.inp   Done                     12/19/2018 05:11:31
00019 suncat2049 pw.x -in pw.inp   Done                     12/19/2018 05:11:31
00020 suncat2049 pw.x -in pw.inp   Done                     12/19/2018 05:11:31
00021 suncat2049 pw.x -in pw.inp   Done                     12/19/2018 05:11:31
00022 suncat2049 pw.x -in pw.inp   Done                     12/19/2018 05:11:31
00023 suncat2049 pw.x -in pw.inp   Done                     12/19/2018 05:11:31
00024 suncat2049 pw.x -in pw.inp   Done                     12/19/2018 05:11:31
00025 suncat2049 pw.x -in pw.inp   Done                     12/19/2018 05:11:31
00026 suncat2049 pw.x -in pw.inp   Done                     12/19/2018 05:11:31
00027 suncat2049 pw.x -in pw.inp   Done                     12/19/2018 05:11:31
00028 suncat2049 pw.x -in pw.inp   Done                     12/19/2018 05:11:31
00029 suncat2049 pw.x -in pw.inp   Done                     12/19/2018 05:11:31
00030 suncat2049 pw.x -in pw.inp   Done                     12/19/2018 05:11:31
00031 suncat2049 pw.x -in pw.inp   Done                     12/19/2018 05:11:31