     Program PWSCF v.5.1rc2 (svn rev. 11289) starts on 25Dec2018 at  4:22:18

     Current dimensions of program PWSCF are:
     Max number of different atomic species (ntypx) = 10
     Max number of k-points (npk) =  40000
     Max angular momentum in pseudopotentials (lmaxx) =  3
     Presently stress not available with electric field

     IMPORTANT: XC functional enforced from input :
     Exchange-correlation      = BEEF-VDW ( 1  4 27 13 2)
     Any further DFT definition will be discarded
     Please, verify this is what you really want

     Subspace diagonalization in iterative solution of the eigenvalue problem:
     a serial algorithm will be used

     Found symmetry operation: I + ( -0.5000 -0.5000  0.0000)
     This is a supercell, fractional translations are disabled

     bravais-lattice index     =            0
     lattice parameter (alat)  =       1.8897  a.u.
     unit-cell volume          =    4809.3091 (a.u.)^3
     number of atoms/cell      =           12
     number of atomic types    =            2
     number of electrons       =       186.00
     number of Kohn-Sham states=          123
     kinetic-energy cutoff     =      36.7493  Ry
     charge density cutoff     =     367.4932  Ry
     convergence threshold     =      1.0E-06
     mixing beta               =       0.1000
     number of iterations used =           10  plain     mixing
     Exchange-correlation      = BEEF-VDW ( 1  4 27 13 2)
     nstep                     =           50

     celldm(1)=   1.889726  celldm(2)=   0.000000  celldm(3)=   0.000000
     celldm(4)=   0.000000  celldm(5)=   0.000000  celldm(6)=   0.000000

     crystal axes: (cart. coord. in units of alat)
               a(1) = (   5.568523   0.000000   0.000000 )
               a(2) = (   1.972988   5.207280   0.000000 )
               a(3) = (   0.000000   0.000000  24.577357 )

     reciprocal axes: (cart. coord. in units 2 pi/alat)
               b(1) = (  0.179581 -0.068041  0.000000 )
               b(2) = (  0.000000  0.192039  0.000000 )
               b(3) = (  0.000000  0.000000  0.040688 )

     PseudoPot. # 1 for Zn read from file:
     /afs/slac.stanford.edu/u/if/mamunm/psp/gbrv1.5pbe/Zn.UPF
     MD5 check sum: df62231357ef9e81f77b2b3087fa5675
     Pseudo is Ultrasoft, Zval = 20.0
     Generated by new atomic code, or converted to UPF format
     Using radial grid of  943 points,  6 beta functions with:
                l(1) =   0
                l(2) =   0
                l(3) =   1
                l(4) =   1
                l(5) =   2
                l(6) =   2
     Q(r) pseudized with  8 coefficients,  rinner =    1.100   1.100   1.100
                                                       1.100   1.100

     PseudoPot. # 2 for Au read from file:
     /afs/slac.stanford.edu/u/if/mamunm/psp/gbrv1.5pbe/Au.UPF
     MD5 check sum: 9d7f43293ad2c663164586bc4b293ffc
     Pseudo is Ultrasoft + core correction, Zval = 11.0
     Generated by new atomic code, or converted to UPF format
     Using radial grid of  985 points,  7 beta functions with:
                l(1) =   0
                l(2) =   0
                l(3) =   1
                l(4) =   1
                l(5) =   2
                l(6) =   2
                l(7) =   3
     Q(r) pseudized with  6 coefficients,  rinner =    1.900   1.900   1.900
                                                       1.900   1.900   1.900
                                                       1.900

     vdW kernel table read from file vdW_kernel_table
     MD5 check sum: 095c7af220d748ca6e76c0b4c6cfb241

     atomic species   valence    mass     pseudopotential
        Zn1           20.00    65.38000     Zn( 1.00)
        Au1           11.00   196.96657     Au( 1.00)

     No symmetry found

   Cartesian axes

     site n.     atom                  positions (alat units)
         1           Zn1 tau(   1) = (   0.0000000   0.0000000  10.0000000  )
         2           Zn1 tau(   2) = (   3.7707555   2.6036399  10.0000000  )
         3           Au1 tau(   3) = (   2.7842614   0.0000000  10.0000000  )
         4           Au1 tau(   4) = (   0.9864941   2.6036399  10.0000000  )
         5           Zn1 tau(   5) = (   5.5685227   3.8449664  12.2886785  )
         6           Zn1 tau(   6) = (   1.7977673   1.2413265  12.2886785  )
         7           Au1 tau(   7) = (   2.7842614   3.8449664  12.2886785  )
         8           Au1 tau(   8) = (   4.5820287   1.2413265  12.2886785  )
         9           Zn1 tau(   9) = (   3.5955346   2.4826530  14.5773570  )
        10           Zn1 tau(  10) = (   7.3662900   5.0862929  14.5773570  )
        11           Au1 tau(  11) = (   6.3797960   2.4826530  14.5773570  )
        12           Au1 tau(  12) = (   4.5820287   5.0862929  14.5773570  )

     number of k points=    20  Fermi-Dirac smearing, width (Ry)=  0.0110
                       cart. coord. in units 2pi/alat
        k(    1) = (   0.0000000   0.0000000   0.0000000), wk =   0.0555556
        k(    2) = (   0.0000000   0.0320065   0.0000000), wk =   0.1111111
        k(    3) = (   0.0000000   0.0640129   0.0000000), wk =   0.1111111
        k(    4) = (   0.0000000  -0.0960194   0.0000000), wk =   0.0555556
        k(    5) = (   0.0299301  -0.0113402   0.0000000), wk =   0.1111111
        k(    6) = (   0.0299301   0.0206662   0.0000000), wk =   0.1111111
        k(    7) = (   0.0299301   0.0526727   0.0000000), wk =   0.1111111
        k(    8) = (   0.0299301  -0.1073597   0.0000000), wk =   0.1111111
        k(    9) = (   0.0299301  -0.0753532   0.0000000), wk =   0.1111111
        k(   10) = (   0.0299301  -0.0433467   0.0000000), wk =   0.1111111
        k(   11) = (   0.0598603  -0.0226805   0.0000000), wk =   0.1111111
        k(   12) = (   0.0598603   0.0093260   0.0000000), wk =   0.1111111
        k(   13) = (   0.0598603   0.0413325   0.0000000), wk =   0.1111111
        k(   14) = (   0.0598603  -0.1186999   0.0000000), wk =   0.1111111
        k(   15) = (   0.0598603  -0.0866934   0.0000000), wk =   0.1111111
        k(   16) = (   0.0598603  -0.0546870   0.0000000), wk =   0.1111111
        k(   17) = (  -0.0897904   0.0340207   0.0000000), wk =   0.0555556
        k(   18) = (  -0.0897904   0.0660272   0.0000000), wk =   0.1111111
        k(   19) = (  -0.0897904   0.0980337   0.0000000), wk =   0.1111111
        k(   20) = (  -0.0897904  -0.0619987   0.0000000), wk =   0.0555556

     Largest allocated arrays     est. size (Mb)     dimensions
     Largest temporary arrays     est. size (Mb)     dimensions

     Check: negative/imaginary core charge=   -0.000002    0.000000

     Initial potential from superposition of free atoms
     Check: negative starting charge=   -0.000637

     starting charge  185.99842, renormalised to  186.00000

     negative rho (up, down):  6.374E-04 0.000E+00

     *
     * You are using vdW-DF for exchange-correlation in this calculation.
     * Please cite the following three references that made this development
     * possible:
     *
     *   M. Dion, H. Rydberg, E. Schroder, D. C. Langreth, and
     *   B. I. Lundqvist, Phys. Rev. Lett. 92, 246401 (2004).
     *
     *   T. Thonhauser, V. R. Cooper, S. Li, A. Puzder, P. Hyldgaard, and
     *   D. C. Langreth, Phys. Rev. B 76, 125112 (2007).
     *
     *   G. Roman-Perez and J. M. Soler, Phys. Rev. Lett. 103, 096102 (2009).
     *
     *
     * If you are using vdW-DF2, please also cite:
     *
     *   K. Lee, E. D. Murray, L. Kong, B. I. Lundqvist, and
     *   D. C. Langreth, Phys. Rev. B 82, 081101(R) (2010).
     *
     *
     * If you are calculating the stress with vdW-DF, please also cite:
     *
     *   R. Sabatini, E. Kucukbenli, B. Kolb, T. Thonhauser, and
     *   S. de Gironcoli, J. Phys.: Condens. Matter 24, 424209 (2012).
     *

     Carrying out vdW-DF run using the following parameters:

     Nqs =      20    Nr_points =    1024   r_max =   100.000
     q_mesh =
               0.00001000     0.04494208     0.09755937     0.15916263
               0.23128650     0.31572767     0.41458969     0.53033537
               0.66584808     0.82450364     1.01025438     1.22772762
               1.48234092     1.78043706     2.12944203     2.53805004
               3.01644009     3.57652955     4.23227104     5.00000000

     Gradients computed in reciprocal space

     Adding external electric field

     Computed dipole along edir(3) :
        Dipole               -0.0000 Ry au,         -0.0000 Debye
        Dipole field         -0.0000 Ry au

        Potential amp.        0.0000 Ry
        Total length         45.2834 bohr

     Starting wfc are  132 randomized atomic wfcs

     Self-consistent Calculation

     iteration #  1     ecut=    36.75 Ry     beta=0.10
     Davidson diagonalization with overlap
     ethr =  1.00E-02,  avg # of iterations =  8.0

     Threshold (ethr) on eigenvalues was too large:
     Diagonalizing with lowered threshold

     Davidson diagonalization with overlap
     ethr =  1.33E-04,  avg # of iterations =  5.0

[...]

     total energy              =   -3477.04781949 Ry
     Harris-Foulkes estimate   =   -3477.08104921 Ry
     estimated scf accuracy    <       0.26323753 Ry

[...]

     End of self-consistent calculation

          k = 0.0000 0.0000 0.0000 ( 18075 PWs)   bands (ev):

  -126.2563-126.2563-125.9611-125.9610-125.9610-125.9610 -80.4494 -80.4480
   -80.4429 -80.4428 -80.4402 -80.4401 -80.1680 -80.1678 -80.1677 -80.1677
   -80.1437 -80.1436 -80.1423 -80.1421 -80.1301 -80.1300 -80.1300 -80.1299
    -8.7840  -7.6591  -7.5988  -7.5828  -7.5494  -7.4507  -7.4501  -7.4264
    -7.4089  -7.3032  -7.3027  -7.2698  -7.2352  -7.2165  -7.2105  -7.1411
    -7.1385  -7.0782  -7.0611  -7.0128  -7.0003  -6.9515  -6.9472  -6.9345
    -6.9097  -6.8748  -6.8421  -6.8148  -6.8082  -6.7734  -6.7115  -6.4152
    -5.7009  -5.6763  -5.5207  -5.0626  -4.8849  -4.5688  -4.4475  -4.4072
    -4.3823  -4.2382  -4.1945  -4.0238  -3.8801  -3.8566  -3.7857  -3.6638
    -3.6255  -3.6146  -3.5391  -3.5358  -3.3976  -3.2490  -3.1944  -3.1048
    -3.0802  -3.0465  -3.0088  -2.9795  -2.9432  -2.5986  -2.0817  -0.9302
    -0.8709  -0.7735  -0.3022  -0.2198  -0.1505   0.0137   0.0186   1.3221
     1.7736   2.0519   2.2038   2.6275   2.7887   2.8745   3.7077   3.8663
     3.9988   4.1846   4.4657   4.7545   5.0335   5.7524   6.0382   6.1566
     6.6967   6.8642   6.8646   7.6557   7.8477   7.9562   7.9566   8.2200
     9.0494   9.1221   9.1476

[...]

          k =-0.0898 0.0340 0.0000 ( 18082 PWs)   bands (ev):

[...]

     the Fermi energy is     0.3970 ev

!    total energy              =   -3477.02181078 Ry
     Harris-Foulkes estimate   =   -3477.02180642 Ry
     estimated scf accuracy    <       0.00000037 Ry

     The total energy is the sum of the following terms:

     one-electron contribution =  -19740.40013706 Ry
     hartree contribution      =    9906.86454018 Ry
     xc contribution           =    -644.52623138 Ry
     ewald contribution        =    7001.06280231 Ry
     electric field correction =       0.00000000 Ry
     smearing contrib. (-TS)   =      -0.02278484 Ry

     convergence has been achieved in  13 iterations

[...]
                l(5) =   2
                l(6) =   2
     Q(r) pseudized with  8 coefficients,  rinner =    1.100   1.100   1.100
                                                       1.100   1.100

     PseudoPot. # 2 for Au read from file:
     /afs/slac.stanford.edu/u/if/mamunm/psp/gbrv1.5pbe/Au.UPF
     MD5 check sum: 9d7f43293ad2c663164586bc4b293ffc
     Pseudo is Ultrasoft + core correction, Zval = 11.0
     Generated by new atomic code, or converted to UPF format
     Using radial grid of  985 points,  7 beta functions with:
                l(1) =   0
                l(2) =   0
                l(3) =   1
                l(4) =   1
                l(5) =   2
                l(6) =   2
                l(7) =   3
     Q(r) pseudized with  6 coefficients,  rinner =    1.900   1.900   1.900
                                                       1.900   1.900   1.900
                                                       1.900

     vdW kernel table read from file vdW_kernel_table
     MD5 check sum: 095c7af220d748ca6e76c0b4c6cfb241

     atomic species   valence    mass     pseudopotential
        Zn1           20.00    65.38000     Zn( 1.00)
        Au1           11.00   196.96657     Au( 1.00)

     No symmetry found

   Cartesian axes

     site n.     atom                  positions (alat units)
         1           Zn1 tau(   1) = (   0.0000000   0.0000000  10.0000000  )
         2           Zn1 tau(   2) = (   3.7707555   2.6036399  10.0000000  )
         3           Au1 tau(   3) = (   2.7842614   0.0000000  10.0000000  )
         4           Au1 tau(   4) = (   0.9864941   2.6036399  10.0000000  )
         5           Zn1 tau(   5) = (   5.5685227   3.8449664  12.2886785  )
         6           Zn1 tau(   6) = (   1.7977673   1.2413265  12.2886785  )
         7           Au1 tau(   7) = (   2.7842614   3.8449664  12.2886785  )
         8           Au1 tau(   8) = (   4.5820287   1.2413265  12.2886785  )
         9           Zn1 tau(   9) = (   3.5986690   2.4848464  14.7243931  )
        10           Zn1 tau(  10) = (   7.3694293   5.0884075  14.7243863  )
        11           Au1 tau(  11) = (   6.3927426   2.4915722  14.6559156  )
        12           Au1 tau(  12) = (   4.5949882   5.0952278  14.6559271  )

     number of k points=    20  Fermi-Dirac smearing, width (Ry)=  0.0110
                       cart. coord. in units 2pi/alat
        k(    1) = (   0.0000000   0.0000000   0.0000000), wk =   0.0555556
        k(    2) = (   0.0000000   0.0320065   0.0000000), wk =   0.1111111
        k(    3) = (   0.0000000   0.0640129   0.0000000), wk =   0.1111111
        k(    4) = (   0.0000000  -0.0960194   0.0000000), wk =   0.0555556
        k(    5) = (   0.0299301  -0.0113402   0.0000000), wk =   0.1111111
        k(    6) = (   0.0299301   0.0206662   0.0000000), wk =   0.1111111
        k(    7) = (   0.0299301   0.0526727   0.0000000), wk =   0.1111111
        k(    8) = (   0.0299301  -0.1073597   0.0000000), wk =   0.1111111
        k(    9) = (   0.0299301  -0.0753532   0.0000000), wk =   0.1111111
        k(   10) = (   0.0299301  -0.0433467   0.0000000), wk =   0.1111111
        k(   11) = (   0.0598603  -0.0226805   0.0000000), wk =   0.1111111
        k(   12) = (   0.0598603   0.0093260   0.0000000), wk =   0.1111111
        k(   13) = (   0.0598603   0.0413325   0.0000000), wk =   0.1111111
        k(   14) = (   0.0598603  -0.1186999   0.0000000), wk =   0.1111111
        k(   15) = (   0.0598603  -0.0866934   0.0000000), wk =   0.1111111
        k(   16) = (   0.0598603  -0.0546870   0.0000000), wk =   0.1111111
        k(   17) = (  -0.0897904   0.0340207   0.0000000), wk =   0.0555556
        k(   18) = (  -0.0897904   0.0660272   0.0000000), wk =   0.1111111
        k(   19) = (  -0.0897904   0.0980337   0.0000000), wk =   0.1111111
        k(   20) = (  -0.0897904  -0.0619987   0.0000000), wk =   0.0555556

     Largest allocated arrays     est. size (Mb)     dimensions
     Largest temporary arrays     est. size (Mb)     dimensions

     Check: negative/imaginary core charge=   -0.000002    0.000000

     Initial potential from superposition of free atoms
     Check: negative starting charge=   -0.000636

     starting charge  185.99842, renormalised to  186.00000

[...]

     *
     * You are using vdW-DF for exchange-correlation in this calculation.
     * Please cite the following three references that made this development
     * possible:
     *
     *   M. Dion, H. Rydberg, E. Schroder, D. C. Langreth, and
     *   B. I. Lundqvist, Phys. Rev. Lett. 92, 246401 (2004).
     *
     *   T. Thonhauser, V. R. Cooper, S. Li, A. Puzder, P. Hyldgaard, and
     *   D. C. Langreth, Phys. Rev. B 76, 125112 (2007).
     *
     *   G. Roman-Perez and J. M. Soler, Phys. Rev. Lett. 103, 096102 (2009).
     *
     *
     * If you are using vdW-DF2, please also cite:
     *
     *   K. Lee, E. D. Murray, L. Kong, B. I. Lundqvist, and
     *   D. C. Langreth, Phys. Rev. B 82, 081101(R) (2010).
     *
     *
     * If you are calculating the stress with vdW-DF, please also cite:
     *
     *   R. Sabatini, E. Kucukbenli, B. Kolb, T. Thonhauser, and
     *   S. de Gironcoli, J. Phys.: Condens. Matter 24, 424209 (2012).
     *

     Carrying out vdW-DF run using the following parameters:

     Nqs =      20    Nr_points =    1024   r_max =   100.000
     q_mesh =
               0.00001000     0.04494208     0.09755937     0.15916263
               0.23128650     0.31572767     0.41458969     0.53033537
               0.66584808     0.82450364     1.01025438     1.22772762
               1.48234092     1.78043706     2.12944203     2.53805004
               3.01644009     3.57652955     4.23227104     5.00000000

     Gradients computed in reciprocal space

[...]

     Starting wfc are  132 randomized atomic wfcs

     Self-consistent Calculation

[...]

     Threshold (ethr) on eigenvalues was too large:
     Diagonalizing with lowered threshold

     Davidson diagonalization with overlap
     ethr =  1.27E-04,  avg # of iterations =  4.9

[...]

     total energy              =   -3477.02504793 Ry
     Harris-Foulkes estimate   =   -3477.02504598 Ry
     estimated scf accuracy    <       0.00000139 Ry

     iteration # 13     ecut=    36.75 Ry     beta=0.10
     Davidson diagonalization with overlap
     ethr =  7.46E-10,  avg # of iterations =  3.0

[...]

     negative rho (up, down):  7.851E-04 0.000E+00

     Adding external electric field

     Computed dipole along edir(3) :
        Dipole                0.0106 Ry au,          0.0269 Debye
        Dipole field          0.0000 Ry au

        Potential amp.       -0.0025 Ry
        Total length         45.2834 bohr

     End of self-consistent calculation

[...]

          k = 0.0599-0.0547 0.0000 ( 18074 PWs)   bands (ev):

[...]

          k =-0.0898-0.0620 0.0000 ( 18168 PWs)   bands (ev):

  -126.2075-126.2074-125.9539-125.9538-125.8943-125.8943 -80.4013 -80.3998
   -80.3937 -80.3935 -80.3906 -80.3903 -80.1597 -80.1596 -80.1375 -80.1361
   -80.1235 -80.1232 -80.1027 -80.1025 -80.0765 -80.0751 -80.0622 -80.0619
    -7.4174  -7.3792  -7.3002  -7.2947  -7.2613  -7.2513  -7.1908  -7.1747
    -7.1259  -7.1226  -7.1147  -7.0955  -7.0832  -7.0214  -6.9969  -6.9848
    -6.9447  -6.9113  -6.9055  -6.8982  -6.8561  -6.8465  -6.8382  -6.8246
    -6.7939  -6.7488  -6.7356  -6.7317  -6.7291  -6.6662  -6.5318  -6.2602
    -5.6255  -5.4973  -5.3437  -5.1544  -4.9519  -4.8824  -4.8729  -4.5950
    -4.5222  -4.4827  -4.4740  -4.4460  -4.3440  -4.3241  -4.2690  -3.9786
    -3.8767  -3.8236  -3.7629  -3.7563  -3.7285  -3.5019  -3.4772  -3.3781
    -3.2599  -3.1813  -3.0269  -3.0258  -2.9570  -2.9352  -2.8612  -2.6010
    -2.3147  -1.4187  -1.1981  -0.7897  -0.5881  -0.4602   0.8556   1.4543
     2.6407   2.6776   3.8184   4.7654   4.9104   5.1612   5.3481   5.3536
     5.4284   6.1820   6.2140   6.3025   6.4790   6.5120   6.6380   6.6971
     6.8394   7.4467   7.4605   7.4882   7.5622   7.5852   7.6383   7.6889
     8.2272   8.2968   8.3697

     the Fermi energy is     0.4062 ev

!    total energy              =   -3477.02505222 Ry
     Harris-Foulkes estimate   =   -3477.02504817 Ry
     estimated scf accuracy    <       0.00000043 Ry

     The total energy is the sum of the following terms:

     one-electron contribution =  -19435.20829167 Ry
     hartree contribution      =    9754.58909588 Ry
     xc contribution           =    -644.44656626 Ry
     ewald contribution        =    6848.06272720 Ry
     electric field correction =       0.00000029 Ry
     smearing contrib. (-TS)   =      -0.02201767 Ry

     convergence has been achieved in  13 iterations

 BEEF-vdW xc energy contributions
           1 :   -574.788304769797
           2 :    528.986399813903
           3 :   -449.478551986515
           4 :    355.165795190015
           5 :   -264.363009886619
           6 :    188.962018835632
           7 :   -132.523664923115
           8 :    92.2854874493115
           9 :   -63.1493092077658
          10 :    41.0955651163646
          11 :   -24.4362803339379
          12 :    12.9705083513020
          13 :   -6.38575608753854
          14 :    3.33844149217543
          15 :   -1.77302172781344
          16 :  -4.519886170703558E-002
          17 :    2.74487362352090
          18 :   -5.90481458824661
          19 :    8.76946559617636
          20 :   -10.9563260942574
          21 :    12.6006812373217
          22 :   -13.9453763535131
          23 :    14.8582796418807
          24 :   -14.7863811094603
          25 :    13.2247823218642
          26 :   -10.3017542144871
          27 :    6.94660803681256
          28 :   -4.43599331682105
          29 :    3.61400197021896
          30 :   -4.36157501517221
          31 :   -44.9382820915094
          32 :   -31.9066945718005

     Forces acting on atoms (Ry/au):

     negative rho (up, down):  7.851E-04 0.000E+00
     atom    1 type  1   force =     0.00016439    0.00011111   -0.00879244
     atom    2 type  1   force =     0.00016033    0.00011495   -0.00879464
     atom    3 type  2   force =    -0.00113135   -0.00078150   -0.00575543
     atom    4 type  2   force =    -0.00113036   -0.00078268   -0.00575791
     atom    5 type  1   force =    -0.00012717   -0.00008294    0.00578444
     atom    6 type  1   force =    -0.00012513   -0.00008964    0.00578044
     atom    7 type  2   force =     0.00047488    0.00032876    0.00881587
     atom    8 type  2   force =     0.00047379    0.00032783    0.00881729
     atom    9 type  1   force =     0.00111149    0.00076395    0.00039940
     atom   10 type  1   force =     0.00110688    0.00076670    0.00039968
     atom   11 type  2   force =    -0.00048995   -0.00034006   -0.00044613
     atom   12 type  2   force =    -0.00048781   -0.00033647   -0.00045056

     Total force =     0.021281     Total SCF correction =     0.001975

     entering subroutine stress ...

     negative rho (up, down):  7.851E-04 0.000E+00
          total   stress  (Ry/bohr**3)                   (kbar)     P=  -15.28
  -0.00015463   0.00000353   0.00000285        -22.75      0.52      0.42
   0.00000353  -0.00015730   0.00000197          0.52    -23.14      0.29
   0.00000285   0.00000197   0.00000036          0.42      0.29      0.05

 !ASE

     Writing output data file calc.save

     General routines

     Parallel routines

   This run was terminated on:   5:10:13  25Dec2018

   JOB DONE.
Job  /afs/slac/g/suncat/bin/suncat-tsmpirun -x LD_LIBRARY_PATH -wdir /scratch/qe109203_TxiTe pw.x -in pw.inp

TID   HOST_NAME   COMMAND_LINE            STATUS            TERMINATION_TIME
00000 suncat0190 pw.x -in pw.inp   Done                     12/25/2018 05:10:13
00001 suncat0190 pw.x -in pw.inp   Done                     12/25/2018 05:10:13
00002 suncat0190 pw.x -in pw.inp   Done                     12/25/2018 05:10:13
00003 suncat0190 pw.x -in pw.inp   Done                     12/25/2018 05:10:13
00004 suncat0190 pw.x -in pw.inp   Done                     12/25/2018 05:10:13
00005 suncat0190 pw.x -in pw.inp   Done                     12/25/2018 05:10:13
00006 suncat0190 pw.x -in pw.inp   Done                     12/25/2018 05:10:13
00007 suncat0190 pw.x -in pw.inp   Done                     12/25/2018 05:10:13
00008 suncat0009 pw.x -in pw.inp   Done                     12/25/2018 05:10:13
00009 suncat0009 pw.x -in pw.inp   Done                     12/25/2018 05:10:13
00010 suncat0009 pw.x -in pw.inp   Done                     12/25/2018 05:10:13
00011 suncat0009 pw.x -in pw.inp   Done                     12/25/2018 05:10:13
00012 suncat0009 pw.x -in pw.inp   Done                     12/25/2018 05:10:13
00013 suncat0009 pw.x -in pw.inp   Done                     12/25/2018 05:10:13
00014 suncat0009 pw.x -in pw.inp   Done                     12/25/2018 05:10:13
00015 suncat0009 pw.x -in pw.inp   Done                     12/25/2018 05:10:13
00016 suncat0114 pw.x -in pw.inp   Done                     12/25/2018 05:10:13
00017 suncat0114 pw.x -in pw.inp   Done                     12/25/2018 05:10:13
00018 suncat0114 pw.x -in pw.inp   Done                     12/25/2018 05:10:13
00019 suncat0114 pw.x -in pw.inp   Done                     12/25/2018 05:10:13
00020 suncat0114 pw.x -in pw.inp   Done                     12/25/2018 05:10:13
00021 suncat0114 pw.x -in pw.inp   Done                     12/25/2018 05:10:13
00022 suncat0114 pw.x -in pw.inp   Done                     12/25/2018 05:10:13
00023 suncat0114 pw.x -in pw.inp   Done                     12/25/2018 05:10:13
00024 suncat0113 pw.x -in pw.inp   Done                     12/25/2018 05:10:13
00025 suncat0113 pw.x -in pw.inp   Done                     12/25/2018 05:10:13
00026 suncat0113 pw.x -in pw.inp   Done                     12/25/2018 05:10:13
00027 suncat0113 pw.x -in pw.inp   Done                     12/25/2018 05:10:13
00028 suncat0113 pw.x -in pw.inp   Done                     12/25/2018 05:10:13
00029 suncat0113 pw.x -in pw.inp   Done                     12/25/2018 05:10:13
00030 suncat0113 pw.x -in pw.inp   Done                     12/25/2018 05:10:13
00031 suncat0113 pw.x -in pw.inp   Done                     12/25/2018 05:10:13
00032 suncat0230 pw.x -in pw.inp   Done                     12/25/2018 05:10:13
00033 suncat0230 pw.x -in pw.inp   Done                     12/25/2018 05:10:13
00034 suncat0230 pw.x -in pw.inp   Done                     12/25/2018 05:10:13
00035 suncat0230 pw.x -in pw.inp   Done                     12/25/2018 05:10:13
00036 suncat0230 pw.x -in pw.inp   Done                     12/25/2018 05:10:13
00037 suncat0230 pw.x -in pw.inp   Done                     12/25/2018 05:10:13
00038 suncat0230 pw.x -in pw.inp   Done                     12/25/2018 05:10:13
00039 suncat0230 pw.x -in pw.inp   Done                     12/25/2018 05:10:13
00040 suncat0229 pw.x -in pw.inp   Done                     12/25/2018 05:10:13
00041 suncat0229 pw.x -in pw.inp   Done                     12/25/2018 05:10:13
00042 suncat0229 pw.x -in pw.inp   Done                     12/25/2018 05:10:13
00043 suncat0229 pw.x -in pw.inp   Done                     12/25/2018 05:10:13
00044 suncat0229 pw.x -in pw.inp   Done                     12/25/2018 05:10:13
00045 suncat0229 pw.x -in pw.inp   Done                     12/25/2018 05:10:13
00046 suncat0229 pw.x -in pw.inp   Done                     12/25/2018 05:10:13
00047 suncat0229 pw.x -in pw.inp   Done                     12/25/2018 05:10:13
00048 suncat0205 pw.x -in pw.inp   Done                     12/25/2018 05:10:13
00049 suncat0205 pw.x -in pw.inp   Done                     12/25/2018 05:10:13
00050 suncat0205 pw.x -in pw.inp   Done                     12/25/2018 05:10:13
00051 suncat0205 pw.x -in pw.inp   Done                     12/25/2018 05:10:13
00052 suncat0205 pw.x -in pw.inp   Done                     12/25/2018 05:10:13
00053 suncat0205 pw.x -in pw.inp   Done                     12/25/2018 05:10:13
00054 suncat0205 pw.x -in pw.inp   Done                     12/25/2018 05:10:13
00055 suncat0205 pw.x -in pw.inp   Done                     12/25/2018 05:10:13
00056 suncat0204 pw.x -in pw.inp   Done                     12/25/2018 05:10:13
00057 suncat0204 pw.x -in pw.inp   Done                     12/25/2018 05:10:13
00058 suncat0204 pw.x -in pw.inp   Done                     12/25/2018 05:10:13
00059 suncat0204 pw.x -in pw.inp   Done                     12/25/2018 05:10:13
00060 suncat0204 pw.x -in pw.inp   Done                     12/25/2018 05:10:13
00061 suncat0204 pw.x -in pw.inp   Done                     12/25/2018 05:10:13
00062 suncat0204 pw.x -in pw.inp   Done                     12/25/2018 05:10:13
00063 suncat0204 pw.x -in pw.inp   Done                     12/25/2018 05:10:13