     Program PWSCF v.5.1rc2 (svn rev. 11289) starts on 18Dec2018 at 18:51:17

     Current dimensions of program PWSCF are:
     Max number of different atomic species (ntypx) = 10
     Max number of k-points (npk) =  40000
     Max angular momentum in pseudopotentials (lmaxx) =  3
     Presently stress not available with electric field

     IMPORTANT: XC functional enforced from input :
     Exchange-correlation      = BEEF-VDW ( 1  4 27 13 2)
     Any further DFT definition will be discarded
     Please, verify this is what you really want

     Subspace diagonalization in iterative solution of the eigenvalue problem:
     a serial algorithm will be used

     Found symmetry operation: I + (  0.5000  0.5000  0.0000)
     This is a supercell, fractional translations are disabled

     bravais-lattice index     =            0
     lattice parameter (alat)  =       1.8897  a.u.
     unit-cell volume          =    5526.2054 (a.u.)^3
     number of atoms/cell      =           12
     number of atomic types    =            2
     number of electrons       =       138.00
     number of Kohn-Sham states=           99
     kinetic-energy cutoff     =      36.7493  Ry
     charge density cutoff     =     367.4932  Ry
     convergence threshold     =      1.0E-06
     mixing beta               =       0.1000
     number of iterations used =           10  plain     mixing
     Exchange-correlation      = BEEF-VDW ( 1  4 27 13 2)
     nstep                     =           50

     celldm(1)=   1.889726  celldm(2)=   0.000000  celldm(3)=   0.000000
     celldm(4)=   0.000000  celldm(5)=   0.000000  celldm(6)=   0.000000

     crystal axes: (cart. coord. in units of alat)
               a(1) = (   5.965654   0.000000   0.000000 )
               a(2) = (   2.297634   5.505444   0.000000 )
               a(3) = (   0.000000   0.000000  24.933315 )

     reciprocal axes: (cart. coord. in units 2 pi/alat)
               b(1) = (  0.167626 -0.069957  0.000000 )
               b(2) = (  0.000000  0.181638  0.000000 )
               b(3) = (  0.000000  0.000000  0.040107 )

     PseudoPot. # 1 for Cd read from file:
     /afs/slac.stanford.edu/u/if/mamunm/psp/gbrv1.5pbe/Cd.UPF
     MD5 check sum: 17164a7926edb8e0dc231208abae86a6
     Pseudo is Ultrasoft + core correction, Zval = 12.0
     Generated by new atomic code, or converted to UPF format
     Using radial grid of  889 points,  6 beta functions with:
                l(1) =   0
                l(2) =   0
                l(3) =   1
                l(4) =   1
                l(5) =   2
                l(6) =   2
     Q(r) pseudized with  6 coefficients,  rinner =    1.000   1.000   1.000
                                                       1.000   1.000

     PseudoPot. # 2 for Au read from file:
     /afs/slac.stanford.edu/u/if/mamunm/psp/gbrv1.5pbe/Au.UPF
     MD5 check sum: 9d7f43293ad2c663164586bc4b293ffc
     Pseudo is Ultrasoft + core correction, Zval = 11.0
     Generated by new atomic code, or converted to UPF format
     Using radial grid of  985 points,  7 beta functions with:
                l(1) =   0
                l(2) =   0
                l(3) =   1
                l(4) =   1
                l(5) =   2
                l(6) =   2
                l(7) =   3
     Q(r) pseudized with  6 coefficients,  rinner =    1.900   1.900   1.900
                                                       1.900   1.900   1.900
                                                       1.900

     vdW kernel table read from file vdW_kernel_table
     MD5 check sum: 095c7af220d748ca6e76c0b4c6cfb241

     atomic species   valence    mass     pseudopotential
        Cd1           12.00   112.41400     Cd( 1.00)
        Au1           11.00   196.96657     Au( 1.00)

     No symmetry found

   Cartesian axes

     site n.     atom                  positions (alat units)
         1           Cd1 tau(   1) = (   0.0000000   0.0000000  10.0000000  )
         2           Cd1 tau(   2) = (   4.1316440   2.7527218  10.0000000  )
         3           Au1 tau(   3) = (   2.9828271   0.0000000  10.0000000  )
         4           Au1 tau(   4) = (   1.1488169   2.7527218  10.0000000  )
         5           Cd1 tau(   5) = (   5.9656542   3.9746374  12.4666576  )
         6           Cd1 tau(   6) = (   1.8340102   1.2219156  12.4666576  )
         7           Au1 tau(   7) = (   2.9828271   3.9746374  12.4666576  )
         8           Au1 tau(   8) = (   4.8168373   1.2219156  12.4666576  )
         9           Cd1 tau(   9) = (   3.6680205   2.4438311  14.9333152  )
        10           Cd1 tau(  10) = (   7.7996644   5.1965529  14.9333152  )
        11           Au1 tau(  11) = (   6.6508476   2.4438311  14.9333152  )
        12           Au1 tau(  12) = (   4.8168373   5.1965529  14.9333152  )

     number of k points=    20  Fermi-Dirac smearing, width (Ry)=  0.0110
                       cart. coord. in units 2pi/alat
        k(    1) = (   0.0000000   0.0000000   0.0000000), wk =   0.0555556
        k(    2) = (   0.0000000   0.0302731   0.0000000), wk =   0.1111111
        k(    3) = (   0.0000000   0.0605461   0.0000000), wk =   0.1111111
        k(    4) = (   0.0000000  -0.0908192   0.0000000), wk =   0.0555556
        k(    5) = (   0.0279377  -0.0116595   0.0000000), wk =   0.1111111
        k(    6) = (   0.0279377   0.0186136   0.0000000), wk =   0.1111111
        k(    7) = (   0.0279377   0.0488867   0.0000000), wk =   0.1111111
        k(    8) = (   0.0279377  -0.1024787   0.0000000), wk =   0.1111111
        k(    9) = (   0.0279377  -0.0722056   0.0000000), wk =   0.1111111
        k(   10) = (   0.0279377  -0.0419325   0.0000000), wk =   0.1111111
        k(   11) = (   0.0558754  -0.0233190   0.0000000), wk =   0.1111111
        k(   12) = (   0.0558754   0.0069541   0.0000000), wk =   0.1111111
        k(   13) = (   0.0558754   0.0372272   0.0000000), wk =   0.1111111
        k(   14) = (   0.0558754  -0.1141382   0.0000000), wk =   0.1111111
        k(   15) = (   0.0558754  -0.0838651   0.0000000), wk =   0.1111111
        k(   16) = (   0.0558754  -0.0535920   0.0000000), wk =   0.1111111
        k(   17) = (  -0.0838131   0.0349784   0.0000000), wk =   0.0555556
        k(   18) = (  -0.0838131   0.0652515   0.0000000), wk =   0.1111111
        k(   19) = (  -0.0838131   0.0955246   0.0000000), wk =   0.1111111
        k(   20) = (  -0.0838131  -0.0558408   0.0000000), wk =   0.0555556

     Largest allocated arrays     est. size (Mb)     dimensions
     Largest temporary arrays     est. size (Mb)     dimensions

     Check: negative/imaginary core charge=   -0.000001    0.000000

     Initial potential from superposition of free atoms
     Check: negative starting charge=   -0.128703

     starting charge  134.99902, renormalised to  138.00000

     negative rho (up, down):  1.316E-01 0.000E+00

     *
     * You are using vdW-DF for exchange-correlation in this calculation.
     * Please cite the following three references that made this development
     * possible:
     *
     *   M. Dion, H. Rydberg, E. Schroder, D. C. Langreth, and
     *   B. I. Lundqvist, Phys. Rev. Lett. 92, 246401 (2004).
     *
     *   T. Thonhauser, V. R. Cooper, S. Li, A. Puzder, P. Hyldgaard, and
     *   D. C. Langreth, Phys. Rev. B 76, 125112 (2007).
     *
     *   G. Roman-Perez and J. M. Soler, Phys. Rev. Lett. 103, 096102 (2009).
     *
     *
     * If you are using vdW-DF2, please also cite:
     *
     *   K. Lee, E. D. Murray, L. Kong, B. I. Lundqvist, and
     *   D. C. Langreth, Phys. Rev. B 82, 081101(R) (2010).
     *
     *
     * If you are calculating the stress with vdW-DF, please also cite:
     *
     *   R. Sabatini, E. Kucukbenli, B. Kolb, T. Thonhauser, and
     *   S. de Gironcoli, J. Phys.: Condens. Matter 24, 424209 (2012).
     *

     Carrying out vdW-DF run using the following parameters:

     Nqs =      20    Nr_points =    1024   r_max =   100.000
     q_mesh =
               0.00001000     0.04494208     0.09755937     0.15916263
               0.23128650     0.31572767     0.41458969     0.53033537
               0.66584808     0.82450364     1.01025438     1.22772762
               1.48234092     1.78043706     2.12944203     2.53805004
               3.01644009     3.57652955     4.23227104     5.00000000

     Gradients computed in reciprocal space

     Adding external electric field

     Computed dipole along edir(3) :
        Dipole               -0.0000 Ry au,         -0.0000 Debye
        Dipole field         -0.0000 Ry au

        Potential amp.        0.0000 Ry
        Total length         45.9392 bohr

     Starting wfc are  108 randomized atomic wfcs

     Self-consistent Calculation

     iteration #  1     ecut=    36.75 Ry     beta=0.10
     Davidson diagonalization with overlap
     ethr =  1.00E-02,  avg # of iterations =  8.1

[...]

     total energy              =   -1396.95450164 Ry
     Harris-Foulkes estimate   =   -1397.19711936 Ry
     estimated scf accuracy    <       1.47187844 Ry

[...]

     iteration #  7     ecut=    36.75 Ry     beta=0.10
     Davidson diagonalization with overlap
     c_bands:  1 eigenvalues not converged
     ethr =  2.53E-06,  avg # of iterations =  4.3

[...]

     End of self-consistent calculation

          k = 0.0000 0.0000 0.0000 ( 20721 PWs)   bands (ev):

    -9.0186  -8.9821  -8.9356  -8.9191  -8.8136  -8.7303  -8.6935  -8.6822
    -8.6815  -8.6758  -8.6387  -8.5828  -8.5323  -8.5274  -8.5249  -8.5066
    -8.5062  -8.4286  -8.4267  -8.4114  -8.3774  -8.3268  -8.2985  -8.2909
    -8.2363  -8.2204  -8.1929  -8.1678  -8.0925  -8.0110  -7.7252  -5.9617
    -5.0693  -5.0409  -4.8055  -4.4299  -4.3988  -4.1037  -4.0275  -3.9808
    -3.9739  -3.8112  -3.7762  -3.5842  -3.5808  -3.4930  -3.4495  -3.4174
    -3.3793  -3.3426  -3.3143  -3.2753  -3.2545  -3.0405  -3.0025  -2.9819
    -2.9145  -2.9120  -2.9101  -2.9033  -2.8313  -2.5533  -2.0101  -0.8411
    -0.7600  -0.6538  -0.0927  -0.0519  -0.0464   0.1903   0.3296   0.9358
     1.1461   1.9705   2.0409   2.0750   2.4228   2.6633   3.0842   3.6050
     3.7881   3.8872   4.2721   4.2788   4.5518   5.5646   5.7508   5.9761
     6.1315   6.2920   7.0239   7.2035   7.2721   7.3683   7.7682   7.9808
     8.1468   8.3676   8.5063

[...]

          k =-0.0838 0.0350 0.0000 ( 20826 PWs)   bands (ev):

[...]

     the Fermi energy is     0.3726 ev

!    total energy              =   -1396.88101488 Ry
     Harris-Foulkes estimate   =   -1396.88101343 Ry
     estimated scf accuracy    <       0.00000061 Ry

     The total energy is the sum of the following terms:

     one-electron contribution =   -8241.70866451 Ry
     hartree contribution      =    4214.86815798 Ry
     xc contribution           =    -628.84987486 Ry
     ewald contribution        =    3258.83284249 Ry
     electric field correction =       0.00000000 Ry
     smearing contrib. (-TS)   =      -0.02347598 Ry

     convergence has been achieved in  13 iterations

 BEEF-vdW xc energy contributions
           1 :   -557.882726206734
           2 :    515.369449681641
           3 :   -441.241223990394
           4 :    352.736602703063
           5 :   -267.022562877528
[...]

     Program PWSCF v.5.1rc2 (svn rev. 11289) starts on 18Dec2018 at 19: 4:49

[...]

     Found symmetry operation: I + (  0.5000  0.5000  0.0000)
     This is a supercell, fractional translations are disabled

[...]

     iteration #  7     ecut=    36.75 Ry     beta=0.10
     Davidson diagonalization with overlap
     c_bands:  1 eigenvalues not converged
     ethr =  4.00E-06,  avg # of iterations =  4.5

[...]

     Total force =     0.020996     Total SCF correction =     0.002027

[...]

   This run was terminated on:  19:18:15  18Dec2018

[...]

     Program PWSCF v.5.1rc2 (svn rev. 11289) starts on 18Dec2018 at 19:31:40

     Current dimensions of program PWSCF are:
     Max number of different atomic species (ntypx) = 10
     Max number of k-points (npk) =  40000
     Max angular momentum in pseudopotentials (lmaxx) =  3
     Presently stress not available with electric field

     IMPORTANT: XC functional enforced from input :
     Exchange-correlation      = BEEF-VDW ( 1  4 27 13 2)
     Any further DFT definition will be discarded
     Please, verify this is what you really want

     Subspace diagonalization in iterative solution of the eigenvalue problem:
     a serial algorithm will be used

     bravais-lattice index     =            0
     lattice parameter (alat)  =       1.8897  a.u.
     unit-cell volume          =    5526.2054 (a.u.)^3
     number of atoms/cell      =           12
     number of atomic types    =            2
     number of electrons       =       138.00
     number of Kohn-Sham states=           99
     kinetic-energy cutoff     =      36.7493  Ry
     charge density cutoff     =     367.4932  Ry
     convergence threshold     =      1.0E-06
     mixing beta               =       0.1000
     number of iterations used =           10  plain     mixing
     Exchange-correlation      = BEEF-VDW ( 1  4 27 13 2)
     nstep                     =           50

     celldm(1)=   1.889726  celldm(2)=   0.000000  celldm(3)=   0.000000
     celldm(4)=   0.000000  celldm(5)=   0.000000  celldm(6)=   0.000000

     crystal axes: (cart. coord. in units of alat)
               a(1) = (   5.965654   0.000000   0.000000 )
               a(2) = (   2.297634   5.505444   0.000000 )
               a(3) = (   0.000000   0.000000  24.933315 )

     reciprocal axes: (cart. coord. in units 2 pi/alat)
               b(1) = (  0.167626 -0.069957  0.000000 )
               b(2) = (  0.000000  0.181638  0.000000 )
               b(3) = (  0.000000  0.000000  0.040107 )

     PseudoPot. # 1 for Cd read from file:
     /afs/slac.stanford.edu/u/if/mamunm/psp/gbrv1.5pbe/Cd.UPF
     MD5 check sum: 17164a7926edb8e0dc231208abae86a6
     Pseudo is Ultrasoft + core correction, Zval = 12.0
     Generated by new atomic code, or converted to UPF format
     Using radial grid of  889 points,  6 beta functions with:
                l(1) =   0
                l(2) =   0
                l(3) =   1
                l(4) =   1
                l(5) =   2
                l(6) =   2
     Q(r) pseudized with  6 coefficients,  rinner =    1.000   1.000   1.000
                                                       1.000   1.000

     PseudoPot. # 2 for Au read from file:
     /afs/slac.stanford.edu/u/if/mamunm/psp/gbrv1.5pbe/Au.UPF
     MD5 check sum: 9d7f43293ad2c663164586bc4b293ffc
     Pseudo is Ultrasoft + core correction, Zval = 11.0
     Generated by new atomic code, or converted to UPF format
     Using radial grid of  985 points,  7 beta functions with:
                l(1) =   0
                l(2) =   0
                l(3) =   1
                l(4) =   1
                l(5) =   2
                l(6) =   2
                l(7) =   3
     Q(r) pseudized with  6 coefficients,  rinner =    1.900   1.900   1.900
                                                       1.900   1.900   1.900
                                                       1.900

     vdW kernel table read from file vdW_kernel_table
     MD5 check sum: 095c7af220d748ca6e76c0b4c6cfb241

     atomic species   valence    mass     pseudopotential
        Cd1           12.00   112.41400     Cd( 1.00)
        Au1           11.00   196.96657     Au( 1.00)

     No symmetry found

   Cartesian axes

     site n.     atom                  positions (alat units)
         1           Cd1 tau(   1) = (   0.0000000   0.0000000  10.0000000  )
         2           Cd1 tau(   2) = (   4.1316440   2.7527218  10.0000000  )
         3           Au1 tau(   3) = (   2.9828271   0.0000000  10.0000000  )
         4           Au1 tau(   4) = (   1.1488169   2.7527218  10.0000000  )
         5           Cd1 tau(   5) = (   5.9656542   3.9746374  12.4666576  )
         6           Cd1 tau(   6) = (   1.8340102   1.2219156  12.4666576  )
         7           Au1 tau(   7) = (   2.9828271   3.9746374  12.4666576  )
         8           Au1 tau(   8) = (   4.8168373   1.2219156  12.4666576  )
         9           Cd1 tau(   9) = (   3.6818624   2.4531124  15.1023732  )
        10           Cd1 tau(  10) = (   7.8135333   5.2057014  15.1023511  )
        11           Au1 tau(  11) = (   6.6514578   2.4442851  14.9726343  )
        12           Au1 tau(  12) = (   4.8175261   5.1969389  14.9725396  )

     number of k points=    20  Fermi-Dirac smearing, width (Ry)=  0.0110
                       cart. coord. in units 2pi/alat
        k(    1) = (   0.0000000   0.0000000   0.0000000), wk =   0.0555556
        k(    2) = (   0.0000000   0.0302731   0.0000000), wk =   0.1111111
        k(    3) = (   0.0000000   0.0605461   0.0000000), wk =   0.1111111
        k(    4) = (   0.0000000  -0.0908192   0.0000000), wk =   0.0555556
        k(    5) = (   0.0279377  -0.0116595   0.0000000), wk =   0.1111111
        k(    6) = (   0.0279377   0.0186136   0.0000000), wk =   0.1111111
        k(    7) = (   0.0279377   0.0488867   0.0000000), wk =   0.1111111
        k(    8) = (   0.0279377  -0.1024787   0.0000000), wk =   0.1111111
        k(    9) = (   0.0279377  -0.0722056   0.0000000), wk =   0.1111111
        k(   10) = (   0.0279377  -0.0419325   0.0000000), wk =   0.1111111
        k(   11) = (   0.0558754  -0.0233190   0.0000000), wk =   0.1111111
        k(   12) = (   0.0558754   0.0069541   0.0000000), wk =   0.1111111
        k(   13) = (   0.0558754   0.0372272   0.0000000), wk =   0.1111111
        k(   14) = (   0.0558754  -0.1141382   0.0000000), wk =   0.1111111
        k(   15) = (   0.0558754  -0.0838651   0.0000000), wk =   0.1111111
        k(   16) = (   0.0558754  -0.0535920   0.0000000), wk =   0.1111111
        k(   17) = (  -0.0838131   0.0349784   0.0000000), wk =   0.0555556
        k(   18) = (  -0.0838131   0.0652515   0.0000000), wk =   0.1111111
        k(   19) = (  -0.0838131   0.0955246   0.0000000), wk =   0.1111111
        k(   20) = (  -0.0838131  -0.0558408   0.0000000), wk =   0.0555556

     Largest allocated arrays     est. size (Mb)     dimensions
     Largest temporary arrays     est. size (Mb)     dimensions

     Check: negative/imaginary core charge=   -0.000001    0.000000

     Initial potential from superposition of free atoms
     Check: negative starting charge=   -0.129184

     starting charge  134.99902, renormalised to  138.00000

[...]

     *
     * You are using vdW-DF for exchange-correlation in this calculation.
     * Please cite the following three references that made this development
     * possible:
     *
     *   M. Dion, H. Rydberg, E. Schroder, D. C. Langreth, and
     *   B. I. Lundqvist, Phys. Rev. Lett. 92, 246401 (2004).
     *
     *   T. Thonhauser, V. R. Cooper, S. Li, A. Puzder, P. Hyldgaard, and
     *   D. C. Langreth, Phys. Rev. B 76, 125112 (2007).
     *
     *   G. Roman-Perez and J. M. Soler, Phys. Rev. Lett. 103, 096102 (2009).
     *
     *
     * If you are using vdW-DF2, please also cite:
     *
     *   K. Lee, E. D. Murray, L. Kong, B. I. Lundqvist, and
     *   D. C. Langreth, Phys. Rev. B 82, 081101(R) (2010).
     *
     *
     * If you are calculating the stress with vdW-DF, please also cite:
     *
     *   R. Sabatini, E. Kucukbenli, B. Kolb, T. Thonhauser, and
     *   S. de Gironcoli, J. Phys.: Condens. Matter 24, 424209 (2012).
     *

     Carrying out vdW-DF run using the following parameters:

     Nqs =      20    Nr_points =    1024   r_max =   100.000
     q_mesh =
               0.00001000     0.04494208     0.09755937     0.15916263
               0.23128650     0.31572767     0.41458969     0.53033537
               0.66584808     0.82450364     1.01025438     1.22772762
               1.48234092     1.78043706     2.12944203     2.53805004
               3.01644009     3.57652955     4.23227104     5.00000000

     Gradients computed in reciprocal space

[...]

     Starting wfc are  108 randomized atomic wfcs

     Self-consistent Calculation

[...]

     total energy              =   -1396.88465395 Ry
     Harris-Foulkes estimate   =   -1396.88465413 Ry
     estimated scf accuracy    <       0.00000202 Ry

     iteration # 13     ecut=    36.75 Ry     beta=0.10
     Davidson diagonalization with overlap
     ethr =  1.46E-09,  avg # of iterations =  3.5

[...]

     negative rho (up, down):  1.331E-01 0.000E+00

     Adding external electric field

     Computed dipole along edir(3) :
        Dipole                0.0240 Ry au,          0.0609 Debye
        Dipole field          0.0001 Ry au

        Potential amp.       -0.0050 Ry
        Total length         45.9392 bohr

     End of self-consistent calculation

[...]

          k = 0.0559-0.0536 0.0000 ( 20800 PWs)   bands (ev):

[...]

          k =-0.0838-0.0558 0.0000 ( 20822 PWs)   bands (ev):

    -8.8640  -8.8053  -8.7375  -8.6647  -8.6331  -8.6161  -8.6140  -8.5977
    -8.5406  -8.5243  -8.4717  -8.4525  -8.4238  -8.4235  -8.3953  -8.3897
    -8.3538  -8.3501  -8.3430  -8.2947  -8.2891  -8.2633  -8.2510  -8.2207
    -8.1849  -8.1401  -8.1352  -8.1304  -8.0469  -7.9763  -5.9756  -5.7255
    -4.9871  -4.8028  -4.6362  -4.5318  -4.3728  -4.2878  -4.2431  -4.1599
    -4.0901  -4.0587  -4.0049  -3.9884  -3.9355  -3.8772  -3.7355  -3.5933
    -3.5645  -3.5417  -3.4979  -3.4583  -3.4075  -3.3027  -3.2469  -3.1577
    -3.1388  -3.0617  -2.8966  -2.8795  -2.8449  -2.8240  -2.5371  -2.4376
    -2.4062  -1.4857  -0.8032  -0.7633  -0.6875  -0.6760   1.0436   1.2211
     2.3637   2.5361   4.0165   4.1182   4.6498   4.6804   4.6996   4.9846
     4.9951   5.6326   5.6350   5.7534   5.8379   5.9977   6.0337   6.3626
     6.5270   6.7292   6.8743   7.0315   7.0706   7.0813   7.1194   7.2299
     7.6925   7.7691   7.7834

     the Fermi energy is     0.3928 ev

!    total energy              =   -1396.88465572 Ry
     Harris-Foulkes estimate   =   -1396.88465428 Ry
     estimated scf accuracy    <       0.00000073 Ry

     The total energy is the sum of the following terms:

     one-electron contribution =   -8114.48122802 Ry
     hartree contribution      =    4151.48549827 Ry
     xc contribution           =    -628.77997203 Ry
     ewald contribution        =    3194.91439432 Ry
     electric field correction =       0.00000131 Ry
     smearing contrib. (-TS)   =      -0.02334956 Ry

     convergence has been achieved in  13 iterations

 BEEF-vdW xc energy contributions
           1 :   -557.802715611192
           2 :    515.223863079930
           3 :   -441.017671257569
           4 :    352.491140167242
           5 :   -266.844224407742
           6 :    195.853581238148
           7 :   -143.717591407330
           8 :    108.270649775016
           9 :   -84.2720958381610
          10 :    66.7777259536077
          11 :   -53.0425494749546
          12 :    42.5021496797501
          13 :   -35.5117122152971
          14 :    31.9886967590193
          15 :   -30.8356218889422
          16 :    30.2966983597722
          17 :   -28.8023709077243
          18 :    25.6640592266227
          19 :   -21.2366882518687
          20 :    16.5602463249794
          21 :   -12.7751555987205
          22 :    10.6294355987715
          23 :   -10.2620769681167
          24 :    11.2658737832184
          25 :   -12.9305564323935
          26 :    14.5330928937033
          27 :   -15.5721500411121
          28 :    15.8817837820797
          29 :   -15.6078845701160
          30 :    15.0680446098667
          31 :   -46.3602646001690
          32 :   -33.7590765885277

     Forces acting on atoms (Ry/au):

     negative rho (up, down):  1.331E-01 0.000E+00
     atom    1 type  1   force =    -0.00131789   -0.00088077   -0.01093886
     atom    2 type  1   force =    -0.00132010   -0.00087900   -0.01094861
     atom    3 type  2   force =     0.00037911    0.00024454   -0.00279467
     atom    4 type  2   force =     0.00037678    0.00025756   -0.00279920
     atom    5 type  1   force =     0.00086309    0.00057458    0.00520116
     atom    6 type  1   force =     0.00086105    0.00057728    0.00520437
     atom    7 type  2   force =    -0.00056315   -0.00037629    0.00779713
     atom    8 type  2   force =    -0.00056347   -0.00037710    0.00779883
     atom    9 type  1   force =    -0.00048194   -0.00032813    0.00047402
     atom   10 type  1   force =    -0.00047672   -0.00030889    0.00047141
     atom   11 type  2   force =     0.00112363    0.00074186    0.00026543
     atom   12 type  2   force =     0.00111962    0.00075436    0.00026902

     Total force =     0.021079     Total SCF correction =     0.001355

     entering subroutine stress ...

     negative rho (up, down):  1.331E-01 0.000E+00
          total   stress  (Ry/bohr**3)                   (kbar)     P=  -11.06
  -0.00011485   0.00000062   0.00000274        -16.89      0.09      0.40
   0.00000062  -0.00011537   0.00000183          0.09    -16.97      0.27
   0.00000274   0.00000183   0.00000474          0.40      0.27      0.70

 !ASE

     Writing output data file calc.save

     General routines

     Parallel routines

   This run was terminated on:  19:44:55  18Dec2018

   JOB DONE.
Job  /afs/slac/g/suncat/bin/suncat-tsmpirun -x LD_LIBRARY_PATH -wdir /scratch/qe529639_ImkRC pw.x -in pw.inp

TID   HOST_NAME   COMMAND_LINE            STATUS            TERMINATION_TIME
00000 suncat0040 pw.x -in pw.inp   Done                     12/18/2018 19:44:55
00001 suncat0040 pw.x -in pw.inp   Done                     12/18/2018 19:44:55
00002 suncat0040 pw.x -in pw.inp   Done                     12/18/2018 19:44:55
00003 suncat0040 pw.x -in pw.inp   Done                     12/18/2018 19:44:55
00004 suncat0040 pw.x -in pw.inp   Done                     12/18/2018 19:44:55
00005 suncat0040 pw.x -in pw.inp   Done                     12/18/2018 19:44:55
00006 suncat0040 pw.x -in pw.inp   Done                     12/18/2018 19:44:55
00007 suncat0040 pw.x -in pw.inp   Done                     12/18/2018 19:44:55
00008 suncat0039 pw.x -in pw.inp   Done                     12/18/2018 19:44:55
00009 suncat0039 pw.x -in pw.inp   Done                     12/18/2018 19:44:55
00010 suncat0039 pw.x -in pw.inp   Done                     12/18/2018 19:44:55
00011 suncat0039 pw.x -in pw.inp   Done                     12/18/2018 19:44:55
00012 suncat0039 pw.x -in pw.inp   Done                     12/18/2018 19:44:55
00013 suncat0039 pw.x -in pw.inp   Done                     12/18/2018 19:44:55
00014 suncat0039 pw.x -in pw.inp   Done                     12/18/2018 19:44:55
00015 suncat0039 pw.x -in pw.inp   Done                     12/18/2018 19:44:55
00016 suncat0038 pw.x -in pw.inp   Done                     12/18/2018 19:44:55
00017 suncat0038 pw.x -in pw.inp   Done                     12/18/2018 19:44:55
00018 suncat0038 pw.x -in pw.inp   Done                     12/18/2018 19:44:55
00019 suncat0038 pw.x -in pw.inp   Done                     12/18/2018 19:44:55
00020 suncat0038 pw.x -in pw.inp   Done                     12/18/2018 19:44:55
00021 suncat0038 pw.x -in pw.inp   Done                     12/18/2018 19:44:55
00022 suncat0038 pw.x -in pw.inp   Done                     12/18/2018 19:44:55
00023 suncat0038 pw.x -in pw.inp   Done                     12/18/2018 19:44:55
00024 suncat0037 pw.x -in pw.inp   Done                     12/18/2018 19:44:55
00025 suncat0037 pw.x -in pw.inp   Done                     12/18/2018 19:44:55
00026 suncat0037 pw.x -in pw.inp   Done                     12/18/2018 19:44:55
00027 suncat0037 pw.x -in pw.inp   Done                     12/18/2018 19:44:55
00028 suncat0037 pw.x -in pw.inp   Done                     12/18/2018 19:44:55
00029 suncat0037 pw.x -in pw.inp   Done                     12/18/2018 19:44:55
00030 suncat0037 pw.x -in pw.inp   Done                     12/18/2018 19:44:55
00031 suncat0037 pw.x -in pw.inp   Done                     12/18/2018 19:44:55