     Program PWSCF v.5.1rc2 (svn rev. 11289) starts on 18Dec2018 at 16:49:53

     Current dimensions of program PWSCF are:
     Max number of different atomic species (ntypx) = 10
     Max number of k-points (npk) =  40000
     Max angular momentum in pseudopotentials (lmaxx) =  3
     Presently stress not available with electric field

     IMPORTANT: XC functional enforced from input :
     Exchange-correlation      = BEEF-VDW ( 1  4 27 13 2)
     Any further DFT definition will be discarded
     Please, verify this is what you really want

     Subspace diagonalization in iterative solution of the eigenvalue problem:
     a serial algorithm will be used

     Found symmetry operation: I + (  0.5000  0.0000  0.0000)
     This is a supercell, fractional translations are disabled

     bravais-lattice index     =            0
     lattice parameter (alat)  =       1.8897  a.u.
     unit-cell volume          =    4478.0971 (a.u.)^3
     number of atoms/cell      =           12
     number of atomic types    =            2
     number of electrons       =       102.00
     number of Kohn-Sham states=           81
     kinetic-energy cutoff     =      36.7493  Ry
     charge density cutoff     =     367.4932  Ry
     convergence threshold     =      1.0E-06
     mixing beta               =       0.1000
     number of iterations used =           10  plain     mixing
     Exchange-correlation      = BEEF-VDW ( 1  4 27 13 2)
     nstep                     =           50

     celldm(1)=   1.889726  celldm(2)=   0.000000  celldm(3)=   0.000000
     celldm(4)=   0.000000  celldm(5)=   0.000000  celldm(6)=   0.000000

     crystal axes: (cart. coord. in units of alat)
               a(1) = (   5.432084   0.000000   0.000000 )
               a(2) = (  -2.716042   4.975698   0.000000 )
               a(3) = (   0.000000   0.000000  24.551410 )

     reciprocal axes: (cart. coord. in units 2 pi/alat)
               b(1) = (  0.184091  0.100488  0.000000 )
               b(2) = (  0.000000  0.200977  0.000000 )
               b(3) = (  0.000000  0.000000  0.040731 )

     PseudoPot. # 1 for Al read from file:
     /afs/slac.stanford.edu/u/if/mamunm/psp/gbrv1.5pbe/Al.UPF
     MD5 check sum: 0a6289f5291fc8f409219462bc851e1f
     Pseudo is Ultrasoft + core correction, Zval =  3.0
     Generated by new atomic code, or converted to UPF format
     Using radial grid of  893 points,  3 beta functions with:
                l(1) =   0
                l(2) =   1
                l(3) =   2
     Q(r) pseudized with  8 coefficients,  rinner =    0.900   0.900   0.900
                                                       0.900   0.900

     PseudoPot. # 2 for Mo read from file:
     /afs/slac.stanford.edu/u/if/mamunm/psp/gbrv1.5pbe/Mo.UPF
     MD5 check sum: 30c4dcd161f5d35cd49bb5239c51a633
     Pseudo is Ultrasoft + core correction, Zval = 14.0
     Generated by new atomic code, or converted to UPF format
     Using radial grid of  889 points,  6 beta functions with:
                l(1) =   0
                l(2) =   0
                l(3) =   1
                l(4) =   1
                l(5) =   2
                l(6) =   2
     Q(r) pseudized with  6 coefficients,  rinner =    1.000   1.000   1.000
                                                       1.000   1.000

     vdW kernel table read from file vdW_kernel_table
     MD5 check sum: 095c7af220d748ca6e76c0b4c6cfb241

     atomic species   valence    mass     pseudopotential
        Al1            3.00    26.98154     Al( 1.00)
        Mo1           14.00    95.95000     Mo( 1.00)

     No symmetry found

   Cartesian axes

     site n.     atom                  positions (alat units)
         1           Al1 tau(   1) = (   0.0000000   0.0000000  10.0000000  )
         2           Al1 tau(   2) = (   2.7160420   0.0000000  10.0000000  )
         3           Mo1 tau(   3) = (   1.3580210   2.4878489  10.0000000  )
         4           Mo1 tau(   4) = (  -1.3580210   2.4878489  10.0000000  )
         5           Al1 tau(   5) = (   2.7160420   1.4825829  12.2757048  )
         6           Al1 tau(   6) = (   0.0000000   1.4825829  12.2757048  )
         7           Mo1 tau(   7) = (  -1.3580210   3.9704318  12.2757048  )
         8           Mo1 tau(   8) = (   1.3580210   3.9704318  12.2757048  )
         9           Al1 tau(   9) = (   0.0000000   2.9651657  14.5514096  )
        10           Al1 tau(  10) = (   2.7160420   2.9651657  14.5514096  )
        11           Mo1 tau(  11) = (   4.0740630   0.4773168  14.5514096  )
        12           Mo1 tau(  12) = (   1.3580210   0.4773168  14.5514096  )

     number of k points=    20  Fermi-Dirac smearing, width (Ry)=  0.0110
                       cart. coord. in units 2pi/alat
        k(    1) = (   0.0000000   0.0000000   0.0000000), wk =   0.0555556
        k(    2) = (   0.0000000   0.0334961   0.0000000), wk =   0.1111111
        k(    3) = (   0.0000000   0.0669923   0.0000000), wk =   0.1111111
        k(    4) = (   0.0000000  -0.1004884   0.0000000), wk =   0.0555556
        k(    5) = (   0.0306819   0.0167481   0.0000000), wk =   0.1111111
        k(    6) = (   0.0306819   0.0502442   0.0000000), wk =   0.1111111
        k(    7) = (   0.0306819   0.0837403   0.0000000), wk =   0.1111111
        k(    8) = (   0.0306819  -0.0837403   0.0000000), wk =   0.1111111
        k(    9) = (   0.0306819  -0.0502442   0.0000000), wk =   0.1111111
        k(   10) = (   0.0306819  -0.0167481   0.0000000), wk =   0.1111111
        k(   11) = (   0.0613638   0.0334961   0.0000000), wk =   0.1111111
        k(   12) = (   0.0613638   0.0669923   0.0000000), wk =   0.1111111
        k(   13) = (   0.0613638   0.1004884   0.0000000), wk =   0.1111111
        k(   14) = (   0.0613638  -0.0669923   0.0000000), wk =   0.1111111
        k(   15) = (   0.0613638  -0.0334961   0.0000000), wk =   0.1111111
        k(   16) = (   0.0613638   0.0000000   0.0000000), wk =   0.1111111
        k(   17) = (  -0.0920457  -0.0502442   0.0000000), wk =   0.0555556
        k(   18) = (  -0.0920457  -0.0167481   0.0000000), wk =   0.1111111
        k(   19) = (  -0.0920457   0.0167481   0.0000000), wk =   0.1111111
        k(   20) = (  -0.0920457  -0.1507326   0.0000000), wk =   0.0555556

     Largest allocated arrays     est. size (Mb)     dimensions
     Largest temporary arrays     est. size (Mb)     dimensions

     Initial potential from superposition of free atoms
     Check: negative starting charge=   -0.003356

     starting charge  101.97883, renormalised to  102.00000

     negative rho (up, down):  3.356E-03 0.000E+00

     *
     * You are using vdW-DF for exchange-correlation in this calculation.
     * Please cite the following three references that made this development
     * possible:
     *
     *   M. Dion, H. Rydberg, E. Schroder, D. C. Langreth, and
     *   B. I. Lundqvist, Phys. Rev. Lett. 92, 246401 (2004).
     *
     *   T. Thonhauser, V. R. Cooper, S. Li, A. Puzder, P. Hyldgaard, and
     *   D. C. Langreth, Phys. Rev. B 76, 125112 (2007).
     *
     *   G. Roman-Perez and J. M. Soler, Phys. Rev. Lett. 103, 096102 (2009).
     *
     *
     * If you are using vdW-DF2, please also cite:
     *
     *   K. Lee, E. D. Murray, L. Kong, B. I. Lundqvist, and
     *   D. C. Langreth, Phys. Rev. B 82, 081101(R) (2010).
     *
     *
     * If you are calculating the stress with vdW-DF, please also cite:
     *
     *   R. Sabatini, E. Kucukbenli, B. Kolb, T. Thonhauser, and
     *   S. de Gironcoli, J. Phys.: Condens. Matter 24, 424209 (2012).
     *

     Carrying out vdW-DF run using the following parameters:

     Nqs =      20    Nr_points =    1024   r_max =   100.000
     q_mesh =
               0.00001000     0.04494208     0.09755937     0.15916263
               0.23128650     0.31572767     0.41458969     0.53033537
               0.66584808     0.82450364     1.01025438     1.22772762
               1.48234092     1.78043706     2.12944203     2.53805004
               3.01644009     3.57652955     4.23227104     5.00000000

     Gradients computed in reciprocal space

     Adding external electric field

     Computed dipole along edir(3) :
        Dipole               -0.0000 Ry au,         -0.0000 Debye
        Dipole field         -0.0000 Ry au

        Potential amp.        0.0000 Ry
        Total length         45.2356 bohr

     Starting wfc are  102 randomized atomic wfcs

     Self-consistent Calculation

     iteration #  1     ecut=    36.75 Ry     beta=0.10
     Davidson diagonalization with overlap
     ethr =  1.00E-02,  avg # of iterations =  4.0

[...]

     total energy              =    -880.87962443 Ry
     Harris-Foulkes estimate   =    -881.40678151 Ry
     estimated scf accuracy    <       3.03574253 Ry

[...]

     End of self-consistent calculation

          k = 0.0000 0.0000 0.0000 ( 16863 PWs)   bands (ev):

   -60.5153 -60.3994 -60.2530 -60.2462 -60.1383 -60.1320 -34.9754 -34.8079
   -34.6892 -34.6817 -34.6810 -34.5756 -34.4599 -34.3220 -34.3146 -34.3041
   -34.2078 -34.1997 -34.1935 -34.0641 -34.0174 -33.9685 -33.7439 -33.7401
    -8.3629  -6.6949  -5.4509  -4.9420  -3.9497  -3.5953  -2.9145  -2.6345
    -2.5427  -2.3869  -2.3351  -2.1511  -2.0091  -1.6636  -1.6581  -1.1998
    -1.1900  -0.9690  -0.7658  -0.4722  -0.1129   0.0382   0.2348   0.2850
     0.3880   0.5075   0.9023   0.9567   1.1230   1.2097   1.4089   1.4614
     1.6644   1.7374   1.9297   2.1602   2.5718   2.6413   2.6568   2.7239
     3.4008   3.5866   3.8774   3.9915   4.1842   4.3552   4.5203   4.8129
     5.0120   5.2153   5.2939   5.4017   6.0232   6.4857   6.9124   7.1477
     7.5388

[...]

          k =-0.0920-0.0502 0.0000 ( 16876 PWs)   bands (ev):

[...]

     the Fermi energy is     0.7498 ev

!    total energy              =    -881.00507890 Ry
     Harris-Foulkes estimate   =    -881.00507913 Ry
     estimated scf accuracy    <       0.00000091 Ry

     The total energy is the sum of the following terms:

     one-electron contribution =   -5894.40225753 Ry
     hartree contribution      =    2943.58605334 Ry
     xc contribution           =    -146.86882341 Ry
     ewald contribution        =    2216.73996208 Ry
     electric field correction =       0.00000000 Ry
     smearing contrib. (-TS)   =      -0.06001338 Ry

     convergence has been achieved in  15 iterations

 BEEF-vdW xc energy contributions
           1 :   -125.142701420268
           2 :    113.094365634180
           3 :   -93.0351153235251
           4 :    70.9655139699706
           5 :   -52.2110754052625
           6 :    39.5947312391409
           7 :   -33.1416463597228
           8 :    31.0161883689142
           9 :   -30.8720372293195
          10 :    30.8433083294127
          11 :   -29.9222293669539
          12 :    27.8832619605001
          13 :   -25.0538961321780
          14 :    22.0649184758985
          15 :   -19.5752264985948
          16 :    17.9663553548776
          17 :   -17.1372358402624
          18 :    16.5508465255581
          19 :   -15.5575042754128
          20 :    13.8004656299364
          21 :   -11.4344218183516
          22 :    9.00520665705105
[...]
00025 suncat0091 pw.x -in pw.inp   Done                     12/18/2018 16:58:19
00026 suncat0091 pw.x -in pw.inp   Done                     12/18/2018 16:58:19
00027 suncat0091 pw.x -in pw.inp   Done                     12/18/2018 16:58:19
00028 suncat0091 pw.x -in pw.inp   Done                     12/18/2018 16:58:19
00029 suncat0091 pw.x -in pw.inp   Done                     12/18/2018 16:58:19
00030 suncat0091 pw.x -in pw.inp   Done                     12/18/2018 16:58:19
00031 suncat0091 pw.x -in pw.inp   Done                     12/18/2018 16:58:19

[...]

   This run was terminated on:  17: 7:11  18Dec2018

[...]

     Program PWSCF v.5.1rc2 (svn rev. 11289) starts on 18Dec2018 at 17: 7:18

[...]

   This run was terminated on:  17:16: 3  18Dec2018

[...]

     Program PWSCF v.5.1rc2 (svn rev. 11289) starts on 18Dec2018 at 17:16: 9

[...]

     Program PWSCF v.5.1rc2 (svn rev. 11289) starts on 18Dec2018 at 17:24:57

     Current dimensions of program PWSCF are:
     Max number of different atomic species (ntypx) = 10
     Max number of k-points (npk) =  40000
     Max angular momentum in pseudopotentials (lmaxx) =  3
     Presently stress not available with electric field

     IMPORTANT: XC functional enforced from input :
     Exchange-correlation      = BEEF-VDW ( 1  4 27 13 2)
     Any further DFT definition will be discarded
     Please, verify this is what you really want

     Subspace diagonalization in iterative solution of the eigenvalue problem:
     a serial algorithm will be used

     Found symmetry operation: I + (  0.5000  0.0000  0.0000)
     This is a supercell, fractional translations are disabled

     bravais-lattice index     =            0
     lattice parameter (alat)  =       1.8897  a.u.
     unit-cell volume          =    4478.0971 (a.u.)^3
     number of atoms/cell      =           12
     number of atomic types    =            2
     number of electrons       =       102.00
     number of Kohn-Sham states=           81
     kinetic-energy cutoff     =      36.7493  Ry
     charge density cutoff     =     367.4932  Ry
     convergence threshold     =      1.0E-06
     mixing beta               =       0.1000
     number of iterations used =           10  plain     mixing
     Exchange-correlation      = BEEF-VDW ( 1  4 27 13 2)
     nstep                     =           50

     celldm(1)=   1.889726  celldm(2)=   0.000000  celldm(3)=   0.000000
     celldm(4)=   0.000000  celldm(5)=   0.000000  celldm(6)=   0.000000

     crystal axes: (cart. coord. in units of alat)
               a(1) = (   5.432084   0.000000   0.000000 )
               a(2) = (  -2.716042   4.975698   0.000000 )
               a(3) = (   0.000000   0.000000  24.551410 )

     reciprocal axes: (cart. coord. in units 2 pi/alat)
               b(1) = (  0.184091  0.100488  0.000000 )
               b(2) = (  0.000000  0.200977  0.000000 )
               b(3) = (  0.000000  0.000000  0.040731 )

     PseudoPot. # 1 for Al read from file:
     /afs/slac.stanford.edu/u/if/mamunm/psp/gbrv1.5pbe/Al.UPF
     MD5 check sum: 0a6289f5291fc8f409219462bc851e1f
     Pseudo is Ultrasoft + core correction, Zval =  3.0
     Generated by new atomic code, or converted to UPF format
     Using radial grid of  893 points,  3 beta functions with:
                l(1) =   0
                l(2) =   1
                l(3) =   2
     Q(r) pseudized with  8 coefficients,  rinner =    0.900   0.900   0.900
                                                       0.900   0.900

     PseudoPot. # 2 for Mo read from file:
     /afs/slac.stanford.edu/u/if/mamunm/psp/gbrv1.5pbe/Mo.UPF
     MD5 check sum: 30c4dcd161f5d35cd49bb5239c51a633
     Pseudo is Ultrasoft + core correction, Zval = 14.0
     Generated by new atomic code, or converted to UPF format
     Using radial grid of  889 points,  6 beta functions with:
                l(1) =   0
                l(2) =   0
                l(3) =   1
                l(4) =   1
                l(5) =   2
                l(6) =   2
     Q(r) pseudized with  6 coefficients,  rinner =    1.000   1.000   1.000
                                                       1.000   1.000

     vdW kernel table read from file vdW_kernel_table
     MD5 check sum: 095c7af220d748ca6e76c0b4c6cfb241

     atomic species   valence    mass     pseudopotential
        Al1            3.00    26.98154     Al( 1.00)
        Mo1           14.00    95.95000     Mo( 1.00)

     No symmetry found

   Cartesian axes

     site n.     atom                  positions (alat units)
         1           Al1 tau(   1) = (   0.0000000   0.0000000  10.0000000  )
         2           Al1 tau(   2) = (   2.7160420   0.0000000  10.0000000  )
         3           Mo1 tau(   3) = (   1.3580210   2.4878489  10.0000000  )
         4           Mo1 tau(   4) = (  -1.3580210   2.4878489  10.0000000  )
         5           Al1 tau(   5) = (   2.7160420   1.4825829  12.2757048  )
         6           Al1 tau(   6) = (   0.0000000   1.4825829  12.2757048  )
         7           Mo1 tau(   7) = (  -1.3580210   3.9704318  12.2757048  )
         8           Mo1 tau(   8) = (   1.3580210   3.9704318  12.2757048  )
         9           Al1 tau(   9) = (   0.0000114   2.9556802  14.6949739  )
        10           Al1 tau(  10) = (   2.7160553   2.9556800  14.6949736  )
        11           Mo1 tau(  11) = (   4.0740696   0.4703049  14.4167432  )
        12           Mo1 tau(  12) = (   1.3580272   0.4703079  14.4167428  )

     number of k points=    20  Fermi-Dirac smearing, width (Ry)=  0.0110
                       cart. coord. in units 2pi/alat
        k(    1) = (   0.0000000   0.0000000   0.0000000), wk =   0.0555556
        k(    2) = (   0.0000000   0.0334961   0.0000000), wk =   0.1111111
        k(    3) = (   0.0000000   0.0669923   0.0000000), wk =   0.1111111
        k(    4) = (   0.0000000  -0.1004884   0.0000000), wk =   0.0555556
        k(    5) = (   0.0306819   0.0167481   0.0000000), wk =   0.1111111
        k(    6) = (   0.0306819   0.0502442   0.0000000), wk =   0.1111111
        k(    7) = (   0.0306819   0.0837403   0.0000000), wk =   0.1111111
        k(    8) = (   0.0306819  -0.0837403   0.0000000), wk =   0.1111111
        k(    9) = (   0.0306819  -0.0502442   0.0000000), wk =   0.1111111
        k(   10) = (   0.0306819  -0.0167481   0.0000000), wk =   0.1111111
        k(   11) = (   0.0613638   0.0334961   0.0000000), wk =   0.1111111
        k(   12) = (   0.0613638   0.0669923   0.0000000), wk =   0.1111111
        k(   13) = (   0.0613638   0.1004884   0.0000000), wk =   0.1111111
        k(   14) = (   0.0613638  -0.0669923   0.0000000), wk =   0.1111111
        k(   15) = (   0.0613638  -0.0334961   0.0000000), wk =   0.1111111
        k(   16) = (   0.0613638   0.0000000   0.0000000), wk =   0.1111111
        k(   17) = (  -0.0920457  -0.0502442   0.0000000), wk =   0.0555556
        k(   18) = (  -0.0920457  -0.0167481   0.0000000), wk =   0.1111111
        k(   19) = (  -0.0920457   0.0167481   0.0000000), wk =   0.1111111
        k(   20) = (  -0.0920457  -0.1507326   0.0000000), wk =   0.0555556

     Largest allocated arrays     est. size (Mb)     dimensions
     Largest temporary arrays     est. size (Mb)     dimensions

     Initial potential from superposition of free atoms
     Check: negative starting charge=   -0.003351

     starting charge  101.97883, renormalised to  102.00000

[...]

     *
     * You are using vdW-DF for exchange-correlation in this calculation.
     * Please cite the following three references that made this development
     * possible:
     *
     *   M. Dion, H. Rydberg, E. Schroder, D. C. Langreth, and
     *   B. I. Lundqvist, Phys. Rev. Lett. 92, 246401 (2004).
     *
     *   T. Thonhauser, V. R. Cooper, S. Li, A. Puzder, P. Hyldgaard, and
     *   D. C. Langreth, Phys. Rev. B 76, 125112 (2007).
     *
     *   G. Roman-Perez and J. M. Soler, Phys. Rev. Lett. 103, 096102 (2009).
     *
     *
     * If you are using vdW-DF2, please also cite:
     *
     *   K. Lee, E. D. Murray, L. Kong, B. I. Lundqvist, and
     *   D. C. Langreth, Phys. Rev. B 82, 081101(R) (2010).
     *
     *
     * If you are calculating the stress with vdW-DF, please also cite:
     *
     *   R. Sabatini, E. Kucukbenli, B. Kolb, T. Thonhauser, and
     *   S. de Gironcoli, J. Phys.: Condens. Matter 24, 424209 (2012).
     *

     Carrying out vdW-DF run using the following parameters:

     Nqs =      20    Nr_points =    1024   r_max =   100.000
     q_mesh =
               0.00001000     0.04494208     0.09755937     0.15916263
               0.23128650     0.31572767     0.41458969     0.53033537
               0.66584808     0.82450364     1.01025438     1.22772762
               1.48234092     1.78043706     2.12944203     2.53805004
               3.01644009     3.57652955     4.23227104     5.00000000

     Gradients computed in reciprocal space

[...]

     Starting wfc are  102 randomized atomic wfcs

     Self-consistent Calculation

[...]

     total energy              =    -881.02270217 Ry
     Harris-Foulkes estimate   =    -881.02270180 Ry
     estimated scf accuracy    <       0.00000304 Ry

     iteration # 16     ecut=    36.75 Ry     beta=0.10
     Davidson diagonalization with overlap
     ethr =  2.98E-09,  avg # of iterations =  2.0

[...]

     negative rho (up, down):  3.530E-03 0.000E+00

     Adding external electric field

     Computed dipole along edir(3) :
        Dipole                0.0090 Ry au,          0.0229 Debye
        Dipole field          0.0000 Ry au

        Potential amp.       -0.0023 Ry
        Total length         45.2356 bohr

     End of self-consistent calculation

[...]

          k = 0.0614 0.0000 0.0000 ( 16860 PWs)   bands (ev):

[...]

          k =-0.0920-0.1507 0.0000 ( 16876 PWs)   bands (ev):

   -60.4733 -60.4733 -60.1901 -60.1900 -60.1802 -60.1802 -34.8460 -34.8460
   -34.5298 -34.5298 -34.5197 -34.5197 -34.2651 -34.2650 -34.2479 -34.2479
   -34.2426 -34.2426 -34.2284 -34.2284 -34.2200 -34.2200 -33.9545 -33.9545
    -6.7397  -6.7397  -5.4151  -5.4151  -4.3498  -4.3498  -2.7815  -2.7815
    -2.3493  -2.3493  -1.6383  -1.6383  -1.4039  -1.4039  -1.1913  -1.1913
    -1.0341  -1.0341  -0.8609  -0.8609  -0.0844  -0.0844   0.0828   0.0828
     0.2390   0.2390   0.4634   0.4634   0.6664   0.6664   1.1958   1.1958
     1.5137   1.5137   1.9686   1.9686   2.1833   2.1833   2.6602   2.6602
     3.2702   3.2702   4.0862   4.0862   5.2245   5.2245   5.4750   5.4750
     5.9892   5.9892   6.1982   6.1982   6.3705   6.3705   6.6719   6.6719
     6.9595

     the Fermi energy is     0.7582 ev

!    total energy              =    -881.02270240 Ry
     Harris-Foulkes estimate   =    -881.02270251 Ry
     estimated scf accuracy    <       0.00000042 Ry

     The total energy is the sum of the following terms:

     one-electron contribution =   -5961.88951587 Ry
     hartree contribution      =    2977.29287341 Ry
     xc contribution           =    -146.89977733 Ry
     ewald contribution        =    2250.53158251 Ry
     electric field correction =       0.00000023 Ry
     smearing contrib. (-TS)   =      -0.05786534 Ry

     convergence has been achieved in  16 iterations

 BEEF-vdW xc energy contributions
           1 :   -125.178663659829
           2 :    113.148449848415
           3 :   -93.1065871844525
           4 :    71.0293588413585
           5 :   -52.2290818927797
           6 :    39.5351373433182
           7 :   -32.9950554803582
           8 :    30.7997484120280
           9 :   -30.6215479648496
          10 :    30.5977328033701
          11 :   -29.7077892100031
          12 :    27.7049628144291
          13 :   -24.8976528375920
          14 :    21.9064839860249
          15 :   -19.3906288862726
          16 :    17.7404032185559
          17 :   -16.8687131254473
          18 :    16.2546065640695
          19 :   -15.2619713938149
          20 :    13.5387408407004
          21 :   -11.2298351484365
          22 :    8.85742083553882
          23 :   -6.96792683864496
          24 :    5.79556118825892
          25 :   -5.16310262614397
          26 :    4.64986083397670
          27 :   -3.87896254729696
          28 :    2.71927560294205
          29 :   -1.29784807321846
          30 :  -0.138231035912270
          31 :   -15.0288057260931
          32 :   -11.4069811613386

     Forces acting on atoms (Ry/au):

     negative rho (up, down):  3.530E-03 0.000E+00
     atom    1 type  1   force =    -0.00000852    0.00144997   -0.02506695
     atom    2 type  1   force =    -0.00000871    0.00145006   -0.02506695
     atom    3 type  2   force =     0.00000870   -0.00058691    0.03777659
     atom    4 type  2   force =     0.00000859   -0.00058513    0.03777445
     atom    5 type  1   force =     0.00000455    0.01110804   -0.00945548
     atom    6 type  1   force =     0.00000664    0.01110800   -0.00945546
     atom    7 type  2   force =     0.00000598   -0.01155434   -0.00360183
     atom    8 type  2   force =     0.00000601   -0.01155320   -0.00360218
     atom    9 type  1   force =    -0.00000069   -0.00022977    0.00059305
     atom   10 type  1   force =    -0.00000194   -0.00022984    0.00059309
     atom   11 type  2   force =    -0.00001028   -0.00018758   -0.00024389
     atom   12 type  2   force =    -0.00001032   -0.00018931   -0.00024443

     Total force =     0.069535     Total SCF correction =     0.002127

     entering subroutine stress ...

     negative rho (up, down):  3.530E-03 0.000E+00
          total   stress  (Ry/bohr**3)                   (kbar)     P=  -17.03
  -0.00012394  -0.00000001   0.00000000        -18.23     -0.00      0.00
  -0.00000001  -0.00019892  -0.00000262         -0.00    -29.26     -0.39
   0.00000000  -0.00000262  -0.00002442          0.00     -0.39     -3.59

 !ASE

     Writing output data file calc.save

     General routines

     Parallel routines

   This run was terminated on:  17:33:42  18Dec2018

   JOB DONE.
Job  /afs/slac/g/suncat/bin/suncat-tsmpirun -x LD_LIBRARY_PATH -wdir /scratch/qe529593_3OPlP pw.x -in pw.inp

TID   HOST_NAME   COMMAND_LINE            STATUS            TERMINATION_TIME
00000 suncat0094 pw.x -in pw.inp   Done                     12/18/2018 17:33:42
00001 suncat0094 pw.x -in pw.inp   Done                     12/18/2018 17:33:42
00002 suncat0094 pw.x -in pw.inp   Done                     12/18/2018 17:33:42
00003 suncat0094 pw.x -in pw.inp   Done                     12/18/2018 17:33:42
00004 suncat0094 pw.x -in pw.inp   Done                     12/18/2018 17:33:42
00005 suncat0094 pw.x -in pw.inp   Done                     12/18/2018 17:33:42
00006 suncat0094 pw.x -in pw.inp   Done                     12/18/2018 17:33:42
00007 suncat0094 pw.x -in pw.inp   Done                     12/18/2018 17:33:42
00008 suncat0093 pw.x -in pw.inp   Done                     12/18/2018 17:33:42
00009 suncat0093 pw.x -in pw.inp   Done                     12/18/2018 17:33:42
00010 suncat0093 pw.x -in pw.inp   Done                     12/18/2018 17:33:42
00011 suncat0093 pw.x -in pw.inp   Done                     12/18/2018 17:33:42
00012 suncat0093 pw.x -in pw.inp   Done                     12/18/2018 17:33:42
00013 suncat0093 pw.x -in pw.inp   Done                     12/18/2018 17:33:42
00014 suncat0093 pw.x -in pw.inp   Done                     12/18/2018 17:33:42
00015 suncat0093 pw.x -in pw.inp   Done                     12/18/2018 17:33:42
00016 suncat0092 pw.x -in pw.inp   Done                     12/18/2018 17:33:42
00017 suncat0092 pw.x -in pw.inp   Done                     12/18/2018 17:33:42
00018 suncat0092 pw.x -in pw.inp   Done                     12/18/2018 17:33:42
00019 suncat0092 pw.x -in pw.inp   Done                     12/18/2018 17:33:42
00020 suncat0092 pw.x -in pw.inp   Done                     12/18/2018 17:33:42
00021 suncat0092 pw.x -in pw.inp   Done                     12/18/2018 17:33:42
00022 suncat0092 pw.x -in pw.inp   Done                     12/18/2018 17:33:42
00023 suncat0092 pw.x -in pw.inp   Done                     12/18/2018 17:33:42
00024 suncat0091 pw.x -in pw.inp   Done                     12/18/2018 17:33:42
00025 suncat0091 pw.x -in pw.inp   Done                     12/18/2018 17:33:42
00026 suncat0091 pw.x -in pw.inp   Done                     12/18/2018 17:33:42
00027 suncat0091 pw.x -in pw.inp   Done                     12/18/2018 17:33:42
00028 suncat0091 pw.x -in pw.inp   Done                     12/18/2018 17:33:42
00029 suncat0091 pw.x -in pw.inp   Done                     12/18/2018 17:33:42
00030 suncat0091 pw.x -in pw.inp   Done                     12/18/2018 17:33:42
00031 suncat0091 pw.x -in pw.inp   Done                     12/18/2018 17:33:42