     Program PWSCF v.5.1rc2 (svn rev. 11289) starts on 19Dec2018 at  6:51:52

     Current dimensions of program PWSCF are:
     Max number of different atomic species (ntypx) = 10
     Max number of k-points (npk) =  40000
     Max angular momentum in pseudopotentials (lmaxx) =  3
     Presently stress not available with electric field

     IMPORTANT: XC functional enforced from input :
     Exchange-correlation      = BEEF-VDW ( 1  4 27 13 2)
     Any further DFT definition will be discarded
     Please, verify this is what you really want

     Subspace diagonalization in iterative solution of the eigenvalue problem:
     a serial algorithm will be used

     Found symmetry operation: I + ( -0.5000  0.0000  0.0000)
     This is a supercell, fractional translations are disabled

     bravais-lattice index     =            0
     lattice parameter (alat)  =       1.8897  a.u.
     unit-cell volume          =    4710.5559 (a.u.)^3
     number of atoms/cell      =           12
     number of atomic types    =            2
     number of electrons       =       174.00
     number of Kohn-Sham states=          117
     kinetic-energy cutoff     =      36.7493  Ry
     charge density cutoff     =     367.4932  Ry
     convergence threshold     =      1.0E-06
     mixing beta               =       0.1000
     number of iterations used =           10  plain     mixing
     Exchange-correlation      = BEEF-VDW ( 1  4 27 13 2)
     nstep                     =           50

     celldm(1)=   1.889726  celldm(2)=   0.000000  celldm(3)=   0.000000
     celldm(4)=   0.000000  celldm(5)=   0.000000  celldm(6)=   0.000000

     crystal axes: (cart. coord. in units of alat)
               a(1) = (   5.660833   0.000000   0.000000 )
               a(2) = (  -2.830416   4.999131   0.000000 )
               a(3) = (   0.000000   0.000000  24.666114 )

     reciprocal axes: (cart. coord. in units 2 pi/alat)
               b(1) = (  0.176652  0.100017  0.000000 )
               b(2) = (  0.000000  0.200035  0.000000 )
               b(3) = (  0.000000  0.000000  0.040541 )

     PseudoPot. # 1 for Ta read from file:
     /afs/slac.stanford.edu/u/if/mamunm/psp/gbrv1.5pbe/Ta.UPF
     MD5 check sum: f8bbe9446314a3b8ea5d9f3e3836c939
     Pseudo is Ultrasoft + core correction, Zval = 13.0
     Generated by new atomic code, or converted to UPF format
     Using radial grid of  921 points,  7 beta functions with:
                l(1) =   0
                l(2) =   0
                l(3) =   1
                l(4) =   1
                l(5) =   2
                l(6) =   2
                l(7) =   3
     Q(r) pseudized with  6 coefficients,  rinner =    1.300   1.300   1.300
                                                       1.300   1.300   1.300
                                                       1.300

     PseudoPot. # 2 for Pt read from file:
     /afs/slac.stanford.edu/u/if/mamunm/psp/gbrv1.5pbe/Pt.UPF
     MD5 check sum: f09d6de1a584b5a045c4fc126da2d0c4
     Pseudo is Ultrasoft + core correction, Zval = 16.0
     Generated by new atomic code, or converted to UPF format
     Using radial grid of  985 points,  6 beta functions with:
                l(1) =   0
                l(2) =   0
                l(3) =   1
                l(4) =   1
                l(5) =   2
                l(6) =   2
     Q(r) pseudized with  8 coefficients,  rinner =    1.300   1.300   1.300
                                                       1.300   1.300

     vdW kernel table read from file vdW_kernel_table
     MD5 check sum: 095c7af220d748ca6e76c0b4c6cfb241

     atomic species   valence    mass     pseudopotential
        Ta1           13.00   180.94788     Ta( 1.00)
        Pt1           16.00   195.08400     Pt( 1.00)

     No symmetry found

   Cartesian axes

     site n.     atom                  positions (alat units)
         1           Ta1 tau(   1) = (   0.0000000   0.0000000  10.0000000  )
         2           Ta1 tau(   2) = (   2.8304164   0.0000000  10.0000000  )
         3           Pt1 tau(   3) = (   1.4152082   2.4995654  10.0000000  )
         4           Pt1 tau(   4) = (  -1.4152082   2.4995654  10.0000000  )
         5           Ta1 tau(   5) = (   2.8304164   1.6025300  12.3330569  )
         6           Ta1 tau(   6) = (   0.0000000   1.6025300  12.3330569  )
         7           Pt1 tau(   7) = (  -1.4152082   4.1020954  12.3330569  )
         8           Pt1 tau(   8) = (   1.4152082   4.1020954  12.3330569  )
         9           Ta1 tau(   9) = (  -0.0000000   3.2050601  14.6661139  )
        10           Ta1 tau(  10) = (   2.8304164   3.2050601  14.6661139  )
        11           Pt1 tau(  11) = (   4.2456246   0.7054947  14.6661139  )
        12           Pt1 tau(  12) = (   1.4152082   0.7054947  14.6661139  )

     number of k points=    20  Fermi-Dirac smearing, width (Ry)=  0.0110
                       cart. coord. in units 2pi/alat
        k(    1) = (   0.0000000   0.0000000   0.0000000), wk =   0.0555556
        k(    2) = (   0.0000000   0.0333391   0.0000000), wk =   0.1111111
        k(    3) = (   0.0000000   0.0666783   0.0000000), wk =   0.1111111
        k(    4) = (   0.0000000  -0.1000174   0.0000000), wk =   0.0555556
        k(    5) = (   0.0294421   0.0166696   0.0000000), wk =   0.1111111
        k(    6) = (   0.0294421   0.0500087   0.0000000), wk =   0.1111111
        k(    7) = (   0.0294421   0.0833478   0.0000000), wk =   0.1111111
        k(    8) = (   0.0294421  -0.0833478   0.0000000), wk =   0.1111111
        k(    9) = (   0.0294421  -0.0500087   0.0000000), wk =   0.1111111
        k(   10) = (   0.0294421  -0.0166696   0.0000000), wk =   0.1111111
        k(   11) = (   0.0588842   0.0333391   0.0000000), wk =   0.1111111
        k(   12) = (   0.0588842   0.0666783   0.0000000), wk =   0.1111111
        k(   13) = (   0.0588842   0.1000174   0.0000000), wk =   0.1111111
        k(   14) = (   0.0588842  -0.0666783   0.0000000), wk =   0.1111111
        k(   15) = (   0.0588842  -0.0333391   0.0000000), wk =   0.1111111
        k(   16) = (   0.0588842   0.0000000   0.0000000), wk =   0.1111111
        k(   17) = (  -0.0883262  -0.0500087   0.0000000), wk =   0.0555556
        k(   18) = (  -0.0883262  -0.0166696   0.0000000), wk =   0.1111111
        k(   19) = (  -0.0883262   0.0166696   0.0000000), wk =   0.1111111
        k(   20) = (  -0.0883262  -0.1500261   0.0000000), wk =   0.0555556

     Largest allocated arrays     est. size (Mb)     dimensions
     Largest temporary arrays     est. size (Mb)     dimensions

     Initial potential from superposition of free atoms
     Check: negative starting charge=   -1.669150

     starting charge  170.99326, renormalised to  174.00000

     negative rho (up, down):  1.698E+00 0.000E+00

     *
     * You are using vdW-DF for exchange-correlation in this calculation.
     * Please cite the following three references that made this development
     * possible:
     *
     *   M. Dion, H. Rydberg, E. Schroder, D. C. Langreth, and
     *   B. I. Lundqvist, Phys. Rev. Lett. 92, 246401 (2004).
     *
     *   T. Thonhauser, V. R. Cooper, S. Li, A. Puzder, P. Hyldgaard, and
     *   D. C. Langreth, Phys. Rev. B 76, 125112 (2007).
     *
     *   G. Roman-Perez and J. M. Soler, Phys. Rev. Lett. 103, 096102 (2009).
     *
     *
     * If you are using vdW-DF2, please also cite:
     *
     *   K. Lee, E. D. Murray, L. Kong, B. I. Lundqvist, and
     *   D. C. Langreth, Phys. Rev. B 82, 081101(R) (2010).
     *
     *
     * If you are calculating the stress with vdW-DF, please also cite:
     *
     *   R. Sabatini, E. Kucukbenli, B. Kolb, T. Thonhauser, and
     *   S. de Gironcoli, J. Phys.: Condens. Matter 24, 424209 (2012).
     *

     Carrying out vdW-DF run using the following parameters:

     Nqs =      20    Nr_points =    1024   r_max =   100.000
     q_mesh =
               0.00001000     0.04494208     0.09755937     0.15916263
               0.23128650     0.31572767     0.41458969     0.53033537
               0.66584808     0.82450364     1.01025438     1.22772762
               1.48234092     1.78043706     2.12944203     2.53805004
               3.01644009     3.57652955     4.23227104     5.00000000

     Gradients computed in reciprocal space

     Adding external electric field

     Computed dipole along edir(3) :
        Dipole                0.0000 Ry au,          0.0000 Debye
        Dipole field          0.0000 Ry au

        Potential amp.       -0.0000 Ry
        Total length         45.4469 bohr

     Starting wfc are  150 randomized atomic wfcs

     Self-consistent Calculation

     iteration #  1     ecut=    36.75 Ry     beta=0.10
     Davidson diagonalization with overlap
     ethr =  1.00E-02,  avg # of iterations =  5.5

[...]

     total energy              =   -2133.62968023 Ry
     Harris-Foulkes estimate   =   -2135.46228495 Ry
     estimated scf accuracy    <      11.05423187 Ry

[...]

     End of self-consistent calculation

          k = 0.0000 0.0000 0.0000 ( 17757 PWs)   bands (ev):

   -66.4097 -66.4081 -66.3561 -66.3547 -66.1790 -66.1239 -51.2490 -51.1741
   -51.1556 -51.0787 -51.0604 -51.0575 -50.6832 -50.6813 -50.6742 -50.6739
   -50.6646 -50.6627 -50.4988 -50.4923 -50.4835 -50.4835 -50.4817 -50.4751
   -32.9927 -32.9666 -32.9659 -32.9165 -32.8836 -32.8701 -32.8017 -32.7920
   -32.7192 -32.7141 -32.6467 -32.6310 -32.5521 -32.2520 -32.1690 -32.1631
   -32.1498 -32.0980  -6.2793  -4.5337  -4.0503  -3.7109  -3.6451  -3.5454
    -3.5170  -3.3852  -3.2160  -2.9527  -2.8850  -2.8349  -2.8336  -2.7387
    -2.5045  -1.7338  -1.4996  -1.4398  -1.2950  -1.1631  -1.0239  -0.8560
    -0.7098  -0.6484  -0.5325  -0.3841  -0.3349  -0.0312  -0.0268   0.6734
     0.7803   0.7922   0.9063   0.9328   1.1750   1.4657   1.5723   1.5780
     1.6662   1.8455   2.2397   2.5052   2.5207   2.6769   2.6805   2.7686
     3.2900   3.3193   3.4164   3.6841   3.8834   3.9371   3.9534   3.9872
     4.2090   4.7499   5.0784   5.4125   5.4828   5.7345   5.8197   5.9049
     6.1555   6.2542   6.4344   6.4383   6.4544   6.5068   6.5922   6.6572
     6.6878   6.7675   6.9856   6.9885   7.2160

[...]

          k =-0.0883-0.0500 0.0000 ( 17692 PWs)   bands (ev):

[...]

     the Fermi energy is     2.3402 ev

!    total energy              =   -2133.75256851 Ry
     Harris-Foulkes estimate   =   -2133.75257131 Ry
     estimated scf accuracy    <       0.00000020 Ry

     The total energy is the sum of the following terms:

     one-electron contribution =  -15684.94039523 Ry
     hartree contribution      =    7851.68767810 Ry
     xc contribution           =    -613.16861414 Ry
     ewald contribution        =    6312.72763362 Ry
     electric field correction =       0.00000000 Ry
     smearing contrib. (-TS)   =      -0.05887085 Ry

     convergence has been achieved in  16 iterations

 BEEF-vdW xc energy contributions
           1 :   -543.551398578352
           2 :    504.478332237238
           3 :   -435.024615377224
           4 :    349.395795299710
           5 :   -262.673447269773
           6 :    186.613081833395
           7 :   -127.313885686011
           8 :    85.1922399619978
[...]

[...]

     Program PWSCF v.5.1rc2 (svn rev. 11289) starts on 19Dec2018 at  7:20: 4

[...]

     Program PWSCF v.5.1rc2 (svn rev. 11289) starts on 19Dec2018 at  7:34: 3

[...]

     Program PWSCF v.5.1rc2 (svn rev. 11289) starts on 19Dec2018 at  7:47:58

[...]

   This run was terminated on:   8: 1:47  19Dec2018

[...]

     Program PWSCF v.5.1rc2 (svn rev. 11289) starts on 19Dec2018 at  8: 1:53

     Current dimensions of program PWSCF are:
     Max number of different atomic species (ntypx) = 10
     Max number of k-points (npk) =  40000
     Max angular momentum in pseudopotentials (lmaxx) =  3
     Presently stress not available with electric field

     IMPORTANT: XC functional enforced from input :
     Exchange-correlation      = BEEF-VDW ( 1  4 27 13 2)
     Any further DFT definition will be discarded
     Please, verify this is what you really want

     Subspace diagonalization in iterative solution of the eigenvalue problem:
     a serial algorithm will be used

     Found symmetry operation: I + ( -0.5000  0.0000  0.0000)
     This is a supercell, fractional translations are disabled

     bravais-lattice index     =            0
     lattice parameter (alat)  =       1.8897  a.u.
     unit-cell volume          =    4710.5559 (a.u.)^3
     number of atoms/cell      =           12
     number of atomic types    =            2
     number of electrons       =       174.00
     number of Kohn-Sham states=          117
     kinetic-energy cutoff     =      36.7493  Ry
     charge density cutoff     =     367.4932  Ry
     convergence threshold     =      1.0E-06
     mixing beta               =       0.1000
     number of iterations used =           10  plain     mixing
     Exchange-correlation      = BEEF-VDW ( 1  4 27 13 2)
     nstep                     =           50

     celldm(1)=   1.889726  celldm(2)=   0.000000  celldm(3)=   0.000000
     celldm(4)=   0.000000  celldm(5)=   0.000000  celldm(6)=   0.000000

     crystal axes: (cart. coord. in units of alat)
               a(1) = (   5.660833   0.000000   0.000000 )
               a(2) = (  -2.830416   4.999131   0.000000 )
               a(3) = (   0.000000   0.000000  24.666114 )

     reciprocal axes: (cart. coord. in units 2 pi/alat)
               b(1) = (  0.176652  0.100017  0.000000 )
               b(2) = (  0.000000  0.200035  0.000000 )
               b(3) = (  0.000000  0.000000  0.040541 )

     PseudoPot. # 1 for Ta read from file:
     /afs/slac.stanford.edu/u/if/mamunm/psp/gbrv1.5pbe/Ta.UPF
     MD5 check sum: f8bbe9446314a3b8ea5d9f3e3836c939
     Pseudo is Ultrasoft + core correction, Zval = 13.0
     Generated by new atomic code, or converted to UPF format
     Using radial grid of  921 points,  7 beta functions with:
                l(1) =   0
                l(2) =   0
                l(3) =   1
                l(4) =   1
                l(5) =   2
                l(6) =   2
                l(7) =   3
     Q(r) pseudized with  6 coefficients,  rinner =    1.300   1.300   1.300
                                                       1.300   1.300   1.300
                                                       1.300

     PseudoPot. # 2 for Pt read from file:
     /afs/slac.stanford.edu/u/if/mamunm/psp/gbrv1.5pbe/Pt.UPF
     MD5 check sum: f09d6de1a584b5a045c4fc126da2d0c4
     Pseudo is Ultrasoft + core correction, Zval = 16.0
     Generated by new atomic code, or converted to UPF format
     Using radial grid of  985 points,  6 beta functions with:
                l(1) =   0
                l(2) =   0
                l(3) =   1
                l(4) =   1
                l(5) =   2
                l(6) =   2
     Q(r) pseudized with  8 coefficients,  rinner =    1.300   1.300   1.300
                                                       1.300   1.300

     vdW kernel table read from file vdW_kernel_table
     MD5 check sum: 095c7af220d748ca6e76c0b4c6cfb241

     atomic species   valence    mass     pseudopotential
        Ta1           13.00   180.94788     Ta( 1.00)
        Pt1           16.00   195.08400     Pt( 1.00)

     No symmetry found

   Cartesian axes

     site n.     atom                  positions (alat units)
         1           Ta1 tau(   1) = (   0.0000000   0.0000000  10.0000000  )
         2           Ta1 tau(   2) = (   2.8304164   0.0000000  10.0000000  )
         3           Pt1 tau(   3) = (   1.4152082   2.4995654  10.0000000  )
         4           Pt1 tau(   4) = (  -1.4152082   2.4995654  10.0000000  )
         5           Ta1 tau(   5) = (   2.8304164   1.6025300  12.3330569  )
         6           Ta1 tau(   6) = (   0.0000000   1.6025300  12.3330569  )
         7           Pt1 tau(   7) = (  -1.4152082   4.1020954  12.3330569  )
         8           Pt1 tau(   8) = (   1.4152082   4.1020954  12.3330569  )
         9           Ta1 tau(   9) = (   0.0000048   3.3130380  14.5782830  )
        10           Ta1 tau(  10) = (   2.8304108   3.3130368  14.5782822  )
        11           Pt1 tau(  11) = (   4.2456208   0.8876613  14.6349631  )
        12           Pt1 tau(  12) = (   1.4152113   0.8876621  14.6349626  )

     number of k points=    20  Fermi-Dirac smearing, width (Ry)=  0.0110
                       cart. coord. in units 2pi/alat
        k(    1) = (   0.0000000   0.0000000   0.0000000), wk =   0.0555556
        k(    2) = (   0.0000000   0.0333391   0.0000000), wk =   0.1111111
        k(    3) = (   0.0000000   0.0666783   0.0000000), wk =   0.1111111
        k(    4) = (   0.0000000  -0.1000174   0.0000000), wk =   0.0555556
        k(    5) = (   0.0294421   0.0166696   0.0000000), wk =   0.1111111
        k(    6) = (   0.0294421   0.0500087   0.0000000), wk =   0.1111111
        k(    7) = (   0.0294421   0.0833478   0.0000000), wk =   0.1111111
        k(    8) = (   0.0294421  -0.0833478   0.0000000), wk =   0.1111111
        k(    9) = (   0.0294421  -0.0500087   0.0000000), wk =   0.1111111
        k(   10) = (   0.0294421  -0.0166696   0.0000000), wk =   0.1111111
        k(   11) = (   0.0588842   0.0333391   0.0000000), wk =   0.1111111
        k(   12) = (   0.0588842   0.0666783   0.0000000), wk =   0.1111111
        k(   13) = (   0.0588842   0.1000174   0.0000000), wk =   0.1111111
        k(   14) = (   0.0588842  -0.0666783   0.0000000), wk =   0.1111111
        k(   15) = (   0.0588842  -0.0333391   0.0000000), wk =   0.1111111
        k(   16) = (   0.0588842   0.0000000   0.0000000), wk =   0.1111111
        k(   17) = (  -0.0883262  -0.0500087   0.0000000), wk =   0.0555556
        k(   18) = (  -0.0883262  -0.0166696   0.0000000), wk =   0.1111111
        k(   19) = (  -0.0883262   0.0166696   0.0000000), wk =   0.1111111
        k(   20) = (  -0.0883262  -0.1500261   0.0000000), wk =   0.0555556

     Largest allocated arrays     est. size (Mb)     dimensions
     Largest temporary arrays     est. size (Mb)     dimensions

     Initial potential from superposition of free atoms
     Check: negative starting charge=   -1.673421

     starting charge  170.99326, renormalised to  174.00000

[...]

     *
     * You are using vdW-DF for exchange-correlation in this calculation.
     * Please cite the following three references that made this development
     * possible:
     *
     *   M. Dion, H. Rydberg, E. Schroder, D. C. Langreth, and
     *   B. I. Lundqvist, Phys. Rev. Lett. 92, 246401 (2004).
     *
     *   T. Thonhauser, V. R. Cooper, S. Li, A. Puzder, P. Hyldgaard, and
     *   D. C. Langreth, Phys. Rev. B 76, 125112 (2007).
     *
     *   G. Roman-Perez and J. M. Soler, Phys. Rev. Lett. 103, 096102 (2009).
     *
     *
     * If you are using vdW-DF2, please also cite:
     *
     *   K. Lee, E. D. Murray, L. Kong, B. I. Lundqvist, and
     *   D. C. Langreth, Phys. Rev. B 82, 081101(R) (2010).
     *
     *
     * If you are calculating the stress with vdW-DF, please also cite:
     *
     *   R. Sabatini, E. Kucukbenli, B. Kolb, T. Thonhauser, and
     *   S. de Gironcoli, J. Phys.: Condens. Matter 24, 424209 (2012).
     *

     Carrying out vdW-DF run using the following parameters:

     Nqs =      20    Nr_points =    1024   r_max =   100.000
     q_mesh =
               0.00001000     0.04494208     0.09755937     0.15916263
               0.23128650     0.31572767     0.41458969     0.53033537
               0.66584808     0.82450364     1.01025438     1.22772762
               1.48234092     1.78043706     2.12944203     2.53805004
               3.01644009     3.57652955     4.23227104     5.00000000

     Gradients computed in reciprocal space

[...]

     Starting wfc are  150 randomized atomic wfcs

     Self-consistent Calculation

[...]

     total energy              =   -2133.76568667 Ry
     Harris-Foulkes estimate   =   -2133.76568566 Ry
     estimated scf accuracy    <       0.00000145 Ry

     iteration # 16     ecut=    36.75 Ry     beta=0.10
     Davidson diagonalization with overlap
     ethr =  8.34E-10,  avg # of iterations =  2.1

[...]

     negative rho (up, down):  1.647E+00 0.000E+00

     Adding external electric field

     Computed dipole along edir(3) :
        Dipole                0.0108 Ry au,          0.0273 Debye
        Dipole field          0.0000 Ry au

        Potential amp.       -0.0026 Ry
        Total length         45.4469 bohr

     End of self-consistent calculation

[...]

          k = 0.0589 0.0000 0.0000 ( 17760 PWs)   bands (ev):

[...]

          k =-0.0883-0.1500 0.0000 ( 17692 PWs)   bands (ev):

   -66.3572 -66.3572 -66.3285 -66.3285 -66.1310 -66.1310 -51.2554 -51.2554
   -51.2462 -51.2462 -51.1407 -51.1407 -50.7224 -50.7224 -50.6566 -50.6566
   -50.6498 -50.6498 -50.5648 -50.5648 -50.5609 -50.5609 -50.4706 -50.4706
   -32.8976 -32.8976 -32.8023 -32.8023 -32.7376 -32.7376 -32.6537 -32.6537
   -32.5853 -32.5853 -32.5702 -32.5702 -32.5406 -32.5406 -32.5022 -32.5022
   -32.1946 -32.1946  -4.5172  -4.5172  -3.1730  -3.1730  -2.8139  -2.8139
    -2.7607  -2.7607  -2.5276  -2.5276  -2.2689  -2.2689  -2.0237  -2.0237
    -1.9631  -1.9631  -1.5414  -1.5414  -1.2764  -1.2764  -1.1640  -1.1640
    -0.9194  -0.9194  -0.8709  -0.8709  -0.7702  -0.7702  -0.7037  -0.7037
    -0.5226  -0.5226  -0.2099  -0.2099   0.6158   0.6158   1.1081   1.1081
     1.2207   1.2207   1.8146   1.8146   2.0358   2.0358   2.6024   2.6024
     3.0207   3.0207   3.2595   3.2595   3.4855   3.4856   3.5604   3.5604
     3.6796   3.6796   3.9764   3.9765   4.7460   4.7461   5.2835   5.2835
     5.6630   5.6630   5.9707   5.9707   6.7863   6.7863   7.2117   7.2117
     7.4380   7.4380   7.9541   7.9544   8.4309

     the Fermi energy is     2.3554 ev

!    total energy              =   -2133.76568324 Ry
     Harris-Foulkes estimate   =   -2133.76568675 Ry
     estimated scf accuracy    <       0.00000090 Ry

     The total energy is the sum of the following terms:

     one-electron contribution =  -15812.22773477 Ry
     hartree contribution      =    7915.24741179 Ry
     xc contribution           =    -613.31438340 Ry
     ewald contribution        =    6376.58706603 Ry
     electric field correction =       0.00000031 Ry
     smearing contrib. (-TS)   =      -0.05804320 Ry

     convergence has been achieved in  16 iterations

 BEEF-vdW xc energy contributions
           1 :   -543.700133989839
           2 :    504.678175705089
           3 :   -435.290312260182
           4 :    349.690020351840
           5 :   -262.922291251100
           6 :    186.744948393565
           7 :   -127.299488163692
           8 :    85.0620472949841
           9 :   -56.5987363213393
          10 :    37.0501320289192
          11 :   -22.2613850306215
          12 :    9.87667982811467
          13 :   0.672620536624663
          14 :   -8.90660132864377
          15 :    14.1993113279254
          16 :   -16.4085760328168
          17 :    16.0485651245915
          18 :   -14.0866704130106
          19 :    11.5783994216868
          20 :   -9.35988888404256
          21 :    7.90510247598604
          22 :   -7.33735839995791
          23 :    7.51338739329879
          24 :   -8.11886932035713
          25 :    8.75989147287771
          26 :   -9.06773207362914
          27 :    8.81239670979437
          28 :   -7.98976604923450
          29 :    6.82981220062084
          30 :   -5.70413073009013
          31 :   -46.1744094531392
          32 :   -34.2636463598927

     Forces acting on atoms (Ry/au):

     negative rho (up, down):  1.647E+00 0.000E+00
     atom    1 type  1   force =    -0.00000023    0.01008637    0.01830051
     atom    2 type  1   force =     0.00000023    0.01008618    0.01830035
     atom    3 type  2   force =    -0.00000016   -0.02934320    0.00525355
     atom    4 type  2   force =     0.00000045   -0.02934309    0.00525359
     atom    5 type  1   force =     0.00000017    0.00903627   -0.01433375
     atom    6 type  1   force =    -0.00000018    0.00903590   -0.01433299
     atom    7 type  2   force =     0.00000003    0.01012941   -0.00985166
     atom    8 type  2   force =    -0.00000009    0.01012939   -0.00985188
     atom    9 type  1   force =    -0.00000357   -0.00019281    0.00004143
     atom   10 type  1   force =     0.00000349   -0.00019137    0.00004193
     atom   11 type  2   force =     0.00000225    0.00028380    0.00058938
     atom   12 type  2   force =    -0.00000239    0.00028316    0.00058954

     Total force =     0.060208     Total SCF correction =     0.001882

     entering subroutine stress ...

     negative rho (up, down):  1.647E+00 0.000E+00
          total   stress  (Ry/bohr**3)                   (kbar)     P=  -22.65
  -0.00012967  -0.00000000   0.00000000        -19.08     -0.00      0.00
  -0.00000000  -0.00025468   0.00003582         -0.00    -37.46      5.27
   0.00000000   0.00003582  -0.00007751          0.00      5.27    -11.40

 !ASE

     Writing output data file calc.save

     General routines

     Parallel routines

   This run was terminated on:   8:15:41  19Dec2018

   JOB DONE.
Job  /afs/slac/g/suncat/bin/suncat-tsmpirun -x LD_LIBRARY_PATH -wdir /scratch/qe530630_NhfIJ pw.x -in pw.inp

TID   HOST_NAME   COMMAND_LINE            STATUS            TERMINATION_TIME
00000 suncat2071 pw.x -in pw.inp   Done                     12/19/2018 08:15:41
00001 suncat2071 pw.x -in pw.inp   Done                     12/19/2018 08:15:41
00002 suncat2071 pw.x -in pw.inp   Done                     12/19/2018 08:15:41
00003 suncat2071 pw.x -in pw.inp   Done                     12/19/2018 08:15:41
00004 suncat2071 pw.x -in pw.inp   Done                     12/19/2018 08:15:41
00005 suncat2071 pw.x -in pw.inp   Done                     12/19/2018 08:15:41
00006 suncat2071 pw.x -in pw.inp   Done                     12/19/2018 08:15:41
00007 suncat2071 pw.x -in pw.inp   Done                     12/19/2018 08:15:41
00008 suncat2071 pw.x -in pw.inp   Done                     12/19/2018 08:15:41
00009 suncat2071 pw.x -in pw.inp   Done                     12/19/2018 08:15:41
00010 suncat2071 pw.x -in pw.inp   Done                     12/19/2018 08:15:41
00011 suncat2071 pw.x -in pw.inp   Done                     12/19/2018 08:15:41
00012 suncat2071 pw.x -in pw.inp   Done                     12/19/2018 08:15:41
00013 suncat2071 pw.x -in pw.inp   Done                     12/19/2018 08:15:41
00014 suncat2071 pw.x -in pw.inp   Done                     12/19/2018 08:15:41
00015 suncat2071 pw.x -in pw.inp   Done                     12/19/2018 08:15:41
00016 suncat2070 pw.x -in pw.inp   Done                     12/19/2018 08:15:41
00017 suncat2070 pw.x -in pw.inp   Done                     12/19/2018 08:15:41
00018 suncat2070 pw.x -in pw.inp   Done                     12/19/2018 08:15:41
00019 suncat2070 pw.x -in pw.inp   Done                     12/19/2018 08:15:41
00020 suncat2070 pw.x -in pw.inp   Done                     12/19/2018 08:15:41
00021 suncat2070 pw.x -in pw.inp   Done                     12/19/2018 08:15:41
00022 suncat2070 pw.x -in pw.inp   Done                     12/19/2018 08:15:41
00023 suncat2070 pw.x -in pw.inp   Done                     12/19/2018 08:15:41
00024 suncat2070 pw.x -in pw.inp   Done                     12/19/2018 08:15:41
00025 suncat2070 pw.x -in pw.inp   Done                     12/19/2018 08:15:41
00026 suncat2070 pw.x -in pw.inp   Done                     12/19/2018 08:15:41
00027 suncat2070 pw.x -in pw.inp   Done                     12/19/2018 08:15:41
00028 suncat2070 pw.x -in pw.inp   Done                     12/19/2018 08:15:41
00029 suncat2070 pw.x -in pw.inp   Done                     12/19/2018 08:15:41
00030 suncat2070 pw.x -in pw.inp   Done                     12/19/2018 08:15:41
00031 suncat2070 pw.x -in pw.inp   Done                     12/19/2018 08:15:41