     Program PWSCF v.5.1rc2 (svn rev. 11289) starts on 25Dec2018 at  1:26:52

     Current dimensions of program PWSCF are:
     Max number of different atomic species (ntypx) = 10
     Max number of k-points (npk) =  40000
     Max angular momentum in pseudopotentials (lmaxx) =  3
     Presently stress not available with electric field

     IMPORTANT: XC functional enforced from input :
     Exchange-correlation      = BEEF-VDW ( 1  4 27 13 2)
     Any further DFT definition will be discarded
     Please, verify this is what you really want

     Subspace diagonalization in iterative solution of the eigenvalue problem:
     a serial algorithm will be used

     Found symmetry operation: I + (  0.5000 -0.5000  0.0000)
     This is a supercell, fractional translations are disabled

     bravais-lattice index     =            0
     lattice parameter (alat)  =       1.8897  a.u.
     unit-cell volume          =    6155.3572 (a.u.)^3
     number of atoms/cell      =           12
     number of atomic types    =            2
     number of electrons       =       162.00
     number of Kohn-Sham states=          111
     kinetic-energy cutoff     =      36.7493  Ry
     charge density cutoff     =     367.4932  Ry
     convergence threshold     =      1.0E-06
     mixing beta               =       0.1000
     number of iterations used =           10  plain     mixing
     Exchange-correlation      = BEEF-VDW ( 1  4 27 13 2)
     nstep                     =           50

     celldm(1)=   1.889726  celldm(2)=   0.000000  celldm(3)=   0.000000
     celldm(4)=   0.000000  celldm(5)=   0.000000  celldm(6)=   0.000000

     crystal axes: (cart. coord. in units of alat)
               a(1) = (   6.210709   0.000000   0.000000 )
               a(2) = (   2.061652   5.858540   0.000000 )
               a(3) = (   0.000000   0.000000  25.068369 )

     reciprocal axes: (cart. coord. in units 2 pi/alat)
               b(1) = (  0.161012 -0.056661  0.000000 )
               b(2) = (  0.000000  0.170691  0.000000 )
               b(3) = (  0.000000  0.000000  0.039891 )

     PseudoPot. # 1 for La read from file:
     /afs/slac.stanford.edu/u/if/mamunm/psp/gbrv1.5pbe/La.UPF
     MD5 check sum: 5937b0c7494ba0601a847275249473aa
     Pseudo is Ultrasoft + core correction, Zval = 11.0
     Generated by new atomic code, or converted to UPF format
     Using radial grid of  995 points,  8 beta functions with:
                l(1) =   0
                l(2) =   0
                l(3) =   1
                l(4) =   1
                l(5) =   2
                l(6) =   2
                l(7) =   3
                l(8) =   3
     Q(r) pseudized with  8 coefficients,  rinner =    1.700   1.700   1.700
                                                       1.700   1.700   1.700
                                                       1.700

     PseudoPot. # 2 for Ru read from file:
     /afs/slac.stanford.edu/u/if/mamunm/psp/gbrv1.5pbe/Ru.UPF
     MD5 check sum: 7158a806dd851261a58e6920c40ebe78
     Pseudo is Ultrasoft + core correction, Zval = 16.0
     Generated by new atomic code, or converted to UPF format
     Using radial grid of  967 points,  6 beta functions with:
                l(1) =   0
                l(2) =   0
                l(3) =   1
                l(4) =   1
                l(5) =   2
                l(6) =   2
     Q(r) pseudized with  8 coefficients,  rinner =    1.300   1.300   1.300
                                                       1.300   1.300

     vdW kernel table read from file vdW_kernel_table
     MD5 check sum: 095c7af220d748ca6e76c0b4c6cfb241

     atomic species   valence    mass     pseudopotential
        La1           11.00   138.90547     La( 1.00)
        Ru1           16.00   101.07000     Ru( 1.00)

     No symmetry found

   Cartesian axes

     site n.     atom                  positions (alat units)
         1           La1 tau(   1) = (   0.0000000   0.0000000  10.0000000  )
         2           La1 tau(   2) = (   4.1361803   2.9292701  10.0000000  )
         3           Ru1 tau(   3) = (   3.1053544   0.0000000  10.0000000  )
         4           Ru1 tau(   4) = (   1.0308260   2.9292701  10.0000000  )
         5           La1 tau(   5) = (   6.2107087   4.3984648  12.5341844  )
         6           La1 tau(   6) = (   2.0745284   1.4691947  12.5341844  )
         7           Ru1 tau(   7) = (   3.1053544   4.3984648  12.5341844  )
         8           Ru1 tau(   8) = (   5.1798828   1.4691947  12.5341844  )
         9           La1 tau(   9) = (   4.1490568   2.9383893  15.0683688  )
        10           La1 tau(  10) = (   0.0128764   0.0091192  15.0683688  )
        11           Ru1 tau(  11) = (   1.0437024   2.9383893  15.0683688  )
        12           Ru1 tau(  12) = (   3.1182308   0.0091192  15.0683688  )

     number of k points=    20  Fermi-Dirac smearing, width (Ry)=  0.0110
                       cart. coord. in units 2pi/alat
        k(    1) = (   0.0000000   0.0000000   0.0000000), wk =   0.0555556
        k(    2) = (   0.0000000   0.0284485   0.0000000), wk =   0.1111111
        k(    3) = (   0.0000000   0.0568970   0.0000000), wk =   0.1111111
        k(    4) = (   0.0000000  -0.0853455   0.0000000), wk =   0.0555556
        k(    5) = (   0.0268354  -0.0094435   0.0000000), wk =   0.1111111
        k(    6) = (   0.0268354   0.0190050   0.0000000), wk =   0.1111111
        k(    7) = (   0.0268354   0.0474535   0.0000000), wk =   0.1111111
        k(    8) = (   0.0268354  -0.0947890   0.0000000), wk =   0.1111111
        k(    9) = (   0.0268354  -0.0663405   0.0000000), wk =   0.1111111
        k(   10) = (   0.0268354  -0.0378920   0.0000000), wk =   0.1111111
        k(   11) = (   0.0536707  -0.0188870   0.0000000), wk =   0.1111111
        k(   12) = (   0.0536707   0.0095615   0.0000000), wk =   0.1111111
        k(   13) = (   0.0536707   0.0380100   0.0000000), wk =   0.1111111
        k(   14) = (   0.0536707  -0.1042325   0.0000000), wk =   0.1111111
        k(   15) = (   0.0536707  -0.0757840   0.0000000), wk =   0.1111111
        k(   16) = (   0.0536707  -0.0473355   0.0000000), wk =   0.1111111
        k(   17) = (  -0.0805061   0.0283305   0.0000000), wk =   0.0555556
        k(   18) = (  -0.0805061   0.0567790   0.0000000), wk =   0.1111111
        k(   19) = (  -0.0805061   0.0852275   0.0000000), wk =   0.1111111
        k(   20) = (  -0.0805061  -0.0570150   0.0000000), wk =   0.0555556

     Largest allocated arrays     est. size (Mb)     dimensions
     Largest temporary arrays     est. size (Mb)     dimensions

     Initial potential from superposition of free atoms
     Check: negative starting charge=   -0.851850

     starting charge  155.80749, renormalised to  162.00000

     negative rho (up, down):  8.857E-01 0.000E+00

     *
     * You are using vdW-DF for exchange-correlation in this calculation.
     * Please cite the following three references that made this development
     * possible:
     *
     *   M. Dion, H. Rydberg, E. Schroder, D. C. Langreth, and
     *   B. I. Lundqvist, Phys. Rev. Lett. 92, 246401 (2004).
     *
     *   T. Thonhauser, V. R. Cooper, S. Li, A. Puzder, P. Hyldgaard, and
     *   D. C. Langreth, Phys. Rev. B 76, 125112 (2007).
     *
     *   G. Roman-Perez and J. M. Soler, Phys. Rev. Lett. 103, 096102 (2009).
     *
     *
     * If you are using vdW-DF2, please also cite:
     *
     *   K. Lee, E. D. Murray, L. Kong, B. I. Lundqvist, and
     *   D. C. Langreth, Phys. Rev. B 82, 081101(R) (2010).
     *
     *
     * If you are calculating the stress with vdW-DF, please also cite:
     *
     *   R. Sabatini, E. Kucukbenli, B. Kolb, T. Thonhauser, and
     *   S. de Gironcoli, J. Phys.: Condens. Matter 24, 424209 (2012).
     *

     Carrying out vdW-DF run using the following parameters:

     Nqs =      20    Nr_points =    1024   r_max =   100.000
     q_mesh =
               0.00001000     0.04494208     0.09755937     0.15916263
               0.23128650     0.31572767     0.41458969     0.53033537
               0.66584808     0.82450364     1.01025438     1.22772762
               1.48234092     1.78043706     2.12944203     2.53805004
               3.01644009     3.57652955     4.23227104     5.00000000

     Gradients computed in reciprocal space

     Adding external electric field

     Computed dipole along edir(3) :
        Dipole                0.0000 Ry au,          0.0000 Debye
        Dipole field          0.0000 Ry au

        Potential amp.       -0.0000 Ry
        Total length         46.1880 bohr

     Starting wfc are  198 randomized atomic wfcs

     Self-consistent Calculation

     iteration #  1     ecut=    36.75 Ry     beta=0.10
     Davidson diagonalization with overlap
     ethr =  1.00E-02,  avg # of iterations =  2.0

[...]

     total energy              =   -1794.41197134 Ry
     Harris-Foulkes estimate   =   -1796.26271176 Ry
     estimated scf accuracy    <      10.79254824 Ry

[...]

     iteration # 12     ecut=    36.75 Ry     beta=0.10
     Davidson diagonalization with overlap
     c_bands:  1 eigenvalues not converged
     c_bands:  1 eigenvalues not converged
     c_bands:  1 eigenvalues not converged
     c_bands:  1 eigenvalues not converged
     ethr =  1.92E-06,  avg # of iterations = 12.2

[...]

     End of self-consistent calculation

          k = 0.0000 0.0000 0.0000 ( 23165 PWs)   bands (ev):

   -69.6776 -69.6765 -69.4231 -69.4230 -69.4220 -69.4220 -39.7063 -39.7047
   -39.7017 -39.6808 -39.6695 -39.6672 -39.4917 -39.4913 -39.4895 -39.4890
   -39.4601 -39.4599 -39.4356 -39.4355 -39.3781 -39.3772 -39.3750 -39.3749
   -30.5279 -30.5164 -30.4151 -30.4137 -29.8039 -29.7063 -14.6895 -14.6659
   -14.3664 -14.3076 -14.2864 -14.2559 -14.2118 -14.1391 -14.1102 -14.0334
   -14.0118 -13.6566 -13.6549 -13.4567 -13.4219 -13.2792 -13.2430 -12.9653
    -1.3731  -0.9276  -0.8849  -0.8263  -0.6145  -0.4895  -0.4462  -0.1343
    -0.1174  -0.0983  -0.0288   0.1045   0.3986   0.4556   0.5222   0.5821
     0.5823   0.6015   0.6097   0.7912   0.8414   0.9353   1.1386   1.2676
     1.3532   1.4272   1.7244   1.8124   1.8507   2.0053   2.1810   2.1924
     2.1939   2.8643   3.0416   3.1094   3.2364   3.4227   3.4274   3.6942
     3.9897   4.1341   4.1997   4.2057   4.2071   4.2108   4.2308   4.2775
     4.3045   4.3427   4.3608   4.3932   4.4239   4.4973   4.5085   4.5130
     4.5814   4.5879   4.6424   4.6631   4.6657   4.6739   4.6986

[...]

          k =-0.0805 0.0283 0.0000 ( 23142 PWs)   bands (ev):

[...]

     the Fermi energy is     2.1160 ev

!    total energy              =   -1794.84140302 Ry
     Harris-Foulkes estimate   =   -1794.84140958 Ry
     estimated scf accuracy    <       0.00000062 Ry

     The total energy is the sum of the following terms:

     one-electron contribution =  -10491.74505448 Ry
     hartree contribution      =    5256.99861451 Ry
     xc contribution           =    -466.35647248 Ry
     ewald contribution        =    3906.35497064 Ry
     electric field correction =       0.00000001 Ry
     smearing contrib. (-TS)   =      -0.09346122 Ry

     convergence has been achieved in  22 iterations

[...]
     MD5 check sum: 5937b0c7494ba0601a847275249473aa
     Pseudo is Ultrasoft + core correction, Zval = 11.0
     Generated by new atomic code, or converted to UPF format
     Using radial grid of  995 points,  8 beta functions with:
                l(1) =   0
                l(2) =   0
                l(3) =   1
                l(4) =   1
                l(5) =   2
                l(6) =   2
                l(7) =   3
                l(8) =   3
     Q(r) pseudized with  8 coefficients,  rinner =    1.700   1.700   1.700
                                                       1.700   1.700   1.700
                                                       1.700

     PseudoPot. # 2 for Ru read from file:
     /afs/slac.stanford.edu/u/if/mamunm/psp/gbrv1.5pbe/Ru.UPF
     MD5 check sum: 7158a806dd851261a58e6920c40ebe78
     Pseudo is Ultrasoft + core correction, Zval = 16.0
     Generated by new atomic code, or converted to UPF format
     Using radial grid of  967 points,  6 beta functions with:
                l(1) =   0
                l(2) =   0
                l(3) =   1
                l(4) =   1
                l(5) =   2
                l(6) =   2
     Q(r) pseudized with  8 coefficients,  rinner =    1.300   1.300   1.300
                                                       1.300   1.300

     vdW kernel table read from file vdW_kernel_table
     MD5 check sum: 095c7af220d748ca6e76c0b4c6cfb241

     atomic species   valence    mass     pseudopotential
        La1           11.00   138.90547     La( 1.00)
        Ru1           16.00   101.07000     Ru( 1.00)

     No symmetry found

   Cartesian axes

     site n.     atom                  positions (alat units)
         1           La1 tau(   1) = (   0.0000000   0.0000000  10.0000000  )
         2           La1 tau(   2) = (   4.1361803   2.9292701  10.0000000  )
         3           Ru1 tau(   3) = (   3.1053544   0.0000000  10.0000000  )
         4           Ru1 tau(   4) = (   1.0308260   2.9292701  10.0000000  )
         5           La1 tau(   5) = (   6.2107087   4.3984648  12.5341844  )
         6           La1 tau(   6) = (   2.0745284   1.4691947  12.5341844  )
         7           Ru1 tau(   7) = (   3.1053544   4.3984648  12.5341844  )
         8           Ru1 tau(   8) = (   5.1798828   1.4691947  12.5341844  )
         9           La1 tau(   9) = (   4.1387612   2.9311105  15.1046256  )
        10           La1 tau(  10) = (   0.0026035   0.0018302  15.1046269  )
        11           Ru1 tau(  11) = (   1.0518443   2.9441479  14.6774673  )
        12           Ru1 tau(  12) = (   3.1264277   0.0149241  14.6775731  )

     number of k points=    20  Fermi-Dirac smearing, width (Ry)=  0.0110
                       cart. coord. in units 2pi/alat
        k(    1) = (   0.0000000   0.0000000   0.0000000), wk =   0.0555556
        k(    2) = (   0.0000000   0.0284485   0.0000000), wk =   0.1111111
        k(    3) = (   0.0000000   0.0568970   0.0000000), wk =   0.1111111
        k(    4) = (   0.0000000  -0.0853455   0.0000000), wk =   0.0555556
        k(    5) = (   0.0268354  -0.0094435   0.0000000), wk =   0.1111111
        k(    6) = (   0.0268354   0.0190050   0.0000000), wk =   0.1111111
        k(    7) = (   0.0268354   0.0474535   0.0000000), wk =   0.1111111
        k(    8) = (   0.0268354  -0.0947890   0.0000000), wk =   0.1111111
        k(    9) = (   0.0268354  -0.0663405   0.0000000), wk =   0.1111111
        k(   10) = (   0.0268354  -0.0378920   0.0000000), wk =   0.1111111
        k(   11) = (   0.0536707  -0.0188870   0.0000000), wk =   0.1111111
        k(   12) = (   0.0536707   0.0095615   0.0000000), wk =   0.1111111
        k(   13) = (   0.0536707   0.0380100   0.0000000), wk =   0.1111111
        k(   14) = (   0.0536707  -0.1042325   0.0000000), wk =   0.1111111
        k(   15) = (   0.0536707  -0.0757840   0.0000000), wk =   0.1111111
        k(   16) = (   0.0536707  -0.0473355   0.0000000), wk =   0.1111111
        k(   17) = (  -0.0805061   0.0283305   0.0000000), wk =   0.0555556
        k(   18) = (  -0.0805061   0.0567790   0.0000000), wk =   0.1111111
        k(   19) = (  -0.0805061   0.0852275   0.0000000), wk =   0.1111111
        k(   20) = (  -0.0805061  -0.0570150   0.0000000), wk =   0.0555556

     Largest allocated arrays     est. size (Mb)     dimensions
     Largest temporary arrays     est. size (Mb)     dimensions

     Initial potential from superposition of free atoms
     Check: negative starting charge=   -0.851518

     starting charge  155.80749, renormalised to  162.00000

[...]

     *
     * You are using vdW-DF for exchange-correlation in this calculation.
     * Please cite the following three references that made this development
     * possible:
     *
     *   M. Dion, H. Rydberg, E. Schroder, D. C. Langreth, and
     *   B. I. Lundqvist, Phys. Rev. Lett. 92, 246401 (2004).
     *
     *   T. Thonhauser, V. R. Cooper, S. Li, A. Puzder, P. Hyldgaard, and
     *   D. C. Langreth, Phys. Rev. B 76, 125112 (2007).
     *
     *   G. Roman-Perez and J. M. Soler, Phys. Rev. Lett. 103, 096102 (2009).
     *
     *
     * If you are using vdW-DF2, please also cite:
     *
     *   K. Lee, E. D. Murray, L. Kong, B. I. Lundqvist, and
     *   D. C. Langreth, Phys. Rev. B 82, 081101(R) (2010).
     *
     *
     * If you are calculating the stress with vdW-DF, please also cite:
     *
     *   R. Sabatini, E. Kucukbenli, B. Kolb, T. Thonhauser, and
     *   S. de Gironcoli, J. Phys.: Condens. Matter 24, 424209 (2012).
     *

     Carrying out vdW-DF run using the following parameters:

     Nqs =      20    Nr_points =    1024   r_max =   100.000
     q_mesh =
               0.00001000     0.04494208     0.09755937     0.15916263
               0.23128650     0.31572767     0.41458969     0.53033537
               0.66584808     0.82450364     1.01025438     1.22772762
               1.48234092     1.78043706     2.12944203     2.53805004
               3.01644009     3.57652955     4.23227104     5.00000000

     Gradients computed in reciprocal space

[...]

     Starting wfc are  198 randomized atomic wfcs

     Self-consistent Calculation

[...]

     total energy              =   -1794.87188189 Ry
     Harris-Foulkes estimate   =   -1794.87188437 Ry
     estimated scf accuracy    <       0.00000130 Ry

     iteration # 22     ecut=    36.75 Ry     beta=0.10
     Davidson diagonalization with overlap
     ethr =  8.02E-10,  avg # of iterations =  3.1

[...]

     negative rho (up, down):  6.849E-01 0.000E+00

     Adding external electric field

     Computed dipole along edir(3) :
        Dipole                0.1794 Ry au,          0.4559 Debye
        Dipole field          0.0004 Ry au

        Potential amp.       -0.0338 Ry
        Total length         46.1880 bohr

     End of self-consistent calculation

[...]

          k = 0.0537-0.0473 0.0000 ( 23166 PWs)   bands (ev):

[...]

          k =-0.0805-0.0570 0.0000 ( 23080 PWs)   bands (ev):

   -69.5229 -69.5219 -69.3780 -69.3769 -69.2784 -69.2774 -39.5496 -39.5436
   -39.5381 -39.5244 -39.5223 -39.5120 -39.4545 -39.4497 -39.4435 -39.4149
   -39.3464 -39.3428 -39.3374 -39.3333 -39.3123 -39.2872 -39.2476 -39.2453
   -30.5372 -30.4399 -30.3434 -30.2469 -29.3850 -29.2803 -14.7221 -14.5633
   -14.3966 -14.3321 -14.2060 -14.1396 -14.1016 -14.0975 -14.0050 -13.9138
   -13.7454 -13.6712 -13.5031 -13.1130 -13.1061 -13.0679 -13.0007 -12.6538
    -0.0759   0.0556   0.2061   0.2671   0.2736   0.3603   0.4257   0.6843
     0.7257   0.7583   0.7797   0.8831   0.8897   0.9468   1.0700   1.0786
     1.1878   1.3148   1.3516   1.3921   1.4252   1.4760   1.5450   1.5889
     1.6099   1.6114   1.6453   1.7068   1.7356   1.7892   1.8343   1.9616
     1.9786   2.1442   2.1763   2.2253   2.3121   2.3956   2.5918   2.9842
     3.1468   3.2228   3.3072   3.6948   3.7025   3.7557   3.8091   4.0385
     4.0824   4.2753   4.3285   4.3752   4.4170   4.5572   4.6086   4.6265
     4.6338   4.6383   4.6746   4.6795   4.6866   4.6934   4.7084

     the Fermi energy is     2.2859 ev

!    total energy              =   -1794.87187365 Ry
     Harris-Foulkes estimate   =   -1794.87188124 Ry
     estimated scf accuracy    <       0.00000074 Ry

     The total energy is the sum of the following terms:

     one-electron contribution =  -10803.00502964 Ry
     hartree contribution      =    5413.47258736 Ry
     xc contribution           =    -466.56078931 Ry
     ewald contribution        =    4061.30992955 Ry
     electric field correction =       0.00006569 Ry
     smearing contrib. (-TS)   =      -0.08863731 Ry

     convergence has been achieved in  22 iterations

 BEEF-vdW xc energy contributions
           1 :   -410.480347941158
           2 :    377.209573813345
           3 :   -318.707601741632
           4 :    248.058808922257
           5 :   -179.048653475237
           6 :    122.310350855364
           7 :   -83.1321335781559
           8 :    61.2375736220906
           9 :   -52.2364128919285
          10 :    50.0032841965382
          11 :   -49.0213083204032
          12 :    45.8682050395477
          13 :   -39.5377662703706
          14 :    30.8395578869453
          15 :   -21.4091121527837
          16 :    12.8236724827498
          17 :   -6.10683389850561
          18 :    1.64742027357113
          19 :   0.630054502509779
          20 :   -1.05986740984076
          21 :   0.121421884549306
          22 :    1.58772906788710
          23 :   -3.37856087816061
          24 :    4.57052108813178
          25 :   -4.66959307320002
          26 :    3.54951822261722
          27 :   -1.52795489133024
          28 :  -0.734721341868635
          29 :    2.49293469909725
          30 :   -3.22348709460266
          31 :   -37.3947145977127
          32 :   -27.3279489881108

     Forces acting on atoms (Ry/au):

     negative rho (up, down):  6.849E-01 0.000E+00
     atom    1 type  1   force =     0.00058701    0.00041543   -0.01906684
     atom    2 type  1   force =     0.00058725    0.00041440   -0.01906743
     atom    3 type  2   force =    -0.00045532   -0.00032325    0.03563081
     atom    4 type  2   force =    -0.00046028   -0.00032465    0.03563272
     atom    5 type  1   force =    -0.00039287   -0.00026601   -0.02345235
     atom    6 type  1   force =    -0.00038205   -0.00028201   -0.02345314
     atom    7 type  2   force =    -0.00012869   -0.00008883    0.00631946
     atom    8 type  2   force =    -0.00013232   -0.00009554    0.00631883
     atom    9 type  1   force =    -0.00007294   -0.00005856    0.00123092
     atom   10 type  1   force =    -0.00008020   -0.00005040    0.00123193
     atom   11 type  2   force =     0.00046342    0.00032882   -0.00065764
     atom   12 type  2   force =     0.00046698    0.00033060   -0.00066727

     Total force =     0.066731     Total SCF correction =     0.002236

     entering subroutine stress ...

     negative rho (up, down):  6.849E-01 0.000E+00
          total   stress  (Ry/bohr**3)                   (kbar)     P=  -12.07
  -0.00012571  -0.00004448   0.00000029        -18.49     -6.54      0.04
  -0.00004448  -0.00009440   0.00000020         -6.54    -13.89      0.03
   0.00000029   0.00000020  -0.00002598          0.04      0.03     -3.82

 !ASE

     Writing output data file calc.save

     General routines

     Parallel routines

   This run was terminated on:   4:50:58  25Dec2018

   JOB DONE.
Job  /afs/slac/g/suncat/bin/suncat-tsmpirun -x LD_LIBRARY_PATH -wdir /scratch/qe109078_PggSz pw.x -in pw.inp

TID   HOST_NAME   COMMAND_LINE            STATUS            TERMINATION_TIME
00000 suncat0048 pw.x -in pw.inp   Done                     12/25/2018 04:50:58
00001 suncat0048 pw.x -in pw.inp   Done                     12/25/2018 04:50:58
00002 suncat0048 pw.x -in pw.inp   Done                     12/25/2018 04:50:58
00003 suncat0048 pw.x -in pw.inp   Done                     12/25/2018 04:50:58
00004 suncat0048 pw.x -in pw.inp   Done                     12/25/2018 04:50:58
00005 suncat0048 pw.x -in pw.inp   Done                     12/25/2018 04:50:58
00006 suncat0048 pw.x -in pw.inp   Done                     12/25/2018 04:50:58
00007 suncat0048 pw.x -in pw.inp   Done                     12/25/2018 04:50:58
00008 suncat0047 pw.x -in pw.inp   Done                     12/25/2018 04:50:58
00009 suncat0047 pw.x -in pw.inp   Done                     12/25/2018 04:50:58
00010 suncat0047 pw.x -in pw.inp   Done                     12/25/2018 04:50:58
00011 suncat0047 pw.x -in pw.inp   Done                     12/25/2018 04:50:58
00012 suncat0047 pw.x -in pw.inp   Done                     12/25/2018 04:50:58
00013 suncat0047 pw.x -in pw.inp   Done                     12/25/2018 04:50:58
00014 suncat0047 pw.x -in pw.inp   Done                     12/25/2018 04:50:58
00015 suncat0047 pw.x -in pw.inp   Done                     12/25/2018 04:50:58
00016 suncat0193 pw.x -in pw.inp   Done                     12/25/2018 04:50:58
00017 suncat0193 pw.x -in pw.inp   Done                     12/25/2018 04:50:58
00018 suncat0193 pw.x -in pw.inp   Done                     12/25/2018 04:50:58
00019 suncat0193 pw.x -in pw.inp   Done                     12/25/2018 04:50:58
00020 suncat0193 pw.x -in pw.inp   Done                     12/25/2018 04:50:58
00021 suncat0193 pw.x -in pw.inp   Done                     12/25/2018 04:50:58
00022 suncat0193 pw.x -in pw.inp   Done                     12/25/2018 04:50:58
00023 suncat0193 pw.x -in pw.inp   Done                     12/25/2018 04:50:58
00024 suncat0192 pw.x -in pw.inp   Done                     12/25/2018 04:50:58
00025 suncat0192 pw.x -in pw.inp   Done                     12/25/2018 04:50:58
00026 suncat0192 pw.x -in pw.inp   Done                     12/25/2018 04:50:58
00027 suncat0192 pw.x -in pw.inp   Done                     12/25/2018 04:50:58
00028 suncat0192 pw.x -in pw.inp   Done                     12/25/2018 04:50:58
00029 suncat0192 pw.x -in pw.inp   Done                     12/25/2018 04:50:58
00030 suncat0192 pw.x -in pw.inp   Done                     12/25/2018 04:50:58
00031 suncat0192 pw.x -in pw.inp   Done                     12/25/2018 04:50:58
00032 suncat0155 pw.x -in pw.inp   Done                     12/25/2018 04:50:58
00033 suncat0155 pw.x -in pw.inp   Done                     12/25/2018 04:50:58
00034 suncat0155 pw.x -in pw.inp   Done                     12/25/2018 04:50:58
00035 suncat0155 pw.x -in pw.inp   Done                     12/25/2018 04:50:58
00036 suncat0155 pw.x -in pw.inp   Done                     12/25/2018 04:50:58
00037 suncat0155 pw.x -in pw.inp   Done                     12/25/2018 04:50:58
00038 suncat0155 pw.x -in pw.inp   Done                     12/25/2018 04:50:58
00039 suncat0155 pw.x -in pw.inp   Done                     12/25/2018 04:50:58
00040 suncat0154 pw.x -in pw.inp   Done                     12/25/2018 04:50:58
00041 suncat0154 pw.x -in pw.inp   Done                     12/25/2018 04:50:58
00042 suncat0154 pw.x -in pw.inp   Done                     12/25/2018 04:50:58
00043 suncat0154 pw.x -in pw.inp   Done                     12/25/2018 04:50:58
00044 suncat0154 pw.x -in pw.inp   Done                     12/25/2018 04:50:58
00045 suncat0154 pw.x -in pw.inp   Done                     12/25/2018 04:50:58
00046 suncat0154 pw.x -in pw.inp   Done                     12/25/2018 04:50:58
00047 suncat0154 pw.x -in pw.inp   Done                     12/25/2018 04:50:58
00048 suncat0209 pw.x -in pw.inp   Done                     12/25/2018 04:50:58
00049 suncat0209 pw.x -in pw.inp   Done                     12/25/2018 04:50:58
00050 suncat0209 pw.x -in pw.inp   Done                     12/25/2018 04:50:58
00051 suncat0209 pw.x -in pw.inp   Done                     12/25/2018 04:50:58
00052 suncat0209 pw.x -in pw.inp   Done                     12/25/2018 04:50:58
00053 suncat0209 pw.x -in pw.inp   Done                     12/25/2018 04:50:58
00054 suncat0209 pw.x -in pw.inp   Done                     12/25/2018 04:50:58
00055 suncat0209 pw.x -in pw.inp   Done                     12/25/2018 04:50:58
00056 suncat0203 pw.x -in pw.inp   Done                     12/25/2018 04:50:58
00057 suncat0203 pw.x -in pw.inp   Done                     12/25/2018 04:50:58
00058 suncat0203 pw.x -in pw.inp   Done                     12/25/2018 04:50:58
00059 suncat0203 pw.x -in pw.inp   Done                     12/25/2018 04:50:58
00060 suncat0203 pw.x -in pw.inp   Done                     12/25/2018 04:50:58
00061 suncat0203 pw.x -in pw.inp   Done                     12/25/2018 04:50:58
00062 suncat0203 pw.x -in pw.inp   Done                     12/25/2018 04:50:58
00063 suncat0203 pw.x -in pw.inp   Done                     12/25/2018 04:50:58