     Program PWSCF v.5.1rc2 (svn rev. 11289) starts on 24Dec2018 at 13:50:19

     Current dimensions of program PWSCF are:
     Max number of different atomic species (ntypx) = 10
     Max number of k-points (npk) =  40000
     Max angular momentum in pseudopotentials (lmaxx) =  3
     Presently stress not available with electric field

     IMPORTANT: XC functional enforced from input :
     Exchange-correlation      = BEEF-VDW ( 1  4 27 13 2)
     Any further DFT definition will be discarded
     Please, verify this is what you really want

     Subspace diagonalization in iterative solution of the eigenvalue problem:
     a serial algorithm will be used

     Found symmetry operation: I + (  0.5000 -0.5000  0.0000)
     This is a supercell, fractional translations are disabled

     Generating pointlists ...
     new r_m :   0.4125 (alat units)  0.7795 (a.u.) for type    1
     new r_m :   0.4125 (alat units)  0.7795 (a.u.) for type    2

     bravais-lattice index     =            0
     lattice parameter (alat)  =       1.8897  a.u.
     unit-cell volume          =    4216.0534 (a.u.)^3
     number of atoms/cell      =           12
     number of atomic types    =            2
     number of electrons       =       192.00
     number of Kohn-Sham states=          126
     kinetic-energy cutoff     =      36.7493  Ry
     charge density cutoff     =     367.4932  Ry
     convergence threshold     =      1.0E-06
     mixing beta               =       0.1000
     number of iterations used =           10  plain     mixing
     Exchange-correlation      = BEEF-VDW ( 1  4 27 13 2)
     nstep                     =           50

     celldm(1)=   1.889726  celldm(2)=   0.000000  celldm(3)=   0.000000
     celldm(4)=   0.000000  celldm(5)=   0.000000  celldm(6)=   0.000000

     crystal axes: (cart. coord. in units of alat)
               a(1) = (   5.416153   0.000000   0.000000 )
               a(2) = (   2.655419   4.720537   0.000000 )
               a(3) = (   0.000000   0.000000  24.435834 )

     reciprocal axes: (cart. coord. in units 2 pi/alat)
               b(1) = (  0.184633 -0.103861  0.000000 )
               b(2) = (  0.000000  0.211840  0.000000 )
               b(3) = (  0.000000  0.000000  0.040924 )

     PseudoPot. # 1 for Fe read from file:
     /afs/slac.stanford.edu/u/if/mamunm/psp/gbrv1.5pbe/Fe.UPF
     MD5 check sum: a130daea23fe5165f5d574ae7f82ed95
     Pseudo is Ultrasoft + core correction, Zval = 16.0
     Generated by new atomic code, or converted to UPF format
     Using radial grid of  861 points,  6 beta functions with:
                l(1) =   0
                l(2) =   0
                l(3) =   1
                l(4) =   1
                l(5) =   2
                l(6) =   2
     Q(r) pseudized with  8 coefficients,  rinner =    1.000   1.000   1.000
                                                       1.000   1.000

     PseudoPot. # 2 for Pd read from file:
     /afs/slac.stanford.edu/u/if/mamunm/psp/gbrv1.5pbe/Pd.UPF
     MD5 check sum: 2d733d2bc2cbfd217af676df1668a4bc
     Pseudo is Ultrasoft + core correction, Zval = 16.0
     Generated by new atomic code, or converted to UPF format
     Using radial grid of  887 points,  6 beta functions with:
                l(1) =   0
                l(2) =   0
                l(3) =   1
                l(4) =   1
                l(5) =   2
                l(6) =   2
     Q(r) pseudized with  8 coefficients,  rinner =    1.130   1.130   1.130
                                                       1.130   1.130

     vdW kernel table read from file vdW_kernel_table
     MD5 check sum: 095c7af220d748ca6e76c0b4c6cfb241

     atomic species   valence    mass     pseudopotential
        Fe1           16.00    55.84500     Fe( 1.00)
        Pd1           16.00   106.42000     Pd( 1.00)

     Starting magnetic structure
     atomic species   magnetization
        Fe1          0.125
        Pd1          0.125

     No symmetry found

   Cartesian axes

     site n.     atom                  positions (alat units)
         1           Fe1 tau(   1) = (   0.0000000   0.0000000  10.0000000  )
         2           Fe1 tau(   2) = (   4.0357859   2.3602685  10.0000000  )
         3           Pd1 tau(   3) = (   2.7080766   0.0000000  10.0000000  )
         4           Pd1 tau(   4) = (   1.3277093   2.3602685  10.0000000  )
         5           Fe1 tau(   5) = (   5.4161533   3.1675555  12.2179168  )
         6           Fe1 tau(   6) = (   1.3803674   0.8072870  12.2179168  )
         7           Pd1 tau(   7) = (   2.7080766   3.1675555  12.2179168  )
         8           Pd1 tau(   8) = (   4.0884440   0.8072870  12.2179168  )
         9           Fe1 tau(   9) = (   2.7607347   1.6145740  14.4358336  )
        10           Fe1 tau(  10) = (   6.7965206   3.9748425  14.4358336  )
        11           Pd1 tau(  11) = (   5.4688114   1.6145740  14.4358336  )
        12           Pd1 tau(  12) = (   4.0884440   3.9748425  14.4358336  )

     number of k points=    40  Fermi-Dirac smearing, width (Ry)=  0.0110
                       cart. coord. in units 2pi/alat
        k(    1) = (   0.0000000   0.0000000   0.0000000), wk =   0.0277778
        k(    2) = (   0.0000000   0.0353067   0.0000000), wk =   0.0555556
        k(    3) = (   0.0000000   0.0706134   0.0000000), wk =   0.0555556
        k(    4) = (   0.0000000  -0.1059202   0.0000000), wk =   0.0277778
        k(    5) = (   0.0307721  -0.0173101   0.0000000), wk =   0.0555556
        k(    6) = (   0.0307721   0.0179966   0.0000000), wk =   0.0555556
        k(    7) = (   0.0307721   0.0533033   0.0000000), wk =   0.0555556
        k(    8) = (   0.0307721  -0.1232302   0.0000000), wk =   0.0555556
        k(    9) = (   0.0307721  -0.0879235   0.0000000), wk =   0.0555556
        k(   10) = (   0.0307721  -0.0526168   0.0000000), wk =   0.0555556
        k(   11) = (   0.0615443  -0.0346202   0.0000000), wk =   0.0555556
        k(   12) = (   0.0615443   0.0006865   0.0000000), wk =   0.0555556
        k(   13) = (   0.0615443   0.0359933   0.0000000), wk =   0.0555556
        k(   14) = (   0.0615443  -0.1405403   0.0000000), wk =   0.0555556
        k(   15) = (   0.0615443  -0.1052336   0.0000000), wk =   0.0555556
        k(   16) = (   0.0615443  -0.0699269   0.0000000), wk =   0.0555556
        k(   17) = (  -0.0923164   0.0519303   0.0000000), wk =   0.0277778
        k(   18) = (  -0.0923164   0.0872370   0.0000000), wk =   0.0555556
        k(   19) = (  -0.0923164   0.1225437   0.0000000), wk =   0.0555556
        k(   20) = (  -0.0923164  -0.0539899   0.0000000), wk =   0.0277778
        k(   21) = (   0.0000000   0.0000000   0.0000000), wk =   0.0277778
        k(   22) = (   0.0000000   0.0353067   0.0000000), wk =   0.0555556
        k(   23) = (   0.0000000   0.0706134   0.0000000), wk =   0.0555556
        k(   24) = (   0.0000000  -0.1059202   0.0000000), wk =   0.0277778
        k(   25) = (   0.0307721  -0.0173101   0.0000000), wk =   0.0555556
        k(   26) = (   0.0307721   0.0179966   0.0000000), wk =   0.0555556
        k(   27) = (   0.0307721   0.0533033   0.0000000), wk =   0.0555556
        k(   28) = (   0.0307721  -0.1232302   0.0000000), wk =   0.0555556
        k(   29) = (   0.0307721  -0.0879235   0.0000000), wk =   0.0555556
        k(   30) = (   0.0307721  -0.0526168   0.0000000), wk =   0.0555556
        k(   31) = (   0.0615443  -0.0346202   0.0000000), wk =   0.0555556
        k(   32) = (   0.0615443   0.0006865   0.0000000), wk =   0.0555556
        k(   33) = (   0.0615443   0.0359933   0.0000000), wk =   0.0555556
        k(   34) = (   0.0615443  -0.1405403   0.0000000), wk =   0.0555556
        k(   35) = (   0.0615443  -0.1052336   0.0000000), wk =   0.0555556
        k(   36) = (   0.0615443  -0.0699269   0.0000000), wk =   0.0555556
        k(   37) = (  -0.0923164   0.0519303   0.0000000), wk =   0.0277778
        k(   38) = (  -0.0923164   0.0872370   0.0000000), wk =   0.0555556
        k(   39) = (  -0.0923164   0.1225437   0.0000000), wk =   0.0555556
        k(   40) = (  -0.0923164  -0.0539899   0.0000000), wk =   0.0277778

     Largest allocated arrays     est. size (Mb)     dimensions
     Largest temporary arrays     est. size (Mb)     dimensions

     Check: negative/imaginary core charge=   -0.000004    0.000000

     Initial potential from superposition of free atoms
     Check: negative starting charge=(component1):   -0.248058
     Check: negative starting charge=(component2):   -0.192934

     starting charge  182.99992, renormalised to  192.00000

     negative rho (up, down):  2.603E-01 2.024E-01

     *
     * You are using vdW-DF for exchange-correlation in this calculation.
     * Please cite the following three references that made this development
     * possible:
     *
     *   M. Dion, H. Rydberg, E. Schroder, D. C. Langreth, and
     *   B. I. Lundqvist, Phys. Rev. Lett. 92, 246401 (2004).
     *
     *   T. Thonhauser, V. R. Cooper, S. Li, A. Puzder, P. Hyldgaard, and
     *   D. C. Langreth, Phys. Rev. B 76, 125112 (2007).
     *
     *   G. Roman-Perez and J. M. Soler, Phys. Rev. Lett. 103, 096102 (2009).
     *
     *
     * If you are using vdW-DF2, please also cite:
     *
     *   K. Lee, E. D. Murray, L. Kong, B. I. Lundqvist, and
     *   D. C. Langreth, Phys. Rev. B 82, 081101(R) (2010).
     *
     *
     * If you are calculating the stress with vdW-DF, please also cite:
     *
     *   R. Sabatini, E. Kucukbenli, B. Kolb, T. Thonhauser, and
     *   S. de Gironcoli, J. Phys.: Condens. Matter 24, 424209 (2012).
     *

     Carrying out vdW-DF run using the following parameters:

     Nqs =      20    Nr_points =    1024   r_max =   100.000
     q_mesh =
               0.00001000     0.04494208     0.09755937     0.15916263
               0.23128650     0.31572767     0.41458969     0.53033537
               0.66584808     0.82450364     1.01025438     1.22772762
               1.48234092     1.78043706     2.12944203     2.53805004
               3.01644009     3.57652955     4.23227104     5.00000000

     Gradients computed in reciprocal space

     Adding external electric field

     Computed dipole along edir(3) :
        Dipole                0.0000 Ry au,          0.0000 Debye
        Dipole field          0.0000 Ry au

        Potential amp.       -0.0000 Ry
        Total length         45.0226 bohr

[...]

     Starting wfc are  150 randomized atomic wfcs

     Self-consistent Calculation

     iteration #  1     ecut=    36.75 Ry     beta=0.10
     Davidson diagonalization with overlap
     ethr =  1.00E-02,  avg # of iterations =  7.3

[...]

     Magnetic moment per site:
     atom:    1    charge:    7.3737    magn:    0.8476    constr:    0.0000
     atom:    2    charge:    7.3737    magn:    0.8476    constr:    0.0000
     atom:    3    charge:    3.3408    magn:    0.4018    constr:    0.0000
     atom:    4    charge:    3.3408    magn:    0.4018    constr:    0.0000
     atom:    5    charge:    7.3722    magn:    0.8476    constr:    0.0000
     atom:    6    charge:    7.3722    magn:    0.8476    constr:    0.0000
[...]
        k(    4) = (   0.0000000  -0.1059202   0.0000000), wk =   0.0277778
        k(    5) = (   0.0307721  -0.0173101   0.0000000), wk =   0.0555556
        k(    6) = (   0.0307721   0.0179966   0.0000000), wk =   0.0555556
        k(    7) = (   0.0307721   0.0533033   0.0000000), wk =   0.0555556
        k(    8) = (   0.0307721  -0.1232302   0.0000000), wk =   0.0555556
        k(    9) = (   0.0307721  -0.0879235   0.0000000), wk =   0.0555556
        k(   10) = (   0.0307721  -0.0526168   0.0000000), wk =   0.0555556
        k(   11) = (   0.0615443  -0.0346202   0.0000000), wk =   0.0555556
        k(   12) = (   0.0615443   0.0006865   0.0000000), wk =   0.0555556
        k(   13) = (   0.0615443   0.0359933   0.0000000), wk =   0.0555556
        k(   14) = (   0.0615443  -0.1405403   0.0000000), wk =   0.0555556
        k(   15) = (   0.0615443  -0.1052336   0.0000000), wk =   0.0555556
        k(   16) = (   0.0615443  -0.0699269   0.0000000), wk =   0.0555556
        k(   17) = (  -0.0923164   0.0519303   0.0000000), wk =   0.0277778
        k(   18) = (  -0.0923164   0.0872370   0.0000000), wk =   0.0555556
        k(   19) = (  -0.0923164   0.1225437   0.0000000), wk =   0.0555556
        k(   20) = (  -0.0923164  -0.0539899   0.0000000), wk =   0.0277778
        k(   21) = (   0.0000000   0.0000000   0.0000000), wk =   0.0277778
        k(   22) = (   0.0000000   0.0353067   0.0000000), wk =   0.0555556
        k(   23) = (   0.0000000   0.0706134   0.0000000), wk =   0.0555556
        k(   24) = (   0.0000000  -0.1059202   0.0000000), wk =   0.0277778
        k(   25) = (   0.0307721  -0.0173101   0.0000000), wk =   0.0555556
        k(   26) = (   0.0307721   0.0179966   0.0000000), wk =   0.0555556
        k(   27) = (   0.0307721   0.0533033   0.0000000), wk =   0.0555556
        k(   28) = (   0.0307721  -0.1232302   0.0000000), wk =   0.0555556
        k(   29) = (   0.0307721  -0.0879235   0.0000000), wk =   0.0555556
        k(   30) = (   0.0307721  -0.0526168   0.0000000), wk =   0.0555556
        k(   31) = (   0.0615443  -0.0346202   0.0000000), wk =   0.0555556
        k(   32) = (   0.0615443   0.0006865   0.0000000), wk =   0.0555556
        k(   33) = (   0.0615443   0.0359933   0.0000000), wk =   0.0555556
        k(   34) = (   0.0615443  -0.1405403   0.0000000), wk =   0.0555556
        k(   35) = (   0.0615443  -0.1052336   0.0000000), wk =   0.0555556
        k(   36) = (   0.0615443  -0.0699269   0.0000000), wk =   0.0555556
        k(   37) = (  -0.0923164   0.0519303   0.0000000), wk =   0.0277778
        k(   38) = (  -0.0923164   0.0872370   0.0000000), wk =   0.0555556
        k(   39) = (  -0.0923164   0.1225437   0.0000000), wk =   0.0555556
        k(   40) = (  -0.0923164  -0.0539899   0.0000000), wk =   0.0277778

     Largest allocated arrays     est. size (Mb)     dimensions
     Largest temporary arrays     est. size (Mb)     dimensions

     Check: negative/imaginary core charge=   -0.000004    0.000000

     Initial potential from superposition of free atoms
     Check: negative starting charge=(component1):   -0.249947
     Check: negative starting charge=(component2):   -0.194403

     starting charge  182.99992, renormalised to  192.00000

[...]

     *
     * You are using vdW-DF for exchange-correlation in this calculation.
     * Please cite the following three references that made this development
     * possible:
     *
     *   M. Dion, H. Rydberg, E. Schroder, D. C. Langreth, and
     *   B. I. Lundqvist, Phys. Rev. Lett. 92, 246401 (2004).
     *
     *   T. Thonhauser, V. R. Cooper, S. Li, A. Puzder, P. Hyldgaard, and
     *   D. C. Langreth, Phys. Rev. B 76, 125112 (2007).
     *
     *   G. Roman-Perez and J. M. Soler, Phys. Rev. Lett. 103, 096102 (2009).
     *
     *
     * If you are using vdW-DF2, please also cite:
     *
     *   K. Lee, E. D. Murray, L. Kong, B. I. Lundqvist, and
     *   D. C. Langreth, Phys. Rev. B 82, 081101(R) (2010).
     *
     *
     * If you are calculating the stress with vdW-DF, please also cite:
     *
     *   R. Sabatini, E. Kucukbenli, B. Kolb, T. Thonhauser, and
     *   S. de Gironcoli, J. Phys.: Condens. Matter 24, 424209 (2012).
     *

     Carrying out vdW-DF run using the following parameters:

     Nqs =      20    Nr_points =    1024   r_max =   100.000
     q_mesh =
               0.00001000     0.04494208     0.09755937     0.15916263
               0.23128650     0.31572767     0.41458969     0.53033537
               0.66584808     0.82450364     1.01025438     1.22772762
               1.48234092     1.78043706     2.12944203     2.53805004
               3.01644009     3.57652955     4.23227104     5.00000000

     Gradients computed in reciprocal space

[...]

     Starting wfc are  150 randomized atomic wfcs

     Self-consistent Calculation

[...]

     total energy              =   -2706.75361702 Ry
     Harris-Foulkes estimate   =   -2706.75361467 Ry
     estimated scf accuracy    <       0.00000146 Ry

[...]

     iteration # 27     ecut=    36.75 Ry     beta=0.10
     Davidson diagonalization with overlap
     ethr =  7.58E-10,  avg # of iterations =  2.0

[...]

     negative rho (up, down):  2.346E-01 2.318E-01

[...]

     Adding external electric field

     Computed dipole along edir(3) :
        Dipole               -0.0082 Ry au,         -0.0209 Debye
        Dipole field         -0.0000 Ry au

        Potential amp.        0.0022 Ry
        Total length         45.0226 bohr

     Magnetic moment per site:
     atom:    1    charge:    7.0997    magn:    1.4862    constr:    0.0000
     atom:    2    charge:    7.0997    magn:    1.4862    constr:    0.0000
     atom:    3    charge:    3.3119    magn:    0.0687    constr:    0.0000
     atom:    4    charge:    3.3119    magn:    0.0687    constr:    0.0000
     atom:    5    charge:    7.0991    magn:    1.4797    constr:    0.0000
     atom:    6    charge:    7.0990    magn:    1.4798    constr:    0.0000
     atom:    7    charge:    3.3159    magn:    0.0890    constr:    0.0000
     atom:    8    charge:    3.3159    magn:    0.0890    constr:    0.0000
     atom:    9    charge:    7.0935    magn:    1.4765    constr:    0.0000
     atom:   10    charge:    7.0935    magn:    1.4764    constr:    0.0000
     atom:   11    charge:    3.3067    magn:    0.0683    constr:    0.0000
     atom:   12    charge:    3.3067    magn:    0.0683    constr:    0.0000

     End of self-consistent calculation

 ------ SPIN UP ------------

[...]

 ------ SPIN DOWN ----------

[...]

          k = 0.0615-0.0699 0.0000 ( 15889 PWs)   bands (ev):

[...]

          k =-0.0923-0.0540 0.0000 ( 15884 PWs)   bands (ev):

   -84.3690 -84.3597 -84.3418 -84.3326 -84.3153 -84.3060 -50.5245 -50.5134
   -50.4978 -50.4853 -50.4755 -50.4730 -50.4711 -50.4624 -50.4589 -50.4570
   -50.4495 -50.4477 -50.4392 -50.3701 -50.3657 -50.3628 -50.3530 -50.3519
   -49.2905 -49.2312 -49.2123 -49.1754 -49.1531 -49.0654 -48.9258 -48.9073
   -48.8684 -48.8464 -48.8433 -48.8214 -48.7287 -48.7086 -48.7031 -48.6992
   -48.6825 -48.6808  -4.3775  -4.1505  -3.4388  -3.3795  -3.1082  -3.0861
    -2.9647  -2.8122  -2.7509  -2.6929  -2.4444  -2.4381  -2.3742  -2.3627
    -2.2175  -2.1974  -1.7186  -1.5711  -1.5498  -1.4898  -1.4637  -1.4205
    -1.0510  -1.0199  -0.9919  -0.9440  -0.7571  -0.6309  -0.4766  -0.3819
    -0.2485  -0.2116  -0.2026  -0.0250   0.1000   0.1542   0.2392   0.3293
     0.4672   0.5075   0.6172   0.6488   0.6802   0.7488   0.7608   0.7979
     0.8840   1.1267   1.5151   1.5691   1.5866   1.6492   1.8321   1.8678
     1.9488   1.9846   2.0399   2.0736   2.1779   2.2386   2.3428   2.4203
     2.6485   2.7117   3.2076   3.2601   3.3619   3.8787   4.1790   4.4583
     5.1219   5.2420   6.1505   6.2704   6.8004   6.8081   7.3094   7.3369
     7.4794   7.4831   8.4703   8.5458   8.5852   8.6236

     the Fermi energy is     1.1294 ev

!    total energy              =   -2706.75362580 Ry
     Harris-Foulkes estimate   =   -2706.75361718 Ry
     estimated scf accuracy    <       0.00000045 Ry

     The total energy is the sum of the following terms:

     one-electron contribution =  -22499.56957104 Ry
     hartree contribution      =   11271.72443404 Ry
     xc contribution           =    -376.99293833 Ry
     ewald contribution        =    8898.15187031 Ry
     electric field correction =       0.00000020 Ry
     smearing contrib. (-TS)   =      -0.06742098 Ry

     total magnetization       =    20.72 Bohr mag/cell
     absolute magnetization    =    21.94 Bohr mag/cell

     convergence has been achieved in  27 iterations

 BEEF-vdW xc energy contributions
           1 :   -329.210456514100
           2 :    299.348089484130
           3 :   -249.015675057587
           4 :    192.507084695772
           5 :   -142.903508172715
           6 :    107.520749078160
           7 :   -86.7766363997911
           8 :    76.1978758706699
           9 :   -69.8846492271325
          10 :    63.4699933410362
          11 :   -55.4065902069361
          12 :    46.4993044872635
          13 :   -38.4900959314281
          14 :    32.6962834593693
          15 :   -29.3652127536906
          16 :    27.7943510900168
          17 :   -26.8882225535413
          18 :    25.7326499871093
          19 :   -23.9406644325940
          20 :    21.6817290917044
          21 :   -19.4573599307296
          22 :    17.7551334899154
          23 :   -16.7687738361741
          24 :    16.3128680564760
          25 :   -15.9675498076121
          26 :    15.3465120138625
          27 :   -14.3279472497620
          28 :    13.0976886936584
          29 :   -11.9896381550950
          30 :    11.2369701224468
          31 :   -30.4428978441969
          32 :   -22.0168882276414

     Forces acting on atoms (Ry/au):

     negative rho (up, down):  2.346E-01 2.318E-01
     atom    1 type  1   force =     0.00728617    0.00426119    0.01206995
     atom    2 type  1   force =     0.00725696    0.00424388    0.01203707
     atom    3 type  2   force =    -0.01239137   -0.00723543   -0.00488084
     atom    4 type  2   force =    -0.01238151   -0.00725248   -0.00488079
     atom    5 type  1   force =    -0.00064314   -0.00037622   -0.00156586
     atom    6 type  1   force =    -0.00063705   -0.00037237   -0.00155049
     atom    7 type  2   force =     0.00545230    0.00318916   -0.00585989
     atom    8 type  2   force =     0.00545275    0.00318853   -0.00585996
     atom    9 type  1   force =     0.00053169    0.00031097    0.00097973
     atom   10 type  1   force =     0.00058484    0.00034209    0.00098740
     atom   11 type  2   force =    -0.00023324   -0.00018830   -0.00073826
     atom   12 type  2   force =    -0.00027841   -0.00011101   -0.00073806

     Total force =     0.032410     Total SCF correction =     0.001663

     entering subroutine stress ...

     negative rho (up, down):  2.346E-01 2.318E-01
          total   stress  (Ry/bohr**3)                   (kbar)     P=   -8.31
  -0.00008166  -0.00001781   0.00001059        -12.01     -2.62      1.56
  -0.00001781  -0.00006162   0.00000619         -2.62     -9.06      0.91
   0.00001059   0.00000619  -0.00002622          1.56      0.91     -3.86

 !ASE

     Writing output data file calc.save

     General routines

     Parallel routines

   This run was terminated on:  15:58:48  24Dec2018

   JOB DONE.
Job  /afs/slac/g/suncat/bin/suncat-tsmpirun -x LD_LIBRARY_PATH -wdir /scratch/qe108923_tVCcY pw.x -in pw.inp

TID   HOST_NAME   COMMAND_LINE            STATUS            TERMINATION_TIME
00000 suncat0169 pw.x -in pw.inp   Done                     12/24/2018 15:58:48
00001 suncat0169 pw.x -in pw.inp   Done                     12/24/2018 15:58:48
00002 suncat0169 pw.x -in pw.inp   Done                     12/24/2018 15:58:48
00003 suncat0169 pw.x -in pw.inp   Done                     12/24/2018 15:58:48
00004 suncat0169 pw.x -in pw.inp   Done                     12/24/2018 15:58:48
00005 suncat0169 pw.x -in pw.inp   Done                     12/24/2018 15:58:48
00006 suncat0169 pw.x -in pw.inp   Done                     12/24/2018 15:58:48
00007 suncat0169 pw.x -in pw.inp   Done                     12/24/2018 15:58:48
00008 suncat0168 pw.x -in pw.inp   Done                     12/24/2018 15:58:48
00009 suncat0168 pw.x -in pw.inp   Done                     12/24/2018 15:58:48
00010 suncat0168 pw.x -in pw.inp   Done                     12/24/2018 15:58:48
00011 suncat0168 pw.x -in pw.inp   Done                     12/24/2018 15:58:48
00012 suncat0168 pw.x -in pw.inp   Done                     12/24/2018 15:58:48
00013 suncat0168 pw.x -in pw.inp   Done                     12/24/2018 15:58:48
00014 suncat0168 pw.x -in pw.inp   Done                     12/24/2018 15:58:48
00015 suncat0168 pw.x -in pw.inp   Done                     12/24/2018 15:58:48
00016 suncat0110 pw.x -in pw.inp   Done                     12/24/2018 15:58:48
00017 suncat0110 pw.x -in pw.inp   Done                     12/24/2018 15:58:48
00018 suncat0110 pw.x -in pw.inp   Done                     12/24/2018 15:58:48
00019 suncat0110 pw.x -in pw.inp   Done                     12/24/2018 15:58:48
00020 suncat0110 pw.x -in pw.inp   Done                     12/24/2018 15:58:48
00021 suncat0110 pw.x -in pw.inp   Done                     12/24/2018 15:58:48
00022 suncat0110 pw.x -in pw.inp   Done                     12/24/2018 15:58:48
00023 suncat0110 pw.x -in pw.inp   Done                     12/24/2018 15:58:48
00024 suncat0109 pw.x -in pw.inp   Done                     12/24/2018 15:58:48
00025 suncat0109 pw.x -in pw.inp   Done                     12/24/2018 15:58:48
00026 suncat0109 pw.x -in pw.inp   Done                     12/24/2018 15:58:48
00027 suncat0109 pw.x -in pw.inp   Done                     12/24/2018 15:58:48
00028 suncat0109 pw.x -in pw.inp   Done                     12/24/2018 15:58:48
00029 suncat0109 pw.x -in pw.inp   Done                     12/24/2018 15:58:48
00030 suncat0109 pw.x -in pw.inp   Done                     12/24/2018 15:58:48
00031 suncat0109 pw.x -in pw.inp   Done                     12/24/2018 15:58:48
00032 suncat0277 pw.x -in pw.inp   Done                     12/24/2018 15:58:48
00033 suncat0277 pw.x -in pw.inp   Done                     12/24/2018 15:58:48
00034 suncat0277 pw.x -in pw.inp   Done                     12/24/2018 15:58:48
00035 suncat0277 pw.x -in pw.inp   Done                     12/24/2018 15:58:48
00036 suncat0277 pw.x -in pw.inp   Done                     12/24/2018 15:58:48
00037 suncat0277 pw.x -in pw.inp   Done                     12/24/2018 15:58:48
00038 suncat0277 pw.x -in pw.inp   Done                     12/24/2018 15:58:48
00039 suncat0277 pw.x -in pw.inp   Done                     12/24/2018 15:58:48
00040 suncat0276 pw.x -in pw.inp   Done                     12/24/2018 15:58:48
00041 suncat0276 pw.x -in pw.inp   Done                     12/24/2018 15:58:48
00042 suncat0276 pw.x -in pw.inp   Done                     12/24/2018 15:58:48
00043 suncat0276 pw.x -in pw.inp   Done                     12/24/2018 15:58:48
00044 suncat0276 pw.x -in pw.inp   Done                     12/24/2018 15:58:48
00045 suncat0276 pw.x -in pw.inp   Done                     12/24/2018 15:58:48
00046 suncat0276 pw.x -in pw.inp   Done                     12/24/2018 15:58:48
00047 suncat0276 pw.x -in pw.inp   Done                     12/24/2018 15:58:48
00048 suncat0274 pw.x -in pw.inp   Done                     12/24/2018 15:58:48
00049 suncat0274 pw.x -in pw.inp   Done                     12/24/2018 15:58:48
00050 suncat0274 pw.x -in pw.inp   Done                     12/24/2018 15:58:48
00051 suncat0274 pw.x -in pw.inp   Done                     12/24/2018 15:58:48
00052 suncat0274 pw.x -in pw.inp   Done                     12/24/2018 15:58:48
00053 suncat0274 pw.x -in pw.inp   Done                     12/24/2018 15:58:48
00054 suncat0274 pw.x -in pw.inp   Done                     12/24/2018 15:58:48
00055 suncat0274 pw.x -in pw.inp   Done                     12/24/2018 15:58:48
00056 suncat0273 pw.x -in pw.inp   Done                     12/24/2018 15:58:48
00057 suncat0273 pw.x -in pw.inp   Done                     12/24/2018 15:58:48
00058 suncat0273 pw.x -in pw.inp   Done                     12/24/2018 15:58:48
00059 suncat0273 pw.x -in pw.inp   Done                     12/24/2018 15:58:48
00060 suncat0273 pw.x -in pw.inp   Done                     12/24/2018 15:58:48
00061 suncat0273 pw.x -in pw.inp   Done                     12/24/2018 15:58:48
00062 suncat0273 pw.x -in pw.inp   Done                     12/24/2018 15:58:48
00063 suncat0273 pw.x -in pw.inp   Done                     12/24/2018 15:58:48