     Program PWSCF v.5.1rc2 (svn rev. 11289) starts on 18Dec2018 at 19: 5: 5

     Current dimensions of program PWSCF are:
     Max number of different atomic species (ntypx) = 10
     Max number of k-points (npk) =  40000
     Max angular momentum in pseudopotentials (lmaxx) =  3
     Presently stress not available with electric field

     IMPORTANT: XC functional enforced from input :
     Exchange-correlation      = BEEF-VDW ( 1  4 27 13 2)
     Any further DFT definition will be discarded
     Please, verify this is what you really want

     Subspace diagonalization in iterative solution of the eigenvalue problem:
     a serial algorithm will be used

     Found symmetry operation: I + ( -0.5000 -0.5000  0.0000)
     This is a supercell, fractional translations are disabled

     bravais-lattice index     =            0
     lattice parameter (alat)  =       1.8897  a.u.
     unit-cell volume          =    4494.4617 (a.u.)^3
     number of atoms/cell      =           12
     number of atomic types    =            2
     number of electrons       =       174.00
     number of Kohn-Sham states=          117
     kinetic-energy cutoff     =      36.7493  Ry
     charge density cutoff     =     367.4932  Ry
     convergence threshold     =      1.0E-06
     mixing beta               =       0.1000
     number of iterations used =           10  plain     mixing
     Exchange-correlation      = BEEF-VDW ( 1  4 27 13 2)
     nstep                     =           50

     celldm(1)=   1.889726  celldm(2)=   0.000000  celldm(3)=   0.000000
     celldm(4)=   0.000000  celldm(5)=   0.000000  celldm(6)=   0.000000

     crystal axes: (cart. coord. in units of alat)
               a(1) = (   5.593925   0.000000   0.000000 )
               a(2) = (   2.794173   4.846090   0.000000 )
               a(3) = (   0.000000   0.000000  24.568178 )

     reciprocal axes: (cart. coord. in units 2 pi/alat)
               b(1) = (  0.178765 -0.103073  0.000000 )
               b(2) = (  0.000000  0.206352  0.000000 )
               b(3) = (  0.000000  0.000000  0.040703 )

     PseudoPot. # 1 for Mo read from file:
     /afs/slac.stanford.edu/u/if/mamunm/psp/gbrv1.5pbe/Mo.UPF
     MD5 check sum: 30c4dcd161f5d35cd49bb5239c51a633
     Pseudo is Ultrasoft + core correction, Zval = 14.0
     Generated by new atomic code, or converted to UPF format
     Using radial grid of  889 points,  6 beta functions with:
                l(1) =   0
                l(2) =   0
                l(3) =   1
                l(4) =   1
                l(5) =   2
                l(6) =   2
     Q(r) pseudized with  6 coefficients,  rinner =    1.000   1.000   1.000
                                                       1.000   1.000

     PseudoPot. # 2 for Re read from file:
     /afs/slac.stanford.edu/u/if/mamunm/psp/gbrv1.5pbe/Re.UPF
     MD5 check sum: 85f993410f3e006da9d71c142b4ad953
     Pseudo is Ultrasoft + core correction, Zval = 15.0
     Generated by new atomic code, or converted to UPF format
     Using radial grid of  981 points,  8 beta functions with:
                l(1) =   0
                l(2) =   0
                l(3) =   1
                l(4) =   1
                l(5) =   2
                l(6) =   2
                l(7) =   3
                l(8) =   3
     Q(r) pseudized with  8 coefficients,  rinner =    1.150   1.150   1.150
                                                       1.150   1.150   1.150
                                                       1.150

     vdW kernel table read from file vdW_kernel_table
     MD5 check sum: 095c7af220d748ca6e76c0b4c6cfb241

     atomic species   valence    mass     pseudopotential
        Mo1           14.00    95.95000     Mo( 1.00)
        Re1           15.00   186.20700     Re( 1.00)

     No symmetry found

   Cartesian axes

     site n.     atom                  positions (alat units)
         1           Mo1 tau(   1) = (   0.0000000   0.0000000  10.0000000  )
         2           Mo1 tau(   2) = (   4.1940489   2.4230452  10.0000000  )
         3           Re1 tau(   3) = (   2.7969624   0.0000000  10.0000000  )
         4           Re1 tau(   4) = (   1.3970865   2.4230452  10.0000000  )
         5           Mo1 tau(   5) = (   5.5939248   3.2318014  12.2840888  )
         6           Mo1 tau(   6) = (   1.3998760   0.8087561  12.2840888  )
         7           Re1 tau(   7) = (   2.7969624   3.2318014  12.2840888  )
         8           Re1 tau(   8) = (   4.1968384   0.8087561  12.2840888  )
         9           Mo1 tau(   9) = (   2.7997519   1.6175123  14.5681776  )
        10           Mo1 tau(  10) = (   6.9938008   4.0405575  14.5681776  )
        11           Re1 tau(  11) = (   5.5967143   1.6175123  14.5681776  )
        12           Re1 tau(  12) = (   4.1968384   4.0405575  14.5681776  )

     number of k points=    20  Fermi-Dirac smearing, width (Ry)=  0.0110
                       cart. coord. in units 2pi/alat
        k(    1) = (   0.0000000   0.0000000   0.0000000), wk =   0.0555556
        k(    2) = (   0.0000000   0.0343920   0.0000000), wk =   0.1111111
        k(    3) = (   0.0000000   0.0687840   0.0000000), wk =   0.1111111
        k(    4) = (   0.0000000  -0.1031760   0.0000000), wk =   0.0555556
        k(    5) = (   0.0297942  -0.0171788   0.0000000), wk =   0.1111111
        k(    6) = (   0.0297942   0.0172131   0.0000000), wk =   0.1111111
        k(    7) = (   0.0297942   0.0516051   0.0000000), wk =   0.1111111
        k(    8) = (   0.0297942  -0.1203548   0.0000000), wk =   0.1111111
        k(    9) = (   0.0297942  -0.0859628   0.0000000), wk =   0.1111111
        k(   10) = (   0.0297942  -0.0515708   0.0000000), wk =   0.1111111
        k(   11) = (   0.0595885  -0.0343577   0.0000000), wk =   0.1111111
        k(   12) = (   0.0595885   0.0000343   0.0000000), wk =   0.1111111
        k(   13) = (   0.0595885   0.0344263   0.0000000), wk =   0.1111111
        k(   14) = (   0.0595885  -0.1375336   0.0000000), wk =   0.1111111
        k(   15) = (   0.0595885  -0.1031417   0.0000000), wk =   0.1111111
        k(   16) = (   0.0595885  -0.0687497   0.0000000), wk =   0.1111111
        k(   17) = (  -0.0893827   0.0515365   0.0000000), wk =   0.0555556
        k(   18) = (  -0.0893827   0.0859285   0.0000000), wk =   0.1111111
        k(   19) = (  -0.0893827   0.1203205   0.0000000), wk =   0.1111111
        k(   20) = (  -0.0893827  -0.0516394   0.0000000), wk =   0.0555556

     Largest allocated arrays     est. size (Mb)     dimensions
     Largest temporary arrays     est. size (Mb)     dimensions

     Initial potential from superposition of free atoms
     Check: negative starting charge=   -0.765840

     starting charge  170.99335, renormalised to  174.00000

     negative rho (up, down):  7.793E-01 0.000E+00

     *
     * You are using vdW-DF for exchange-correlation in this calculation.
     * Please cite the following three references that made this development
     * possible:
     *
     *   M. Dion, H. Rydberg, E. Schroder, D. C. Langreth, and
     *   B. I. Lundqvist, Phys. Rev. Lett. 92, 246401 (2004).
     *
     *   T. Thonhauser, V. R. Cooper, S. Li, A. Puzder, P. Hyldgaard, and
     *   D. C. Langreth, Phys. Rev. B 76, 125112 (2007).
     *
     *   G. Roman-Perez and J. M. Soler, Phys. Rev. Lett. 103, 096102 (2009).
     *
     *
     * If you are using vdW-DF2, please also cite:
     *
     *   K. Lee, E. D. Murray, L. Kong, B. I. Lundqvist, and
     *   D. C. Langreth, Phys. Rev. B 82, 081101(R) (2010).
     *
     *
     * If you are calculating the stress with vdW-DF, please also cite:
     *
     *   R. Sabatini, E. Kucukbenli, B. Kolb, T. Thonhauser, and
     *   S. de Gironcoli, J. Phys.: Condens. Matter 24, 424209 (2012).
     *

     Carrying out vdW-DF run using the following parameters:

     Nqs =      20    Nr_points =    1024   r_max =   100.000
     q_mesh =
               0.00001000     0.04494208     0.09755937     0.15916263
               0.23128650     0.31572767     0.41458969     0.53033537
               0.66584808     0.82450364     1.01025438     1.22772762
               1.48234092     1.78043706     2.12944203     2.53805004
               3.01644009     3.57652955     4.23227104     5.00000000

     Gradients computed in reciprocal space

     Adding external electric field

     Computed dipole along edir(3) :
        Dipole               -0.0000 Ry au,         -0.0000 Debye
        Dipole field         -0.0000 Ry au

        Potential amp.        0.0000 Ry
        Total length         45.2664 bohr

     Starting wfc are  156 randomized atomic wfcs

     Self-consistent Calculation

     iteration #  1     ecut=    36.75 Ry     beta=0.10
     Davidson diagonalization with overlap
     ethr =  1.00E-02,  avg # of iterations =  2.0

[...]

     total energy              =   -1992.44893238 Ry
     Harris-Foulkes estimate   =   -1992.99265965 Ry
     estimated scf accuracy    <       3.24198306 Ry

[...]

     End of self-consistent calculation

          k = 0.0000 0.0000 0.0000 ( 16843 PWs)   bands (ev):

   -77.8513 -77.8213 -77.7463 -77.7452 -77.7168 -77.7157 -58.5589 -58.5315
   -58.4998 -58.4758 -58.4499 -58.4186 -39.8097 -39.7425 -39.6757 -39.6403
   -39.6400 -39.5638 -39.5188 -39.5017 -39.4670 -39.4581 -39.4100 -39.3916
   -39.3443 -39.3210 -39.2741 -39.2649 -39.1168 -39.1151 -32.9124 -32.8222
   -32.8187 -32.8051 -32.7420 -32.6513 -32.5700 -32.5688 -32.5226 -32.5047
   -32.4909 -32.4577 -32.4277 -32.2938 -32.2277 -32.1909 -32.1072 -32.1001
    -5.0610  -3.4635  -3.1368  -2.7830  -2.6431  -2.5616  -2.5591  -2.1574
    -2.0784  -1.8959  -1.8644  -1.8626  -1.7652  -1.5913  -1.5679  -0.4274
    -0.3519  -0.2509   0.6340   0.6420   0.6481   0.7156   0.9824   1.3193
     1.4068   1.6288   1.6289   1.6553   1.7050   1.7579   1.9079   1.9288
     1.9365   1.9879   2.0829   2.1177   3.1819   3.1846   3.1976   3.2460
     3.3992   3.4632   3.6200   4.0079   4.0562   4.5007   4.5120   4.5376
     4.6581   4.7034   4.8616   4.8715   5.0280   5.4436   5.5218   5.5885
     5.7374   5.7408   6.3721   6.4286   6.4693   6.6379   6.6690   6.6924
     6.7626   6.7952   6.8224   7.0365   7.0517

[...]

          k =-0.0894 0.0515 0.0000 ( 16920 PWs)   bands (ev):

[...]

     the Fermi energy is     2.4767 ev

!    total energy              =   -1992.51514190 Ry
     Harris-Foulkes estimate   =   -1992.51513879 Ry
     estimated scf accuracy    <       0.00000084 Ry

     The total energy is the sum of the following terms:

     one-electron contribution =  -16474.84334961 Ry
     hartree contribution      =    8226.28835997 Ry
     xc contribution           =    -444.36141787 Ry
     ewald contribution        =    6700.47583220 Ry
     electric field correction =       0.00000000 Ry
     smearing contrib. (-TS)   =      -0.07456658 Ry

     convergence has been achieved in  15 iterations

 BEEF-vdW xc energy contributions
           1 :   -391.528627283667
           2 :    362.316699753662
           3 :   -310.583875773894
           4 :    247.296981761562
           5 :   -184.178799005706
           6 :    130.414899721364
           7 :   -90.6955459099659
[...]
     c_bands:  3 eigenvalues not converged
     ethr =  4.75E-06,  avg # of iterations =  5.2

[...]

     Program PWSCF v.5.1rc2 (svn rev. 11289) starts on 18Dec2018 at 19:21:57

     Current dimensions of program PWSCF are:
     Max number of different atomic species (ntypx) = 10
     Max number of k-points (npk) =  40000
     Max angular momentum in pseudopotentials (lmaxx) =  3
     Presently stress not available with electric field

     IMPORTANT: XC functional enforced from input :
     Exchange-correlation      = BEEF-VDW ( 1  4 27 13 2)
     Any further DFT definition will be discarded
     Please, verify this is what you really want

     Subspace diagonalization in iterative solution of the eigenvalue problem:
     a serial algorithm will be used

     Found symmetry operation: I + ( -0.5000 -0.5000  0.0000)
     This is a supercell, fractional translations are disabled

     bravais-lattice index     =            0
     lattice parameter (alat)  =       1.8897  a.u.
     unit-cell volume          =    4494.4617 (a.u.)^3
     number of atoms/cell      =           12
     number of atomic types    =            2
     number of electrons       =       174.00
     number of Kohn-Sham states=          117
     kinetic-energy cutoff     =      36.7493  Ry
     charge density cutoff     =     367.4932  Ry
     convergence threshold     =      1.0E-06
     mixing beta               =       0.1000
     number of iterations used =           10  plain     mixing
     Exchange-correlation      = BEEF-VDW ( 1  4 27 13 2)
     nstep                     =           50

     celldm(1)=   1.889726  celldm(2)=   0.000000  celldm(3)=   0.000000
     celldm(4)=   0.000000  celldm(5)=   0.000000  celldm(6)=   0.000000

     crystal axes: (cart. coord. in units of alat)
               a(1) = (   5.593925   0.000000   0.000000 )
               a(2) = (   2.794173   4.846090   0.000000 )
               a(3) = (   0.000000   0.000000  24.568178 )

     reciprocal axes: (cart. coord. in units 2 pi/alat)
               b(1) = (  0.178765 -0.103073  0.000000 )
               b(2) = (  0.000000  0.206352  0.000000 )
               b(3) = (  0.000000  0.000000  0.040703 )

     PseudoPot. # 1 for Mo read from file:
     /afs/slac.stanford.edu/u/if/mamunm/psp/gbrv1.5pbe/Mo.UPF
     MD5 check sum: 30c4dcd161f5d35cd49bb5239c51a633
     Pseudo is Ultrasoft + core correction, Zval = 14.0
     Generated by new atomic code, or converted to UPF format
     Using radial grid of  889 points,  6 beta functions with:
                l(1) =   0
                l(2) =   0
                l(3) =   1
                l(4) =   1
                l(5) =   2
                l(6) =   2
     Q(r) pseudized with  6 coefficients,  rinner =    1.000   1.000   1.000
                                                       1.000   1.000

     PseudoPot. # 2 for Re read from file:
     /afs/slac.stanford.edu/u/if/mamunm/psp/gbrv1.5pbe/Re.UPF
     MD5 check sum: 85f993410f3e006da9d71c142b4ad953
     Pseudo is Ultrasoft + core correction, Zval = 15.0
     Generated by new atomic code, or converted to UPF format
     Using radial grid of  981 points,  8 beta functions with:
                l(1) =   0
                l(2) =   0
                l(3) =   1
                l(4) =   1
                l(5) =   2
                l(6) =   2
                l(7) =   3
                l(8) =   3
     Q(r) pseudized with  8 coefficients,  rinner =    1.150   1.150   1.150
                                                       1.150   1.150   1.150
                                                       1.150

     vdW kernel table read from file vdW_kernel_table
     MD5 check sum: 095c7af220d748ca6e76c0b4c6cfb241

     atomic species   valence    mass     pseudopotential
        Mo1           14.00    95.95000     Mo( 1.00)
        Re1           15.00   186.20700     Re( 1.00)

     No symmetry found

   Cartesian axes

     site n.     atom                  positions (alat units)
         1           Mo1 tau(   1) = (   0.0000000   0.0000000  10.0000000  )
         2           Mo1 tau(   2) = (   4.1940489   2.4230452  10.0000000  )
         3           Re1 tau(   3) = (   2.7969624   0.0000000  10.0000000  )
         4           Re1 tau(   4) = (   1.3970865   2.4230452  10.0000000  )
         5           Mo1 tau(   5) = (   5.5939248   3.2318014  12.2840888  )
         6           Mo1 tau(   6) = (   1.3998760   0.8087561  12.2840888  )
         7           Re1 tau(   7) = (   2.7969624   3.2318014  12.2840888  )
         8           Re1 tau(   8) = (   4.1968384   0.8087561  12.2840888  )
         9           Mo1 tau(   9) = (   2.8077596   1.6221388  14.4968066  )
        10           Mo1 tau(  10) = (   7.0018183   4.0451886  14.4968061  )
        11           Re1 tau(  11) = (   5.5815026   1.6087293  14.4632952  )
        12           Re1 tau(  12) = (   4.1816304   4.0317652  14.4632895  )

     number of k points=    20  Fermi-Dirac smearing, width (Ry)=  0.0110
                       cart. coord. in units 2pi/alat
        k(    1) = (   0.0000000   0.0000000   0.0000000), wk =   0.0555556
        k(    2) = (   0.0000000   0.0343920   0.0000000), wk =   0.1111111
        k(    3) = (   0.0000000   0.0687840   0.0000000), wk =   0.1111111
        k(    4) = (   0.0000000  -0.1031760   0.0000000), wk =   0.0555556
        k(    5) = (   0.0297942  -0.0171788   0.0000000), wk =   0.1111111
        k(    6) = (   0.0297942   0.0172131   0.0000000), wk =   0.1111111
        k(    7) = (   0.0297942   0.0516051   0.0000000), wk =   0.1111111
        k(    8) = (   0.0297942  -0.1203548   0.0000000), wk =   0.1111111
        k(    9) = (   0.0297942  -0.0859628   0.0000000), wk =   0.1111111
        k(   10) = (   0.0297942  -0.0515708   0.0000000), wk =   0.1111111
        k(   11) = (   0.0595885  -0.0343577   0.0000000), wk =   0.1111111
        k(   12) = (   0.0595885   0.0000343   0.0000000), wk =   0.1111111
        k(   13) = (   0.0595885   0.0344263   0.0000000), wk =   0.1111111
        k(   14) = (   0.0595885  -0.1375336   0.0000000), wk =   0.1111111
        k(   15) = (   0.0595885  -0.1031417   0.0000000), wk =   0.1111111
        k(   16) = (   0.0595885  -0.0687497   0.0000000), wk =   0.1111111
        k(   17) = (  -0.0893827   0.0515365   0.0000000), wk =   0.0555556
        k(   18) = (  -0.0893827   0.0859285   0.0000000), wk =   0.1111111
        k(   19) = (  -0.0893827   0.1203205   0.0000000), wk =   0.1111111
        k(   20) = (  -0.0893827  -0.0516394   0.0000000), wk =   0.0555556

     Largest allocated arrays     est. size (Mb)     dimensions
     Largest temporary arrays     est. size (Mb)     dimensions

     Initial potential from superposition of free atoms
     Check: negative starting charge=   -0.766346

     starting charge  170.99335, renormalised to  174.00000

[...]

     *
     * You are using vdW-DF for exchange-correlation in this calculation.
     * Please cite the following three references that made this development
     * possible:
     *
     *   M. Dion, H. Rydberg, E. Schroder, D. C. Langreth, and
     *   B. I. Lundqvist, Phys. Rev. Lett. 92, 246401 (2004).
     *
     *   T. Thonhauser, V. R. Cooper, S. Li, A. Puzder, P. Hyldgaard, and
     *   D. C. Langreth, Phys. Rev. B 76, 125112 (2007).
     *
     *   G. Roman-Perez and J. M. Soler, Phys. Rev. Lett. 103, 096102 (2009).
     *
     *
     * If you are using vdW-DF2, please also cite:
     *
     *   K. Lee, E. D. Murray, L. Kong, B. I. Lundqvist, and
     *   D. C. Langreth, Phys. Rev. B 82, 081101(R) (2010).
     *
     *
     * If you are calculating the stress with vdW-DF, please also cite:
     *
     *   R. Sabatini, E. Kucukbenli, B. Kolb, T. Thonhauser, and
     *   S. de Gironcoli, J. Phys.: Condens. Matter 24, 424209 (2012).
     *

     Carrying out vdW-DF run using the following parameters:

     Nqs =      20    Nr_points =    1024   r_max =   100.000
     q_mesh =
               0.00001000     0.04494208     0.09755937     0.15916263
               0.23128650     0.31572767     0.41458969     0.53033537
               0.66584808     0.82450364     1.01025438     1.22772762
               1.48234092     1.78043706     2.12944203     2.53805004
               3.01644009     3.57652955     4.23227104     5.00000000

     Gradients computed in reciprocal space

[...]

     Starting wfc are  156 randomized atomic wfcs

     Self-consistent Calculation

[...]

     iteration #  8     ecut=    36.75 Ry     beta=0.10
     Davidson diagonalization with overlap
     c_bands:  3 eigenvalues not converged
     ethr =  4.70E-06,  avg # of iterations =  6.0

[...]

     total energy              =   -1992.52427414 Ry
     Harris-Foulkes estimate   =   -1992.52427367 Ry
     estimated scf accuracy    <       0.00000212 Ry

     iteration # 17     ecut=    36.75 Ry     beta=0.10
     Davidson diagonalization with overlap
     ethr =  1.02E-09,  avg # of iterations =  1.0

[...]

     negative rho (up, down):  7.996E-01 0.000E+00

     Adding external electric field

     Computed dipole along edir(3) :
        Dipole                0.0246 Ry au,          0.0627 Debye
        Dipole field          0.0001 Ry au

        Potential amp.       -0.0062 Ry
        Total length         45.2664 bohr

     End of self-consistent calculation

[...]

          k = 0.0596-0.0687 0.0000 ( 16906 PWs)   bands (ev):

[...]

          k =-0.0894-0.0516 0.0000 ( 16920 PWs)   bands (ev):

   -77.7896 -77.7596 -77.7450 -77.7156 -77.6220 -77.5923 -58.5354 -58.4532
   -58.4503 -58.3902 -58.3664 -58.3073 -39.7586 -39.7103 -39.6517 -39.6296
   -39.5338 -39.5032 -39.5003 -39.4451 -39.4415 -39.3883 -39.3372 -39.3316
   -39.2778 -39.2278 -39.2100 -39.1607 -39.1125 -39.0117 -32.8785 -32.8190
   -32.8130 -32.7265 -32.7185 -32.5899 -32.5532 -32.5138 -32.4958 -32.4607
   -32.4420 -32.4202 -32.3645 -32.1906 -32.1313 -32.1202 -32.0949 -31.9985
    -3.6490  -3.0788  -2.0626  -1.8060  -1.7654  -1.7219  -1.5260  -1.5234
    -1.3310  -0.9566  -0.8745  -0.8627  -0.7986  -0.5107  -0.4562  -0.3046
    -0.2752  -0.1051   0.1063   0.2359   0.4193   0.4569   0.8226   1.0052
     1.0766   1.0778   1.1092   1.1305   1.1951   1.3079   1.4293   1.4563
     1.5607   1.6077   1.7425   1.7699   1.8289   1.9712   2.0442   2.1600
     2.7401   2.8049   3.1135   3.1446   3.1529   3.2794   3.3443   3.6921
     3.8113   3.8349   3.8881   3.9596   4.0345   4.1251   4.2051   4.5258
     4.6565   4.8753   5.1620   5.2943   5.9927   6.1148   6.1443   6.2516
     6.3066   6.4787   7.8437   7.8781   8.1234

     the Fermi energy is     2.5003 ev

!    total energy              =   -1992.52427603 Ry
     Harris-Foulkes estimate   =   -1992.52427491 Ry
     estimated scf accuracy    <       0.00000064 Ry

     The total energy is the sum of the following terms:

     one-electron contribution =  -16686.04888127 Ry
     hartree contribution      =    8332.26790918 Ry
     xc contribution           =    -444.60428610 Ry
     ewald contribution        =    6805.93188655 Ry
     electric field correction =       0.00000170 Ry
     smearing contrib. (-TS)   =      -0.07090608 Ry

     convergence has been achieved in  17 iterations

 BEEF-vdW xc energy contributions
           1 :   -391.772048643702
           2 :    362.633183333032
           3 :   -310.999634195237
           4 :    247.768534538387
           5 :   -184.607064810304
           6 :    130.691553695482
           7 :   -90.7598271261935
           8 :    64.8850470974832
           9 :   -49.7540143976078
          10 :    40.7156619334720
          11 :   -33.7435572094059
          12 :    26.6285225375799
          13 :   -19.1562514618832
          14 :    12.4353902392379
          15 :   -7.84188653415595
          16 :    6.08992783320900
          17 :   -6.80575985397093
          18 :    8.70196363234652
          19 :   -10.1881582014665
          20 :    10.0780050253034
          21 :   -8.05841730254855
          22 :    4.72552086978533
          23 :   -1.21771744799003
          24 :   -1.35119699302749
          25 :    2.38401885091560
          26 :   -2.00991909498282
          27 :   0.945366596040799
          28 :  -0.105230650301337
          29 :   0.163503858788431
          30 :   -1.27301202063654
          31 :   -35.6959077570885
          32 :   -26.7777579978850

     Forces acting on atoms (Ry/au):

     negative rho (up, down):  7.996E-01 0.000E+00
     atom    1 type  1   force =    -0.00563886   -0.00325782    0.01674608
     atom    2 type  1   force =    -0.00563877   -0.00325773    0.01674577
     atom    3 type  2   force =     0.00626016    0.00361676    0.02628154
     atom    4 type  2   force =     0.00626226    0.00361817    0.02628134
     atom    5 type  1   force =     0.00190883    0.00110219   -0.02256940
     atom    6 type  1   force =     0.00190821    0.00110301   -0.02256911
     atom    7 type  2   force =    -0.00165112   -0.00095443   -0.02028386
     atom    8 type  2   force =    -0.00165242   -0.00095368   -0.02028349
     atom    9 type  1   force =    -0.00073635   -0.00042587   -0.00024830
     atom   10 type  1   force =    -0.00073663   -0.00042509   -0.00024849
     atom   11 type  2   force =    -0.00014391   -0.00008277    0.00007410
     atom   12 type  2   force =    -0.00014139   -0.00008275    0.00007382

     Total force =     0.063182     Total SCF correction =     0.005450

     entering subroutine stress ...

     negative rho (up, down):  7.996E-01 0.000E+00
          total   stress  (Ry/bohr**3)                   (kbar)     P=  -29.15
  -0.00024554   0.00000337  -0.00000187        -36.12      0.50     -0.28
   0.00000337  -0.00024942  -0.00000108          0.50    -36.69     -0.16
  -0.00000187  -0.00000108  -0.00009943         -0.28     -0.16    -14.63

 !ASE

     Writing output data file calc.save

     General routines

     Parallel routines

   This run was terminated on:  19:27:40  18Dec2018

   JOB DONE.
Job  /afs/slac/g/suncat/bin/suncat-tsmpirun -x LD_LIBRARY_PATH -wdir /scratch/qe530271_Fm93p pw.x -in pw.inp

TID   HOST_NAME   COMMAND_LINE            STATUS            TERMINATION_TIME
00000 suncat2040 pw.x -in pw.inp   Done                     12/18/2018 19:27:40
00001 suncat2040 pw.x -in pw.inp   Done                     12/18/2018 19:27:40
00002 suncat2040 pw.x -in pw.inp   Done                     12/18/2018 19:27:40
00003 suncat2040 pw.x -in pw.inp   Done                     12/18/2018 19:27:40
00004 suncat2040 pw.x -in pw.inp   Done                     12/18/2018 19:27:40
00005 suncat2040 pw.x -in pw.inp   Done                     12/18/2018 19:27:40
00006 suncat2040 pw.x -in pw.inp   Done                     12/18/2018 19:27:40
00007 suncat2040 pw.x -in pw.inp   Done                     12/18/2018 19:27:40
00008 suncat2040 pw.x -in pw.inp   Done                     12/18/2018 19:27:40
00009 suncat2040 pw.x -in pw.inp   Done                     12/18/2018 19:27:40
00010 suncat2040 pw.x -in pw.inp   Done                     12/18/2018 19:27:40
00011 suncat2040 pw.x -in pw.inp   Done                     12/18/2018 19:27:40
00012 suncat2040 pw.x -in pw.inp   Done                     12/18/2018 19:27:40
00013 suncat2040 pw.x -in pw.inp   Done                     12/18/2018 19:27:40
00014 suncat2040 pw.x -in pw.inp   Done                     12/18/2018 19:27:40
00015 suncat2040 pw.x -in pw.inp   Done                     12/18/2018 19:27:40
00016 suncat2039 pw.x -in pw.inp   Done                     12/18/2018 19:27:40
00017 suncat2039 pw.x -in pw.inp   Done                     12/18/2018 19:27:40
00018 suncat2039 pw.x -in pw.inp   Done                     12/18/2018 19:27:40
00019 suncat2039 pw.x -in pw.inp   Done                     12/18/2018 19:27:40
00020 suncat2039 pw.x -in pw.inp   Done                     12/18/2018 19:27:40
00021 suncat2039 pw.x -in pw.inp   Done                     12/18/2018 19:27:40
00022 suncat2039 pw.x -in pw.inp   Done                     12/18/2018 19:27:40
00023 suncat2039 pw.x -in pw.inp   Done                     12/18/2018 19:27:40
00024 suncat2039 pw.x -in pw.inp   Done                     12/18/2018 19:27:40
00025 suncat2039 pw.x -in pw.inp   Done                     12/18/2018 19:27:40
00026 suncat2039 pw.x -in pw.inp   Done                     12/18/2018 19:27:40
00027 suncat2039 pw.x -in pw.inp   Done                     12/18/2018 19:27:40
00028 suncat2039 pw.x -in pw.inp   Done                     12/18/2018 19:27:40
00029 suncat2039 pw.x -in pw.inp   Done                     12/18/2018 19:27:40
00030 suncat2039 pw.x -in pw.inp   Done                     12/18/2018 19:27:40
00031 suncat2039 pw.x -in pw.inp   Done                     12/18/2018 19:27:40