     Program PWSCF v.5.1rc2 (svn rev. 11289) starts on 29Dec2018 at 14:25:12

     Current dimensions of program PWSCF are:
     Max number of different atomic species (ntypx) = 10
     Max number of k-points (npk) =  40000
     Max angular momentum in pseudopotentials (lmaxx) =  3
     Presently stress not available with electric field

     IMPORTANT: XC functional enforced from input :
     Exchange-correlation      = BEEF-VDW ( 1  4 27 13 2)
     Any further DFT definition will be discarded
     Please, verify this is what you really want

     Subspace diagonalization in iterative solution of the eigenvalue problem:
     a serial algorithm will be used

     Found symmetry operation: I + (  0.5000 -0.5000  0.0000)
     This is a supercell, fractional translations are disabled

     bravais-lattice index     =            0
     lattice parameter (alat)  =       1.8897  a.u.
     unit-cell volume          =    4451.6607 (a.u.)^3
     number of atoms/cell      =           12
     number of atomic types    =            2
     number of electrons       =       174.00
     number of Kohn-Sham states=          117
     kinetic-energy cutoff     =      36.7493  Ry
     charge density cutoff     =     367.4932  Ry
     convergence threshold     =      1.0E-06
     mixing beta               =       0.1000
     number of iterations used =           10  plain     mixing
     Exchange-correlation      = BEEF-VDW ( 1  4 27 13 2)
     nstep                     =           50

     celldm(1)=   1.889726  celldm(2)=   0.000000  celldm(3)=   0.000000
     celldm(4)=   0.000000  celldm(5)=   0.000000  celldm(6)=   0.000000

     crystal axes: (cart. coord. in units of alat)
               a(1) = (   5.558201   0.000000   0.000000 )
               a(2) = (   2.742012   4.834767   0.000000 )
               a(3) = (   0.000000   0.000000  24.547975 )

     reciprocal axes: (cart. coord. in units 2 pi/alat)
               b(1) = (  0.179914 -0.102037  0.000000 )
               b(2) = (  0.000000  0.206835  0.000000 )
               b(3) = (  0.000000  0.000000  0.040737 )

     PseudoPot. # 1 for Mo read from file:
     /afs/slac.stanford.edu/u/if/mamunm/psp/gbrv1.5pbe/Mo.UPF
     MD5 check sum: 30c4dcd161f5d35cd49bb5239c51a633
     Pseudo is Ultrasoft + core correction, Zval = 14.0
     Generated by new atomic code, or converted to UPF format
     Using radial grid of  889 points,  6 beta functions with:
                l(1) =   0
                l(2) =   0
                l(3) =   1
                l(4) =   1
                l(5) =   2
                l(6) =   2
     Q(r) pseudized with  6 coefficients,  rinner =    1.000   1.000   1.000
                                                       1.000   1.000

     PseudoPot. # 2 for Tc read from file:
     /afs/slac.stanford.edu/u/if/mamunm/psp/gbrv1.5pbe/Tc.UPF
     MD5 check sum: 9eb49e5b028550b2339a02317eb7b844
     Pseudo is Ultrasoft + core correction, Zval = 15.0
     Generated by new atomic code, or converted to UPF format
     Using radial grid of  965 points,  6 beta functions with:
                l(1) =   0
                l(2) =   0
                l(3) =   1
                l(4) =   1
                l(5) =   2
                l(6) =   2
     Q(r) pseudized with  8 coefficients,  rinner =    1.300   1.300   1.300
                                                       1.300   1.300

     vdW kernel table read from file vdW_kernel_table
     MD5 check sum: 095c7af220d748ca6e76c0b4c6cfb241

     atomic species   valence    mass     pseudopotential
        Mo1           14.00    95.95000     Mo( 1.00)
        Tc1           15.00    97.90721     Tc( 1.00)

     No symmetry found

   Cartesian axes

     site n.     atom                  positions (alat units)
         1           Mo1 tau(   1) = (   0.0000000   0.0000000  10.0000000  )
         2           Mo1 tau(   2) = (   4.1501064   2.4173834  10.0000000  )
         3           Tc1 tau(   3) = (   2.7791005   0.0000000  10.0000000  )
         4           Tc1 tau(   4) = (   1.3710059   2.4173834  10.0000000  )
         5           Mo1 tau(   5) = (   5.5582010   3.2375804  12.2739876  )
         6           Mo1 tau(   6) = (   1.4080946   0.8201970  12.2739876  )
         7           Tc1 tau(   7) = (   2.7791005   3.2375804  12.2739876  )
         8           Tc1 tau(   8) = (   4.1871952   0.8201970  12.2739876  )
         9           Mo1 tau(   9) = (   2.8161893   1.6403939  14.5479752  )
        10           Mo1 tau(  10) = (   6.9662957   4.0577773  14.5479752  )
        11           Tc1 tau(  11) = (   5.5952898   1.6403939  14.5479752  )
        12           Tc1 tau(  12) = (   4.1871952   4.0577773  14.5479752  )

     number of k points=    20  Fermi-Dirac smearing, width (Ry)=  0.0110
                       cart. coord. in units 2pi/alat
        k(    1) = (   0.0000000   0.0000000   0.0000000), wk =   0.0555556
        k(    2) = (   0.0000000   0.0344725   0.0000000), wk =   0.1111111
        k(    3) = (   0.0000000   0.0689451   0.0000000), wk =   0.1111111
        k(    4) = (   0.0000000  -0.1034176   0.0000000), wk =   0.0555556
        k(    5) = (   0.0299857  -0.0170062   0.0000000), wk =   0.1111111
        k(    6) = (   0.0299857   0.0174663   0.0000000), wk =   0.1111111
        k(    7) = (   0.0299857   0.0519388   0.0000000), wk =   0.1111111
        k(    8) = (   0.0299857  -0.1204238   0.0000000), wk =   0.1111111
        k(    9) = (   0.0299857  -0.0859513   0.0000000), wk =   0.1111111
        k(   10) = (   0.0299857  -0.0514788   0.0000000), wk =   0.1111111
        k(   11) = (   0.0599714  -0.0340125   0.0000000), wk =   0.1111111
        k(   12) = (   0.0599714   0.0004601   0.0000000), wk =   0.1111111
        k(   13) = (   0.0599714   0.0349326   0.0000000), wk =   0.1111111
        k(   14) = (   0.0599714  -0.1374301   0.0000000), wk =   0.1111111
        k(   15) = (   0.0599714  -0.1029575   0.0000000), wk =   0.1111111
        k(   16) = (   0.0599714  -0.0684850   0.0000000), wk =   0.1111111
        k(   17) = (  -0.0899572   0.0510187   0.0000000), wk =   0.0555556
        k(   18) = (  -0.0899572   0.0854913   0.0000000), wk =   0.1111111
        k(   19) = (  -0.0899572   0.1199638   0.0000000), wk =   0.1111111
        k(   20) = (  -0.0899572  -0.0523989   0.0000000), wk =   0.0555556

     Largest allocated arrays     est. size (Mb)     dimensions
     Largest temporary arrays     est. size (Mb)     dimensions

     Check: negative/imaginary core charge=   -0.000015    0.000000

     Initial potential from superposition of free atoms
     Check: negative starting charge=   -0.749825

     starting charge  167.99345, renormalised to  174.00000

     negative rho (up, down):  7.766E-01 0.000E+00

     *
     * You are using vdW-DF for exchange-correlation in this calculation.
     * Please cite the following three references that made this development
     * possible:
     *
     *   M. Dion, H. Rydberg, E. Schroder, D. C. Langreth, and
     *   B. I. Lundqvist, Phys. Rev. Lett. 92, 246401 (2004).
     *
     *   T. Thonhauser, V. R. Cooper, S. Li, A. Puzder, P. Hyldgaard, and
     *   D. C. Langreth, Phys. Rev. B 76, 125112 (2007).
     *
     *   G. Roman-Perez and J. M. Soler, Phys. Rev. Lett. 103, 096102 (2009).
     *
     *
     * If you are using vdW-DF2, please also cite:
     *
     *   K. Lee, E. D. Murray, L. Kong, B. I. Lundqvist, and
     *   D. C. Langreth, Phys. Rev. B 82, 081101(R) (2010).
     *
     *
     * If you are calculating the stress with vdW-DF, please also cite:
     *
     *   R. Sabatini, E. Kucukbenli, B. Kolb, T. Thonhauser, and
     *   S. de Gironcoli, J. Phys.: Condens. Matter 24, 424209 (2012).
     *

     Carrying out vdW-DF run using the following parameters:

     Nqs =      20    Nr_points =    1024   r_max =   100.000
     q_mesh =
               0.00001000     0.04494208     0.09755937     0.15916263
               0.23128650     0.31572767     0.41458969     0.53033537
               0.66584808     0.82450364     1.01025438     1.22772762
               1.48234092     1.78043706     2.12944203     2.53805004
               3.01644009     3.57652955     4.23227104     5.00000000

     Gradients computed in reciprocal space

     Adding external electric field

     Computed dipole along edir(3) :
        Dipole               -0.0000 Ry au,         -0.0000 Debye
        Dipole field         -0.0000 Ry au

        Potential amp.        0.0000 Ry
        Total length         45.2292 bohr

     Starting wfc are  156 randomized atomic wfcs

     Self-consistent Calculation

     iteration #  1     ecut=    36.75 Ry     beta=0.10
     Davidson diagonalization with overlap
     ethr =  1.00E-02,  avg # of iterations =  2.1

[...]

     total energy              =   -1891.92914200 Ry
     Harris-Foulkes estimate   =   -1892.53628279 Ry
     estimated scf accuracy    <       4.05923950 Ry

[...]

     iteration #  9     ecut=    36.75 Ry     beta=0.10
     Davidson diagonalization with overlap
     c_bands:  1 eigenvalues not converged
     c_bands:  1 eigenvalues not converged
     ethr =  2.28E-06,  avg # of iterations =  4.8

[...]

     End of self-consistent calculation

          k = 0.0000 0.0000 0.0000 ( 16703 PWs)   bands (ev):

   -64.6293 -64.5749 -64.4726 -64.4702 -64.4192 -64.4170 -58.7819 -58.7519
   -58.7251 -58.7011 -58.6711 -58.6442 -36.8877 -36.8190 -36.7420 -36.7150
   -36.7102 -36.6788 -36.6080 -36.5287 -36.5203 -36.4968 -36.4741 -36.4306
   -36.4172 -36.3873 -36.3444 -36.3264 -36.1825 -36.1810 -33.1046 -33.0299
   -33.0105 -33.0103 -32.9489 -32.8567 -32.7776 -32.7530 -32.7161 -32.7017
   -32.6924 -32.6735 -32.6478 -32.5126 -32.4541 -32.4087 -32.3290 -32.3223
    -3.8743  -2.5153  -2.4753  -2.4668  -2.4424  -2.4138  -2.0456  -2.0210
    -1.9878  -1.8479  -1.8274  -1.8090  -1.5370  -1.5347  -1.5317  -0.3955
    -0.3857  -0.3388   0.4640   0.4732   0.5617   0.7205   0.7954   1.0355
     1.2867   1.3346   1.3944   1.4372   1.5118   1.5414   1.7112   1.7450
     1.7784   2.0167   2.1028   2.1243   2.9115   2.9591   2.9681   3.0774
     3.1955   3.3333   3.3440   3.3665   3.6684   4.0398   4.1600   4.1637
     4.5032   4.6713   4.7067   4.8562   4.9070   4.9127   5.0642   5.1164
     5.1694   5.2179   5.3489   5.5705   5.7118   5.8157   5.9897   6.0172
     6.0993   6.1355   6.2086   6.3556   6.4082

[...]

          k =-0.0900 0.0510 0.0000 ( 16738 PWs)   bands (ev):

[...]

     the Fermi energy is     2.2928 ev

!    total energy              =   -1891.30173533 Ry
     Harris-Foulkes estimate   =   -1891.30173004 Ry
     estimated scf accuracy    <       0.00000042 Ry

     The total energy is the sum of the following terms:

     one-electron contribution =  -16699.28464079 Ry
     hartree contribution      =    8345.72522941 Ry
     xc contribution           =    -318.39649265 Ry
     ewald contribution        =    6780.73570461 Ry
     electric field correction =       0.00000000 Ry
     smearing contrib. (-TS)   =      -0.08153590 Ry

     convergence has been achieved in  16 iterations

 BEEF-vdW xc energy contributions
           1 :   -276.951349400140
[...]
     MD5 check sum: 30c4dcd161f5d35cd49bb5239c51a633
     Pseudo is Ultrasoft + core correction, Zval = 14.0
     Generated by new atomic code, or converted to UPF format
     Using radial grid of  889 points,  6 beta functions with:
                l(1) =   0
                l(2) =   0
                l(3) =   1
                l(4) =   1
                l(5) =   2
                l(6) =   2
     Q(r) pseudized with  6 coefficients,  rinner =    1.000   1.000   1.000
                                                       1.000   1.000

     PseudoPot. # 2 for Tc read from file:
     /afs/slac.stanford.edu/u/if/mamunm/psp/gbrv1.5pbe/Tc.UPF
     MD5 check sum: 9eb49e5b028550b2339a02317eb7b844
     Pseudo is Ultrasoft + core correction, Zval = 15.0
     Generated by new atomic code, or converted to UPF format
     Using radial grid of  965 points,  6 beta functions with:
                l(1) =   0
                l(2) =   0
                l(3) =   1
                l(4) =   1
                l(5) =   2
                l(6) =   2
     Q(r) pseudized with  8 coefficients,  rinner =    1.300   1.300   1.300
                                                       1.300   1.300

     vdW kernel table read from file vdW_kernel_table
     MD5 check sum: 095c7af220d748ca6e76c0b4c6cfb241

     atomic species   valence    mass     pseudopotential
        Mo1           14.00    95.95000     Mo( 1.00)
        Tc1           15.00    97.90721     Tc( 1.00)

     No symmetry found

   Cartesian axes

     site n.     atom                  positions (alat units)
         1           Mo1 tau(   1) = (   0.0000000   0.0000000  10.0000000  )
         2           Mo1 tau(   2) = (   4.1501064   2.4173834  10.0000000  )
         3           Tc1 tau(   3) = (   2.7791005   0.0000000  10.0000000  )
         4           Tc1 tau(   4) = (   1.3710059   2.4173834  10.0000000  )
         5           Mo1 tau(   5) = (   5.5582010   3.2375804  12.2739876  )
         6           Mo1 tau(   6) = (   1.4080946   0.8201970  12.2739876  )
         7           Tc1 tau(   7) = (   2.7791005   3.2375804  12.2739876  )
         8           Tc1 tau(   8) = (   4.1871952   0.8201970  12.2739876  )
         9           Mo1 tau(   9) = (   2.8167468   1.6407171  14.4365342  )
        10           Mo1 tau(  10) = (   6.9668529   4.0581029  14.4365340  )
        11           Tc1 tau(  11) = (   5.5815762   1.6324067  14.4673104  )
        12           Tc1 tau(  12) = (   4.1734783   4.0497874  14.4673096  )

     number of k points=    20  Fermi-Dirac smearing, width (Ry)=  0.0110
                       cart. coord. in units 2pi/alat
        k(    1) = (   0.0000000   0.0000000   0.0000000), wk =   0.0555556
        k(    2) = (   0.0000000   0.0344725   0.0000000), wk =   0.1111111
        k(    3) = (   0.0000000   0.0689451   0.0000000), wk =   0.1111111
        k(    4) = (   0.0000000  -0.1034176   0.0000000), wk =   0.0555556
        k(    5) = (   0.0299857  -0.0170062   0.0000000), wk =   0.1111111
        k(    6) = (   0.0299857   0.0174663   0.0000000), wk =   0.1111111
        k(    7) = (   0.0299857   0.0519388   0.0000000), wk =   0.1111111
        k(    8) = (   0.0299857  -0.1204238   0.0000000), wk =   0.1111111
        k(    9) = (   0.0299857  -0.0859513   0.0000000), wk =   0.1111111
        k(   10) = (   0.0299857  -0.0514788   0.0000000), wk =   0.1111111
        k(   11) = (   0.0599714  -0.0340125   0.0000000), wk =   0.1111111
        k(   12) = (   0.0599714   0.0004601   0.0000000), wk =   0.1111111
        k(   13) = (   0.0599714   0.0349326   0.0000000), wk =   0.1111111
        k(   14) = (   0.0599714  -0.1374301   0.0000000), wk =   0.1111111
        k(   15) = (   0.0599714  -0.1029575   0.0000000), wk =   0.1111111
        k(   16) = (   0.0599714  -0.0684850   0.0000000), wk =   0.1111111
        k(   17) = (  -0.0899572   0.0510187   0.0000000), wk =   0.0555556
        k(   18) = (  -0.0899572   0.0854913   0.0000000), wk =   0.1111111
        k(   19) = (  -0.0899572   0.1199638   0.0000000), wk =   0.1111111
        k(   20) = (  -0.0899572  -0.0523989   0.0000000), wk =   0.0555556

     Largest allocated arrays     est. size (Mb)     dimensions
     Largest temporary arrays     est. size (Mb)     dimensions

     Check: negative/imaginary core charge=   -0.000015    0.000000

     Initial potential from superposition of free atoms
     Check: negative starting charge=   -0.750101

     starting charge  167.99345, renormalised to  174.00000

[...]

     *
     * You are using vdW-DF for exchange-correlation in this calculation.
     * Please cite the following three references that made this development
     * possible:
     *
     *   M. Dion, H. Rydberg, E. Schroder, D. C. Langreth, and
     *   B. I. Lundqvist, Phys. Rev. Lett. 92, 246401 (2004).
     *
     *   T. Thonhauser, V. R. Cooper, S. Li, A. Puzder, P. Hyldgaard, and
     *   D. C. Langreth, Phys. Rev. B 76, 125112 (2007).
     *
     *   G. Roman-Perez and J. M. Soler, Phys. Rev. Lett. 103, 096102 (2009).
     *
     *
     * If you are using vdW-DF2, please also cite:
     *
     *   K. Lee, E. D. Murray, L. Kong, B. I. Lundqvist, and
     *   D. C. Langreth, Phys. Rev. B 82, 081101(R) (2010).
     *
     *
     * If you are calculating the stress with vdW-DF, please also cite:
     *
     *   R. Sabatini, E. Kucukbenli, B. Kolb, T. Thonhauser, and
     *   S. de Gironcoli, J. Phys.: Condens. Matter 24, 424209 (2012).
     *

     Carrying out vdW-DF run using the following parameters:

     Nqs =      20    Nr_points =    1024   r_max =   100.000
     q_mesh =
               0.00001000     0.04494208     0.09755937     0.15916263
               0.23128650     0.31572767     0.41458969     0.53033537
               0.66584808     0.82450364     1.01025438     1.22772762
               1.48234092     1.78043706     2.12944203     2.53805004
               3.01644009     3.57652955     4.23227104     5.00000000

     Gradients computed in reciprocal space

[...]

     Starting wfc are  156 randomized atomic wfcs

     Self-consistent Calculation

[...]

     total energy              =   -1891.31091527 Ry
     Harris-Foulkes estimate   =   -1891.31091404 Ry
     estimated scf accuracy    <       0.00000103 Ry

     iteration # 17     ecut=    36.75 Ry     beta=0.10
     Davidson diagonalization with overlap
     ethr =  5.94E-10,  avg # of iterations =  1.9

[...]

     negative rho (up, down):  7.907E-01 0.000E+00

     Adding external electric field

     Computed dipole along edir(3) :
        Dipole                0.0299 Ry au,          0.0759 Debye
        Dipole field          0.0001 Ry au

        Potential amp.       -0.0076 Ry
        Total length         45.2292 bohr

     End of self-consistent calculation

[...]

          k = 0.0600-0.0685 0.0000 ( 16772 PWs)   bands (ev):

[...]

          k =-0.0900-0.0524 0.0000 ( 16800 PWs)   bands (ev):

   -64.5961 -64.5420 -64.4811 -64.4282 -64.3861 -64.3327 -58.7763 -58.7046
   -58.6942 -58.6257 -58.6215 -58.5432 -36.8529 -36.7832 -36.7201 -36.7031
   -36.6357 -36.6293 -36.5697 -36.5373 -36.4732 -36.4551 -36.4065 -36.4021
   -36.3503 -36.3217 -36.3044 -36.2530 -36.1880 -36.1101 -33.1134 -33.0644
   -33.0552 -32.9744 -32.9569 -32.8163 -32.7817 -32.7458 -32.7272 -32.6985
   -32.6654 -32.6575 -32.5999 -32.4125 -32.3778 -32.3453 -32.3382 -32.2365
    -2.3184  -2.2509  -1.6194  -1.5753  -1.5249  -1.4384  -1.2878  -1.2331
    -1.1444  -0.9544  -0.8564  -0.7265  -0.7102  -0.5422  -0.4570  -0.4554
    -0.0724   0.0034   0.0449   0.1651   0.3281   0.4354   0.7510   0.9406
     0.9565   1.0318   1.1164   1.1794   1.2074   1.2461   1.3526   1.3832
     1.5145   1.5458   1.5576   1.6050   1.6539   1.6668   1.8208   1.8399
     2.2855   2.3940   2.7366   2.7740   2.8565   2.9720   2.9961   3.0388
     3.3103   3.5479   3.5914   3.6478   3.7107   3.7943   3.8433   4.0511
     4.3177   4.5940   4.5983   4.9114   5.1364   5.4219   5.5403   5.7814
     5.9979   6.1841   7.2152   7.3729   7.5209

     the Fermi energy is     2.3051 ev

!    total energy              =   -1891.31091977 Ry
     Harris-Foulkes estimate   =   -1891.31091514 Ry
     estimated scf accuracy    <       0.00000055 Ry

     The total energy is the sum of the following terms:

     one-electron contribution =  -16928.86208132 Ry
     hartree contribution      =    8460.76094522 Ry
     xc contribution           =    -318.63168914 Ry
     ewald contribution        =    6895.49907181 Ry
     electric field correction =       0.00000252 Ry
     smearing contrib. (-TS)   =      -0.07716885 Ry

     convergence has been achieved in  17 iterations

 BEEF-vdW xc energy contributions
           1 :   -277.188904962458
           2 :    254.356868786485
           3 :   -214.280804846577
           4 :    165.925651231224
           5 :   -118.651982334684
           6 :    79.4231808367333
           7 :   -51.3321770354810
           8 :    33.6808778617167
           9 :   -23.3489199696701
          10 :    16.6377953785187
          11 :   -10.8499343623125
          12 :    5.04460805553731
          13 :   0.102069728402114
          14 :   -3.11424225269292
          15 :    2.73545016844105
          16 :    1.28628676941793
          17 :   -7.96328128510243
          18 :    15.4072875313863
          19 :   -21.5521850923880
          20 :    24.8982209667704
          21 :   -24.9626073373892
          22 :    22.2646394723938
          23 :   -17.9195850455283
          24 :    13.0726700629562
          25 :   -8.45868968924322
          26 :    4.26023499662938
          27 :  -0.280935974998897
          28 :   -3.71193109556214
          29 :    7.67766807877638
          30 :   -11.1949777956179
          31 :   -28.2642356069240
          32 :   -21.1416813174992

     Forces acting on atoms (Ry/au):

     negative rho (up, down):  7.907E-01 0.000E+00
     atom    1 type  1   force =    -0.00259254   -0.00151006    0.02395531
     atom    2 type  1   force =    -0.00259250   -0.00151030    0.02395539
     atom    3 type  2   force =     0.00417870    0.00243395    0.01412843
     atom    4 type  2   force =     0.00418072    0.00243511    0.01412821
     atom    5 type  1   force =    -0.00189421   -0.00110323   -0.01636558
     atom    6 type  1   force =    -0.00189414   -0.00110331   -0.01636557
     atom    7 type  2   force =     0.00167280    0.00097424   -0.02154823
     atom    8 type  2   force =     0.00167397    0.00097526   -0.02154766
     atom    9 type  1   force =    -0.00076304   -0.00044433    0.00007211
     atom   10 type  1   force =    -0.00076294   -0.00044443    0.00007215
     atom   11 type  2   force =    -0.00060351   -0.00035155   -0.00024236
     atom   12 type  2   force =    -0.00060330   -0.00035135   -0.00024219

     Total force =     0.055640     Total SCF correction =     0.001799

     entering subroutine stress ...

     negative rho (up, down):  7.907E-01 0.000E+00
          total   stress  (Ry/bohr**3)                   (kbar)     P=  -23.36
  -0.00019928  -0.00000063  -0.00000572        -29.31     -0.09     -0.84
  -0.00000063  -0.00019856  -0.00000333         -0.09    -29.21     -0.49
  -0.00000572  -0.00000333  -0.00007853         -0.84     -0.49    -11.55

 !ASE

     Writing output data file calc.save

     General routines

     Parallel routines

   This run was terminated on:  15:22: 7  29Dec2018

   JOB DONE.
Job  /afs/slac/g/suncat/bin/suncat-tsmpirun -x LD_LIBRARY_PATH -wdir /scratch/qe387695_Mn1Li pw.x -in pw.inp

TID   HOST_NAME   COMMAND_LINE            STATUS            TERMINATION_TIME
00000 suncat0154 pw.x -in pw.inp   Done                     12/29/2018 15:22:07
00001 suncat0154 pw.x -in pw.inp   Done                     12/29/2018 15:22:07
00002 suncat0154 pw.x -in pw.inp   Done                     12/29/2018 15:22:07
00003 suncat0154 pw.x -in pw.inp   Done                     12/29/2018 15:22:07
00004 suncat0154 pw.x -in pw.inp   Done                     12/29/2018 15:22:07
00005 suncat0154 pw.x -in pw.inp   Done                     12/29/2018 15:22:07
00006 suncat0154 pw.x -in pw.inp   Done                     12/29/2018 15:22:07
00007 suncat0154 pw.x -in pw.inp   Done                     12/29/2018 15:22:07
00008 suncat0108 pw.x -in pw.inp   Done                     12/29/2018 15:22:07
00009 suncat0108 pw.x -in pw.inp   Done                     12/29/2018 15:22:07
00010 suncat0108 pw.x -in pw.inp   Done                     12/29/2018 15:22:07
00011 suncat0108 pw.x -in pw.inp   Done                     12/29/2018 15:22:07
00012 suncat0108 pw.x -in pw.inp   Done                     12/29/2018 15:22:07
00013 suncat0108 pw.x -in pw.inp   Done                     12/29/2018 15:22:07
00014 suncat0108 pw.x -in pw.inp   Done                     12/29/2018 15:22:07
00015 suncat0108 pw.x -in pw.inp   Done                     12/29/2018 15:22:07
00016 suncat0107 pw.x -in pw.inp   Done                     12/29/2018 15:22:07
00017 suncat0107 pw.x -in pw.inp   Done                     12/29/2018 15:22:07
00018 suncat0107 pw.x -in pw.inp   Done                     12/29/2018 15:22:07
00019 suncat0107 pw.x -in pw.inp   Done                     12/29/2018 15:22:07
00020 suncat0107 pw.x -in pw.inp   Done                     12/29/2018 15:22:07
00021 suncat0107 pw.x -in pw.inp   Done                     12/29/2018 15:22:07
00022 suncat0107 pw.x -in pw.inp   Done                     12/29/2018 15:22:07
00023 suncat0107 pw.x -in pw.inp   Done                     12/29/2018 15:22:07
00024 suncat0252 pw.x -in pw.inp   Done                     12/29/2018 15:22:07
00025 suncat0252 pw.x -in pw.inp   Done                     12/29/2018 15:22:07
00026 suncat0252 pw.x -in pw.inp   Done                     12/29/2018 15:22:07
00027 suncat0252 pw.x -in pw.inp   Done                     12/29/2018 15:22:07
00028 suncat0252 pw.x -in pw.inp   Done                     12/29/2018 15:22:07
00029 suncat0252 pw.x -in pw.inp   Done                     12/29/2018 15:22:07
00030 suncat0252 pw.x -in pw.inp   Done                     12/29/2018 15:22:07
00031 suncat0252 pw.x -in pw.inp   Done                     12/29/2018 15:22:07
00032 suncat0226 pw.x -in pw.inp   Done                     12/29/2018 15:22:07
00033 suncat0226 pw.x -in pw.inp   Done                     12/29/2018 15:22:07
00034 suncat0226 pw.x -in pw.inp   Done                     12/29/2018 15:22:07
00035 suncat0226 pw.x -in pw.inp   Done                     12/29/2018 15:22:07
00036 suncat0226 pw.x -in pw.inp   Done                     12/29/2018 15:22:07
00037 suncat0226 pw.x -in pw.inp   Done                     12/29/2018 15:22:07
00038 suncat0226 pw.x -in pw.inp   Done                     12/29/2018 15:22:07
00039 suncat0226 pw.x -in pw.inp   Done                     12/29/2018 15:22:07
00040 suncat0225 pw.x -in pw.inp   Done                     12/29/2018 15:22:07
00041 suncat0225 pw.x -in pw.inp   Done                     12/29/2018 15:22:07
00042 suncat0225 pw.x -in pw.inp   Done                     12/29/2018 15:22:07
00043 suncat0225 pw.x -in pw.inp   Done                     12/29/2018 15:22:07
00044 suncat0225 pw.x -in pw.inp   Done                     12/29/2018 15:22:07
00045 suncat0225 pw.x -in pw.inp   Done                     12/29/2018 15:22:07
00046 suncat0225 pw.x -in pw.inp   Done                     12/29/2018 15:22:07
00047 suncat0225 pw.x -in pw.inp   Done                     12/29/2018 15:22:07
00048 suncat0224 pw.x -in pw.inp   Done                     12/29/2018 15:22:07
00049 suncat0224 pw.x -in pw.inp   Done                     12/29/2018 15:22:07
00050 suncat0224 pw.x -in pw.inp   Done                     12/29/2018 15:22:07
00051 suncat0224 pw.x -in pw.inp   Done                     12/29/2018 15:22:07
00052 suncat0224 pw.x -in pw.inp   Done                     12/29/2018 15:22:07
00053 suncat0224 pw.x -in pw.inp   Done                     12/29/2018 15:22:07
00054 suncat0224 pw.x -in pw.inp   Done                     12/29/2018 15:22:07
00055 suncat0224 pw.x -in pw.inp   Done                     12/29/2018 15:22:07
00056 suncat0223 pw.x -in pw.inp   Done                     12/29/2018 15:22:07
00057 suncat0223 pw.x -in pw.inp   Done                     12/29/2018 15:22:07
00058 suncat0223 pw.x -in pw.inp   Done                     12/29/2018 15:22:07
00059 suncat0223 pw.x -in pw.inp   Done                     12/29/2018 15:22:07
00060 suncat0223 pw.x -in pw.inp   Done                     12/29/2018 15:22:07
00061 suncat0223 pw.x -in pw.inp   Done                     12/29/2018 15:22:07
00062 suncat0223 pw.x -in pw.inp   Done                     12/29/2018 15:22:07
00063 suncat0223 pw.x -in pw.inp   Done                     12/29/2018 15:22:07