     Program PWSCF v.5.1rc2 (svn rev. 11289) starts on 19Dec2018 at  2: 5:57

     Current dimensions of program PWSCF are:
     Max number of different atomic species (ntypx) = 10
     Max number of k-points (npk) =  40000
     Max angular momentum in pseudopotentials (lmaxx) =  3
     Presently stress not available with electric field

     IMPORTANT: XC functional enforced from input :
     Exchange-correlation      = BEEF-VDW ( 1  4 27 13 2)
     Any further DFT definition will be discarded
     Please, verify this is what you really want

     Subspace diagonalization in iterative solution of the eigenvalue problem:
     a serial algorithm will be used

     Found symmetry operation: I + (  0.5000  0.0000  0.0000)
     This is a supercell, fractional translations are disabled

     bravais-lattice index     =            0
     lattice parameter (alat)  =       1.8897  a.u.
     unit-cell volume          =    4828.4478 (a.u.)^3
     number of atoms/cell      =           12
     number of atomic types    =            2
     number of electrons       =       162.00
     number of Kohn-Sham states=          111
     kinetic-energy cutoff     =      36.7493  Ry
     charge density cutoff     =     367.4932  Ry
     convergence threshold     =      1.0E-06
     mixing beta               =       0.1000
     number of iterations used =           10  plain     mixing
     Exchange-correlation      = BEEF-VDW ( 1  4 27 13 2)
     nstep                     =           50

     celldm(1)=   1.889726  celldm(2)=   0.000000  celldm(3)=   0.000000
     celldm(4)=   0.000000  celldm(5)=   0.000000  celldm(6)=   0.000000

     crystal axes: (cart. coord. in units of alat)
               a(1) = (   5.736007   0.000000   0.000000 )
               a(2) = (  -2.868003   5.046167   0.000000 )
               a(3) = (   0.000000   0.000000  24.719500 )

     reciprocal axes: (cart. coord. in units 2 pi/alat)
               b(1) = (  0.174337  0.099085  0.000000 )
               b(2) = (  0.000000  0.198170  0.000000 )
               b(3) = (  0.000000  0.000000  0.040454 )

     PseudoPot. # 1 for Pt read from file:
     /afs/slac.stanford.edu/u/if/mamunm/psp/gbrv1.5pbe/Pt.UPF
     MD5 check sum: f09d6de1a584b5a045c4fc126da2d0c4
     Pseudo is Ultrasoft + core correction, Zval = 16.0
     Generated by new atomic code, or converted to UPF format
     Using radial grid of  985 points,  6 beta functions with:
                l(1) =   0
                l(2) =   0
                l(3) =   1
                l(4) =   1
                l(5) =   2
                l(6) =   2
     Q(r) pseudized with  8 coefficients,  rinner =    1.300   1.300   1.300
                                                       1.300   1.300

     PseudoPot. # 2 for Au read from file:
     /afs/slac.stanford.edu/u/if/mamunm/psp/gbrv1.5pbe/Au.UPF
     MD5 check sum: 9d7f43293ad2c663164586bc4b293ffc
     Pseudo is Ultrasoft + core correction, Zval = 11.0
     Generated by new atomic code, or converted to UPF format
     Using radial grid of  985 points,  7 beta functions with:
                l(1) =   0
                l(2) =   0
                l(3) =   1
                l(4) =   1
                l(5) =   2
                l(6) =   2
                l(7) =   3
     Q(r) pseudized with  6 coefficients,  rinner =    1.900   1.900   1.900
                                                       1.900   1.900   1.900
                                                       1.900

     vdW kernel table read from file vdW_kernel_table
     MD5 check sum: 095c7af220d748ca6e76c0b4c6cfb241

     atomic species   valence    mass     pseudopotential
        Pt1           16.00   195.08400     Pt( 1.00)
        Au1           11.00   196.96657     Au( 1.00)

     No symmetry found

   Cartesian axes

     site n.     atom                  positions (alat units)
         1           Pt1 tau(   1) = (   0.0000000   0.0000000  10.0000000  )
         2           Pt1 tau(   2) = (   2.8680034   0.0000000  10.0000000  )
         3           Au1 tau(   3) = (   1.4340017   2.5230834  10.0000000  )
         4           Au1 tau(   4) = (  -1.4340017   2.5230834  10.0000000  )
         5           Pt1 tau(   5) = (   2.8680034   1.6300380  12.3597499  )
         6           Pt1 tau(   6) = (   0.0000000   1.6300380  12.3597499  )
         7           Au1 tau(   7) = (  -1.4340017   4.1531214  12.3597499  )
         8           Au1 tau(   8) = (   1.4340017   4.1531214  12.3597499  )
         9           Pt1 tau(   9) = (  -0.0000000   3.2600761  14.7194998  )
        10           Pt1 tau(  10) = (   2.8680034   3.2600761  14.7194998  )
        11           Au1 tau(  11) = (   4.3020051   0.7369927  14.7194998  )
        12           Au1 tau(  12) = (   1.4340017   0.7369927  14.7194998  )

     number of k points=    20  Fermi-Dirac smearing, width (Ry)=  0.0110
                       cart. coord. in units 2pi/alat
        k(    1) = (   0.0000000   0.0000000   0.0000000), wk =   0.0555556
        k(    2) = (   0.0000000   0.0330284   0.0000000), wk =   0.1111111
        k(    3) = (   0.0000000   0.0660567   0.0000000), wk =   0.1111111
        k(    4) = (   0.0000000  -0.0990851   0.0000000), wk =   0.0555556
        k(    5) = (   0.0290562   0.0165142   0.0000000), wk =   0.1111111
        k(    6) = (   0.0290562   0.0495426   0.0000000), wk =   0.1111111
        k(    7) = (   0.0290562   0.0825709   0.0000000), wk =   0.1111111
        k(    8) = (   0.0290562  -0.0825709   0.0000000), wk =   0.1111111
        k(    9) = (   0.0290562  -0.0495426   0.0000000), wk =   0.1111111
        k(   10) = (   0.0290562  -0.0165142   0.0000000), wk =   0.1111111
        k(   11) = (   0.0581124   0.0330284   0.0000000), wk =   0.1111111
        k(   12) = (   0.0581124   0.0660567   0.0000000), wk =   0.1111111
        k(   13) = (   0.0581124   0.0990851   0.0000000), wk =   0.1111111
        k(   14) = (   0.0581124  -0.0660567   0.0000000), wk =   0.1111111
        k(   15) = (   0.0581124  -0.0330284   0.0000000), wk =   0.1111111
        k(   16) = (   0.0581124  -0.0000000   0.0000000), wk =   0.1111111
        k(   17) = (  -0.0871687  -0.0495426   0.0000000), wk =   0.0555556
        k(   18) = (  -0.0871687  -0.0165142   0.0000000), wk =   0.1111111
        k(   19) = (  -0.0871687   0.0165142   0.0000000), wk =   0.1111111
        k(   20) = (  -0.0871687  -0.1486277   0.0000000), wk =   0.0555556

     Largest allocated arrays     est. size (Mb)     dimensions
     Largest temporary arrays     est. size (Mb)     dimensions

     Check: negative/imaginary core charge=   -0.000002    0.000000

     Initial potential from superposition of free atoms
     Check: negative starting charge=   -1.107228

     starting charge  158.99920, renormalised to  162.00000

     negative rho (up, down):  1.128E+00 0.000E+00

     *
     * You are using vdW-DF for exchange-correlation in this calculation.
     * Please cite the following three references that made this development
     * possible:
     *
     *   M. Dion, H. Rydberg, E. Schroder, D. C. Langreth, and
     *   B. I. Lundqvist, Phys. Rev. Lett. 92, 246401 (2004).
     *
     *   T. Thonhauser, V. R. Cooper, S. Li, A. Puzder, P. Hyldgaard, and
     *   D. C. Langreth, Phys. Rev. B 76, 125112 (2007).
     *
     *   G. Roman-Perez and J. M. Soler, Phys. Rev. Lett. 103, 096102 (2009).
     *
     *
     * If you are using vdW-DF2, please also cite:
     *
     *   K. Lee, E. D. Murray, L. Kong, B. I. Lundqvist, and
     *   D. C. Langreth, Phys. Rev. B 82, 081101(R) (2010).
     *
     *
     * If you are calculating the stress with vdW-DF, please also cite:
     *
     *   R. Sabatini, E. Kucukbenli, B. Kolb, T. Thonhauser, and
     *   S. de Gironcoli, J. Phys.: Condens. Matter 24, 424209 (2012).
     *

     Carrying out vdW-DF run using the following parameters:

     Nqs =      20    Nr_points =    1024   r_max =   100.000
     q_mesh =
               0.00001000     0.04494208     0.09755937     0.15916263
               0.23128650     0.31572767     0.41458969     0.53033537
               0.66584808     0.82450364     1.01025438     1.22772762
               1.48234092     1.78043706     2.12944203     2.53805004
               3.01644009     3.57652955     4.23227104     5.00000000

     Gradients computed in reciprocal space

     Adding external electric field

     Computed dipole along edir(3) :
        Dipole                0.0000 Ry au,          0.0000 Debye
        Dipole field          0.0000 Ry au

        Potential amp.       -0.0000 Ry
        Total length         45.5453 bohr

     Starting wfc are  126 randomized atomic wfcs

     Self-consistent Calculation

     iteration #  1     ecut=    36.75 Ry     beta=0.10
     Davidson diagonalization with overlap
     ethr =  1.00E-02,  avg # of iterations =  7.8

[...]

     total energy              =   -1974.52728096 Ry
     Harris-Foulkes estimate   =   -1975.26335575 Ry
     estimated scf accuracy    <       4.69552582 Ry

[...]

     End of self-consistent calculation

          k = 0.0000 0.0000 0.0000 ( 18207 PWs)   bands (ev):

   -51.4660 -51.4146 -51.3996 -51.3095 -51.3092 -51.3004 -51.2711 -51.2561
   -51.1897 -51.1808 -51.1750 -51.1662 -51.1448 -51.1446 -51.0034 -50.9991
   -50.9886 -50.9846  -7.3415  -5.8378  -5.4192  -5.1850  -5.1101  -5.0658
    -4.9521  -4.9436  -4.7314  -4.6365  -4.6065  -4.5929  -4.5405  -4.4464
    -4.2386  -3.6251  -3.3596  -3.3250  -3.2365  -3.1228  -3.1035  -2.8778
    -2.8101  -2.7723  -2.6636  -2.6135  -2.5186  -2.4692  -2.4555  -2.3745
    -2.3248  -2.2603  -1.9128  -1.7681  -1.5730  -1.4486  -1.3911  -1.1748
    -1.1505  -1.0904  -1.0660  -0.7428  -0.6330  -0.5595  -0.5560  -0.5071
    -0.2271  -0.1869  -0.1207   0.0136   0.0197   0.1078   0.1171   0.2175
     0.3755   0.3755   0.4287   0.4657   0.5633   0.6464   0.6951   0.8102
     1.0740   1.7070   1.9265   1.9542   2.0052   3.0166   3.0583   3.0842
     3.2536   3.3240   3.4834   5.2694   5.3091   5.3965   5.6918   5.7558
     5.7563   5.7884   5.9416   6.1919   6.7009   6.8576   6.9580   7.0766
     7.5347   9.2254   9.4511   9.6899   9.8396   9.8838  10.1719

[...]

          k =-0.0872-0.0495 0.0000 ( 18144 PWs)   bands (ev):

[...]

     the Fermi energy is     0.6905 ev

!    total energy              =   -1974.23813890 Ry
     Harris-Foulkes estimate   =   -1974.23811551 Ry
     estimated scf accuracy    <       0.00000096 Ry

     The total energy is the sum of the following terms:

     one-electron contribution =  -13190.69573335 Ry
     hartree contribution      =    6661.77889296 Ry
     xc contribution           =    -735.74892688 Ry
     ewald contribution        =    5290.48737889 Ry
     electric field correction =       0.00000000 Ry
     smearing contrib. (-TS)   =      -0.05975051 Ry

     convergence has been achieved in  15 iterations

 BEEF-vdW xc energy contributions
           1 :   -656.558589032567
           2 :    610.722912888124
           3 :   -528.602674964586
           4 :    425.951834335192
           5 :   -319.942361397513
           6 :    224.722459260669
           7 :   -148.647854255035
[...]
     SCF correction compared to forces is large: reduce conv_thr to get better values

[...]

     Found symmetry operation: I + (  0.5000  0.0000  0.0000)
     This is a supercell, fractional translations are disabled

[...]

     Total force =     0.043093     Total SCF correction =     0.002623

[...]

   This run was terminated on:   2:50:12  19Dec2018

[...]

     Program PWSCF v.5.1rc2 (svn rev. 11289) starts on 19Dec2018 at  2:50:18

     Current dimensions of program PWSCF are:
     Max number of different atomic species (ntypx) = 10
     Max number of k-points (npk) =  40000
     Max angular momentum in pseudopotentials (lmaxx) =  3
     Presently stress not available with electric field

     IMPORTANT: XC functional enforced from input :
     Exchange-correlation      = BEEF-VDW ( 1  4 27 13 2)
     Any further DFT definition will be discarded
     Please, verify this is what you really want

     Subspace diagonalization in iterative solution of the eigenvalue problem:
     a serial algorithm will be used

     bravais-lattice index     =            0
     lattice parameter (alat)  =       1.8897  a.u.
     unit-cell volume          =    4828.4478 (a.u.)^3
     number of atoms/cell      =           12
     number of atomic types    =            2
     number of electrons       =       162.00
     number of Kohn-Sham states=          111
     kinetic-energy cutoff     =      36.7493  Ry
     charge density cutoff     =     367.4932  Ry
     convergence threshold     =      1.0E-06
     mixing beta               =       0.1000
     number of iterations used =           10  plain     mixing
     Exchange-correlation      = BEEF-VDW ( 1  4 27 13 2)
     nstep                     =           50

     celldm(1)=   1.889726  celldm(2)=   0.000000  celldm(3)=   0.000000
     celldm(4)=   0.000000  celldm(5)=   0.000000  celldm(6)=   0.000000

     crystal axes: (cart. coord. in units of alat)
               a(1) = (   5.736007   0.000000   0.000000 )
               a(2) = (  -2.868003   5.046167   0.000000 )
               a(3) = (   0.000000   0.000000  24.719500 )

     reciprocal axes: (cart. coord. in units 2 pi/alat)
               b(1) = (  0.174337  0.099085  0.000000 )
               b(2) = (  0.000000  0.198170  0.000000 )
               b(3) = (  0.000000  0.000000  0.040454 )

     PseudoPot. # 1 for Pt read from file:
     /afs/slac.stanford.edu/u/if/mamunm/psp/gbrv1.5pbe/Pt.UPF
     MD5 check sum: f09d6de1a584b5a045c4fc126da2d0c4
     Pseudo is Ultrasoft + core correction, Zval = 16.0
     Generated by new atomic code, or converted to UPF format
     Using radial grid of  985 points,  6 beta functions with:
                l(1) =   0
                l(2) =   0
                l(3) =   1
                l(4) =   1
                l(5) =   2
                l(6) =   2
     Q(r) pseudized with  8 coefficients,  rinner =    1.300   1.300   1.300
                                                       1.300   1.300

     PseudoPot. # 2 for Au read from file:
     /afs/slac.stanford.edu/u/if/mamunm/psp/gbrv1.5pbe/Au.UPF
     MD5 check sum: 9d7f43293ad2c663164586bc4b293ffc
     Pseudo is Ultrasoft + core correction, Zval = 11.0
     Generated by new atomic code, or converted to UPF format
     Using radial grid of  985 points,  7 beta functions with:
                l(1) =   0
                l(2) =   0
                l(3) =   1
                l(4) =   1
                l(5) =   2
                l(6) =   2
                l(7) =   3
     Q(r) pseudized with  6 coefficients,  rinner =    1.900   1.900   1.900
                                                       1.900   1.900   1.900
                                                       1.900

     vdW kernel table read from file vdW_kernel_table
     MD5 check sum: 095c7af220d748ca6e76c0b4c6cfb241

     atomic species   valence    mass     pseudopotential
        Pt1           16.00   195.08400     Pt( 1.00)
        Au1           11.00   196.96657     Au( 1.00)

     No symmetry found

   Cartesian axes

     site n.     atom                  positions (alat units)
         1           Pt1 tau(   1) = (   0.0000000   0.0000000  10.0000000  )
         2           Pt1 tau(   2) = (   2.8680034   0.0000000  10.0000000  )
         3           Au1 tau(   3) = (   1.4340017   2.5230834  10.0000000  )
         4           Au1 tau(   4) = (  -1.4340017   2.5230834  10.0000000  )
         5           Pt1 tau(   5) = (   2.8680034   1.6300380  12.3597499  )
         6           Pt1 tau(   6) = (   0.0000000   1.6300380  12.3597499  )
         7           Au1 tau(   7) = (  -1.4340017   4.1531214  12.3597499  )
         8           Au1 tau(   8) = (   1.4340017   4.1531214  12.3597499  )
         9           Pt1 tau(   9) = (   0.0000287   3.0806268  14.6811163  )
        10           Pt1 tau(  10) = (   2.8679828   3.0806305  14.6811190  )
        11           Au1 tau(  11) = (   4.3019792   0.5862795  14.8805694  )
        12           Au1 tau(  12) = (   1.4339777   0.5862078  14.8805043  )

     number of k points=    20  Fermi-Dirac smearing, width (Ry)=  0.0110
                       cart. coord. in units 2pi/alat
        k(    1) = (   0.0000000   0.0000000   0.0000000), wk =   0.0555556
        k(    2) = (   0.0000000   0.0330284   0.0000000), wk =   0.1111111
        k(    3) = (   0.0000000   0.0660567   0.0000000), wk =   0.1111111
        k(    4) = (   0.0000000  -0.0990851   0.0000000), wk =   0.0555556
        k(    5) = (   0.0290562   0.0165142   0.0000000), wk =   0.1111111
        k(    6) = (   0.0290562   0.0495426   0.0000000), wk =   0.1111111
        k(    7) = (   0.0290562   0.0825709   0.0000000), wk =   0.1111111
        k(    8) = (   0.0290562  -0.0825709   0.0000000), wk =   0.1111111
        k(    9) = (   0.0290562  -0.0495426   0.0000000), wk =   0.1111111
        k(   10) = (   0.0290562  -0.0165142   0.0000000), wk =   0.1111111
        k(   11) = (   0.0581124   0.0330284   0.0000000), wk =   0.1111111
        k(   12) = (   0.0581124   0.0660567   0.0000000), wk =   0.1111111
        k(   13) = (   0.0581124   0.0990851   0.0000000), wk =   0.1111111
        k(   14) = (   0.0581124  -0.0660567   0.0000000), wk =   0.1111111
        k(   15) = (   0.0581124  -0.0330284   0.0000000), wk =   0.1111111
        k(   16) = (   0.0581124  -0.0000000   0.0000000), wk =   0.1111111
        k(   17) = (  -0.0871687  -0.0495426   0.0000000), wk =   0.0555556
        k(   18) = (  -0.0871687  -0.0165142   0.0000000), wk =   0.1111111
        k(   19) = (  -0.0871687   0.0165142   0.0000000), wk =   0.1111111
        k(   20) = (  -0.0871687  -0.1486277   0.0000000), wk =   0.0555556

     Largest allocated arrays     est. size (Mb)     dimensions
     Largest temporary arrays     est. size (Mb)     dimensions

     Check: negative/imaginary core charge=   -0.000002    0.000000

     Initial potential from superposition of free atoms
     Check: negative starting charge=   -1.102931

     starting charge  158.99920, renormalised to  162.00000

[...]

     *
     * You are using vdW-DF for exchange-correlation in this calculation.
     * Please cite the following three references that made this development
     * possible:
     *
     *   M. Dion, H. Rydberg, E. Schroder, D. C. Langreth, and
     *   B. I. Lundqvist, Phys. Rev. Lett. 92, 246401 (2004).
     *
     *   T. Thonhauser, V. R. Cooper, S. Li, A. Puzder, P. Hyldgaard, and
     *   D. C. Langreth, Phys. Rev. B 76, 125112 (2007).
     *
     *   G. Roman-Perez and J. M. Soler, Phys. Rev. Lett. 103, 096102 (2009).
     *
     *
     * If you are using vdW-DF2, please also cite:
     *
     *   K. Lee, E. D. Murray, L. Kong, B. I. Lundqvist, and
     *   D. C. Langreth, Phys. Rev. B 82, 081101(R) (2010).
     *
     *
     * If you are calculating the stress with vdW-DF, please also cite:
     *
     *   R. Sabatini, E. Kucukbenli, B. Kolb, T. Thonhauser, and
     *   S. de Gironcoli, J. Phys.: Condens. Matter 24, 424209 (2012).
     *

     Carrying out vdW-DF run using the following parameters:

     Nqs =      20    Nr_points =    1024   r_max =   100.000
     q_mesh =
               0.00001000     0.04494208     0.09755937     0.15916263
               0.23128650     0.31572767     0.41458969     0.53033537
               0.66584808     0.82450364     1.01025438     1.22772762
               1.48234092     1.78043706     2.12944203     2.53805004
               3.01644009     3.57652955     4.23227104     5.00000000

     Gradients computed in reciprocal space

[...]

     Starting wfc are  126 randomized atomic wfcs

     Self-consistent Calculation

[...]

     total energy              =   -1974.24581756 Ry
     Harris-Foulkes estimate   =   -1974.24581264 Ry
     estimated scf accuracy    <       0.00000314 Ry

     iteration # 16     ecut=    36.75 Ry     beta=0.10
     Davidson diagonalization with overlap
     ethr =  1.94E-09,  avg # of iterations =  2.0

[...]

     negative rho (up, down):  1.066E+00 0.000E+00

     Adding external electric field

     Computed dipole along edir(3) :
        Dipole                0.0110 Ry au,          0.0279 Debye
        Dipole field          0.0000 Ry au

        Potential amp.       -0.0026 Ry
        Total length         45.5453 bohr

     End of self-consistent calculation

[...]

          k = 0.0581-0.0000 0.0000 ( 18185 PWs)   bands (ev):

[...]

          k =-0.0872-0.1486 0.0000 ( 18144 PWs)   bands (ev):

   -51.4570 -51.4570 -51.3760 -51.3760 -51.2823 -51.2823 -51.2557 -51.2557
   -51.2280 -51.2280 -51.2193 -51.2193 -51.1722 -51.1722 -51.0845 -51.0845
   -50.9855 -50.9855  -5.6495  -5.6495  -4.5490  -4.5490  -4.3621  -4.3621
    -4.2306  -4.2306  -4.0802  -4.0802  -3.8302  -3.8302  -3.6752  -3.6752
    -3.5779  -3.5779  -3.3232  -3.3232  -3.2017  -3.2017  -3.0250  -3.0249
    -2.9087  -2.9087  -2.7945  -2.7945  -2.7173  -2.7173  -2.6477  -2.6477
    -2.4981  -2.4981  -2.2586  -2.2586  -2.0588  -2.0588  -1.8938  -1.8938
    -1.6676  -1.6676  -1.5194  -1.5194  -1.1753  -1.1753  -0.9593  -0.9593
    -0.9037  -0.9036  -0.8470  -0.8470  -0.7575  -0.7574  -0.7102  -0.7102
    -0.5337  -0.5337  -0.1573  -0.1573  -0.1171  -0.1171   0.2208   0.2209
     0.4702   0.4702   1.8053   1.8054   2.0709   2.0709   2.9397   2.9397
     4.7434   4.7434   4.8797   4.8797   6.6502   6.6502   7.2915   7.2915
     7.3255   7.3255   7.3597   7.3598   7.9141   7.9142   8.1424   8.1424
     8.5324   8.5324   8.8305   8.8305   9.4121   9.4124   9.5475

     the Fermi energy is     0.6996 ev

!    total energy              =   -1974.24583817 Ry
     Harris-Foulkes estimate   =   -1974.24581785 Ry
     estimated scf accuracy    <       0.00000086 Ry

     The total energy is the sum of the following terms:

     one-electron contribution =  -13108.08975907 Ry
     hartree contribution      =    6620.52554495 Ry
     xc contribution           =    -735.68227150 Ry
     ewald contribution        =    5249.05846597 Ry
     electric field correction =       0.00000031 Ry
     smearing contrib. (-TS)   =      -0.05781884 Ry

     convergence has been achieved in  16 iterations

 BEEF-vdW xc energy contributions
           1 :   -656.485125782065
           2 :    610.595985185037
           3 :   -528.406001821496
           4 :    425.718965647234
           5 :   -319.737556106611
           6 :    224.603946687064
           7 :   -148.634278936054
           8 :    93.7632055151727
           9 :   -56.9969754175156
          10 :    32.9869733791209
          11 :   -16.5895565994240
          12 :    4.46078141961516
          13 :    4.65597543963747
          14 :   -10.6854315187944
          15 :    13.3555846853105
          16 :   -13.0562546884040
          17 :    11.0358605402416
          18 :   -8.96888319836353
          19 :    8.22528516022771
          20 :   -9.28536736616968
          21 :    11.6060395583929
          22 :   -13.9869125347172
          23 :    15.2160001949271
          24 :   -14.6583559924152
          25 :    12.5059390732952
          26 :   -9.60684328253092
          27 :    7.00094031815479
          28 :   -5.42480748125354
          29 :    5.03066449134690
          30 :   -5.43218400879982
          31 :   -52.7032504545884
          32 :   -38.6509666879313

     Forces acting on atoms (Ry/au):

     negative rho (up, down):  1.066E+00 0.000E+00
     atom    1 type  1   force =    -0.00000069    0.00915268    0.00975704
     atom    2 type  1   force =     0.00000008    0.00915284    0.00975680
     atom    3 type  2   force =    -0.00000097   -0.00270038   -0.02054610
     atom    4 type  2   force =     0.00000223   -0.00270123   -0.02054990
     atom    5 type  1   force =     0.00000046   -0.01115789    0.00614162
     atom    6 type  1   force =    -0.00000031   -0.01115853    0.00614135
     atom    7 type  2   force =    -0.00000051    0.00551233    0.00783596
     atom    8 type  2   force =    -0.00000303    0.00551790    0.00783735
     atom    9 type  1   force =    -0.00000522   -0.00020773   -0.00177642
     atom   10 type  1   force =     0.00000202   -0.00020841   -0.00177645
     atom   11 type  2   force =     0.00000351   -0.00060358   -0.00141534
     atom   12 type  2   force =     0.00000243   -0.00059801   -0.00140591

     Total force =     0.041667     Total SCF correction =     0.006696
     SCF correction compared to forces is large: reduce conv_thr to get better values

     entering subroutine stress ...

     negative rho (up, down):  1.066E+00 0.000E+00
          total   stress  (Ry/bohr**3)                   (kbar)     P=  -16.96
  -0.00017774  -0.00000000  -0.00000000        -26.15     -0.00     -0.00
  -0.00000000  -0.00017233  -0.00001309         -0.00    -25.35     -1.93
  -0.00000000  -0.00001309   0.00000426         -0.00     -1.93      0.63

 !ASE

     Writing output data file calc.save

     General routines

     Parallel routines

   This run was terminated on:   2:55: 8  19Dec2018

   JOB DONE.
Job  /afs/slac/g/suncat/bin/suncat-tsmpirun -x LD_LIBRARY_PATH -wdir /scratch/qe530438_9LIDK pw.x -in pw.inp

TID   HOST_NAME   COMMAND_LINE            STATUS            TERMINATION_TIME
00000 suncat2063 pw.x -in pw.inp   Done                     12/19/2018 02:55:08
00001 suncat2063 pw.x -in pw.inp   Done                     12/19/2018 02:55:08
00002 suncat2063 pw.x -in pw.inp   Done                     12/19/2018 02:55:08
00003 suncat2063 pw.x -in pw.inp   Done                     12/19/2018 02:55:08
00004 suncat2063 pw.x -in pw.inp   Done                     12/19/2018 02:55:08
00005 suncat2063 pw.x -in pw.inp   Done                     12/19/2018 02:55:08
00006 suncat2063 pw.x -in pw.inp   Done                     12/19/2018 02:55:08
00007 suncat2063 pw.x -in pw.inp   Done                     12/19/2018 02:55:08
00008 suncat2063 pw.x -in pw.inp   Done                     12/19/2018 02:55:08
00009 suncat2063 pw.x -in pw.inp   Done                     12/19/2018 02:55:08
00010 suncat2063 pw.x -in pw.inp   Done                     12/19/2018 02:55:08
00011 suncat2063 pw.x -in pw.inp   Done                     12/19/2018 02:55:08
00012 suncat2063 pw.x -in pw.inp   Done                     12/19/2018 02:55:08
00013 suncat2063 pw.x -in pw.inp   Done                     12/19/2018 02:55:08
00014 suncat2063 pw.x -in pw.inp   Done                     12/19/2018 02:55:08
00015 suncat2063 pw.x -in pw.inp   Done                     12/19/2018 02:55:08
00016 suncat2042 pw.x -in pw.inp   Done                     12/19/2018 02:55:08
00017 suncat2042 pw.x -in pw.inp   Done                     12/19/2018 02:55:08
00018 suncat2042 pw.x -in pw.inp   Done                     12/19/2018 02:55:08
00019 suncat2042 pw.x -in pw.inp   Done                     12/19/2018 02:55:08
00020 suncat2042 pw.x -in pw.inp   Done                     12/19/2018 02:55:08
00021 suncat2042 pw.x -in pw.inp   Done                     12/19/2018 02:55:08
00022 suncat2042 pw.x -in pw.inp   Done                     12/19/2018 02:55:08
00023 suncat2042 pw.x -in pw.inp   Done                     12/19/2018 02:55:08
00024 suncat2042 pw.x -in pw.inp   Done                     12/19/2018 02:55:08
00025 suncat2042 pw.x -in pw.inp   Done                     12/19/2018 02:55:08
00026 suncat2042 pw.x -in pw.inp   Done                     12/19/2018 02:55:08
00027 suncat2042 pw.x -in pw.inp   Done                     12/19/2018 02:55:08
00028 suncat2042 pw.x -in pw.inp   Done                     12/19/2018 02:55:08
00029 suncat2042 pw.x -in pw.inp   Done                     12/19/2018 02:55:08
00030 suncat2042 pw.x -in pw.inp   Done                     12/19/2018 02:55:08
00031 suncat2042 pw.x -in pw.inp   Done                     12/19/2018 02:55:08