     Program PWSCF v.5.1rc2 (svn rev. 11289) starts on 19Dec2018 at  3:57:44

     Current dimensions of program PWSCF are:
     Max number of different atomic species (ntypx) = 10
     Max number of k-points (npk) =  40000
     Max angular momentum in pseudopotentials (lmaxx) =  3
     Presently stress not available with electric field

     IMPORTANT: XC functional enforced from input :
     Exchange-correlation      = BEEF-VDW ( 1  4 27 13 2)
     Any further DFT definition will be discarded
     Please, verify this is what you really want

     Subspace diagonalization in iterative solution of the eigenvalue problem:
     a serial algorithm will be used

     Found symmetry operation: I + ( -0.5000  0.0000  0.0000)
     This is a supercell, fractional translations are disabled

     bravais-lattice index     =            0
     lattice parameter (alat)  =       1.8897  a.u.
     unit-cell volume          =    4230.7852 (a.u.)^3
     number of atoms/cell      =           12
     number of atomic types    =            2
     number of electrons       =       186.00
     number of Kohn-Sham states=          123
     kinetic-energy cutoff     =      36.7493  Ry
     charge density cutoff     =     367.4932  Ry
     convergence threshold     =      1.0E-06
     mixing beta               =       0.1000
     number of iterations used =           10  plain     mixing
     Exchange-correlation      = BEEF-VDW ( 1  4 27 13 2)
     nstep                     =           50

     celldm(1)=   1.889726  celldm(2)=   0.000000  celldm(3)=   0.000000
     celldm(4)=   0.000000  celldm(5)=   0.000000  celldm(6)=   0.000000

     crystal axes: (cart. coord. in units of alat)
               a(1) = (   5.436231   0.000000   0.000000 )
               a(2) = (  -2.718116   4.718069   0.000000 )
               a(3) = (   0.000000   0.000000  24.443433 )

     reciprocal axes: (cart. coord. in units 2 pi/alat)
               b(1) = (  0.183951  0.105976  0.000000 )
               b(2) = (  0.000000  0.211951  0.000000 )
               b(3) = (  0.000000  0.000000  0.040911 )

     PseudoPot. # 1 for Ru read from file:
     /afs/slac.stanford.edu/u/if/mamunm/psp/gbrv1.5pbe/Ru.UPF
     MD5 check sum: 7158a806dd851261a58e6920c40ebe78
     Pseudo is Ultrasoft + core correction, Zval = 16.0
     Generated by new atomic code, or converted to UPF format
     Using radial grid of  967 points,  6 beta functions with:
                l(1) =   0
                l(2) =   0
                l(3) =   1
                l(4) =   1
                l(5) =   2
                l(6) =   2
     Q(r) pseudized with  8 coefficients,  rinner =    1.300   1.300   1.300
                                                       1.300   1.300

     PseudoPot. # 2 for Ir read from file:
     /afs/slac.stanford.edu/u/if/mamunm/psp/gbrv1.5pbe/Ir.UPF
     MD5 check sum: 8836f839c3459d2b385c504ce6d91f2c
     Pseudo is Ultrasoft + core correction, Zval = 15.0
     Generated by new atomic code, or converted to UPF format
     Using radial grid of  983 points,  7 beta functions with:
                l(1) =   0
                l(2) =   0
                l(3) =   1
                l(4) =   1
                l(5) =   1
                l(6) =   2
                l(7) =   2
     Q(r) pseudized with  8 coefficients,  rinner =    1.400   1.400   1.400
                                                       1.400   1.400

     vdW kernel table read from file vdW_kernel_table
     MD5 check sum: 095c7af220d748ca6e76c0b4c6cfb241

     atomic species   valence    mass     pseudopotential
        Ru1           16.00   101.07000     Ru( 1.00)
        Ir1           15.00   192.21700     Ir( 1.00)

     No symmetry found

   Cartesian axes

     site n.     atom                  positions (alat units)
         1           Ru1 tau(   1) = (   0.0000000   0.0000000  10.0000000  )
         2           Ru1 tau(   2) = (   2.7181156   0.0000000  10.0000000  )
         3           Ir1 tau(   3) = (   1.3590578   2.3590344  10.0000000  )
         4           Ir1 tau(   4) = (  -1.3590578   2.3590344  10.0000000  )
         5           Ru1 tau(   5) = (   2.7181156   1.5659272  12.2217165  )
         6           Ru1 tau(   6) = (   0.0000000   1.5659272  12.2217165  )
         7           Ir1 tau(   7) = (  -1.3590578   3.9249616  12.2217165  )
         8           Ir1 tau(   8) = (   1.3590578   3.9249616  12.2217165  )
         9           Ru1 tau(   9) = (  -0.0000000   3.1318544  14.4434330  )
        10           Ru1 tau(  10) = (   2.7181156   3.1318544  14.4434330  )
        11           Ir1 tau(  11) = (   4.0771734   0.7728201  14.4434330  )
        12           Ir1 tau(  12) = (   1.3590578   0.7728201  14.4434330  )

     number of k points=    20  Fermi-Dirac smearing, width (Ry)=  0.0110
                       cart. coord. in units 2pi/alat
        k(    1) = (   0.0000000   0.0000000   0.0000000), wk =   0.0555556
        k(    2) = (   0.0000000   0.0353252   0.0000000), wk =   0.1111111
        k(    3) = (   0.0000000   0.0706504   0.0000000), wk =   0.1111111
        k(    4) = (   0.0000000  -0.1059756   0.0000000), wk =   0.0555556
        k(    5) = (   0.0306585   0.0176626   0.0000000), wk =   0.1111111
        k(    6) = (   0.0306585   0.0529878   0.0000000), wk =   0.1111111
        k(    7) = (   0.0306585   0.0883130   0.0000000), wk =   0.1111111
        k(    8) = (   0.0306585  -0.0883130   0.0000000), wk =   0.1111111
        k(    9) = (   0.0306585  -0.0529878   0.0000000), wk =   0.1111111
        k(   10) = (   0.0306585  -0.0176626   0.0000000), wk =   0.1111111
        k(   11) = (   0.0613170   0.0353252   0.0000000), wk =   0.1111111
        k(   12) = (   0.0613170   0.0706504   0.0000000), wk =   0.1111111
        k(   13) = (   0.0613170   0.1059756   0.0000000), wk =   0.1111111
        k(   14) = (   0.0613170  -0.0706504   0.0000000), wk =   0.1111111
        k(   15) = (   0.0613170  -0.0353252   0.0000000), wk =   0.1111111
        k(   16) = (   0.0613170   0.0000000   0.0000000), wk =   0.1111111
        k(   17) = (  -0.0919755  -0.0529878   0.0000000), wk =   0.0555556
        k(   18) = (  -0.0919755  -0.0176626   0.0000000), wk =   0.1111111
        k(   19) = (  -0.0919755   0.0176626   0.0000000), wk =   0.1111111
        k(   20) = (  -0.0919755  -0.1589633   0.0000000), wk =   0.0555556

     Largest allocated arrays     est. size (Mb)     dimensions
     Largest temporary arrays     est. size (Mb)     dimensions

     Initial potential from superposition of free atoms
     Check: negative starting charge=   -2.617079

     starting charge  176.99972, renormalised to  186.00000

     negative rho (up, down):  2.750E+00 0.000E+00

     *
     * You are using vdW-DF for exchange-correlation in this calculation.
     * Please cite the following three references that made this development
     * possible:
     *
     *   M. Dion, H. Rydberg, E. Schroder, D. C. Langreth, and
     *   B. I. Lundqvist, Phys. Rev. Lett. 92, 246401 (2004).
     *
     *   T. Thonhauser, V. R. Cooper, S. Li, A. Puzder, P. Hyldgaard, and
     *   D. C. Langreth, Phys. Rev. B 76, 125112 (2007).
     *
     *   G. Roman-Perez and J. M. Soler, Phys. Rev. Lett. 103, 096102 (2009).
     *
     *
     * If you are using vdW-DF2, please also cite:
     *
     *   K. Lee, E. D. Murray, L. Kong, B. I. Lundqvist, and
     *   D. C. Langreth, Phys. Rev. B 82, 081101(R) (2010).
     *
     *
     * If you are calculating the stress with vdW-DF, please also cite:
     *
     *   R. Sabatini, E. Kucukbenli, B. Kolb, T. Thonhauser, and
     *   S. de Gironcoli, J. Phys.: Condens. Matter 24, 424209 (2012).
     *

     Carrying out vdW-DF run using the following parameters:

     Nqs =      20    Nr_points =    1024   r_max =   100.000
     q_mesh =
               0.00001000     0.04494208     0.09755937     0.15916263
               0.23128650     0.31572767     0.41458969     0.53033537
               0.66584808     0.82450364     1.01025438     1.22772762
               1.48234092     1.78043706     2.12944203     2.53805004
               3.01644009     3.57652955     4.23227104     5.00000000

     Gradients computed in reciprocal space

     Adding external electric field

     Computed dipole along edir(3) :
        Dipole               -0.0000 Ry au,         -0.0000 Debye
        Dipole field         -0.0000 Ry au

        Potential amp.        0.0000 Ry
        Total length         45.0366 bohr

     Starting wfc are  150 randomized atomic wfcs

     Self-consistent Calculation

     iteration #  1     ecut=    36.75 Ry     beta=0.10
     Davidson diagonalization with overlap
     ethr =  1.00E-02,  avg # of iterations =  8.2

[...]

     total energy              =   -2270.49658365 Ry
     Harris-Foulkes estimate   =   -2275.78475194 Ry
     estimated scf accuracy    <      31.81274374 Ry

[...]

     End of self-consistent calculation

          k = 0.0000 0.0000 0.0000 ( 15845 PWs)   bands (ev):

   -70.9496 -70.9009 -70.5096 -70.5088 -70.4611 -70.4604 -47.5195 -47.3819
   -47.3379 -47.3234 -47.2776 -47.1173 -47.0466 -47.0448 -46.8670 -46.8558
   -46.8213 -46.8093 -46.7796 -46.7579 -46.7413 -46.7180 -46.6463 -46.6461
   -41.0821 -40.9558 -40.9095 -40.8853 -40.8458 -40.6752 -40.6701 -40.6189
   -40.4663 -40.4565 -40.4262 -40.4258 -40.4176 -40.3769 -40.3710 -40.3283
   -40.2110 -40.2098  -5.9572  -4.2840  -4.2086  -3.9492  -3.8897  -3.7772
    -3.5939  -3.5192  -3.4491  -3.2387  -3.1768  -3.1702  -2.8860  -2.8191
    -2.7580  -1.7215  -1.5485  -1.3642  -1.0532  -0.9857  -0.9691  -0.6988
    -0.5526  -0.5232  -0.4379  -0.2202  -0.1750  -0.0677  -0.0294   0.1471
     0.1590   0.1911   0.2357   0.6716   0.8639   1.5445   1.6052   1.6392
     1.7402   1.7855   1.7976   1.8090   1.8113   1.8747   2.4628   2.5114
     2.8921   3.0562   3.0783   3.1165   3.1534   3.1576   3.2275   3.3307
     3.3362   3.6378   3.6861   3.7468   4.0337   4.0929   4.1248   4.1572
     4.1663   4.1885   4.1917   4.2261   4.3477   6.2093   6.2291   6.3083
     6.3406   6.4047   6.4653   6.8894   7.1113   7.5482   8.4571   9.2976
     9.3108   9.3237   9.9006

[...]

          k =-0.0920-0.0530 0.0000 ( 15956 PWs)   bands (ev):

[...]

     the Fermi energy is     2.4122 ev

!    total energy              =   -2270.52842633 Ry
     Harris-Foulkes estimate   =   -2270.52843612 Ry
     estimated scf accuracy    <       0.00000043 Ry

     The total energy is the sum of the following terms:

     one-electron contribution =  -20128.48698166 Ry
     hartree contribution      =   10078.51996960 Ry
     xc contribution           =    -472.67766233 Ry
     ewald contribution        =    8252.20230287 Ry
     electric field correction =       0.00000000 Ry
     smearing contrib. (-TS)   =      -0.08605481 Ry

     convergence has been achieved in  19 iterations

 BEEF-vdW xc energy contributions
           1 :   -415.796655735029
           2 :    385.211078382054
           3 :   -331.099757114621
           4 :    265.048967224756
           5 :   -199.461766583929
           6 :    144.105119004877
           7 :   -103.966683023317
           8 :    78.9103830856664
[...]
00030 suncat2039 pw.x -in pw.inp   Done                     12/19/2018 04:03:32
00031 suncat2039 pw.x -in pw.inp   Done                     12/19/2018 04:03:32

     Program PWSCF v.5.1rc2 (svn rev. 11289) starts on 19Dec2018 at  4: 3:42

[...]

   This run was terminated on:   4: 9:16  19Dec2018

[...]

     Program PWSCF v.5.1rc2 (svn rev. 11289) starts on 19Dec2018 at  4: 9:23

     Current dimensions of program PWSCF are:
     Max number of different atomic species (ntypx) = 10
     Max number of k-points (npk) =  40000
     Max angular momentum in pseudopotentials (lmaxx) =  3
     Presently stress not available with electric field

     IMPORTANT: XC functional enforced from input :
     Exchange-correlation      = BEEF-VDW ( 1  4 27 13 2)
     Any further DFT definition will be discarded
     Please, verify this is what you really want

     Subspace diagonalization in iterative solution of the eigenvalue problem:
     a serial algorithm will be used

     Found symmetry operation: I + ( -0.5000  0.0000  0.0000)
     This is a supercell, fractional translations are disabled

     bravais-lattice index     =            0
     lattice parameter (alat)  =       1.8897  a.u.
     unit-cell volume          =    4230.7852 (a.u.)^3
     number of atoms/cell      =           12
     number of atomic types    =            2
     number of electrons       =       186.00
     number of Kohn-Sham states=          123
     kinetic-energy cutoff     =      36.7493  Ry
     charge density cutoff     =     367.4932  Ry
     convergence threshold     =      1.0E-06
     mixing beta               =       0.1000
     number of iterations used =           10  plain     mixing
     Exchange-correlation      = BEEF-VDW ( 1  4 27 13 2)
     nstep                     =           50

     celldm(1)=   1.889726  celldm(2)=   0.000000  celldm(3)=   0.000000
     celldm(4)=   0.000000  celldm(5)=   0.000000  celldm(6)=   0.000000

     crystal axes: (cart. coord. in units of alat)
               a(1) = (   5.436231   0.000000   0.000000 )
               a(2) = (  -2.718116   4.718069   0.000000 )
               a(3) = (   0.000000   0.000000  24.443433 )

     reciprocal axes: (cart. coord. in units 2 pi/alat)
               b(1) = (  0.183951  0.105976  0.000000 )
               b(2) = (  0.000000  0.211951  0.000000 )
               b(3) = (  0.000000  0.000000  0.040911 )

     PseudoPot. # 1 for Ru read from file:
     /afs/slac.stanford.edu/u/if/mamunm/psp/gbrv1.5pbe/Ru.UPF
     MD5 check sum: 7158a806dd851261a58e6920c40ebe78
     Pseudo is Ultrasoft + core correction, Zval = 16.0
     Generated by new atomic code, or converted to UPF format
     Using radial grid of  967 points,  6 beta functions with:
                l(1) =   0
                l(2) =   0
                l(3) =   1
                l(4) =   1
                l(5) =   2
                l(6) =   2
     Q(r) pseudized with  8 coefficients,  rinner =    1.300   1.300   1.300
                                                       1.300   1.300

     PseudoPot. # 2 for Ir read from file:
     /afs/slac.stanford.edu/u/if/mamunm/psp/gbrv1.5pbe/Ir.UPF
     MD5 check sum: 8836f839c3459d2b385c504ce6d91f2c
     Pseudo is Ultrasoft + core correction, Zval = 15.0
     Generated by new atomic code, or converted to UPF format
     Using radial grid of  983 points,  7 beta functions with:
                l(1) =   0
                l(2) =   0
                l(3) =   1
                l(4) =   1
                l(5) =   1
                l(6) =   2
                l(7) =   2
     Q(r) pseudized with  8 coefficients,  rinner =    1.400   1.400   1.400
                                                       1.400   1.400

     vdW kernel table read from file vdW_kernel_table
     MD5 check sum: 095c7af220d748ca6e76c0b4c6cfb241

     atomic species   valence    mass     pseudopotential
        Ru1           16.00   101.07000     Ru( 1.00)
        Ir1           15.00   192.21700     Ir( 1.00)

     No symmetry found

   Cartesian axes

     site n.     atom                  positions (alat units)
         1           Ru1 tau(   1) = (   0.0000000   0.0000000  10.0000000  )
         2           Ru1 tau(   2) = (   2.7181156   0.0000000  10.0000000  )
         3           Ir1 tau(   3) = (   1.3590578   2.3590344  10.0000000  )
         4           Ir1 tau(   4) = (  -1.3590578   2.3590344  10.0000000  )
         5           Ru1 tau(   5) = (   2.7181156   1.5659272  12.2217165  )
         6           Ru1 tau(   6) = (   0.0000000   1.5659272  12.2217165  )
         7           Ir1 tau(   7) = (  -1.3590578   3.9249616  12.2217165  )
         8           Ir1 tau(   8) = (   1.3590578   3.9249616  12.2217165  )
         9           Ru1 tau(   9) = (  -0.0000004   3.1137769  14.3740738  )
        10           Ru1 tau(  10) = (   2.7181163   3.1137726  14.3740693  )
        11           Ir1 tau(  11) = (   4.0771712   0.7970495  14.3578939  )
        12           Ir1 tau(  12) = (   1.3590611   0.7970500  14.3578933  )

     number of k points=    20  Fermi-Dirac smearing, width (Ry)=  0.0110
                       cart. coord. in units 2pi/alat
        k(    1) = (   0.0000000   0.0000000   0.0000000), wk =   0.0555556
        k(    2) = (   0.0000000   0.0353252   0.0000000), wk =   0.1111111
        k(    3) = (   0.0000000   0.0706504   0.0000000), wk =   0.1111111
        k(    4) = (   0.0000000  -0.1059756   0.0000000), wk =   0.0555556
        k(    5) = (   0.0306585   0.0176626   0.0000000), wk =   0.1111111
        k(    6) = (   0.0306585   0.0529878   0.0000000), wk =   0.1111111
        k(    7) = (   0.0306585   0.0883130   0.0000000), wk =   0.1111111
        k(    8) = (   0.0306585  -0.0883130   0.0000000), wk =   0.1111111
        k(    9) = (   0.0306585  -0.0529878   0.0000000), wk =   0.1111111
        k(   10) = (   0.0306585  -0.0176626   0.0000000), wk =   0.1111111
        k(   11) = (   0.0613170   0.0353252   0.0000000), wk =   0.1111111
        k(   12) = (   0.0613170   0.0706504   0.0000000), wk =   0.1111111
        k(   13) = (   0.0613170   0.1059756   0.0000000), wk =   0.1111111
        k(   14) = (   0.0613170  -0.0706504   0.0000000), wk =   0.1111111
        k(   15) = (   0.0613170  -0.0353252   0.0000000), wk =   0.1111111
        k(   16) = (   0.0613170   0.0000000   0.0000000), wk =   0.1111111
        k(   17) = (  -0.0919755  -0.0529878   0.0000000), wk =   0.0555556
        k(   18) = (  -0.0919755  -0.0176626   0.0000000), wk =   0.1111111
        k(   19) = (  -0.0919755   0.0176626   0.0000000), wk =   0.1111111
        k(   20) = (  -0.0919755  -0.1589633   0.0000000), wk =   0.0555556

     Largest allocated arrays     est. size (Mb)     dimensions
     Largest temporary arrays     est. size (Mb)     dimensions

     Initial potential from superposition of free atoms
     Check: negative starting charge=   -2.619186

     starting charge  176.99972, renormalised to  186.00000

[...]

     *
     * You are using vdW-DF for exchange-correlation in this calculation.
     * Please cite the following three references that made this development
     * possible:
     *
     *   M. Dion, H. Rydberg, E. Schroder, D. C. Langreth, and
     *   B. I. Lundqvist, Phys. Rev. Lett. 92, 246401 (2004).
     *
     *   T. Thonhauser, V. R. Cooper, S. Li, A. Puzder, P. Hyldgaard, and
     *   D. C. Langreth, Phys. Rev. B 76, 125112 (2007).
     *
     *   G. Roman-Perez and J. M. Soler, Phys. Rev. Lett. 103, 096102 (2009).
     *
     *
     * If you are using vdW-DF2, please also cite:
     *
     *   K. Lee, E. D. Murray, L. Kong, B. I. Lundqvist, and
     *   D. C. Langreth, Phys. Rev. B 82, 081101(R) (2010).
     *
     *
     * If you are calculating the stress with vdW-DF, please also cite:
     *
     *   R. Sabatini, E. Kucukbenli, B. Kolb, T. Thonhauser, and
     *   S. de Gironcoli, J. Phys.: Condens. Matter 24, 424209 (2012).
     *

     Carrying out vdW-DF run using the following parameters:

     Nqs =      20    Nr_points =    1024   r_max =   100.000
     q_mesh =
               0.00001000     0.04494208     0.09755937     0.15916263
               0.23128650     0.31572767     0.41458969     0.53033537
               0.66584808     0.82450364     1.01025438     1.22772762
               1.48234092     1.78043706     2.12944203     2.53805004
               3.01644009     3.57652955     4.23227104     5.00000000

     Gradients computed in reciprocal space

[...]

     Starting wfc are  150 randomized atomic wfcs

     Self-consistent Calculation

[...]

     total energy              =   -2270.53699642 Ry
     Harris-Foulkes estimate   =   -2270.53699517 Ry
     estimated scf accuracy    <       0.00000104 Ry

     iteration # 19     ecut=    36.75 Ry     beta=0.10
     Davidson diagonalization with overlap
     ethr =  5.60E-10,  avg # of iterations =  2.0

[...]

     negative rho (up, down):  2.386E+00 0.000E+00

     Adding external electric field

     Computed dipole along edir(3) :
        Dipole                0.0074 Ry au,          0.0187 Debye
        Dipole field          0.0000 Ry au

        Potential amp.       -0.0020 Ry
        Total length         45.0366 bohr

     End of self-consistent calculation

[...]

          k = 0.0613 0.0000 0.0000 ( 15924 PWs)   bands (ev):

[...]

          k =-0.0920-0.1590 0.0000 ( 15956 PWs)   bands (ev):

   -70.9700 -70.9700 -70.5151 -70.5150 -70.4416 -70.4414 -47.4033 -47.4033
   -47.3452 -47.3452 -47.3302 -47.3302 -46.9166 -46.9166 -46.8921 -46.8921
   -46.8396 -46.8396 -46.8005 -46.8005 -46.7871 -46.7871 -46.6991 -46.6991
   -41.0087 -41.0087 -40.9151 -40.9151 -40.8982 -40.8982 -40.4826 -40.4825
   -40.4722 -40.4721 -40.4248 -40.4248 -40.4080 -40.4078 -40.3998 -40.3997
   -40.3245 -40.3243  -4.2909  -4.2909  -3.1651  -3.1651  -2.9536  -2.9536
    -2.8160  -2.8160  -2.6299  -2.6299  -2.3762  -2.3762  -2.0145  -2.0145
    -1.9253  -1.9253  -1.5871  -1.5871  -1.4034  -1.4034  -1.1238  -1.1238
    -0.6493  -0.6492  -0.4587  -0.4587  -0.3009  -0.3008  -0.2115  -0.2115
    -0.1376  -0.1376   0.1730   0.1730   0.2881   0.2881   0.4236   0.4237
     0.5321   0.5321   0.9441   0.9441   1.2153   1.2153   1.4114   1.4114
     1.6215   1.6215   1.8384   1.8384   1.9927   1.9927   2.3391   2.3392
     2.4483   2.4483   2.4922   2.4922   3.1622   3.1622   3.4872   3.4872
     3.7729   3.7729   4.9585   4.9585   6.0364   6.0364   6.7170   6.7170
     7.3328   7.3328   8.5027   8.5027   8.5442   8.5442   9.1713   9.1714
     9.2092   9.2092  10.3662

     the Fermi energy is     2.4368 ev

!    total energy              =   -2270.53699285 Ry
     Harris-Foulkes estimate   =   -2270.53699649 Ry
     estimated scf accuracy    <       0.00000055 Ry

     The total energy is the sum of the following terms:

     one-electron contribution =  -20351.74235396 Ry
     hartree contribution      =   10190.03173560 Ry
     xc contribution           =    -472.85532235 Ry
     ewald contribution        =    8364.11258557 Ry
     electric field correction =       0.00000016 Ry
     smearing contrib. (-TS)   =      -0.08363786 Ry

     convergence has been achieved in  19 iterations

 BEEF-vdW xc energy contributions
           1 :   -415.981291013379
           2 :    385.475385829448
           3 :   -331.474631908304
           4 :    265.493909477759
           5 :   -199.879602025259
           6 :    144.387390092695
           7 :   -104.047649168462
           8 :    78.8031433572012
           9 :   -64.7769511114005
          10 :    56.4852191717241
          11 :   -49.0831234203100
          12 :    39.8610864103532
          13 :   -28.6199006999906
          14 :    17.0236072121658
          15 :   -7.38277018196504
          16 :    1.43670388960686
          17 :   0.397876005599528
          18 :   0.902033421028534
          19 :   -3.49715476399371
          20 :    5.50946823859783
          21 :   -5.75491320726258
          22 :    4.09390214496534
          23 :   -1.30854094298752
          24 :   -1.38134464221844
          25 :    2.91556393097034
          26 :   -2.83998695232560
          27 :    1.43182749006041
          28 :   0.507297640365437
          29 :   -2.05849916364059
          30 :    2.59024097929694
          31 :   -38.1031516111300
          32 :   -28.7235209584136

     Forces acting on atoms (Ry/au):

     negative rho (up, down):  2.386E+00 0.000E+00
     atom    1 type  1   force =    -0.00000011    0.00669723    0.01654993
     atom    2 type  1   force =     0.00000007    0.00669838    0.01655837
     atom    3 type  2   force =    -0.00000072   -0.00815358    0.02348025
     atom    4 type  2   force =     0.00000043   -0.00815350    0.02348015
     atom    5 type  1   force =     0.00000023    0.00104785   -0.02160032
     atom    6 type  1   force =    -0.00000001    0.00103550   -0.02161185
     atom    7 type  2   force =     0.00000542   -0.00023377   -0.01947475
     atom    8 type  2   force =    -0.00000515   -0.00023341   -0.01947464
     atom    9 type  1   force =     0.00000023    0.00051040    0.00060806
     atom   10 type  1   force =    -0.00000006    0.00051247    0.00061753
     atom   11 type  2   force =     0.00000059    0.00013607    0.00043346
     atom   12 type  2   force =    -0.00000093    0.00013636    0.00043380

     Total force =     0.059746     Total SCF correction =     0.003128

     entering subroutine stress ...

     negative rho (up, down):  2.386E+00 0.000E+00
          total   stress  (Ry/bohr**3)                   (kbar)     P=  -24.46
  -0.00019515   0.00000000  -0.00000000        -28.71      0.00     -0.00
   0.00000000  -0.00019879   0.00000491          0.00    -29.24      0.72
  -0.00000000   0.00000491  -0.00010490         -0.00      0.72    -15.43

 !ASE

     Writing output data file calc.save

     General routines

     Parallel routines

   This run was terminated on:   4:15: 9  19Dec2018

   JOB DONE.
Job  /afs/slac/g/suncat/bin/suncat-tsmpirun -x LD_LIBRARY_PATH -wdir /scratch/qe530517_EGJuV pw.x -in pw.inp

TID   HOST_NAME   COMMAND_LINE            STATUS            TERMINATION_TIME
00000 suncat2040 pw.x -in pw.inp   Done                     12/19/2018 04:15:09
00001 suncat2040 pw.x -in pw.inp   Done                     12/19/2018 04:15:09
00002 suncat2040 pw.x -in pw.inp   Done                     12/19/2018 04:15:09
00003 suncat2040 pw.x -in pw.inp   Done                     12/19/2018 04:15:09
00004 suncat2040 pw.x -in pw.inp   Done                     12/19/2018 04:15:09
00005 suncat2040 pw.x -in pw.inp   Done                     12/19/2018 04:15:09
00006 suncat2040 pw.x -in pw.inp   Done                     12/19/2018 04:15:09
00007 suncat2040 pw.x -in pw.inp   Done                     12/19/2018 04:15:09
00008 suncat2040 pw.x -in pw.inp   Done                     12/19/2018 04:15:09
00009 suncat2040 pw.x -in pw.inp   Done                     12/19/2018 04:15:09
00010 suncat2040 pw.x -in pw.inp   Done                     12/19/2018 04:15:09
00011 suncat2040 pw.x -in pw.inp   Done                     12/19/2018 04:15:09
00012 suncat2040 pw.x -in pw.inp   Done                     12/19/2018 04:15:09
00013 suncat2040 pw.x -in pw.inp   Done                     12/19/2018 04:15:09
00014 suncat2040 pw.x -in pw.inp   Done                     12/19/2018 04:15:09
00015 suncat2040 pw.x -in pw.inp   Done                     12/19/2018 04:15:09
00016 suncat2039 pw.x -in pw.inp   Done                     12/19/2018 04:15:09
00017 suncat2039 pw.x -in pw.inp   Done                     12/19/2018 04:15:09
00018 suncat2039 pw.x -in pw.inp   Done                     12/19/2018 04:15:09
00019 suncat2039 pw.x -in pw.inp   Done                     12/19/2018 04:15:09
00020 suncat2039 pw.x -in pw.inp   Done                     12/19/2018 04:15:09
00021 suncat2039 pw.x -in pw.inp   Done                     12/19/2018 04:15:09
00022 suncat2039 pw.x -in pw.inp   Done                     12/19/2018 04:15:09
00023 suncat2039 pw.x -in pw.inp   Done                     12/19/2018 04:15:09
00024 suncat2039 pw.x -in pw.inp   Done                     12/19/2018 04:15:09
00025 suncat2039 pw.x -in pw.inp   Done                     12/19/2018 04:15:09
00026 suncat2039 pw.x -in pw.inp   Done                     12/19/2018 04:15:09
00027 suncat2039 pw.x -in pw.inp   Done                     12/19/2018 04:15:09
00028 suncat2039 pw.x -in pw.inp   Done                     12/19/2018 04:15:09
00029 suncat2039 pw.x -in pw.inp   Done                     12/19/2018 04:15:09
00030 suncat2039 pw.x -in pw.inp   Done                     12/19/2018 04:15:09
00031 suncat2039 pw.x -in pw.inp   Done                     12/19/2018 04:15:09