     Program PWSCF v.5.1rc2 (svn rev. 11289) starts on 19Dec2018 at  3:36: 9

     Current dimensions of program PWSCF are:
     Max number of different atomic species (ntypx) = 10
     Max number of k-points (npk) =  40000
     Max angular momentum in pseudopotentials (lmaxx) =  3
     Presently stress not available with electric field

     IMPORTANT: XC functional enforced from input :
     Exchange-correlation      = BEEF-VDW ( 1  4 27 13 2)
     Any further DFT definition will be discarded
     Please, verify this is what you really want

     Subspace diagonalization in iterative solution of the eigenvalue problem:
     a serial algorithm will be used

     Found symmetry operation: I + (  0.5000  0.0000  0.0000)
     This is a supercell, fractional translations are disabled

     bravais-lattice index     =            0
     lattice parameter (alat)  =       1.8897  a.u.
     unit-cell volume          =    4654.9787 (a.u.)^3
     number of atoms/cell      =           12
     number of atomic types    =            2
     number of electrons       =       210.00
     number of Kohn-Sham states=          135
     kinetic-energy cutoff     =      36.7493  Ry
     charge density cutoff     =     367.4932  Ry
     convergence threshold     =      1.0E-06
     mixing beta               =       0.1000
     number of iterations used =           10  plain     mixing
     Exchange-correlation      = BEEF-VDW ( 1  4 27 13 2)
     nstep                     =           50

     celldm(1)=   1.889726  celldm(2)=   0.000000  celldm(3)=   0.000000
     celldm(4)=   0.000000  celldm(5)=   0.000000  celldm(6)=   0.000000

     crystal axes: (cart. coord. in units of alat)
               a(1) = (   5.333386   0.000000   0.000000 )
               a(2) = (  -2.666693   5.258263   0.000000 )
               a(3) = (   0.000000   0.000000  24.596641 )

     reciprocal axes: (cart. coord. in units 2 pi/alat)
               b(1) = (  0.187498  0.095088  0.000000 )
               b(2) = (  0.000000  0.190177  0.000000 )
               b(3) = (  0.000000  0.000000  0.040656 )

     PseudoPot. # 1 for Ru read from file:
     /afs/slac.stanford.edu/u/if/mamunm/psp/gbrv1.5pbe/Ru.UPF
     MD5 check sum: 7158a806dd851261a58e6920c40ebe78
     Pseudo is Ultrasoft + core correction, Zval = 16.0
     Generated by new atomic code, or converted to UPF format
     Using radial grid of  967 points,  6 beta functions with:
                l(1) =   0
                l(2) =   0
                l(3) =   1
                l(4) =   1
                l(5) =   2
                l(6) =   2
     Q(r) pseudized with  8 coefficients,  rinner =    1.300   1.300   1.300
                                                       1.300   1.300

     PseudoPot. # 2 for Ag read from file:
     /afs/slac.stanford.edu/u/if/mamunm/psp/gbrv1.5pbe/Ag.UPF
     MD5 check sum: d66d668201baa78d5eb5b04ef7011058
     Pseudo is Ultrasoft + core correction, Zval = 19.0
     Generated by new atomic code, or converted to UPF format
     Using radial grid of  887 points,  6 beta functions with:
                l(1) =   0
                l(2) =   0
                l(3) =   1
                l(4) =   1
                l(5) =   2
                l(6) =   2
     Q(r) pseudized with  6 coefficients,  rinner =    1.300   1.300   1.300
                                                       1.300   1.300

     vdW kernel table read from file vdW_kernel_table
     MD5 check sum: 095c7af220d748ca6e76c0b4c6cfb241

     atomic species   valence    mass     pseudopotential
        Ru1           16.00   101.07000     Ru( 1.00)
        Ag1           19.00   107.86820     Ag( 1.00)

     No symmetry found

   Cartesian axes

     site n.     atom                  positions (alat units)
         1           Ru1 tau(   1) = (   0.0000000   0.0000000  10.0000000  )
         2           Ru1 tau(   2) = (   2.6666930   0.0000000  10.0000000  )
         3           Ag1 tau(   3) = (   1.3333465   2.6291313  10.0000000  )
         4           Ag1 tau(   4) = (  -1.3333465   2.6291313  10.0000000  )
         5           Ru1 tau(   5) = (   2.6666930   1.3523957  12.2983206  )
         6           Ru1 tau(   6) = (  -0.0000000   1.3523957  12.2983206  )
         7           Ag1 tau(   7) = (  -1.3333465   3.9815270  12.2983206  )
         8           Ag1 tau(   8) = (   1.3333465   3.9815270  12.2983206  )
         9           Ru1 tau(   9) = (   0.0000000   2.7047914  14.5966412  )
        10           Ru1 tau(  10) = (   2.6666930   2.7047914  14.5966412  )
        11           Ag1 tau(  11) = (   4.0000396   0.0756602  14.5966412  )
        12           Ag1 tau(  12) = (   1.3333465   0.0756602  14.5966412  )

     number of k points=    20  Fermi-Dirac smearing, width (Ry)=  0.0110
                       cart. coord. in units 2pi/alat
        k(    1) = (   0.0000000   0.0000000   0.0000000), wk =   0.0555556
        k(    2) = (   0.0000000   0.0316961   0.0000000), wk =   0.1111111
        k(    3) = (   0.0000000   0.0633923   0.0000000), wk =   0.1111111
        k(    4) = (   0.0000000  -0.0950884   0.0000000), wk =   0.0555556
        k(    5) = (   0.0312497   0.0158481   0.0000000), wk =   0.1111111
        k(    6) = (   0.0312497   0.0475442   0.0000000), wk =   0.1111111
        k(    7) = (   0.0312497   0.0792404   0.0000000), wk =   0.1111111
        k(    8) = (   0.0312497  -0.0792404   0.0000000), wk =   0.1111111
        k(    9) = (   0.0312497  -0.0475442   0.0000000), wk =   0.1111111
        k(   10) = (   0.0312497  -0.0158481   0.0000000), wk =   0.1111111
        k(   11) = (   0.0624994   0.0316961   0.0000000), wk =   0.1111111
        k(   12) = (   0.0624994   0.0633923   0.0000000), wk =   0.1111111
        k(   13) = (   0.0624994   0.0950884   0.0000000), wk =   0.1111111
        k(   14) = (   0.0624994  -0.0633923   0.0000000), wk =   0.1111111
        k(   15) = (   0.0624994  -0.0316961   0.0000000), wk =   0.1111111
        k(   16) = (   0.0624994   0.0000000   0.0000000), wk =   0.1111111
        k(   17) = (  -0.0937491  -0.0475442   0.0000000), wk =   0.0555556
        k(   18) = (  -0.0937491  -0.0158481   0.0000000), wk =   0.1111111
        k(   19) = (  -0.0937491   0.0158481   0.0000000), wk =   0.1111111
        k(   20) = (  -0.0937491  -0.1426327   0.0000000), wk =   0.0555556

     Largest allocated arrays     est. size (Mb)     dimensions
     Largest temporary arrays     est. size (Mb)     dimensions

     Initial potential from superposition of free atoms
     Check: negative starting charge=   -0.437098

     starting charge  200.99962, renormalised to  210.00000

     negative rho (up, down):  4.567E-01 0.000E+00

     *
     * You are using vdW-DF for exchange-correlation in this calculation.
     * Please cite the following three references that made this development
     * possible:
     *
     *   M. Dion, H. Rydberg, E. Schroder, D. C. Langreth, and
     *   B. I. Lundqvist, Phys. Rev. Lett. 92, 246401 (2004).
     *
     *   T. Thonhauser, V. R. Cooper, S. Li, A. Puzder, P. Hyldgaard, and
     *   D. C. Langreth, Phys. Rev. B 76, 125112 (2007).
     *
     *   G. Roman-Perez and J. M. Soler, Phys. Rev. Lett. 103, 096102 (2009).
     *
     *
     * If you are using vdW-DF2, please also cite:
     *
     *   K. Lee, E. D. Murray, L. Kong, B. I. Lundqvist, and
     *   D. C. Langreth, Phys. Rev. B 82, 081101(R) (2010).
     *
     *
     * If you are calculating the stress with vdW-DF, please also cite:
     *
     *   R. Sabatini, E. Kucukbenli, B. Kolb, T. Thonhauser, and
     *   S. de Gironcoli, J. Phys.: Condens. Matter 24, 424209 (2012).
     *

     Carrying out vdW-DF run using the following parameters:

     Nqs =      20    Nr_points =    1024   r_max =   100.000
     q_mesh =
               0.00001000     0.04494208     0.09755937     0.15916263
               0.23128650     0.31572767     0.41458969     0.53033537
               0.66584808     0.82450364     1.01025438     1.22772762
               1.48234092     1.78043706     2.12944203     2.53805004
               3.01644009     3.57652955     4.23227104     5.00000000

     Gradients computed in reciprocal space

     Adding external electric field

     Computed dipole along edir(3) :
        Dipole                0.0000 Ry au,          0.0000 Debye
        Dipole field          0.0000 Ry au

        Potential amp.       -0.0000 Ry
        Total length         45.3189 bohr

     Starting wfc are  156 randomized atomic wfcs

     Self-consistent Calculation

     iteration #  1     ecut=    36.75 Ry     beta=0.10
     Davidson diagonalization with overlap
     ethr =  1.00E-02,  avg # of iterations =  7.5

[...]

     total energy              =   -2938.42670529 Ry
     Harris-Foulkes estimate   =   -2961.07080551 Ry
     estimated scf accuracy    <     126.44722912 Ry

[...]

     End of self-consistent calculation

          k = 0.0000 0.0000 0.0000 ( 17555 PWs)   bands (ev):

   -90.5315 -90.5138 -90.2838 -90.2835 -90.2660 -90.2657 -71.1822 -71.1212
   -70.8144 -70.8131 -70.7525 -70.7512 -54.1384 -54.0570 -54.0369 -53.9983
   -53.9787 -53.9311 -53.9221 -53.9217 -53.7771 -53.7701 -53.7576 -53.7507
   -53.7275 -53.7161 -53.7147 -53.7144 -53.7085 -53.6976 -41.3740 -41.3037
   -41.2408 -41.1762 -41.1730 -41.0476 -40.9877 -40.8111 -40.7377 -40.7176
   -40.6777 -40.6754 -40.6583 -40.6233 -40.6151 -40.6120 -40.6104 -40.5673
    -5.0711  -4.5203  -4.4104  -4.2469  -4.2255  -4.2029  -4.0912  -4.0200
    -3.8507  -3.8281  -3.8045  -3.6921  -3.6120  -3.4932  -3.4069  -3.1399
    -3.1178  -3.0950  -2.9042  -2.7212  -2.5498  -2.2989  -2.2901  -2.2811
    -2.0872  -2.0199  -1.9881  -1.8289  -1.8208  -1.8078  -1.6656  -1.4842
    -1.4796  -1.4062  -0.8809  -0.8596  -0.7320  -0.7284  -0.6033  -0.4874
    -0.1183  -0.0914   0.2305   0.4271   0.5317   0.5727   0.5925   0.7019
     0.9242   1.0306   1.3330   1.4118   1.5048   1.8324   1.9380   2.0057
     2.1147   2.1250   2.1691   2.2229   2.2674   2.4720   2.6457   2.8996
     3.1497   3.3011   3.3369   3.4481   3.6653   4.9301   5.0969   5.4398
     5.7371   5.8110   6.0785   6.4877   6.8000   6.8899   7.4527   7.7340
     8.0893   8.2363   8.6646   9.0577   9.0852   9.1091   9.5410

[...]

          k =-0.0937-0.0475 0.0000 ( 17490 PWs)   bands (ev):

[...]

     the Fermi energy is     1.5592 ev

!    total energy              =   -2950.05006755 Ry
     Harris-Foulkes estimate   =   -2950.05006886 Ry
     estimated scf accuracy    <       0.00000089 Ry

     The total energy is the sum of the following terms:

     one-electron contribution =  -23925.10227921 Ry
     hartree contribution      =   11957.80916213 Ry
     xc contribution           =    -341.26390939 Ry
     ewald contribution        =    9358.59509407 Ry
     electric field correction =       0.00000002 Ry
     smearing contrib. (-TS)   =      -0.08813517 Ry

     convergence has been achieved in  18 iterations

 BEEF-vdW xc energy contributions
           1 :   -295.898670149013
           2 :    269.667424964793
           3 :   -225.085615688485
           4 :    174.469332578681
           5 :   -129.700943291752
[...]

[...]

     Program PWSCF v.5.1rc2 (svn rev. 11289) starts on 19Dec2018 at  4:55: 5

[...]

     Program PWSCF v.5.1rc2 (svn rev. 11289) starts on 19Dec2018 at  6:42:42

[...]

     Found symmetry operation: I + (  0.5000  0.0000  0.0000)
     This is a supercell, fractional translations are disabled

[...]

   This run was terminated on:   7: 4:15  19Dec2018

[...]

     Program PWSCF v.5.1rc2 (svn rev. 11289) starts on 19Dec2018 at  7: 4:21

     Current dimensions of program PWSCF are:
     Max number of different atomic species (ntypx) = 10
     Max number of k-points (npk) =  40000
     Max angular momentum in pseudopotentials (lmaxx) =  3
     Presently stress not available with electric field

     IMPORTANT: XC functional enforced from input :
     Exchange-correlation      = BEEF-VDW ( 1  4 27 13 2)
     Any further DFT definition will be discarded
     Please, verify this is what you really want

     Subspace diagonalization in iterative solution of the eigenvalue problem:
     a serial algorithm will be used

     bravais-lattice index     =            0
     lattice parameter (alat)  =       1.8897  a.u.
     unit-cell volume          =    4654.9787 (a.u.)^3
     number of atoms/cell      =           12
     number of atomic types    =            2
     number of electrons       =       210.00
     number of Kohn-Sham states=          135
     kinetic-energy cutoff     =      36.7493  Ry
     charge density cutoff     =     367.4932  Ry
     convergence threshold     =      1.0E-06
     mixing beta               =       0.1000
     number of iterations used =           10  plain     mixing
     Exchange-correlation      = BEEF-VDW ( 1  4 27 13 2)
     nstep                     =           50

     celldm(1)=   1.889726  celldm(2)=   0.000000  celldm(3)=   0.000000
     celldm(4)=   0.000000  celldm(5)=   0.000000  celldm(6)=   0.000000

     crystal axes: (cart. coord. in units of alat)
               a(1) = (   5.333386   0.000000   0.000000 )
               a(2) = (  -2.666693   5.258263   0.000000 )
               a(3) = (   0.000000   0.000000  24.596641 )

     reciprocal axes: (cart. coord. in units 2 pi/alat)
               b(1) = (  0.187498  0.095088  0.000000 )
               b(2) = (  0.000000  0.190177  0.000000 )
               b(3) = (  0.000000  0.000000  0.040656 )

     PseudoPot. # 1 for Ru read from file:
     /afs/slac.stanford.edu/u/if/mamunm/psp/gbrv1.5pbe/Ru.UPF
     MD5 check sum: 7158a806dd851261a58e6920c40ebe78
     Pseudo is Ultrasoft + core correction, Zval = 16.0
     Generated by new atomic code, or converted to UPF format
     Using radial grid of  967 points,  6 beta functions with:
                l(1) =   0
                l(2) =   0
                l(3) =   1
                l(4) =   1
                l(5) =   2
                l(6) =   2
     Q(r) pseudized with  8 coefficients,  rinner =    1.300   1.300   1.300
                                                       1.300   1.300

     PseudoPot. # 2 for Ag read from file:
     /afs/slac.stanford.edu/u/if/mamunm/psp/gbrv1.5pbe/Ag.UPF
     MD5 check sum: d66d668201baa78d5eb5b04ef7011058
     Pseudo is Ultrasoft + core correction, Zval = 19.0
     Generated by new atomic code, or converted to UPF format
     Using radial grid of  887 points,  6 beta functions with:
                l(1) =   0
                l(2) =   0
                l(3) =   1
                l(4) =   1
                l(5) =   2
                l(6) =   2
     Q(r) pseudized with  6 coefficients,  rinner =    1.300   1.300   1.300
                                                       1.300   1.300

     vdW kernel table read from file vdW_kernel_table
     MD5 check sum: 095c7af220d748ca6e76c0b4c6cfb241

     atomic species   valence    mass     pseudopotential
        Ru1           16.00   101.07000     Ru( 1.00)
        Ag1           19.00   107.86820     Ag( 1.00)

     No symmetry found

   Cartesian axes

     site n.     atom                  positions (alat units)
         1           Ru1 tau(   1) = (   0.0000000   0.0000000  10.0000000  )
         2           Ru1 tau(   2) = (   2.6666930   0.0000000  10.0000000  )
         3           Ag1 tau(   3) = (   1.3333465   2.6291313  10.0000000  )
         4           Ag1 tau(   4) = (  -1.3333465   2.6291313  10.0000000  )
         5           Ru1 tau(   5) = (   2.6666930   1.3523957  12.2983206  )
         6           Ru1 tau(   6) = (  -0.0000000   1.3523957  12.2983206  )
         7           Ag1 tau(   7) = (  -1.3333465   3.9815270  12.2983206  )
         8           Ag1 tau(   8) = (   1.3333465   3.9815270  12.2983206  )
         9           Ru1 tau(   9) = (  -0.0000719   2.2558345  14.4115061  )
        10           Ru1 tau(  10) = (   2.6666204   2.2558283  14.4114769  )
        11           Ag1 tau(  11) = (   1.3330281   4.9642737  14.9022461  )
        12           Ag1 tau(  12) = (  -1.3334494   4.9642743  14.9022451  )

     number of k points=    20  Fermi-Dirac smearing, width (Ry)=  0.0110
                       cart. coord. in units 2pi/alat
        k(    1) = (   0.0000000   0.0000000   0.0000000), wk =   0.0555556
        k(    2) = (   0.0000000   0.0316961   0.0000000), wk =   0.1111111
        k(    3) = (   0.0000000   0.0633923   0.0000000), wk =   0.1111111
        k(    4) = (   0.0000000  -0.0950884   0.0000000), wk =   0.0555556
        k(    5) = (   0.0312497   0.0158481   0.0000000), wk =   0.1111111
        k(    6) = (   0.0312497   0.0475442   0.0000000), wk =   0.1111111
        k(    7) = (   0.0312497   0.0792404   0.0000000), wk =   0.1111111
        k(    8) = (   0.0312497  -0.0792404   0.0000000), wk =   0.1111111
        k(    9) = (   0.0312497  -0.0475442   0.0000000), wk =   0.1111111
        k(   10) = (   0.0312497  -0.0158481   0.0000000), wk =   0.1111111
        k(   11) = (   0.0624994   0.0316961   0.0000000), wk =   0.1111111
        k(   12) = (   0.0624994   0.0633923   0.0000000), wk =   0.1111111
        k(   13) = (   0.0624994   0.0950884   0.0000000), wk =   0.1111111
        k(   14) = (   0.0624994  -0.0633923   0.0000000), wk =   0.1111111
        k(   15) = (   0.0624994  -0.0316961   0.0000000), wk =   0.1111111
        k(   16) = (   0.0624994   0.0000000   0.0000000), wk =   0.1111111
        k(   17) = (  -0.0937491  -0.0475442   0.0000000), wk =   0.0555556
        k(   18) = (  -0.0937491  -0.0158481   0.0000000), wk =   0.1111111
        k(   19) = (  -0.0937491   0.0158481   0.0000000), wk =   0.1111111
        k(   20) = (  -0.0937491  -0.1426327   0.0000000), wk =   0.0555556

     Largest allocated arrays     est. size (Mb)     dimensions
     Largest temporary arrays     est. size (Mb)     dimensions

     Initial potential from superposition of free atoms
     Check: negative starting charge=   -0.438738

     starting charge  200.99962, renormalised to  210.00000

[...]

     *
     * You are using vdW-DF for exchange-correlation in this calculation.
     * Please cite the following three references that made this development
     * possible:
     *
     *   M. Dion, H. Rydberg, E. Schroder, D. C. Langreth, and
     *   B. I. Lundqvist, Phys. Rev. Lett. 92, 246401 (2004).
     *
     *   T. Thonhauser, V. R. Cooper, S. Li, A. Puzder, P. Hyldgaard, and
     *   D. C. Langreth, Phys. Rev. B 76, 125112 (2007).
     *
     *   G. Roman-Perez and J. M. Soler, Phys. Rev. Lett. 103, 096102 (2009).
     *
     *
     * If you are using vdW-DF2, please also cite:
     *
     *   K. Lee, E. D. Murray, L. Kong, B. I. Lundqvist, and
     *   D. C. Langreth, Phys. Rev. B 82, 081101(R) (2010).
     *
     *
     * If you are calculating the stress with vdW-DF, please also cite:
     *
     *   R. Sabatini, E. Kucukbenli, B. Kolb, T. Thonhauser, and
     *   S. de Gironcoli, J. Phys.: Condens. Matter 24, 424209 (2012).
     *

     Carrying out vdW-DF run using the following parameters:

     Nqs =      20    Nr_points =    1024   r_max =   100.000
     q_mesh =
               0.00001000     0.04494208     0.09755937     0.15916263
               0.23128650     0.31572767     0.41458969     0.53033537
               0.66584808     0.82450364     1.01025438     1.22772762
               1.48234092     1.78043706     2.12944203     2.53805004
               3.01644009     3.57652955     4.23227104     5.00000000

     Gradients computed in reciprocal space

[...]

     Starting wfc are  156 randomized atomic wfcs

     Self-consistent Calculation

[...]

     total energy              =   -2950.10111879 Ry
     Harris-Foulkes estimate   =   -2950.10111819 Ry
     estimated scf accuracy    <       0.00000220 Ry

     iteration # 22     ecut=    36.75 Ry     beta=0.10
     Davidson diagonalization with overlap
     ethr =  1.05E-09,  avg # of iterations =  1.6

[...]

     negative rho (up, down):  4.495E-01 0.000E+00

     Adding external electric field

     Computed dipole along edir(3) :
        Dipole                0.0678 Ry au,          0.1724 Debye
        Dipole field          0.0002 Ry au

        Potential amp.       -0.0166 Ry
        Total length         45.3189 bohr

     End of self-consistent calculation

[...]

          k = 0.0625 0.0000 0.0000 ( 17486 PWs)   bands (ev):

[...]

          k =-0.0937-0.1426 0.0000 ( 17490 PWs)   bands (ev):

   -90.4397 -90.4397 -90.2024 -90.2024 -90.0582 -90.0582 -71.3193 -71.3192
   -70.9841 -70.9840 -70.6689 -70.6689 -53.9590 -53.9590 -53.9462 -53.9462
   -53.9117 -53.9117 -53.7466 -53.7466 -53.6916 -53.6916 -53.6384 -53.6384
   -53.6158 -53.6156 -53.5469 -53.5468 -53.4957 -53.4957 -41.9083 -41.9081
   -41.1442 -41.1441 -41.1349 -41.1348 -40.9395 -40.9394 -40.8732 -40.8731
   -40.8009 -40.8009 -40.7730 -40.7729 -40.5786 -40.5786 -40.4987 -40.4987
    -3.7424  -3.7423  -3.5935  -3.5935  -3.5015  -3.5014  -3.4230  -3.4229
    -3.2042  -3.2042  -3.1129  -3.1128  -2.9538  -2.9536  -2.7630  -2.7629
    -2.7370  -2.7368  -2.6674  -2.6671  -2.5332  -2.5330  -2.4952  -2.4951
    -2.3674  -2.3672  -2.1732  -2.1731  -2.1052  -2.1051  -2.0336  -2.0332
    -1.6925  -1.6925  -1.5232  -1.5232  -1.2107  -1.2107  -0.6513  -0.6512
    -0.3625  -0.3624   0.0573   0.0573   0.2311   0.2312   0.3790   0.3791
     0.4947   0.4948   0.5853   0.5853   0.7221   0.7221   0.8373   0.8374
     0.9571   0.9571   1.7771   1.7771   1.9014   1.9014   2.2000   2.2000
     3.2098   3.2099   3.4738   3.4738   4.2959   4.2960   5.5179   5.5180
     6.3155   6.3155   7.3032   7.3032   7.9308   7.9309   8.0506   8.0506
     8.5410   8.5411   9.0040   9.0041   9.1914   9.1915   9.6652

     the Fermi energy is     1.6359 ev

!    total energy              =   -2950.10111849 Ry
     Harris-Foulkes estimate   =   -2950.10111856 Ry
     estimated scf accuracy    <       0.00000043 Ry

     The total energy is the sum of the following terms:

     one-electron contribution =  -23636.77653313 Ry
     hartree contribution      =   11813.80831989 Ry
     xc contribution           =    -341.37589666 Ry
     ewald contribution        =    9214.31265013 Ry
     electric field correction =       0.00001242 Ry
     smearing contrib. (-TS)   =      -0.06967113 Ry

     convergence has been achieved in  22 iterations

 BEEF-vdW xc energy contributions
           1 :   -296.007265145803
           2 :    269.754279235430
           3 :   -225.151520861770
           4 :    174.526359456498
           5 :   -129.737106091767
           6 :    98.1570335411542
           7 :   -81.0556261400217
           8 :    74.6394837451380
           9 :   -72.8657114867274
          10 :    70.4983676428793
          11 :   -65.0373418793810
          12 :    56.9109838654803
          13 :   -48.2671589662692
          14 :    41.2895251179950
          15 :   -36.9888911524743
          16 :    34.9472225777486
          17 :   -33.8915872468247
          18 :    32.5720396940176
          19 :   -30.3977460727954
          20 :    27.5520552644127
          21 :   -24.6601773963749
          22 :    22.3032178025373
          23 :   -20.6864955929092
          24 :    19.6094832340101
          25 :   -18.6842416055130
          26 :    17.6163588504405
          27 :   -16.3664417971065
          28 :    15.1167804366689
          29 :   -14.1027804652082
          30 :    13.4387900424399
          31 :   -30.0282743193952
          32 :   -22.2577236071518

     Forces acting on atoms (Ry/au):

     negative rho (up, down):  4.495E-01 0.000E+00
     atom    1 type  1   force =    -0.00001444    0.01493337    0.03400257
     atom    2 type  1   force =    -0.00001419    0.01493726    0.03401298
     atom    3 type  2   force =    -0.00001743   -0.01281487   -0.02995320
     atom    4 type  2   force =    -0.00000942   -0.01281467   -0.02995313
     atom    5 type  1   force =    -0.00001857   -0.01451663   -0.02027398
     atom    6 type  1   force =    -0.00001857   -0.01450757   -0.02024580
     atom    7 type  2   force =     0.00004391    0.01172476    0.01467818
     atom    8 type  2   force =     0.00005779    0.01172491    0.01467799
     atom    9 type  1   force =    -0.00001618    0.00043219    0.00055138
     atom   10 type  1   force =    -0.00001611    0.00043453    0.00054359
     atom   11 type  2   force =     0.00009324    0.00023326    0.00097984
     atom   12 type  2   force =    -0.00007003    0.00023348    0.00097958

     Total force =     0.082662     Total SCF correction =     0.002736

     entering subroutine stress ...

     negative rho (up, down):  4.495E-01 0.000E+00
          total   stress  (Ry/bohr**3)                   (kbar)     P=  -11.55
  -0.00007903  -0.00000001   0.00000001        -11.63     -0.00      0.00
  -0.00000001  -0.00013969  -0.00000288         -0.00    -20.55     -0.42
   0.00000001  -0.00000288  -0.00001680          0.00     -0.42     -2.47

 !ASE

     Writing output data file calc.save

     General routines

     Parallel routines

   This run was terminated on:   7:25:59  19Dec2018

   JOB DONE.
Job  /afs/slac/g/suncat/bin/suncat-tsmpirun -x LD_LIBRARY_PATH -wdir /scratch/qe530499_rxxID pw.x -in pw.inp

TID   HOST_NAME   COMMAND_LINE            STATUS            TERMINATION_TIME
00000 suncat2026 pw.x -in pw.inp   Done                     12/19/2018 07:25:59
00001 suncat2026 pw.x -in pw.inp   Done                     12/19/2018 07:25:59
00002 suncat2026 pw.x -in pw.inp   Done                     12/19/2018 07:25:59
00003 suncat2026 pw.x -in pw.inp   Done                     12/19/2018 07:25:59
00004 suncat2026 pw.x -in pw.inp   Done                     12/19/2018 07:25:59
00005 suncat2026 pw.x -in pw.inp   Done                     12/19/2018 07:25:59
00006 suncat2026 pw.x -in pw.inp   Done                     12/19/2018 07:25:59
00007 suncat2026 pw.x -in pw.inp   Done                     12/19/2018 07:25:59
00008 suncat2026 pw.x -in pw.inp   Done                     12/19/2018 07:25:59
00009 suncat2026 pw.x -in pw.inp   Done                     12/19/2018 07:25:59
00010 suncat2026 pw.x -in pw.inp   Done                     12/19/2018 07:25:59
00011 suncat2026 pw.x -in pw.inp   Done                     12/19/2018 07:25:59
00012 suncat2026 pw.x -in pw.inp   Done                     12/19/2018 07:25:59
00013 suncat2026 pw.x -in pw.inp   Done                     12/19/2018 07:25:59
00014 suncat2026 pw.x -in pw.inp   Done                     12/19/2018 07:25:59
00015 suncat2026 pw.x -in pw.inp   Done                     12/19/2018 07:25:59
00016 suncat2025 pw.x -in pw.inp   Done                     12/19/2018 07:25:59
00017 suncat2025 pw.x -in pw.inp   Done                     12/19/2018 07:25:59
00018 suncat2025 pw.x -in pw.inp   Done                     12/19/2018 07:25:59
00019 suncat2025 pw.x -in pw.inp   Done                     12/19/2018 07:25:59
00020 suncat2025 pw.x -in pw.inp   Done                     12/19/2018 07:25:59
00021 suncat2025 pw.x -in pw.inp   Done                     12/19/2018 07:25:59
00022 suncat2025 pw.x -in pw.inp   Done                     12/19/2018 07:25:59
00023 suncat2025 pw.x -in pw.inp   Done                     12/19/2018 07:25:59
00024 suncat2025 pw.x -in pw.inp   Done                     12/19/2018 07:25:59
00025 suncat2025 pw.x -in pw.inp   Done                     12/19/2018 07:25:59
00026 suncat2025 pw.x -in pw.inp   Done                     12/19/2018 07:25:59
00027 suncat2025 pw.x -in pw.inp   Done                     12/19/2018 07:25:59
00028 suncat2025 pw.x -in pw.inp   Done                     12/19/2018 07:25:59
00029 suncat2025 pw.x -in pw.inp   Done                     12/19/2018 07:25:59
00030 suncat2025 pw.x -in pw.inp   Done                     12/19/2018 07:25:59
00031 suncat2025 pw.x -in pw.inp   Done                     12/19/2018 07:25:59