     Program PWSCF v.5.1rc2 (svn rev. 11289) starts on 19Dec2018 at  6:45:23

     Current dimensions of program PWSCF are:
     Max number of different atomic species (ntypx) = 10
     Max number of k-points (npk) =  40000
     Max angular momentum in pseudopotentials (lmaxx) =  3
     Presently stress not available with electric field

     IMPORTANT: XC functional enforced from input :
     Exchange-correlation      = BEEF-VDW ( 1  4 27 13 2)
     Any further DFT definition will be discarded
     Please, verify this is what you really want

     Subspace diagonalization in iterative solution of the eigenvalue problem:
     a serial algorithm will be used

     Found symmetry operation: I + (  0.5000 -0.5000  0.0000)
     This is a supercell, fractional translations are disabled

     bravais-lattice index     =            0
     lattice parameter (alat)  =       1.8897  a.u.
     unit-cell volume          =    4638.9017 (a.u.)^3
     number of atoms/cell      =           12
     number of atomic types    =            2
     number of electrons       =       168.00
     number of Kohn-Sham states=          114
     kinetic-energy cutoff     =      36.7493  Ry
     charge density cutoff     =     367.4932  Ry
     convergence threshold     =      1.0E-06
     mixing beta               =       0.1000
     number of iterations used =           10  plain     mixing
     Exchange-correlation      = BEEF-VDW ( 1  4 27 13 2)
     nstep                     =           50

     celldm(1)=   1.889726  celldm(2)=   0.000000  celldm(3)=   0.000000
     celldm(4)=   0.000000  celldm(5)=   0.000000  celldm(6)=   0.000000

     crystal axes: (cart. coord. in units of alat)
               a(1) = (   5.628548   0.000000   0.000000 )
               a(2) = (   2.663501   4.958459   0.000000 )
               a(3) = (   0.000000   0.000000  24.630624 )

     reciprocal axes: (cart. coord. in units 2 pi/alat)
               b(1) = (  0.177666 -0.095435  0.000000 )
               b(2) = (  0.000000  0.201676  0.000000 )
               b(3) = (  0.000000  0.000000  0.040600 )

     PseudoPot. # 1 for Ta read from file:
     /afs/slac.stanford.edu/u/if/mamunm/psp/gbrv1.5pbe/Ta.UPF
     MD5 check sum: f8bbe9446314a3b8ea5d9f3e3836c939
     Pseudo is Ultrasoft + core correction, Zval = 13.0
     Generated by new atomic code, or converted to UPF format
     Using radial grid of  921 points,  7 beta functions with:
                l(1) =   0
                l(2) =   0
                l(3) =   1
                l(4) =   1
                l(5) =   2
                l(6) =   2
                l(7) =   3
     Q(r) pseudized with  6 coefficients,  rinner =    1.300   1.300   1.300
                                                       1.300   1.300   1.300
                                                       1.300

     PseudoPot. # 2 for Ir read from file:
     /afs/slac.stanford.edu/u/if/mamunm/psp/gbrv1.5pbe/Ir.UPF
     MD5 check sum: 8836f839c3459d2b385c504ce6d91f2c
     Pseudo is Ultrasoft + core correction, Zval = 15.0
     Generated by new atomic code, or converted to UPF format
     Using radial grid of  983 points,  7 beta functions with:
                l(1) =   0
                l(2) =   0
                l(3) =   1
                l(4) =   1
                l(5) =   1
                l(6) =   2
                l(7) =   2
     Q(r) pseudized with  8 coefficients,  rinner =    1.400   1.400   1.400
                                                       1.400   1.400

     vdW kernel table read from file vdW_kernel_table
     MD5 check sum: 095c7af220d748ca6e76c0b4c6cfb241

     atomic species   valence    mass     pseudopotential
        Ta1           13.00   180.94788     Ta( 1.00)
        Ir1           15.00   192.21700     Ir( 1.00)

     No symmetry found

   Cartesian axes

     site n.     atom                  positions (alat units)
         1           Ta1 tau(   1) = (   0.0000000   0.0000000  10.0000000  )
         2           Ta1 tau(   2) = (   4.1460248   2.4792296  10.0000000  )
         3           Ir1 tau(   3) = (   2.8142742   0.0000000  10.0000000  )
         4           Ir1 tau(   4) = (   1.3317506   2.4792296  10.0000000  )
         5           Ta1 tau(   5) = (   5.6285484   3.3657455  12.3153119  )
         6           Ta1 tau(   6) = (   1.4825236   0.8865158  12.3153119  )
         7           Ir1 tau(   7) = (   2.8142742   3.3657455  12.3153119  )
         8           Ir1 tau(   8) = (   4.2967978   0.8865158  12.3153119  )
         9           Ta1 tau(   9) = (   2.9650472   1.7730316  14.6306239  )
        10           Ta1 tau(  10) = (   7.1110720   4.2522613  14.6306239  )
        11           Ir1 tau(  11) = (   5.7793214   1.7730316  14.6306239  )
        12           Ir1 tau(  12) = (   4.2967978   4.2522613  14.6306239  )

     number of k points=    20  Fermi-Dirac smearing, width (Ry)=  0.0110
                       cart. coord. in units 2pi/alat
        k(    1) = (   0.0000000   0.0000000   0.0000000), wk =   0.0555556
        k(    2) = (   0.0000000   0.0336126   0.0000000), wk =   0.1111111
        k(    3) = (   0.0000000   0.0672252   0.0000000), wk =   0.1111111
        k(    4) = (   0.0000000  -0.1008378   0.0000000), wk =   0.0555556
        k(    5) = (   0.0296110  -0.0159059   0.0000000), wk =   0.1111111
        k(    6) = (   0.0296110   0.0177067   0.0000000), wk =   0.1111111
        k(    7) = (   0.0296110   0.0513193   0.0000000), wk =   0.1111111
        k(    8) = (   0.0296110  -0.1167437   0.0000000), wk =   0.1111111
        k(    9) = (   0.0296110  -0.0831311   0.0000000), wk =   0.1111111
        k(   10) = (   0.0296110  -0.0495185   0.0000000), wk =   0.1111111
        k(   11) = (   0.0592219  -0.0318118   0.0000000), wk =   0.1111111
        k(   12) = (   0.0592219   0.0018008   0.0000000), wk =   0.1111111
        k(   13) = (   0.0592219   0.0354134   0.0000000), wk =   0.1111111
        k(   14) = (   0.0592219  -0.1326496   0.0000000), wk =   0.1111111
        k(   15) = (   0.0592219  -0.0990370   0.0000000), wk =   0.1111111
        k(   16) = (   0.0592219  -0.0654244   0.0000000), wk =   0.1111111
        k(   17) = (  -0.0888329   0.0477177   0.0000000), wk =   0.0555556
        k(   18) = (  -0.0888329   0.0813303   0.0000000), wk =   0.1111111
        k(   19) = (  -0.0888329   0.1149429   0.0000000), wk =   0.1111111
        k(   20) = (  -0.0888329  -0.0531200   0.0000000), wk =   0.0555556

     Largest allocated arrays     est. size (Mb)     dimensions
     Largest temporary arrays     est. size (Mb)     dimensions

     Initial potential from superposition of free atoms
     Check: negative starting charge=   -2.748385

     starting charge  164.99314, renormalised to  168.00000

     negative rho (up, down):  2.798E+00 0.000E+00

     *
     * You are using vdW-DF for exchange-correlation in this calculation.
     * Please cite the following three references that made this development
     * possible:
     *
     *   M. Dion, H. Rydberg, E. Schroder, D. C. Langreth, and
     *   B. I. Lundqvist, Phys. Rev. Lett. 92, 246401 (2004).
     *
     *   T. Thonhauser, V. R. Cooper, S. Li, A. Puzder, P. Hyldgaard, and
     *   D. C. Langreth, Phys. Rev. B 76, 125112 (2007).
     *
     *   G. Roman-Perez and J. M. Soler, Phys. Rev. Lett. 103, 096102 (2009).
     *
     *
     * If you are using vdW-DF2, please also cite:
     *
     *   K. Lee, E. D. Murray, L. Kong, B. I. Lundqvist, and
     *   D. C. Langreth, Phys. Rev. B 82, 081101(R) (2010).
     *
     *
     * If you are calculating the stress with vdW-DF, please also cite:
     *
     *   R. Sabatini, E. Kucukbenli, B. Kolb, T. Thonhauser, and
     *   S. de Gironcoli, J. Phys.: Condens. Matter 24, 424209 (2012).
     *

     Carrying out vdW-DF run using the following parameters:

     Nqs =      20    Nr_points =    1024   r_max =   100.000
     q_mesh =
               0.00001000     0.04494208     0.09755937     0.15916263
               0.23128650     0.31572767     0.41458969     0.53033537
               0.66584808     0.82450364     1.01025438     1.22772762
               1.48234092     1.78043706     2.12944203     2.53805004
               3.01644009     3.57652955     4.23227104     5.00000000

     Gradients computed in reciprocal space

     Adding external electric field

     Computed dipole along edir(3) :
        Dipole                0.0000 Ry au,          0.0000 Debye
        Dipole field          0.0000 Ry au

        Potential amp.       -0.0000 Ry
        Total length         45.3815 bohr

     Starting wfc are  150 randomized atomic wfcs

     Self-consistent Calculation

     iteration #  1     ecut=    36.75 Ry     beta=0.10
     Davidson diagonalization with overlap
     ethr =  1.00E-02,  avg # of iterations =  4.5

[...]

     total energy              =   -1959.48353725 Ry
     Harris-Foulkes estimate   =   -1961.14459814 Ry
     estimated scf accuracy    <      10.23026310 Ry

[...]

     End of self-consistent calculation

          k = 0.0000 0.0000 0.0000 ( 17479 PWs)   bands (ev):

   -66.2470 -66.2459 -66.2052 -66.2041 -66.0616 -66.0188 -46.9715 -46.9124
   -46.8905 -46.8500 -46.8278 -46.7575 -46.4663 -46.4654 -46.4634 -46.4597
   -46.4407 -46.4369 -46.3572 -46.3499 -46.3382 -46.3298 -46.2544 -46.2544
   -32.8081 -32.7939 -32.7800 -32.7343 -32.7334 -32.7144 -32.6390 -32.5623
   -32.5242 -32.4997 -32.4683 -32.4557 -32.3908 -32.2180 -32.1501 -32.1087
   -32.1000 -32.0506  -6.0439  -4.2527  -3.6590  -3.2257  -3.2027  -3.1806
    -2.9943  -2.9500  -2.9301  -2.4399  -2.2928  -2.2843  -2.2785  -2.1723
    -2.1476  -0.9653  -0.9243  -0.6642  -0.3617  -0.3337  -0.2045  -0.0123
    -0.0088   0.0771   0.2422   0.4346   0.4363   0.6240   0.6427   1.5275
     1.6990   1.7076   1.7169   1.7414   1.9314   1.9525   2.1648   2.2796
     2.5649   2.6308   2.7532   2.8838   2.9809   3.3072   3.7675   3.9026
     4.0231   4.0260   4.0731   4.2636   4.2792   4.4889   4.5553   4.7117
     5.2277   5.2718   5.3825   5.5540   6.0035   6.1570   6.2613   6.4209
     6.5312   6.6053   6.6443   6.9687   6.9716   7.0776   7.1576   7.1918
     7.2517   7.3814

[...]

          k =-0.0888 0.0477 0.0000 ( 17414 PWs)   bands (ev):

[...]

     the Fermi energy is     2.4090 ev

!    total energy              =   -1959.56119768 Ry
     Harris-Foulkes estimate   =   -1959.56120744 Ry
     estimated scf accuracy    <       0.00000015 Ry

     The total energy is the sum of the following terms:

     one-electron contribution =  -14793.06262374 Ry
     hartree contribution      =    7403.88398436 Ry
     xc contribution           =    -573.47233968 Ry
     ewald contribution        =    6003.16635753 Ry
     electric field correction =       0.00000000 Ry
     smearing contrib. (-TS)   =      -0.07657615 Ry

     convergence has been achieved in  16 iterations

 BEEF-vdW xc energy contributions
           1 :   -506.712904226347
           2 :    469.920771437263
           3 :   -404.741199468901
           4 :    324.899788971154
           5 :   -244.915223912162
           6 :    175.999167312861
           7 :   -123.750368454299
           8 :    88.1120759839047
[...]

[...]

     Program PWSCF v.5.1rc2 (svn rev. 11289) starts on 19Dec2018 at  7:40:47

[...]

   This run was terminated on:   7:54:57  19Dec2018

[...]

     Program PWSCF v.5.1rc2 (svn rev. 11289) starts on 19Dec2018 at  7:55: 3

[...]

   This run was terminated on:   8: 9: 5  19Dec2018

[...]

     Program PWSCF v.5.1rc2 (svn rev. 11289) starts on 19Dec2018 at  8: 9:11

     Current dimensions of program PWSCF are:
     Max number of different atomic species (ntypx) = 10
     Max number of k-points (npk) =  40000
     Max angular momentum in pseudopotentials (lmaxx) =  3
     Presently stress not available with electric field

     IMPORTANT: XC functional enforced from input :
     Exchange-correlation      = BEEF-VDW ( 1  4 27 13 2)
     Any further DFT definition will be discarded
     Please, verify this is what you really want

     Subspace diagonalization in iterative solution of the eigenvalue problem:
     a serial algorithm will be used

     Found symmetry operation: I + (  0.5000 -0.5000  0.0000)
     This is a supercell, fractional translations are disabled

     bravais-lattice index     =            0
     lattice parameter (alat)  =       1.8897  a.u.
     unit-cell volume          =    4638.9017 (a.u.)^3
     number of atoms/cell      =           12
     number of atomic types    =            2
     number of electrons       =       168.00
     number of Kohn-Sham states=          114
     kinetic-energy cutoff     =      36.7493  Ry
     charge density cutoff     =     367.4932  Ry
     convergence threshold     =      1.0E-06
     mixing beta               =       0.1000
     number of iterations used =           10  plain     mixing
     Exchange-correlation      = BEEF-VDW ( 1  4 27 13 2)
     nstep                     =           50

     celldm(1)=   1.889726  celldm(2)=   0.000000  celldm(3)=   0.000000
     celldm(4)=   0.000000  celldm(5)=   0.000000  celldm(6)=   0.000000

     crystal axes: (cart. coord. in units of alat)
               a(1) = (   5.628548   0.000000   0.000000 )
               a(2) = (   2.663501   4.958459   0.000000 )
               a(3) = (   0.000000   0.000000  24.630624 )

     reciprocal axes: (cart. coord. in units 2 pi/alat)
               b(1) = (  0.177666 -0.095435  0.000000 )
               b(2) = (  0.000000  0.201676  0.000000 )
               b(3) = (  0.000000  0.000000  0.040600 )

     PseudoPot. # 1 for Ta read from file:
     /afs/slac.stanford.edu/u/if/mamunm/psp/gbrv1.5pbe/Ta.UPF
     MD5 check sum: f8bbe9446314a3b8ea5d9f3e3836c939
     Pseudo is Ultrasoft + core correction, Zval = 13.0
     Generated by new atomic code, or converted to UPF format
     Using radial grid of  921 points,  7 beta functions with:
                l(1) =   0
                l(2) =   0
                l(3) =   1
                l(4) =   1
                l(5) =   2
                l(6) =   2
                l(7) =   3
     Q(r) pseudized with  6 coefficients,  rinner =    1.300   1.300   1.300
                                                       1.300   1.300   1.300
                                                       1.300

     PseudoPot. # 2 for Ir read from file:
     /afs/slac.stanford.edu/u/if/mamunm/psp/gbrv1.5pbe/Ir.UPF
     MD5 check sum: 8836f839c3459d2b385c504ce6d91f2c
     Pseudo is Ultrasoft + core correction, Zval = 15.0
     Generated by new atomic code, or converted to UPF format
     Using radial grid of  983 points,  7 beta functions with:
                l(1) =   0
                l(2) =   0
                l(3) =   1
                l(4) =   1
                l(5) =   1
                l(6) =   2
                l(7) =   2
     Q(r) pseudized with  8 coefficients,  rinner =    1.400   1.400   1.400
                                                       1.400   1.400

     vdW kernel table read from file vdW_kernel_table
     MD5 check sum: 095c7af220d748ca6e76c0b4c6cfb241

     atomic species   valence    mass     pseudopotential
        Ta1           13.00   180.94788     Ta( 1.00)
        Ir1           15.00   192.21700     Ir( 1.00)

     No symmetry found

   Cartesian axes

     site n.     atom                  positions (alat units)
         1           Ta1 tau(   1) = (   0.0000000   0.0000000  10.0000000  )
         2           Ta1 tau(   2) = (   4.1460248   2.4792296  10.0000000  )
         3           Ir1 tau(   3) = (   2.8142742   0.0000000  10.0000000  )
         4           Ir1 tau(   4) = (   1.3317506   2.4792296  10.0000000  )
         5           Ta1 tau(   5) = (   5.6285484   3.3657455  12.3153119  )
         6           Ta1 tau(   6) = (   1.4825236   0.8865158  12.3153119  )
         7           Ir1 tau(   7) = (   2.8142742   3.3657455  12.3153119  )
         8           Ir1 tau(   8) = (   4.2967978   0.8865158  12.3153119  )
         9           Ta1 tau(   9) = (   3.1414613   1.8785201  14.5930534  )
        10           Ta1 tau(  10) = (   7.2874849   4.3577537  14.5930546  )
        11           Ir1 tau(  11) = (   5.9605834   1.8814207  14.5474899  )
        12           Ir1 tau(  12) = (   4.4780584   4.3606520  14.5474898  )

     number of k points=    20  Fermi-Dirac smearing, width (Ry)=  0.0110
                       cart. coord. in units 2pi/alat
        k(    1) = (   0.0000000   0.0000000   0.0000000), wk =   0.0555556
        k(    2) = (   0.0000000   0.0336126   0.0000000), wk =   0.1111111
        k(    3) = (   0.0000000   0.0672252   0.0000000), wk =   0.1111111
        k(    4) = (   0.0000000  -0.1008378   0.0000000), wk =   0.0555556
        k(    5) = (   0.0296110  -0.0159059   0.0000000), wk =   0.1111111
        k(    6) = (   0.0296110   0.0177067   0.0000000), wk =   0.1111111
        k(    7) = (   0.0296110   0.0513193   0.0000000), wk =   0.1111111
        k(    8) = (   0.0296110  -0.1167437   0.0000000), wk =   0.1111111
        k(    9) = (   0.0296110  -0.0831311   0.0000000), wk =   0.1111111
        k(   10) = (   0.0296110  -0.0495185   0.0000000), wk =   0.1111111
        k(   11) = (   0.0592219  -0.0318118   0.0000000), wk =   0.1111111
        k(   12) = (   0.0592219   0.0018008   0.0000000), wk =   0.1111111
        k(   13) = (   0.0592219   0.0354134   0.0000000), wk =   0.1111111
        k(   14) = (   0.0592219  -0.1326496   0.0000000), wk =   0.1111111
        k(   15) = (   0.0592219  -0.0990370   0.0000000), wk =   0.1111111
        k(   16) = (   0.0592219  -0.0654244   0.0000000), wk =   0.1111111
        k(   17) = (  -0.0888329   0.0477177   0.0000000), wk =   0.0555556
        k(   18) = (  -0.0888329   0.0813303   0.0000000), wk =   0.1111111
        k(   19) = (  -0.0888329   0.1149429   0.0000000), wk =   0.1111111
        k(   20) = (  -0.0888329  -0.0531200   0.0000000), wk =   0.0555556

     Largest allocated arrays     est. size (Mb)     dimensions
     Largest temporary arrays     est. size (Mb)     dimensions

     Initial potential from superposition of free atoms
     Check: negative starting charge=   -2.744764

     starting charge  164.99314, renormalised to  168.00000

[...]

     *
     * You are using vdW-DF for exchange-correlation in this calculation.
     * Please cite the following three references that made this development
     * possible:
     *
     *   M. Dion, H. Rydberg, E. Schroder, D. C. Langreth, and
     *   B. I. Lundqvist, Phys. Rev. Lett. 92, 246401 (2004).
     *
     *   T. Thonhauser, V. R. Cooper, S. Li, A. Puzder, P. Hyldgaard, and
     *   D. C. Langreth, Phys. Rev. B 76, 125112 (2007).
     *
     *   G. Roman-Perez and J. M. Soler, Phys. Rev. Lett. 103, 096102 (2009).
     *
     *
     * If you are using vdW-DF2, please also cite:
     *
     *   K. Lee, E. D. Murray, L. Kong, B. I. Lundqvist, and
     *   D. C. Langreth, Phys. Rev. B 82, 081101(R) (2010).
     *
     *
     * If you are calculating the stress with vdW-DF, please also cite:
     *
     *   R. Sabatini, E. Kucukbenli, B. Kolb, T. Thonhauser, and
     *   S. de Gironcoli, J. Phys.: Condens. Matter 24, 424209 (2012).
     *

     Carrying out vdW-DF run using the following parameters:

     Nqs =      20    Nr_points =    1024   r_max =   100.000
     q_mesh =
               0.00001000     0.04494208     0.09755937     0.15916263
               0.23128650     0.31572767     0.41458969     0.53033537
               0.66584808     0.82450364     1.01025438     1.22772762
               1.48234092     1.78043706     2.12944203     2.53805004
               3.01644009     3.57652955     4.23227104     5.00000000

     Gradients computed in reciprocal space

[...]

     Starting wfc are  150 randomized atomic wfcs

     Self-consistent Calculation

[...]

     total energy              =   -1959.57261908 Ry
     Harris-Foulkes estimate   =   -1959.57261525 Ry
     estimated scf accuracy    <       0.00000124 Ry

     iteration # 17     ecut=    36.75 Ry     beta=0.10
     Davidson diagonalization with overlap
     ethr =  7.37E-10,  avg # of iterations =  2.7

[...]

     negative rho (up, down):  2.526E+00 0.000E+00

     Adding external electric field

     Computed dipole along edir(3) :
        Dipole                0.0461 Ry au,          0.1172 Debye
        Dipole field          0.0001 Ry au

        Potential amp.       -0.0113 Ry
        Total length         45.3815 bohr

     End of self-consistent calculation

[...]

          k = 0.0592-0.0654 0.0000 ( 17429 PWs)   bands (ev):

[...]

          k =-0.0888-0.0531 0.0000 ( 17520 PWs)   bands (ev):

   -66.2923 -66.2504 -66.2061 -66.1643 -66.0934 -66.0501 -47.0484 -46.9677
   -46.9463 -46.8985 -46.8788 -46.8349 -46.5296 -46.5129 -46.4934 -46.4238
   -46.4235 -46.4189 -46.4038 -46.3992 -46.3179 -46.3145 -46.2950 -46.2143
   -32.8362 -32.8315 -32.7901 -32.7513 -32.7334 -32.7174 -32.6454 -32.6212
   -32.5412 -32.5344 -32.5053 -32.4570 -32.4375 -32.2838 -32.2168 -32.1363
   -32.0916 -32.0501  -4.3212  -4.0545  -2.7777  -2.5586  -2.4736  -2.4482
    -2.4318  -2.1704  -1.9912  -1.8553  -1.7596  -1.6230  -1.3292  -1.1822
    -1.1675  -1.1598  -0.9473  -0.7322  -0.6868  -0.3063  -0.2712  -0.1470
    -0.0828   0.0014   0.2041   0.3047   0.3122   0.4829   0.7084   0.7300
     0.8570   0.9103   0.9248   0.9524   1.1565   1.3669   1.3966   1.4163
     1.5152   1.5305   1.6468   1.7137   1.8158   1.9898   1.9952   2.0029
     2.4815   2.6586   3.5380   3.5756   3.6304   3.8085   4.1288   4.3812
     4.4238   4.6871   4.8889   5.0262   5.0430   5.2352   5.2537   5.5535
     5.8469   6.0754   6.2770   6.3554   6.8279   7.2728   7.3241   7.8699
     8.1072   8.2413

     the Fermi energy is     2.4626 ev

!    total energy              =   -1959.57260511 Ry
     Harris-Foulkes estimate   =   -1959.57261842 Ry
     estimated scf accuracy    <       0.00000072 Ry

     The total energy is the sum of the following terms:

     one-electron contribution =  -14924.98834250 Ry
     hartree contribution      =    7469.69995560 Ry
     xc contribution           =    -573.61415008 Ry
     ewald contribution        =    6069.40422832 Ry
     electric field correction =       0.00000576 Ry
     smearing contrib. (-TS)   =      -0.07430220 Ry

     convergence has been achieved in  17 iterations

 BEEF-vdW xc energy contributions
           1 :   -506.857631563146
           2 :    470.118470811937
           3 :   -405.011186583333
           4 :    325.212155305234
           5 :   -245.201396760449
           6 :    176.184489087071
           7 :   -123.792628066413
           8 :    88.0252290424193
           9 :   -64.9929869891323
          10 :    49.4272696940590
          11 :   -36.8744435463270
          12 :    24.8789838224121
          13 :   -13.0347823432523
          14 :    2.24330612154006
          15 :    6.27721717433906
          16 :   -11.7618492695511
          17 :    14.2153727012810
          18 :   -14.3044884992967
          19 :    13.0159821635652
          20 :   -11.3052220668662
          21 :    9.87522828973670
          22 :   -9.10567896969474
          23 :    9.06905477112832
          24 :   -9.57742483909965
          25 :    10.2518956307050
          26 :   -10.6382979331728
          27 :    10.3683027380661
          28 :   -9.31872039082555
          29 :    7.69110044783963
          30 :   -5.95368025418293
          31 :   -44.1720685489805
          32 :   -32.9850066886841

     Forces acting on atoms (Ry/au):

     negative rho (up, down):  2.526E+00 0.000E+00
     atom    1 type  1   force =    -0.00352163   -0.00210586    0.00299482
     atom    2 type  1   force =    -0.00352163   -0.00210578    0.00299488
     atom    3 type  2   force =    -0.01104103   -0.00660225    0.02301785
     atom    4 type  2   force =    -0.01104087   -0.00660250    0.02301752
     atom    5 type  1   force =     0.00844854    0.00505197   -0.01691117
     atom    6 type  1   force =     0.00844856    0.00505198   -0.01691131
     atom    7 type  2   force =     0.00583693    0.00349029   -0.00898477
     atom    8 type  2   force =     0.00583694    0.00349036   -0.00898479
     atom    9 type  1   force =     0.00012681    0.00007772   -0.00002602
     atom   10 type  1   force =     0.00012765    0.00007469   -0.00002615
     atom   11 type  2   force =     0.00014966    0.00009035   -0.00009056
     atom   12 type  2   force =     0.00015007    0.00008904   -0.00009029

     Total force =     0.049619     Total SCF correction =     0.003133

     entering subroutine stress ...

     negative rho (up, down):  2.526E+00 0.000E+00
          total   stress  (Ry/bohr**3)                   (kbar)     P=  -28.27
  -0.00025776  -0.00003352   0.00002759        -37.92     -4.93      4.06
  -0.00003352  -0.00022175   0.00001650         -4.93    -32.62      2.43
   0.00002759   0.00001650  -0.00009691          4.06      2.43    -14.26

 !ASE

     Writing output data file calc.save

     General routines

     Parallel routines

   This run was terminated on:   8:23: 7  19Dec2018

   JOB DONE.
Job  /afs/slac/g/suncat/bin/suncat-tsmpirun -x LD_LIBRARY_PATH -wdir /scratch/qe530624_pUMyG pw.x -in pw.inp

TID   HOST_NAME   COMMAND_LINE            STATUS            TERMINATION_TIME
00000 suncat2022 pw.x -in pw.inp   Done                     12/19/2018 08:23:07
00001 suncat2022 pw.x -in pw.inp   Done                     12/19/2018 08:23:07
00002 suncat2022 pw.x -in pw.inp   Done                     12/19/2018 08:23:07
00003 suncat2022 pw.x -in pw.inp   Done                     12/19/2018 08:23:07
00004 suncat2022 pw.x -in pw.inp   Done                     12/19/2018 08:23:07
00005 suncat2022 pw.x -in pw.inp   Done                     12/19/2018 08:23:07
00006 suncat2022 pw.x -in pw.inp   Done                     12/19/2018 08:23:07
00007 suncat2022 pw.x -in pw.inp   Done                     12/19/2018 08:23:07
00008 suncat2022 pw.x -in pw.inp   Done                     12/19/2018 08:23:07
00009 suncat2022 pw.x -in pw.inp   Done                     12/19/2018 08:23:07
00010 suncat2022 pw.x -in pw.inp   Done                     12/19/2018 08:23:07
00011 suncat2022 pw.x -in pw.inp   Done                     12/19/2018 08:23:07
00012 suncat2022 pw.x -in pw.inp   Done                     12/19/2018 08:23:07
00013 suncat2022 pw.x -in pw.inp   Done                     12/19/2018 08:23:07
00014 suncat2022 pw.x -in pw.inp   Done                     12/19/2018 08:23:07
00015 suncat2022 pw.x -in pw.inp   Done                     12/19/2018 08:23:07
00016 suncat2021 pw.x -in pw.inp   Done                     12/19/2018 08:23:07
00017 suncat2021 pw.x -in pw.inp   Done                     12/19/2018 08:23:07
00018 suncat2021 pw.x -in pw.inp   Done                     12/19/2018 08:23:07
00019 suncat2021 pw.x -in pw.inp   Done                     12/19/2018 08:23:07
00020 suncat2021 pw.x -in pw.inp   Done                     12/19/2018 08:23:07
00021 suncat2021 pw.x -in pw.inp   Done                     12/19/2018 08:23:07
00022 suncat2021 pw.x -in pw.inp   Done                     12/19/2018 08:23:07
00023 suncat2021 pw.x -in pw.inp   Done                     12/19/2018 08:23:07
00024 suncat2021 pw.x -in pw.inp   Done                     12/19/2018 08:23:07
00025 suncat2021 pw.x -in pw.inp   Done                     12/19/2018 08:23:07
00026 suncat2021 pw.x -in pw.inp   Done                     12/19/2018 08:23:07
00027 suncat2021 pw.x -in pw.inp   Done                     12/19/2018 08:23:07
00028 suncat2021 pw.x -in pw.inp   Done                     12/19/2018 08:23:07
00029 suncat2021 pw.x -in pw.inp   Done                     12/19/2018 08:23:07
00030 suncat2021 pw.x -in pw.inp   Done                     12/19/2018 08:23:07
00031 suncat2021 pw.x -in pw.inp   Done                     12/19/2018 08:23:07