     Program PWSCF v.5.1rc2 (svn rev. 11289) starts on 18Dec2018 at 18:26:37

     Current dimensions of program PWSCF are:
     Max number of different atomic species (ntypx) = 10
     Max number of k-points (npk) =  40000
     Max angular momentum in pseudopotentials (lmaxx) =  3
     Presently stress not available with electric field

     IMPORTANT: XC functional enforced from input :
     Exchange-correlation      = BEEF-VDW ( 1  4 27 13 2)
     Any further DFT definition will be discarded
     Please, verify this is what you really want

     Subspace diagonalization in iterative solution of the eigenvalue problem:
     a serial algorithm will be used

     Found symmetry operation: I + ( -0.5000 -0.5000  0.0000)
     This is a supercell, fractional translations are disabled

     bravais-lattice index     =            0
     lattice parameter (alat)  =       1.8897  a.u.
     unit-cell volume          =    5271.7637 (a.u.)^3
     number of atoms/cell      =           12
     number of atomic types    =            2
     number of electrons       =        90.00
     number of Kohn-Sham states=           75
     kinetic-energy cutoff     =      36.7493  Ry
     charge density cutoff     =     367.4932  Ry
     convergence threshold     =      1.0E-06
     mixing beta               =       0.1000
     number of iterations used =           10  plain     mixing
     Exchange-correlation      = BEEF-VDW ( 1  4 27 13 2)
     nstep                     =           50

     celldm(1)=   1.889726  celldm(2)=   0.000000  celldm(3)=   0.000000
     celldm(4)=   0.000000  celldm(5)=   0.000000  celldm(6)=   0.000000

     crystal axes: (cart. coord. in units of alat)
               a(1) = (   5.983891   0.000000   0.000000 )
               a(2) = (   2.888471   5.240580   0.000000 )
               a(3) = (   0.000000   0.000000  24.911294 )

     reciprocal axes: (cart. coord. in units 2 pi/alat)
               b(1) = (  0.167115 -0.092110  0.000000 )
               b(2) = (  0.000000  0.190819  0.000000 )
               b(3) = (  0.000000  0.000000  0.040142 )

     PseudoPot. # 1 for Al read from file:
     /afs/slac.stanford.edu/u/if/mamunm/psp/gbrv1.5pbe/Al.UPF
     MD5 check sum: 0a6289f5291fc8f409219462bc851e1f
     Pseudo is Ultrasoft + core correction, Zval =  3.0
     Generated by new atomic code, or converted to UPF format
     Using radial grid of  893 points,  3 beta functions with:
                l(1) =   0
                l(2) =   1
                l(3) =   2
     Q(r) pseudized with  8 coefficients,  rinner =    0.900   0.900   0.900
                                                       0.900   0.900

     PseudoPot. # 2 for Zr read from file:
     /afs/slac.stanford.edu/u/if/mamunm/psp/gbrv1.5pbe/Zr.UPF
     MD5 check sum: 5db81b1e868ab7776c4564c113de050b
     Pseudo is Ultrasoft + core correction, Zval = 12.0
     Generated by new atomic code, or converted to UPF format
     Using radial grid of  887 points,  6 beta functions with:
                l(1) =   0
                l(2) =   0
                l(3) =   1
                l(4) =   1
                l(5) =   2
                l(6) =   2
     Q(r) pseudized with  6 coefficients,  rinner =    1.200   1.200   1.200
                                                       1.200   1.200

     vdW kernel table read from file vdW_kernel_table
     MD5 check sum: 095c7af220d748ca6e76c0b4c6cfb241

     atomic species   valence    mass     pseudopotential
        Al1            3.00    26.98154     Al( 1.00)
        Zr1           12.00    91.22400     Zr( 1.00)

     No symmetry found

   Cartesian axes

     site n.     atom                  positions (alat units)
         1           Al1 tau(   1) = (   0.0000000   0.0000000  10.0000000  )
         2           Al1 tau(   2) = (   4.4361807   2.6202902  10.0000000  )
         3           Zr1 tau(   3) = (   2.9919453   0.0000000  10.0000000  )
         4           Zr1 tau(   4) = (   1.4442354   2.6202902  10.0000000  )
         5           Al1 tau(   5) = (   5.9838906   3.5344660  12.4556472  )
         6           Al1 tau(   6) = (   1.5477099   0.9141758  12.4556472  )
         7           Zr1 tau(   7) = (   2.9919453   3.5344660  12.4556472  )
         8           Zr1 tau(   8) = (   4.5396552   0.9141758  12.4556472  )
         9           Al1 tau(   9) = (   3.0954198   1.8283516  14.9112945  )
        10           Al1 tau(  10) = (   7.5316005   4.4486418  14.9112945  )
        11           Zr1 tau(  11) = (   6.0873651   1.8283516  14.9112945  )
        12           Zr1 tau(  12) = (   4.5396552   4.4486418  14.9112945  )

     number of k points=    20  Fermi-Dirac smearing, width (Ry)=  0.0110
                       cart. coord. in units 2pi/alat
        k(    1) = (   0.0000000   0.0000000   0.0000000), wk =   0.0555556
        k(    2) = (   0.0000000   0.0318031   0.0000000), wk =   0.1111111
        k(    3) = (   0.0000000   0.0636062   0.0000000), wk =   0.1111111
        k(    4) = (   0.0000000  -0.0954093   0.0000000), wk =   0.0555556
        k(    5) = (   0.0278526  -0.0153516   0.0000000), wk =   0.1111111
        k(    6) = (   0.0278526   0.0164515   0.0000000), wk =   0.1111111
        k(    7) = (   0.0278526   0.0482546   0.0000000), wk =   0.1111111
        k(    8) = (   0.0278526  -0.1107609   0.0000000), wk =   0.1111111
        k(    9) = (   0.0278526  -0.0789578   0.0000000), wk =   0.1111111
        k(   10) = (   0.0278526  -0.0471547   0.0000000), wk =   0.1111111
        k(   11) = (   0.0557051  -0.0307032   0.0000000), wk =   0.1111111
        k(   12) = (   0.0557051   0.0010999   0.0000000), wk =   0.1111111
        k(   13) = (   0.0557051   0.0329030   0.0000000), wk =   0.1111111
        k(   14) = (   0.0557051  -0.1261125   0.0000000), wk =   0.1111111
        k(   15) = (   0.0557051  -0.0943094   0.0000000), wk =   0.1111111
        k(   16) = (   0.0557051  -0.0625063   0.0000000), wk =   0.1111111
        k(   17) = (  -0.0835577   0.0460548   0.0000000), wk =   0.0555556
        k(   18) = (  -0.0835577   0.0778579   0.0000000), wk =   0.1111111
        k(   19) = (  -0.0835577   0.1096610   0.0000000), wk =   0.1111111
        k(   20) = (  -0.0835577  -0.0493545   0.0000000), wk =   0.0555556

     Largest allocated arrays     est. size (Mb)     dimensions
     Largest temporary arrays     est. size (Mb)     dimensions

     Initial potential from superposition of free atoms
     Check: negative starting charge=   -0.362918

     starting charge   89.97231, renormalised to   90.00000

     negative rho (up, down):  3.630E-01 0.000E+00

     *
     * You are using vdW-DF for exchange-correlation in this calculation.
     * Please cite the following three references that made this development
     * possible:
     *
     *   M. Dion, H. Rydberg, E. Schroder, D. C. Langreth, and
     *   B. I. Lundqvist, Phys. Rev. Lett. 92, 246401 (2004).
     *
     *   T. Thonhauser, V. R. Cooper, S. Li, A. Puzder, P. Hyldgaard, and
     *   D. C. Langreth, Phys. Rev. B 76, 125112 (2007).
     *
     *   G. Roman-Perez and J. M. Soler, Phys. Rev. Lett. 103, 096102 (2009).
     *
     *
     * If you are using vdW-DF2, please also cite:
     *
     *   K. Lee, E. D. Murray, L. Kong, B. I. Lundqvist, and
     *   D. C. Langreth, Phys. Rev. B 82, 081101(R) (2010).
     *
     *
     * If you are calculating the stress with vdW-DF, please also cite:
     *
     *   R. Sabatini, E. Kucukbenli, B. Kolb, T. Thonhauser, and
     *   S. de Gironcoli, J. Phys.: Condens. Matter 24, 424209 (2012).
     *

     Carrying out vdW-DF run using the following parameters:

     Nqs =      20    Nr_points =    1024   r_max =   100.000
     q_mesh =
               0.00001000     0.04494208     0.09755937     0.15916263
               0.23128650     0.31572767     0.41458969     0.53033537
               0.66584808     0.82450364     1.01025438     1.22772762
               1.48234092     1.78043706     2.12944203     2.53805004
               3.01644009     3.57652955     4.23227104     5.00000000

     Gradients computed in reciprocal space

     Adding external electric field

     Computed dipole along edir(3) :
        Dipole                0.0000 Ry au,          0.0000 Debye
        Dipole field          0.0000 Ry au

        Potential amp.       -0.0000 Ry
        Total length         45.8986 bohr

     Starting wfc are  102 randomized atomic wfcs

     Self-consistent Calculation

     iteration #  1     ecut=    36.75 Ry     beta=0.10
     Davidson diagonalization with overlap
     ethr =  1.00E-02,  avg # of iterations =  3.2

[...]

     total energy              =    -639.78109567 Ry
     Harris-Foulkes estimate   =    -640.29204276 Ry
     estimated scf accuracy    <       2.95762079 Ry

[...]

     End of self-consistent calculation

          k = 0.0000 0.0000 0.0000 ( 19735 PWs)   bands (ev):

   -48.7689 -48.7671 -48.6882 -48.6868 -48.2840 -48.2011 -26.9875 -26.9839
   -26.9415 -26.8806 -26.8471 -26.7934 -26.7875 -26.7361 -26.7016 -26.6448
   -26.6268 -26.3820 -26.2781 -26.2274 -26.2256 -26.1582 -26.0720 -25.8461
    -7.3519  -5.9808  -4.9411  -4.4466  -3.4020  -3.2921  -2.0688  -1.7461
    -1.6589  -1.6084  -1.3618  -1.2490  -1.1530  -0.6768  -0.5071  -0.4038
    -0.0470  -0.0442   0.2405   0.2560   0.5288   0.6609   0.7687   0.8407
     0.9581   1.0824   1.2447   1.3578   1.7274   2.0686   2.1967   2.2991
     2.6245   2.9270   3.0660   3.3891   3.4986   3.5215   3.5848   3.6272
     3.6622   3.6798   3.8567   3.9962   4.0703   4.7664   4.8142   5.1709
     5.2203   5.2745   5.2910

[...]

          k =-0.0836 0.0461 0.0000 ( 19868 PWs)   bands (ev):

[...]

     the Fermi energy is     0.4885 ev

!    total energy              =    -639.92767706 Ry
     Harris-Foulkes estimate   =    -639.92767619 Ry
     estimated scf accuracy    <       0.00000036 Ry

     The total energy is the sum of the following terms:

     one-electron contribution =   -3800.08957042 Ry
     hartree contribution      =    1897.46896640 Ry
     xc contribution           =    -137.07203058 Ry
     ewald contribution        =    1399.82831692 Ry
     electric field correction =       0.00000000 Ry
     smearing contrib. (-TS)   =      -0.06335939 Ry

     convergence has been achieved in  14 iterations

 BEEF-vdW xc energy contributions
           1 :   -116.514296227962
           2 :    104.556234875746
           3 :   -84.8506054713706
           4 :    63.4704325868493
           5 :   -45.3973137463521
           6 :    32.7364874230391
           7 :   -24.7997278738442
           8 :    19.5128840083922
           9 :   -14.9947693742656
          10 :    10.4058383437596
          11 :   -5.89073292968141
          12 :    2.01433535913506
          13 :   0.780287883319119
          14 :   -2.40544112556063
          15 :    3.07832309744296
          16 :   -3.16422331601120
          17 :    3.04116099153464
          18 :   -2.99954939733399
          19 :    3.15186900016735
          20 :   -3.38935827573317
          21 :    3.45970631629282
          22 :   -3.16273565538643
          23 :    2.53008213433016
          24 :   -1.83200080005815
[...]
00022 suncat0034 pw.x -in pw.inp   Done                     12/18/2018 18:36:58
00023 suncat0034 pw.x -in pw.inp   Done                     12/18/2018 18:36:58
00024 suncat0033 pw.x -in pw.inp   Done                     12/18/2018 18:36:58
00025 suncat0033 pw.x -in pw.inp   Done                     12/18/2018 18:36:58
00026 suncat0033 pw.x -in pw.inp   Done                     12/18/2018 18:36:58
00027 suncat0033 pw.x -in pw.inp   Done                     12/18/2018 18:36:58
00028 suncat0033 pw.x -in pw.inp   Done                     12/18/2018 18:36:58
00029 suncat0033 pw.x -in pw.inp   Done                     12/18/2018 18:36:58
00030 suncat0033 pw.x -in pw.inp   Done                     12/18/2018 18:36:58
00031 suncat0033 pw.x -in pw.inp   Done                     12/18/2018 18:36:58

     Program PWSCF v.5.1rc2 (svn rev. 11289) starts on 18Dec2018 at 18:37: 5

[...]

     Program PWSCF v.5.1rc2 (svn rev. 11289) starts on 18Dec2018 at 18:48:36

     Current dimensions of program PWSCF are:
     Max number of different atomic species (ntypx) = 10
     Max number of k-points (npk) =  40000
     Max angular momentum in pseudopotentials (lmaxx) =  3
     Presently stress not available with electric field

     IMPORTANT: XC functional enforced from input :
     Exchange-correlation      = BEEF-VDW ( 1  4 27 13 2)
     Any further DFT definition will be discarded
     Please, verify this is what you really want

     Subspace diagonalization in iterative solution of the eigenvalue problem:
     a serial algorithm will be used

     Found symmetry operation: I + ( -0.5000 -0.5000  0.0000)
     This is a supercell, fractional translations are disabled

     bravais-lattice index     =            0
     lattice parameter (alat)  =       1.8897  a.u.
     unit-cell volume          =    5271.7637 (a.u.)^3
     number of atoms/cell      =           12
     number of atomic types    =            2
     number of electrons       =        90.00
     number of Kohn-Sham states=           75
     kinetic-energy cutoff     =      36.7493  Ry
     charge density cutoff     =     367.4932  Ry
     convergence threshold     =      1.0E-06
     mixing beta               =       0.1000
     number of iterations used =           10  plain     mixing
     Exchange-correlation      = BEEF-VDW ( 1  4 27 13 2)
     nstep                     =           50

     celldm(1)=   1.889726  celldm(2)=   0.000000  celldm(3)=   0.000000
     celldm(4)=   0.000000  celldm(5)=   0.000000  celldm(6)=   0.000000

     crystal axes: (cart. coord. in units of alat)
               a(1) = (   5.983891   0.000000   0.000000 )
               a(2) = (   2.888471   5.240580   0.000000 )
               a(3) = (   0.000000   0.000000  24.911294 )

     reciprocal axes: (cart. coord. in units 2 pi/alat)
               b(1) = (  0.167115 -0.092110  0.000000 )
               b(2) = (  0.000000  0.190819  0.000000 )
               b(3) = (  0.000000  0.000000  0.040142 )

     PseudoPot. # 1 for Al read from file:
     /afs/slac.stanford.edu/u/if/mamunm/psp/gbrv1.5pbe/Al.UPF
     MD5 check sum: 0a6289f5291fc8f409219462bc851e1f
     Pseudo is Ultrasoft + core correction, Zval =  3.0
     Generated by new atomic code, or converted to UPF format
     Using radial grid of  893 points,  3 beta functions with:
                l(1) =   0
                l(2) =   1
                l(3) =   2
     Q(r) pseudized with  8 coefficients,  rinner =    0.900   0.900   0.900
                                                       0.900   0.900

     PseudoPot. # 2 for Zr read from file:
     /afs/slac.stanford.edu/u/if/mamunm/psp/gbrv1.5pbe/Zr.UPF
     MD5 check sum: 5db81b1e868ab7776c4564c113de050b
     Pseudo is Ultrasoft + core correction, Zval = 12.0
     Generated by new atomic code, or converted to UPF format
     Using radial grid of  887 points,  6 beta functions with:
                l(1) =   0
                l(2) =   0
                l(3) =   1
                l(4) =   1
                l(5) =   2
                l(6) =   2
     Q(r) pseudized with  6 coefficients,  rinner =    1.200   1.200   1.200
                                                       1.200   1.200

     vdW kernel table read from file vdW_kernel_table
     MD5 check sum: 095c7af220d748ca6e76c0b4c6cfb241

     atomic species   valence    mass     pseudopotential
        Al1            3.00    26.98154     Al( 1.00)
        Zr1           12.00    91.22400     Zr( 1.00)

     No symmetry found

   Cartesian axes

     site n.     atom                  positions (alat units)
         1           Al1 tau(   1) = (   0.0000000   0.0000000  10.0000000  )
         2           Al1 tau(   2) = (   4.4361807   2.6202902  10.0000000  )
         3           Zr1 tau(   3) = (   2.9919453   0.0000000  10.0000000  )
         4           Zr1 tau(   4) = (   1.4442354   2.6202902  10.0000000  )
         5           Al1 tau(   5) = (   5.9838906   3.5344660  12.4556472  )
         6           Al1 tau(   6) = (   1.5477099   0.9141758  12.4556472  )
         7           Zr1 tau(   7) = (   2.9919453   3.5344660  12.4556472  )
         8           Zr1 tau(   8) = (   4.5396552   0.9141758  12.4556472  )
         9           Al1 tau(   9) = (   3.0659689   1.8109593  14.9314621  )
        10           Al1 tau(  10) = (   7.5021523   4.4312445  14.9314622  )
        11           Zr1 tau(  11) = (   6.1099803   1.8417115  14.8648352  )
        12           Zr1 tau(  12) = (   4.5622753   4.4620018  14.8648449  )

     number of k points=    20  Fermi-Dirac smearing, width (Ry)=  0.0110
                       cart. coord. in units 2pi/alat
        k(    1) = (   0.0000000   0.0000000   0.0000000), wk =   0.0555556
        k(    2) = (   0.0000000   0.0318031   0.0000000), wk =   0.1111111
        k(    3) = (   0.0000000   0.0636062   0.0000000), wk =   0.1111111
        k(    4) = (   0.0000000  -0.0954093   0.0000000), wk =   0.0555556
        k(    5) = (   0.0278526  -0.0153516   0.0000000), wk =   0.1111111
        k(    6) = (   0.0278526   0.0164515   0.0000000), wk =   0.1111111
        k(    7) = (   0.0278526   0.0482546   0.0000000), wk =   0.1111111
        k(    8) = (   0.0278526  -0.1107609   0.0000000), wk =   0.1111111
        k(    9) = (   0.0278526  -0.0789578   0.0000000), wk =   0.1111111
        k(   10) = (   0.0278526  -0.0471547   0.0000000), wk =   0.1111111
        k(   11) = (   0.0557051  -0.0307032   0.0000000), wk =   0.1111111
        k(   12) = (   0.0557051   0.0010999   0.0000000), wk =   0.1111111
        k(   13) = (   0.0557051   0.0329030   0.0000000), wk =   0.1111111
        k(   14) = (   0.0557051  -0.1261125   0.0000000), wk =   0.1111111
        k(   15) = (   0.0557051  -0.0943094   0.0000000), wk =   0.1111111
        k(   16) = (   0.0557051  -0.0625063   0.0000000), wk =   0.1111111
        k(   17) = (  -0.0835577   0.0460548   0.0000000), wk =   0.0555556
        k(   18) = (  -0.0835577   0.0778579   0.0000000), wk =   0.1111111
        k(   19) = (  -0.0835577   0.1096610   0.0000000), wk =   0.1111111
        k(   20) = (  -0.0835577  -0.0493545   0.0000000), wk =   0.0555556

     Largest allocated arrays     est. size (Mb)     dimensions
     Largest temporary arrays     est. size (Mb)     dimensions

     Initial potential from superposition of free atoms
     Check: negative starting charge=   -0.362884

     starting charge   89.97231, renormalised to   90.00000

[...]

     *
     * You are using vdW-DF for exchange-correlation in this calculation.
     * Please cite the following three references that made this development
     * possible:
     *
     *   M. Dion, H. Rydberg, E. Schroder, D. C. Langreth, and
     *   B. I. Lundqvist, Phys. Rev. Lett. 92, 246401 (2004).
     *
     *   T. Thonhauser, V. R. Cooper, S. Li, A. Puzder, P. Hyldgaard, and
     *   D. C. Langreth, Phys. Rev. B 76, 125112 (2007).
     *
     *   G. Roman-Perez and J. M. Soler, Phys. Rev. Lett. 103, 096102 (2009).
     *
     *
     * If you are using vdW-DF2, please also cite:
     *
     *   K. Lee, E. D. Murray, L. Kong, B. I. Lundqvist, and
     *   D. C. Langreth, Phys. Rev. B 82, 081101(R) (2010).
     *
     *
     * If you are calculating the stress with vdW-DF, please also cite:
     *
     *   R. Sabatini, E. Kucukbenli, B. Kolb, T. Thonhauser, and
     *   S. de Gironcoli, J. Phys.: Condens. Matter 24, 424209 (2012).
     *

     Carrying out vdW-DF run using the following parameters:

     Nqs =      20    Nr_points =    1024   r_max =   100.000
     q_mesh =
               0.00001000     0.04494208     0.09755937     0.15916263
               0.23128650     0.31572767     0.41458969     0.53033537
               0.66584808     0.82450364     1.01025438     1.22772762
               1.48234092     1.78043706     2.12944203     2.53805004
               3.01644009     3.57652955     4.23227104     5.00000000

     Gradients computed in reciprocal space

[...]

     Starting wfc are  102 randomized atomic wfcs

     Self-consistent Calculation

[...]

     total energy              =    -639.92985017 Ry
     Harris-Foulkes estimate   =    -639.92985183 Ry
     estimated scf accuracy    <       0.00001061 Ry

     iteration # 14     ecut=    36.75 Ry     beta=0.10
     Davidson diagonalization with overlap
     ethr =  1.03E-08,  avg # of iterations =  2.0

[...]

     negative rho (up, down):  3.711E-01 0.000E+00

     Adding external electric field

     Computed dipole along edir(3) :
        Dipole               -0.0113 Ry au,         -0.0288 Debye
        Dipole field         -0.0000 Ry au

        Potential amp.        0.0025 Ry
        Total length         45.8986 bohr

     End of self-consistent calculation

[...]

          k = 0.0557-0.0625 0.0000 ( 19856 PWs)   bands (ev):

[...]

          k =-0.0836-0.0494 0.0000 ( 19882 PWs)   bands (ev):

   -48.7816 -48.7332 -48.7013 -48.6527 -48.3018 -48.2188 -27.0002 -26.9634
   -26.9504 -26.8675 -26.8470 -26.8023 -26.7756 -26.7284 -26.6944 -26.6436
   -26.6285 -26.3921 -26.2931 -26.2395 -26.1998 -26.1643 -26.0820 -25.8646
    -6.2170  -5.7530  -4.5010  -3.8635  -3.6546  -3.3103  -3.2936  -2.6202
    -2.2639  -2.1522  -2.0918  -2.0045  -1.5346  -1.3990  -1.1698  -1.0626
    -0.5024  -0.4093  -0.3554  -0.1462   0.1490   0.5049   1.1403   1.4230
     1.6468   1.8301   1.8323   2.1384   2.2970   2.4668   2.5421   2.7305
     2.7813   3.1970   3.2721   3.4991   3.5157   3.6561   3.8522   3.9970
     4.3702   4.5481   4.6711   4.8322   4.9673   5.2677   5.2812   5.3929
     5.6387   5.8839   5.8938

     the Fermi energy is     0.4754 ev

!    total energy              =    -639.92985266 Ry
     Harris-Foulkes estimate   =    -639.92985118 Ry
     estimated scf accuracy    <       0.00000077 Ry

     The total energy is the sum of the following terms:

     one-electron contribution =   -3816.84909136 Ry
     hartree contribution      =    1905.85258806 Ry
     xc contribution           =    -137.09598943 Ry
     ewald contribution        =    1408.22648641 Ry
     electric field correction =       0.00000031 Ry
     smearing contrib. (-TS)   =      -0.06384665 Ry

     convergence has been achieved in  14 iterations

 BEEF-vdW xc energy contributions
           1 :   -116.537916396193
           2 :    104.585915656710
           3 :   -84.8854936673831
           4 :    63.5018860125422
           5 :   -45.4159227316715
           6 :    32.7410261049043
           7 :   -24.7995523220915
           8 :    19.5214727442210
           9 :   -15.0201246705372
          10 :    10.4456358977432
          11 :   -5.93542644872153
          12 :    2.05484760524529
          13 :   0.746640288944207
          14 :   -2.37467069519258
          15 :    3.04420584691138
          16 :   -3.12348888475799
          17 :    2.99561971319739
          18 :   -2.95425051943431
          19 :    3.11158162909814
          20 :   -3.35628531218757
          21 :    3.43356756920011
          22 :   -3.14204618525488
          23 :    2.51309128992136
          24 :   -1.81708767474765
          25 :    1.37477985154823
          26 :   -1.32405373131564
          27 :    1.53223509450660
          28 :   -1.71742360596068
          29 :    1.66843451836621
          30 :   -1.38565242599259
          31 :   -14.2037439808521
          32 :   -10.5685892200266

     Forces acting on atoms (Ry/au):

     negative rho (up, down):  3.711E-01 0.000E+00
     atom    1 type  1   force =     0.00879851    0.00519735   -0.00432617
     atom    2 type  1   force =     0.00879890    0.00519674   -0.00432622
     atom    3 type  2   force =    -0.00713545   -0.00421476    0.00971223
     atom    4 type  2   force =    -0.00713856   -0.00421637    0.00970946
     atom    5 type  1   force =     0.00052966    0.00031355   -0.00506694
     atom    6 type  1   force =     0.00053016    0.00031247   -0.00506680
     atom    7 type  2   force =    -0.00174183   -0.00102815    0.00001548
     atom    8 type  2   force =    -0.00174406   -0.00103088    0.00001312
     atom    9 type  1   force =     0.00056549    0.00033348    0.00085896
     atom   10 type  1   force =     0.00056523    0.00033449    0.00085892
     atom   11 type  2   force =    -0.00101498   -0.00060055   -0.00119052
     atom   12 type  2   force =    -0.00101307   -0.00059736   -0.00119151

     Total force =     0.025309     Total SCF correction =     0.002084

     entering subroutine stress ...

     negative rho (up, down):  3.711E-01 0.000E+00
          total   stress  (Ry/bohr**3)                   (kbar)     P=   -7.48
  -0.00007955  -0.00001502  -0.00000337        -11.70     -2.21     -0.50
  -0.00001502  -0.00006299  -0.00000199         -2.21     -9.27     -0.29
  -0.00000337  -0.00000199  -0.00001000         -0.50     -0.29     -1.47

 !ASE

     Writing output data file calc.save

     General routines

     Parallel routines

   This run was terminated on:  18:58:48  18Dec2018

   JOB DONE.
Job  /afs/slac/g/suncat/bin/suncat-tsmpirun -x LD_LIBRARY_PATH -wdir /scratch/qe529631_VBLOd pw.x -in pw.inp

TID   HOST_NAME   COMMAND_LINE            STATUS            TERMINATION_TIME
00000 suncat0036 pw.x -in pw.inp   Done                     12/18/2018 18:58:48
00001 suncat0036 pw.x -in pw.inp   Done                     12/18/2018 18:58:48
00002 suncat0036 pw.x -in pw.inp   Done                     12/18/2018 18:58:48
00003 suncat0036 pw.x -in pw.inp   Done                     12/18/2018 18:58:48
00004 suncat0036 pw.x -in pw.inp   Done                     12/18/2018 18:58:48
00005 suncat0036 pw.x -in pw.inp   Done                     12/18/2018 18:58:48
00006 suncat0036 pw.x -in pw.inp   Done                     12/18/2018 18:58:48
00007 suncat0036 pw.x -in pw.inp   Done                     12/18/2018 18:58:48
00008 suncat0035 pw.x -in pw.inp   Done                     12/18/2018 18:58:48
00009 suncat0035 pw.x -in pw.inp   Done                     12/18/2018 18:58:48
00010 suncat0035 pw.x -in pw.inp   Done                     12/18/2018 18:58:48
00011 suncat0035 pw.x -in pw.inp   Done                     12/18/2018 18:58:48
00012 suncat0035 pw.x -in pw.inp   Done                     12/18/2018 18:58:48
00013 suncat0035 pw.x -in pw.inp   Done                     12/18/2018 18:58:48
00014 suncat0035 pw.x -in pw.inp   Done                     12/18/2018 18:58:48
00015 suncat0035 pw.x -in pw.inp   Done                     12/18/2018 18:58:48
00016 suncat0034 pw.x -in pw.inp   Done                     12/18/2018 18:58:48
00017 suncat0034 pw.x -in pw.inp   Done                     12/18/2018 18:58:48
00018 suncat0034 pw.x -in pw.inp   Done                     12/18/2018 18:58:48
00019 suncat0034 pw.x -in pw.inp   Done                     12/18/2018 18:58:48
00020 suncat0034 pw.x -in pw.inp   Done                     12/18/2018 18:58:48
00021 suncat0034 pw.x -in pw.inp   Done                     12/18/2018 18:58:48
00022 suncat0034 pw.x -in pw.inp   Done                     12/18/2018 18:58:48
00023 suncat0034 pw.x -in pw.inp   Done                     12/18/2018 18:58:48
00024 suncat0033 pw.x -in pw.inp   Done                     12/18/2018 18:58:48
00025 suncat0033 pw.x -in pw.inp   Done                     12/18/2018 18:58:48
00026 suncat0033 pw.x -in pw.inp   Done                     12/18/2018 18:58:48
00027 suncat0033 pw.x -in pw.inp   Done                     12/18/2018 18:58:48
00028 suncat0033 pw.x -in pw.inp   Done                     12/18/2018 18:58:48
00029 suncat0033 pw.x -in pw.inp   Done                     12/18/2018 18:58:48
00030 suncat0033 pw.x -in pw.inp   Done                     12/18/2018 18:58:48
00031 suncat0033 pw.x -in pw.inp   Done                     12/18/2018 18:58:48