     Program PWSCF v.5.1rc2 (svn rev. 11289) starts on 18Dec2018 at 16:51:55

     Current dimensions of program PWSCF are:
     Max number of different atomic species (ntypx) = 10
     Max number of k-points (npk) =  40000
     Max angular momentum in pseudopotentials (lmaxx) =  3
     Presently stress not available with electric field

     IMPORTANT: XC functional enforced from input :
     Exchange-correlation      = BEEF-VDW ( 1  4 27 13 2)
     Any further DFT definition will be discarded
     Please, verify this is what you really want

     Subspace diagonalization in iterative solution of the eigenvalue problem:
     a serial algorithm will be used

     Found symmetry operation: I + (  0.5000  0.5000  0.0000)
     This is a supercell, fractional translations are disabled

     Generating pointlists ...
     new r_m :   0.4125 (alat units)  0.7795 (a.u.) for type    1
     new r_m :   0.4125 (alat units)  0.7795 (a.u.) for type    2

     bravais-lattice index     =            0
     lattice parameter (alat)  =       1.8897  a.u.
     unit-cell volume          =    4092.0119 (a.u.)^3
     number of atoms/cell      =           12
     number of atomic types    =            2
     number of electrons       =       204.00
     number of Kohn-Sham states=          132
     kinetic-energy cutoff     =      36.7493  Ry
     charge density cutoff     =     367.4932  Ry
     convergence threshold     =      1.0E-06
     mixing beta               =       0.1000
     number of iterations used =           10  plain     mixing
     Exchange-correlation      = BEEF-VDW ( 1  4 27 13 2)
     nstep                     =           50

     celldm(1)=   1.889726  celldm(2)=   0.000000  celldm(3)=   0.000000
     celldm(4)=   0.000000  celldm(5)=   0.000000  celldm(6)=   0.000000

     crystal axes: (cart. coord. in units of alat)
               a(1) = (   5.329533   0.000000   0.000000 )
               a(2) = (   2.571967   4.667859   0.000000 )
               a(3) = (   0.000000   0.000000  24.374369 )

     reciprocal axes: (cart. coord. in units 2 pi/alat)
               b(1) = (  0.187634 -0.103385  0.000000 )
               b(2) = (  0.000000  0.214231  0.000000 )
               b(3) = (  0.000000  0.000000  0.041027 )

     PseudoPot. # 1 for Mn read from file:
     /afs/slac.stanford.edu/u/if/mamunm/psp/gbrv1.5pbe/Mn.UPF
     MD5 check sum: 82ef2b46521d7a7d9e736dc3972e4928
     Pseudo is Ultrasoft + core correction, Zval = 15.0
     Generated by new atomic code, or converted to UPF format
     Using radial grid of  859 points,  6 beta functions with:
                l(1) =   0
                l(2) =   0
                l(3) =   1
                l(4) =   1
                l(5) =   2
                l(6) =   2
     Q(r) pseudized with  8 coefficients,  rinner =    0.950   0.950   0.950
                                                       0.950   0.950

     PseudoPot. # 2 for Ga read from file:
     /afs/slac.stanford.edu/u/if/mamunm/psp/gbrv1.5pbe/Ga.UPF
     MD5 check sum: ccd671392a58a050fbb373893b4fcd66
     Pseudo is Ultrasoft + core correction, Zval = 19.0
     Generated by new atomic code, or converted to UPF format
     Using radial grid of  871 points,  6 beta functions with:
                l(1) =   0
                l(2) =   0
                l(3) =   1
                l(4) =   1
                l(5) =   2
                l(6) =   2
     Q(r) pseudized with  8 coefficients,  rinner =    1.250   1.250   1.250
                                                       1.250   1.250

     vdW kernel table read from file vdW_kernel_table
     MD5 check sum: 095c7af220d748ca6e76c0b4c6cfb241

     atomic species   valence    mass     pseudopotential
        Mn1           15.00    54.93804     Mn( 1.00)
        Ga1           19.00    69.72300     Ga( 1.00)

     Starting magnetic structure
     atomic species   magnetization
        Mn1          0.133
        Ga1          0.105

     No symmetry found

   Cartesian axes

     site n.     atom                  positions (alat units)
         1           Mn1 tau(   1) = (   0.0000000   0.0000000  10.0000000  )
         2           Mn1 tau(   2) = (   3.9507501   2.3339295  10.0000000  )
         3           Ga1 tau(   3) = (   2.6647665   0.0000000  10.0000000  )
         4           Ga1 tau(   4) = (   1.2859835   2.3339295  10.0000000  )
         5           Mn1 tau(   5) = (   5.3295331   3.1484540  12.1871847  )
         6           Mn1 tau(   6) = (   1.3787830   0.8145244  12.1871847  )
         7           Ga1 tau(   7) = (   2.6647665   3.1484540  12.1871847  )
         8           Ga1 tau(   8) = (   4.0435496   0.8145244  12.1871847  )
         9           Mn1 tau(   9) = (   2.7575660   1.6290488  14.3743695  )
        10           Mn1 tau(  10) = (   6.7083161   3.9629784  14.3743695  )
        11           Ga1 tau(  11) = (   5.4223326   1.6290488  14.3743695  )
        12           Ga1 tau(  12) = (   4.0435496   3.9629784  14.3743695  )

     number of k points=    40  Fermi-Dirac smearing, width (Ry)=  0.0110
                       cart. coord. in units 2pi/alat
        k(    1) = (   0.0000000   0.0000000   0.0000000), wk =   0.0277778
        k(    2) = (   0.0000000   0.0357052   0.0000000), wk =   0.0555556
        k(    3) = (   0.0000000   0.0714103   0.0000000), wk =   0.0555556
        k(    4) = (   0.0000000  -0.1071155   0.0000000), wk =   0.0277778
        k(    5) = (   0.0312723  -0.0172309   0.0000000), wk =   0.0555556
        k(    6) = (   0.0312723   0.0184743   0.0000000), wk =   0.0555556
        k(    7) = (   0.0312723   0.0541795   0.0000000), wk =   0.0555556
        k(    8) = (   0.0312723  -0.1243464   0.0000000), wk =   0.0555556
        k(    9) = (   0.0312723  -0.0886412   0.0000000), wk =   0.0555556
        k(   10) = (   0.0312723  -0.0529360   0.0000000), wk =   0.0555556
        k(   11) = (   0.0625446  -0.0344617   0.0000000), wk =   0.0555556
        k(   12) = (   0.0625446   0.0012434   0.0000000), wk =   0.0555556
        k(   13) = (   0.0625446   0.0369486   0.0000000), wk =   0.0555556
        k(   14) = (   0.0625446  -0.1415772   0.0000000), wk =   0.0555556
        k(   15) = (   0.0625446  -0.1058721   0.0000000), wk =   0.0555556
        k(   16) = (   0.0625446  -0.0701669   0.0000000), wk =   0.0555556
        k(   17) = (  -0.0938168   0.0516926   0.0000000), wk =   0.0277778
        k(   18) = (  -0.0938168   0.0873978   0.0000000), wk =   0.0555556
        k(   19) = (  -0.0938168   0.1231029   0.0000000), wk =   0.0555556
        k(   20) = (  -0.0938168  -0.0554229   0.0000000), wk =   0.0277778
        k(   21) = (   0.0000000   0.0000000   0.0000000), wk =   0.0277778
        k(   22) = (   0.0000000   0.0357052   0.0000000), wk =   0.0555556
        k(   23) = (   0.0000000   0.0714103   0.0000000), wk =   0.0555556
        k(   24) = (   0.0000000  -0.1071155   0.0000000), wk =   0.0277778
        k(   25) = (   0.0312723  -0.0172309   0.0000000), wk =   0.0555556
        k(   26) = (   0.0312723   0.0184743   0.0000000), wk =   0.0555556
        k(   27) = (   0.0312723   0.0541795   0.0000000), wk =   0.0555556
        k(   28) = (   0.0312723  -0.1243464   0.0000000), wk =   0.0555556
        k(   29) = (   0.0312723  -0.0886412   0.0000000), wk =   0.0555556
        k(   30) = (   0.0312723  -0.0529360   0.0000000), wk =   0.0555556
        k(   31) = (   0.0625446  -0.0344617   0.0000000), wk =   0.0555556
        k(   32) = (   0.0625446   0.0012434   0.0000000), wk =   0.0555556
        k(   33) = (   0.0625446   0.0369486   0.0000000), wk =   0.0555556
        k(   34) = (   0.0625446  -0.1415772   0.0000000), wk =   0.0555556
        k(   35) = (   0.0625446  -0.1058721   0.0000000), wk =   0.0555556
        k(   36) = (   0.0625446  -0.0701669   0.0000000), wk =   0.0555556
        k(   37) = (  -0.0938168   0.0516926   0.0000000), wk =   0.0277778
        k(   38) = (  -0.0938168   0.0873978   0.0000000), wk =   0.0555556
        k(   39) = (  -0.0938168   0.1231029   0.0000000), wk =   0.0555556
        k(   40) = (  -0.0938168  -0.0554229   0.0000000), wk =   0.0277778

     Largest allocated arrays     est. size (Mb)     dimensions
     Largest temporary arrays     est. size (Mb)     dimensions

     Check: negative/imaginary core charge=   -0.000006    0.000000

     Initial potential from superposition of free atoms
     Check: negative starting charge=(component1):   -0.001347
     Check: negative starting charge=(component2):   -0.001037

     starting charge  194.99948, renormalised to  204.00000

     negative rho (up, down):  1.409E-03 1.084E-03

     *
     * You are using vdW-DF for exchange-correlation in this calculation.
     * Please cite the following three references that made this development
     * possible:
     *
     *   M. Dion, H. Rydberg, E. Schroder, D. C. Langreth, and
     *   B. I. Lundqvist, Phys. Rev. Lett. 92, 246401 (2004).
     *
     *   T. Thonhauser, V. R. Cooper, S. Li, A. Puzder, P. Hyldgaard, and
     *   D. C. Langreth, Phys. Rev. B 76, 125112 (2007).
     *
     *   G. Roman-Perez and J. M. Soler, Phys. Rev. Lett. 103, 096102 (2009).
     *
     *
     * If you are using vdW-DF2, please also cite:
     *
     *   K. Lee, E. D. Murray, L. Kong, B. I. Lundqvist, and
     *   D. C. Langreth, Phys. Rev. B 82, 081101(R) (2010).
     *
     *
     * If you are calculating the stress with vdW-DF, please also cite:
     *
     *   R. Sabatini, E. Kucukbenli, B. Kolb, T. Thonhauser, and
     *   S. de Gironcoli, J. Phys.: Condens. Matter 24, 424209 (2012).
     *

     Carrying out vdW-DF run using the following parameters:

     Nqs =      20    Nr_points =    1024   r_max =   100.000
     q_mesh =
               0.00001000     0.04494208     0.09755937     0.15916263
               0.23128650     0.31572767     0.41458969     0.53033537
               0.66584808     0.82450364     1.01025438     1.22772762
               1.48234092     1.78043706     2.12944203     2.53805004
               3.01644009     3.57652955     4.23227104     5.00000000

     Gradients computed in reciprocal space

     Adding external electric field

     Computed dipole along edir(3) :
        Dipole                0.0000 Ry au,          0.0000 Debye
        Dipole field          0.0000 Ry au

        Potential amp.       -0.0000 Ry
        Total length         44.9094 bohr

[...]

     Starting wfc are  150 randomized atomic wfcs

     Self-consistent Calculation

     iteration #  1     ecut=    36.75 Ry     beta=0.10
     Davidson diagonalization with overlap
     ethr =  1.00E-02,  avg # of iterations =  7.3

[...]

     Magnetic moment per site:
     atom:    1    charge:    6.1378    magn:    0.8028    constr:    0.0000
     atom:    2    charge:    6.1378    magn:    0.8028    constr:    0.0000
     atom:    3    charge:   11.3449    magn:    1.1226    constr:    0.0000
     atom:    4    charge:   11.3449    magn:    1.1226    constr:    0.0000
     atom:    5    charge:    6.1486    magn:    0.8068    constr:    0.0000
     atom:    6    charge:    6.1486    magn:    0.8068    constr:    0.0000
[...]
                                                       0.950   0.950

     PseudoPot. # 2 for Ga read from file:
     /afs/slac.stanford.edu/u/if/mamunm/psp/gbrv1.5pbe/Ga.UPF
     MD5 check sum: ccd671392a58a050fbb373893b4fcd66
     Pseudo is Ultrasoft + core correction, Zval = 19.0
     Generated by new atomic code, or converted to UPF format
     Using radial grid of  871 points,  6 beta functions with:
                l(1) =   0
                l(2) =   0
                l(3) =   1
                l(4) =   1
                l(5) =   2
                l(6) =   2
     Q(r) pseudized with  8 coefficients,  rinner =    1.250   1.250   1.250
                                                       1.250   1.250

     vdW kernel table read from file vdW_kernel_table
     MD5 check sum: 095c7af220d748ca6e76c0b4c6cfb241

     atomic species   valence    mass     pseudopotential
        Mn1           15.00    54.93804     Mn( 1.00)
        Ga1           19.00    69.72300     Ga( 1.00)

     Starting magnetic structure
     atomic species   magnetization
        Mn1          0.133
        Ga1          0.105

     No symmetry found

   Cartesian axes

     site n.     atom                  positions (alat units)
         1           Mn1 tau(   1) = (   0.0000000   0.0000000  10.0000000  )
         2           Mn1 tau(   2) = (   3.9507501   2.3339295  10.0000000  )
         3           Ga1 tau(   3) = (   2.6647665   0.0000000  10.0000000  )
         4           Ga1 tau(   4) = (   1.2859835   2.3339295  10.0000000  )
         5           Mn1 tau(   5) = (   5.3295331   3.1484540  12.1871847  )
         6           Mn1 tau(   6) = (   1.3787830   0.8145244  12.1871847  )
         7           Ga1 tau(   7) = (   2.6647665   3.1484540  12.1871847  )
         8           Ga1 tau(   8) = (   4.0435496   0.8145244  12.1871847  )
         9           Mn1 tau(   9) = (   2.7420917   1.6199071  14.3504550  )
        10           Mn1 tau(  10) = (   6.6928449   3.9538387  14.3504290  )
        11           Ga1 tau(  11) = (   5.4207630   1.6281269  14.5963445  )
        12           Ga1 tau(  12) = (   4.0419833   3.9620463  14.5963407  )

     number of k points=    40  Fermi-Dirac smearing, width (Ry)=  0.0110
                       cart. coord. in units 2pi/alat
        k(    1) = (   0.0000000   0.0000000   0.0000000), wk =   0.0277778
        k(    2) = (   0.0000000   0.0357052   0.0000000), wk =   0.0555556
        k(    3) = (   0.0000000   0.0714103   0.0000000), wk =   0.0555556
        k(    4) = (   0.0000000  -0.1071155   0.0000000), wk =   0.0277778
        k(    5) = (   0.0312723  -0.0172309   0.0000000), wk =   0.0555556
        k(    6) = (   0.0312723   0.0184743   0.0000000), wk =   0.0555556
        k(    7) = (   0.0312723   0.0541795   0.0000000), wk =   0.0555556
        k(    8) = (   0.0312723  -0.1243464   0.0000000), wk =   0.0555556
        k(    9) = (   0.0312723  -0.0886412   0.0000000), wk =   0.0555556
        k(   10) = (   0.0312723  -0.0529360   0.0000000), wk =   0.0555556
        k(   11) = (   0.0625446  -0.0344617   0.0000000), wk =   0.0555556
        k(   12) = (   0.0625446   0.0012434   0.0000000), wk =   0.0555556
        k(   13) = (   0.0625446   0.0369486   0.0000000), wk =   0.0555556
        k(   14) = (   0.0625446  -0.1415772   0.0000000), wk =   0.0555556
        k(   15) = (   0.0625446  -0.1058721   0.0000000), wk =   0.0555556
        k(   16) = (   0.0625446  -0.0701669   0.0000000), wk =   0.0555556
        k(   17) = (  -0.0938168   0.0516926   0.0000000), wk =   0.0277778
        k(   18) = (  -0.0938168   0.0873978   0.0000000), wk =   0.0555556
        k(   19) = (  -0.0938168   0.1231029   0.0000000), wk =   0.0555556
        k(   20) = (  -0.0938168  -0.0554229   0.0000000), wk =   0.0277778
        k(   21) = (   0.0000000   0.0000000   0.0000000), wk =   0.0277778
        k(   22) = (   0.0000000   0.0357052   0.0000000), wk =   0.0555556
        k(   23) = (   0.0000000   0.0714103   0.0000000), wk =   0.0555556
        k(   24) = (   0.0000000  -0.1071155   0.0000000), wk =   0.0277778
        k(   25) = (   0.0312723  -0.0172309   0.0000000), wk =   0.0555556
        k(   26) = (   0.0312723   0.0184743   0.0000000), wk =   0.0555556
        k(   27) = (   0.0312723   0.0541795   0.0000000), wk =   0.0555556
        k(   28) = (   0.0312723  -0.1243464   0.0000000), wk =   0.0555556
        k(   29) = (   0.0312723  -0.0886412   0.0000000), wk =   0.0555556
        k(   30) = (   0.0312723  -0.0529360   0.0000000), wk =   0.0555556
        k(   31) = (   0.0625446  -0.0344617   0.0000000), wk =   0.0555556
        k(   32) = (   0.0625446   0.0012434   0.0000000), wk =   0.0555556
        k(   33) = (   0.0625446   0.0369486   0.0000000), wk =   0.0555556
        k(   34) = (   0.0625446  -0.1415772   0.0000000), wk =   0.0555556
        k(   35) = (   0.0625446  -0.1058721   0.0000000), wk =   0.0555556
        k(   36) = (   0.0625446  -0.0701669   0.0000000), wk =   0.0555556
        k(   37) = (  -0.0938168   0.0516926   0.0000000), wk =   0.0277778
        k(   38) = (  -0.0938168   0.0873978   0.0000000), wk =   0.0555556
        k(   39) = (  -0.0938168   0.1231029   0.0000000), wk =   0.0555556
        k(   40) = (  -0.0938168  -0.0554229   0.0000000), wk =   0.0277778

     Largest allocated arrays     est. size (Mb)     dimensions
     Largest temporary arrays     est. size (Mb)     dimensions

     Check: negative/imaginary core charge=   -0.000006    0.000000

     Initial potential from superposition of free atoms
     Check: negative starting charge=(component1):   -0.001337
     Check: negative starting charge=(component2):   -0.001029

     starting charge  194.99948, renormalised to  204.00000

[...]

     *
     * You are using vdW-DF for exchange-correlation in this calculation.
     * Please cite the following three references that made this development
     * possible:
     *
     *   M. Dion, H. Rydberg, E. Schroder, D. C. Langreth, and
     *   B. I. Lundqvist, Phys. Rev. Lett. 92, 246401 (2004).
     *
     *   T. Thonhauser, V. R. Cooper, S. Li, A. Puzder, P. Hyldgaard, and
     *   D. C. Langreth, Phys. Rev. B 76, 125112 (2007).
     *
     *   G. Roman-Perez and J. M. Soler, Phys. Rev. Lett. 103, 096102 (2009).
     *
     *
     * If you are using vdW-DF2, please also cite:
     *
     *   K. Lee, E. D. Murray, L. Kong, B. I. Lundqvist, and
     *   D. C. Langreth, Phys. Rev. B 82, 081101(R) (2010).
     *
     *
     * If you are calculating the stress with vdW-DF, please also cite:
     *
     *   R. Sabatini, E. Kucukbenli, B. Kolb, T. Thonhauser, and
     *   S. de Gironcoli, J. Phys.: Condens. Matter 24, 424209 (2012).
     *

     Carrying out vdW-DF run using the following parameters:

     Nqs =      20    Nr_points =    1024   r_max =   100.000
     q_mesh =
               0.00001000     0.04494208     0.09755937     0.15916263
               0.23128650     0.31572767     0.41458969     0.53033537
               0.66584808     0.82450364     1.01025438     1.22772762
               1.48234092     1.78043706     2.12944203     2.53805004
               3.01644009     3.57652955     4.23227104     5.00000000

     Gradients computed in reciprocal space

[...]

     Starting wfc are  150 randomized atomic wfcs

     Self-consistent Calculation

[...]

     total energy              =   -3772.32866037 Ry
     Harris-Foulkes estimate   =   -3772.32865930 Ry
     estimated scf accuracy    <       0.00000150 Ry

[...]

     iteration # 31     ecut=    36.75 Ry     beta=0.10
     Davidson diagonalization with overlap
     ethr =  7.34E-10,  avg # of iterations =  1.9

[...]

     negative rho (up, down):  1.543E-03 1.264E-03

[...]

     Adding external electric field

     Computed dipole along edir(3) :
        Dipole                0.0009 Ry au,          0.0023 Debye
        Dipole field          0.0000 Ry au

        Potential amp.       -0.0003 Ry
        Total length         44.9094 bohr

     Magnetic moment per site:
     atom:    1    charge:    6.0089    magn:    1.3188    constr:    0.0000
     atom:    2    charge:    6.0089    magn:    1.3189    constr:    0.0000
     atom:    3    charge:   11.0363    magn:    0.0008    constr:    0.0000
     atom:    4    charge:   11.0363    magn:    0.0008    constr:    0.0000
     atom:    5    charge:    6.0016    magn:    1.0904    constr:    0.0000
     atom:    6    charge:    6.0016    magn:    1.0904    constr:    0.0000
     atom:    7    charge:   11.0379    magn:    0.0011    constr:    0.0000
     atom:    8    charge:   11.0379    magn:    0.0011    constr:    0.0000
     atom:    9    charge:    6.0088    magn:    1.2932    constr:    0.0000
     atom:   10    charge:    6.0088    magn:    1.2932    constr:    0.0000
     atom:   11    charge:   11.0387    magn:   -0.0001    constr:    0.0000
     atom:   12    charge:   11.0387    magn:   -0.0001    constr:    0.0000

     End of self-consistent calculation

 ------ SPIN UP ------------

[...]

 ------ SPIN DOWN ----------

[...]

          k = 0.0625-0.0702 0.0000 ( 15413 PWs)   bands (ev):

[...]

          k =-0.0938-0.0554 0.0000 ( 15362 PWs)   bands (ev):

   -93.7431 -93.7347 -93.7342 -93.7337 -93.6910 -93.6905 -93.5356 -93.5350
   -93.5330 -93.5247 -93.5203 -93.5197 -93.5066 -93.4983 -93.4770 -93.4765
   -93.4452 -93.4447 -76.4487 -76.4305 -76.3198 -76.3121 -76.3017 -76.2940
   -45.3565 -45.2830 -45.2628 -45.2278 -45.2065 -45.1925 -45.1767 -45.1733
   -45.1727 -45.1714 -45.1627 -45.1544 -45.0682 -45.0503 -45.0377 -45.0211
   -44.9909 -44.9830 -14.3707 -14.2559 -14.2102 -14.1688 -14.1309 -14.1216
   -14.1116 -14.0989 -14.0774 -14.0256 -13.9927 -13.9917 -13.9742 -13.9547
   -13.9322 -13.9284 -13.8703 -13.8586 -13.8464 -13.8345 -13.8268 -13.8245
   -13.8116 -13.7935 -13.7705 -13.7666 -13.7654 -13.7281 -13.6783 -13.6471
    -8.3320  -7.4359  -6.1375  -4.8934  -4.4556  -3.8628  -3.4709  -2.8890
    -2.2269  -2.2207  -1.6157  -1.2818  -1.1993  -0.5639  -0.5464  -0.3461
    -0.2123   0.0995   0.1740   0.4227   0.7514   0.7729   1.3722   1.8443
     2.0860   2.0907   2.1550   2.2121   2.2540   2.3155   2.4147   2.4436
     2.5860   2.5889   2.6107   2.7436   2.9795   3.1360   3.2079   3.3727
     3.9420   4.0189   4.0405   4.1445   4.4981   5.2878   5.2962   5.6051
     5.9572   6.0255   6.3252   6.3556   6.5137   6.9585   7.0303   7.1643
     7.3330   7.3518   7.6395   7.8308

     the Fermi energy is     0.9048 ev

!    total energy              =   -3772.32866437 Ry
     Harris-Foulkes estimate   =   -3772.32866058 Ry
     estimated scf accuracy    <       0.00000052 Ry

     The total energy is the sum of the following terms:

     one-electron contribution =  -26870.03387177 Ry
     hartree contribution      =   13438.83658029 Ry
     xc contribution           =    -464.80571165 Ry
     ewald contribution        =   10123.72357102 Ry
     electric field correction =       0.00000000 Ry
     smearing contrib. (-TS)   =      -0.04923225 Ry

     total magnetization       =    17.92 Bohr mag/cell
     absolute magnetization    =    20.20 Bohr mag/cell

     convergence has been achieved in  31 iterations

 BEEF-vdW xc energy contributions
           1 :   -412.211925078930
           2 :    374.002685124094
           3 :   -310.047156470676
           4 :    239.005978860764
           5 :   -177.248150295643
           6 :    132.857566054072
           7 :   -104.733364656452
           8 :    86.1906550366108
           9 :   -70.2463571718652
          10 :    53.4381584143519
          11 :   -36.4804266608759
          12 :    22.2052993867161
          13 :   -12.7526356917793
          14 :    7.96745536770993
          15 :   -5.74693718762541
          16 :    3.65111156031770
          17 :  -0.444303876286256
          18 :   -3.43999175770585
          19 :    6.61508542869291
          20 :   -7.96111846634335
          21 :    7.45001808371069
          22 :   -6.08756230609623
          23 :    5.14282178762579
          24 :   -5.29153528342761
          25 :    6.26485102488368
          26 :   -7.18503371477863
          27 :    7.27786214861823
          28 :   -6.42749277653041
          29 :    5.19512622144345
          30 :   -4.34556914767455
          31 :   -32.7782482717330
          32 :   -22.7645764354078

     Forces acting on atoms (Ry/au):

     negative rho (up, down):  1.543E-03 1.264E-03
     atom    1 type  1   force =     0.00329098    0.00194468    0.00323106
     atom    2 type  1   force =     0.00328611    0.00194109    0.00321693
     atom    3 type  2   force =    -0.00173077   -0.00103179   -0.02423590
     atom    4 type  2   force =    -0.00173891   -0.00101829   -0.02423604
     atom    5 type  1   force =    -0.00503736   -0.00297592    0.01164049
     atom    6 type  1   force =    -0.00503891   -0.00297668    0.01164374
     atom    7 type  2   force =     0.00431057    0.00254877    0.00877774
     atom    8 type  2   force =     0.00431273    0.00254587    0.00877735
     atom    9 type  1   force =     0.00030020    0.00017704    0.00110430
     atom   10 type  1   force =     0.00030631    0.00018091    0.00111316
     atom   11 type  2   force =    -0.00112377   -0.00068016   -0.00051682
     atom   12 type  2   force =    -0.00113716   -0.00065553   -0.00051602

     Total force =     0.042230     Total SCF correction =     0.000954

     entering subroutine stress ...

     negative rho (up, down):  1.543E-03 1.264E-03
          total   stress  (Ry/bohr**3)                   (kbar)     P=   -4.86
  -0.00009423  -0.00004882  -0.00000529        -13.86     -7.18     -0.78
  -0.00004882  -0.00004043  -0.00000312         -7.18     -5.95     -0.46
  -0.00000529  -0.00000312   0.00003549         -0.78     -0.46      5.22

 !ASE

     Writing output data file calc.save

     General routines

     Parallel routines

   This run was terminated on:  17:52:30  18Dec2018

   JOB DONE.
Job  /afs/slac/g/suncat/bin/suncat-tsmpirun -x LD_LIBRARY_PATH -wdir /scratch/qe530203_QNANv pw.x -in pw.inp

TID   HOST_NAME   COMMAND_LINE            STATUS            TERMINATION_TIME
00000 suncat2036 pw.x -in pw.inp   Done                     12/18/2018 17:52:30
00001 suncat2036 pw.x -in pw.inp   Done                     12/18/2018 17:52:30
00002 suncat2036 pw.x -in pw.inp   Done                     12/18/2018 17:52:30
00003 suncat2036 pw.x -in pw.inp   Done                     12/18/2018 17:52:30
00004 suncat2036 pw.x -in pw.inp   Done                     12/18/2018 17:52:30
00005 suncat2036 pw.x -in pw.inp   Done                     12/18/2018 17:52:30
00006 suncat2036 pw.x -in pw.inp   Done                     12/18/2018 17:52:30
00007 suncat2036 pw.x -in pw.inp   Done                     12/18/2018 17:52:30
00008 suncat2036 pw.x -in pw.inp   Done                     12/18/2018 17:52:30
00009 suncat2036 pw.x -in pw.inp   Done                     12/18/2018 17:52:30
00010 suncat2036 pw.x -in pw.inp   Done                     12/18/2018 17:52:30
00011 suncat2036 pw.x -in pw.inp   Done                     12/18/2018 17:52:30
00012 suncat2036 pw.x -in pw.inp   Done                     12/18/2018 17:52:30
00013 suncat2036 pw.x -in pw.inp   Done                     12/18/2018 17:52:30
00014 suncat2036 pw.x -in pw.inp   Done                     12/18/2018 17:52:30
00015 suncat2036 pw.x -in pw.inp   Done                     12/18/2018 17:52:30
00016 suncat2035 pw.x -in pw.inp   Done                     12/18/2018 17:52:30
00017 suncat2035 pw.x -in pw.inp   Done                     12/18/2018 17:52:30
00018 suncat2035 pw.x -in pw.inp   Done                     12/18/2018 17:52:30
00019 suncat2035 pw.x -in pw.inp   Done                     12/18/2018 17:52:30
00020 suncat2035 pw.x -in pw.inp   Done                     12/18/2018 17:52:30
00021 suncat2035 pw.x -in pw.inp   Done                     12/18/2018 17:52:30
00022 suncat2035 pw.x -in pw.inp   Done                     12/18/2018 17:52:30
00023 suncat2035 pw.x -in pw.inp   Done                     12/18/2018 17:52:30
00024 suncat2035 pw.x -in pw.inp   Done                     12/18/2018 17:52:30
00025 suncat2035 pw.x -in pw.inp   Done                     12/18/2018 17:52:30
00026 suncat2035 pw.x -in pw.inp   Done                     12/18/2018 17:52:30
00027 suncat2035 pw.x -in pw.inp   Done                     12/18/2018 17:52:30
00028 suncat2035 pw.x -in pw.inp   Done                     12/18/2018 17:52:30
00029 suncat2035 pw.x -in pw.inp   Done                     12/18/2018 17:52:30
00030 suncat2035 pw.x -in pw.inp   Done                     12/18/2018 17:52:30
00031 suncat2035 pw.x -in pw.inp   Done                     12/18/2018 17:52:30