     Program PWSCF v.5.1rc2 (svn rev. 11289) starts on 19Dec2018 at  9:20:48

     Current dimensions of program PWSCF are:
     Max number of different atomic species (ntypx) = 10
     Max number of k-points (npk) =  40000
     Max angular momentum in pseudopotentials (lmaxx) =  3
     Presently stress not available with electric field

     IMPORTANT: XC functional enforced from input :
     Exchange-correlation      = BEEF-VDW ( 1  4 27 13 2)
     Any further DFT definition will be discarded
     Please, verify this is what you really want

     Subspace diagonalization in iterative solution of the eigenvalue problem:
     a serial algorithm will be used

     Found symmetry operation: I + (  0.5000  0.0000  0.0000)
     This is a supercell, fractional translations are disabled

     bravais-lattice index     =            0
     lattice parameter (alat)  =       1.8897  a.u.
     unit-cell volume          =    4034.2826 (a.u.)^3
     number of atoms/cell      =           12
     number of atomic types    =            2
     number of electrons       =       210.00
     number of Kohn-Sham states=          135
     kinetic-energy cutoff     =      36.7493  Ry
     charge density cutoff     =     367.4932  Ry
     convergence threshold     =      1.0E-06
     mixing beta               =       0.1000
     number of iterations used =           10  plain     mixing
     Exchange-correlation      = BEEF-VDW ( 1  4 27 13 2)
     nstep                     =           50

     celldm(1)=   1.889726  celldm(2)=   0.000000  celldm(3)=   0.000000
     celldm(4)=   0.000000  celldm(5)=   0.000000  celldm(6)=   0.000000

     crystal axes: (cart. coord. in units of alat)
               a(1) = (   5.140575   0.000000   0.000000 )
               a(2) = (  -2.570287   4.779117   0.000000 )
               a(3) = (   0.000000   0.000000  24.333823 )

     reciprocal axes: (cart. coord. in units 2 pi/alat)
               b(1) = (  0.194531  0.104622  0.000000 )
               b(2) = (  0.000000  0.209244  0.000000 )
               b(3) = (  0.000000  0.000000  0.041095 )

     PseudoPot. # 1 for Cu read from file:
     /afs/slac.stanford.edu/u/if/mamunm/psp/gbrv1.5pbe/Cu.UPF
     MD5 check sum: 6e991ff952a84172a2a52a1c1e996048
     Pseudo is Ultrasoft + core correction, Zval = 19.0
     Generated by new atomic code, or converted to UPF format
     Using radial grid of  867 points,  6 beta functions with:
                l(1) =   0
                l(2) =   0
                l(3) =   1
                l(4) =   1
                l(5) =   2
                l(6) =   2
     Q(r) pseudized with  8 coefficients,  rinner =    1.150   1.150   1.150
                                                       1.150   1.150

     PseudoPot. # 2 for Ru read from file:
     /afs/slac.stanford.edu/u/if/mamunm/psp/gbrv1.5pbe/Ru.UPF
     MD5 check sum: 7158a806dd851261a58e6920c40ebe78
     Pseudo is Ultrasoft + core correction, Zval = 16.0
     Generated by new atomic code, or converted to UPF format
     Using radial grid of  967 points,  6 beta functions with:
                l(1) =   0
                l(2) =   0
                l(3) =   1
                l(4) =   1
                l(5) =   2
                l(6) =   2
     Q(r) pseudized with  8 coefficients,  rinner =    1.300   1.300   1.300
                                                       1.300   1.300

     vdW kernel table read from file vdW_kernel_table
     MD5 check sum: 095c7af220d748ca6e76c0b4c6cfb241

     atomic species   valence    mass     pseudopotential
        Cu1           19.00    63.54600     Cu( 1.00)
        Ru1           16.00   101.07000     Ru( 1.00)

     No symmetry found

   Cartesian axes

     site n.     atom                  positions (alat units)
         1           Cu1 tau(   1) = (   0.0000000   0.0000000  10.0000000  )
         2           Cu1 tau(   2) = (   2.5702875   0.0000000  10.0000000  )
         3           Ru1 tau(   3) = (   1.2851437   2.3895585  10.0000000  )
         4           Ru1 tau(   4) = (  -1.2851437   2.3895585  10.0000000  )
         5           Cu1 tau(   5) = (   2.5702875   1.3823428  12.1669117  )
         6           Cu1 tau(   6) = (   0.0000000   1.3823428  12.1669117  )
         7           Ru1 tau(   7) = (  -1.2851437   3.7719013  12.1669117  )
         8           Ru1 tau(   8) = (   1.2851437   3.7719013  12.1669117  )
         9           Cu1 tau(   9) = (   0.0000000   2.7646855  14.3338234  )
        10           Cu1 tau(  10) = (   2.5702875   2.7646855  14.3338234  )
        11           Ru1 tau(  11) = (   3.8554312   0.3751270  14.3338234  )
        12           Ru1 tau(  12) = (   1.2851437   0.3751270  14.3338234  )

     number of k points=    20  Fermi-Dirac smearing, width (Ry)=  0.0110
                       cart. coord. in units 2pi/alat
        k(    1) = (   0.0000000   0.0000000   0.0000000), wk =   0.0555556
        k(    2) = (   0.0000000   0.0348739   0.0000000), wk =   0.1111111
        k(    3) = (   0.0000000   0.0697479   0.0000000), wk =   0.1111111
        k(    4) = (   0.0000000  -0.1046218   0.0000000), wk =   0.0555556
        k(    5) = (   0.0324218   0.0174370   0.0000000), wk =   0.1111111
        k(    6) = (   0.0324218   0.0523109   0.0000000), wk =   0.1111111
        k(    7) = (   0.0324218   0.0871849   0.0000000), wk =   0.1111111
        k(    8) = (   0.0324218  -0.0871849   0.0000000), wk =   0.1111111
        k(    9) = (   0.0324218  -0.0523109   0.0000000), wk =   0.1111111
        k(   10) = (   0.0324218  -0.0174370   0.0000000), wk =   0.1111111
        k(   11) = (   0.0648436   0.0348739   0.0000000), wk =   0.1111111
        k(   12) = (   0.0648436   0.0697479   0.0000000), wk =   0.1111111
        k(   13) = (   0.0648436   0.1046218   0.0000000), wk =   0.1111111
        k(   14) = (   0.0648436  -0.0697479   0.0000000), wk =   0.1111111
        k(   15) = (   0.0648436  -0.0348739   0.0000000), wk =   0.1111111
        k(   16) = (   0.0648436   0.0000000   0.0000000), wk =   0.1111111
        k(   17) = (  -0.0972654  -0.0523109   0.0000000), wk =   0.0555556
        k(   18) = (  -0.0972654  -0.0174370   0.0000000), wk =   0.1111111
        k(   19) = (  -0.0972654   0.0174370   0.0000000), wk =   0.1111111
        k(   20) = (  -0.0972654  -0.1569328   0.0000000), wk =   0.0555556

     Largest allocated arrays     est. size (Mb)     dimensions
     Largest temporary arrays     est. size (Mb)     dimensions

     Initial potential from superposition of free atoms
     Check: negative starting charge=   -0.441666

     starting charge  197.99989, renormalised to  210.00000

     negative rho (up, down):  4.684E-01 0.000E+00

     *
     * You are using vdW-DF for exchange-correlation in this calculation.
     * Please cite the following three references that made this development
     * possible:
     *
     *   M. Dion, H. Rydberg, E. Schroder, D. C. Langreth, and
     *   B. I. Lundqvist, Phys. Rev. Lett. 92, 246401 (2004).
     *
     *   T. Thonhauser, V. R. Cooper, S. Li, A. Puzder, P. Hyldgaard, and
     *   D. C. Langreth, Phys. Rev. B 76, 125112 (2007).
     *
     *   G. Roman-Perez and J. M. Soler, Phys. Rev. Lett. 103, 096102 (2009).
     *
     *
     * If you are using vdW-DF2, please also cite:
     *
     *   K. Lee, E. D. Murray, L. Kong, B. I. Lundqvist, and
     *   D. C. Langreth, Phys. Rev. B 82, 081101(R) (2010).
     *
     *
     * If you are calculating the stress with vdW-DF, please also cite:
     *
     *   R. Sabatini, E. Kucukbenli, B. Kolb, T. Thonhauser, and
     *   S. de Gironcoli, J. Phys.: Condens. Matter 24, 424209 (2012).
     *

     Carrying out vdW-DF run using the following parameters:

     Nqs =      20    Nr_points =    1024   r_max =   100.000
     q_mesh =
               0.00001000     0.04494208     0.09755937     0.15916263
               0.23128650     0.31572767     0.41458969     0.53033537
               0.66584808     0.82450364     1.01025438     1.22772762
               1.48234092     1.78043706     2.12944203     2.53805004
               3.01644009     3.57652955     4.23227104     5.00000000

     Gradients computed in reciprocal space

     Adding external electric field

     Computed dipole along edir(3) :
        Dipole                0.0000 Ry au,          0.0000 Debye
        Dipole field          0.0000 Ry au

        Potential amp.       -0.0000 Ry
        Total length         44.8347 bohr

     Starting wfc are  156 randomized atomic wfcs

     Self-consistent Calculation

     iteration #  1     ecut=    36.75 Ry     beta=0.10
     Davidson diagonalization with overlap
     ethr =  1.00E-02,  avg # of iterations =  7.7

[...]

     total energy              =   -3571.92513130 Ry
     Harris-Foulkes estimate   =   -3613.53438640 Ry
     estimated scf accuracy    <     232.03379373 Ry

[...]

     End of self-consistent calculation

          k = 0.0000 0.0000 0.0000 ( 15205 PWs)   bands (ev):

  -111.4997-111.4955-111.2057-111.2057-111.2015-111.2015 -71.8229 -71.7277
   -71.3969 -71.3939 -71.3004 -71.2977 -68.9057 -68.9002 -68.8956 -68.8848
   -68.8804 -68.8536 -68.6624 -68.6624 -68.6350 -68.6347 -68.6304 -68.6301
   -68.6103 -68.6103 -68.5177 -68.5172 -68.5134 -68.5127 -42.1216 -41.9944
   -41.8992 -41.8715 -41.8658 -41.7009 -41.6117 -41.3217 -41.3191 -41.2913
   -41.2526 -41.2298 -41.2023 -41.1633 -41.1569 -41.0760 -41.0721 -41.0694
    -6.2545  -4.5445  -4.2039  -4.1494  -4.0265  -3.6794  -3.3538  -3.2550
    -3.1978  -3.1525  -3.1454  -3.0688  -3.0164  -2.9428  -2.5926  -2.2724
    -2.0179  -2.0058  -2.0014  -1.8818  -1.8028  -1.7675  -1.5867  -1.5317
    -1.4389  -1.3958  -1.3908  -1.3421  -1.2929  -1.2106  -1.1187  -1.0987
    -1.0648  -0.7641  -0.7568  -0.7164  -0.6948  -0.6935  -0.5236  -0.5022
    -0.3410  -0.2411  -0.0580   0.1366   0.1416   0.2316   0.2964   0.3772
     0.4477   0.6188   0.9926   1.0721   1.1369   1.5589   1.5881   1.7334
     1.7939   1.8126   1.8594   1.9666   2.0109   2.0608   2.4632   2.5219
     2.5278   3.0510   3.1685   3.3910   3.6270   4.3818   4.5852   4.7317
     5.0491   5.5372   5.7831   6.3132   7.1545   7.3001   7.3741   7.5513
     7.6051   8.0695   8.4118   8.9574   9.4347   9.4572   9.5749

[...]

          k =-0.0973-0.0523 0.0000 ( 15136 PWs)   bands (ev):

[...]

     the Fermi energy is     1.2247 ev

!    total energy              =   -3600.02128028 Ry
     Harris-Foulkes estimate   =   -3600.02127704 Ry
     estimated scf accuracy    <       0.00000092 Ry

     The total energy is the sum of the following terms:

     one-electron contribution =  -28719.29209663 Ry
     hartree contribution      =   14366.29081970 Ry
     xc contribution           =    -400.84769533 Ry
     ewald contribution        =   11153.90915304 Ry
     electric field correction =       0.00000000 Ry
     smearing contrib. (-TS)   =      -0.08146107 Ry

     convergence has been achieved in  22 iterations

 BEEF-vdW xc energy contributions
           1 :   -352.281114312854
           2 :    320.941367236637
           3 :   -267.398608960075
           4 :    205.857153770298
           5 :   -149.825713736280
[...]

[...]

     Program PWSCF v.5.1rc2 (svn rev. 11289) starts on 19Dec2018 at 18: 4:22

[...]

   This run was terminated on:  21:22: 7  19Dec2018

[...]

     Program PWSCF v.5.1rc2 (svn rev. 11289) starts on 19Dec2018 at 21:22:16

[...]

   This run was terminated on:  21:44:53  19Dec2018

[...]

     Program PWSCF v.5.1rc2 (svn rev. 11289) starts on 19Dec2018 at 21:45: 1

     Current dimensions of program PWSCF are:
     Max number of different atomic species (ntypx) = 10
     Max number of k-points (npk) =  40000
     Max angular momentum in pseudopotentials (lmaxx) =  3
     Presently stress not available with electric field

     IMPORTANT: XC functional enforced from input :
     Exchange-correlation      = BEEF-VDW ( 1  4 27 13 2)
     Any further DFT definition will be discarded
     Please, verify this is what you really want

     Subspace diagonalization in iterative solution of the eigenvalue problem:
     a serial algorithm will be used

     bravais-lattice index     =            0
     lattice parameter (alat)  =       1.8897  a.u.
     unit-cell volume          =    4034.2826 (a.u.)^3
     number of atoms/cell      =           12
     number of atomic types    =            2
     number of electrons       =       210.00
     number of Kohn-Sham states=          135
     kinetic-energy cutoff     =      36.7493  Ry
     charge density cutoff     =     367.4932  Ry
     convergence threshold     =      1.0E-06
     mixing beta               =       0.1000
     number of iterations used =           10  plain     mixing
     Exchange-correlation      = BEEF-VDW ( 1  4 27 13 2)
     nstep                     =           50

     celldm(1)=   1.889726  celldm(2)=   0.000000  celldm(3)=   0.000000
     celldm(4)=   0.000000  celldm(5)=   0.000000  celldm(6)=   0.000000

     crystal axes: (cart. coord. in units of alat)
               a(1) = (   5.140575   0.000000   0.000000 )
               a(2) = (  -2.570287   4.779117   0.000000 )
               a(3) = (   0.000000   0.000000  24.333823 )

     reciprocal axes: (cart. coord. in units 2 pi/alat)
               b(1) = (  0.194531  0.104622  0.000000 )
               b(2) = (  0.000000  0.209244  0.000000 )
               b(3) = (  0.000000  0.000000  0.041095 )

     PseudoPot. # 1 for Cu read from file:
     /afs/slac.stanford.edu/u/if/mamunm/psp/gbrv1.5pbe/Cu.UPF
     MD5 check sum: 6e991ff952a84172a2a52a1c1e996048
     Pseudo is Ultrasoft + core correction, Zval = 19.0
     Generated by new atomic code, or converted to UPF format
     Using radial grid of  867 points,  6 beta functions with:
                l(1) =   0
                l(2) =   0
                l(3) =   1
                l(4) =   1
                l(5) =   2
                l(6) =   2
     Q(r) pseudized with  8 coefficients,  rinner =    1.150   1.150   1.150
                                                       1.150   1.150

     PseudoPot. # 2 for Ru read from file:
     /afs/slac.stanford.edu/u/if/mamunm/psp/gbrv1.5pbe/Ru.UPF
     MD5 check sum: 7158a806dd851261a58e6920c40ebe78
     Pseudo is Ultrasoft + core correction, Zval = 16.0
     Generated by new atomic code, or converted to UPF format
     Using radial grid of  967 points,  6 beta functions with:
                l(1) =   0
                l(2) =   0
                l(3) =   1
                l(4) =   1
                l(5) =   2
                l(6) =   2
     Q(r) pseudized with  8 coefficients,  rinner =    1.300   1.300   1.300
                                                       1.300   1.300

     vdW kernel table read from file vdW_kernel_table
     MD5 check sum: 095c7af220d748ca6e76c0b4c6cfb241

     atomic species   valence    mass     pseudopotential
        Cu1           19.00    63.54600     Cu( 1.00)
        Ru1           16.00   101.07000     Ru( 1.00)

     No symmetry found

   Cartesian axes

     site n.     atom                  positions (alat units)
         1           Cu1 tau(   1) = (   0.0000000   0.0000000  10.0000000  )
         2           Cu1 tau(   2) = (   2.5702875   0.0000000  10.0000000  )
         3           Ru1 tau(   3) = (   1.2851437   2.3895585  10.0000000  )
         4           Ru1 tau(   4) = (  -1.2851437   2.3895585  10.0000000  )
         5           Cu1 tau(   5) = (   2.5702875   1.3823428  12.1669117  )
         6           Cu1 tau(   6) = (   0.0000000   1.3823428  12.1669117  )
         7           Ru1 tau(   7) = (  -1.2851437   3.7719013  12.1669117  )
         8           Ru1 tau(   8) = (   1.2851437   3.7719013  12.1669117  )
         9           Cu1 tau(   9) = (   0.0000623   2.6254814  14.3630417  )
        10           Cu1 tau(  10) = (   2.5700588   2.6254511  14.3630576  )
        11           Ru1 tau(  11) = (   3.8553837   0.2296149  14.2617821  )
        12           Ru1 tau(  12) = (   1.2850824   0.2294098  14.2618678  )

     number of k points=    20  Fermi-Dirac smearing, width (Ry)=  0.0110
                       cart. coord. in units 2pi/alat
        k(    1) = (   0.0000000   0.0000000   0.0000000), wk =   0.0555556
        k(    2) = (   0.0000000   0.0348739   0.0000000), wk =   0.1111111
        k(    3) = (   0.0000000   0.0697479   0.0000000), wk =   0.1111111
        k(    4) = (   0.0000000  -0.1046218   0.0000000), wk =   0.0555556
        k(    5) = (   0.0324218   0.0174370   0.0000000), wk =   0.1111111
        k(    6) = (   0.0324218   0.0523109   0.0000000), wk =   0.1111111
        k(    7) = (   0.0324218   0.0871849   0.0000000), wk =   0.1111111
        k(    8) = (   0.0324218  -0.0871849   0.0000000), wk =   0.1111111
        k(    9) = (   0.0324218  -0.0523109   0.0000000), wk =   0.1111111
        k(   10) = (   0.0324218  -0.0174370   0.0000000), wk =   0.1111111
        k(   11) = (   0.0648436   0.0348739   0.0000000), wk =   0.1111111
        k(   12) = (   0.0648436   0.0697479   0.0000000), wk =   0.1111111
        k(   13) = (   0.0648436   0.1046218   0.0000000), wk =   0.1111111
        k(   14) = (   0.0648436  -0.0697479   0.0000000), wk =   0.1111111
        k(   15) = (   0.0648436  -0.0348739   0.0000000), wk =   0.1111111
        k(   16) = (   0.0648436   0.0000000   0.0000000), wk =   0.1111111
        k(   17) = (  -0.0972654  -0.0523109   0.0000000), wk =   0.0555556
        k(   18) = (  -0.0972654  -0.0174370   0.0000000), wk =   0.1111111
        k(   19) = (  -0.0972654   0.0174370   0.0000000), wk =   0.1111111
        k(   20) = (  -0.0972654  -0.1569328   0.0000000), wk =   0.0555556

     Largest allocated arrays     est. size (Mb)     dimensions
     Largest temporary arrays     est. size (Mb)     dimensions

     Initial potential from superposition of free atoms
     Check: negative starting charge=   -0.441069

     starting charge  197.99989, renormalised to  210.00000

[...]

     *
     * You are using vdW-DF for exchange-correlation in this calculation.
     * Please cite the following three references that made this development
     * possible:
     *
     *   M. Dion, H. Rydberg, E. Schroder, D. C. Langreth, and
     *   B. I. Lundqvist, Phys. Rev. Lett. 92, 246401 (2004).
     *
     *   T. Thonhauser, V. R. Cooper, S. Li, A. Puzder, P. Hyldgaard, and
     *   D. C. Langreth, Phys. Rev. B 76, 125112 (2007).
     *
     *   G. Roman-Perez and J. M. Soler, Phys. Rev. Lett. 103, 096102 (2009).
     *
     *
     * If you are using vdW-DF2, please also cite:
     *
     *   K. Lee, E. D. Murray, L. Kong, B. I. Lundqvist, and
     *   D. C. Langreth, Phys. Rev. B 82, 081101(R) (2010).
     *
     *
     * If you are calculating the stress with vdW-DF, please also cite:
     *
     *   R. Sabatini, E. Kucukbenli, B. Kolb, T. Thonhauser, and
     *   S. de Gironcoli, J. Phys.: Condens. Matter 24, 424209 (2012).
     *

     Carrying out vdW-DF run using the following parameters:

     Nqs =      20    Nr_points =    1024   r_max =   100.000
     q_mesh =
               0.00001000     0.04494208     0.09755937     0.15916263
               0.23128650     0.31572767     0.41458969     0.53033537
               0.66584808     0.82450364     1.01025438     1.22772762
               1.48234092     1.78043706     2.12944203     2.53805004
               3.01644009     3.57652955     4.23227104     5.00000000

     Gradients computed in reciprocal space

[...]

     Starting wfc are  156 randomized atomic wfcs

     Self-consistent Calculation

[...]

     total energy              =   -3600.02723392 Ry
     Harris-Foulkes estimate   =   -3600.02723303 Ry
     estimated scf accuracy    <       0.00000198 Ry

     iteration # 21     ecut=    36.75 Ry     beta=0.10
     Davidson diagonalization with overlap
     ethr =  9.41E-10,  avg # of iterations =  2.0

[...]

     negative rho (up, down):  4.552E-01 0.000E+00

     Adding external electric field

     Computed dipole along edir(3) :
        Dipole                0.0130 Ry au,          0.0330 Debye
        Dipole field          0.0000 Ry au

        Potential amp.       -0.0036 Ry
        Total length         44.8347 bohr

     End of self-consistent calculation

[...]

          k = 0.0648 0.0000 0.0000 ( 15127 PWs)   bands (ev):

[...]

          k =-0.0973-0.1569 0.0000 ( 15136 PWs)   bands (ev):

  -111.4708-111.4708-111.1847-111.1847-111.1350-111.1350 -71.8284 -71.8284
   -71.4170 -71.4169 -71.3143 -71.3143 -68.8730 -68.8730 -68.8602 -68.8602
   -68.8509 -68.8509 -68.6170 -68.6170 -68.6143 -68.6143 -68.5726 -68.5726
   -68.5692 -68.5691 -68.4958 -68.4958 -68.4413 -68.4413 -42.1293 -42.1292
   -41.7436 -41.7436 -41.6963 -41.6963 -41.4965 -41.4964 -41.4500 -41.4500
   -41.3340 -41.3339 -41.2720 -41.2720 -41.2103 -41.2102 -41.0982 -41.0981
    -4.5586  -4.5585  -3.3728  -3.3727  -3.3110  -3.3109  -2.8941  -2.8941
    -2.7044  -2.7044  -2.5270  -2.5270  -2.2840  -2.2840  -2.1628  -2.1628
    -2.0593  -2.0592  -1.9355  -1.9354  -1.7729  -1.7728  -1.6210  -1.6209
    -1.4367  -1.4366  -1.4184  -1.4182  -1.3552  -1.3550  -1.2773  -1.2772
    -1.2208  -1.2207  -1.0654  -1.0654  -1.0015  -1.0014  -0.7491  -0.7489
    -0.6165  -0.6163  -0.2754  -0.2754  -0.0974  -0.0972  -0.0320  -0.0318
     0.0778   0.0779   0.1668   0.1669   0.2298   0.2299   0.3380   0.3380
     0.6094   0.6095   1.2720   1.2720   1.4485   1.4486   1.6563   1.6563
     3.1140   3.1140   3.2277   3.2278   4.1495   4.1497   5.3513   5.3514
     6.2747   6.2749   7.2463   7.2464   7.8286   7.8286   8.0963   8.0963
     8.7629   8.7631   9.1232   9.1233   9.5011   9.5013   9.7814

     the Fermi energy is     1.2474 ev

!    total energy              =   -3600.02723849 Ry
     Harris-Foulkes estimate   =   -3600.02723405 Ry
     estimated scf accuracy    <       0.00000092 Ry

     The total energy is the sum of the following terms:

     one-electron contribution =  -28784.96103185 Ry
     hartree contribution      =   14399.12593496 Ry
     xc contribution           =    -400.93110970 Ry
     ewald contribution        =   11186.81381577 Ry
     electric field correction =       0.00000052 Ry
     smearing contrib. (-TS)   =      -0.07484820 Ry

     convergence has been achieved in  21 iterations

 BEEF-vdW xc energy contributions
           1 :   -352.367258519153
           2 :    321.053738474387
           3 :   -267.545567434441
           4 :    206.018987001320
           5 :   -149.958815708642
           6 :    107.549746935750
           7 :   -80.0902764608493
           8 :    63.6255075531739
           9 :   -52.4213185854722
          10 :    42.2171266527902
          11 :   -31.7088863702595
          12 :    21.9667589064471
          13 :   -14.6862595004926
          14 :    10.6139405337235
          15 :   -9.06194420120733
          16 :    8.53368521149889
          17 :   -7.77511350821226
          18 :    6.44240886023408
          19 :   -5.00933577149374
          20 :    4.12742155869154
          21 :   -3.99682049221246
          22 :    4.20896144986847
          23 :   -4.11553277975884
          24 :    3.37727227848529
          25 :   -2.24508418207836
          26 :    1.36248450228845
          27 :   -1.25557878140933
          28 :    1.90615999597799
          29 :   -2.73229777851566
          30 :    2.99338719934121
          31 :   -31.3622859421845
          32 :   -22.4877086039795

     Forces acting on atoms (Ry/au):

     negative rho (up, down):  4.552E-01 0.000E+00
     atom    1 type  1   force =     0.00000902    0.00303580   -0.00239813
     atom    2 type  1   force =    -0.00000064    0.00303529   -0.00239752
     atom    3 type  2   force =     0.00000444    0.00377044    0.01351587
     atom    4 type  2   force =     0.00000478    0.00377387    0.01351449
     atom    5 type  1   force =     0.00001241    0.00036596   -0.00554666
     atom    6 type  1   force =    -0.00002483    0.00036701   -0.00554772
     atom    7 type  2   force =    -0.00000091   -0.00754626   -0.00545890
     atom    8 type  2   force =     0.00000066   -0.00753981   -0.00547520
     atom    9 type  1   force =    -0.00005290    0.00022261    0.00008059
     atom   10 type  1   force =     0.00003740    0.00022511    0.00007974
     atom   11 type  2   force =     0.00000442    0.00011980   -0.00016811
     atom   12 type  2   force =     0.00000614    0.00017018   -0.00019845

     Total force =     0.025677     Total SCF correction =     0.006068
     SCF correction compared to forces is large: reduce conv_thr to get better values

     entering subroutine stress ...

     negative rho (up, down):  4.552E-01 0.000E+00
          total   stress  (Ry/bohr**3)                   (kbar)     P=  -22.91
  -0.00020804   0.00000000   0.00000001        -30.60      0.00      0.00
   0.00000000  -0.00018721  -0.00001809          0.00    -27.54     -2.66
   0.00000001  -0.00001809  -0.00007206          0.00     -2.66    -10.60

 !ASE

     Writing output data file calc.save

     General routines

     Parallel routines

   This run was terminated on:  22: 4:50  19Dec2018

   JOB DONE.
Job  /afs/slac/g/suncat/bin/suncat-tsmpirun -x LD_LIBRARY_PATH -wdir /scratch/qe529807_9HTer pw.x -in pw.inp

TID   HOST_NAME   COMMAND_LINE            STATUS            TERMINATION_TIME
00000 suncat0003 pw.x -in pw.inp   Done                     12/19/2018 22:04:50
00001 suncat0003 pw.x -in pw.inp   Done                     12/19/2018 22:04:50
00002 suncat0003 pw.x -in pw.inp   Done                     12/19/2018 22:04:50
00003 suncat0003 pw.x -in pw.inp   Done                     12/19/2018 22:04:50
00004 suncat0003 pw.x -in pw.inp   Done                     12/19/2018 22:04:50
00005 suncat0003 pw.x -in pw.inp   Done                     12/19/2018 22:04:50
00006 suncat0003 pw.x -in pw.inp   Done                     12/19/2018 22:04:50
00007 suncat0003 pw.x -in pw.inp   Done                     12/19/2018 22:04:50
00008 suncat0002 pw.x -in pw.inp   Done                     12/19/2018 22:04:50
00009 suncat0002 pw.x -in pw.inp   Done                     12/19/2018 22:04:50
00010 suncat0002 pw.x -in pw.inp   Done                     12/19/2018 22:04:50
00011 suncat0002 pw.x -in pw.inp   Done                     12/19/2018 22:04:50
00012 suncat0002 pw.x -in pw.inp   Done                     12/19/2018 22:04:50
00013 suncat0002 pw.x -in pw.inp   Done                     12/19/2018 22:04:50
00014 suncat0002 pw.x -in pw.inp   Done                     12/19/2018 22:04:50
00015 suncat0002 pw.x -in pw.inp   Done                     12/19/2018 22:04:50
00016 suncat0001 pw.x -in pw.inp   Done                     12/19/2018 22:04:50
00017 suncat0001 pw.x -in pw.inp   Done                     12/19/2018 22:04:50
00018 suncat0001 pw.x -in pw.inp   Done                     12/19/2018 22:04:50
00019 suncat0001 pw.x -in pw.inp   Done                     12/19/2018 22:04:50
00020 suncat0001 pw.x -in pw.inp   Done                     12/19/2018 22:04:50
00021 suncat0001 pw.x -in pw.inp   Done                     12/19/2018 22:04:50
00022 suncat0001 pw.x -in pw.inp   Done                     12/19/2018 22:04:50
00023 suncat0001 pw.x -in pw.inp   Done                     12/19/2018 22:04:50
00024 suncat0188 pw.x -in pw.inp   Done                     12/19/2018 22:04:50
00025 suncat0188 pw.x -in pw.inp   Done                     12/19/2018 22:04:50
00026 suncat0188 pw.x -in pw.inp   Done                     12/19/2018 22:04:50
00027 suncat0188 pw.x -in pw.inp   Done                     12/19/2018 22:04:50
00028 suncat0188 pw.x -in pw.inp   Done                     12/19/2018 22:04:50
00029 suncat0188 pw.x -in pw.inp   Done                     12/19/2018 22:04:50
00030 suncat0188 pw.x -in pw.inp   Done                     12/19/2018 22:04:50
00031 suncat0188 pw.x -in pw.inp   Done                     12/19/2018 22:04:50