     Program PWSCF v.5.1rc2 (svn rev. 11289) starts on 25Dec2018 at  1:25:57

     Current dimensions of program PWSCF are:
     Max number of different atomic species (ntypx) = 10
     Max number of k-points (npk) =  40000
     Max angular momentum in pseudopotentials (lmaxx) =  3
     Presently stress not available with electric field

     IMPORTANT: XC functional enforced from input :
     Exchange-correlation      = BEEF-VDW ( 1  4 27 13 2)
     Any further DFT definition will be discarded
     Please, verify this is what you really want

     Subspace diagonalization in iterative solution of the eigenvalue problem:
     a serial algorithm will be used

     Found symmetry operation: I + ( -0.5000 -0.5000  0.0000)
     This is a supercell, fractional translations are disabled

     bravais-lattice index     =            0
     lattice parameter (alat)  =       1.8897  a.u.
     unit-cell volume          =    6289.8536 (a.u.)^3
     number of atoms/cell      =           12
     number of atomic types    =            2
     number of electrons       =       156.00
     number of Kohn-Sham states=          108
     kinetic-energy cutoff     =      36.7493  Ry
     charge density cutoff     =     367.4932  Ry
     convergence threshold     =      1.0E-06
     mixing beta               =       0.1000
     number of iterations used =           10  plain     mixing
     Exchange-correlation      = BEEF-VDW ( 1  4 27 13 2)
     nstep                     =           50

     celldm(1)=   1.889726  celldm(2)=   0.000000  celldm(3)=   0.000000
     celldm(4)=   0.000000  celldm(5)=   0.000000  celldm(6)=   0.000000

     crystal axes: (cart. coord. in units of alat)
               a(1) = (   6.273500   0.000000   0.000000 )
               a(2) = (   2.094008   5.913707   0.000000 )
               a(3) = (   0.000000   0.000000  25.123159 )

     reciprocal axes: (cart. coord. in units 2 pi/alat)
               b(1) = (  0.159401 -0.056443  0.000000 )
               b(2) = (  0.000000  0.169099  0.000000 )
               b(3) = (  0.000000  0.000000  0.039804 )

     PseudoPot. # 1 for La read from file:
     /afs/slac.stanford.edu/u/if/mamunm/psp/gbrv1.5pbe/La.UPF
     MD5 check sum: 5937b0c7494ba0601a847275249473aa
     Pseudo is Ultrasoft + core correction, Zval = 11.0
     Generated by new atomic code, or converted to UPF format
     Using radial grid of  995 points,  8 beta functions with:
                l(1) =   0
                l(2) =   0
                l(3) =   1
                l(4) =   1
                l(5) =   2
                l(6) =   2
                l(7) =   3
                l(8) =   3
     Q(r) pseudized with  8 coefficients,  rinner =    1.700   1.700   1.700
                                                       1.700   1.700   1.700
                                                       1.700

     PseudoPot. # 2 for Rh read from file:
     /afs/slac.stanford.edu/u/if/mamunm/psp/gbrv1.5pbe/Rh.UPF
     MD5 check sum: 761627e959a2e3a1f56b0b5fe687810e
     Pseudo is Ultrasoft + core correction, Zval = 15.0
     Generated by new atomic code, or converted to UPF format
     Using radial grid of  969 points,  7 beta functions with:
                l(1) =   0
                l(2) =   0
                l(3) =   1
                l(4) =   1
                l(5) =   2
                l(6) =   2
                l(7) =   2
     Q(r) pseudized with  8 coefficients,  rinner =    1.200   1.200   1.200
                                                       1.200   1.200

     vdW kernel table read from file vdW_kernel_table
     MD5 check sum: 095c7af220d748ca6e76c0b4c6cfb241

     atomic species   valence    mass     pseudopotential
        La1           11.00   138.90547     La( 1.00)
        Rh1           15.00   102.90550     Rh( 1.00)

     No symmetry found

   Cartesian axes

     site n.     atom                  positions (alat units)
         1           La1 tau(   1) = (   0.0000000   0.0000000  10.0000000  )
         2           La1 tau(   2) = (   4.1837542   2.9568535  10.0000000  )
         3           Rh1 tau(   3) = (   3.1367500   0.0000000  10.0000000  )
         4           Rh1 tau(   4) = (   1.0470042   2.9568535  10.0000000  )
         5           La1 tau(   5) = (   6.2734999   4.4337739  12.5615793  )
         6           La1 tau(   6) = (   2.0897457   1.4769204  12.5615793  )
         7           Rh1 tau(   7) = (   3.1367500   4.4337739  12.5615793  )
         8           Rh1 tau(   8) = (   5.2264957   1.4769204  12.5615793  )
         9           La1 tau(   9) = (   4.1794915   2.9538408  15.1231586  )
        10           La1 tau(  10) = (   8.3632457   5.9106943  15.1231586  )
        11           Rh1 tau(  11) = (   7.3162414   2.9538408  15.1231586  )
        12           Rh1 tau(  12) = (   5.2264957   5.9106943  15.1231586  )

     number of k points=    20  Fermi-Dirac smearing, width (Ry)=  0.0110
                       cart. coord. in units 2pi/alat
        k(    1) = (   0.0000000   0.0000000   0.0000000), wk =   0.0555556
        k(    2) = (   0.0000000   0.0281831   0.0000000), wk =   0.1111111
        k(    3) = (   0.0000000   0.0563662   0.0000000), wk =   0.1111111
        k(    4) = (   0.0000000  -0.0845493   0.0000000), wk =   0.0555556
        k(    5) = (   0.0265668  -0.0094071   0.0000000), wk =   0.1111111
        k(    6) = (   0.0265668   0.0187760   0.0000000), wk =   0.1111111
        k(    7) = (   0.0265668   0.0469591   0.0000000), wk =   0.1111111
        k(    8) = (   0.0265668  -0.0939565   0.0000000), wk =   0.1111111
        k(    9) = (   0.0265668  -0.0657734   0.0000000), wk =   0.1111111
        k(   10) = (   0.0265668  -0.0375902   0.0000000), wk =   0.1111111
        k(   11) = (   0.0531336  -0.0188143   0.0000000), wk =   0.1111111
        k(   12) = (   0.0531336   0.0093688   0.0000000), wk =   0.1111111
        k(   13) = (   0.0531336   0.0375519   0.0000000), wk =   0.1111111
        k(   14) = (   0.0531336  -0.1033636   0.0000000), wk =   0.1111111
        k(   15) = (   0.0531336  -0.0751805   0.0000000), wk =   0.1111111
        k(   16) = (   0.0531336  -0.0469974   0.0000000), wk =   0.1111111
        k(   17) = (  -0.0797003   0.0282214   0.0000000), wk =   0.0555556
        k(   18) = (  -0.0797003   0.0564045   0.0000000), wk =   0.1111111
        k(   19) = (  -0.0797003   0.0845876   0.0000000), wk =   0.1111111
        k(   20) = (  -0.0797003  -0.0563279   0.0000000), wk =   0.0555556

     Largest allocated arrays     est. size (Mb)     dimensions
     Largest temporary arrays     est. size (Mb)     dimensions

     Initial potential from superposition of free atoms
     Check: negative starting charge=   -0.742846

     starting charge  152.80700, renormalised to  156.00000

     negative rho (up, down):  7.584E-01 0.000E+00

     *
     * You are using vdW-DF for exchange-correlation in this calculation.
     * Please cite the following three references that made this development
     * possible:
     *
     *   M. Dion, H. Rydberg, E. Schroder, D. C. Langreth, and
     *   B. I. Lundqvist, Phys. Rev. Lett. 92, 246401 (2004).
     *
     *   T. Thonhauser, V. R. Cooper, S. Li, A. Puzder, P. Hyldgaard, and
     *   D. C. Langreth, Phys. Rev. B 76, 125112 (2007).
     *
     *   G. Roman-Perez and J. M. Soler, Phys. Rev. Lett. 103, 096102 (2009).
     *
     *
     * If you are using vdW-DF2, please also cite:
     *
     *   K. Lee, E. D. Murray, L. Kong, B. I. Lundqvist, and
     *   D. C. Langreth, Phys. Rev. B 82, 081101(R) (2010).
     *
     *
     * If you are calculating the stress with vdW-DF, please also cite:
     *
     *   R. Sabatini, E. Kucukbenli, B. Kolb, T. Thonhauser, and
     *   S. de Gironcoli, J. Phys.: Condens. Matter 24, 424209 (2012).
     *

     Carrying out vdW-DF run using the following parameters:

     Nqs =      20    Nr_points =    1024   r_max =   100.000
     q_mesh =
               0.00001000     0.04494208     0.09755937     0.15916263
               0.23128650     0.31572767     0.41458969     0.53033537
               0.66584808     0.82450364     1.01025438     1.22772762
               1.48234092     1.78043706     2.12944203     2.53805004
               3.01644009     3.57652955     4.23227104     5.00000000

     Gradients computed in reciprocal space

     Adding external electric field

     Computed dipole along edir(3) :
        Dipole                0.0000 Ry au,          0.0000 Debye
        Dipole field          0.0000 Ry au

        Potential amp.       -0.0000 Ry
        Total length         46.2890 bohr

     Starting wfc are  192 randomized atomic wfcs

     Self-consistent Calculation

     iteration #  1     ecut=    36.75 Ry     beta=0.10
     Davidson diagonalization with overlap
     ethr =  1.00E-02,  avg # of iterations =  2.0

[...]

     total energy              =   -1657.71773261 Ry
     Harris-Foulkes estimate   =   -1658.51402764 Ry
     estimated scf accuracy    <       4.58165418 Ry

[...]

     iteration #  8     ecut=    36.75 Ry     beta=0.10
     Davidson diagonalization with overlap
     c_bands:  3 eigenvalues not converged
     ethr =  9.41E-06,  avg # of iterations = 11.6

[...]

     End of self-consistent calculation

          k = 0.0000 0.0000 0.0000 ( 23725 PWs)   bands (ev):

   -43.8310 -43.8298 -43.8282 -43.8177 -43.7573 -43.7561 -43.5385 -43.5378
   -43.5373 -43.5366 -43.4369 -43.4362 -43.4240 -43.4233 -43.3144 -43.3137
   -43.3130 -43.3123 -31.1496 -31.1418 -31.0502 -31.0497 -30.4160 -30.3274
   -15.2241 -15.2069 -14.9344 -14.8801 -14.8720 -14.8018 -14.7524 -14.7384
   -14.6786 -14.5870 -14.5534 -14.2790 -14.2784 -14.0265 -14.0120 -13.8890
   -13.8317 -13.5790  -1.7474  -1.3207  -1.2315  -1.1708  -0.9443  -0.8561
    -0.8557  -0.6122  -0.5820  -0.5617  -0.5044  -0.4532  -0.1866  -0.1588
    -0.1026  -0.0793   0.0465   0.0885   0.0910   0.1072   0.2931   0.2936
     0.5101   0.5721   0.5969   0.9044   0.9571   1.0820   1.1426   1.1639
     1.2145   1.3523   1.5954   1.9620   2.1444   2.2341   2.7260   2.8591
     2.9930   3.2197   3.2591   3.3853   3.4687   3.5479   3.5956   3.6170
     3.6341   3.6769   3.6772   3.6961   3.6996   3.7337   3.7406   3.8385
     3.8502   3.8611   3.9175   3.9205   3.9675   3.9701   3.9907   3.9964
     4.0084   4.0138   4.0194   4.0439

[...]

          k =-0.0797 0.0282 0.0000 ( 23658 PWs)   bands (ev):

[...]

     the Fermi energy is     1.9707 ev

!    total energy              =   -1657.89307384 Ry
     Harris-Foulkes estimate   =   -1657.89308517 Ry
     estimated scf accuracy    <       0.00000069 Ry

     The total energy is the sum of the following terms:

     one-electron contribution =   -9447.91790338 Ry
     hartree contribution      =    4754.72424206 Ry
     xc contribution           =    -491.22508554 Ry
     ewald contribution        =    3526.57481998 Ry
     electric field correction =       0.00000008 Ry
     smearing contrib. (-TS)   =      -0.04914704 Ry

     convergence has been achieved in  18 iterations

 BEEF-vdW xc energy contributions
           1 :   -432.494514607508
           2 :    397.309202101272
           3 :   -335.615519890482
[...]
                l(2) =   0
                l(3) =   1
                l(4) =   1
                l(5) =   2
                l(6) =   2
                l(7) =   3
                l(8) =   3
     Q(r) pseudized with  8 coefficients,  rinner =    1.700   1.700   1.700
                                                       1.700   1.700   1.700
                                                       1.700

     PseudoPot. # 2 for Rh read from file:
     /afs/slac.stanford.edu/u/if/mamunm/psp/gbrv1.5pbe/Rh.UPF
     MD5 check sum: 761627e959a2e3a1f56b0b5fe687810e
     Pseudo is Ultrasoft + core correction, Zval = 15.0
     Generated by new atomic code, or converted to UPF format
     Using radial grid of  969 points,  7 beta functions with:
                l(1) =   0
                l(2) =   0
                l(3) =   1
                l(4) =   1
                l(5) =   2
                l(6) =   2
                l(7) =   2
     Q(r) pseudized with  8 coefficients,  rinner =    1.200   1.200   1.200
                                                       1.200   1.200

     vdW kernel table read from file vdW_kernel_table
     MD5 check sum: 095c7af220d748ca6e76c0b4c6cfb241

     atomic species   valence    mass     pseudopotential
        La1           11.00   138.90547     La( 1.00)
        Rh1           15.00   102.90550     Rh( 1.00)

     No symmetry found

   Cartesian axes

     site n.     atom                  positions (alat units)
         1           La1 tau(   1) = (   0.0000000   0.0000000  10.0000000  )
         2           La1 tau(   2) = (   4.1837542   2.9568535  10.0000000  )
         3           Rh1 tau(   3) = (   3.1367500   0.0000000  10.0000000  )
         4           Rh1 tau(   4) = (   1.0470042   2.9568535  10.0000000  )
         5           La1 tau(   5) = (   6.2734999   4.4337739  12.5615793  )
         6           La1 tau(   6) = (   2.0897457   1.4769204  12.5615793  )
         7           Rh1 tau(   7) = (   3.1367500   4.4337739  12.5615793  )
         8           Rh1 tau(   8) = (   5.2264957   1.4769204  12.5615793  )
         9           La1 tau(   9) = (   4.1819077   2.9555350  15.1573747  )
        10           La1 tau(  10) = (   8.3655348   5.9123149  15.1575683  )
        11           Rh1 tau(  11) = (   7.3158018   2.9535148  14.8438947  )
        12           Rh1 tau(  12) = (   5.2260421   5.9103702  14.8438948  )

     number of k points=    20  Fermi-Dirac smearing, width (Ry)=  0.0110
                       cart. coord. in units 2pi/alat
        k(    1) = (   0.0000000   0.0000000   0.0000000), wk =   0.0555556
        k(    2) = (   0.0000000   0.0281831   0.0000000), wk =   0.1111111
        k(    3) = (   0.0000000   0.0563662   0.0000000), wk =   0.1111111
        k(    4) = (   0.0000000  -0.0845493   0.0000000), wk =   0.0555556
        k(    5) = (   0.0265668  -0.0094071   0.0000000), wk =   0.1111111
        k(    6) = (   0.0265668   0.0187760   0.0000000), wk =   0.1111111
        k(    7) = (   0.0265668   0.0469591   0.0000000), wk =   0.1111111
        k(    8) = (   0.0265668  -0.0939565   0.0000000), wk =   0.1111111
        k(    9) = (   0.0265668  -0.0657734   0.0000000), wk =   0.1111111
        k(   10) = (   0.0265668  -0.0375902   0.0000000), wk =   0.1111111
        k(   11) = (   0.0531336  -0.0188143   0.0000000), wk =   0.1111111
        k(   12) = (   0.0531336   0.0093688   0.0000000), wk =   0.1111111
        k(   13) = (   0.0531336   0.0375519   0.0000000), wk =   0.1111111
        k(   14) = (   0.0531336  -0.1033636   0.0000000), wk =   0.1111111
        k(   15) = (   0.0531336  -0.0751805   0.0000000), wk =   0.1111111
        k(   16) = (   0.0531336  -0.0469974   0.0000000), wk =   0.1111111
        k(   17) = (  -0.0797003   0.0282214   0.0000000), wk =   0.0555556
        k(   18) = (  -0.0797003   0.0564045   0.0000000), wk =   0.1111111
        k(   19) = (  -0.0797003   0.0845876   0.0000000), wk =   0.1111111
        k(   20) = (  -0.0797003  -0.0563279   0.0000000), wk =   0.0555556

     Largest allocated arrays     est. size (Mb)     dimensions
     Largest temporary arrays     est. size (Mb)     dimensions

     Initial potential from superposition of free atoms
     Check: negative starting charge=   -0.744349

     starting charge  152.80700, renormalised to  156.00000

[...]

     *
     * You are using vdW-DF for exchange-correlation in this calculation.
     * Please cite the following three references that made this development
     * possible:
     *
     *   M. Dion, H. Rydberg, E. Schroder, D. C. Langreth, and
     *   B. I. Lundqvist, Phys. Rev. Lett. 92, 246401 (2004).
     *
     *   T. Thonhauser, V. R. Cooper, S. Li, A. Puzder, P. Hyldgaard, and
     *   D. C. Langreth, Phys. Rev. B 76, 125112 (2007).
     *
     *   G. Roman-Perez and J. M. Soler, Phys. Rev. Lett. 103, 096102 (2009).
     *
     *
     * If you are using vdW-DF2, please also cite:
     *
     *   K. Lee, E. D. Murray, L. Kong, B. I. Lundqvist, and
     *   D. C. Langreth, Phys. Rev. B 82, 081101(R) (2010).
     *
     *
     * If you are calculating the stress with vdW-DF, please also cite:
     *
     *   R. Sabatini, E. Kucukbenli, B. Kolb, T. Thonhauser, and
     *   S. de Gironcoli, J. Phys.: Condens. Matter 24, 424209 (2012).
     *

     Carrying out vdW-DF run using the following parameters:

     Nqs =      20    Nr_points =    1024   r_max =   100.000
     q_mesh =
               0.00001000     0.04494208     0.09755937     0.15916263
               0.23128650     0.31572767     0.41458969     0.53033537
               0.66584808     0.82450364     1.01025438     1.22772762
               1.48234092     1.78043706     2.12944203     2.53805004
               3.01644009     3.57652955     4.23227104     5.00000000

     Gradients computed in reciprocal space

[...]

     Starting wfc are  192 randomized atomic wfcs

     Self-consistent Calculation

[...]

     iteration #  9     ecut=    36.75 Ry     beta=0.10
     Davidson diagonalization with overlap
     c_bands:  2 eigenvalues not converged
     c_bands:  1 eigenvalues not converged
     c_bands:  1 eigenvalues not converged
     ethr =  4.76E-06,  avg # of iterations = 13.9

[...]

     total energy              =   -1657.90856527 Ry
     Harris-Foulkes estimate   =   -1657.90856732 Ry
     estimated scf accuracy    <       0.00000112 Ry

     iteration # 21     ecut=    36.75 Ry     beta=0.10
     Davidson diagonalization with overlap
     ethr =  7.20E-10,  avg # of iterations =  3.2

[...]

     negative rho (up, down):  5.967E-01 0.000E+00

     Adding external electric field

     Computed dipole along edir(3) :
        Dipole                0.1724 Ry au,          0.4381 Debye
        Dipole field          0.0003 Ry au

        Potential amp.       -0.0319 Ry
        Total length         46.2890 bohr

     End of self-consistent calculation

[...]

          k = 0.0531-0.0470 0.0000 ( 23683 PWs)   bands (ev):

[...]

          k =-0.0797-0.0563 0.0000 ( 23652 PWs)   bands (ev):

   -43.7018 -43.7003 -43.6946 -43.6812 -43.6260 -43.6245 -43.5104 -43.5087
   -43.4534 -43.4395 -43.4240 -43.4224 -43.3779 -43.3764 -43.3089 -43.2958
   -43.1906 -43.1895 -31.1071 -31.0194 -31.0124 -30.9247 -30.0982 -30.0021
   -15.1973 -15.1273 -14.9431 -14.8303 -14.7617 -14.7482 -14.6624 -14.6326
   -14.6200 -14.5043 -14.3130 -14.2354 -14.1630 -13.7764 -13.7214 -13.6781
   -13.6689 -13.3175  -0.5309  -0.4049  -0.2859  -0.2610  -0.2575  -0.1587
    -0.0135   0.0160   0.2156   0.2163   0.2535   0.2558   0.3212   0.3254
     0.4024   0.4910   0.6025   0.6031   0.6268   0.7036   0.7226   0.7839
     0.7854   0.8128   0.8183   0.9058   0.9412   0.9561   0.9701   1.0306
     1.1851   1.2000   1.3582   1.4681   1.6585   1.7012   1.7550   1.8063
     2.0165   2.0750   2.5878   2.6569   2.6718   2.9193   2.9292   3.0315
     3.1951   3.4382   3.6265   3.7225   3.7329   3.7447   3.7968   3.8752
     3.9332   3.9933   4.0046   4.0127   4.0134   4.0716   4.0739   4.0780
     4.0803   4.0858   4.1019   4.1260

     the Fermi energy is     2.0888 ev

!    total energy              =   -1657.90855907 Ry
     Harris-Foulkes estimate   =   -1657.90856508 Ry
     estimated scf accuracy    <       0.00000031 Ry

     The total energy is the sum of the following terms:

     one-electron contribution =   -9639.66003733 Ry
     hartree contribution      =    4851.20925033 Ry
     xc contribution           =    -491.32704730 Ry
     ewald contribution        =    3621.91969831 Ry
     electric field correction =       0.00005936 Ry
     smearing contrib. (-TS)   =      -0.05048244 Ry

     convergence has been achieved in  21 iterations

 BEEF-vdW xc energy contributions
           1 :   -432.607376907875
           2 :    397.495781704387
           3 :   -335.892403228664
           4 :    261.747417888057
           5 :   -189.612134130271
           6 :    130.514112488051
           7 :   -89.6971566681190
           8 :    66.5340713288384
           9 :   -56.2327044822778
          10 :    52.4541714054258
          11 :   -49.7485857519724
          12 :    44.9562549685476
          13 :   -37.3487883246106
          14 :    27.8693958410146
          15 :   -18.0832753480748
          16 :    9.35165055734183
          17 :   -2.47084116391579
          18 :   -2.28359322343272
          19 :    4.94474801326805
          20 :   -5.70217317136996
          21 :    4.89019554807749
          22 :   -3.05123630267724
          23 :   0.942562547887803
          24 :   0.601418431003140
          25 :  -0.930779943100561
          26 :  -0.159567509048316
          27 :    2.31945371974393
          28 :   -4.76548761542972
          29 :    6.60009413310024
          30 :   -7.19196416097486
          31 :   -38.9043313357350
          32 :   -28.3184690292500

     Forces acting on atoms (Ry/au):

     negative rho (up, down):  5.967E-01 0.000E+00
     atom    1 type  1   force =    -0.00014116   -0.00009967   -0.01209756
     atom    2 type  1   force =    -0.00014208   -0.00010059   -0.01206479
     atom    3 type  2   force =     0.00001791    0.00001298    0.02355070
     atom    4 type  2   force =     0.00001716    0.00001279    0.02355133
     atom    5 type  1   force =     0.00014714    0.00010343   -0.01527801
     atom    6 type  1   force =     0.00010937    0.00007728   -0.01527123
     atom    7 type  2   force =     0.00001129    0.00001257    0.00409664
     atom    8 type  2   force =     0.00001659    0.00000584    0.00409677
     atom    9 type  1   force =     0.00003173    0.00002524    0.00004538
     atom   10 type  1   force =     0.00003650    0.00002268    0.00001725
     atom   11 type  2   force =    -0.00005203   -0.00003760   -0.00032253
     atom   12 type  2   force =    -0.00005243   -0.00003494   -0.00032395

     Total force =     0.043609     Total SCF correction =     0.000762

     entering subroutine stress ...

     negative rho (up, down):  5.967E-01 0.000E+00
          total   stress  (Ry/bohr**3)                   (kbar)     P=  -19.22
  -0.00017783  -0.00005266   0.00000018        -26.16     -7.75      0.03
  -0.00005266  -0.00014054   0.00000013         -7.75    -20.67      0.02
   0.00000018   0.00000013  -0.00007365          0.03      0.02    -10.83

 !ASE

     Writing output data file calc.save

     General routines

     Parallel routines

   This run was terminated on:   4:20:33  25Dec2018

   JOB DONE.
Job  /afs/slac/g/suncat/bin/suncat-tsmpirun -x LD_LIBRARY_PATH -wdir /scratch/qe109076_kzylY pw.x -in pw.inp

TID   HOST_NAME   COMMAND_LINE            STATUS            TERMINATION_TIME
00000 suncat0050 pw.x -in pw.inp   Done                     12/25/2018 04:20:33
00001 suncat0050 pw.x -in pw.inp   Done                     12/25/2018 04:20:33
00002 suncat0050 pw.x -in pw.inp   Done                     12/25/2018 04:20:33
00003 suncat0050 pw.x -in pw.inp   Done                     12/25/2018 04:20:33
00004 suncat0050 pw.x -in pw.inp   Done                     12/25/2018 04:20:33
00005 suncat0050 pw.x -in pw.inp   Done                     12/25/2018 04:20:33
00006 suncat0050 pw.x -in pw.inp   Done                     12/25/2018 04:20:33
00007 suncat0050 pw.x -in pw.inp   Done                     12/25/2018 04:20:33
00008 suncat0049 pw.x -in pw.inp   Done                     12/25/2018 04:20:33
00009 suncat0049 pw.x -in pw.inp   Done                     12/25/2018 04:20:33
00010 suncat0049 pw.x -in pw.inp   Done                     12/25/2018 04:20:33
00011 suncat0049 pw.x -in pw.inp   Done                     12/25/2018 04:20:33
00012 suncat0049 pw.x -in pw.inp   Done                     12/25/2018 04:20:33
00013 suncat0049 pw.x -in pw.inp   Done                     12/25/2018 04:20:33
00014 suncat0049 pw.x -in pw.inp   Done                     12/25/2018 04:20:33
00015 suncat0049 pw.x -in pw.inp   Done                     12/25/2018 04:20:33
00016 suncat0031 pw.x -in pw.inp   Done                     12/25/2018 04:20:33
00017 suncat0031 pw.x -in pw.inp   Done                     12/25/2018 04:20:33
00018 suncat0031 pw.x -in pw.inp   Done                     12/25/2018 04:20:33
00019 suncat0031 pw.x -in pw.inp   Done                     12/25/2018 04:20:33
00020 suncat0031 pw.x -in pw.inp   Done                     12/25/2018 04:20:33
00021 suncat0031 pw.x -in pw.inp   Done                     12/25/2018 04:20:33
00022 suncat0031 pw.x -in pw.inp   Done                     12/25/2018 04:20:33
00023 suncat0031 pw.x -in pw.inp   Done                     12/25/2018 04:20:33
00024 suncat0030 pw.x -in pw.inp   Done                     12/25/2018 04:20:33
00025 suncat0030 pw.x -in pw.inp   Done                     12/25/2018 04:20:33
00026 suncat0030 pw.x -in pw.inp   Done                     12/25/2018 04:20:33
00027 suncat0030 pw.x -in pw.inp   Done                     12/25/2018 04:20:33
00028 suncat0030 pw.x -in pw.inp   Done                     12/25/2018 04:20:33
00029 suncat0030 pw.x -in pw.inp   Done                     12/25/2018 04:20:33
00030 suncat0030 pw.x -in pw.inp   Done                     12/25/2018 04:20:33
00031 suncat0030 pw.x -in pw.inp   Done                     12/25/2018 04:20:33
00032 suncat0280 pw.x -in pw.inp   Done                     12/25/2018 04:20:33
00033 suncat0280 pw.x -in pw.inp   Done                     12/25/2018 04:20:33
00034 suncat0280 pw.x -in pw.inp   Done                     12/25/2018 04:20:33
00035 suncat0280 pw.x -in pw.inp   Done                     12/25/2018 04:20:33
00036 suncat0280 pw.x -in pw.inp   Done                     12/25/2018 04:20:33
00037 suncat0280 pw.x -in pw.inp   Done                     12/25/2018 04:20:33
00038 suncat0280 pw.x -in pw.inp   Done                     12/25/2018 04:20:33
00039 suncat0280 pw.x -in pw.inp   Done                     12/25/2018 04:20:33
00040 suncat0279 pw.x -in pw.inp   Done                     12/25/2018 04:20:33
00041 suncat0279 pw.x -in pw.inp   Done                     12/25/2018 04:20:33
00042 suncat0279 pw.x -in pw.inp   Done                     12/25/2018 04:20:33
00043 suncat0279 pw.x -in pw.inp   Done                     12/25/2018 04:20:33
00044 suncat0279 pw.x -in pw.inp   Done                     12/25/2018 04:20:33
00045 suncat0279 pw.x -in pw.inp   Done                     12/25/2018 04:20:33
00046 suncat0279 pw.x -in pw.inp   Done                     12/25/2018 04:20:33
00047 suncat0279 pw.x -in pw.inp   Done                     12/25/2018 04:20:33
00048 suncat0278 pw.x -in pw.inp   Done                     12/25/2018 04:20:33
00049 suncat0278 pw.x -in pw.inp   Done                     12/25/2018 04:20:33
00050 suncat0278 pw.x -in pw.inp   Done                     12/25/2018 04:20:33
00051 suncat0278 pw.x -in pw.inp   Done                     12/25/2018 04:20:33
00052 suncat0278 pw.x -in pw.inp   Done                     12/25/2018 04:20:33
00053 suncat0278 pw.x -in pw.inp   Done                     12/25/2018 04:20:33
00054 suncat0278 pw.x -in pw.inp   Done                     12/25/2018 04:20:33
00055 suncat0278 pw.x -in pw.inp   Done                     12/25/2018 04:20:33
00056 suncat0099 pw.x -in pw.inp   Done                     12/25/2018 04:20:33
00057 suncat0099 pw.x -in pw.inp   Done                     12/25/2018 04:20:33
00058 suncat0099 pw.x -in pw.inp   Done                     12/25/2018 04:20:33
00059 suncat0099 pw.x -in pw.inp   Done                     12/25/2018 04:20:33
00060 suncat0099 pw.x -in pw.inp   Done                     12/25/2018 04:20:33
00061 suncat0099 pw.x -in pw.inp   Done                     12/25/2018 04:20:33
00062 suncat0099 pw.x -in pw.inp   Done                     12/25/2018 04:20:33
00063 suncat0099 pw.x -in pw.inp   Done                     12/25/2018 04:20:33