     Program PWSCF v.5.1rc2 (svn rev. 11289) starts on 25Dec2018 at  4:40:25

     Current dimensions of program PWSCF are:
     Max number of different atomic species (ntypx) = 10
     Max number of k-points (npk) =  40000
     Max angular momentum in pseudopotentials (lmaxx) =  3
     Presently stress not available with electric field

     IMPORTANT: XC functional enforced from input :
     Exchange-correlation      = BEEF-VDW ( 1  4 27 13 2)
     Any further DFT definition will be discarded
     Please, verify this is what you really want

     Subspace diagonalization in iterative solution of the eigenvalue problem:
     a serial algorithm will be used

     Found symmetry operation: I + (  0.5000  0.5000  0.0000)
     This is a supercell, fractional translations are disabled

     bravais-lattice index     =            0
     lattice parameter (alat)  =       1.8897  a.u.
     unit-cell volume          =    4930.6860 (a.u.)^3
     number of atoms/cell      =           12
     number of atomic types    =            2
     number of electrons       =       234.00
     number of Kohn-Sham states=          147
     kinetic-energy cutoff     =      36.7493  Ry
     charge density cutoff     =     367.4932  Ry
     convergence threshold     =      1.0E-06
     mixing beta               =       0.1000
     number of iterations used =           10  plain     mixing
     Exchange-correlation      = BEEF-VDW ( 1  4 27 13 2)
     nstep                     =           50

     celldm(1)=   1.889726  celldm(2)=   0.000000  celldm(3)=   0.000000
     celldm(4)=   0.000000  celldm(5)=   0.000000  celldm(6)=   0.000000

     crystal axes: (cart. coord. in units of alat)
               a(1) = (   5.831891   0.000000   0.000000 )
               a(2) = (   2.901533   5.058860   0.000000 )
               a(3) = (   0.000000   0.000000  24.765589 )

     reciprocal axes: (cart. coord. in units 2 pi/alat)
               b(1) = (  0.171471 -0.098348  0.000000 )
               b(2) = (  0.000000  0.197673  0.000000 )
               b(3) = (  0.000000  0.000000  0.040379 )

     PseudoPot. # 1 for Zn read from file:
     /afs/slac.stanford.edu/u/if/mamunm/psp/gbrv1.5pbe/Zn.UPF
     MD5 check sum: df62231357ef9e81f77b2b3087fa5675
     Pseudo is Ultrasoft, Zval = 20.0
     Generated by new atomic code, or converted to UPF format
     Using radial grid of  943 points,  6 beta functions with:
                l(1) =   0
                l(2) =   0
                l(3) =   1
                l(4) =   1
                l(5) =   2
                l(6) =   2
     Q(r) pseudized with  8 coefficients,  rinner =    1.100   1.100   1.100
                                                       1.100   1.100

     PseudoPot. # 2 for Ga read from file:
     /afs/slac.stanford.edu/u/if/mamunm/psp/gbrv1.5pbe/Ga.UPF
     MD5 check sum: ccd671392a58a050fbb373893b4fcd66
     Pseudo is Ultrasoft + core correction, Zval = 19.0
     Generated by new atomic code, or converted to UPF format
     Using radial grid of  871 points,  6 beta functions with:
                l(1) =   0
                l(2) =   0
                l(3) =   1
                l(4) =   1
                l(5) =   2
                l(6) =   2
     Q(r) pseudized with  8 coefficients,  rinner =    1.250   1.250   1.250
                                                       1.250   1.250

     vdW kernel table read from file vdW_kernel_table
     MD5 check sum: 095c7af220d748ca6e76c0b4c6cfb241

     atomic species   valence    mass     pseudopotential
        Zn1           20.00    65.38000     Zn( 1.00)
        Ga1           19.00    69.72300     Ga( 1.00)

     No symmetry found

   Cartesian axes

     site n.     atom                  positions (alat units)
         1           Zn1 tau(   1) = (   0.0000000   0.0000000  10.0000000  )
         2           Zn1 tau(   2) = (   4.3667121   2.5294300  10.0000000  )
         3           Ga1 tau(   3) = (   2.9159457   0.0000000  10.0000000  )
         4           Ga1 tau(   4) = (   1.4507664   2.5294300  10.0000000  )
         5           Zn1 tau(   5) = (   5.8318914   3.3781392  12.3827944  )
         6           Zn1 tau(   6) = (   1.4651793   0.8487092  12.3827944  )
         7           Ga1 tau(   7) = (   2.9159457   3.3781392  12.3827944  )
         8           Ga1 tau(   8) = (   4.3811250   0.8487092  12.3827944  )
         9           Zn1 tau(   9) = (   2.9303586   1.6974183  14.7655887  )
        10           Zn1 tau(  10) = (   7.2970707   4.2268484  14.7655887  )
        11           Ga1 tau(  11) = (   5.8463043   1.6974183  14.7655887  )
        12           Ga1 tau(  12) = (   4.3811250   4.2268484  14.7655887  )

     number of k points=    20  Fermi-Dirac smearing, width (Ry)=  0.0110
                       cart. coord. in units 2pi/alat
        k(    1) = (   0.0000000   0.0000000   0.0000000), wk =   0.0555556
        k(    2) = (   0.0000000   0.0329455   0.0000000), wk =   0.1111111
        k(    3) = (   0.0000000   0.0658910   0.0000000), wk =   0.1111111
        k(    4) = (   0.0000000  -0.0988365   0.0000000), wk =   0.0555556
        k(    5) = (   0.0285785  -0.0163913   0.0000000), wk =   0.1111111
        k(    6) = (   0.0285785   0.0165542   0.0000000), wk =   0.1111111
        k(    7) = (   0.0285785   0.0494997   0.0000000), wk =   0.1111111
        k(    8) = (   0.0285785  -0.1152278   0.0000000), wk =   0.1111111
        k(    9) = (   0.0285785  -0.0822823   0.0000000), wk =   0.1111111
        k(   10) = (   0.0285785  -0.0493368   0.0000000), wk =   0.1111111
        k(   11) = (   0.0571570  -0.0327827   0.0000000), wk =   0.1111111
        k(   12) = (   0.0571570   0.0001628   0.0000000), wk =   0.1111111
        k(   13) = (   0.0571570   0.0331083   0.0000000), wk =   0.1111111
        k(   14) = (   0.0571570  -0.1316192   0.0000000), wk =   0.1111111
        k(   15) = (   0.0571570  -0.0986737   0.0000000), wk =   0.1111111
        k(   16) = (   0.0571570  -0.0657282   0.0000000), wk =   0.1111111
        k(   17) = (  -0.0857355   0.0491740   0.0000000), wk =   0.0555556
        k(   18) = (  -0.0857355   0.0821195   0.0000000), wk =   0.1111111
        k(   19) = (  -0.0857355   0.1150650   0.0000000), wk =   0.1111111
        k(   20) = (  -0.0857355  -0.0496625   0.0000000), wk =   0.0555556

     Largest allocated arrays     est. size (Mb)     dimensions
     Largest temporary arrays     est. size (Mb)     dimensions

     Initial potential from superposition of free atoms
     Check: negative starting charge=   -0.000995

     starting charge  227.99915, renormalised to  234.00000

     negative rho (up, down):  1.021E-03 0.000E+00

     *
     * You are using vdW-DF for exchange-correlation in this calculation.
     * Please cite the following three references that made this development
     * possible:
     *
     *   M. Dion, H. Rydberg, E. Schroder, D. C. Langreth, and
     *   B. I. Lundqvist, Phys. Rev. Lett. 92, 246401 (2004).
     *
     *   T. Thonhauser, V. R. Cooper, S. Li, A. Puzder, P. Hyldgaard, and
     *   D. C. Langreth, Phys. Rev. B 76, 125112 (2007).
     *
     *   G. Roman-Perez and J. M. Soler, Phys. Rev. Lett. 103, 096102 (2009).
     *
     *
     * If you are using vdW-DF2, please also cite:
     *
     *   K. Lee, E. D. Murray, L. Kong, B. I. Lundqvist, and
     *   D. C. Langreth, Phys. Rev. B 82, 081101(R) (2010).
     *
     *
     * If you are calculating the stress with vdW-DF, please also cite:
     *
     *   R. Sabatini, E. Kucukbenli, B. Kolb, T. Thonhauser, and
     *   S. de Gironcoli, J. Phys.: Condens. Matter 24, 424209 (2012).
     *

     Carrying out vdW-DF run using the following parameters:

     Nqs =      20    Nr_points =    1024   r_max =   100.000
     q_mesh =
               0.00001000     0.04494208     0.09755937     0.15916263
               0.23128650     0.31572767     0.41458969     0.53033537
               0.66584808     0.82450364     1.01025438     1.22772762
               1.48234092     1.78043706     2.12944203     2.53805004
               3.01644009     3.57652955     4.23227104     5.00000000

     Gradients computed in reciprocal space

     Adding external electric field

     Computed dipole along edir(3) :
        Dipole                0.0000 Ry au,          0.0000 Debye
        Dipole field          0.0000 Ry au

        Potential amp.       -0.0000 Ry
        Total length         45.6302 bohr

     Starting wfc are  150 randomized atomic wfcs

     Self-consistent Calculation

     iteration #  1     ecut=    36.75 Ry     beta=0.10
     Davidson diagonalization with overlap
     ethr =  1.00E-02,  avg # of iterations =  7.0

[...]

     total energy              =   -5272.13451115 Ry
     Harris-Foulkes estimate   =   -5283.52210785 Ry
     estimated scf accuracy    <      63.96220221 Ry

[...]

     End of self-consistent calculation

          k = 0.0000 0.0000 0.0000 ( 18583 PWs)   bands (ev):

  -126.3131-126.3128-126.1944-126.1944-126.1941-126.1941 -94.5532 -94.5530
   -94.5519 -94.5499 -94.5471 -94.5468 -94.5239 -94.5239 -94.5238 -94.5237
   -94.5097 -94.5097 -94.5078 -94.5078 -94.5044 -94.5043 -94.5041 -94.5041
   -80.4957 -80.4953 -80.4931 -80.4929 -80.4892 -80.4834 -80.3809 -80.3808
   -80.3805 -80.3804 -80.3754 -80.3754 -80.3752 -80.3751 -80.3719 -80.3719
   -80.3661 -80.3660 -15.0407 -14.9788 -14.9744 -14.9725 -14.9626 -14.9399
   -14.9394 -14.9357 -14.9079 -14.9009 -14.8998 -14.8956 -14.8634 -14.8574
   -14.8469 -14.8465 -14.8389 -14.8360 -14.8323 -14.8274 -14.8189 -14.8156
   -14.7922 -14.7898 -14.7865 -14.7822 -14.7705 -14.7633 -14.7243 -14.6941
    -9.7560  -8.2795  -7.7251  -7.6633  -7.5337  -7.4983  -7.3838  -7.3797
    -7.3615  -7.3476  -7.3142  -7.2487  -7.2480  -7.2316  -7.1219  -7.1144
    -7.0936  -7.0864  -7.0828  -7.0669  -7.0655  -7.0588  -7.0166  -7.0082
    -6.9858  -6.9553  -6.9472  -6.9437  -6.9365  -6.9064  -6.8876  -6.7807
    -5.2690  -4.0538  -3.7806  -3.2071  -3.1969  -3.1107  -2.8249  -2.2737
    -2.0531  -1.8735  -1.7768  -1.5723  -1.3584  -0.9021   0.0884   0.4920
     0.5704   0.7401   0.9674   1.3863   1.8320   3.4343   3.9156   4.0363
     4.0669   4.3560   4.4838   4.8730   4.8802   4.9353   5.0785   6.5729
     6.7136   6.8678   7.0378   7.1996   7.4408   7.4436   7.9895   8.1249
     8.1802   8.1804   8.5970

[...]

          k =-0.0857 0.0492 0.0000 ( 18544 PWs)   bands (ev):

[...]

     the Fermi energy is     0.2779 ev

!    total energy              =   -5276.13293066 Ry
     Harris-Foulkes estimate   =   -5276.13292375 Ry
     estimated scf accuracy    <       0.00000067 Ry

     The total energy is the sum of the following terms:

     one-electron contribution =  -31000.28292049 Ry
     hartree contribution      =   15491.49104702 Ry
     xc contribution           =    -558.70939682 Ry
     ewald contribution        =   10791.39400080 Ry
     electric field correction =       0.00000000 Ry
     smearing contrib. (-TS)   =      -0.02566118 Ry

     convergence has been achieved in  14 iterations

 BEEF-vdW xc energy contributions
           1 :   -498.183995207123
           2 :    451.994515373184
           3 :   -374.512323055719
[...]
                l(3) =   1
                l(4) =   1
                l(5) =   2
                l(6) =   2
     Q(r) pseudized with  8 coefficients,  rinner =    1.100   1.100   1.100
                                                       1.100   1.100

     PseudoPot. # 2 for Ga read from file:
     /afs/slac.stanford.edu/u/if/mamunm/psp/gbrv1.5pbe/Ga.UPF
     MD5 check sum: ccd671392a58a050fbb373893b4fcd66
     Pseudo is Ultrasoft + core correction, Zval = 19.0
     Generated by new atomic code, or converted to UPF format
     Using radial grid of  871 points,  6 beta functions with:
                l(1) =   0
                l(2) =   0
                l(3) =   1
                l(4) =   1
                l(5) =   2
                l(6) =   2
     Q(r) pseudized with  8 coefficients,  rinner =    1.250   1.250   1.250
                                                       1.250   1.250

     vdW kernel table read from file vdW_kernel_table
     MD5 check sum: 095c7af220d748ca6e76c0b4c6cfb241

     atomic species   valence    mass     pseudopotential
        Zn1           20.00    65.38000     Zn( 1.00)
        Ga1           19.00    69.72300     Ga( 1.00)

     No symmetry found

   Cartesian axes

     site n.     atom                  positions (alat units)
         1           Zn1 tau(   1) = (   0.0000000   0.0000000  10.0000000  )
         2           Zn1 tau(   2) = (   4.3667121   2.5294300  10.0000000  )
         3           Ga1 tau(   3) = (   2.9159457   0.0000000  10.0000000  )
         4           Ga1 tau(   4) = (   1.4507664   2.5294300  10.0000000  )
         5           Zn1 tau(   5) = (   5.8318914   3.3781392  12.3827944  )
         6           Zn1 tau(   6) = (   1.4651793   0.8487092  12.3827944  )
         7           Ga1 tau(   7) = (   2.9159457   3.3781392  12.3827944  )
         8           Ga1 tau(   8) = (   4.3811250   0.8487092  12.3827944  )
         9           Zn1 tau(   9) = (   2.9181901   1.6903707  14.7977050  )
        10           Zn1 tau(  10) = (   7.2849032   4.2198223  14.7977111  )
        11           Ga1 tau(  11) = (   5.8719513   1.7122722  14.8557983  )
        12           Ga1 tau(  12) = (   4.4067641   4.2416941  14.8558148  )

     number of k points=    20  Fermi-Dirac smearing, width (Ry)=  0.0110
                       cart. coord. in units 2pi/alat
        k(    1) = (   0.0000000   0.0000000   0.0000000), wk =   0.0555556
        k(    2) = (   0.0000000   0.0329455   0.0000000), wk =   0.1111111
        k(    3) = (   0.0000000   0.0658910   0.0000000), wk =   0.1111111
        k(    4) = (   0.0000000  -0.0988365   0.0000000), wk =   0.0555556
        k(    5) = (   0.0285785  -0.0163913   0.0000000), wk =   0.1111111
        k(    6) = (   0.0285785   0.0165542   0.0000000), wk =   0.1111111
        k(    7) = (   0.0285785   0.0494997   0.0000000), wk =   0.1111111
        k(    8) = (   0.0285785  -0.1152278   0.0000000), wk =   0.1111111
        k(    9) = (   0.0285785  -0.0822823   0.0000000), wk =   0.1111111
        k(   10) = (   0.0285785  -0.0493368   0.0000000), wk =   0.1111111
        k(   11) = (   0.0571570  -0.0327827   0.0000000), wk =   0.1111111
        k(   12) = (   0.0571570   0.0001628   0.0000000), wk =   0.1111111
        k(   13) = (   0.0571570   0.0331083   0.0000000), wk =   0.1111111
        k(   14) = (   0.0571570  -0.1316192   0.0000000), wk =   0.1111111
        k(   15) = (   0.0571570  -0.0986737   0.0000000), wk =   0.1111111
        k(   16) = (   0.0571570  -0.0657282   0.0000000), wk =   0.1111111
        k(   17) = (  -0.0857355   0.0491740   0.0000000), wk =   0.0555556
        k(   18) = (  -0.0857355   0.0821195   0.0000000), wk =   0.1111111
        k(   19) = (  -0.0857355   0.1150650   0.0000000), wk =   0.1111111
        k(   20) = (  -0.0857355  -0.0496625   0.0000000), wk =   0.0555556

     Largest allocated arrays     est. size (Mb)     dimensions
     Largest temporary arrays     est. size (Mb)     dimensions

     Initial potential from superposition of free atoms
     Check: negative starting charge=   -0.001009

     starting charge  227.99915, renormalised to  234.00000

[...]

     *
     * You are using vdW-DF for exchange-correlation in this calculation.
     * Please cite the following three references that made this development
     * possible:
     *
     *   M. Dion, H. Rydberg, E. Schroder, D. C. Langreth, and
     *   B. I. Lundqvist, Phys. Rev. Lett. 92, 246401 (2004).
     *
     *   T. Thonhauser, V. R. Cooper, S. Li, A. Puzder, P. Hyldgaard, and
     *   D. C. Langreth, Phys. Rev. B 76, 125112 (2007).
     *
     *   G. Roman-Perez and J. M. Soler, Phys. Rev. Lett. 103, 096102 (2009).
     *
     *
     * If you are using vdW-DF2, please also cite:
     *
     *   K. Lee, E. D. Murray, L. Kong, B. I. Lundqvist, and
     *   D. C. Langreth, Phys. Rev. B 82, 081101(R) (2010).
     *
     *
     * If you are calculating the stress with vdW-DF, please also cite:
     *
     *   R. Sabatini, E. Kucukbenli, B. Kolb, T. Thonhauser, and
     *   S. de Gironcoli, J. Phys.: Condens. Matter 24, 424209 (2012).
     *

     Carrying out vdW-DF run using the following parameters:

     Nqs =      20    Nr_points =    1024   r_max =   100.000
     q_mesh =
               0.00001000     0.04494208     0.09755937     0.15916263
               0.23128650     0.31572767     0.41458969     0.53033537
               0.66584808     0.82450364     1.01025438     1.22772762
               1.48234092     1.78043706     2.12944203     2.53805004
               3.01644009     3.57652955     4.23227104     5.00000000

     Gradients computed in reciprocal space

[...]

     Starting wfc are  150 randomized atomic wfcs

     Self-consistent Calculation

[...]

     total energy              =   -5276.13478162 Ry
     Harris-Foulkes estimate   =   -5276.13478108 Ry
     estimated scf accuracy    <       0.00000346 Ry

     iteration # 15     ecut=    36.75 Ry     beta=0.10
     Davidson diagonalization with overlap
     ethr =  1.48E-09,  avg # of iterations =  2.0

[...]

     negative rho (up, down):  1.026E-03 0.000E+00

     Adding external electric field

     Computed dipole along edir(3) :
        Dipole                0.0101 Ry au,          0.0256 Debye
        Dipole field          0.0000 Ry au

        Potential amp.       -0.0023 Ry
        Total length         45.6302 bohr

     End of self-consistent calculation

[...]

          k = 0.0572-0.0657 0.0000 ( 18542 PWs)   bands (ev):

[...]

          k =-0.0857-0.0497 0.0000 ( 18524 PWs)   bands (ev):

  -126.2714-126.2711-126.1771-126.1768-126.1705-126.1702 -94.5209 -94.5207
   -94.5201 -94.5199 -94.5170 -94.5151 -94.5132 -94.5130 -94.5036 -94.5023
   -94.5021 -94.5017 -94.4980 -94.4978 -94.4881 -94.4861 -94.4830 -94.4828
   -80.4534 -80.4528 -80.4522 -80.4516 -80.4473 -80.4417 -80.3641 -80.3637
   -80.3578 -80.3572 -80.3560 -80.3555 -80.3542 -80.3524 -80.3517 -80.3486
   -80.3479 -80.3423 -15.0033 -14.9623 -14.9494 -14.9401 -14.9182 -14.9060
   -14.8944 -14.8906 -14.8896 -14.8810 -14.8772 -14.8747 -14.8432 -14.8410
   -14.8345 -14.8270 -14.8186 -14.8123 -14.8089 -14.8001 -14.7948 -14.7865
   -14.7805 -14.7782 -14.7714 -14.7630 -14.7500 -14.7471 -14.7114 -14.6760
    -8.4852  -8.1179  -7.4665  -7.4611  -7.4092  -7.3839  -7.3630  -7.3559
    -7.3116  -7.2906  -7.2834  -7.2714  -7.2632  -7.2454  -7.1429  -7.1136
    -7.1058  -7.0953  -7.0612  -7.0559  -7.0493  -7.0345  -7.0322  -6.9965
    -6.9880  -6.9652  -6.9352  -6.9290  -6.9125  -6.8836  -6.8714  -6.7697
    -6.7581  -5.7747  -5.4063  -4.2261  -3.8785  -3.6937  -3.6358  -2.8143
    -1.9074  -0.6173  -0.1574  -0.0210   1.1036   1.3651   1.5939   1.7852
     1.8252   2.7859   2.9553   3.1459   3.1647   3.2807   3.3078   3.7034
     4.3424   4.5574   4.5847   4.8583   4.8828   5.1494   5.4936   5.5025
     5.5564   5.6593   5.6791   5.8117   6.0379   6.1873   6.1978   6.2429
     6.5228   6.5514   7.4871

     the Fermi energy is     0.3038 ev

!    total energy              =   -5276.13478704 Ry
     Harris-Foulkes estimate   =   -5276.13478179 Ry
     estimated scf accuracy    <       0.00000074 Ry

     The total energy is the sum of the following terms:

     one-electron contribution =  -30766.97045325 Ry
     hartree contribution      =   15375.04348194 Ry
     xc contribution           =    -558.67524391 Ry
     ewald contribution        =   10674.49301606 Ry
     electric field correction =       0.00000026 Ry
     smearing contrib. (-TS)   =      -0.02558814 Ry

     convergence has been achieved in  15 iterations

 BEEF-vdW xc energy contributions
           1 :   -498.146942802289
           2 :    451.930573243445
           3 :   -374.415482166891
           4 :    288.131243222691
           5 :   -213.033788014739
           6 :    158.962851685895
           7 :   -124.261996406448
           8 :    100.320731784178
           9 :   -78.5543204895798
          10 :    55.4399294513620
          11 :   -33.0811688331581
          12 :    15.9210251011075
          13 :   -6.55050525743502
          14 :    3.63222469506240
          15 :   -3.03496619494592
          16 :   0.881030622474100
          17 :    3.94682663648689
          18 :   -9.58134203595114
          19 :    13.1108770610392
          20 :   -13.0211155093734
          21 :    10.2982914242779
          22 :   -7.53163152325499
          23 :    6.88502047154350
          24 :   -8.56080497440166
          25 :    10.8617814603342
          26 :   -11.6697299611430
          27 :    10.1123565602642
          28 :   -7.15139296515133
          29 :    4.73331754295884
          30 :   -4.25492946465056
          31 :   -37.4766420832333
          32 :   -25.4898946754428

     Forces acting on atoms (Ry/au):

     negative rho (up, down):  1.026E-03 0.000E+00
     atom    1 type  1   force =     0.00255948    0.00148270   -0.00205700
     atom    2 type  1   force =     0.00255949    0.00148268   -0.00205701
     atom    3 type  2   force =    -0.00350751   -0.00203059   -0.00669776
     atom    4 type  2   force =    -0.00350577   -0.00203010   -0.00669917
     atom    5 type  1   force =    -0.00087441   -0.00050626    0.00335936
     atom    6 type  1   force =    -0.00087433   -0.00050646    0.00335966
     atom    7 type  2   force =     0.00123424    0.00071395    0.00436328
     atom    8 type  2   force =     0.00123504    0.00071343    0.00436388
     atom    9 type  1   force =     0.00046694    0.00027049   -0.00006614
     atom   10 type  1   force =     0.00046738    0.00027041   -0.00006597
     atom   11 type  2   force =     0.00011991    0.00007012    0.00109843
     atom   12 type  2   force =     0.00011955    0.00006963    0.00109844

     Total force =     0.014776     Total SCF correction =     0.004022
     SCF correction compared to forces is large: reduce conv_thr to get better values

     entering subroutine stress ...

     negative rho (up, down):  1.026E-03 0.000E+00
          total   stress  (Ry/bohr**3)                   (kbar)     P=   -6.66
  -0.00007476  -0.00000273   0.00000303        -11.00     -0.40      0.45
  -0.00000273  -0.00007162   0.00000175         -0.40    -10.54      0.26
   0.00000303   0.00000175   0.00001061          0.45      0.26      1.56

 !ASE

     Writing output data file calc.save

     General routines

     Parallel routines

   This run was terminated on:  20:15:27  25Dec2018

   JOB DONE.
Job  /afs/slac/g/suncat/bin/suncat-tsmpirun -x LD_LIBRARY_PATH -wdir /scratch/qe109208_9fE0P pw.x -in pw.inp

TID   HOST_NAME   COMMAND_LINE            STATUS            TERMINATION_TIME
00000 suncat0060 pw.x -in pw.inp   Done                     12/25/2018 20:15:27
00001 suncat0060 pw.x -in pw.inp   Done                     12/25/2018 20:15:27
00002 suncat0060 pw.x -in pw.inp   Done                     12/25/2018 20:15:27
00003 suncat0060 pw.x -in pw.inp   Done                     12/25/2018 20:15:27
00004 suncat0060 pw.x -in pw.inp   Done                     12/25/2018 20:15:27
00005 suncat0060 pw.x -in pw.inp   Done                     12/25/2018 20:15:27
00006 suncat0060 pw.x -in pw.inp   Done                     12/25/2018 20:15:27
00007 suncat0060 pw.x -in pw.inp   Done                     12/25/2018 20:15:27
00008 suncat0059 pw.x -in pw.inp   Done                     12/25/2018 20:15:27
00009 suncat0059 pw.x -in pw.inp   Done                     12/25/2018 20:15:27
00010 suncat0059 pw.x -in pw.inp   Done                     12/25/2018 20:15:27
00011 suncat0059 pw.x -in pw.inp   Done                     12/25/2018 20:15:27
00012 suncat0059 pw.x -in pw.inp   Done                     12/25/2018 20:15:27
00013 suncat0059 pw.x -in pw.inp   Done                     12/25/2018 20:15:27
00014 suncat0059 pw.x -in pw.inp   Done                     12/25/2018 20:15:27
00015 suncat0059 pw.x -in pw.inp   Done                     12/25/2018 20:15:27
00016 suncat0058 pw.x -in pw.inp   Done                     12/25/2018 20:15:27
00017 suncat0058 pw.x -in pw.inp   Done                     12/25/2018 20:15:27
00018 suncat0058 pw.x -in pw.inp   Done                     12/25/2018 20:15:27
00019 suncat0058 pw.x -in pw.inp   Done                     12/25/2018 20:15:27
00020 suncat0058 pw.x -in pw.inp   Done                     12/25/2018 20:15:27
00021 suncat0058 pw.x -in pw.inp   Done                     12/25/2018 20:15:27
00022 suncat0058 pw.x -in pw.inp   Done                     12/25/2018 20:15:27
00023 suncat0058 pw.x -in pw.inp   Done                     12/25/2018 20:15:27
00024 suncat0195 pw.x -in pw.inp   Done                     12/25/2018 20:15:27
00025 suncat0195 pw.x -in pw.inp   Done                     12/25/2018 20:15:27
00026 suncat0195 pw.x -in pw.inp   Done                     12/25/2018 20:15:27
00027 suncat0195 pw.x -in pw.inp   Done                     12/25/2018 20:15:27
00028 suncat0195 pw.x -in pw.inp   Done                     12/25/2018 20:15:27
00029 suncat0195 pw.x -in pw.inp   Done                     12/25/2018 20:15:27
00030 suncat0195 pw.x -in pw.inp   Done                     12/25/2018 20:15:27
00031 suncat0195 pw.x -in pw.inp   Done                     12/25/2018 20:15:27
00032 suncat0003 pw.x -in pw.inp   Done                     12/25/2018 20:15:27
00033 suncat0003 pw.x -in pw.inp   Done                     12/25/2018 20:15:27
00034 suncat0003 pw.x -in pw.inp   Done                     12/25/2018 20:15:27
00035 suncat0003 pw.x -in pw.inp   Done                     12/25/2018 20:15:27
00036 suncat0003 pw.x -in pw.inp   Done                     12/25/2018 20:15:27
00037 suncat0003 pw.x -in pw.inp   Done                     12/25/2018 20:15:27
00038 suncat0003 pw.x -in pw.inp   Done                     12/25/2018 20:15:27
00039 suncat0003 pw.x -in pw.inp   Done                     12/25/2018 20:15:27
00040 suncat0002 pw.x -in pw.inp   Done                     12/25/2018 20:15:27
00041 suncat0002 pw.x -in pw.inp   Done                     12/25/2018 20:15:27
00042 suncat0002 pw.x -in pw.inp   Done                     12/25/2018 20:15:27
00043 suncat0002 pw.x -in pw.inp   Done                     12/25/2018 20:15:27
00044 suncat0002 pw.x -in pw.inp   Done                     12/25/2018 20:15:27
00045 suncat0002 pw.x -in pw.inp   Done                     12/25/2018 20:15:27
00046 suncat0002 pw.x -in pw.inp   Done                     12/25/2018 20:15:27
00047 suncat0002 pw.x -in pw.inp   Done                     12/25/2018 20:15:27
00048 suncat0283 pw.x -in pw.inp   Done                     12/25/2018 20:15:27
00049 suncat0283 pw.x -in pw.inp   Done                     12/25/2018 20:15:27
00050 suncat0283 pw.x -in pw.inp   Done                     12/25/2018 20:15:27
00051 suncat0283 pw.x -in pw.inp   Done                     12/25/2018 20:15:27
00052 suncat0283 pw.x -in pw.inp   Done                     12/25/2018 20:15:27
00053 suncat0283 pw.x -in pw.inp   Done                     12/25/2018 20:15:27
00054 suncat0283 pw.x -in pw.inp   Done                     12/25/2018 20:15:27
00055 suncat0283 pw.x -in pw.inp   Done                     12/25/2018 20:15:27
00056 suncat0282 pw.x -in pw.inp   Done                     12/25/2018 20:15:27
00057 suncat0282 pw.x -in pw.inp   Done                     12/25/2018 20:15:27
00058 suncat0282 pw.x -in pw.inp   Done                     12/25/2018 20:15:27
00059 suncat0282 pw.x -in pw.inp   Done                     12/25/2018 20:15:27
00060 suncat0282 pw.x -in pw.inp   Done                     12/25/2018 20:15:27
00061 suncat0282 pw.x -in pw.inp   Done                     12/25/2018 20:15:27
00062 suncat0282 pw.x -in pw.inp   Done                     12/25/2018 20:15:27
00063 suncat0282 pw.x -in pw.inp   Done                     12/25/2018 20:15:27