     Program PWSCF v.5.1rc2 (svn rev. 11289) starts on 25Dec2018 at  0:53:40

     Current dimensions of program PWSCF are:
     Max number of different atomic species (ntypx) = 10
     Max number of k-points (npk) =  40000
     Max angular momentum in pseudopotentials (lmaxx) =  3
     Presently stress not available with electric field

     IMPORTANT: XC functional enforced from input :
     Exchange-correlation      = BEEF-VDW ( 1  4 27 13 2)
     Any further DFT definition will be discarded
     Please, verify this is what you really want

     Subspace diagonalization in iterative solution of the eigenvalue problem:
     a serial algorithm will be used

     Found symmetry operation: I + ( -0.5000 -0.5000  0.0000)
     This is a supercell, fractional translations are disabled

     bravais-lattice index     =            0
     lattice parameter (alat)  =       1.8897  a.u.
     unit-cell volume          =    6199.0913 (a.u.)^3
     number of atoms/cell      =           12
     number of atomic types    =            2
     number of electrons       =       162.00
     number of Kohn-Sham states=          111
     kinetic-energy cutoff     =      36.7493  Ry
     charge density cutoff     =     367.4932  Ry
     convergence threshold     =      1.0E-06
     mixing beta               =       0.1000
     number of iterations used =           10  plain     mixing
     Exchange-correlation      = BEEF-VDW ( 1  4 27 13 2)
     nstep                     =           50

     celldm(1)=   1.889726  celldm(2)=   0.000000  celldm(3)=   0.000000
     celldm(4)=   0.000000  celldm(5)=   0.000000  celldm(6)=   0.000000

     crystal axes: (cart. coord. in units of alat)
               a(1) = (   6.230664   0.000000   0.000000 )
               a(2) = (   2.067963   5.877474   0.000000 )
               a(3) = (   0.000000   0.000000  25.084556 )

     reciprocal axes: (cart. coord. in units 2 pi/alat)
               b(1) = (  0.160497 -0.056470  0.000000 )
               b(2) = (  0.000000  0.170141  0.000000 )
               b(3) = (  0.000000  0.000000  0.039865 )

     PseudoPot. # 1 for La read from file:
     /afs/slac.stanford.edu/u/if/mamunm/psp/gbrv1.5pbe/La.UPF
     MD5 check sum: 5937b0c7494ba0601a847275249473aa
     Pseudo is Ultrasoft + core correction, Zval = 11.0
     Generated by new atomic code, or converted to UPF format
     Using radial grid of  995 points,  8 beta functions with:
                l(1) =   0
                l(2) =   0
                l(3) =   1
                l(4) =   1
                l(5) =   2
                l(6) =   2
                l(7) =   3
                l(8) =   3
     Q(r) pseudized with  8 coefficients,  rinner =    1.700   1.700   1.700
                                                       1.700   1.700   1.700
                                                       1.700

     PseudoPot. # 2 for Os read from file:
     /afs/slac.stanford.edu/u/if/mamunm/psp/gbrv1.5pbe/Os.UPF
     MD5 check sum: a3fb40a04f0c37c25c34bbc47164c9a8
     Pseudo is Ultrasoft + core correction, Zval = 16.0
     Generated by new atomic code, or converted to UPF format
     Using radial grid of  983 points,  8 beta functions with:
                l(1) =   0
                l(2) =   0
                l(3) =   1
                l(4) =   1
                l(5) =   2
                l(6) =   2
                l(7) =   3
                l(8) =   3
     Q(r) pseudized with  8 coefficients,  rinner =    1.150   1.150   1.150
                                                       1.150   1.150   1.150
                                                       1.150

     vdW kernel table read from file vdW_kernel_table
     MD5 check sum: 095c7af220d748ca6e76c0b4c6cfb241

     atomic species   valence    mass     pseudopotential
        La1           11.00   138.90547     La( 1.00)
        Os1           16.00   190.23000     Os( 1.00)

     No symmetry found

   Cartesian axes

     site n.     atom                  positions (alat units)
         1           La1 tau(   1) = (   0.0000000   0.0000000  10.0000000  )
         2           La1 tau(   2) = (   4.1493136   2.9387369  10.0000000  )
         3           Os1 tau(   3) = (   3.1153319   0.0000000  10.0000000  )
         4           Os1 tau(   4) = (   1.0339817   2.9387369  10.0000000  )
         5           La1 tau(   5) = (   6.2306637   4.4128459  12.5422779  )
         6           La1 tau(   6) = (   2.0813502   1.4741090  12.5422779  )
         7           Os1 tau(   7) = (   3.1153319   4.4128459  12.5422779  )
         8           Os1 tau(   8) = (   5.1966820   1.4741090  12.5422779  )
         9           La1 tau(   9) = (   4.1627004   2.9482180  15.0845559  )
        10           La1 tau(  10) = (   0.0133868   0.0094811  15.0845559  )
        11           Os1 tau(  11) = (   1.0473685   2.9482180  15.0845559  )
        12           Os1 tau(  12) = (   3.1287187   0.0094811  15.0845559  )

     number of k points=    20  Fermi-Dirac smearing, width (Ry)=  0.0110
                       cart. coord. in units 2pi/alat
        k(    1) = (   0.0000000   0.0000000   0.0000000), wk =   0.0555556
        k(    2) = (   0.0000000   0.0283569   0.0000000), wk =   0.1111111
        k(    3) = (   0.0000000   0.0567137   0.0000000), wk =   0.1111111
        k(    4) = (   0.0000000  -0.0850706   0.0000000), wk =   0.0555556
        k(    5) = (   0.0267494  -0.0094117   0.0000000), wk =   0.1111111
        k(    6) = (   0.0267494   0.0189452   0.0000000), wk =   0.1111111
        k(    7) = (   0.0267494   0.0473020   0.0000000), wk =   0.1111111
        k(    8) = (   0.0267494  -0.0944822   0.0000000), wk =   0.1111111
        k(    9) = (   0.0267494  -0.0661254   0.0000000), wk =   0.1111111
        k(   10) = (   0.0267494  -0.0377685   0.0000000), wk =   0.1111111
        k(   11) = (   0.0534988  -0.0188233   0.0000000), wk =   0.1111111
        k(   12) = (   0.0534988   0.0095335   0.0000000), wk =   0.1111111
        k(   13) = (   0.0534988   0.0378904   0.0000000), wk =   0.1111111
        k(   14) = (   0.0534988  -0.1038939   0.0000000), wk =   0.1111111
        k(   15) = (   0.0534988  -0.0755370   0.0000000), wk =   0.1111111
        k(   16) = (   0.0534988  -0.0471802   0.0000000), wk =   0.1111111
        k(   17) = (  -0.0802483   0.0282350   0.0000000), wk =   0.0555556
        k(   18) = (  -0.0802483   0.0565919   0.0000000), wk =   0.1111111
        k(   19) = (  -0.0802483   0.0849487   0.0000000), wk =   0.1111111
        k(   20) = (  -0.0802483  -0.0568356   0.0000000), wk =   0.0555556

     Largest allocated arrays     est. size (Mb)     dimensions
     Largest temporary arrays     est. size (Mb)     dimensions

     Initial potential from superposition of free atoms
     Check: negative starting charge=   -1.168118

     starting charge  158.80737, renormalised to  162.00000

     negative rho (up, down):  1.192E+00 0.000E+00

     *
     * You are using vdW-DF for exchange-correlation in this calculation.
     * Please cite the following three references that made this development
     * possible:
     *
     *   M. Dion, H. Rydberg, E. Schroder, D. C. Langreth, and
     *   B. I. Lundqvist, Phys. Rev. Lett. 92, 246401 (2004).
     *
     *   T. Thonhauser, V. R. Cooper, S. Li, A. Puzder, P. Hyldgaard, and
     *   D. C. Langreth, Phys. Rev. B 76, 125112 (2007).
     *
     *   G. Roman-Perez and J. M. Soler, Phys. Rev. Lett. 103, 096102 (2009).
     *
     *
     * If you are using vdW-DF2, please also cite:
     *
     *   K. Lee, E. D. Murray, L. Kong, B. I. Lundqvist, and
     *   D. C. Langreth, Phys. Rev. B 82, 081101(R) (2010).
     *
     *
     * If you are calculating the stress with vdW-DF, please also cite:
     *
     *   R. Sabatini, E. Kucukbenli, B. Kolb, T. Thonhauser, and
     *   S. de Gironcoli, J. Phys.: Condens. Matter 24, 424209 (2012).
     *

     Carrying out vdW-DF run using the following parameters:

     Nqs =      20    Nr_points =    1024   r_max =   100.000
     q_mesh =
               0.00001000     0.04494208     0.09755937     0.15916263
               0.23128650     0.31572767     0.41458969     0.53033537
               0.66584808     0.82450364     1.01025438     1.22772762
               1.48234092     1.78043706     2.12944203     2.53805004
               3.01644009     3.57652955     4.23227104     5.00000000

     Gradients computed in reciprocal space

     Adding external electric field

     Computed dipole along edir(3) :
        Dipole                0.0000 Ry au,          0.0000 Debye
        Dipole field          0.0000 Ry au

        Potential amp.       -0.0000 Ry
        Total length         46.2179 bohr

     Starting wfc are  198 randomized atomic wfcs

     Self-consistent Calculation

     iteration #  1     ecut=    36.75 Ry     beta=0.10
     Davidson diagonalization with overlap
     ethr =  1.00E-02,  avg # of iterations =  2.0

[...]

     total energy              =   -1822.33705009 Ry
     Harris-Foulkes estimate   =   -1823.20815575 Ry
     estimated scf accuracy    <       4.95450723 Ry

[...]

     iteration # 11     ecut=    36.75 Ry     beta=0.10
     Davidson diagonalization with overlap
     c_bands:  1 eigenvalues not converged
     c_bands:  1 eigenvalues not converged
     c_bands:  1 eigenvalues not converged
     ethr =  5.82E-06,  avg # of iterations =  8.5

[...]

     End of self-consistent calculation

          k = 0.0000 0.0000 0.0000 ( 23277 PWs)   bands (ev):

   -83.1564 -83.1560 -82.9286 -82.9285 -82.9282 -82.9281 -42.5077 -42.5053
   -42.4907 -42.4670 -42.4652 -42.4632 -42.2924 -42.2923 -42.2696 -42.2695
   -42.2657 -42.2654 -42.2638 -42.2634 -42.2255 -42.2249 -42.2231 -42.2229
   -30.2219 -30.2110 -30.1110 -30.1096 -29.4412 -29.3434 -14.4134 -14.3816
   -14.0717 -14.0131 -14.0102 -13.9597 -13.9157 -13.8558 -13.8240 -13.7252
   -13.7078 -13.3858 -13.3815 -13.1501 -13.1016 -12.9564 -12.9277 -12.6381
    -2.2944  -1.5330  -1.4355  -1.4168  -1.2743  -0.7313  -0.6424  -0.5197
    -0.1521  -0.1418  -0.0745   0.0647   0.3701   0.4708   0.5346   0.5925
     0.5940   0.6048   0.6118   0.8325   0.8739   0.9904   1.1901   1.3942
     1.4142   1.4798   1.8257   1.9023   1.9843   2.0039   2.2682   2.2800
     2.4230   2.8516   3.1300   3.1779   3.2341   3.5562   3.6199   3.7003
     4.2995   4.3756   4.3852   4.4246   4.4462   4.5539   4.5826   4.6018
     4.6431   4.6610   4.7190   4.7286   4.7781   4.7986   4.8017   4.8027
     4.8985   4.9015   4.9408   4.9560   4.9803   4.9836   5.0072

[...]

          k =-0.0802 0.0282 0.0000 ( 23346 PWs)   bands (ev):

[...]

     the Fermi energy is     2.1362 ev

!    total energy              =   -1822.59781360 Ry
     Harris-Foulkes estimate   =   -1822.59781776 Ry
     estimated scf accuracy    <       0.00000091 Ry

     The total energy is the sum of the following terms:

     one-electron contribution =  -10315.31509795 Ry
     hartree contribution      =    5159.69340899 Ry
     xc contribution           =    -537.23984492 Ry
     ewald contribution        =    3870.36433396 Ry
     electric field correction =       0.00000000 Ry
[...]
                l(7) =   3
                l(8) =   3
     Q(r) pseudized with  8 coefficients,  rinner =    1.700   1.700   1.700
                                                       1.700   1.700   1.700
                                                       1.700

     PseudoPot. # 2 for Os read from file:
     /afs/slac.stanford.edu/u/if/mamunm/psp/gbrv1.5pbe/Os.UPF
     MD5 check sum: a3fb40a04f0c37c25c34bbc47164c9a8
     Pseudo is Ultrasoft + core correction, Zval = 16.0
     Generated by new atomic code, or converted to UPF format
     Using radial grid of  983 points,  8 beta functions with:
                l(1) =   0
                l(2) =   0
                l(3) =   1
                l(4) =   1
                l(5) =   2
                l(6) =   2
                l(7) =   3
                l(8) =   3
     Q(r) pseudized with  8 coefficients,  rinner =    1.150   1.150   1.150
                                                       1.150   1.150   1.150
                                                       1.150

     vdW kernel table read from file vdW_kernel_table
     MD5 check sum: 095c7af220d748ca6e76c0b4c6cfb241

     atomic species   valence    mass     pseudopotential
        La1           11.00   138.90547     La( 1.00)
        Os1           16.00   190.23000     Os( 1.00)

     No symmetry found

   Cartesian axes

     site n.     atom                  positions (alat units)
         1           La1 tau(   1) = (   0.0000000   0.0000000  10.0000000  )
         2           La1 tau(   2) = (   4.1493136   2.9387369  10.0000000  )
         3           Os1 tau(   3) = (   3.1153319   0.0000000  10.0000000  )
         4           Os1 tau(   4) = (   1.0339817   2.9387369  10.0000000  )
         5           La1 tau(   5) = (   6.2306637   4.4128459  12.5422779  )
         6           La1 tau(   6) = (   2.0813502   1.4741090  12.5422779  )
         7           Os1 tau(   7) = (   3.1153319   4.4128459  12.5422779  )
         8           Os1 tau(   8) = (   5.1966820   1.4741090  12.5422779  )
         9           La1 tau(   9) = (   4.1546707   2.9425358  15.1602993  )
        10           La1 tau(  10) = (   0.0053773   0.0038163  15.1603190  )
        11           Os1 tau(  11) = (   1.0608652   2.9577174  14.7992593  )
        12           Os1 tau(  12) = (   3.1422201   0.0190541  14.7993234  )

     number of k points=    20  Fermi-Dirac smearing, width (Ry)=  0.0110
                       cart. coord. in units 2pi/alat
        k(    1) = (   0.0000000   0.0000000   0.0000000), wk =   0.0555556
        k(    2) = (   0.0000000   0.0283569   0.0000000), wk =   0.1111111
        k(    3) = (   0.0000000   0.0567137   0.0000000), wk =   0.1111111
        k(    4) = (   0.0000000  -0.0850706   0.0000000), wk =   0.0555556
        k(    5) = (   0.0267494  -0.0094117   0.0000000), wk =   0.1111111
        k(    6) = (   0.0267494   0.0189452   0.0000000), wk =   0.1111111
        k(    7) = (   0.0267494   0.0473020   0.0000000), wk =   0.1111111
        k(    8) = (   0.0267494  -0.0944822   0.0000000), wk =   0.1111111
        k(    9) = (   0.0267494  -0.0661254   0.0000000), wk =   0.1111111
        k(   10) = (   0.0267494  -0.0377685   0.0000000), wk =   0.1111111
        k(   11) = (   0.0534988  -0.0188233   0.0000000), wk =   0.1111111
        k(   12) = (   0.0534988   0.0095335   0.0000000), wk =   0.1111111
        k(   13) = (   0.0534988   0.0378904   0.0000000), wk =   0.1111111
        k(   14) = (   0.0534988  -0.1038939   0.0000000), wk =   0.1111111
        k(   15) = (   0.0534988  -0.0755370   0.0000000), wk =   0.1111111
        k(   16) = (   0.0534988  -0.0471802   0.0000000), wk =   0.1111111
        k(   17) = (  -0.0802483   0.0282350   0.0000000), wk =   0.0555556
        k(   18) = (  -0.0802483   0.0565919   0.0000000), wk =   0.1111111
        k(   19) = (  -0.0802483   0.0849487   0.0000000), wk =   0.1111111
        k(   20) = (  -0.0802483  -0.0568356   0.0000000), wk =   0.0555556

     Largest allocated arrays     est. size (Mb)     dimensions
     Largest temporary arrays     est. size (Mb)     dimensions

     Initial potential from superposition of free atoms
     Check: negative starting charge=   -1.169547

     starting charge  158.80737, renormalised to  162.00000

[...]

     *
     * You are using vdW-DF for exchange-correlation in this calculation.
     * Please cite the following three references that made this development
     * possible:
     *
     *   M. Dion, H. Rydberg, E. Schroder, D. C. Langreth, and
     *   B. I. Lundqvist, Phys. Rev. Lett. 92, 246401 (2004).
     *
     *   T. Thonhauser, V. R. Cooper, S. Li, A. Puzder, P. Hyldgaard, and
     *   D. C. Langreth, Phys. Rev. B 76, 125112 (2007).
     *
     *   G. Roman-Perez and J. M. Soler, Phys. Rev. Lett. 103, 096102 (2009).
     *
     *
     * If you are using vdW-DF2, please also cite:
     *
     *   K. Lee, E. D. Murray, L. Kong, B. I. Lundqvist, and
     *   D. C. Langreth, Phys. Rev. B 82, 081101(R) (2010).
     *
     *
     * If you are calculating the stress with vdW-DF, please also cite:
     *
     *   R. Sabatini, E. Kucukbenli, B. Kolb, T. Thonhauser, and
     *   S. de Gironcoli, J. Phys.: Condens. Matter 24, 424209 (2012).
     *

     Carrying out vdW-DF run using the following parameters:

     Nqs =      20    Nr_points =    1024   r_max =   100.000
     q_mesh =
               0.00001000     0.04494208     0.09755937     0.15916263
               0.23128650     0.31572767     0.41458969     0.53033537
               0.66584808     0.82450364     1.01025438     1.22772762
               1.48234092     1.78043706     2.12944203     2.53805004
               3.01644009     3.57652955     4.23227104     5.00000000

     Gradients computed in reciprocal space

[...]

     Starting wfc are  198 randomized atomic wfcs

     Self-consistent Calculation

[...]

     iteration # 12     ecut=    36.75 Ry     beta=0.10
     Davidson diagonalization with overlap
     c_bands:  1 eigenvalues not converged
     c_bands:  1 eigenvalues not converged
     c_bands:  1 eigenvalues not converged
     ethr =  9.39E-07,  avg # of iterations = 12.8

[...]

     total energy              =   -1822.61852239 Ry
     Harris-Foulkes estimate   =   -1822.61852310 Ry
     estimated scf accuracy    <       0.00000174 Ry

     iteration # 20     ecut=    36.75 Ry     beta=0.10
     Davidson diagonalization with overlap
     ethr =  1.07E-09,  avg # of iterations =  2.1

[...]

     negative rho (up, down):  9.553E-01 0.000E+00

     Adding external electric field

     Computed dipole along edir(3) :
        Dipole                0.1901 Ry au,          0.4831 Debye
        Dipole field          0.0004 Ry au

        Potential amp.       -0.0356 Ry
        Total length         46.2179 bohr

     End of self-consistent calculation

[...]

          k = 0.0535-0.0472 0.0000 ( 23331 PWs)   bands (ev):

[...]

          k =-0.0802-0.0568 0.0000 ( 23292 PWs)   bands (ev):

   -83.0152 -83.0148 -82.8113 -82.8109 -82.7897 -82.7893 -42.3553 -42.3520
   -42.3361 -42.3332 -42.3304 -42.3067 -42.1915 -42.1912 -42.1884 -42.1665
   -42.1527 -42.1297 -42.1160 -42.1128 -42.0979 -42.0959 -42.0878 -42.0851
   -30.2277 -30.1320 -30.0245 -29.9294 -29.0575 -28.9523 -14.4533 -14.2853
   -14.1106 -14.0538 -13.9090 -13.8461 -13.8309 -13.7985 -13.7048 -13.6276
   -13.4606 -13.4003 -13.2215 -12.8405 -12.8124 -12.7571 -12.7164 -12.3472
    -0.4708  -0.4407  -0.2322   0.0334   0.1633   0.2205   0.2588   0.3603
     0.4267   0.7415   0.7660   0.8148   0.8981   1.0804   1.1874   1.2306
     1.3009   1.3058   1.4251   1.4556   1.5094   1.6212   1.6287   1.7327
     1.7636   1.7861   1.7948   1.8105   1.8204   1.8837   1.9195   2.0177
     2.0343   2.1483   2.1575   2.2837   2.3146   2.4778   2.5677   3.0936
     3.1337   3.2000   3.3729   3.3760   3.8811   4.0345   4.0783   4.2347
     4.2489   4.4632   4.5687   4.5951   4.6590   4.8304   4.8396   4.9009
     4.9325   4.9713   4.9989   5.0070   5.0255   5.0331   5.0463

     the Fermi energy is     2.3050 ev

!    total energy              =   -1822.61851788 Ry
     Harris-Foulkes estimate   =   -1822.61851914 Ry
     estimated scf accuracy    <       0.00000074 Ry

     The total energy is the sum of the following terms:

     one-electron contribution =  -10511.17525110 Ry
     hartree contribution      =    5258.48658352 Ry
     xc contribution           =    -537.34661758 Ry
     ewald contribution        =    3967.51703612 Ry
     electric field correction =       0.00007324 Ry
     smearing contrib. (-TS)   =      -0.10034209 Ry

     convergence has been achieved in  20 iterations

 BEEF-vdW xc energy contributions
           1 :   -473.899814081307
           2 :    436.987732150712
           3 :   -371.635913108497
           4 :    291.770088543964
           5 :   -212.412516160443
           6 :    145.700618278476
           7 :   -98.3912762382904
           8 :    71.2163766209451
           9 :   -59.9958456487407
          10 :    57.9445222442253
          11 :   -58.2704952071556
          12 :    56.1504863510089
          13 :   -49.5857345094613
          14 :    39.1445116973141
          15 :   -26.9732923938841
          16 :    15.5884646016236
          17 :   -6.90925387807408
          18 :    1.77780469453194
          19 :   2.421806283484784E-002
          20 :   0.567044172999886
          21 :   -2.34797043794390
          22 :    4.22358200042777
          23 :   -5.42699547654308
          24 :    5.58506817495618
          25 :   -4.68424320969882
          26 :    2.98487651700839
          27 :  -0.916524427003424
          28 :   -1.03680396119864
          29 :    2.45484233462577
          30 :   -3.09159721898857
          31 :   -42.1569305834616
          32 :   -30.9532209905682

     Forces acting on atoms (Ry/au):

     negative rho (up, down):  9.553E-01 0.000E+00
     atom    1 type  1   force =     0.00072099    0.00050933   -0.01835826
     atom    2 type  1   force =     0.00072057    0.00051007   -0.01835589
     atom    3 type  2   force =    -0.00100463   -0.00071504    0.03143884
     atom    4 type  2   force =    -0.00100902   -0.00071206    0.03142672
     atom    5 type  1   force =    -0.00033103   -0.00024011   -0.02262036
     atom    6 type  1   force =    -0.00033507   -0.00023493   -0.02262538
     atom    7 type  2   force =    -0.00050314   -0.00035649    0.00968555
     atom    8 type  2   force =    -0.00048942   -0.00034676    0.00968998
     atom    9 type  1   force =    -0.00002541   -0.00002019   -0.00004939
     atom   10 type  1   force =    -0.00002921   -0.00002331   -0.00005174
     atom   11 type  2   force =     0.00114058    0.00081575   -0.00009627
     atom   12 type  2   force =     0.00114479    0.00081374   -0.00008380

     Total force =     0.062217     Total SCF correction =     0.003174

     entering subroutine stress ...

     negative rho (up, down):  9.553E-01 0.000E+00
          total   stress  (Ry/bohr**3)                   (kbar)     P=  -13.92
  -0.00014146  -0.00003652   0.00000191        -20.81     -5.37      0.28
  -0.00003652  -0.00011576   0.00000135         -5.37    -17.03      0.20
   0.00000191   0.00000135  -0.00002664          0.28      0.20     -3.92

 !ASE

     Writing output data file calc.save

     General routines

     Parallel routines

   This run was terminated on:   3:33:53  25Dec2018

   JOB DONE.
Job  /afs/slac/g/suncat/bin/suncat-tsmpirun -x LD_LIBRARY_PATH -wdir /scratch/qe109067_12QD3 pw.x -in pw.inp

TID   HOST_NAME   COMMAND_LINE            STATUS            TERMINATION_TIME
00000 suncat0029 pw.x -in pw.inp   Done                     12/25/2018 03:33:53
00001 suncat0029 pw.x -in pw.inp   Done                     12/25/2018 03:33:53
00002 suncat0029 pw.x -in pw.inp   Done                     12/25/2018 03:33:53
00003 suncat0029 pw.x -in pw.inp   Done                     12/25/2018 03:33:53
00004 suncat0029 pw.x -in pw.inp   Done                     12/25/2018 03:33:53
00005 suncat0029 pw.x -in pw.inp   Done                     12/25/2018 03:33:53
00006 suncat0029 pw.x -in pw.inp   Done                     12/25/2018 03:33:53
00007 suncat0029 pw.x -in pw.inp   Done                     12/25/2018 03:33:53
00008 suncat0028 pw.x -in pw.inp   Done                     12/25/2018 03:33:53
00009 suncat0028 pw.x -in pw.inp   Done                     12/25/2018 03:33:53
00010 suncat0028 pw.x -in pw.inp   Done                     12/25/2018 03:33:53
00011 suncat0028 pw.x -in pw.inp   Done                     12/25/2018 03:33:53
00012 suncat0028 pw.x -in pw.inp   Done                     12/25/2018 03:33:53
00013 suncat0028 pw.x -in pw.inp   Done                     12/25/2018 03:33:53
00014 suncat0028 pw.x -in pw.inp   Done                     12/25/2018 03:33:53
00015 suncat0028 pw.x -in pw.inp   Done                     12/25/2018 03:33:53
00016 suncat0027 pw.x -in pw.inp   Done                     12/25/2018 03:33:53
00017 suncat0027 pw.x -in pw.inp   Done                     12/25/2018 03:33:53
00018 suncat0027 pw.x -in pw.inp   Done                     12/25/2018 03:33:53
00019 suncat0027 pw.x -in pw.inp   Done                     12/25/2018 03:33:53
00020 suncat0027 pw.x -in pw.inp   Done                     12/25/2018 03:33:53
00021 suncat0027 pw.x -in pw.inp   Done                     12/25/2018 03:33:53
00022 suncat0027 pw.x -in pw.inp   Done                     12/25/2018 03:33:53
00023 suncat0027 pw.x -in pw.inp   Done                     12/25/2018 03:33:53
00024 suncat0021 pw.x -in pw.inp   Done                     12/25/2018 03:33:53
00025 suncat0021 pw.x -in pw.inp   Done                     12/25/2018 03:33:53
00026 suncat0021 pw.x -in pw.inp   Done                     12/25/2018 03:33:53
00027 suncat0021 pw.x -in pw.inp   Done                     12/25/2018 03:33:53
00028 suncat0021 pw.x -in pw.inp   Done                     12/25/2018 03:33:53
00029 suncat0021 pw.x -in pw.inp   Done                     12/25/2018 03:33:53
00030 suncat0021 pw.x -in pw.inp   Done                     12/25/2018 03:33:53
00031 suncat0021 pw.x -in pw.inp   Done                     12/25/2018 03:33:53
00032 suncat0191 pw.x -in pw.inp   Done                     12/25/2018 03:33:53
00033 suncat0191 pw.x -in pw.inp   Done                     12/25/2018 03:33:53
00034 suncat0191 pw.x -in pw.inp   Done                     12/25/2018 03:33:53
00035 suncat0191 pw.x -in pw.inp   Done                     12/25/2018 03:33:53
00036 suncat0191 pw.x -in pw.inp   Done                     12/25/2018 03:33:53
00037 suncat0191 pw.x -in pw.inp   Done                     12/25/2018 03:33:53
00038 suncat0191 pw.x -in pw.inp   Done                     12/25/2018 03:33:53
00039 suncat0191 pw.x -in pw.inp   Done                     12/25/2018 03:33:53
00040 suncat0161 pw.x -in pw.inp   Done                     12/25/2018 03:33:53
00041 suncat0161 pw.x -in pw.inp   Done                     12/25/2018 03:33:53
00042 suncat0161 pw.x -in pw.inp   Done                     12/25/2018 03:33:53
00043 suncat0161 pw.x -in pw.inp   Done                     12/25/2018 03:33:53
00044 suncat0161 pw.x -in pw.inp   Done                     12/25/2018 03:33:53
00045 suncat0161 pw.x -in pw.inp   Done                     12/25/2018 03:33:53
00046 suncat0161 pw.x -in pw.inp   Done                     12/25/2018 03:33:53
00047 suncat0161 pw.x -in pw.inp   Done                     12/25/2018 03:33:53
00048 suncat0159 pw.x -in pw.inp   Done                     12/25/2018 03:33:53
00049 suncat0159 pw.x -in pw.inp   Done                     12/25/2018 03:33:53
00050 suncat0159 pw.x -in pw.inp   Done                     12/25/2018 03:33:53
00051 suncat0159 pw.x -in pw.inp   Done                     12/25/2018 03:33:53
00052 suncat0159 pw.x -in pw.inp   Done                     12/25/2018 03:33:53
00053 suncat0159 pw.x -in pw.inp   Done                     12/25/2018 03:33:53
00054 suncat0159 pw.x -in pw.inp   Done                     12/25/2018 03:33:53
00055 suncat0159 pw.x -in pw.inp   Done                     12/25/2018 03:33:53
00056 suncat0267 pw.x -in pw.inp   Done                     12/25/2018 03:33:53
00057 suncat0267 pw.x -in pw.inp   Done                     12/25/2018 03:33:53
00058 suncat0267 pw.x -in pw.inp   Done                     12/25/2018 03:33:53
00059 suncat0267 pw.x -in pw.inp   Done                     12/25/2018 03:33:53
00060 suncat0267 pw.x -in pw.inp   Done                     12/25/2018 03:33:53
00061 suncat0267 pw.x -in pw.inp   Done                     12/25/2018 03:33:53
00062 suncat0267 pw.x -in pw.inp   Done                     12/25/2018 03:33:53
00063 suncat0267 pw.x -in pw.inp   Done                     12/25/2018 03:33:53