     Program PWSCF v.5.1rc2 (svn rev. 11289) starts on 29Dec2018 at 22: 6:20

     Current dimensions of program PWSCF are:
     Max number of different atomic species (ntypx) = 10
     Max number of k-points (npk) =  40000
     Max angular momentum in pseudopotentials (lmaxx) =  3
     Presently stress not available with electric field

     IMPORTANT: XC functional enforced from input :
     Exchange-correlation      = BEEF-VDW ( 1  4 27 13 2)
     Any further DFT definition will be discarded
     Please, verify this is what you really want

     Subspace diagonalization in iterative solution of the eigenvalue problem:
     a serial algorithm will be used

     Found symmetry operation: I + ( -0.5000  0.5000  0.0000)
     This is a supercell, fractional translations are disabled

     bravais-lattice index     =            0
     lattice parameter (alat)  =       1.8897  a.u.
     unit-cell volume          =    5269.3970 (a.u.)^3
     number of atoms/cell      =           12
     number of atomic types    =            2
     number of electrons       =       168.00
     number of Kohn-Sham states=          114
     kinetic-energy cutoff     =      36.7493  Ry
     charge density cutoff     =     367.4932  Ry
     convergence threshold     =      1.0E-06
     mixing beta               =       0.1000
     number of iterations used =           10  plain     mixing
     Exchange-correlation      = BEEF-VDW ( 1  4 27 13 2)
     nstep                     =           50

     celldm(1)=   1.889726  celldm(2)=   0.000000  celldm(3)=   0.000000
     celldm(4)=   0.000000  celldm(5)=   0.000000  celldm(6)=   0.000000

     crystal axes: (cart. coord. in units of alat)
               a(1) = (   5.788823   0.000000   0.000000 )
               a(2) = (   1.938496   5.454604   0.000000 )
               a(3) = (   0.000000   0.000000  24.729246 )

     reciprocal axes: (cart. coord. in units 2 pi/alat)
               b(1) = (  0.172747 -0.061392  0.000000 )
               b(2) = (  0.000000  0.183331  0.000000 )
               b(3) = (  0.000000  0.000000  0.040438 )

     PseudoPot. # 1 for Tc read from file:
     /afs/slac.stanford.edu/u/if/mamunm/psp/gbrv1.5pbe/Tc.UPF
     MD5 check sum: 9eb49e5b028550b2339a02317eb7b844
     Pseudo is Ultrasoft + core correction, Zval = 15.0
     Generated by new atomic code, or converted to UPF format
     Using radial grid of  965 points,  6 beta functions with:
                l(1) =   0
                l(2) =   0
                l(3) =   1
                l(4) =   1
                l(5) =   2
                l(6) =   2
     Q(r) pseudized with  8 coefficients,  rinner =    1.300   1.300   1.300
                                                       1.300   1.300

     PseudoPot. # 2 for Tl read from file:
     /afs/slac.stanford.edu/u/if/mamunm/psp/gbrv1.5pbe/Tl.UPF
     MD5 check sum: b76cf1f7e72655a2b2c53cf6385d7059
     Pseudo is Ultrasoft + core correction, Zval = 13.0
     Generated by new atomic code, or converted to UPF format
     Using radial grid of  899 points,  6 beta functions with:
                l(1) =   0
                l(2) =   0
                l(3) =   1
                l(4) =   1
                l(5) =   2
                l(6) =   2
     Q(r) pseudized with  6 coefficients,  rinner =    1.100   1.100   1.100
                                                       1.100   1.100

     vdW kernel table read from file vdW_kernel_table
     MD5 check sum: 095c7af220d748ca6e76c0b4c6cfb241

     atomic species   valence    mass     pseudopotential
        Tc1           15.00    97.90721     Tc( 1.00)
        Tl1           13.00   204.38000     Tl( 1.00)

     No symmetry found

   Cartesian axes

     site n.     atom                  positions (alat units)
         1           Tc1 tau(   1) = (   0.0000000   0.0000000  10.0000000  )
         2           Tc1 tau(   2) = (   3.8636592   2.7273018  10.0000000  )
         3           Tl1 tau(   3) = (   2.8944113   0.0000000  10.0000000  )
         4           Tl1 tau(   4) = (   0.9692479   2.7273018  10.0000000  )
         5           Tc1 tau(   5) = (   5.7888226   4.0862472  12.3646232  )
         6           Tc1 tau(   6) = (   1.9251634   1.3589453  12.3646232  )
         7           Tl1 tau(   7) = (   2.8944113   4.0862472  12.3646232  )
         8           Tl1 tau(   8) = (   4.8195747   1.3589453  12.3646232  )
         9           Tc1 tau(   9) = (   3.8503268   2.7178907  14.7292464  )
        10           Tc1 tau(  10) = (   7.7139860   5.4451925  14.7292464  )
        11           Tl1 tau(  11) = (   6.7447381   2.7178907  14.7292464  )
        12           Tl1 tau(  12) = (   4.8195747   5.4451925  14.7292464  )

     number of k points=    20  Fermi-Dirac smearing, width (Ry)=  0.0110
                       cart. coord. in units 2pi/alat
        k(    1) = (   0.0000000   0.0000000   0.0000000), wk =   0.0555556
        k(    2) = (   0.0000000   0.0305552   0.0000000), wk =   0.1111111
        k(    3) = (   0.0000000   0.0611105   0.0000000), wk =   0.1111111
        k(    4) = (   0.0000000  -0.0916657   0.0000000), wk =   0.0555556
        k(    5) = (   0.0287911  -0.0102320   0.0000000), wk =   0.1111111
        k(    6) = (   0.0287911   0.0203232   0.0000000), wk =   0.1111111
        k(    7) = (   0.0287911   0.0508785   0.0000000), wk =   0.1111111
        k(    8) = (   0.0287911  -0.1018977   0.0000000), wk =   0.1111111
        k(    9) = (   0.0287911  -0.0713425   0.0000000), wk =   0.1111111
        k(   10) = (   0.0287911  -0.0407872   0.0000000), wk =   0.1111111
        k(   11) = (   0.0575822  -0.0204640   0.0000000), wk =   0.1111111
        k(   12) = (   0.0575822   0.0100912   0.0000000), wk =   0.1111111
        k(   13) = (   0.0575822   0.0406465   0.0000000), wk =   0.1111111
        k(   14) = (   0.0575822  -0.1121297   0.0000000), wk =   0.1111111
        k(   15) = (   0.0575822  -0.0815744   0.0000000), wk =   0.1111111
        k(   16) = (   0.0575822  -0.0510192   0.0000000), wk =   0.1111111
        k(   17) = (  -0.0863734   0.0306960   0.0000000), wk =   0.0555556
        k(   18) = (  -0.0863734   0.0612512   0.0000000), wk =   0.1111111
        k(   19) = (  -0.0863734   0.0918064   0.0000000), wk =   0.1111111
        k(   20) = (  -0.0863734  -0.0609697   0.0000000), wk =   0.0555556

     Largest allocated arrays     est. size (Mb)     dimensions
     Largest temporary arrays     est. size (Mb)     dimensions

     Check: negative/imaginary core charge=   -0.000012    0.000000

     Initial potential from superposition of free atoms
     Check: negative starting charge=   -1.064177

     starting charge  161.97064, renormalised to  168.00000

     negative rho (up, down):  1.104E+00 0.000E+00

     *
     * You are using vdW-DF for exchange-correlation in this calculation.
     * Please cite the following three references that made this development
     * possible:
     *
     *   M. Dion, H. Rydberg, E. Schroder, D. C. Langreth, and
     *   B. I. Lundqvist, Phys. Rev. Lett. 92, 246401 (2004).
     *
     *   T. Thonhauser, V. R. Cooper, S. Li, A. Puzder, P. Hyldgaard, and
     *   D. C. Langreth, Phys. Rev. B 76, 125112 (2007).
     *
     *   G. Roman-Perez and J. M. Soler, Phys. Rev. Lett. 103, 096102 (2009).
     *
     *
     * If you are using vdW-DF2, please also cite:
     *
     *   K. Lee, E. D. Murray, L. Kong, B. I. Lundqvist, and
     *   D. C. Langreth, Phys. Rev. B 82, 081101(R) (2010).
     *
     *
     * If you are calculating the stress with vdW-DF, please also cite:
     *
     *   R. Sabatini, E. Kucukbenli, B. Kolb, T. Thonhauser, and
     *   S. de Gironcoli, J. Phys.: Condens. Matter 24, 424209 (2012).
     *

     Carrying out vdW-DF run using the following parameters:

     Nqs =      20    Nr_points =    1024   r_max =   100.000
     q_mesh =
               0.00001000     0.04494208     0.09755937     0.15916263
               0.23128650     0.31572767     0.41458969     0.53033537
               0.66584808     0.82450364     1.01025438     1.22772762
               1.48234092     1.78043706     2.12944203     2.53805004
               3.01644009     3.57652955     4.23227104     5.00000000

     Gradients computed in reciprocal space

     Adding external electric field

     Computed dipole along edir(3) :
        Dipole                0.0000 Ry au,          0.0000 Debye
        Dipole field          0.0000 Ry au

        Potential amp.       -0.0000 Ry
        Total length         45.5632 bohr

     Starting wfc are  132 randomized atomic wfcs

     Self-consistent Calculation

     iteration #  1     ecut=    36.75 Ry     beta=0.10
     Davidson diagonalization with overlap
     ethr =  1.00E-02,  avg # of iterations =  8.6

[...]

     total energy              =   -1932.16827459 Ry
     Harris-Foulkes estimate   =   -1932.53726945 Ry
     estimated scf accuracy    <       2.48709659 Ry

[...]

     iteration #  9     ecut=    36.75 Ry     beta=0.10
     Davidson diagonalization with overlap
     c_bands:  2 eigenvalues not converged
     ethr =  4.16E-06,  avg # of iterations =  1.9

[...]

     End of self-consistent calculation

          k = 0.0000 0.0000 0.0000 ( 19887 PWs)   bands (ev):

   -64.9808 -64.9753 -64.9226 -64.9223 -64.9175 -64.9174 -37.0884 -37.0846
   -37.0345 -37.0302 -37.0296 -37.0251 -37.0197 -36.9640 -36.9555 -36.9518
   -36.9471 -36.9467 -36.9456 -36.9297 -36.9245 -36.9198 -36.9173 -36.9071
   -10.3905 -10.3334 -10.2712 -10.2702 -10.2489 -10.1162 -10.1107 -10.1033
   -10.0762 -10.0565 -10.0054  -9.9808  -9.9773  -9.9380  -9.9212  -9.8974
    -9.8423  -9.8199  -9.8032  -9.7634  -9.7560  -9.7381  -9.7260  -9.7226
    -9.6477  -9.6391  -9.4745  -9.4673  -9.4664  -9.3594  -7.9057  -6.1930
    -4.7399  -4.5640  -4.1067  -4.0687  -1.0635  -0.8646  -0.4670  -0.3486
    -0.3369  -0.1768  -0.0377   0.0079   0.3897   0.4920   0.5050   0.5352
     0.7887   0.8490   0.9672   1.1384   1.1838   1.3244   1.4106   1.4720
     1.4881   1.5543   1.6154   1.6451   1.6666   1.7027   1.8311   1.8726
     1.8957   1.9324   2.0095   2.4035   2.4505   2.9583   3.2277   3.4393
     3.5378   3.9756   4.7540   4.8812   5.0769   5.1455   5.4777   5.5861
     5.6134   5.8517   6.0264   6.4625   6.7910   7.2231   7.2361   7.4227
     7.4390   7.6505

[...]

          k =-0.0864 0.0307 0.0000 ( 19832 PWs)   bands (ev):

[...]

     the Fermi energy is     1.5616 ev

!    total energy              =   -1931.66593952 Ry
     Harris-Foulkes estimate   =   -1931.66590400 Ry
     estimated scf accuracy    <       0.00000072 Ry

     The total energy is the sum of the following terms:

     one-electron contribution =  -13087.40812543 Ry
     hartree contribution      =    6585.95173516 Ry
     xc contribution           =    -582.99165292 Ry
     ewald contribution        =    5152.89177979 Ry
     electric field correction =       0.00000006 Ry
     smearing contrib. (-TS)   =      -0.10967618 Ry

     convergence has been achieved in  19 iterations

 BEEF-vdW xc energy contributions
           1 :   -516.649206678483
           2 :    478.365547190329
           3 :   -410.603768699531
[...]
     /afs/slac.stanford.edu/u/if/mamunm/psp/gbrv1.5pbe/Tc.UPF
     MD5 check sum: 9eb49e5b028550b2339a02317eb7b844
     Pseudo is Ultrasoft + core correction, Zval = 15.0
     Generated by new atomic code, or converted to UPF format
     Using radial grid of  965 points,  6 beta functions with:
                l(1) =   0
                l(2) =   0
                l(3) =   1
                l(4) =   1
                l(5) =   2
                l(6) =   2
     Q(r) pseudized with  8 coefficients,  rinner =    1.300   1.300   1.300
                                                       1.300   1.300

     PseudoPot. # 2 for Tl read from file:
     /afs/slac.stanford.edu/u/if/mamunm/psp/gbrv1.5pbe/Tl.UPF
     MD5 check sum: b76cf1f7e72655a2b2c53cf6385d7059
     Pseudo is Ultrasoft + core correction, Zval = 13.0
     Generated by new atomic code, or converted to UPF format
     Using radial grid of  899 points,  6 beta functions with:
                l(1) =   0
                l(2) =   0
                l(3) =   1
                l(4) =   1
                l(5) =   2
                l(6) =   2
     Q(r) pseudized with  6 coefficients,  rinner =    1.100   1.100   1.100
                                                       1.100   1.100

     vdW kernel table read from file vdW_kernel_table
     MD5 check sum: 095c7af220d748ca6e76c0b4c6cfb241

     atomic species   valence    mass     pseudopotential
        Tc1           15.00    97.90721     Tc( 1.00)
        Tl1           13.00   204.38000     Tl( 1.00)

     No symmetry found

   Cartesian axes

     site n.     atom                  positions (alat units)
         1           Tc1 tau(   1) = (   0.0000000   0.0000000  10.0000000  )
         2           Tc1 tau(   2) = (   3.8636592   2.7273018  10.0000000  )
         3           Tl1 tau(   3) = (   2.8944113   0.0000000  10.0000000  )
         4           Tl1 tau(   4) = (   0.9692479   2.7273018  10.0000000  )
         5           Tc1 tau(   5) = (   5.7888226   4.0862472  12.3646232  )
         6           Tc1 tau(   6) = (   1.9251634   1.3589453  12.3646232  )
         7           Tl1 tau(   7) = (   2.8944113   4.0862472  12.3646232  )
         8           Tl1 tau(   8) = (   4.8195747   1.3589453  12.3646232  )
         9           Tc1 tau(   9) = (   3.8478618   2.7161541  14.5435868  )
        10           Tc1 tau(  10) = (   7.7112461   5.4432547  14.5435985  )
        11           Tl1 tau(  11) = (   6.7438178   2.7172300  15.0129383  )
        12           Tl1 tau(  12) = (   4.8186448   5.4445614  15.0129230  )

     number of k points=    20  Fermi-Dirac smearing, width (Ry)=  0.0110
                       cart. coord. in units 2pi/alat
        k(    1) = (   0.0000000   0.0000000   0.0000000), wk =   0.0555556
        k(    2) = (   0.0000000   0.0305552   0.0000000), wk =   0.1111111
        k(    3) = (   0.0000000   0.0611105   0.0000000), wk =   0.1111111
        k(    4) = (   0.0000000  -0.0916657   0.0000000), wk =   0.0555556
        k(    5) = (   0.0287911  -0.0102320   0.0000000), wk =   0.1111111
        k(    6) = (   0.0287911   0.0203232   0.0000000), wk =   0.1111111
        k(    7) = (   0.0287911   0.0508785   0.0000000), wk =   0.1111111
        k(    8) = (   0.0287911  -0.1018977   0.0000000), wk =   0.1111111
        k(    9) = (   0.0287911  -0.0713425   0.0000000), wk =   0.1111111
        k(   10) = (   0.0287911  -0.0407872   0.0000000), wk =   0.1111111
        k(   11) = (   0.0575822  -0.0204640   0.0000000), wk =   0.1111111
        k(   12) = (   0.0575822   0.0100912   0.0000000), wk =   0.1111111
        k(   13) = (   0.0575822   0.0406465   0.0000000), wk =   0.1111111
        k(   14) = (   0.0575822  -0.1121297   0.0000000), wk =   0.1111111
        k(   15) = (   0.0575822  -0.0815744   0.0000000), wk =   0.1111111
        k(   16) = (   0.0575822  -0.0510192   0.0000000), wk =   0.1111111
        k(   17) = (  -0.0863734   0.0306960   0.0000000), wk =   0.0555556
        k(   18) = (  -0.0863734   0.0612512   0.0000000), wk =   0.1111111
        k(   19) = (  -0.0863734   0.0918064   0.0000000), wk =   0.1111111
        k(   20) = (  -0.0863734  -0.0609697   0.0000000), wk =   0.0555556

     Largest allocated arrays     est. size (Mb)     dimensions
     Largest temporary arrays     est. size (Mb)     dimensions

     Check: negative/imaginary core charge=   -0.000011    0.000000

     Initial potential from superposition of free atoms
     Check: negative starting charge=   -1.063003

     starting charge  161.97064, renormalised to  168.00000

[...]

     *
     * You are using vdW-DF for exchange-correlation in this calculation.
     * Please cite the following three references that made this development
     * possible:
     *
     *   M. Dion, H. Rydberg, E. Schroder, D. C. Langreth, and
     *   B. I. Lundqvist, Phys. Rev. Lett. 92, 246401 (2004).
     *
     *   T. Thonhauser, V. R. Cooper, S. Li, A. Puzder, P. Hyldgaard, and
     *   D. C. Langreth, Phys. Rev. B 76, 125112 (2007).
     *
     *   G. Roman-Perez and J. M. Soler, Phys. Rev. Lett. 103, 096102 (2009).
     *
     *
     * If you are using vdW-DF2, please also cite:
     *
     *   K. Lee, E. D. Murray, L. Kong, B. I. Lundqvist, and
     *   D. C. Langreth, Phys. Rev. B 82, 081101(R) (2010).
     *
     *
     * If you are calculating the stress with vdW-DF, please also cite:
     *
     *   R. Sabatini, E. Kucukbenli, B. Kolb, T. Thonhauser, and
     *   S. de Gironcoli, J. Phys.: Condens. Matter 24, 424209 (2012).
     *

     Carrying out vdW-DF run using the following parameters:

     Nqs =      20    Nr_points =    1024   r_max =   100.000
     q_mesh =
               0.00001000     0.04494208     0.09755937     0.15916263
               0.23128650     0.31572767     0.41458969     0.53033537
               0.66584808     0.82450364     1.01025438     1.22772762
               1.48234092     1.78043706     2.12944203     2.53805004
               3.01644009     3.57652955     4.23227104     5.00000000

     Gradients computed in reciprocal space

[...]

     Starting wfc are  132 randomized atomic wfcs

     Self-consistent Calculation

[...]

     total energy              =   -1931.70661272 Ry
     Harris-Foulkes estimate   =   -1931.70660705 Ry
     estimated scf accuracy    <       0.00000181 Ry

     iteration # 21     ecut=    36.75 Ry     beta=0.10
     Davidson diagonalization with overlap
     ethr =  1.08E-09,  avg # of iterations =  3.0

[...]

     negative rho (up, down):  1.110E+00 0.000E+00

     Adding external electric field

     Computed dipole along edir(3) :
        Dipole                0.0170 Ry au,          0.0433 Debye
        Dipole field          0.0000 Ry au

        Potential amp.       -0.0037 Ry
        Total length         45.5632 bohr

     End of self-consistent calculation

[...]

          k = 0.0576-0.0510 0.0000 ( 19847 PWs)   bands (ev):

[...]

          k =-0.0864-0.0610 0.0000 ( 19730 PWs)   bands (ev):

   -65.0306 -65.0258 -64.9515 -64.9461 -64.9069 -64.9017 -37.1486 -37.1337
   -37.0728 -37.0619 -37.0540 -37.0519 -37.0139 -36.9935 -36.9837 -36.9837
   -36.9672 -36.9360 -36.9327 -36.9293 -36.9276 -36.9266 -36.9129 -36.9079
   -10.3372 -10.2239 -10.1534 -10.1440 -10.1053 -10.0850 -10.0440 -10.0339
    -9.9594  -9.9232  -9.9089  -9.8907  -9.8869  -9.8587  -9.8268  -9.7684
    -9.7560  -9.7551  -9.7248  -9.7021  -9.6926  -9.6700  -9.6693  -9.6495
    -9.6348  -9.6106  -9.5669  -9.4710  -9.4335  -9.3640  -6.0779  -5.7949
    -4.9962  -4.8915  -3.7272  -2.7179  -2.5702  -2.3211  -1.9456  -1.5482
    -1.4914  -1.2633  -0.8322  -0.6120  -0.4513  -0.2742  -0.2213  -0.1156
     0.1384   0.2159   0.5284   0.5603   0.5652   0.6280   0.8097   1.0740
     1.1950   1.2789   1.5687   1.7834   1.8331   1.8567   1.8593   1.9026
     2.1769   2.3346   2.4156   2.4532   3.2583   3.3497   3.5656   4.0348
     4.3936   4.5448   4.6408   5.7709   6.0000   6.5075   6.5172   6.6902
     6.8508   6.9429   6.9533   7.1266   7.8546   7.9047   8.0778   8.1373
     8.1646   8.1918

     the Fermi energy is     1.5663 ev

!    total energy              =   -1931.70663648 Ry
     Harris-Foulkes estimate   =   -1931.70661290 Ry
     estimated scf accuracy    <       0.00000042 Ry

     The total energy is the sum of the following terms:

     one-electron contribution =  -13011.68831584 Ry
     hartree contribution      =    6548.07610445 Ry
     xc contribution           =    -582.89352943 Ry
     ewald contribution        =    5114.91024702 Ry
     electric field correction =       0.00000069 Ry
     smearing contrib. (-TS)   =      -0.11114336 Ry

     convergence has been achieved in  21 iterations

 BEEF-vdW xc energy contributions
           1 :   -516.551734119163
           2 :    478.229542758456
           3 :   -410.417345346060
           4 :    327.368002707634
           5 :   -244.017121582952
           6 :    171.609999706872
           7 :   -115.392006492174
           8 :    74.7882479090520
           9 :   -45.6200386729909
          10 :    23.0410602757122
          11 :   -3.90226035105468
          12 :   -12.3635668202645
          13 :    24.3706301206056
          14 :   -30.3213772861716
          15 :    29.5032407861587
          16 :   -23.0221339899811
          17 :    13.5036236218123
          18 :   -4.06256395134972
          19 :   -2.88088357538606
          20 :    6.33705374150964
          21 :   -6.75461246726195
          22 :    5.39189512575342
          23 :   -3.46667895777261
          24 :    1.54256647145951
          25 :   0.559400605085898
          26 :   -3.36680393278959
          27 :    7.17032389223516
          28 :   -11.6237425498841
          29 :    15.7583191979063
          30 :   -18.3937507748220
          31 :   -43.9736874816077
          32 :   -32.2462269977301

     Forces acting on atoms (Ry/au):

     negative rho (up, down):  1.110E+00 0.000E+00
     atom    1 type  1   force =     0.00017984    0.00012713    0.04628352
     atom    2 type  1   force =     0.00018171    0.00012861    0.04628791
     atom    3 type  2   force =    -0.00021502   -0.00014119   -0.04475039
     atom    4 type  2   force =    -0.00021108   -0.00016040   -0.04474563
     atom    5 type  1   force =     0.00020023    0.00014178    0.02661867
     atom    6 type  1   force =     0.00019795    0.00014004    0.02659396
     atom    7 type  2   force =     0.00033965    0.00021221   -0.02775014
     atom    8 type  2   force =     0.00031343    0.00024961   -0.02774722
     atom    9 type  1   force =    -0.00027443   -0.00019176   -0.00017865
     atom   10 type  1   force =    -0.00024050   -0.00016923   -0.00017657
     atom   11 type  2   force =    -0.00022363   -0.00018543   -0.00021690
     atom   12 type  2   force =    -0.00024815   -0.00015136   -0.00021857

     Total force =     0.106049     Total SCF correction =     0.003190

     entering subroutine stress ...

     negative rho (up, down):  1.110E+00 0.000E+00
          total   stress  (Ry/bohr**3)                   (kbar)     P=  -18.10
  -0.00017826  -0.00003311  -0.00000046        -26.22     -4.87     -0.07
  -0.00003311  -0.00015474  -0.00000033         -4.87    -22.76     -0.05
  -0.00000046  -0.00000033  -0.00003611         -0.07     -0.05     -5.31

 !ASE

     Writing output data file calc.save

     General routines

     Parallel routines

   This run was terminated on:  23:36: 3  29Dec2018

   JOB DONE.
Job  /afs/slac/g/suncat/bin/suncat-tsmpirun -x LD_LIBRARY_PATH -wdir /scratch/qe387733_KWJ9u pw.x -in pw.inp

TID   HOST_NAME   COMMAND_LINE            STATUS            TERMINATION_TIME
00000 suncat0068 pw.x -in pw.inp   Done                     12/29/2018 23:36:03
00001 suncat0068 pw.x -in pw.inp   Done                     12/29/2018 23:36:03
00002 suncat0068 pw.x -in pw.inp   Done                     12/29/2018 23:36:03
00003 suncat0068 pw.x -in pw.inp   Done                     12/29/2018 23:36:03
00004 suncat0068 pw.x -in pw.inp   Done                     12/29/2018 23:36:03
00005 suncat0068 pw.x -in pw.inp   Done                     12/29/2018 23:36:03
00006 suncat0068 pw.x -in pw.inp   Done                     12/29/2018 23:36:03
00007 suncat0068 pw.x -in pw.inp   Done                     12/29/2018 23:36:03
00008 suncat0059 pw.x -in pw.inp   Done                     12/29/2018 23:36:03
00009 suncat0059 pw.x -in pw.inp   Done                     12/29/2018 23:36:03
00010 suncat0059 pw.x -in pw.inp   Done                     12/29/2018 23:36:03
00011 suncat0059 pw.x -in pw.inp   Done                     12/29/2018 23:36:03
00012 suncat0059 pw.x -in pw.inp   Done                     12/29/2018 23:36:03
00013 suncat0059 pw.x -in pw.inp   Done                     12/29/2018 23:36:03
00014 suncat0059 pw.x -in pw.inp   Done                     12/29/2018 23:36:03
00015 suncat0059 pw.x -in pw.inp   Done                     12/29/2018 23:36:03
00016 suncat0031 pw.x -in pw.inp   Done                     12/29/2018 23:36:03
00017 suncat0031 pw.x -in pw.inp   Done                     12/29/2018 23:36:03
00018 suncat0031 pw.x -in pw.inp   Done                     12/29/2018 23:36:03
00019 suncat0031 pw.x -in pw.inp   Done                     12/29/2018 23:36:03
00020 suncat0031 pw.x -in pw.inp   Done                     12/29/2018 23:36:03
00021 suncat0031 pw.x -in pw.inp   Done                     12/29/2018 23:36:03
00022 suncat0031 pw.x -in pw.inp   Done                     12/29/2018 23:36:03
00023 suncat0031 pw.x -in pw.inp   Done                     12/29/2018 23:36:03
00024 suncat0030 pw.x -in pw.inp   Done                     12/29/2018 23:36:03
00025 suncat0030 pw.x -in pw.inp   Done                     12/29/2018 23:36:03
00026 suncat0030 pw.x -in pw.inp   Done                     12/29/2018 23:36:03
00027 suncat0030 pw.x -in pw.inp   Done                     12/29/2018 23:36:03
00028 suncat0030 pw.x -in pw.inp   Done                     12/29/2018 23:36:03
00029 suncat0030 pw.x -in pw.inp   Done                     12/29/2018 23:36:03
00030 suncat0030 pw.x -in pw.inp   Done                     12/29/2018 23:36:03
00031 suncat0030 pw.x -in pw.inp   Done                     12/29/2018 23:36:03
00032 suncat0280 pw.x -in pw.inp   Done                     12/29/2018 23:36:03
00033 suncat0280 pw.x -in pw.inp   Done                     12/29/2018 23:36:03
00034 suncat0280 pw.x -in pw.inp   Done                     12/29/2018 23:36:03
00035 suncat0280 pw.x -in pw.inp   Done                     12/29/2018 23:36:03
00036 suncat0280 pw.x -in pw.inp   Done                     12/29/2018 23:36:03
00037 suncat0280 pw.x -in pw.inp   Done                     12/29/2018 23:36:03
00038 suncat0280 pw.x -in pw.inp   Done                     12/29/2018 23:36:03
00039 suncat0280 pw.x -in pw.inp   Done                     12/29/2018 23:36:03
00040 suncat0279 pw.x -in pw.inp   Done                     12/29/2018 23:36:03
00041 suncat0279 pw.x -in pw.inp   Done                     12/29/2018 23:36:03
00042 suncat0279 pw.x -in pw.inp   Done                     12/29/2018 23:36:03
00043 suncat0279 pw.x -in pw.inp   Done                     12/29/2018 23:36:03
00044 suncat0279 pw.x -in pw.inp   Done                     12/29/2018 23:36:03
00045 suncat0279 pw.x -in pw.inp   Done                     12/29/2018 23:36:03
00046 suncat0279 pw.x -in pw.inp   Done                     12/29/2018 23:36:03
00047 suncat0279 pw.x -in pw.inp   Done                     12/29/2018 23:36:03
00048 suncat0278 pw.x -in pw.inp   Done                     12/29/2018 23:36:03
00049 suncat0278 pw.x -in pw.inp   Done                     12/29/2018 23:36:03
00050 suncat0278 pw.x -in pw.inp   Done                     12/29/2018 23:36:03
00051 suncat0278 pw.x -in pw.inp   Done                     12/29/2018 23:36:03
00052 suncat0278 pw.x -in pw.inp   Done                     12/29/2018 23:36:03
00053 suncat0278 pw.x -in pw.inp   Done                     12/29/2018 23:36:03
00054 suncat0278 pw.x -in pw.inp   Done                     12/29/2018 23:36:03
00055 suncat0278 pw.x -in pw.inp   Done                     12/29/2018 23:36:03
00056 suncat0099 pw.x -in pw.inp   Done                     12/29/2018 23:36:03
00057 suncat0099 pw.x -in pw.inp   Done                     12/29/2018 23:36:03
00058 suncat0099 pw.x -in pw.inp   Done                     12/29/2018 23:36:03
00059 suncat0099 pw.x -in pw.inp   Done                     12/29/2018 23:36:03
00060 suncat0099 pw.x -in pw.inp   Done                     12/29/2018 23:36:03
00061 suncat0099 pw.x -in pw.inp   Done                     12/29/2018 23:36:03
00062 suncat0099 pw.x -in pw.inp   Done                     12/29/2018 23:36:03
00063 suncat0099 pw.x -in pw.inp   Done                     12/29/2018 23:36:03