     Program PWSCF v.5.1rc2 (svn rev. 11289) starts on 19Dec2018 at  1:36:42

     Current dimensions of program PWSCF are:
     Max number of different atomic species (ntypx) = 10
     Max number of k-points (npk) =  40000
     Max angular momentum in pseudopotentials (lmaxx) =  3
     Presently stress not available with electric field

     IMPORTANT: XC functional enforced from input :
     Exchange-correlation      = BEEF-VDW ( 1  4 27 13 2)
     Any further DFT definition will be discarded
     Please, verify this is what you really want

     Subspace diagonalization in iterative solution of the eigenvalue problem:
     a serial algorithm will be used

     Found symmetry operation: I + ( -0.5000  0.5000  0.0000)
     This is a supercell, fractional translations are disabled

     bravais-lattice index     =            0
     lattice parameter (alat)  =       1.8897  a.u.
     unit-cell volume          =    5201.1360 (a.u.)^3
     number of atoms/cell      =           12
     number of atomic types    =            2
     number of electrons       =       168.00
     number of Kohn-Sham states=          114
     kinetic-energy cutoff     =      36.7493  Ry
     charge density cutoff     =     367.4932  Ry
     convergence threshold     =      1.0E-06
     mixing beta               =       0.1000
     number of iterations used =           10  plain     mixing
     Exchange-correlation      = BEEF-VDW ( 1  4 27 13 2)
     nstep                     =           50

     celldm(1)=   1.889726  celldm(2)=   0.000000  celldm(3)=   0.000000
     celldm(4)=   0.000000  celldm(5)=   0.000000  celldm(6)=   0.000000

     crystal axes: (cart. coord. in units of alat)
               a(1) = (   5.775407   0.000000   0.000000 )
               a(2) = (   2.070905   5.391353   0.000000 )
               a(3) = (   0.000000   0.000000  24.752625 )

     reciprocal axes: (cart. coord. in units 2 pi/alat)
               b(1) = (  0.173148 -0.066509  0.000000 )
               b(2) = (  0.000000  0.185482  0.000000 )
               b(3) = (  0.000000  0.000000  0.040400 )

     PseudoPot. # 1 for Pd read from file:
     /afs/slac.stanford.edu/u/if/mamunm/psp/gbrv1.5pbe/Pd.UPF
     MD5 check sum: 2d733d2bc2cbfd217af676df1668a4bc
     Pseudo is Ultrasoft + core correction, Zval = 16.0
     Generated by new atomic code, or converted to UPF format
     Using radial grid of  887 points,  6 beta functions with:
                l(1) =   0
                l(2) =   0
                l(3) =   1
                l(4) =   1
                l(5) =   2
                l(6) =   2
     Q(r) pseudized with  8 coefficients,  rinner =    1.130   1.130   1.130
                                                       1.130   1.130

     PseudoPot. # 2 for Hf read from file:
     /afs/slac.stanford.edu/u/if/mamunm/psp/gbrv1.5pbe/Hf.UPF
     MD5 check sum: 8ee9378dfe14276e333edf04c5e4aa26
     Pseudo is Ultrasoft + core correction, Zval = 12.0
     Generated by new atomic code, or converted to UPF format
     Using radial grid of  921 points,  8 beta functions with:
                l(1) =   0
                l(2) =   0
                l(3) =   0
                l(4) =   1
                l(5) =   1
                l(6) =   2
                l(7) =   2
                l(8) =   3
     Q(r) pseudized with  6 coefficients,  rinner =    1.200   1.200   1.200
                                                       1.200   1.200   1.200
                                                       1.200

     vdW kernel table read from file vdW_kernel_table
     MD5 check sum: 095c7af220d748ca6e76c0b4c6cfb241

     atomic species   valence    mass     pseudopotential
        Pd1           16.00   106.42000     Pd( 1.00)
        Hf1           12.00   178.49000     Hf( 1.00)

     No symmetry found

   Cartesian axes

     site n.     atom                  positions (alat units)
         1           Pd1 tau(   1) = (   0.0000000   0.0000000  10.0000000  )
         2           Pd1 tau(   2) = (   3.9231559   2.6956763  10.0000000  )
         3           Hf1 tau(   3) = (   2.8877036   0.0000000  10.0000000  )
         4           Hf1 tau(   4) = (   1.0354523   2.6956763  10.0000000  )
         5           Pd1 tau(   5) = (   5.7754072   3.9683940  12.3763123  )
         6           Pd1 tau(   6) = (   1.8522513   1.2727177  12.3763123  )
         7           Hf1 tau(   7) = (   2.8877036   3.9683940  12.3763123  )
         8           Hf1 tau(   8) = (   4.7399549   1.2727177  12.3763123  )
         9           Pd1 tau(   9) = (   3.7045026   2.5454354  14.7526247  )
        10           Pd1 tau(  10) = (   7.6276585   5.2411117  14.7526247  )
        11           Hf1 tau(  11) = (   6.5922062   2.5454354  14.7526247  )
        12           Hf1 tau(  12) = (   4.7399549   5.2411117  14.7526247  )

     number of k points=    20  Fermi-Dirac smearing, width (Ry)=  0.0110
                       cart. coord. in units 2pi/alat
        k(    1) = (   0.0000000   0.0000000   0.0000000), wk =   0.0555556
        k(    2) = (   0.0000000   0.0309137   0.0000000), wk =   0.1111111
        k(    3) = (   0.0000000   0.0618274   0.0000000), wk =   0.1111111
        k(    4) = (   0.0000000  -0.0927411   0.0000000), wk =   0.0555556
        k(    5) = (   0.0288580  -0.0110848   0.0000000), wk =   0.1111111
        k(    6) = (   0.0288580   0.0198289   0.0000000), wk =   0.1111111
        k(    7) = (   0.0288580   0.0507426   0.0000000), wk =   0.1111111
        k(    8) = (   0.0288580  -0.1038259   0.0000000), wk =   0.1111111
        k(    9) = (   0.0288580  -0.0729122   0.0000000), wk =   0.1111111
        k(   10) = (   0.0288580  -0.0419985   0.0000000), wk =   0.1111111
        k(   11) = (   0.0577160  -0.0221696   0.0000000), wk =   0.1111111
        k(   12) = (   0.0577160   0.0087441   0.0000000), wk =   0.1111111
        k(   13) = (   0.0577160   0.0396578   0.0000000), wk =   0.1111111
        k(   14) = (   0.0577160  -0.1149107   0.0000000), wk =   0.1111111
        k(   15) = (   0.0577160  -0.0839970   0.0000000), wk =   0.1111111
        k(   16) = (   0.0577160  -0.0530833   0.0000000), wk =   0.1111111
        k(   17) = (  -0.0865740   0.0332544   0.0000000), wk =   0.0555556
        k(   18) = (  -0.0865740   0.0641682   0.0000000), wk =   0.1111111
        k(   19) = (  -0.0865740   0.0950819   0.0000000), wk =   0.1111111
        k(   20) = (  -0.0865740  -0.0594867   0.0000000), wk =   0.0555556

     Largest allocated arrays     est. size (Mb)     dimensions
     Largest temporary arrays     est. size (Mb)     dimensions

     Check: negative/imaginary core charge=   -0.000003    0.000000

     Initial potential from superposition of free atoms
     Check: negative starting charge=   -1.095723

     starting charge  152.99995, renormalised to  168.00000

     negative rho (up, down):  1.203E+00 0.000E+00

     *
     * You are using vdW-DF for exchange-correlation in this calculation.
     * Please cite the following three references that made this development
     * possible:
     *
     *   M. Dion, H. Rydberg, E. Schroder, D. C. Langreth, and
     *   B. I. Lundqvist, Phys. Rev. Lett. 92, 246401 (2004).
     *
     *   T. Thonhauser, V. R. Cooper, S. Li, A. Puzder, P. Hyldgaard, and
     *   D. C. Langreth, Phys. Rev. B 76, 125112 (2007).
     *
     *   G. Roman-Perez and J. M. Soler, Phys. Rev. Lett. 103, 096102 (2009).
     *
     *
     * If you are using vdW-DF2, please also cite:
     *
     *   K. Lee, E. D. Murray, L. Kong, B. I. Lundqvist, and
     *   D. C. Langreth, Phys. Rev. B 82, 081101(R) (2010).
     *
     *
     * If you are calculating the stress with vdW-DF, please also cite:
     *
     *   R. Sabatini, E. Kucukbenli, B. Kolb, T. Thonhauser, and
     *   S. de Gironcoli, J. Phys.: Condens. Matter 24, 424209 (2012).
     *

     Carrying out vdW-DF run using the following parameters:

     Nqs =      20    Nr_points =    1024   r_max =   100.000
     q_mesh =
               0.00001000     0.04494208     0.09755937     0.15916263
               0.23128650     0.31572767     0.41458969     0.53033537
               0.66584808     0.82450364     1.01025438     1.22772762
               1.48234092     1.78043706     2.12944203     2.53805004
               3.01644009     3.57652955     4.23227104     5.00000000

     Gradients computed in reciprocal space

     Adding external electric field

     Computed dipole along edir(3) :
        Dipole               -0.0000 Ry au,         -0.0000 Debye
        Dipole field         -0.0000 Ry au

        Potential amp.        0.0000 Ry
        Total length         45.6063 bohr

     Starting wfc are  150 randomized atomic wfcs

     Self-consistent Calculation

     iteration #  1     ecut=    36.75 Ry     beta=0.10
     Davidson diagonalization with overlap
     ethr =  1.00E-02,  avg # of iterations =  8.3

[...]

     total energy              =   -2113.20458763 Ry
     Harris-Foulkes estimate   =   -2190.98117432 Ry
     estimated scf accuracy    <     438.43440139 Ry

[...]

     End of self-consistent calculation

          k = 0.0000 0.0000 0.0000 ( 19605 PWs)   bands (ev):

   -61.6035 -61.6034 -61.5913 -61.5912 -61.2656 -61.2531 -49.2074 -49.2046
   -49.1874 -49.1787 -49.1765 -49.1576 -49.0066 -49.0063 -49.0039 -49.0034
   -48.9250 -48.9246 -48.8954 -48.8954 -48.8258 -48.8253 -48.8233 -48.8232
   -30.2023 -30.1951 -30.1799 -30.1649 -30.1010 -30.0980 -30.0755 -30.0592
   -30.0556 -30.0345 -29.9049 -29.8168 -29.8166 -29.7683 -29.7366 -29.7267
   -29.6937 -29.6126  -5.2522  -3.7764  -3.3595  -3.2293  -3.1153  -3.0061
    -2.8242  -2.8221  -2.7735  -2.7351  -2.6301  -2.4271  -2.1796  -2.1724
    -2.1486  -1.9046  -1.8620  -1.8091  -1.7032  -1.6897  -1.6462  -1.5554
    -1.5127  -1.3269  -1.3182  -1.0480  -1.0010  -0.8715  -0.7890  -0.7240
    -0.6268  -0.3525   0.1128   0.7148   0.7627   0.9227   1.0141   1.5609
     1.6179   1.9687   2.0670   2.1411   2.1899   2.4259   2.6210   2.6403
     2.6768   2.7472   2.8777   2.8823   3.0299   3.5491   3.6475   3.7423
     3.9975   3.9986   4.2037   4.3292   4.3431   4.5051   5.0158   5.2075
     5.2208   5.2382   5.4095   5.4859   5.6246   5.6822   5.7151   5.7837
     5.8240   5.8915

[...]

          k =-0.0866 0.0333 0.0000 ( 19556 PWs)   bands (ev):

[...]

     the Fermi energy is     1.8628 ev

!    total energy              =   -2162.49914205 Ry
     Harris-Foulkes estimate   =   -2162.49913420 Ry
     estimated scf accuracy    <       0.00000035 Ry

     The total energy is the sum of the following terms:

     one-electron contribution =  -13465.95348465 Ry
     hartree contribution      =    6746.72241243 Ry
     xc contribution           =    -658.75754740 Ry
     ewald contribution        =    5215.56538903 Ry
     electric field correction =       0.00000000 Ry
     smearing contrib. (-TS)   =      -0.07591147 Ry

     convergence has been achieved in  20 iterations

 BEEF-vdW xc energy contributions
           1 :   -589.334650242395
           2 :    545.373436958566
           3 :   -468.216390079152
           4 :    375.103914545740
           5 :   -283.638225843695
           6 :    206.547659782191
[...]
00031 suncat2042 pw.x -in pw.inp   Done                     12/19/2018 01:43:35

[...]

   This run was terminated on:   1:50:56  19Dec2018

[...]

     Program PWSCF v.5.1rc2 (svn rev. 11289) starts on 19Dec2018 at  1:51: 1

[...]

   This run was terminated on:   1:58: 6  19Dec2018

[...]

     Program PWSCF v.5.1rc2 (svn rev. 11289) starts on 19Dec2018 at  1:58:14

     Current dimensions of program PWSCF are:
     Max number of different atomic species (ntypx) = 10
     Max number of k-points (npk) =  40000
     Max angular momentum in pseudopotentials (lmaxx) =  3
     Presently stress not available with electric field

     IMPORTANT: XC functional enforced from input :
     Exchange-correlation      = BEEF-VDW ( 1  4 27 13 2)
     Any further DFT definition will be discarded
     Please, verify this is what you really want

     Subspace diagonalization in iterative solution of the eigenvalue problem:
     a serial algorithm will be used

     Found symmetry operation: I + ( -0.5000  0.5000  0.0000)
     This is a supercell, fractional translations are disabled

     bravais-lattice index     =            0
     lattice parameter (alat)  =       1.8897  a.u.
     unit-cell volume          =    5201.1360 (a.u.)^3
     number of atoms/cell      =           12
     number of atomic types    =            2
     number of electrons       =       168.00
     number of Kohn-Sham states=          114
     kinetic-energy cutoff     =      36.7493  Ry
     charge density cutoff     =     367.4932  Ry
     convergence threshold     =      1.0E-06
     mixing beta               =       0.1000
     number of iterations used =           10  plain     mixing
     Exchange-correlation      = BEEF-VDW ( 1  4 27 13 2)
     nstep                     =           50

     celldm(1)=   1.889726  celldm(2)=   0.000000  celldm(3)=   0.000000
     celldm(4)=   0.000000  celldm(5)=   0.000000  celldm(6)=   0.000000

     crystal axes: (cart. coord. in units of alat)
               a(1) = (   5.775407   0.000000   0.000000 )
               a(2) = (   2.070905   5.391353   0.000000 )
               a(3) = (   0.000000   0.000000  24.752625 )

     reciprocal axes: (cart. coord. in units 2 pi/alat)
               b(1) = (  0.173148 -0.066509  0.000000 )
               b(2) = (  0.000000  0.185482  0.000000 )
               b(3) = (  0.000000  0.000000  0.040400 )

     PseudoPot. # 1 for Pd read from file:
     /afs/slac.stanford.edu/u/if/mamunm/psp/gbrv1.5pbe/Pd.UPF
     MD5 check sum: 2d733d2bc2cbfd217af676df1668a4bc
     Pseudo is Ultrasoft + core correction, Zval = 16.0
     Generated by new atomic code, or converted to UPF format
     Using radial grid of  887 points,  6 beta functions with:
                l(1) =   0
                l(2) =   0
                l(3) =   1
                l(4) =   1
                l(5) =   2
                l(6) =   2
     Q(r) pseudized with  8 coefficients,  rinner =    1.130   1.130   1.130
                                                       1.130   1.130

     PseudoPot. # 2 for Hf read from file:
     /afs/slac.stanford.edu/u/if/mamunm/psp/gbrv1.5pbe/Hf.UPF
     MD5 check sum: 8ee9378dfe14276e333edf04c5e4aa26
     Pseudo is Ultrasoft + core correction, Zval = 12.0
     Generated by new atomic code, or converted to UPF format
     Using radial grid of  921 points,  8 beta functions with:
                l(1) =   0
                l(2) =   0
                l(3) =   0
                l(4) =   1
                l(5) =   1
                l(6) =   2
                l(7) =   2
                l(8) =   3
     Q(r) pseudized with  6 coefficients,  rinner =    1.200   1.200   1.200
                                                       1.200   1.200   1.200
                                                       1.200

     vdW kernel table read from file vdW_kernel_table
     MD5 check sum: 095c7af220d748ca6e76c0b4c6cfb241

     atomic species   valence    mass     pseudopotential
        Pd1           16.00   106.42000     Pd( 1.00)
        Hf1           12.00   178.49000     Hf( 1.00)

     No symmetry found

   Cartesian axes

     site n.     atom                  positions (alat units)
         1           Pd1 tau(   1) = (   0.0000000   0.0000000  10.0000000  )
         2           Pd1 tau(   2) = (   3.9231559   2.6956763  10.0000000  )
         3           Hf1 tau(   3) = (   2.8877036   0.0000000  10.0000000  )
         4           Hf1 tau(   4) = (   1.0354523   2.6956763  10.0000000  )
         5           Pd1 tau(   5) = (   5.7754072   3.9683940  12.3763123  )
         6           Pd1 tau(   6) = (   1.8522513   1.2727177  12.3763123  )
         7           Hf1 tau(   7) = (   2.8877036   3.9683940  12.3763123  )
         8           Hf1 tau(   8) = (   4.7399549   1.2727177  12.3763123  )
         9           Pd1 tau(   9) = (   3.7133256   2.5514974  14.6130157  )
        10           Pd1 tau(  10) = (   7.6364840   5.2471740  14.6130151  )
        11           Hf1 tau(  11) = (   6.6104095   2.5579440  14.7248645  )
        12           Hf1 tau(  12) = (   4.7581620   5.2536214  14.7248668  )

     number of k points=    20  Fermi-Dirac smearing, width (Ry)=  0.0110
                       cart. coord. in units 2pi/alat
        k(    1) = (   0.0000000   0.0000000   0.0000000), wk =   0.0555556
        k(    2) = (   0.0000000   0.0309137   0.0000000), wk =   0.1111111
        k(    3) = (   0.0000000   0.0618274   0.0000000), wk =   0.1111111
        k(    4) = (   0.0000000  -0.0927411   0.0000000), wk =   0.0555556
        k(    5) = (   0.0288580  -0.0110848   0.0000000), wk =   0.1111111
        k(    6) = (   0.0288580   0.0198289   0.0000000), wk =   0.1111111
        k(    7) = (   0.0288580   0.0507426   0.0000000), wk =   0.1111111
        k(    8) = (   0.0288580  -0.1038259   0.0000000), wk =   0.1111111
        k(    9) = (   0.0288580  -0.0729122   0.0000000), wk =   0.1111111
        k(   10) = (   0.0288580  -0.0419985   0.0000000), wk =   0.1111111
        k(   11) = (   0.0577160  -0.0221696   0.0000000), wk =   0.1111111
        k(   12) = (   0.0577160   0.0087441   0.0000000), wk =   0.1111111
        k(   13) = (   0.0577160   0.0396578   0.0000000), wk =   0.1111111
        k(   14) = (   0.0577160  -0.1149107   0.0000000), wk =   0.1111111
        k(   15) = (   0.0577160  -0.0839970   0.0000000), wk =   0.1111111
        k(   16) = (   0.0577160  -0.0530833   0.0000000), wk =   0.1111111
        k(   17) = (  -0.0865740   0.0332544   0.0000000), wk =   0.0555556
        k(   18) = (  -0.0865740   0.0641682   0.0000000), wk =   0.1111111
        k(   19) = (  -0.0865740   0.0950819   0.0000000), wk =   0.1111111
        k(   20) = (  -0.0865740  -0.0594867   0.0000000), wk =   0.0555556

     Largest allocated arrays     est. size (Mb)     dimensions
     Largest temporary arrays     est. size (Mb)     dimensions

     Check: negative/imaginary core charge=   -0.000003    0.000000

     Initial potential from superposition of free atoms
     Check: negative starting charge=   -1.091631

     starting charge  152.99995, renormalised to  168.00000

[...]

     *
     * You are using vdW-DF for exchange-correlation in this calculation.
     * Please cite the following three references that made this development
     * possible:
     *
     *   M. Dion, H. Rydberg, E. Schroder, D. C. Langreth, and
     *   B. I. Lundqvist, Phys. Rev. Lett. 92, 246401 (2004).
     *
     *   T. Thonhauser, V. R. Cooper, S. Li, A. Puzder, P. Hyldgaard, and
     *   D. C. Langreth, Phys. Rev. B 76, 125112 (2007).
     *
     *   G. Roman-Perez and J. M. Soler, Phys. Rev. Lett. 103, 096102 (2009).
     *
     *
     * If you are using vdW-DF2, please also cite:
     *
     *   K. Lee, E. D. Murray, L. Kong, B. I. Lundqvist, and
     *   D. C. Langreth, Phys. Rev. B 82, 081101(R) (2010).
     *
     *
     * If you are calculating the stress with vdW-DF, please also cite:
     *
     *   R. Sabatini, E. Kucukbenli, B. Kolb, T. Thonhauser, and
     *   S. de Gironcoli, J. Phys.: Condens. Matter 24, 424209 (2012).
     *

     Carrying out vdW-DF run using the following parameters:

     Nqs =      20    Nr_points =    1024   r_max =   100.000
     q_mesh =
               0.00001000     0.04494208     0.09755937     0.15916263
               0.23128650     0.31572767     0.41458969     0.53033537
               0.66584808     0.82450364     1.01025438     1.22772762
               1.48234092     1.78043706     2.12944203     2.53805004
               3.01644009     3.57652955     4.23227104     5.00000000

     Gradients computed in reciprocal space

[...]

     Starting wfc are  150 randomized atomic wfcs

     Self-consistent Calculation

[...]

     total energy              =   -2162.50465657 Ry
     Harris-Foulkes estimate   =   -2162.50465474 Ry
     estimated scf accuracy    <       0.00000190 Ry

     iteration # 21     ecut=    36.75 Ry     beta=0.10
     Davidson diagonalization with overlap
     ethr =  1.13E-09,  avg # of iterations =  2.1

[...]

     negative rho (up, down):  1.157E+00 0.000E+00

     Adding external electric field

     Computed dipole along edir(3) :
        Dipole                0.0349 Ry au,          0.0888 Debye
        Dipole field          0.0001 Ry au

        Potential amp.       -0.0077 Ry
        Total length         45.6063 bohr

     End of self-consistent calculation

[...]

          k = 0.0577-0.0531 0.0000 ( 19592 PWs)   bands (ev):

[...]

          k =-0.0866-0.0595 0.0000 ( 19510 PWs)   bands (ev):

   -61.5653 -61.5532 -61.5488 -61.5367 -61.1820 -61.1692 -49.1769 -49.1752
   -49.1616 -49.1590 -49.1562 -49.1324 -49.0919 -49.0903 -49.0499 -49.0210
   -48.9791 -48.9771 -48.9557 -48.9538 -48.8766 -48.8479 -48.7782 -48.7759
   -30.1786 -30.1441 -30.1421 -30.1142 -30.0693 -30.0538 -30.0514 -30.0239
   -30.0152 -29.9907 -29.8495 -29.7797 -29.7631 -29.6933 -29.6670 -29.6512
   -29.6286 -29.5524  -3.4877  -3.4477  -2.5855  -2.5136  -2.4975  -2.4364
    -2.3969  -2.3585  -2.2823  -2.2289  -2.0839  -2.0326  -2.0288  -1.8942
    -1.8764  -1.6281  -1.5509  -1.5503  -1.5463  -1.4624  -1.4215  -1.4199
    -1.3573  -1.3377  -1.2021  -1.1962  -1.1284  -1.0890  -1.0206  -1.0120
    -0.9480  -0.7045  -0.6974  -0.3498   0.3419   0.3815   0.4056   0.4959
     0.5339   0.6995   0.7555   1.3451   1.5251   1.5929   1.6992   1.7236
     1.8098   2.0098   2.2356   2.6056   2.6254   2.6439   3.1436   3.3155
     3.3891   3.5246   3.7686   3.8814   3.9654   4.1809   4.2891   4.7171
     5.1641   5.1787   5.5471   5.7647   5.8903   6.2860   6.3333   6.6849
     6.8164   6.8786

     the Fermi energy is     1.9127 ev

!    total energy              =   -2162.50466388 Ry
     Harris-Foulkes estimate   =   -2162.50465646 Ry
     estimated scf accuracy    <       0.00000051 Ry

     The total energy is the sum of the following terms:

     one-electron contribution =  -13638.42862069 Ry
     hartree contribution      =    6833.04815091 Ry
     xc contribution           =    -658.85641491 Ry
     ewald contribution        =    5301.80759657 Ry
     electric field correction =       0.00000295 Ry
     smearing contrib. (-TS)   =      -0.07537871 Ry

     convergence has been achieved in  21 iterations

 BEEF-vdW xc energy contributions
           1 :   -589.441332542144
           2 :    545.538568755056
           3 :   -468.449102140381
           4 :    375.349965954192
           5 :   -283.810950340197
           6 :    206.581929539239
           7 :   -149.251946199135
           8 :    111.000878461958
           9 :   -87.3071346404927
          10 :    72.8839569005361
          11 :   -63.5919669156192
          12 :    56.9251545460741
          13 :   -51.5150798014395
          14 :    46.4043724314769
          15 :   -40.7034145288594
          16 :    33.7544194451418
          17 :   -25.5270391390630
          18 :    16.8121775682009
          19 :   -8.99107978604923
          20 :    3.46984713489690
          21 :   -1.10367457887878
          22 :    1.89416326816172
          23 :   -5.05452058868923
          24 :    9.32026103336261
          25 :   -13.3199486008218
          26 :    15.8747417764116
          27 :   -16.2084187031132
          28 :    14.0941961000858
          29 :   -9.94353600952377
          30 :    4.77157049737548
          31 :   -46.6066872786138
          32 :   -33.8812448983041

     Forces acting on atoms (Ry/au):

     negative rho (up, down):  1.157E+00 0.000E+00
     atom    1 type  1   force =    -0.00032635   -0.00022422    0.01747567
     atom    2 type  1   force =    -0.00032647   -0.00022418    0.01747557
     atom    3 type  2   force =    -0.00221909   -0.00152513    0.00133225
     atom    4 type  2   force =    -0.00221948   -0.00152467    0.00133222
     atom    5 type  1   force =    -0.00061411   -0.00042215   -0.00009442
     atom    6 type  1   force =    -0.00061443   -0.00042220   -0.00009463
     atom    7 type  2   force =     0.00082697    0.00056821   -0.01796645
     atom    8 type  2   force =     0.00082656    0.00056821   -0.01796655
     atom    9 type  1   force =     0.00145861    0.00100256   -0.00069924
     atom   10 type  1   force =     0.00145860    0.00100208   -0.00069906
     atom   11 type  2   force =     0.00087510    0.00060068   -0.00004759
     atom   12 type  2   force =     0.00087409    0.00060083   -0.00004777

     Total force =     0.035880     Total SCF correction =     0.003012

     entering subroutine stress ...

     negative rho (up, down):  1.157E+00 0.000E+00
          total   stress  (Ry/bohr**3)                   (kbar)     P=  -17.31
  -0.00014741  -0.00000055   0.00000769        -21.68     -0.08      1.13
  -0.00000055  -0.00014699   0.00000529         -0.08    -21.62      0.78
   0.00000769   0.00000529  -0.00005870          1.13      0.78     -8.63

 !ASE

     Writing output data file calc.save

     General routines

     Parallel routines

   This run was terminated on:   2: 5:37  19Dec2018

   JOB DONE.
Job  /afs/slac/g/suncat/bin/suncat-tsmpirun -x LD_LIBRARY_PATH -wdir /scratch/qe530413_bMrLd pw.x -in pw.inp

TID   HOST_NAME   COMMAND_LINE            STATUS            TERMINATION_TIME
00000 suncat2063 pw.x -in pw.inp   Done                     12/19/2018 02:05:37
00001 suncat2063 pw.x -in pw.inp   Done                     12/19/2018 02:05:37
00002 suncat2063 pw.x -in pw.inp   Done                     12/19/2018 02:05:37
00003 suncat2063 pw.x -in pw.inp   Done                     12/19/2018 02:05:37
00004 suncat2063 pw.x -in pw.inp   Done                     12/19/2018 02:05:37
00005 suncat2063 pw.x -in pw.inp   Done                     12/19/2018 02:05:37
00006 suncat2063 pw.x -in pw.inp   Done                     12/19/2018 02:05:37
00007 suncat2063 pw.x -in pw.inp   Done                     12/19/2018 02:05:37
00008 suncat2063 pw.x -in pw.inp   Done                     12/19/2018 02:05:37
00009 suncat2063 pw.x -in pw.inp   Done                     12/19/2018 02:05:37
00010 suncat2063 pw.x -in pw.inp   Done                     12/19/2018 02:05:37
00011 suncat2063 pw.x -in pw.inp   Done                     12/19/2018 02:05:37
00012 suncat2063 pw.x -in pw.inp   Done                     12/19/2018 02:05:37
00013 suncat2063 pw.x -in pw.inp   Done                     12/19/2018 02:05:37
00014 suncat2063 pw.x -in pw.inp   Done                     12/19/2018 02:05:37
00015 suncat2063 pw.x -in pw.inp   Done                     12/19/2018 02:05:37
00016 suncat2042 pw.x -in pw.inp   Done                     12/19/2018 02:05:37
00017 suncat2042 pw.x -in pw.inp   Done                     12/19/2018 02:05:37
00018 suncat2042 pw.x -in pw.inp   Done                     12/19/2018 02:05:37
00019 suncat2042 pw.x -in pw.inp   Done                     12/19/2018 02:05:37
00020 suncat2042 pw.x -in pw.inp   Done                     12/19/2018 02:05:37
00021 suncat2042 pw.x -in pw.inp   Done                     12/19/2018 02:05:37
00022 suncat2042 pw.x -in pw.inp   Done                     12/19/2018 02:05:37
00023 suncat2042 pw.x -in pw.inp   Done                     12/19/2018 02:05:37
00024 suncat2042 pw.x -in pw.inp   Done                     12/19/2018 02:05:37
00025 suncat2042 pw.x -in pw.inp   Done                     12/19/2018 02:05:37
00026 suncat2042 pw.x -in pw.inp   Done                     12/19/2018 02:05:37
00027 suncat2042 pw.x -in pw.inp   Done                     12/19/2018 02:05:37
00028 suncat2042 pw.x -in pw.inp   Done                     12/19/2018 02:05:37
00029 suncat2042 pw.x -in pw.inp   Done                     12/19/2018 02:05:37
00030 suncat2042 pw.x -in pw.inp   Done                     12/19/2018 02:05:37
00031 suncat2042 pw.x -in pw.inp   Done                     12/19/2018 02:05:37