     Program PWSCF v.5.1rc2 (svn rev. 11289) starts on 19Dec2018 at  6: 4: 1

     Current dimensions of program PWSCF are:
     Max number of different atomic species (ntypx) = 10
     Max number of k-points (npk) =  40000
     Max angular momentum in pseudopotentials (lmaxx) =  3
     Presently stress not available with electric field

     IMPORTANT: XC functional enforced from input :
     Exchange-correlation      = BEEF-VDW ( 1  4 27 13 2)
     Any further DFT definition will be discarded
     Please, verify this is what you really want

     Subspace diagonalization in iterative solution of the eigenvalue problem:
     a serial algorithm will be used

     Found symmetry operation: I + ( -0.5000 -0.5000  0.0000)
     This is a supercell, fractional translations are disabled

     Generating pointlists ...
     new r_m :   0.4125 (alat units)  0.7795 (a.u.) for type    1
     new r_m :   0.4125 (alat units)  0.7795 (a.u.) for type    2

     bravais-lattice index     =            0
     lattice parameter (alat)  =       1.8897  a.u.
     unit-cell volume          =    4704.9193 (a.u.)^3
     number of atoms/cell      =           12
     number of atomic types    =            2
     number of electrons       =       186.00
     number of Kohn-Sham states=          123
     kinetic-energy cutoff     =      36.7493  Ry
     charge density cutoff     =     367.4932  Ry
     convergence threshold     =      1.0E-06
     mixing beta               =       0.1000
     number of iterations used =           10  plain     mixing
     Exchange-correlation      = BEEF-VDW ( 1  4 27 13 2)
     nstep                     =           50

     celldm(1)=   1.889726  celldm(2)=   0.000000  celldm(3)=   0.000000
     celldm(4)=   0.000000  celldm(5)=   0.000000  celldm(6)=   0.000000

     crystal axes: (cart. coord. in units of alat)
               a(1) = (   5.492413   0.000000   0.000000 )
               a(2) = (   1.809276   5.185858   0.000000 )
               a(3) = (   0.000000   0.000000  24.477765 )

     reciprocal axes: (cart. coord. in units 2 pi/alat)
               b(1) = (  0.182069 -0.063522  0.000000 )
               b(2) = (  0.000000  0.192832  0.000000 )
               b(3) = (  0.000000  0.000000  0.040853 )

     PseudoPot. # 1 for Co read from file:
     /afs/slac.stanford.edu/u/if/mamunm/psp/gbrv1.5pbe/Co.UPF
     MD5 check sum: 5f91765df6ddd3222702df6e7b74a16d
     Pseudo is Ultrasoft + core correction, Zval = 17.0
     Generated by new atomic code, or converted to UPF format
     Using radial grid of  863 points,  6 beta functions with:
                l(1) =   0
                l(2) =   0
                l(3) =   1
                l(4) =   1
                l(5) =   2
                l(6) =   2
     Q(r) pseudized with  8 coefficients,  rinner =    1.200   1.200   1.200
                                                       1.200   1.200

     PseudoPot. # 2 for Sn read from file:
     /afs/slac.stanford.edu/u/if/mamunm/psp/gbrv1.5pbe/Sn.UPF
     MD5 check sum: 469debedee59599fedebd795477fea03
     Pseudo is Ultrasoft + core correction, Zval = 14.0
     Generated by new atomic code, or converted to UPF format
     Using radial grid of  891 points,  6 beta functions with:
                l(1) =   0
                l(2) =   0
                l(3) =   1
                l(4) =   1
                l(5) =   2
                l(6) =   2
     Q(r) pseudized with  8 coefficients,  rinner =    1.350   1.350   1.350
                                                       1.350   1.350

     vdW kernel table read from file vdW_kernel_table
     MD5 check sum: 095c7af220d748ca6e76c0b4c6cfb241

     atomic species   valence    mass     pseudopotential
        Co1           17.00    58.93319     Co( 1.00)
        Sn1           14.00   118.71000     Sn( 1.00)

     Starting magnetic structure
     atomic species   magnetization
        Co1          0.118
        Sn1          0.143

     No symmetry found

   Cartesian axes

     site n.     atom                  positions (alat units)
         1           Co1 tau(   1) = (   0.0000000   0.0000000  10.0000000  )
         2           Co1 tau(   2) = (   3.6508447   2.5929290  10.0000000  )
         3           Sn1 tau(   3) = (   2.7462066   0.0000000  10.0000000  )
         4           Sn1 tau(   4) = (   0.9046381   2.5929290  10.0000000  )
         5           Co1 tau(   5) = (   5.4924132   3.9008610  12.2388825  )
         6           Co1 tau(   6) = (   1.8415686   1.3079320  12.2388825  )
         7           Sn1 tau(   7) = (   2.7462066   3.9008610  12.2388825  )
         8           Sn1 tau(   8) = (   4.5877752   1.3079320  12.2388825  )
         9           Co1 tau(   9) = (   3.6831371   2.6158640  14.4777649  )
        10           Co1 tau(  10) = (   0.0322925   0.0229350  14.4777649  )
        11           Sn1 tau(  11) = (   0.9369305   2.6158640  14.4777649  )
        12           Sn1 tau(  12) = (   2.7784991   0.0229350  14.4777649  )

     number of k points=    40  Fermi-Dirac smearing, width (Ry)=  0.0110
                       cart. coord. in units 2pi/alat
        k(    1) = (   0.0000000   0.0000000   0.0000000), wk =   0.0277778
        k(    2) = (   0.0000000   0.0321387   0.0000000), wk =   0.0555556
        k(    3) = (   0.0000000   0.0642774   0.0000000), wk =   0.0555556
        k(    4) = (   0.0000000  -0.0964161   0.0000000), wk =   0.0277778
        k(    5) = (   0.0303449  -0.0105869   0.0000000), wk =   0.0555556
        k(    6) = (   0.0303449   0.0215518   0.0000000), wk =   0.0555556
        k(    7) = (   0.0303449   0.0536905   0.0000000), wk =   0.0555556
        k(    8) = (   0.0303449  -0.1070030   0.0000000), wk =   0.0555556
        k(    9) = (   0.0303449  -0.0748643   0.0000000), wk =   0.0555556
        k(   10) = (   0.0303449  -0.0427256   0.0000000), wk =   0.0555556
        k(   11) = (   0.0606898  -0.0211738   0.0000000), wk =   0.0555556
        k(   12) = (   0.0606898   0.0109648   0.0000000), wk =   0.0555556
        k(   13) = (   0.0606898   0.0431035   0.0000000), wk =   0.0555556
        k(   14) = (   0.0606898  -0.1175899   0.0000000), wk =   0.0555556
        k(   15) = (   0.0606898  -0.0854512   0.0000000), wk =   0.0555556
        k(   16) = (   0.0606898  -0.0533125   0.0000000), wk =   0.0555556
        k(   17) = (  -0.0910347   0.0317608   0.0000000), wk =   0.0277778
        k(   18) = (  -0.0910347   0.0638995   0.0000000), wk =   0.0555556
        k(   19) = (  -0.0910347   0.0960381   0.0000000), wk =   0.0555556
        k(   20) = (  -0.0910347  -0.0646553   0.0000000), wk =   0.0277778
        k(   21) = (   0.0000000   0.0000000   0.0000000), wk =   0.0277778
        k(   22) = (   0.0000000   0.0321387   0.0000000), wk =   0.0555556
        k(   23) = (   0.0000000   0.0642774   0.0000000), wk =   0.0555556
        k(   24) = (   0.0000000  -0.0964161   0.0000000), wk =   0.0277778
        k(   25) = (   0.0303449  -0.0105869   0.0000000), wk =   0.0555556
        k(   26) = (   0.0303449   0.0215518   0.0000000), wk =   0.0555556
        k(   27) = (   0.0303449   0.0536905   0.0000000), wk =   0.0555556
        k(   28) = (   0.0303449  -0.1070030   0.0000000), wk =   0.0555556
        k(   29) = (   0.0303449  -0.0748643   0.0000000), wk =   0.0555556
        k(   30) = (   0.0303449  -0.0427256   0.0000000), wk =   0.0555556
        k(   31) = (   0.0606898  -0.0211738   0.0000000), wk =   0.0555556
        k(   32) = (   0.0606898   0.0109648   0.0000000), wk =   0.0555556
        k(   33) = (   0.0606898   0.0431035   0.0000000), wk =   0.0555556
        k(   34) = (   0.0606898  -0.1175899   0.0000000), wk =   0.0555556
        k(   35) = (   0.0606898  -0.0854512   0.0000000), wk =   0.0555556
        k(   36) = (   0.0606898  -0.0533125   0.0000000), wk =   0.0555556
        k(   37) = (  -0.0910347   0.0317608   0.0000000), wk =   0.0277778
        k(   38) = (  -0.0910347   0.0638995   0.0000000), wk =   0.0555556
        k(   39) = (  -0.0910347   0.0960381   0.0000000), wk =   0.0555556
        k(   40) = (  -0.0910347  -0.0646553   0.0000000), wk =   0.0277778

     Largest allocated arrays     est. size (Mb)     dimensions
     Largest temporary arrays     est. size (Mb)     dimensions

     Check: negative/imaginary core charge=   -0.000003    0.000000

     Initial potential from superposition of free atoms
     Check: negative starting charge=(component1):   -0.000558
     Check: negative starting charge=(component2):   -0.000420

     starting charge  173.99969, renormalised to  186.00000

     negative rho (up, down):  5.962E-04 4.485E-04

     *
     * You are using vdW-DF for exchange-correlation in this calculation.
     * Please cite the following three references that made this development
     * possible:
     *
     *   M. Dion, H. Rydberg, E. Schroder, D. C. Langreth, and
     *   B. I. Lundqvist, Phys. Rev. Lett. 92, 246401 (2004).
     *
     *   T. Thonhauser, V. R. Cooper, S. Li, A. Puzder, P. Hyldgaard, and
     *   D. C. Langreth, Phys. Rev. B 76, 125112 (2007).
     *
     *   G. Roman-Perez and J. M. Soler, Phys. Rev. Lett. 103, 096102 (2009).
     *
     *
     * If you are using vdW-DF2, please also cite:
     *
     *   K. Lee, E. D. Murray, L. Kong, B. I. Lundqvist, and
     *   D. C. Langreth, Phys. Rev. B 82, 081101(R) (2010).
     *
     *
     * If you are calculating the stress with vdW-DF, please also cite:
     *
     *   R. Sabatini, E. Kucukbenli, B. Kolb, T. Thonhauser, and
     *   S. de Gironcoli, J. Phys.: Condens. Matter 24, 424209 (2012).
     *

     Carrying out vdW-DF run using the following parameters:

     Nqs =      20    Nr_points =    1024   r_max =   100.000
     q_mesh =
               0.00001000     0.04494208     0.09755937     0.15916263
               0.23128650     0.31572767     0.41458969     0.53033537
               0.66584808     0.82450364     1.01025438     1.22772762
               1.48234092     1.78043706     2.12944203     2.53805004
               3.01644009     3.57652955     4.23227104     5.00000000

     Gradients computed in reciprocal space

     Adding external electric field

     Computed dipole along edir(3) :
        Dipole               -0.0000 Ry au,         -0.0000 Debye
        Dipole field         -0.0000 Ry au

        Potential amp.        0.0000 Ry
        Total length         45.0999 bohr

[...]

     Starting wfc are  132 randomized atomic wfcs

     Self-consistent Calculation

     iteration #  1     ecut=    36.75 Ry     beta=0.10
     Davidson diagonalization with overlap
     ethr =  1.00E-02,  avg # of iterations =  8.8

[...]

     Magnetic moment per site:
     atom:    1    charge:    8.4516    magn:    0.9464    constr:    0.0000
     atom:    2    charge:    8.4516    magn:    0.9465    constr:    0.0000
     atom:    3    charge:    3.6906    magn:    0.4826    constr:    0.0000
     atom:    4    charge:    3.6906    magn:    0.4826    constr:    0.0000
     atom:    5    charge:    8.4602    magn:    0.9480    constr:    0.0000
     atom:    6    charge:    8.4602    magn:    0.9480    constr:    0.0000
[...]
                l(5) =   2
                l(6) =   2
     Q(r) pseudized with  8 coefficients,  rinner =    1.200   1.200   1.200
                                                       1.200   1.200

     PseudoPot. # 2 for Sn read from file:
     /afs/slac.stanford.edu/u/if/mamunm/psp/gbrv1.5pbe/Sn.UPF
     MD5 check sum: 469debedee59599fedebd795477fea03
     Pseudo is Ultrasoft + core correction, Zval = 14.0
     Generated by new atomic code, or converted to UPF format
     Using radial grid of  891 points,  6 beta functions with:
                l(1) =   0
                l(2) =   0
                l(3) =   1
                l(4) =   1
                l(5) =   2
                l(6) =   2
     Q(r) pseudized with  8 coefficients,  rinner =    1.350   1.350   1.350
                                                       1.350   1.350

     vdW kernel table read from file vdW_kernel_table
     MD5 check sum: 095c7af220d748ca6e76c0b4c6cfb241

     atomic species   valence    mass     pseudopotential
        Co1           17.00    58.93319     Co( 1.00)
        Sn1           14.00   118.71000     Sn( 1.00)

     Starting magnetic structure
     atomic species   magnetization
        Co1          0.118
        Sn1          0.143

     No symmetry found

   Cartesian axes

     site n.     atom                  positions (alat units)
         1           Co1 tau(   1) = (   0.0000000   0.0000000  10.0000000  )
         2           Co1 tau(   2) = (   3.6508447   2.5929290  10.0000000  )
         3           Sn1 tau(   3) = (   2.7462066   0.0000000  10.0000000  )
         4           Sn1 tau(   4) = (   0.9046381   2.5929290  10.0000000  )
         5           Co1 tau(   5) = (   5.4924132   3.9008610  12.2388825  )
         6           Co1 tau(   6) = (   1.8415686   1.3079320  12.2388825  )
         7           Sn1 tau(   7) = (   2.7462066   3.9008610  12.2388825  )
         8           Sn1 tau(   8) = (   4.5877752   1.3079320  12.2388825  )
         9           Co1 tau(   9) = (   3.6845464   2.6168643  14.3050645  )
        10           Co1 tau(  10) = (   0.0336510   0.0239001  14.3052055  )
        11           Sn1 tau(  11) = (   0.9304569   2.6113416  14.7025591  )
        12           Sn1 tau(  12) = (   2.7720998   0.0183147  14.7025618  )

     number of k points=    40  Fermi-Dirac smearing, width (Ry)=  0.0110
                       cart. coord. in units 2pi/alat
        k(    1) = (   0.0000000   0.0000000   0.0000000), wk =   0.0277778
        k(    2) = (   0.0000000   0.0321387   0.0000000), wk =   0.0555556
        k(    3) = (   0.0000000   0.0642774   0.0000000), wk =   0.0555556
        k(    4) = (   0.0000000  -0.0964161   0.0000000), wk =   0.0277778
        k(    5) = (   0.0303449  -0.0105869   0.0000000), wk =   0.0555556
        k(    6) = (   0.0303449   0.0215518   0.0000000), wk =   0.0555556
        k(    7) = (   0.0303449   0.0536905   0.0000000), wk =   0.0555556
        k(    8) = (   0.0303449  -0.1070030   0.0000000), wk =   0.0555556
        k(    9) = (   0.0303449  -0.0748643   0.0000000), wk =   0.0555556
        k(   10) = (   0.0303449  -0.0427256   0.0000000), wk =   0.0555556
        k(   11) = (   0.0606898  -0.0211738   0.0000000), wk =   0.0555556
        k(   12) = (   0.0606898   0.0109648   0.0000000), wk =   0.0555556
        k(   13) = (   0.0606898   0.0431035   0.0000000), wk =   0.0555556
        k(   14) = (   0.0606898  -0.1175899   0.0000000), wk =   0.0555556
        k(   15) = (   0.0606898  -0.0854512   0.0000000), wk =   0.0555556
        k(   16) = (   0.0606898  -0.0533125   0.0000000), wk =   0.0555556
        k(   17) = (  -0.0910347   0.0317608   0.0000000), wk =   0.0277778
        k(   18) = (  -0.0910347   0.0638995   0.0000000), wk =   0.0555556
        k(   19) = (  -0.0910347   0.0960381   0.0000000), wk =   0.0555556
        k(   20) = (  -0.0910347  -0.0646553   0.0000000), wk =   0.0277778
        k(   21) = (   0.0000000   0.0000000   0.0000000), wk =   0.0277778
        k(   22) = (   0.0000000   0.0321387   0.0000000), wk =   0.0555556
        k(   23) = (   0.0000000   0.0642774   0.0000000), wk =   0.0555556
        k(   24) = (   0.0000000  -0.0964161   0.0000000), wk =   0.0277778
        k(   25) = (   0.0303449  -0.0105869   0.0000000), wk =   0.0555556
        k(   26) = (   0.0303449   0.0215518   0.0000000), wk =   0.0555556
        k(   27) = (   0.0303449   0.0536905   0.0000000), wk =   0.0555556
        k(   28) = (   0.0303449  -0.1070030   0.0000000), wk =   0.0555556
        k(   29) = (   0.0303449  -0.0748643   0.0000000), wk =   0.0555556
        k(   30) = (   0.0303449  -0.0427256   0.0000000), wk =   0.0555556
        k(   31) = (   0.0606898  -0.0211738   0.0000000), wk =   0.0555556
        k(   32) = (   0.0606898   0.0109648   0.0000000), wk =   0.0555556
        k(   33) = (   0.0606898   0.0431035   0.0000000), wk =   0.0555556
        k(   34) = (   0.0606898  -0.1175899   0.0000000), wk =   0.0555556
        k(   35) = (   0.0606898  -0.0854512   0.0000000), wk =   0.0555556
        k(   36) = (   0.0606898  -0.0533125   0.0000000), wk =   0.0555556
        k(   37) = (  -0.0910347   0.0317608   0.0000000), wk =   0.0277778
        k(   38) = (  -0.0910347   0.0638995   0.0000000), wk =   0.0555556
        k(   39) = (  -0.0910347   0.0960381   0.0000000), wk =   0.0555556
        k(   40) = (  -0.0910347  -0.0646553   0.0000000), wk =   0.0277778

     Largest allocated arrays     est. size (Mb)     dimensions
     Largest temporary arrays     est. size (Mb)     dimensions

     Check: negative/imaginary core charge=   -0.000003    0.000000

     Initial potential from superposition of free atoms
     Check: negative starting charge=(component1):   -0.000581
     Check: negative starting charge=(component2):   -0.000438

     starting charge  173.99969, renormalised to  186.00000

[...]

     *
     * You are using vdW-DF for exchange-correlation in this calculation.
     * Please cite the following three references that made this development
     * possible:
     *
     *   M. Dion, H. Rydberg, E. Schroder, D. C. Langreth, and
     *   B. I. Lundqvist, Phys. Rev. Lett. 92, 246401 (2004).
     *
     *   T. Thonhauser, V. R. Cooper, S. Li, A. Puzder, P. Hyldgaard, and
     *   D. C. Langreth, Phys. Rev. B 76, 125112 (2007).
     *
     *   G. Roman-Perez and J. M. Soler, Phys. Rev. Lett. 103, 096102 (2009).
     *
     *
     * If you are using vdW-DF2, please also cite:
     *
     *   K. Lee, E. D. Murray, L. Kong, B. I. Lundqvist, and
     *   D. C. Langreth, Phys. Rev. B 82, 081101(R) (2010).
     *
     *
     * If you are calculating the stress with vdW-DF, please also cite:
     *
     *   R. Sabatini, E. Kucukbenli, B. Kolb, T. Thonhauser, and
     *   S. de Gironcoli, J. Phys.: Condens. Matter 24, 424209 (2012).
     *

     Carrying out vdW-DF run using the following parameters:

     Nqs =      20    Nr_points =    1024   r_max =   100.000
     q_mesh =
               0.00001000     0.04494208     0.09755937     0.15916263
               0.23128650     0.31572767     0.41458969     0.53033537
               0.66584808     0.82450364     1.01025438     1.22772762
               1.48234092     1.78043706     2.12944203     2.53805004
               3.01644009     3.57652955     4.23227104     5.00000000

     Gradients computed in reciprocal space

[...]

     Starting wfc are  132 randomized atomic wfcs

     Self-consistent Calculation

[...]

     total energy              =   -2761.24730029 Ry
     Harris-Foulkes estimate   =   -2761.24730029 Ry
     estimated scf accuracy    <       0.00000126 Ry

[...]

     iteration # 35     ecut=    36.75 Ry     beta=0.10
     Davidson diagonalization with overlap
     ethr =  6.80E-10,  avg # of iterations =  1.2

[...]

     negative rho (up, down):  4.373E-04 3.591E-04

[...]

     Adding external electric field

     Computed dipole along edir(3) :
        Dipole                0.0289 Ry au,          0.0735 Debye
        Dipole field          0.0001 Ry au

        Potential amp.       -0.0070 Ry
        Total length         45.0999 bohr

     Magnetic moment per site:
     atom:    1    charge:    8.3030    magn:    0.5957    constr:    0.0000
     atom:    2    charge:    8.3031    magn:    0.5956    constr:    0.0000
     atom:    3    charge:    3.5169    magn:   -0.0020    constr:    0.0000
     atom:    4    charge:    3.5169    magn:   -0.0020    constr:    0.0000
     atom:    5    charge:    8.2991    magn:    0.4250    constr:    0.0000
     atom:    6    charge:    8.2991    magn:    0.4249    constr:    0.0000
     atom:    7    charge:    3.5228    magn:   -0.0037    constr:    0.0000
     atom:    8    charge:    3.5228    magn:   -0.0037    constr:    0.0000
     atom:    9    charge:    8.3064    magn:    0.5387    constr:    0.0000
     atom:   10    charge:    8.3064    magn:    0.5387    constr:    0.0000
     atom:   11    charge:    3.5182    magn:   -0.0013    constr:    0.0000
     atom:   12    charge:    3.5182    magn:   -0.0013    constr:    0.0000

     End of self-consistent calculation

 ------ SPIN UP ------------

[...]

 ------ SPIN DOWN ----------

[...]

          k = 0.0607-0.0533 0.0000 ( 17691 PWs)   bands (ev):

[...]

          k =-0.0910-0.0647 0.0000 ( 17796 PWs)   bands (ev):

   -92.9175 -92.9170 -92.7735 -92.7730 -92.7390 -92.7385 -56.3137 -56.3127
   -56.2801 -56.2693 -56.2363 -56.2349 -56.1833 -56.1826 -56.1655 -56.1606
   -56.1597 -56.1546 -56.1450 -56.1343 -56.0724 -56.0715 -56.0205 -56.0197
   -20.9564 -20.8954 -20.8716 -20.8517 -20.8505 -20.8350 -20.8251 -20.8013
   -20.7831 -20.7607 -20.7205 -20.7138 -20.6965 -20.6823 -20.6454 -20.6299
   -20.6189 -20.6129 -20.6008 -20.5976 -20.5976 -20.5963 -20.5926 -20.5894
   -20.5872 -20.5588 -20.5446 -20.5369 -20.4932 -20.4837  -8.4226  -8.0251
    -7.1689  -7.0589  -5.3830  -4.9707  -4.6979  -3.5631  -3.2526  -3.1475
    -2.5120  -2.2376  -2.0717  -1.1738  -1.0218  -0.9085  -0.3353  -0.2476
    -0.2302  -0.1586  -0.1058  -0.1024  -0.0293   0.0544   0.1433   0.1761
     0.3331   0.4693   0.6473   0.7027   0.7194   0.7280   0.7615   0.8531
     1.0962   1.1484   1.1636   1.2335   1.4947   1.5900   1.5978   1.9560
     2.0479   2.4490   2.4815   3.1502   4.3040   4.4393   4.4630   4.5170
     4.9210   5.4020   5.6551   5.7227   5.8348   6.2723   6.4649   6.5038
     6.8251   6.8459   6.8999   7.0646   7.4517   7.5693   7.6243   7.6570
     7.8802   7.9243   8.0846

     the Fermi energy is     1.0578 ev

!    total energy              =   -2761.24730090 Ry
     Harris-Foulkes estimate   =   -2761.24730057 Ry
     estimated scf accuracy    <       0.00000037 Ry

     The total energy is the sum of the following terms:

     one-electron contribution =  -19193.84857602 Ry
     hartree contribution      =    9636.13808204 Ry
     xc contribution           =    -470.35380751 Ry
     ewald contribution        =    7266.88407753 Ry
     electric field correction =       0.00000223 Ry
     smearing contrib. (-TS)   =      -0.06707916 Ry

     total magnetization       =     5.47 Bohr mag/cell
     absolute magnetization    =     6.70 Bohr mag/cell

     convergence has been achieved in  35 iterations

 BEEF-vdW xc energy contributions
           1 :   -413.803356495720
           2 :    377.521217005984
           3 :   -315.880344666654
           4 :    245.756401926168
           5 :   -182.942260770343
           6 :    136.514433871444
           7 :   -107.046552935130
           8 :    88.9060031290783
           9 :   -74.8560626167113
          10 :    60.2338759415534
          11 :   -44.6564792739302
          12 :    30.8578781125704
          13 :   -21.9439037510772
          14 :    18.9922119860350
          15 :   -20.3921791814520
          16 :    23.0110444172626
          17 :   -24.1677105553049
          18 :    23.0464369111982
          19 :   -20.7547919254466
          20 :    19.1756391550065
          21 :   -19.5171685070179
          22 :    21.5211368402348
          23 :   -23.7602545242846
          24 :    24.6882560904500
          25 :   -23.6737111766574
          26 :    21.3335328704961
          27 :   -19.0254031702110
          28 :    17.9070695326272
          29 :   -18.2216241793412
          30 :    19.2440841212797
          31 :   -35.6643883362574
          32 :   -25.5386940452270

     Forces acting on atoms (Ry/au):

     negative rho (up, down):  4.373E-04 3.591E-04
     atom    1 type  1   force =    -0.00021516   -0.00015269    0.02923623
     atom    2 type  1   force =    -0.00021719   -0.00015445    0.02923002
     atom    3 type  2   force =     0.00109733    0.00078489   -0.03335096
     atom    4 type  2   force =     0.00110214    0.00077769   -0.03335021
     atom    5 type  1   force =     0.00037870    0.00026971    0.00934091
     atom    6 type  1   force =     0.00037020    0.00026211    0.00933412
     atom    7 type  2   force =    -0.00087787   -0.00058873   -0.00484150
     atom    8 type  2   force =    -0.00084513   -0.00063547   -0.00484079
     atom    9 type  1   force =    -0.00106119   -0.00075380   -0.00110275
     atom   10 type  1   force =    -0.00104269   -0.00074062   -0.00111904
     atom   11 type  2   force =     0.00066873    0.00044741    0.00073212
     atom   12 type  2   force =     0.00064211    0.00048396    0.00073184

     Total force =     0.064572     Total SCF correction =     0.000871

     entering subroutine stress ...

     negative rho (up, down):  4.373E-04 3.591E-04
          total   stress  (Ry/bohr**3)                   (kbar)     P=  -21.08
  -0.00021332  -0.00003653  -0.00000202        -31.38     -5.37     -0.30
  -0.00003653  -0.00018783  -0.00000143         -5.37    -27.63     -0.21
  -0.00000202  -0.00000143  -0.00002880         -0.30     -0.21     -4.24

 !ASE

     Writing output data file calc.save

     General routines

     Parallel routines

   This run was terminated on:   8:37:18  19Dec2018

   JOB DONE.
Job  /afs/slac/g/suncat/bin/suncat-tsmpirun -x LD_LIBRARY_PATH -wdir /scratch/qe529700_IjPT4 pw.x -in pw.inp

TID   HOST_NAME   COMMAND_LINE            STATUS            TERMINATION_TIME
00000 suncat0109 pw.x -in pw.inp   Done                     12/19/2018 08:37:18
00001 suncat0109 pw.x -in pw.inp   Done                     12/19/2018 08:37:18
00002 suncat0109 pw.x -in pw.inp   Done                     12/19/2018 08:37:18
00003 suncat0109 pw.x -in pw.inp   Done                     12/19/2018 08:37:18
00004 suncat0109 pw.x -in pw.inp   Done                     12/19/2018 08:37:18
00005 suncat0109 pw.x -in pw.inp   Done                     12/19/2018 08:37:18
00006 suncat0109 pw.x -in pw.inp   Done                     12/19/2018 08:37:18
00007 suncat0109 pw.x -in pw.inp   Done                     12/19/2018 08:37:18
00008 suncat0108 pw.x -in pw.inp   Done                     12/19/2018 08:37:18
00009 suncat0108 pw.x -in pw.inp   Done                     12/19/2018 08:37:18
00010 suncat0108 pw.x -in pw.inp   Done                     12/19/2018 08:37:18
00011 suncat0108 pw.x -in pw.inp   Done                     12/19/2018 08:37:18
00012 suncat0108 pw.x -in pw.inp   Done                     12/19/2018 08:37:18
00013 suncat0108 pw.x -in pw.inp   Done                     12/19/2018 08:37:18
00014 suncat0108 pw.x -in pw.inp   Done                     12/19/2018 08:37:18
00015 suncat0108 pw.x -in pw.inp   Done                     12/19/2018 08:37:18
00016 suncat0107 pw.x -in pw.inp   Done                     12/19/2018 08:37:18
00017 suncat0107 pw.x -in pw.inp   Done                     12/19/2018 08:37:18
00018 suncat0107 pw.x -in pw.inp   Done                     12/19/2018 08:37:18
00019 suncat0107 pw.x -in pw.inp   Done                     12/19/2018 08:37:18
00020 suncat0107 pw.x -in pw.inp   Done                     12/19/2018 08:37:18
00021 suncat0107 pw.x -in pw.inp   Done                     12/19/2018 08:37:18
00022 suncat0107 pw.x -in pw.inp   Done                     12/19/2018 08:37:18
00023 suncat0107 pw.x -in pw.inp   Done                     12/19/2018 08:37:18
00024 suncat0106 pw.x -in pw.inp   Done                     12/19/2018 08:37:18
00025 suncat0106 pw.x -in pw.inp   Done                     12/19/2018 08:37:18
00026 suncat0106 pw.x -in pw.inp   Done                     12/19/2018 08:37:18
00027 suncat0106 pw.x -in pw.inp   Done                     12/19/2018 08:37:18
00028 suncat0106 pw.x -in pw.inp   Done                     12/19/2018 08:37:18
00029 suncat0106 pw.x -in pw.inp   Done                     12/19/2018 08:37:18
00030 suncat0106 pw.x -in pw.inp   Done                     12/19/2018 08:37:18
00031 suncat0106 pw.x -in pw.inp   Done                     12/19/2018 08:37:18