     Program PWSCF v.5.1rc2 (svn rev. 11289) starts on 24Dec2018 at 17:55:53

     Current dimensions of program PWSCF are:
     Max number of different atomic species (ntypx) = 10
     Max number of k-points (npk) =  40000
     Max angular momentum in pseudopotentials (lmaxx) =  3
     Presently stress not available with electric field

     IMPORTANT: XC functional enforced from input :
     Exchange-correlation      = BEEF-VDW ( 1  4 27 13 2)
     Any further DFT definition will be discarded
     Please, verify this is what you really want

     Subspace diagonalization in iterative solution of the eigenvalue problem:
     a serial algorithm will be used

     Found symmetry operation: I + ( -0.5000 -0.5000  0.0000)
     This is a supercell, fractional translations are disabled

     bravais-lattice index     =            0
     lattice parameter (alat)  =       1.8897  a.u.
     unit-cell volume          =    4621.2434 (a.u.)^3
     number of atoms/cell      =           12
     number of atomic types    =            2
     number of electrons       =       210.00
     number of Kohn-Sham states=          135
     kinetic-energy cutoff     =      36.7493  Ry
     charge density cutoff     =     367.4932  Ry
     convergence threshold     =      1.0E-06
     mixing beta               =       0.1000
     number of iterations used =           10  plain     mixing
     Exchange-correlation      = BEEF-VDW ( 1  4 27 13 2)
     nstep                     =           50

     celldm(1)=   1.889726  celldm(2)=   0.000000  celldm(3)=   0.000000
     celldm(4)=   0.000000  celldm(5)=   0.000000  celldm(6)=   0.000000

     crystal axes: (cart. coord. in units of alat)
               a(1) = (   5.447090   0.000000   0.000000 )
               a(2) = (   1.791813   5.143948   0.000000 )
               a(3) = (   0.000000   0.000000  24.439994 )

     reciprocal axes: (cart. coord. in units 2 pi/alat)
               b(1) = (  0.183584 -0.063949  0.000000 )
               b(2) = (  0.000000  0.194403  0.000000 )
               b(3) = (  0.000000  0.000000  0.040917 )

     PseudoPot. # 1 for Ga read from file:
     /afs/slac.stanford.edu/u/if/mamunm/psp/gbrv1.5pbe/Ga.UPF
     MD5 check sum: ccd671392a58a050fbb373893b4fcd66
     Pseudo is Ultrasoft + core correction, Zval = 19.0
     Generated by new atomic code, or converted to UPF format
     Using radial grid of  871 points,  6 beta functions with:
                l(1) =   0
                l(2) =   0
                l(3) =   1
                l(4) =   1
                l(5) =   2
                l(6) =   2
     Q(r) pseudized with  8 coefficients,  rinner =    1.250   1.250   1.250
                                                       1.250   1.250

     PseudoPot. # 2 for Pt read from file:
     /afs/slac.stanford.edu/u/if/mamunm/psp/gbrv1.5pbe/Pt.UPF
     MD5 check sum: f09d6de1a584b5a045c4fc126da2d0c4
     Pseudo is Ultrasoft + core correction, Zval = 16.0
     Generated by new atomic code, or converted to UPF format
     Using radial grid of  985 points,  6 beta functions with:
                l(1) =   0
                l(2) =   0
                l(3) =   1
                l(4) =   1
                l(5) =   2
                l(6) =   2
     Q(r) pseudized with  8 coefficients,  rinner =    1.300   1.300   1.300
                                                       1.300   1.300

     vdW kernel table read from file vdW_kernel_table
     MD5 check sum: 095c7af220d748ca6e76c0b4c6cfb241

     atomic species   valence    mass     pseudopotential
        Ga1           19.00    69.72300     Ga( 1.00)
        Pt1           16.00   195.08400     Pt( 1.00)

     No symmetry found

   Cartesian axes

     site n.     atom                  positions (alat units)
         1           Ga1 tau(   1) = (   0.0000000   0.0000000  10.0000000  )
         2           Ga1 tau(   2) = (   3.6194516   2.5719739  10.0000000  )
         3           Pt1 tau(   3) = (   2.7235452   0.0000000  10.0000000  )
         4           Pt1 tau(   4) = (   0.8959065   2.5719739  10.0000000  )
         5           Ga1 tau(   5) = (   5.4470904   3.8706898  12.2199971  )
         6           Ga1 tau(   6) = (   1.8276387   1.2987158  12.2199971  )
         7           Pt1 tau(   7) = (   2.7235452   3.8706898  12.2199971  )
         8           Pt1 tau(   8) = (   4.5511839   1.2987158  12.2199971  )
         9           Ga1 tau(   9) = (   3.6552775   2.5974317  14.4399942  )
        10           Ga1 tau(  10) = (   0.0358258   0.0254577  14.4399942  )
        11           Pt1 tau(  11) = (   0.9317323   2.5974317  14.4399942  )
        12           Pt1 tau(  12) = (   2.7593710   0.0254577  14.4399942  )

     number of k points=    20  Fermi-Dirac smearing, width (Ry)=  0.0110
                       cart. coord. in units 2pi/alat
        k(    1) = (   0.0000000   0.0000000   0.0000000), wk =   0.0555556
        k(    2) = (   0.0000000   0.0324005   0.0000000), wk =   0.1111111
        k(    3) = (   0.0000000   0.0648011   0.0000000), wk =   0.1111111
        k(    4) = (   0.0000000  -0.0972016   0.0000000), wk =   0.0555556
        k(    5) = (   0.0305974  -0.0106581   0.0000000), wk =   0.1111111
        k(    6) = (   0.0305974   0.0217424   0.0000000), wk =   0.1111111
        k(    7) = (   0.0305974   0.0541430   0.0000000), wk =   0.1111111
        k(    8) = (   0.0305974  -0.1078597   0.0000000), wk =   0.1111111
        k(    9) = (   0.0305974  -0.0754592   0.0000000), wk =   0.1111111
        k(   10) = (   0.0305974  -0.0430586   0.0000000), wk =   0.1111111
        k(   11) = (   0.0611948  -0.0213162   0.0000000), wk =   0.1111111
        k(   12) = (   0.0611948   0.0110843   0.0000000), wk =   0.1111111
        k(   13) = (   0.0611948   0.0434848   0.0000000), wk =   0.1111111
        k(   14) = (   0.0611948  -0.1185178   0.0000000), wk =   0.1111111
        k(   15) = (   0.0611948  -0.0861173   0.0000000), wk =   0.1111111
        k(   16) = (   0.0611948  -0.0537168   0.0000000), wk =   0.1111111
        k(   17) = (  -0.0917921   0.0319743   0.0000000), wk =   0.0555556
        k(   18) = (  -0.0917921   0.0643749   0.0000000), wk =   0.1111111
        k(   19) = (  -0.0917921   0.0967754   0.0000000), wk =   0.1111111
        k(   20) = (  -0.0917921  -0.0652273   0.0000000), wk =   0.0555556

     Largest allocated arrays     est. size (Mb)     dimensions
     Largest temporary arrays     est. size (Mb)     dimensions

     Initial potential from superposition of free atoms
     Check: negative starting charge=   -1.115690

     starting charge  200.99993, renormalised to  210.00000

     negative rho (up, down):  1.166E+00 0.000E+00

     *
     * You are using vdW-DF for exchange-correlation in this calculation.
     * Please cite the following three references that made this development
     * possible:
     *
     *   M. Dion, H. Rydberg, E. Schroder, D. C. Langreth, and
     *   B. I. Lundqvist, Phys. Rev. Lett. 92, 246401 (2004).
     *
     *   T. Thonhauser, V. R. Cooper, S. Li, A. Puzder, P. Hyldgaard, and
     *   D. C. Langreth, Phys. Rev. B 76, 125112 (2007).
     *
     *   G. Roman-Perez and J. M. Soler, Phys. Rev. Lett. 103, 096102 (2009).
     *
     *
     * If you are using vdW-DF2, please also cite:
     *
     *   K. Lee, E. D. Murray, L. Kong, B. I. Lundqvist, and
     *   D. C. Langreth, Phys. Rev. B 82, 081101(R) (2010).
     *
     *
     * If you are calculating the stress with vdW-DF, please also cite:
     *
     *   R. Sabatini, E. Kucukbenli, B. Kolb, T. Thonhauser, and
     *   S. de Gironcoli, J. Phys.: Condens. Matter 24, 424209 (2012).
     *

     Carrying out vdW-DF run using the following parameters:

     Nqs =      20    Nr_points =    1024   r_max =   100.000
     q_mesh =
               0.00001000     0.04494208     0.09755937     0.15916263
               0.23128650     0.31572767     0.41458969     0.53033537
               0.66584808     0.82450364     1.01025438     1.22772762
               1.48234092     1.78043706     2.12944203     2.53805004
               3.01644009     3.57652955     4.23227104     5.00000000

     Gradients computed in reciprocal space

     Adding external electric field

     Computed dipole along edir(3) :
        Dipole                0.0000 Ry au,          0.0000 Debye
        Dipole field          0.0000 Ry au

        Potential amp.       -0.0000 Ry
        Total length         45.0303 bohr

     Starting wfc are  144 randomized atomic wfcs

     Self-consistent Calculation

     iteration #  1     ecut=    36.75 Ry     beta=0.10
     Davidson diagonalization with overlap
     ethr =  1.00E-02,  avg # of iterations =  7.5

[...]

     total energy              =   -3774.38150620 Ry
     Harris-Foulkes estimate   =   -3783.34346337 Ry
     estimated scf accuracy    <      51.82800252 Ry

[...]

     End of self-consistent calculation

          k = 0.0000 0.0000 0.0000 ( 17327 PWs)   bands (ev):

   -93.9476 -93.9465 -93.9384 -93.9384 -93.9372 -93.9371 -93.7339 -93.7339
   -93.7338 -93.7338 -93.7021 -93.7018 -93.7010 -93.7006 -93.6664 -93.6663
   -93.6662 -93.6661 -51.9824 -51.9272 -51.9268 -51.9228 -51.9193 -51.9151
   -51.5725 -51.5714 -51.5683 -51.5668 -51.5332 -51.5331 -51.4787 -51.4786
   -51.3350 -51.3339 -51.3300 -51.3293 -14.3890 -14.3873 -14.3592 -14.3437
   -14.3262 -14.3163 -14.3033 -14.3014 -14.2855 -14.2361 -14.1315 -14.1293
   -14.1116 -14.0956 -14.0948 -14.0917 -14.0653 -14.0615 -14.0521 -14.0497
   -14.0450 -14.0367 -14.0360 -14.0285 -14.0194 -14.0193 -14.0175 -14.0045
   -13.9555 -13.9457  -9.5641  -7.5587  -6.2375  -6.1834  -5.7698  -5.4324
    -3.6553  -3.6076  -3.2525  -3.2270  -3.0664  -3.0230  -2.8435  -2.8172
    -2.3735  -2.3610  -2.2291  -1.8105  -1.8101  -1.6917  -1.6714  -1.6383
    -1.5252  -1.3734  -1.3155  -1.1004  -1.0631  -0.9473  -0.7196  -0.7162
    -0.6936  -0.6723  -0.6167  -0.5736  -0.1270   0.0380   0.0566   0.1056
     0.3626   0.4944   0.7294   2.0352   2.0754   2.2730   2.8098   2.9514
     3.3829   3.6591   3.9681   4.1740   4.6216   4.7533   5.3011   5.3452
     5.7214   5.9876   6.0786   6.6104   6.9114   7.0374   7.2393   7.9914
     8.1364   8.4104   8.4448   8.8113   8.8161   9.2481  10.0094

[...]

          k =-0.0918 0.0320 0.0000 ( 17344 PWs)   bands (ev):

[...]

     the Fermi energy is     1.0718 ev

!    total energy              =   -3774.03113040 Ry
     Harris-Foulkes estimate   =   -3774.03112259 Ry
     estimated scf accuracy    <       0.00000011 Ry

     The total energy is the sum of the following terms:

     one-electron contribution =  -25284.81141619 Ry
     hartree contribution      =   12662.99526831 Ry
     xc contribution           =    -650.66238843 Ry
     ewald contribution        =    9498.47897657 Ry
     electric field correction =       0.00000000 Ry
     smearing contrib. (-TS)   =      -0.03157066 Ry

     convergence has been achieved in  17 iterations

 BEEF-vdW xc energy contributions
           1 :   -580.618626969044
           2 :    534.617983868445
           3 :   -454.900755102571
           4 :    360.663615639967
           5 :   -270.452114741607
[...]
     Generated by new atomic code, or converted to UPF format
     Using radial grid of  871 points,  6 beta functions with:
                l(1) =   0
                l(2) =   0
                l(3) =   1
                l(4) =   1
                l(5) =   2
                l(6) =   2
     Q(r) pseudized with  8 coefficients,  rinner =    1.250   1.250   1.250
                                                       1.250   1.250

     PseudoPot. # 2 for Pt read from file:
     /afs/slac.stanford.edu/u/if/mamunm/psp/gbrv1.5pbe/Pt.UPF
     MD5 check sum: f09d6de1a584b5a045c4fc126da2d0c4
     Pseudo is Ultrasoft + core correction, Zval = 16.0
     Generated by new atomic code, or converted to UPF format
     Using radial grid of  985 points,  6 beta functions with:
                l(1) =   0
                l(2) =   0
                l(3) =   1
                l(4) =   1
                l(5) =   2
                l(6) =   2
     Q(r) pseudized with  8 coefficients,  rinner =    1.300   1.300   1.300
                                                       1.300   1.300

     vdW kernel table read from file vdW_kernel_table
     MD5 check sum: 095c7af220d748ca6e76c0b4c6cfb241

     atomic species   valence    mass     pseudopotential
        Ga1           19.00    69.72300     Ga( 1.00)
        Pt1           16.00   195.08400     Pt( 1.00)

     No symmetry found

   Cartesian axes

     site n.     atom                  positions (alat units)
         1           Ga1 tau(   1) = (   0.0000000   0.0000000  10.0000000  )
         2           Ga1 tau(   2) = (   3.6194516   2.5719739  10.0000000  )
         3           Pt1 tau(   3) = (   2.7235452   0.0000000  10.0000000  )
         4           Pt1 tau(   4) = (   0.8959065   2.5719739  10.0000000  )
         5           Ga1 tau(   5) = (   5.4470904   3.8706898  12.2199971  )
         6           Ga1 tau(   6) = (   1.8276387   1.2987158  12.2199971  )
         7           Pt1 tau(   7) = (   2.7235452   3.8706898  12.2199971  )
         8           Pt1 tau(   8) = (   4.5511839   1.2987158  12.2199971  )
         9           Ga1 tau(   9) = (   3.6516095   2.5947246  14.6561614  )
        10           Ga1 tau(  10) = (   0.0322108   0.0227813  14.6562111  )
        11           Pt1 tau(  11) = (   0.9263447   2.5935925  14.3208604  )
        12           Pt1 tau(  12) = (   2.7540009   0.0216154  14.3208584  )

     number of k points=    20  Fermi-Dirac smearing, width (Ry)=  0.0110
                       cart. coord. in units 2pi/alat
        k(    1) = (   0.0000000   0.0000000   0.0000000), wk =   0.0555556
        k(    2) = (   0.0000000   0.0324005   0.0000000), wk =   0.1111111
        k(    3) = (   0.0000000   0.0648011   0.0000000), wk =   0.1111111
        k(    4) = (   0.0000000  -0.0972016   0.0000000), wk =   0.0555556
        k(    5) = (   0.0305974  -0.0106581   0.0000000), wk =   0.1111111
        k(    6) = (   0.0305974   0.0217424   0.0000000), wk =   0.1111111
        k(    7) = (   0.0305974   0.0541430   0.0000000), wk =   0.1111111
        k(    8) = (   0.0305974  -0.1078597   0.0000000), wk =   0.1111111
        k(    9) = (   0.0305974  -0.0754592   0.0000000), wk =   0.1111111
        k(   10) = (   0.0305974  -0.0430586   0.0000000), wk =   0.1111111
        k(   11) = (   0.0611948  -0.0213162   0.0000000), wk =   0.1111111
        k(   12) = (   0.0611948   0.0110843   0.0000000), wk =   0.1111111
        k(   13) = (   0.0611948   0.0434848   0.0000000), wk =   0.1111111
        k(   14) = (   0.0611948  -0.1185178   0.0000000), wk =   0.1111111
        k(   15) = (   0.0611948  -0.0861173   0.0000000), wk =   0.1111111
        k(   16) = (   0.0611948  -0.0537168   0.0000000), wk =   0.1111111
        k(   17) = (  -0.0917921   0.0319743   0.0000000), wk =   0.0555556
        k(   18) = (  -0.0917921   0.0643749   0.0000000), wk =   0.1111111
        k(   19) = (  -0.0917921   0.0967754   0.0000000), wk =   0.1111111
        k(   20) = (  -0.0917921  -0.0652273   0.0000000), wk =   0.0555556

     Largest allocated arrays     est. size (Mb)     dimensions
     Largest temporary arrays     est. size (Mb)     dimensions

     Initial potential from superposition of free atoms
     Check: negative starting charge=   -1.116382

     starting charge  200.99993, renormalised to  210.00000

[...]

     *
     * You are using vdW-DF for exchange-correlation in this calculation.
     * Please cite the following three references that made this development
     * possible:
     *
     *   M. Dion, H. Rydberg, E. Schroder, D. C. Langreth, and
     *   B. I. Lundqvist, Phys. Rev. Lett. 92, 246401 (2004).
     *
     *   T. Thonhauser, V. R. Cooper, S. Li, A. Puzder, P. Hyldgaard, and
     *   D. C. Langreth, Phys. Rev. B 76, 125112 (2007).
     *
     *   G. Roman-Perez and J. M. Soler, Phys. Rev. Lett. 103, 096102 (2009).
     *
     *
     * If you are using vdW-DF2, please also cite:
     *
     *   K. Lee, E. D. Murray, L. Kong, B. I. Lundqvist, and
     *   D. C. Langreth, Phys. Rev. B 82, 081101(R) (2010).
     *
     *
     * If you are calculating the stress with vdW-DF, please also cite:
     *
     *   R. Sabatini, E. Kucukbenli, B. Kolb, T. Thonhauser, and
     *   S. de Gironcoli, J. Phys.: Condens. Matter 24, 424209 (2012).
     *

     Carrying out vdW-DF run using the following parameters:

     Nqs =      20    Nr_points =    1024   r_max =   100.000
     q_mesh =
               0.00001000     0.04494208     0.09755937     0.15916263
               0.23128650     0.31572767     0.41458969     0.53033537
               0.66584808     0.82450364     1.01025438     1.22772762
               1.48234092     1.78043706     2.12944203     2.53805004
               3.01644009     3.57652955     4.23227104     5.00000000

     Gradients computed in reciprocal space

[...]

     Starting wfc are  144 randomized atomic wfcs

     Self-consistent Calculation

[...]

     total energy              =   -3774.04537848 Ry
     Harris-Foulkes estimate   =   -3774.04537646 Ry
     estimated scf accuracy    <       0.00000190 Ry

     iteration # 17     ecut=    36.75 Ry     beta=0.10
     Davidson diagonalization with overlap
     ethr =  9.06E-10,  avg # of iterations =  2.2

[...]

     negative rho (up, down):  1.074E+00 0.000E+00

     Adding external electric field

     Computed dipole along edir(3) :
        Dipole                0.1003 Ry au,          0.2550 Debye
        Dipole field          0.0003 Ry au

        Potential amp.       -0.0246 Ry
        Total length         45.0303 bohr

     End of self-consistent calculation

[...]

          k = 0.0612-0.0537 0.0000 ( 17366 PWs)   bands (ev):

[...]

          k =-0.0918-0.0652 0.0000 ( 17460 PWs)   bands (ev):

   -93.7729 -93.7718 -93.7636 -93.7636 -93.7606 -93.7605 -93.6319 -93.6319
   -93.6088 -93.6088 -93.5877 -93.5865 -93.5793 -93.5782 -93.5465 -93.5465
   -93.5443 -93.5442 -51.7544 -51.7359 -51.7314 -51.6990 -51.6961 -51.6873
   -51.5804 -51.5768 -51.5389 -51.4841 -51.4705 -51.4656 -51.4284 -51.4082
   -51.4041 -51.3738 -51.2341 -51.2297 -14.2109 -14.1923 -14.1727 -14.1427
   -14.1372 -14.1314 -14.1302 -14.1232 -14.1095 -14.0565 -14.0054 -13.9903
   -13.9865 -13.9692 -13.9368 -13.9348 -13.9277 -13.9232 -13.9207 -13.9182
   -13.9126 -13.9119 -13.9107 -13.9066 -13.9033 -13.8765 -13.8761 -13.8694
   -13.8316 -13.8278  -7.3922  -7.1797  -5.9852  -5.6255  -5.2901  -5.1701
    -5.0802  -4.0667  -4.0105  -3.9472  -3.5488  -3.3227  -3.0992  -3.0618
    -2.9190  -2.7562  -2.7032  -2.4707  -2.3833  -2.1644  -2.0351  -1.9677
    -1.8882  -1.8872  -1.8176  -1.4648  -1.3891  -1.0086  -0.9201  -0.8168
    -0.8067  -0.7945  -0.6010  -0.2047  -0.1257  -0.0352   0.3474   0.6990
     0.7315   1.1365   1.2220   2.5518   2.9671   3.3600   3.4014   4.6579
     5.3021   5.5990   5.8964   6.1116   6.5281   6.9891   7.0381   7.1103
     7.2543   7.2788   7.4350   7.5538   7.8756   7.9416   8.2223   8.4327
     8.4443   8.4705   8.5567   8.7612   8.7733   8.9903   9.2061

     the Fermi energy is     1.2006 ev

!    total energy              =   -3774.04538812 Ry
     Harris-Foulkes estimate   =   -3774.04537815 Ry
     estimated scf accuracy    <       0.00000021 Ry

     The total energy is the sum of the following terms:

     one-electron contribution =  -25063.80691206 Ry
     hartree contribution      =   12553.36478278 Ry
     xc contribution           =    -650.60363325 Ry
     ewald contribution        =    9387.03253410 Ry
     electric field correction =       0.00002737 Ry
     smearing contrib. (-TS)   =      -0.03218705 Ry

     convergence has been achieved in  17 iterations

 BEEF-vdW xc energy contributions
           1 :   -580.561158639222
           2 :    534.540932751867
           3 :   -454.788098581322
           4 :    360.512328282464
           5 :   -270.277936515048
           6 :    195.950313606268
           7 :   -140.659012674921
           8 :    100.897260585430
           9 :   -70.8259813396610
          10 :    46.0746198235840
          11 :   -25.2214351783717
          12 :    8.87747793791664
          13 :    2.24058745034995
          14 :   -8.61437873227339
          15 :    11.8274302774998
          16 :   -13.5128964098366
          17 :    14.4128520527868
          18 :   -14.3305788789836
          19 :    12.8972865934272
          20 :   -10.4096911919374
          21 :    7.98697391131464
          22 :   -6.90974085117250
          23 :    7.68588314450437
          24 :   -9.61892579876258
          25 :    11.2502947294145
          26 :   -11.3640853855511
          27 :    9.80604759115397
          28 :   -7.52413314491912
          29 :    5.83022531476740
          30 :   -5.46030111899870
          31 :   -45.2982463663041
          32 :   -32.3769251866959

     Forces acting on atoms (Ry/au):

     negative rho (up, down):  1.074E+00 0.000E+00
     atom    1 type  1   force =     0.00004148    0.00003216   -0.02151834
     atom    2 type  1   force =     0.00004020    0.00003970   -0.02151913
     atom    3 type  2   force =     0.00032980    0.00023310    0.02452142
     atom    4 type  2   force =     0.00032958    0.00023295    0.02452123
     atom    5 type  1   force =    -0.00011377   -0.00008024   -0.00727330
     atom    6 type  1   force =    -0.00012317   -0.00008290   -0.00726661
     atom    7 type  2   force =     0.00015429    0.00010785    0.00425775
     atom    8 type  2   force =     0.00015493    0.00010744    0.00425750
     atom    9 type  1   force =    -0.00025927   -0.00018714   -0.00005220
     atom   10 type  1   force =    -0.00026006   -0.00018886   -0.00005614
     atom   11 type  2   force =    -0.00014708   -0.00010590    0.00006376
     atom   12 type  2   force =    -0.00014694   -0.00010816    0.00006406

     Total force =     0.047659     Total SCF correction =     0.001568

     entering subroutine stress ...

     negative rho (up, down):  1.074E+00 0.000E+00
          total   stress  (Ry/bohr**3)                   (kbar)     P=  -24.42
  -0.00024720  -0.00002100  -0.00000143        -36.36     -3.09     -0.21
  -0.00002100  -0.00023257  -0.00000101         -3.09    -34.21     -0.15
  -0.00000143  -0.00000101  -0.00001828         -0.21     -0.15     -2.69

 !ASE

     Writing output data file calc.save

     General routines

     Parallel routines

   This run was terminated on:  20:15:39  24Dec2018

   JOB DONE.
Job  /afs/slac/g/suncat/bin/suncat-tsmpirun -x LD_LIBRARY_PATH -wdir /scratch/qe108978_XXyr8 pw.x -in pw.inp

TID   HOST_NAME   COMMAND_LINE            STATUS            TERMINATION_TIME
00000 suncat0076 pw.x -in pw.inp   Done                     12/24/2018 20:15:39
00001 suncat0076 pw.x -in pw.inp   Done                     12/24/2018 20:15:39
00002 suncat0076 pw.x -in pw.inp   Done                     12/24/2018 20:15:39
00003 suncat0076 pw.x -in pw.inp   Done                     12/24/2018 20:15:39
00004 suncat0076 pw.x -in pw.inp   Done                     12/24/2018 20:15:39
00005 suncat0076 pw.x -in pw.inp   Done                     12/24/2018 20:15:39
00006 suncat0076 pw.x -in pw.inp   Done                     12/24/2018 20:15:39
00007 suncat0076 pw.x -in pw.inp   Done                     12/24/2018 20:15:39
00008 suncat0051 pw.x -in pw.inp   Done                     12/24/2018 20:15:39
00009 suncat0051 pw.x -in pw.inp   Done                     12/24/2018 20:15:39
00010 suncat0051 pw.x -in pw.inp   Done                     12/24/2018 20:15:39
00011 suncat0051 pw.x -in pw.inp   Done                     12/24/2018 20:15:39
00012 suncat0051 pw.x -in pw.inp   Done                     12/24/2018 20:15:39
00013 suncat0051 pw.x -in pw.inp   Done                     12/24/2018 20:15:39
00014 suncat0051 pw.x -in pw.inp   Done                     12/24/2018 20:15:39
00015 suncat0051 pw.x -in pw.inp   Done                     12/24/2018 20:15:39
00016 suncat0050 pw.x -in pw.inp   Done                     12/24/2018 20:15:39
00017 suncat0050 pw.x -in pw.inp   Done                     12/24/2018 20:15:39
00018 suncat0050 pw.x -in pw.inp   Done                     12/24/2018 20:15:39
00019 suncat0050 pw.x -in pw.inp   Done                     12/24/2018 20:15:39
00020 suncat0050 pw.x -in pw.inp   Done                     12/24/2018 20:15:39
00021 suncat0050 pw.x -in pw.inp   Done                     12/24/2018 20:15:39
00022 suncat0050 pw.x -in pw.inp   Done                     12/24/2018 20:15:39
00023 suncat0050 pw.x -in pw.inp   Done                     12/24/2018 20:15:39
00024 suncat0049 pw.x -in pw.inp   Done                     12/24/2018 20:15:39
00025 suncat0049 pw.x -in pw.inp   Done                     12/24/2018 20:15:39
00026 suncat0049 pw.x -in pw.inp   Done                     12/24/2018 20:15:39
00027 suncat0049 pw.x -in pw.inp   Done                     12/24/2018 20:15:39
00028 suncat0049 pw.x -in pw.inp   Done                     12/24/2018 20:15:39
00029 suncat0049 pw.x -in pw.inp   Done                     12/24/2018 20:15:39
00030 suncat0049 pw.x -in pw.inp   Done                     12/24/2018 20:15:39
00031 suncat0049 pw.x -in pw.inp   Done                     12/24/2018 20:15:39
00032 suncat0280 pw.x -in pw.inp   Done                     12/24/2018 20:15:39
00033 suncat0280 pw.x -in pw.inp   Done                     12/24/2018 20:15:39
00034 suncat0280 pw.x -in pw.inp   Done                     12/24/2018 20:15:39
00035 suncat0280 pw.x -in pw.inp   Done                     12/24/2018 20:15:39
00036 suncat0280 pw.x -in pw.inp   Done                     12/24/2018 20:15:39
00037 suncat0280 pw.x -in pw.inp   Done                     12/24/2018 20:15:39
00038 suncat0280 pw.x -in pw.inp   Done                     12/24/2018 20:15:39
00039 suncat0280 pw.x -in pw.inp   Done                     12/24/2018 20:15:39
00040 suncat0279 pw.x -in pw.inp   Done                     12/24/2018 20:15:39
00041 suncat0279 pw.x -in pw.inp   Done                     12/24/2018 20:15:39
00042 suncat0279 pw.x -in pw.inp   Done                     12/24/2018 20:15:39
00043 suncat0279 pw.x -in pw.inp   Done                     12/24/2018 20:15:39
00044 suncat0279 pw.x -in pw.inp   Done                     12/24/2018 20:15:39
00045 suncat0279 pw.x -in pw.inp   Done                     12/24/2018 20:15:39
00046 suncat0279 pw.x -in pw.inp   Done                     12/24/2018 20:15:39
00047 suncat0279 pw.x -in pw.inp   Done                     12/24/2018 20:15:39
00048 suncat0278 pw.x -in pw.inp   Done                     12/24/2018 20:15:39
00049 suncat0278 pw.x -in pw.inp   Done                     12/24/2018 20:15:39
00050 suncat0278 pw.x -in pw.inp   Done                     12/24/2018 20:15:39
00051 suncat0278 pw.x -in pw.inp   Done                     12/24/2018 20:15:39
00052 suncat0278 pw.x -in pw.inp   Done                     12/24/2018 20:15:39
00053 suncat0278 pw.x -in pw.inp   Done                     12/24/2018 20:15:39
00054 suncat0278 pw.x -in pw.inp   Done                     12/24/2018 20:15:39
00055 suncat0278 pw.x -in pw.inp   Done                     12/24/2018 20:15:39
00056 suncat0099 pw.x -in pw.inp   Done                     12/24/2018 20:15:39
00057 suncat0099 pw.x -in pw.inp   Done                     12/24/2018 20:15:39
00058 suncat0099 pw.x -in pw.inp   Done                     12/24/2018 20:15:39
00059 suncat0099 pw.x -in pw.inp   Done                     12/24/2018 20:15:39
00060 suncat0099 pw.x -in pw.inp   Done                     12/24/2018 20:15:39
00061 suncat0099 pw.x -in pw.inp   Done                     12/24/2018 20:15:39
00062 suncat0099 pw.x -in pw.inp   Done                     12/24/2018 20:15:39
00063 suncat0099 pw.x -in pw.inp   Done                     12/24/2018 20:15:39