     Program PWSCF v.5.1rc2 (svn rev. 11289) starts on 24Dec2018 at 21: 5:56

     Current dimensions of program PWSCF are:
     Max number of different atomic species (ntypx) = 10
     Max number of k-points (npk) =  40000
     Max angular momentum in pseudopotentials (lmaxx) =  3
     Presently stress not available with electric field

     IMPORTANT: XC functional enforced from input :
     Exchange-correlation      = BEEF-VDW ( 1  4 27 13 2)
     Any further DFT definition will be discarded
     Please, verify this is what you really want

     Subspace diagonalization in iterative solution of the eigenvalue problem:
     a serial algorithm will be used

     Found symmetry operation: I + ( -0.5000 -0.5000  0.0000)
     This is a supercell, fractional translations are disabled

     bravais-lattice index     =            0
     lattice parameter (alat)  =       1.8897  a.u.
     unit-cell volume          =    5040.6922 (a.u.)^3
     number of atoms/cell      =           12
     number of atomic types    =            2
     number of electrons       =       162.00
     number of Kohn-Sham states=          111
     kinetic-energy cutoff     =      36.7493  Ry
     charge density cutoff     =     367.4932  Ry
     convergence threshold     =      1.0E-06
     mixing beta               =       0.1000
     number of iterations used =           10  plain     mixing
     Exchange-correlation      = BEEF-VDW ( 1  4 27 13 2)
     nstep                     =           50

     celldm(1)=   1.889726  celldm(2)=   0.000000  celldm(3)=   0.000000
     celldm(4)=   0.000000  celldm(5)=   0.000000  celldm(6)=   0.000000

     crystal axes: (cart. coord. in units of alat)
               a(1) = (   5.673930   0.000000   0.000000 )
               a(2) = (   1.908729   5.343242   0.000000 )
               a(3) = (   0.000000   0.000000  24.637965 )

     reciprocal axes: (cart. coord. in units 2 pi/alat)
               b(1) = (  0.176245 -0.062959  0.000000 )
               b(2) = (  0.000000  0.187152  0.000000 )
               b(3) = (  0.000000  0.000000  0.040588 )

     PseudoPot. # 1 for Hf read from file:
     /afs/slac.stanford.edu/u/if/mamunm/psp/gbrv1.5pbe/Hf.UPF
     MD5 check sum: 8ee9378dfe14276e333edf04c5e4aa26
     Pseudo is Ultrasoft + core correction, Zval = 12.0
     Generated by new atomic code, or converted to UPF format
     Using radial grid of  921 points,  8 beta functions with:
                l(1) =   0
                l(2) =   0
                l(3) =   0
                l(4) =   1
                l(5) =   1
                l(6) =   2
                l(7) =   2
                l(8) =   3
     Q(r) pseudized with  6 coefficients,  rinner =    1.200   1.200   1.200
                                                       1.200   1.200   1.200
                                                       1.200

     PseudoPot. # 2 for Re read from file:
     /afs/slac.stanford.edu/u/if/mamunm/psp/gbrv1.5pbe/Re.UPF
     MD5 check sum: 85f993410f3e006da9d71c142b4ad953
     Pseudo is Ultrasoft + core correction, Zval = 15.0
     Generated by new atomic code, or converted to UPF format
     Using radial grid of  981 points,  8 beta functions with:
                l(1) =   0
                l(2) =   0
                l(3) =   1
                l(4) =   1
                l(5) =   2
                l(6) =   2
                l(7) =   3
                l(8) =   3
     Q(r) pseudized with  8 coefficients,  rinner =    1.150   1.150   1.150
                                                       1.150   1.150   1.150
                                                       1.150

     vdW kernel table read from file vdW_kernel_table
     MD5 check sum: 095c7af220d748ca6e76c0b4c6cfb241

     atomic species   valence    mass     pseudopotential
        Hf1           12.00   178.49000     Hf( 1.00)
        Re1           15.00   186.20700     Re( 1.00)

     No symmetry found

   Cartesian axes

     site n.     atom                  positions (alat units)
         1           Hf1 tau(   1) = (   0.0000000   0.0000000  10.0000000  )
         2           Hf1 tau(   2) = (   3.7913296   2.6716208  10.0000000  )
         3           Re1 tau(   3) = (   2.8369648   0.0000000  10.0000000  )
         4           Re1 tau(   4) = (   0.9543647   2.6716208  10.0000000  )
         5           Hf1 tau(   5) = (   5.6739297   3.9982249  12.3189823  )
         6           Hf1 tau(   6) = (   1.8826001   1.3266041  12.3189823  )
         7           Re1 tau(   7) = (   2.8369648   3.9982249  12.3189823  )
         8           Re1 tau(   8) = (   4.7195649   1.3266041  12.3189823  )
         9           Hf1 tau(   9) = (   3.7652002   2.6532083  14.6379646  )
        10           Hf1 tau(  10) = (   7.5565298   5.3248290  14.6379646  )
        11           Re1 tau(  11) = (   6.6021650   2.6532083  14.6379646  )
        12           Re1 tau(  12) = (   4.7195649   5.3248290  14.6379646  )

     number of k points=    20  Fermi-Dirac smearing, width (Ry)=  0.0110
                       cart. coord. in units 2pi/alat
        k(    1) = (   0.0000000   0.0000000   0.0000000), wk =   0.0555556
        k(    2) = (   0.0000000   0.0311921   0.0000000), wk =   0.1111111
        k(    3) = (   0.0000000   0.0623841   0.0000000), wk =   0.1111111
        k(    4) = (   0.0000000  -0.0935762   0.0000000), wk =   0.0555556
        k(    5) = (   0.0293741  -0.0104931   0.0000000), wk =   0.1111111
        k(    6) = (   0.0293741   0.0206989   0.0000000), wk =   0.1111111
        k(    7) = (   0.0293741   0.0518910   0.0000000), wk =   0.1111111
        k(    8) = (   0.0293741  -0.1040693   0.0000000), wk =   0.1111111
        k(    9) = (   0.0293741  -0.0728772   0.0000000), wk =   0.1111111
        k(   10) = (   0.0293741  -0.0416852   0.0000000), wk =   0.1111111
        k(   11) = (   0.0587482  -0.0209862   0.0000000), wk =   0.1111111
        k(   12) = (   0.0587482   0.0102058   0.0000000), wk =   0.1111111
        k(   13) = (   0.0587482   0.0413979   0.0000000), wk =   0.1111111
        k(   14) = (   0.0587482  -0.1145624   0.0000000), wk =   0.1111111
        k(   15) = (   0.0587482  -0.0833703   0.0000000), wk =   0.1111111
        k(   16) = (   0.0587482  -0.0521783   0.0000000), wk =   0.1111111
        k(   17) = (  -0.0881223   0.0314793   0.0000000), wk =   0.0555556
        k(   18) = (  -0.0881223   0.0626714   0.0000000), wk =   0.1111111
        k(   19) = (  -0.0881223   0.0938634   0.0000000), wk =   0.1111111
        k(   20) = (  -0.0881223  -0.0620968   0.0000000), wk =   0.0555556

     Largest allocated arrays     est. size (Mb)     dimensions
     Largest temporary arrays     est. size (Mb)     dimensions

     Check: negative/imaginary core charge=   -0.000002    0.000000

     Initial potential from superposition of free atoms
     Check: negative starting charge=   -1.427371

     starting charge  146.99972, renormalised to  162.00000

     negative rho (up, down):  1.573E+00 0.000E+00

     *
     * You are using vdW-DF for exchange-correlation in this calculation.
     * Please cite the following three references that made this development
     * possible:
     *
     *   M. Dion, H. Rydberg, E. Schroder, D. C. Langreth, and
     *   B. I. Lundqvist, Phys. Rev. Lett. 92, 246401 (2004).
     *
     *   T. Thonhauser, V. R. Cooper, S. Li, A. Puzder, P. Hyldgaard, and
     *   D. C. Langreth, Phys. Rev. B 76, 125112 (2007).
     *
     *   G. Roman-Perez and J. M. Soler, Phys. Rev. Lett. 103, 096102 (2009).
     *
     *
     * If you are using vdW-DF2, please also cite:
     *
     *   K. Lee, E. D. Murray, L. Kong, B. I. Lundqvist, and
     *   D. C. Langreth, Phys. Rev. B 82, 081101(R) (2010).
     *
     *
     * If you are calculating the stress with vdW-DF, please also cite:
     *
     *   R. Sabatini, E. Kucukbenli, B. Kolb, T. Thonhauser, and
     *   S. de Gironcoli, J. Phys.: Condens. Matter 24, 424209 (2012).
     *

     Carrying out vdW-DF run using the following parameters:

     Nqs =      20    Nr_points =    1024   r_max =   100.000
     q_mesh =
               0.00001000     0.04494208     0.09755937     0.15916263
               0.23128650     0.31572767     0.41458969     0.53033537
               0.66584808     0.82450364     1.01025438     1.22772762
               1.48234092     1.78043706     2.12944203     2.53805004
               3.01644009     3.57652955     4.23227104     5.00000000

     Gradients computed in reciprocal space

     Adding external electric field

     Computed dipole along edir(3) :
        Dipole                0.0000 Ry au,          0.0000 Debye
        Dipole field          0.0000 Ry au

        Potential amp.       -0.0000 Ry
        Total length         45.3950 bohr

     Starting wfc are  156 randomized atomic wfcs

     Self-consistent Calculation

     iteration #  1     ecut=    36.75 Ry     beta=0.10
     Davidson diagonalization with overlap
     ethr =  1.00E-02,  avg # of iterations =  9.7

[...]

     total energy              =   -2117.52373349 Ry
     Harris-Foulkes estimate   =   -2122.34520418 Ry
     estimated scf accuracy    <      30.04370684 Ry

[...]

     End of self-consistent calculation

          k = 0.0000 0.0000 0.0000 ( 18963 PWs)   bands (ev):

   -77.8245 -77.8210 -77.6922 -77.6922 -77.6889 -77.6888 -59.9868 -59.9864
   -59.9739 -59.9735 -59.3650 -59.3517 -39.5827 -39.5797 -39.5795 -39.5759
   -39.5620 -39.4912 -39.4830 -39.4807 -39.4686 -39.4642 -39.4572 -39.4541
   -39.3509 -39.3451 -39.3445 -39.3444 -39.3385 -39.3290 -28.6597 -28.6504
   -28.6497 -28.6368 -28.6292 -28.6271 -28.4710 -28.4564 -28.4555 -28.4363
   -28.3536 -28.3499 -28.1205 -27.9637 -27.9624 -27.9421 -27.9251 -27.8162
    -5.3323  -3.6327  -2.7055  -2.3083  -2.1401  -2.0795  -2.0396  -1.9129
    -1.7394  -1.6209  -1.2071  -1.1690  -1.1299  -0.0690  -0.0297   0.0611
     0.0627   0.1159   0.1360   0.1934   0.2170   0.5674   0.8284   1.0716
     1.0851   1.4943   1.5240   1.6460   1.8996   2.1995   2.3141   2.3185
     2.5596   2.7667   2.9124   3.0988   3.7342   3.7356   3.8620   3.9723
     4.2470   4.4051   4.5489   4.6050   4.8189   4.9005   5.0490   5.0885
     5.5153   5.5403   5.5843   5.6355   5.6801   5.6855   5.8781   5.9348
     5.9910   6.0817   6.1066   6.1108   6.1602   6.1895   6.4593

[...]

          k =-0.0881 0.0315 0.0000 ( 18982 PWs)   bands (ev):

[...]

     the Fermi energy is     2.0442 ev

!    total energy              =   -2116.39843201 Ry
     Harris-Foulkes estimate   =   -2116.39842705 Ry
     estimated scf accuracy    <       0.00000034 Ry

     The total energy is the sum of the following terms:

     one-electron contribution =  -12751.38864308 Ry
     hartree contribution      =    6361.88799680 Ry
     xc contribution           =    -789.08071649 Ry
     ewald contribution        =    5062.26093238 Ry
     electric field correction =       0.00000000 Ry
     smearing contrib. (-TS)   =      -0.07800163 Ry

     convergence has been achieved in  19 iterations

 BEEF-vdW xc energy contributions
           1 :   -708.817809804690
           2 :    658.989598887621
           3 :   -570.005155907056
[...]
                l(6) =   2
                l(7) =   2
                l(8) =   3
     Q(r) pseudized with  6 coefficients,  rinner =    1.200   1.200   1.200
                                                       1.200   1.200   1.200
                                                       1.200

     PseudoPot. # 2 for Re read from file:
     /afs/slac.stanford.edu/u/if/mamunm/psp/gbrv1.5pbe/Re.UPF
     MD5 check sum: 85f993410f3e006da9d71c142b4ad953
     Pseudo is Ultrasoft + core correction, Zval = 15.0
     Generated by new atomic code, or converted to UPF format
     Using radial grid of  981 points,  8 beta functions with:
                l(1) =   0
                l(2) =   0
                l(3) =   1
                l(4) =   1
                l(5) =   2
                l(6) =   2
                l(7) =   3
                l(8) =   3
     Q(r) pseudized with  8 coefficients,  rinner =    1.150   1.150   1.150
                                                       1.150   1.150   1.150
                                                       1.150

     vdW kernel table read from file vdW_kernel_table
     MD5 check sum: 095c7af220d748ca6e76c0b4c6cfb241

     atomic species   valence    mass     pseudopotential
        Hf1           12.00   178.49000     Hf( 1.00)
        Re1           15.00   186.20700     Re( 1.00)

     No symmetry found

   Cartesian axes

     site n.     atom                  positions (alat units)
         1           Hf1 tau(   1) = (   0.0000000   0.0000000  10.0000000  )
         2           Hf1 tau(   2) = (   3.7913296   2.6716208  10.0000000  )
         3           Re1 tau(   3) = (   2.8369648   0.0000000  10.0000000  )
         4           Re1 tau(   4) = (   0.9543647   2.6716208  10.0000000  )
         5           Hf1 tau(   5) = (   5.6739297   3.9982249  12.3189823  )
         6           Hf1 tau(   6) = (   1.8826001   1.3266041  12.3189823  )
         7           Re1 tau(   7) = (   2.8369648   3.9982249  12.3189823  )
         8           Re1 tau(   8) = (   4.7195649   1.3266041  12.3189823  )
         9           Hf1 tau(   9) = (   3.7709748   2.6572679  14.6237532  )
        10           Hf1 tau(  10) = (   7.5622819   5.3288899  14.6237526  )
        11           Re1 tau(  11) = (   6.6045255   2.6548832  14.5655231  )
        12           Re1 tau(  12) = (   4.7219471   5.3264914  14.5654751  )

     number of k points=    20  Fermi-Dirac smearing, width (Ry)=  0.0110
                       cart. coord. in units 2pi/alat
        k(    1) = (   0.0000000   0.0000000   0.0000000), wk =   0.0555556
        k(    2) = (   0.0000000   0.0311921   0.0000000), wk =   0.1111111
        k(    3) = (   0.0000000   0.0623841   0.0000000), wk =   0.1111111
        k(    4) = (   0.0000000  -0.0935762   0.0000000), wk =   0.0555556
        k(    5) = (   0.0293741  -0.0104931   0.0000000), wk =   0.1111111
        k(    6) = (   0.0293741   0.0206989   0.0000000), wk =   0.1111111
        k(    7) = (   0.0293741   0.0518910   0.0000000), wk =   0.1111111
        k(    8) = (   0.0293741  -0.1040693   0.0000000), wk =   0.1111111
        k(    9) = (   0.0293741  -0.0728772   0.0000000), wk =   0.1111111
        k(   10) = (   0.0293741  -0.0416852   0.0000000), wk =   0.1111111
        k(   11) = (   0.0587482  -0.0209862   0.0000000), wk =   0.1111111
        k(   12) = (   0.0587482   0.0102058   0.0000000), wk =   0.1111111
        k(   13) = (   0.0587482   0.0413979   0.0000000), wk =   0.1111111
        k(   14) = (   0.0587482  -0.1145624   0.0000000), wk =   0.1111111
        k(   15) = (   0.0587482  -0.0833703   0.0000000), wk =   0.1111111
        k(   16) = (   0.0587482  -0.0521783   0.0000000), wk =   0.1111111
        k(   17) = (  -0.0881223   0.0314793   0.0000000), wk =   0.0555556
        k(   18) = (  -0.0881223   0.0626714   0.0000000), wk =   0.1111111
        k(   19) = (  -0.0881223   0.0938634   0.0000000), wk =   0.1111111
        k(   20) = (  -0.0881223  -0.0620968   0.0000000), wk =   0.0555556

     Largest allocated arrays     est. size (Mb)     dimensions
     Largest temporary arrays     est. size (Mb)     dimensions

     Check: negative/imaginary core charge=   -0.000002    0.000000

     Initial potential from superposition of free atoms
     Check: negative starting charge=   -1.424935

     starting charge  146.99972, renormalised to  162.00000

[...]

     *
     * You are using vdW-DF for exchange-correlation in this calculation.
     * Please cite the following three references that made this development
     * possible:
     *
     *   M. Dion, H. Rydberg, E. Schroder, D. C. Langreth, and
     *   B. I. Lundqvist, Phys. Rev. Lett. 92, 246401 (2004).
     *
     *   T. Thonhauser, V. R. Cooper, S. Li, A. Puzder, P. Hyldgaard, and
     *   D. C. Langreth, Phys. Rev. B 76, 125112 (2007).
     *
     *   G. Roman-Perez and J. M. Soler, Phys. Rev. Lett. 103, 096102 (2009).
     *
     *
     * If you are using vdW-DF2, please also cite:
     *
     *   K. Lee, E. D. Murray, L. Kong, B. I. Lundqvist, and
     *   D. C. Langreth, Phys. Rev. B 82, 081101(R) (2010).
     *
     *
     * If you are calculating the stress with vdW-DF, please also cite:
     *
     *   R. Sabatini, E. Kucukbenli, B. Kolb, T. Thonhauser, and
     *   S. de Gironcoli, J. Phys.: Condens. Matter 24, 424209 (2012).
     *

     Carrying out vdW-DF run using the following parameters:

     Nqs =      20    Nr_points =    1024   r_max =   100.000
     q_mesh =
               0.00001000     0.04494208     0.09755937     0.15916263
               0.23128650     0.31572767     0.41458969     0.53033537
               0.66584808     0.82450364     1.01025438     1.22772762
               1.48234092     1.78043706     2.12944203     2.53805004
               3.01644009     3.57652955     4.23227104     5.00000000

     Gradients computed in reciprocal space

[...]

     Starting wfc are  156 randomized atomic wfcs

     Self-consistent Calculation

[...]

     iteration # 12     ecut=    36.75 Ry     beta=0.10
     Davidson diagonalization with overlap
     c_bands:  1 eigenvalues not converged
     ethr =  1.14E-05,  avg # of iterations =  6.5

[...]

     total energy              =   -2116.40111183 Ry
     Harris-Foulkes estimate   =   -2116.40111081 Ry
     estimated scf accuracy    <       0.00000180 Ry

     iteration # 19     ecut=    36.75 Ry     beta=0.10
     Davidson diagonalization with overlap
     ethr =  1.11E-09,  avg # of iterations =  2.0

[...]

     negative rho (up, down):  1.469E+00 0.000E+00

     Adding external electric field

     Computed dipole along edir(3) :
        Dipole                0.0201 Ry au,          0.0511 Debye
        Dipole field          0.0001 Ry au

        Potential amp.       -0.0045 Ry
        Total length         45.3950 bohr

     End of self-consistent calculation

[...]

          k = 0.0587-0.0522 0.0000 ( 18971 PWs)   bands (ev):

[...]

          k =-0.0881-0.0621 0.0000 ( 18932 PWs)   bands (ev):

   -77.8106 -77.8073 -77.6761 -77.6727 -77.6394 -77.6360 -59.9705 -59.9590
   -59.9573 -59.9458 -59.2713 -59.2573 -39.5671 -39.5631 -39.5567 -39.5524
   -39.5482 -39.4727 -39.4635 -39.4538 -39.4320 -39.4278 -39.4221 -39.4075
   -39.3270 -39.3220 -39.3150 -39.3015 -39.3007 -39.2942 -28.6640 -28.6589
   -28.6387 -28.6220 -28.6209 -28.5960 -28.5034 -28.4767 -28.4595 -28.4407
   -28.3443 -28.3303 -28.0644 -27.9217 -27.8870 -27.8702 -27.8544 -27.7413
    -3.1785  -3.0386  -1.8550  -1.7394  -1.3988  -1.3677  -1.0820  -0.9472
    -0.8322  -0.7074  -0.1794  -0.1596  -0.0620   0.0698   0.1073   0.3221
     0.3491   0.3690   0.5131   0.8036   0.8738   1.0969   1.1101   1.1608
     1.3178   1.3738   1.4157   1.4527   1.5597   1.5709   1.6251   1.7828
     1.8077   1.9445   2.0113   2.1696   2.1918   2.4652   2.5148   2.7769
     2.8383   3.0266   3.7615   3.8078   3.8781   4.0689   4.4142   4.4286
     4.4888   4.5682   4.6371   4.7586   4.8752   4.9468   4.9863   5.2664
     5.2847   5.3518   5.4419   5.8461   6.0385   6.4204   6.4693

     the Fermi energy is     2.0603 ev

!    total energy              =   -2116.40111711 Ry
     Harris-Foulkes estimate   =   -2116.40111203 Ry
     estimated scf accuracy    <       0.00000058 Ry

     The total energy is the sum of the following terms:

     one-electron contribution =  -12835.94448588 Ry
     hartree contribution      =    6404.33934760 Ry
     xc contribution           =    -789.17412028 Ry
     ewald contribution        =    5104.45810803 Ry
     electric field correction =       0.00000101 Ry
     smearing contrib. (-TS)   =      -0.07996759 Ry

     convergence has been achieved in  19 iterations

 BEEF-vdW xc energy contributions
           1 :   -708.912766168076
           2 :    659.119621979733
           3 :   -570.178542369335
           4 :    459.593640267656
           5 :   -346.200827543377
           6 :    245.103858919855
           7 :   -164.859386452261
           8 :    107.339071117418
           9 :   -69.6050163573755
          10 :    46.5007859666896
          11 :   -32.8337020925384
          12 :    24.5400889650231
          13 :   -18.8885434518870
          14 :    14.1449670481771
          15 :   -9.21019709437951
          16 :    3.49068381378140
          17 :    3.02577821433215
          18 :   -9.72603964355665
          19 :    15.5474827634985
          20 :   -19.3872255469761
          21 :    20.5568599316086
          22 :   -19.0617100323038
          23 :    15.5802526719682
          24 :   -11.2007908672509
          25 :    7.07023667524390
          26 :   -4.11456478928403
          27 :    2.89348897913499
          28 :   -3.56386513295524
          29 :    5.88309254958540
          30 :   -9.22961462277055
          31 :   -54.0752817435940
          32 :   -39.4002925931377

     Forces acting on atoms (Ry/au):

     negative rho (up, down):  1.469E+00 0.000E+00
     atom    1 type  1   force =    -0.00144760   -0.00101976    0.00100515
     atom    2 type  1   force =    -0.00144922   -0.00102167    0.00100465
     atom    3 type  2   force =    -0.00008412   -0.00005690    0.01785526
     atom    4 type  2   force =    -0.00008242   -0.00006168    0.01787123
     atom    5 type  1   force =     0.00040183    0.00028993   -0.01322362
     atom    6 type  1   force =     0.00040623    0.00028045   -0.01322230
     atom    7 type  2   force =     0.00030848    0.00021950   -0.00552887
     atom    8 type  2   force =     0.00030312    0.00021405   -0.00553027
     atom    9 type  1   force =     0.00030478    0.00021786   -0.00070572
     atom   10 type  1   force =     0.00031753    0.00021870   -0.00070501
     atom   11 type  2   force =     0.00051590    0.00035686    0.00058221
     atom   12 type  2   force =     0.00050548    0.00036267    0.00059729

     Total force =     0.032571     Total SCF correction =     0.001792

     entering subroutine stress ...

     negative rho (up, down):  1.469E+00 0.000E+00
          total   stress  (Ry/bohr**3)                   (kbar)     P=  -24.36
  -0.00021760  -0.00000305   0.00000433        -32.01     -0.45      0.64
  -0.00000305  -0.00021542   0.00000305         -0.45    -31.69      0.45
   0.00000433   0.00000305  -0.00006371          0.64      0.45     -9.37

 !ASE

     Writing output data file calc.save

     General routines

     Parallel routines

   This run was terminated on:  21:52: 5  24Dec2018

   JOB DONE.
Job  /afs/slac/g/suncat/bin/suncat-tsmpirun -x LD_LIBRARY_PATH -wdir /scratch/qe109003_G7u5G pw.x -in pw.inp

TID   HOST_NAME   COMMAND_LINE            STATUS            TERMINATION_TIME
00000 suncat0018 pw.x -in pw.inp   Done                     12/24/2018 21:52:05
00001 suncat0018 pw.x -in pw.inp   Done                     12/24/2018 21:52:05
00002 suncat0018 pw.x -in pw.inp   Done                     12/24/2018 21:52:05
00003 suncat0018 pw.x -in pw.inp   Done                     12/24/2018 21:52:05
00004 suncat0018 pw.x -in pw.inp   Done                     12/24/2018 21:52:05
00005 suncat0018 pw.x -in pw.inp   Done                     12/24/2018 21:52:05
00006 suncat0018 pw.x -in pw.inp   Done                     12/24/2018 21:52:05
00007 suncat0018 pw.x -in pw.inp   Done                     12/24/2018 21:52:05
00008 suncat0017 pw.x -in pw.inp   Done                     12/24/2018 21:52:05
00009 suncat0017 pw.x -in pw.inp   Done                     12/24/2018 21:52:05
00010 suncat0017 pw.x -in pw.inp   Done                     12/24/2018 21:52:05
00011 suncat0017 pw.x -in pw.inp   Done                     12/24/2018 21:52:05
00012 suncat0017 pw.x -in pw.inp   Done                     12/24/2018 21:52:05
00013 suncat0017 pw.x -in pw.inp   Done                     12/24/2018 21:52:05
00014 suncat0017 pw.x -in pw.inp   Done                     12/24/2018 21:52:05
00015 suncat0017 pw.x -in pw.inp   Done                     12/24/2018 21:52:05
00016 suncat0016 pw.x -in pw.inp   Done                     12/24/2018 21:52:05
00017 suncat0016 pw.x -in pw.inp   Done                     12/24/2018 21:52:05
00018 suncat0016 pw.x -in pw.inp   Done                     12/24/2018 21:52:05
00019 suncat0016 pw.x -in pw.inp   Done                     12/24/2018 21:52:05
00020 suncat0016 pw.x -in pw.inp   Done                     12/24/2018 21:52:05
00021 suncat0016 pw.x -in pw.inp   Done                     12/24/2018 21:52:05
00022 suncat0016 pw.x -in pw.inp   Done                     12/24/2018 21:52:05
00023 suncat0016 pw.x -in pw.inp   Done                     12/24/2018 21:52:05
00024 suncat0196 pw.x -in pw.inp   Done                     12/24/2018 21:52:05
00025 suncat0196 pw.x -in pw.inp   Done                     12/24/2018 21:52:05
00026 suncat0196 pw.x -in pw.inp   Done                     12/24/2018 21:52:05
00027 suncat0196 pw.x -in pw.inp   Done                     12/24/2018 21:52:05
00028 suncat0196 pw.x -in pw.inp   Done                     12/24/2018 21:52:05
00029 suncat0196 pw.x -in pw.inp   Done                     12/24/2018 21:52:05
00030 suncat0196 pw.x -in pw.inp   Done                     12/24/2018 21:52:05
00031 suncat0196 pw.x -in pw.inp   Done                     12/24/2018 21:52:05
00032 suncat0167 pw.x -in pw.inp   Done                     12/24/2018 21:52:05
00033 suncat0167 pw.x -in pw.inp   Done                     12/24/2018 21:52:05
00034 suncat0167 pw.x -in pw.inp   Done                     12/24/2018 21:52:05
00035 suncat0167 pw.x -in pw.inp   Done                     12/24/2018 21:52:05
00036 suncat0167 pw.x -in pw.inp   Done                     12/24/2018 21:52:05
00037 suncat0167 pw.x -in pw.inp   Done                     12/24/2018 21:52:05
00038 suncat0167 pw.x -in pw.inp   Done                     12/24/2018 21:52:05
00039 suncat0167 pw.x -in pw.inp   Done                     12/24/2018 21:52:05
00040 suncat0166 pw.x -in pw.inp   Done                     12/24/2018 21:52:05
00041 suncat0166 pw.x -in pw.inp   Done                     12/24/2018 21:52:05
00042 suncat0166 pw.x -in pw.inp   Done                     12/24/2018 21:52:05
00043 suncat0166 pw.x -in pw.inp   Done                     12/24/2018 21:52:05
00044 suncat0166 pw.x -in pw.inp   Done                     12/24/2018 21:52:05
00045 suncat0166 pw.x -in pw.inp   Done                     12/24/2018 21:52:05
00046 suncat0166 pw.x -in pw.inp   Done                     12/24/2018 21:52:05
00047 suncat0166 pw.x -in pw.inp   Done                     12/24/2018 21:52:05
00048 suncat0165 pw.x -in pw.inp   Done                     12/24/2018 21:52:05
00049 suncat0165 pw.x -in pw.inp   Done                     12/24/2018 21:52:05
00050 suncat0165 pw.x -in pw.inp   Done                     12/24/2018 21:52:05
00051 suncat0165 pw.x -in pw.inp   Done                     12/24/2018 21:52:05
00052 suncat0165 pw.x -in pw.inp   Done                     12/24/2018 21:52:05
00053 suncat0165 pw.x -in pw.inp   Done                     12/24/2018 21:52:05
00054 suncat0165 pw.x -in pw.inp   Done                     12/24/2018 21:52:05
00055 suncat0165 pw.x -in pw.inp   Done                     12/24/2018 21:52:05
00056 suncat0164 pw.x -in pw.inp   Done                     12/24/2018 21:52:05
00057 suncat0164 pw.x -in pw.inp   Done                     12/24/2018 21:52:05
00058 suncat0164 pw.x -in pw.inp   Done                     12/24/2018 21:52:05
00059 suncat0164 pw.x -in pw.inp   Done                     12/24/2018 21:52:05
00060 suncat0164 pw.x -in pw.inp   Done                     12/24/2018 21:52:05
00061 suncat0164 pw.x -in pw.inp   Done                     12/24/2018 21:52:05
00062 suncat0164 pw.x -in pw.inp   Done                     12/24/2018 21:52:05
00063 suncat0164 pw.x -in pw.inp   Done                     12/24/2018 21:52:05