     Program PWSCF v.5.1rc2 (svn rev. 11289) starts on 18Dec2018 at 16:49:44

     Current dimensions of program PWSCF are:
     Max number of different atomic species (ntypx) = 10
     Max number of k-points (npk) =  40000
     Max angular momentum in pseudopotentials (lmaxx) =  3
     Presently stress not available with electric field

     IMPORTANT: XC functional enforced from input :
     Exchange-correlation      = BEEF-VDW ( 1  4 27 13 2)
     Any further DFT definition will be discarded
     Please, verify this is what you really want

     Subspace diagonalization in iterative solution of the eigenvalue problem:
     a serial algorithm will be used

     Found symmetry operation: I + ( -0.5000 -0.5000  0.0000)
     This is a supercell, fractional translations are disabled

     bravais-lattice index     =            0
     lattice parameter (alat)  =       1.8897  a.u.
     unit-cell volume          =    4864.8048 (a.u.)^3
     number of atoms/cell      =           12
     number of atomic types    =            2
     number of electrons       =        84.00
     number of Kohn-Sham states=           72
     kinetic-energy cutoff     =      36.7493  Ry
     charge density cutoff     =     367.4932  Ry
     convergence threshold     =      1.0E-06
     mixing beta               =       0.1000
     number of iterations used =           10  plain     mixing
     Exchange-correlation      = BEEF-VDW ( 1  4 27 13 2)
     nstep                     =           50

     celldm(1)=   1.889726  celldm(2)=   0.000000  celldm(3)=   0.000000
     celldm(4)=   0.000000  celldm(5)=   0.000000  celldm(6)=   0.000000

     crystal axes: (cart. coord. in units of alat)
               a(1) = (   5.616509   0.000000   0.000000 )
               a(2) = (   2.098332   5.209815   0.000000 )
               a(3) = (   0.000000   0.000000  24.636558 )

     reciprocal axes: (cart. coord. in units 2 pi/alat)
               b(1) = (  0.178047 -0.071711  0.000000 )
               b(2) = (  0.000000  0.191945  0.000000 )
               b(3) = (  0.000000  0.000000  0.040590 )

     PseudoPot. # 1 for Al read from file:
     /afs/slac.stanford.edu/u/if/mamunm/psp/gbrv1.5pbe/Al.UPF
     MD5 check sum: 0a6289f5291fc8f409219462bc851e1f
     Pseudo is Ultrasoft + core correction, Zval =  3.0
     Generated by new atomic code, or converted to UPF format
     Using radial grid of  893 points,  3 beta functions with:
                l(1) =   0
                l(2) =   1
                l(3) =   2
     Q(r) pseudized with  8 coefficients,  rinner =    0.900   0.900   0.900
                                                       0.900   0.900

     PseudoPot. # 2 for Au read from file:
     /afs/slac.stanford.edu/u/if/mamunm/psp/gbrv1.5pbe/Au.UPF
     MD5 check sum: 9d7f43293ad2c663164586bc4b293ffc
     Pseudo is Ultrasoft + core correction, Zval = 11.0
     Generated by new atomic code, or converted to UPF format
     Using radial grid of  985 points,  7 beta functions with:
                l(1) =   0
                l(2) =   0
                l(3) =   1
                l(4) =   1
                l(5) =   2
                l(6) =   2
                l(7) =   3
     Q(r) pseudized with  6 coefficients,  rinner =    1.900   1.900   1.900
                                                       1.900   1.900   1.900
                                                       1.900

     vdW kernel table read from file vdW_kernel_table
     MD5 check sum: 095c7af220d748ca6e76c0b4c6cfb241

     atomic species   valence    mass     pseudopotential
        Al1            3.00    26.98154     Al( 1.00)
        Au1           11.00   196.96657     Au( 1.00)

     No symmetry found

   Cartesian axes

     site n.     atom                  positions (alat units)
         1           Al1 tau(   1) = (   0.0000000   0.0000000  10.0000000  )
         2           Al1 tau(   2) = (   3.8574204   2.6049077  10.0000000  )
         3           Au1 tau(   3) = (   2.8082545   0.0000000  10.0000000  )
         4           Au1 tau(   4) = (   1.0491659   2.6049077  10.0000000  )
         5           Al1 tau(   5) = (   5.6165090   3.7928164  12.3182789  )
         6           Al1 tau(   6) = (   1.7590886   1.1879087  12.3182789  )
         7           Au1 tau(   7) = (   2.8082545   3.7928164  12.3182789  )
         8           Au1 tau(   8) = (   4.5673430   1.1879087  12.3182789  )
         9           Al1 tau(   9) = (   3.5181771   2.3758175  14.6365578  )
        10           Al1 tau(  10) = (   7.3755975   4.9807252  14.6365578  )
        11           Au1 tau(  11) = (   6.3264316   2.3758175  14.6365578  )
        12           Au1 tau(  12) = (   4.5673430   4.9807252  14.6365578  )

     number of k points=    20  Fermi-Dirac smearing, width (Ry)=  0.0110
                       cart. coord. in units 2pi/alat
        k(    1) = (   0.0000000   0.0000000   0.0000000), wk =   0.0555556
        k(    2) = (   0.0000000   0.0319909   0.0000000), wk =   0.1111111
        k(    3) = (   0.0000000   0.0639818   0.0000000), wk =   0.1111111
        k(    4) = (   0.0000000  -0.0959727   0.0000000), wk =   0.0555556
        k(    5) = (   0.0296744  -0.0119518   0.0000000), wk =   0.1111111
        k(    6) = (   0.0296744   0.0200391   0.0000000), wk =   0.1111111
        k(    7) = (   0.0296744   0.0520300   0.0000000), wk =   0.1111111
        k(    8) = (   0.0296744  -0.1079245   0.0000000), wk =   0.1111111
        k(    9) = (   0.0296744  -0.0759336   0.0000000), wk =   0.1111111
        k(   10) = (   0.0296744  -0.0439427   0.0000000), wk =   0.1111111
        k(   11) = (   0.0593488  -0.0239036   0.0000000), wk =   0.1111111
        k(   12) = (   0.0593488   0.0080873   0.0000000), wk =   0.1111111
        k(   13) = (   0.0593488   0.0400781   0.0000000), wk =   0.1111111
        k(   14) = (   0.0593488  -0.1198763   0.0000000), wk =   0.1111111
        k(   15) = (   0.0593488  -0.0878854   0.0000000), wk =   0.1111111
        k(   16) = (   0.0593488  -0.0558945   0.0000000), wk =   0.1111111
        k(   17) = (  -0.0890233   0.0358555   0.0000000), wk =   0.0555556
        k(   18) = (  -0.0890233   0.0678464   0.0000000), wk =   0.1111111
        k(   19) = (  -0.0890233   0.0998373   0.0000000), wk =   0.1111111
        k(   20) = (  -0.0890233  -0.0601172   0.0000000), wk =   0.0555556

     Largest allocated arrays     est. size (Mb)     dimensions
     Largest temporary arrays     est. size (Mb)     dimensions

     Check: negative/imaginary core charge=   -0.000001    0.000000

     Initial potential from superposition of free atoms
     Check: negative starting charge=   -0.000127

     starting charge   83.98447, renormalised to   84.00000

     negative rho (up, down):  1.272E-04 0.000E+00

     *
     * You are using vdW-DF for exchange-correlation in this calculation.
     * Please cite the following three references that made this development
     * possible:
     *
     *   M. Dion, H. Rydberg, E. Schroder, D. C. Langreth, and
     *   B. I. Lundqvist, Phys. Rev. Lett. 92, 246401 (2004).
     *
     *   T. Thonhauser, V. R. Cooper, S. Li, A. Puzder, P. Hyldgaard, and
     *   D. C. Langreth, Phys. Rev. B 76, 125112 (2007).
     *
     *   G. Roman-Perez and J. M. Soler, Phys. Rev. Lett. 103, 096102 (2009).
     *
     *
     * If you are using vdW-DF2, please also cite:
     *
     *   K. Lee, E. D. Murray, L. Kong, B. I. Lundqvist, and
     *   D. C. Langreth, Phys. Rev. B 82, 081101(R) (2010).
     *
     *
     * If you are calculating the stress with vdW-DF, please also cite:
     *
     *   R. Sabatini, E. Kucukbenli, B. Kolb, T. Thonhauser, and
     *   S. de Gironcoli, J. Phys.: Condens. Matter 24, 424209 (2012).
     *

     Carrying out vdW-DF run using the following parameters:

     Nqs =      20    Nr_points =    1024   r_max =   100.000
     q_mesh =
               0.00001000     0.04494208     0.09755937     0.15916263
               0.23128650     0.31572767     0.41458969     0.53033537
               0.66584808     0.82450364     1.01025438     1.22772762
               1.48234092     1.78043706     2.12944203     2.53805004
               3.01644009     3.57652955     4.23227104     5.00000000

     Gradients computed in reciprocal space

     Adding external electric field

     Computed dipole along edir(3) :
        Dipole                0.0000 Ry au,          0.0000 Debye
        Dipole field          0.0000 Ry au

        Potential amp.       -0.0000 Ry
        Total length         45.3924 bohr

     Starting wfc are   78 randomized atomic wfcs

     Self-consistent Calculation

     iteration #  1     ecut=    36.75 Ry     beta=0.10
     Davidson diagonalization with overlap
     ethr =  1.00E-02,  avg # of iterations =  7.5

     Threshold (ethr) on eigenvalues was too large:
     Diagonalizing with lowered threshold

     Davidson diagonalization with overlap
     ethr =  7.36E-04,  avg # of iterations =  2.9

[...]

     total energy              =    -741.70161046 Ry
     Harris-Foulkes estimate   =    -741.79902822 Ry
     estimated scf accuracy    <       0.66269906 Ry

[...]

     End of self-consistent calculation

          k = 0.0000 0.0000 0.0000 ( 18287 PWs)   bands (ev):

   -10.2530  -8.4161  -7.4954  -7.4934  -7.1884  -6.6344  -6.4528  -6.0391
    -6.0235  -5.8633  -5.7809  -5.7190  -5.4557  -5.4548  -5.4201  -5.3190
    -5.0475  -4.9598  -4.9572  -4.9435  -4.7711  -4.7145  -4.6603  -4.6299
    -4.6205  -4.3783  -4.3154  -4.1603  -4.1155  -4.0728  -4.0388  -3.5772
    -3.3440  -2.8302  -2.5090  -2.4394  -2.2624  -2.1991  -1.8626  -1.6926
    -1.6433  -0.5541  -0.4659   0.1904   0.3379   0.4156   0.7849   1.2634
     1.3622   1.9124   2.0210   2.4709   3.1874   3.6487   3.7809   4.1444
     4.6397   4.7179   4.9772   5.0542   5.1332   5.2054   5.3759   5.9317
     6.5695   6.6205   6.9648   7.5961   7.8442   7.9388   7.9397   7.9796

[...]

          k =-0.0890 0.0359 0.0000 ( 18288 PWs)   bands (ev):

[...]

     the Fermi energy is     0.0537 ev

!    total energy              =    -741.64707881 Ry
     Harris-Foulkes estimate   =    -741.64707856 Ry
     estimated scf accuracy    <       0.00000064 Ry

     The total energy is the sum of the following terms:

     one-electron contribution =   -3479.53294692 Ry
     hartree contribution      =    1787.88614636 Ry
     xc contribution           =    -410.24236948 Ry
     ewald contribution        =    1360.26801690 Ry
     electric field correction =       0.00000000 Ry
     smearing contrib. (-TS)   =      -0.02592567 Ry

     convergence has been achieved in  13 iterations

 BEEF-vdW xc energy contributions
           1 :   -364.920180926342
           2 :    337.900103192703
           3 :   -290.185037062956
           4 :    231.739335687192
           5 :   -172.635033143883
           6 :    120.378647906235
           7 :   -78.9318509225529
           8 :    49.1279834795222
           9 :   -29.6934085182144
          10 :    18.2160006607760
          11 :   -11.9044421329224
          12 :    8.23450615752620
          13 :   -5.49747307049654
          14 :    3.03248015029078
          15 :  -0.966225936136595
[...]
00030 suncat0041 pw.x -in pw.inp   Done                     12/18/2018 16:58:28
00031 suncat0041 pw.x -in pw.inp   Done                     12/18/2018 16:58:28

[...]

     Total force =     0.020164     Total SCF correction =     0.001424

[...]

   This run was terminated on:  17: 7:40  18Dec2018

[...]

     Program PWSCF v.5.1rc2 (svn rev. 11289) starts on 18Dec2018 at 17: 7:46

[...]

   This run was terminated on:  17:25: 9  18Dec2018

[...]

     Program PWSCF v.5.1rc2 (svn rev. 11289) starts on 18Dec2018 at 17:25:17

[...]

     Program PWSCF v.5.1rc2 (svn rev. 11289) starts on 18Dec2018 at 17:34: 5

     Current dimensions of program PWSCF are:
     Max number of different atomic species (ntypx) = 10
     Max number of k-points (npk) =  40000
     Max angular momentum in pseudopotentials (lmaxx) =  3
     Presently stress not available with electric field

     IMPORTANT: XC functional enforced from input :
     Exchange-correlation      = BEEF-VDW ( 1  4 27 13 2)
     Any further DFT definition will be discarded
     Please, verify this is what you really want

     Subspace diagonalization in iterative solution of the eigenvalue problem:
     a serial algorithm will be used

     Found symmetry operation: I + ( -0.5000 -0.5000  0.0000)
     This is a supercell, fractional translations are disabled

     bravais-lattice index     =            0
     lattice parameter (alat)  =       1.8897  a.u.
     unit-cell volume          =    4864.8048 (a.u.)^3
     number of atoms/cell      =           12
     number of atomic types    =            2
     number of electrons       =        84.00
     number of Kohn-Sham states=           72
     kinetic-energy cutoff     =      36.7493  Ry
     charge density cutoff     =     367.4932  Ry
     convergence threshold     =      1.0E-06
     mixing beta               =       0.1000
     number of iterations used =           10  plain     mixing
     Exchange-correlation      = BEEF-VDW ( 1  4 27 13 2)
     nstep                     =           50

     celldm(1)=   1.889726  celldm(2)=   0.000000  celldm(3)=   0.000000
     celldm(4)=   0.000000  celldm(5)=   0.000000  celldm(6)=   0.000000

     crystal axes: (cart. coord. in units of alat)
               a(1) = (   5.616509   0.000000   0.000000 )
               a(2) = (   2.098332   5.209815   0.000000 )
               a(3) = (   0.000000   0.000000  24.636558 )

     reciprocal axes: (cart. coord. in units 2 pi/alat)
               b(1) = (  0.178047 -0.071711  0.000000 )
               b(2) = (  0.000000  0.191945  0.000000 )
               b(3) = (  0.000000  0.000000  0.040590 )

     PseudoPot. # 1 for Al read from file:
     /afs/slac.stanford.edu/u/if/mamunm/psp/gbrv1.5pbe/Al.UPF
     MD5 check sum: 0a6289f5291fc8f409219462bc851e1f
     Pseudo is Ultrasoft + core correction, Zval =  3.0
     Generated by new atomic code, or converted to UPF format
     Using radial grid of  893 points,  3 beta functions with:
                l(1) =   0
                l(2) =   1
                l(3) =   2
     Q(r) pseudized with  8 coefficients,  rinner =    0.900   0.900   0.900
                                                       0.900   0.900

     PseudoPot. # 2 for Au read from file:
     /afs/slac.stanford.edu/u/if/mamunm/psp/gbrv1.5pbe/Au.UPF
     MD5 check sum: 9d7f43293ad2c663164586bc4b293ffc
     Pseudo is Ultrasoft + core correction, Zval = 11.0
     Generated by new atomic code, or converted to UPF format
     Using radial grid of  985 points,  7 beta functions with:
                l(1) =   0
                l(2) =   0
                l(3) =   1
                l(4) =   1
                l(5) =   2
                l(6) =   2
                l(7) =   3
     Q(r) pseudized with  6 coefficients,  rinner =    1.900   1.900   1.900
                                                       1.900   1.900   1.900
                                                       1.900

     vdW kernel table read from file vdW_kernel_table
     MD5 check sum: 095c7af220d748ca6e76c0b4c6cfb241

     atomic species   valence    mass     pseudopotential
        Al1            3.00    26.98154     Al( 1.00)
        Au1           11.00   196.96657     Au( 1.00)

     No symmetry found

   Cartesian axes

     site n.     atom                  positions (alat units)
         1           Al1 tau(   1) = (   0.0000000   0.0000000  10.0000000  )
         2           Al1 tau(   2) = (   3.8574204   2.6049077  10.0000000  )
         3           Au1 tau(   3) = (   2.8082545   0.0000000  10.0000000  )
         4           Au1 tau(   4) = (   1.0491659   2.6049077  10.0000000  )
         5           Al1 tau(   5) = (   5.6165090   3.7928164  12.3182789  )
         6           Al1 tau(   6) = (   1.7590886   1.1879087  12.3182789  )
         7           Au1 tau(   7) = (   2.8082545   3.7928164  12.3182789  )
         8           Au1 tau(   8) = (   4.5673430   1.1879087  12.3182789  )
         9           Al1 tau(   9) = (   3.5246126   2.3801509  14.7431564  )
        10           Al1 tau(  10) = (   7.3819923   4.9850485  14.7431566  )
        11           Au1 tau(  11) = (   6.3403324   2.3851833  14.7239915  )
        12           Au1 tau(  12) = (   4.5811920   4.9900616  14.7240299  )

     number of k points=    20  Fermi-Dirac smearing, width (Ry)=  0.0110
                       cart. coord. in units 2pi/alat
        k(    1) = (   0.0000000   0.0000000   0.0000000), wk =   0.0555556
        k(    2) = (   0.0000000   0.0319909   0.0000000), wk =   0.1111111
        k(    3) = (   0.0000000   0.0639818   0.0000000), wk =   0.1111111
        k(    4) = (   0.0000000  -0.0959727   0.0000000), wk =   0.0555556
        k(    5) = (   0.0296744  -0.0119518   0.0000000), wk =   0.1111111
        k(    6) = (   0.0296744   0.0200391   0.0000000), wk =   0.1111111
        k(    7) = (   0.0296744   0.0520300   0.0000000), wk =   0.1111111
        k(    8) = (   0.0296744  -0.1079245   0.0000000), wk =   0.1111111
        k(    9) = (   0.0296744  -0.0759336   0.0000000), wk =   0.1111111
        k(   10) = (   0.0296744  -0.0439427   0.0000000), wk =   0.1111111
        k(   11) = (   0.0593488  -0.0239036   0.0000000), wk =   0.1111111
        k(   12) = (   0.0593488   0.0080873   0.0000000), wk =   0.1111111
        k(   13) = (   0.0593488   0.0400781   0.0000000), wk =   0.1111111
        k(   14) = (   0.0593488  -0.1198763   0.0000000), wk =   0.1111111
        k(   15) = (   0.0593488  -0.0878854   0.0000000), wk =   0.1111111
        k(   16) = (   0.0593488  -0.0558945   0.0000000), wk =   0.1111111
        k(   17) = (  -0.0890233   0.0358555   0.0000000), wk =   0.0555556
        k(   18) = (  -0.0890233   0.0678464   0.0000000), wk =   0.1111111
        k(   19) = (  -0.0890233   0.0998373   0.0000000), wk =   0.1111111
        k(   20) = (  -0.0890233  -0.0601172   0.0000000), wk =   0.0555556

     Largest allocated arrays     est. size (Mb)     dimensions
     Largest temporary arrays     est. size (Mb)     dimensions

     Check: negative/imaginary core charge=   -0.000001    0.000000

     Initial potential from superposition of free atoms
     Check: negative starting charge=   -0.000127

     starting charge   83.98447, renormalised to   84.00000

[...]

     *
     * You are using vdW-DF for exchange-correlation in this calculation.
     * Please cite the following three references that made this development
     * possible:
     *
     *   M. Dion, H. Rydberg, E. Schroder, D. C. Langreth, and
     *   B. I. Lundqvist, Phys. Rev. Lett. 92, 246401 (2004).
     *
     *   T. Thonhauser, V. R. Cooper, S. Li, A. Puzder, P. Hyldgaard, and
     *   D. C. Langreth, Phys. Rev. B 76, 125112 (2007).
     *
     *   G. Roman-Perez and J. M. Soler, Phys. Rev. Lett. 103, 096102 (2009).
     *
     *
     * If you are using vdW-DF2, please also cite:
     *
     *   K. Lee, E. D. Murray, L. Kong, B. I. Lundqvist, and
     *   D. C. Langreth, Phys. Rev. B 82, 081101(R) (2010).
     *
     *
     * If you are calculating the stress with vdW-DF, please also cite:
     *
     *   R. Sabatini, E. Kucukbenli, B. Kolb, T. Thonhauser, and
     *   S. de Gironcoli, J. Phys.: Condens. Matter 24, 424209 (2012).
     *

     Carrying out vdW-DF run using the following parameters:

     Nqs =      20    Nr_points =    1024   r_max =   100.000
     q_mesh =
               0.00001000     0.04494208     0.09755937     0.15916263
               0.23128650     0.31572767     0.41458969     0.53033537
               0.66584808     0.82450364     1.01025438     1.22772762
               1.48234092     1.78043706     2.12944203     2.53805004
               3.01644009     3.57652955     4.23227104     5.00000000

     Gradients computed in reciprocal space

[...]

     Starting wfc are   78 randomized atomic wfcs

     Self-consistent Calculation

[...]

     Threshold (ethr) on eigenvalues was too large:
     Diagonalizing with lowered threshold

     Davidson diagonalization with overlap
     ethr =  7.09E-04,  avg # of iterations =  2.8

[...]

     total energy              =    -741.64967682 Ry
     Harris-Foulkes estimate   =    -741.64967710 Ry
     estimated scf accuracy    <       0.00000142 Ry

     iteration # 13     ecut=    36.75 Ry     beta=0.10
     Davidson diagonalization with overlap
     ethr =  1.70E-09,  avg # of iterations =  2.0

[...]

     negative rho (up, down):  3.116E-04 0.000E+00

     Adding external electric field

     Computed dipole along edir(3) :
        Dipole                0.0085 Ry au,          0.0217 Debye
        Dipole field          0.0000 Ry au

        Potential amp.       -0.0020 Ry
        Total length         45.3924 bohr

     End of self-consistent calculation

[...]

          k = 0.0593-0.0559 0.0000 ( 18254 PWs)   bands (ev):

[...]

          k =-0.0890-0.0601 0.0000 ( 18368 PWs)   bands (ev):

    -8.4362  -8.1946  -7.0636  -6.9743  -6.8675  -6.5770  -6.4899  -6.3779
    -6.2333  -6.2068  -5.7863  -5.7162  -5.7063  -5.6801  -5.5776  -5.4812
    -5.4723  -5.0099  -4.9756  -4.9321  -4.8824  -4.8788  -4.8519  -4.6800
    -4.4846  -4.3937  -4.3828  -4.3485  -4.2236  -4.2221  -4.0522  -3.9229
    -3.9096  -3.5551  -3.5441  -2.8653  -2.5410  -2.2138  -2.0916  -1.9482
    -1.0269  -0.0722   0.5912   0.8713   1.5754   2.4042   2.6806   2.7605
     3.2195   3.5777   3.8395   4.0085   4.2542   4.5145   4.5741   4.7153
     4.7446   5.0183   5.4607   5.7675   5.7893   6.3098   6.3366   6.4026
     6.4454   6.5286   6.5365   6.5411   6.5884   6.8283   7.0097   7.0526

     the Fermi energy is     0.0693 ev

!    total energy              =    -741.64967743 Ry
     Harris-Foulkes estimate   =    -741.64967723 Ry
     estimated scf accuracy    <       0.00000055 Ry

     The total energy is the sum of the following terms:

     one-electron contribution =   -3434.31229064 Ry
     hartree contribution      =    1765.46743044 Ry
     xc contribution           =    -410.15900645 Ry
     ewald contribution        =    1337.37973270 Ry
     electric field correction =       0.00000019 Ry
     smearing contrib. (-TS)   =      -0.02554367 Ry

     convergence has been achieved in  13 iterations

 BEEF-vdW xc energy contributions
           1 :   -364.833021707509
           2 :    337.767185005907
           3 :   -289.993478406486
           4 :    231.518101821152
           5 :   -172.435934760172
           6 :    120.245658102618
           7 :   -78.8786270626808
           8 :    49.1324415105931
           9 :   -29.7068488970748
          10 :    18.1813318249461
          11 :   -11.7794840530688
          12 :    8.01456308438480
          13 :   -5.22557542352581
          14 :    2.78537876047210
          15 :  -0.816617662569399
          16 :  -0.437186497396397
          17 :    1.13433960934469
          18 :   -1.87868254542957
          19 :    3.29705755204350
          20 :   -5.54661623448709
          21 :    8.15819429406696
          22 :   -10.3106643973987
          23 :    11.2882135155145
          24 :   -10.8043099413046
          25 :    9.05338112708387
          26 :   -6.57258977220135
          27 :    4.04863975580633
          28 :   -2.13133843728662
          29 :    1.24728648922428
          30 :   -1.44629433332454
          31 :   -30.3295580003111
          32 :   -22.1257719849281

     Forces acting on atoms (Ry/au):

     negative rho (up, down):  3.116E-04 0.000E+00
     atom    1 type  1   force =     0.00035095    0.00023689   -0.00640181
     atom    2 type  1   force =     0.00035095    0.00023682   -0.00640178
     atom    3 type  2   force =    -0.00166084   -0.00112349   -0.00667899
     atom    4 type  2   force =    -0.00165657   -0.00111817   -0.00667624
     atom    5 type  1   force =     0.00010506    0.00007151    0.00556915
     atom    6 type  1   force =     0.00010591    0.00007051    0.00556952
     atom    7 type  2   force =     0.00047504    0.00032252    0.00747009
     atom    8 type  2   force =     0.00047318    0.00032367    0.00747377
     atom    9 type  1   force =     0.00031543    0.00021132   -0.00023851
     atom   10 type  1   force =     0.00031763    0.00021539   -0.00023850
     atom   11 type  2   force =     0.00041378    0.00027585    0.00027510
     atom   12 type  2   force =     0.00040948    0.00027717    0.00027821

     Total force =     0.018840     Total SCF correction =     0.001156

     entering subroutine stress ...

     negative rho (up, down):  3.116E-04 0.000E+00
          total   stress  (Ry/bohr**3)                   (kbar)     P=  -19.94
  -0.00022042  -0.00001832   0.00000412        -32.42     -2.70      0.61
  -0.00001832  -0.00020566   0.00000278         -2.70    -30.25      0.41
   0.00000412   0.00000278   0.00001942          0.61      0.41      2.86

 !ASE

     Writing output data file calc.save

     General routines

     Parallel routines

   This run was terminated on:  17:42:50  18Dec2018

   JOB DONE.
Job  /afs/slac/g/suncat/bin/suncat-tsmpirun -x LD_LIBRARY_PATH -wdir /scratch/qe529574_Yhin1 pw.x -in pw.inp

TID   HOST_NAME   COMMAND_LINE            STATUS            TERMINATION_TIME
00000 suncat0044 pw.x -in pw.inp   Done                     12/18/2018 17:42:50
00001 suncat0044 pw.x -in pw.inp   Done                     12/18/2018 17:42:50
00002 suncat0044 pw.x -in pw.inp   Done                     12/18/2018 17:42:50
00003 suncat0044 pw.x -in pw.inp   Done                     12/18/2018 17:42:50
00004 suncat0044 pw.x -in pw.inp   Done                     12/18/2018 17:42:50
00005 suncat0044 pw.x -in pw.inp   Done                     12/18/2018 17:42:50
00006 suncat0044 pw.x -in pw.inp   Done                     12/18/2018 17:42:50
00007 suncat0044 pw.x -in pw.inp   Done                     12/18/2018 17:42:50
00008 suncat0043 pw.x -in pw.inp   Done                     12/18/2018 17:42:50
00009 suncat0043 pw.x -in pw.inp   Done                     12/18/2018 17:42:50
00010 suncat0043 pw.x -in pw.inp   Done                     12/18/2018 17:42:50
00011 suncat0043 pw.x -in pw.inp   Done                     12/18/2018 17:42:50
00012 suncat0043 pw.x -in pw.inp   Done                     12/18/2018 17:42:50
00013 suncat0043 pw.x -in pw.inp   Done                     12/18/2018 17:42:50
00014 suncat0043 pw.x -in pw.inp   Done                     12/18/2018 17:42:50
00015 suncat0043 pw.x -in pw.inp   Done                     12/18/2018 17:42:50
00016 suncat0042 pw.x -in pw.inp   Done                     12/18/2018 17:42:50
00017 suncat0042 pw.x -in pw.inp   Done                     12/18/2018 17:42:50
00018 suncat0042 pw.x -in pw.inp   Done                     12/18/2018 17:42:50
00019 suncat0042 pw.x -in pw.inp   Done                     12/18/2018 17:42:50
00020 suncat0042 pw.x -in pw.inp   Done                     12/18/2018 17:42:50
00021 suncat0042 pw.x -in pw.inp   Done                     12/18/2018 17:42:50
00022 suncat0042 pw.x -in pw.inp   Done                     12/18/2018 17:42:50
00023 suncat0042 pw.x -in pw.inp   Done                     12/18/2018 17:42:50
00024 suncat0041 pw.x -in pw.inp   Done                     12/18/2018 17:42:50
00025 suncat0041 pw.x -in pw.inp   Done                     12/18/2018 17:42:50
00026 suncat0041 pw.x -in pw.inp   Done                     12/18/2018 17:42:50
00027 suncat0041 pw.x -in pw.inp   Done                     12/18/2018 17:42:50
00028 suncat0041 pw.x -in pw.inp   Done                     12/18/2018 17:42:50
00029 suncat0041 pw.x -in pw.inp   Done                     12/18/2018 17:42:50
00030 suncat0041 pw.x -in pw.inp   Done                     12/18/2018 17:42:50
00031 suncat0041 pw.x -in pw.inp   Done                     12/18/2018 17:42:50