     Program PWSCF v.5.1rc2 (svn rev. 11289) starts on 24Dec2018 at 13:57:54

     Current dimensions of program PWSCF are:
     Max number of different atomic species (ntypx) = 10
     Max number of k-points (npk) =  40000
     Max angular momentum in pseudopotentials (lmaxx) =  3
     Presently stress not available with electric field

     IMPORTANT: XC functional enforced from input :
     Exchange-correlation      = BEEF-VDW ( 1  4 27 13 2)
     Any further DFT definition will be discarded
     Please, verify this is what you really want

     Subspace diagonalization in iterative solution of the eigenvalue problem:
     a serial algorithm will be used

     Found symmetry operation: I + ( -0.5000 -0.5000  0.0000)
     This is a supercell, fractional translations are disabled

     Generating pointlists ...
     new r_m :   0.4125 (alat units)  0.7795 (a.u.) for type    1
     new r_m :   0.4125 (alat units)  0.7795 (a.u.) for type    2

     bravais-lattice index     =            0
     lattice parameter (alat)  =       1.8897  a.u.
     unit-cell volume          =    4225.9188 (a.u.)^3
     number of atoms/cell      =           12
     number of atomic types    =            2
     number of electrons       =       192.00
     number of Kohn-Sham states=          126
     kinetic-energy cutoff     =      36.7493  Ry
     charge density cutoff     =     367.4932  Ry
     convergence threshold     =      1.0E-06
     mixing beta               =       0.1000
     number of iterations used =           10  plain     mixing
     Exchange-correlation      = BEEF-VDW ( 1  4 27 13 2)
     nstep                     =           50

     celldm(1)=   1.889726  celldm(2)=   0.000000  celldm(3)=   0.000000
     celldm(4)=   0.000000  celldm(5)=   0.000000  celldm(6)=   0.000000

     crystal axes: (cart. coord. in units of alat)
               a(1) = (   5.414598   0.000000   0.000000 )
               a(2) = (   2.631506   4.732129   0.000000 )
               a(3) = (   0.000000   0.000000  24.440033 )

     reciprocal axes: (cart. coord. in units 2 pi/alat)
               b(1) = (  0.184686 -0.102703  0.000000 )
               b(2) = (  0.000000  0.211321  0.000000 )
               b(3) = (  0.000000  0.000000  0.040916 )

     PseudoPot. # 1 for Fe read from file:
     /afs/slac.stanford.edu/u/if/mamunm/psp/gbrv1.5pbe/Fe.UPF
     MD5 check sum: a130daea23fe5165f5d574ae7f82ed95
     Pseudo is Ultrasoft + core correction, Zval = 16.0
     Generated by new atomic code, or converted to UPF format
     Using radial grid of  861 points,  6 beta functions with:
                l(1) =   0
                l(2) =   0
                l(3) =   1
                l(4) =   1
                l(5) =   2
                l(6) =   2
     Q(r) pseudized with  8 coefficients,  rinner =    1.000   1.000   1.000
                                                       1.000   1.000

     PseudoPot. # 2 for Pt read from file:
     /afs/slac.stanford.edu/u/if/mamunm/psp/gbrv1.5pbe/Pt.UPF
     MD5 check sum: f09d6de1a584b5a045c4fc126da2d0c4
     Pseudo is Ultrasoft + core correction, Zval = 16.0
     Generated by new atomic code, or converted to UPF format
     Using radial grid of  985 points,  6 beta functions with:
                l(1) =   0
                l(2) =   0
                l(3) =   1
                l(4) =   1
                l(5) =   2
                l(6) =   2
     Q(r) pseudized with  8 coefficients,  rinner =    1.300   1.300   1.300
                                                       1.300   1.300

     vdW kernel table read from file vdW_kernel_table
     MD5 check sum: 095c7af220d748ca6e76c0b4c6cfb241

     atomic species   valence    mass     pseudopotential
        Fe1           16.00    55.84500     Fe( 1.00)
        Pt1           16.00   195.08400     Pt( 1.00)

     Starting magnetic structure
     atomic species   magnetization
        Fe1          0.125
        Pt1          0.125

     No symmetry found

   Cartesian axes

     site n.     atom                  positions (alat units)
         1           Fe1 tau(   1) = (   0.0000000   0.0000000  10.0000000  )
         2           Fe1 tau(   2) = (   4.0230520   2.3660644  10.0000000  )
         3           Pt1 tau(   3) = (   2.7072989   0.0000000  10.0000000  )
         4           Pt1 tau(   4) = (   1.3157532   2.3660644  10.0000000  )
         5           Fe1 tau(   5) = (   5.4145977   3.1844696  12.2200166  )
         6           Fe1 tau(   6) = (   1.3915457   0.8184052  12.2200166  )
         7           Pt1 tau(   7) = (   2.7072989   3.1844696  12.2200166  )
         8           Pt1 tau(   8) = (   4.0988446   0.8184052  12.2200166  )
         9           Fe1 tau(   9) = (   2.7830914   1.6368104  14.4400332  )
        10           Fe1 tau(  10) = (   6.8061435   4.0028748  14.4400332  )
        11           Pt1 tau(  11) = (   5.4903903   1.6368104  14.4400332  )
        12           Pt1 tau(  12) = (   4.0988446   4.0028748  14.4400332  )

     number of k points=    40  Fermi-Dirac smearing, width (Ry)=  0.0110
                       cart. coord. in units 2pi/alat
        k(    1) = (   0.0000000   0.0000000   0.0000000), wk =   0.0277778
        k(    2) = (   0.0000000   0.0352202   0.0000000), wk =   0.0555556
        k(    3) = (   0.0000000   0.0704405   0.0000000), wk =   0.0555556
        k(    4) = (   0.0000000  -0.1056607   0.0000000), wk =   0.0277778
        k(    5) = (   0.0307810  -0.0171171   0.0000000), wk =   0.0555556
        k(    6) = (   0.0307810   0.0181031   0.0000000), wk =   0.0555556
        k(    7) = (   0.0307810   0.0533234   0.0000000), wk =   0.0555556
        k(    8) = (   0.0307810  -0.1227778   0.0000000), wk =   0.0555556
        k(    9) = (   0.0307810  -0.0875576   0.0000000), wk =   0.0555556
        k(   10) = (   0.0307810  -0.0523373   0.0000000), wk =   0.0555556
        k(   11) = (   0.0615620  -0.0342342   0.0000000), wk =   0.0555556
        k(   12) = (   0.0615620   0.0009860   0.0000000), wk =   0.0555556
        k(   13) = (   0.0615620   0.0362062   0.0000000), wk =   0.0555556
        k(   14) = (   0.0615620  -0.1398949   0.0000000), wk =   0.0555556
        k(   15) = (   0.0615620  -0.1046747   0.0000000), wk =   0.0555556
        k(   16) = (   0.0615620  -0.0694544   0.0000000), wk =   0.0555556
        k(   17) = (  -0.0923430   0.0513513   0.0000000), wk =   0.0277778
        k(   18) = (  -0.0923430   0.0865716   0.0000000), wk =   0.0555556
        k(   19) = (  -0.0923430   0.1217918   0.0000000), wk =   0.0555556
        k(   20) = (  -0.0923430  -0.0543094   0.0000000), wk =   0.0277778
        k(   21) = (   0.0000000   0.0000000   0.0000000), wk =   0.0277778
        k(   22) = (   0.0000000   0.0352202   0.0000000), wk =   0.0555556
        k(   23) = (   0.0000000   0.0704405   0.0000000), wk =   0.0555556
        k(   24) = (   0.0000000  -0.1056607   0.0000000), wk =   0.0277778
        k(   25) = (   0.0307810  -0.0171171   0.0000000), wk =   0.0555556
        k(   26) = (   0.0307810   0.0181031   0.0000000), wk =   0.0555556
        k(   27) = (   0.0307810   0.0533234   0.0000000), wk =   0.0555556
        k(   28) = (   0.0307810  -0.1227778   0.0000000), wk =   0.0555556
        k(   29) = (   0.0307810  -0.0875576   0.0000000), wk =   0.0555556
        k(   30) = (   0.0307810  -0.0523373   0.0000000), wk =   0.0555556
        k(   31) = (   0.0615620  -0.0342342   0.0000000), wk =   0.0555556
        k(   32) = (   0.0615620   0.0009860   0.0000000), wk =   0.0555556
        k(   33) = (   0.0615620   0.0362062   0.0000000), wk =   0.0555556
        k(   34) = (   0.0615620  -0.1398949   0.0000000), wk =   0.0555556
        k(   35) = (   0.0615620  -0.1046747   0.0000000), wk =   0.0555556
        k(   36) = (   0.0615620  -0.0694544   0.0000000), wk =   0.0555556
        k(   37) = (  -0.0923430   0.0513513   0.0000000), wk =   0.0277778
        k(   38) = (  -0.0923430   0.0865716   0.0000000), wk =   0.0555556
        k(   39) = (  -0.0923430   0.1217918   0.0000000), wk =   0.0555556
        k(   40) = (  -0.0923430  -0.0543094   0.0000000), wk =   0.0277778

     Largest allocated arrays     est. size (Mb)     dimensions
     Largest temporary arrays     est. size (Mb)     dimensions

     Check: negative/imaginary core charge=   -0.000004    0.000000

     Initial potential from superposition of free atoms
     Check: negative starting charge=(component1):   -0.621080
     Check: negative starting charge=(component2):   -0.483062

     starting charge  182.99990, renormalised to  192.00000

     negative rho (up, down):  6.516E-01 5.068E-01

     *
     * You are using vdW-DF for exchange-correlation in this calculation.
     * Please cite the following three references that made this development
     * possible:
     *
     *   M. Dion, H. Rydberg, E. Schroder, D. C. Langreth, and
     *   B. I. Lundqvist, Phys. Rev. Lett. 92, 246401 (2004).
     *
     *   T. Thonhauser, V. R. Cooper, S. Li, A. Puzder, P. Hyldgaard, and
     *   D. C. Langreth, Phys. Rev. B 76, 125112 (2007).
     *
     *   G. Roman-Perez and J. M. Soler, Phys. Rev. Lett. 103, 096102 (2009).
     *
     *
     * If you are using vdW-DF2, please also cite:
     *
     *   K. Lee, E. D. Murray, L. Kong, B. I. Lundqvist, and
     *   D. C. Langreth, Phys. Rev. B 82, 081101(R) (2010).
     *
     *
     * If you are calculating the stress with vdW-DF, please also cite:
     *
     *   R. Sabatini, E. Kucukbenli, B. Kolb, T. Thonhauser, and
     *   S. de Gironcoli, J. Phys.: Condens. Matter 24, 424209 (2012).
     *

     Carrying out vdW-DF run using the following parameters:

     Nqs =      20    Nr_points =    1024   r_max =   100.000
     q_mesh =
               0.00001000     0.04494208     0.09755937     0.15916263
               0.23128650     0.31572767     0.41458969     0.53033537
               0.66584808     0.82450364     1.01025438     1.22772762
               1.48234092     1.78043706     2.12944203     2.53805004
               3.01644009     3.57652955     4.23227104     5.00000000

     Gradients computed in reciprocal space

     Adding external electric field

     Computed dipole along edir(3) :
        Dipole               -0.0000 Ry au,         -0.0000 Debye
        Dipole field         -0.0000 Ry au

        Potential amp.        0.0000 Ry
        Total length         45.0303 bohr

[...]

     Starting wfc are  150 randomized atomic wfcs

     Self-consistent Calculation

     iteration #  1     ecut=    36.75 Ry     beta=0.10
     Davidson diagonalization with overlap
     ethr =  1.00E-02,  avg # of iterations =  7.6

[...]

     Magnetic moment per site:
     atom:    1    charge:    7.3555    magn:    0.8557    constr:    0.0000
     atom:    2    charge:    7.3555    magn:    0.8557    constr:    0.0000
     atom:    3    charge:    2.1190    magn:    0.2499    constr:    0.0000
     atom:    4    charge:    2.1190    magn:    0.2499    constr:    0.0000
     atom:    5    charge:    7.3536    magn:    0.8569    constr:    0.0000
     atom:    6    charge:    7.3535    magn:    0.8569    constr:    0.0000
[...]
        k(    4) = (   0.0000000  -0.1056607   0.0000000), wk =   0.0277778
        k(    5) = (   0.0307810  -0.0171171   0.0000000), wk =   0.0555556
        k(    6) = (   0.0307810   0.0181031   0.0000000), wk =   0.0555556
        k(    7) = (   0.0307810   0.0533234   0.0000000), wk =   0.0555556
        k(    8) = (   0.0307810  -0.1227778   0.0000000), wk =   0.0555556
        k(    9) = (   0.0307810  -0.0875576   0.0000000), wk =   0.0555556
        k(   10) = (   0.0307810  -0.0523373   0.0000000), wk =   0.0555556
        k(   11) = (   0.0615620  -0.0342342   0.0000000), wk =   0.0555556
        k(   12) = (   0.0615620   0.0009860   0.0000000), wk =   0.0555556
        k(   13) = (   0.0615620   0.0362062   0.0000000), wk =   0.0555556
        k(   14) = (   0.0615620  -0.1398949   0.0000000), wk =   0.0555556
        k(   15) = (   0.0615620  -0.1046747   0.0000000), wk =   0.0555556
        k(   16) = (   0.0615620  -0.0694544   0.0000000), wk =   0.0555556
        k(   17) = (  -0.0923430   0.0513513   0.0000000), wk =   0.0277778
        k(   18) = (  -0.0923430   0.0865716   0.0000000), wk =   0.0555556
        k(   19) = (  -0.0923430   0.1217918   0.0000000), wk =   0.0555556
        k(   20) = (  -0.0923430  -0.0543094   0.0000000), wk =   0.0277778
        k(   21) = (   0.0000000   0.0000000   0.0000000), wk =   0.0277778
        k(   22) = (   0.0000000   0.0352202   0.0000000), wk =   0.0555556
        k(   23) = (   0.0000000   0.0704405   0.0000000), wk =   0.0555556
        k(   24) = (   0.0000000  -0.1056607   0.0000000), wk =   0.0277778
        k(   25) = (   0.0307810  -0.0171171   0.0000000), wk =   0.0555556
        k(   26) = (   0.0307810   0.0181031   0.0000000), wk =   0.0555556
        k(   27) = (   0.0307810   0.0533234   0.0000000), wk =   0.0555556
        k(   28) = (   0.0307810  -0.1227778   0.0000000), wk =   0.0555556
        k(   29) = (   0.0307810  -0.0875576   0.0000000), wk =   0.0555556
        k(   30) = (   0.0307810  -0.0523373   0.0000000), wk =   0.0555556
        k(   31) = (   0.0615620  -0.0342342   0.0000000), wk =   0.0555556
        k(   32) = (   0.0615620   0.0009860   0.0000000), wk =   0.0555556
        k(   33) = (   0.0615620   0.0362062   0.0000000), wk =   0.0555556
        k(   34) = (   0.0615620  -0.1398949   0.0000000), wk =   0.0555556
        k(   35) = (   0.0615620  -0.1046747   0.0000000), wk =   0.0555556
        k(   36) = (   0.0615620  -0.0694544   0.0000000), wk =   0.0555556
        k(   37) = (  -0.0923430   0.0513513   0.0000000), wk =   0.0277778
        k(   38) = (  -0.0923430   0.0865716   0.0000000), wk =   0.0555556
        k(   39) = (  -0.0923430   0.1217918   0.0000000), wk =   0.0555556
        k(   40) = (  -0.0923430  -0.0543094   0.0000000), wk =   0.0277778

     Largest allocated arrays     est. size (Mb)     dimensions
     Largest temporary arrays     est. size (Mb)     dimensions

     Check: negative/imaginary core charge=   -0.000004    0.000000

     Initial potential from superposition of free atoms
     Check: negative starting charge=(component1):   -0.621395
     Check: negative starting charge=(component2):   -0.483307

     starting charge  182.99990, renormalised to  192.00000

[...]

     *
     * You are using vdW-DF for exchange-correlation in this calculation.
     * Please cite the following three references that made this development
     * possible:
     *
     *   M. Dion, H. Rydberg, E. Schroder, D. C. Langreth, and
     *   B. I. Lundqvist, Phys. Rev. Lett. 92, 246401 (2004).
     *
     *   T. Thonhauser, V. R. Cooper, S. Li, A. Puzder, P. Hyldgaard, and
     *   D. C. Langreth, Phys. Rev. B 76, 125112 (2007).
     *
     *   G. Roman-Perez and J. M. Soler, Phys. Rev. Lett. 103, 096102 (2009).
     *
     *
     * If you are using vdW-DF2, please also cite:
     *
     *   K. Lee, E. D. Murray, L. Kong, B. I. Lundqvist, and
     *   D. C. Langreth, Phys. Rev. B 82, 081101(R) (2010).
     *
     *
     * If you are calculating the stress with vdW-DF, please also cite:
     *
     *   R. Sabatini, E. Kucukbenli, B. Kolb, T. Thonhauser, and
     *   S. de Gironcoli, J. Phys.: Condens. Matter 24, 424209 (2012).
     *

     Carrying out vdW-DF run using the following parameters:

     Nqs =      20    Nr_points =    1024   r_max =   100.000
     q_mesh =
               0.00001000     0.04494208     0.09755937     0.15916263
               0.23128650     0.31572767     0.41458969     0.53033537
               0.66584808     0.82450364     1.01025438     1.22772762
               1.48234092     1.78043706     2.12944203     2.53805004
               3.01644009     3.57652955     4.23227104     5.00000000

     Gradients computed in reciprocal space

[...]

     Starting wfc are  150 randomized atomic wfcs

     Self-consistent Calculation

[...]

     total energy              =   -2782.28541292 Ry
     Harris-Foulkes estimate   =   -2782.28540885 Ry
     estimated scf accuracy    <       0.00000146 Ry

[...]

     iteration # 26     ecut=    36.75 Ry     beta=0.10
     Davidson diagonalization with overlap
     ethr =  7.63E-10,  avg # of iterations =  2.0

[...]

     negative rho (up, down):  5.412E-01 5.191E-01

[...]

     Adding external electric field

     Computed dipole along edir(3) :
        Dipole               -0.0032 Ry au,         -0.0080 Debye
        Dipole field         -0.0000 Ry au

        Potential amp.        0.0008 Ry
        Total length         45.0303 bohr

     Magnetic moment per site:
     atom:    1    charge:    7.0978    magn:    1.4810    constr:    0.0000
     atom:    2    charge:    7.0978    magn:    1.4811    constr:    0.0000
     atom:    3    charge:    2.1047    magn:    0.0330    constr:    0.0000
     atom:    4    charge:    2.1047    magn:    0.0330    constr:    0.0000
     atom:    5    charge:    7.1008    magn:    1.4805    constr:    0.0000
     atom:    6    charge:    7.1007    magn:    1.4805    constr:    0.0000
     atom:    7    charge:    2.1115    magn:    0.0433    constr:    0.0000
     atom:    8    charge:    2.1115    magn:    0.0433    constr:    0.0000
     atom:    9    charge:    7.0950    magn:    1.4789    constr:    0.0000
     atom:   10    charge:    7.0950    magn:    1.4790    constr:    0.0000
     atom:   11    charge:    2.1017    magn:    0.0338    constr:    0.0000
     atom:   12    charge:    2.1017    magn:    0.0338    constr:    0.0000

     End of self-consistent calculation

 ------ SPIN UP ------------

[...]

 ------ SPIN DOWN ----------

[...]

          k = 0.0616-0.0695 0.0000 ( 15916 PWs)   bands (ev):

[...]

          k =-0.0923-0.0543 0.0000 ( 15904 PWs)   bands (ev):

   -84.0541 -84.0498 -84.0453 -84.0410 -84.0304 -84.0215 -51.4504 -51.3390
   -51.3088 -51.2888 -51.2609 -51.1754 -51.0923 -51.0792 -50.9457 -50.9357
   -50.9191 -50.9102 -50.8320 -50.8184 -50.8078 -50.8052 -50.7994 -50.7802
   -50.1991 -50.1892 -50.1798 -50.1763 -50.1711 -50.1641 -50.1613 -50.1611
   -50.1601 -50.1553 -50.1510 -50.1505 -50.1413 -50.0836 -50.0788 -50.0768
   -50.0641 -50.0585  -5.5887  -4.9125  -4.2769  -3.8026  -3.5285  -3.4232
    -3.3059  -3.2865  -3.0369  -2.9724  -2.6385  -2.5670  -2.4879  -2.4764
    -2.3374  -2.2383  -1.9289  -1.6025  -1.4751  -1.4511  -1.3889  -1.3333
    -1.0143  -0.9025  -0.7178  -0.6135  -0.5409  -0.3442  -0.0885   0.0260
     0.0280   0.1508   0.2353   0.3015   0.4187   0.5622   0.5659   0.6446
     0.7660   0.7985   0.8357   0.8368   0.8701   0.9377   1.0536   1.0896
     1.4189   1.4639   1.8638   1.9167   2.0452   2.1254   2.1934   2.2193
     2.3218   2.3240   2.3269   2.4022   2.4732   2.5466   2.7514   2.8127
     2.9743   3.0165   3.6069   3.6567   3.9812   4.0721   4.6515   4.6662
     5.6214   5.6639   6.3177   6.6057   7.3076   7.3221   7.8524   7.8682
     7.9878   7.9974   8.7119   9.0706   9.0935   9.3190

     the Fermi energy is     1.4668 ev

!    total energy              =   -2782.28542591 Ry
     Harris-Foulkes estimate   =   -2782.28541320 Ry
     estimated scf accuracy    <       0.00000038 Ry

     The total energy is the sum of the following terms:

     one-electron contribution =  -22242.78560803 Ry
     hartree contribution      =   11138.05251887 Ry
     xc contribution           =    -533.68942527 Ry
     ewald contribution        =    8856.20233739 Ry
     electric field correction =       0.00000003 Ry
     smearing contrib. (-TS)   =      -0.06524890 Ry

     total magnetization       =    20.80 Bohr mag/cell
     absolute magnetization    =    22.05 Bohr mag/cell

     convergence has been achieved in  26 iterations

 BEEF-vdW xc energy contributions
           1 :   -472.579331813411
           2 :    435.588588404262
           3 :   -371.239683943458
           4 :    294.575724509383
           5 :   -220.282672211706
           6 :    158.197615793135
           7 :   -111.769683254120
           8 :    79.2939163862794
           9 :   -56.6019015752222
          10 :    39.6113545034169
          11 :   -25.7512393705960
          12 :    14.0842546248825
          13 :   -4.66264187557675
          14 :   -2.21755347676617
          15 :    6.44004088129975
          16 :   -8.18153919346264
          17 :    7.88152798532849
          18 :   -6.20500617882635
          19 :    3.96939336556522
          20 :   -2.00031759177875
          21 :   0.918388580662736
          22 :  -0.963070639080456
          23 :    1.94192701763467
          24 :   -3.35458497042009
          25 :    4.61885994216368
          26 :   -5.29689921081979
          27 :    5.22165684861631
          28 :   -4.51695800640744
          29 :    3.52722422487500
          30 :   -2.69288219122461
          31 :   -39.5645788420233
          32 :   -28.7554094500373

     Forces acting on atoms (Ry/au):

     negative rho (up, down):  5.412E-01 5.191E-01
     atom    1 type  1   force =     0.00826584    0.00486146    0.00724285
     atom    2 type  1   force =     0.00825999    0.00485784    0.00723003
     atom    3 type  2   force =    -0.01464362   -0.00861291    0.00183067
     atom    4 type  2   force =    -0.01464421   -0.00861202    0.00183068
     atom    5 type  1   force =     0.00162145    0.00095375   -0.00641351
     atom    6 type  1   force =     0.00159223    0.00093631   -0.00638440
     atom    7 type  2   force =     0.00460183    0.00272765   -0.00161676
     atom    8 type  2   force =     0.00462025    0.00269609   -0.00161690
     atom    9 type  1   force =    -0.00073220   -0.00043052    0.00041711
     atom   10 type  1   force =    -0.00070349   -0.00041365    0.00036171
     atom   11 type  2   force =     0.00097029    0.00036625   -0.00144058
     atom   12 type  2   force =     0.00079164    0.00066976   -0.00144089

     Total force =     0.032121     Total SCF correction =     0.002644

     entering subroutine stress ...

     negative rho (up, down):  5.412E-01 5.191E-01
          total   stress  (Ry/bohr**3)                   (kbar)     P=  -13.98
  -0.00013713  -0.00002011   0.00001350        -20.17     -2.96      1.99
  -0.00002011  -0.00011477   0.00000794         -2.96    -16.88      1.17
   0.00001350   0.00000794  -0.00003311          1.99      1.17     -4.87

 !ASE

     Writing output data file calc.save

     General routines

     Parallel routines

   This run was terminated on:  19:15:19  24Dec2018

   JOB DONE.
Job  /afs/slac/g/suncat/bin/suncat-tsmpirun -x LD_LIBRARY_PATH -wdir /scratch/qe108926_6aG6E pw.x -in pw.inp

TID   HOST_NAME   COMMAND_LINE            STATUS            TERMINATION_TIME
00000 suncat0038 pw.x -in pw.inp   Done                     12/24/2018 19:15:19
00001 suncat0038 pw.x -in pw.inp   Done                     12/24/2018 19:15:19
00002 suncat0038 pw.x -in pw.inp   Done                     12/24/2018 19:15:19
00003 suncat0038 pw.x -in pw.inp   Done                     12/24/2018 19:15:19
00004 suncat0038 pw.x -in pw.inp   Done                     12/24/2018 19:15:19
00005 suncat0038 pw.x -in pw.inp   Done                     12/24/2018 19:15:19
00006 suncat0038 pw.x -in pw.inp   Done                     12/24/2018 19:15:19
00007 suncat0038 pw.x -in pw.inp   Done                     12/24/2018 19:15:19
00008 suncat0037 pw.x -in pw.inp   Done                     12/24/2018 19:15:19
00009 suncat0037 pw.x -in pw.inp   Done                     12/24/2018 19:15:19
00010 suncat0037 pw.x -in pw.inp   Done                     12/24/2018 19:15:19
00011 suncat0037 pw.x -in pw.inp   Done                     12/24/2018 19:15:19
00012 suncat0037 pw.x -in pw.inp   Done                     12/24/2018 19:15:19
00013 suncat0037 pw.x -in pw.inp   Done                     12/24/2018 19:15:19
00014 suncat0037 pw.x -in pw.inp   Done                     12/24/2018 19:15:19
00015 suncat0037 pw.x -in pw.inp   Done                     12/24/2018 19:15:19
00016 suncat0033 pw.x -in pw.inp   Done                     12/24/2018 19:15:19
00017 suncat0033 pw.x -in pw.inp   Done                     12/24/2018 19:15:19
00018 suncat0033 pw.x -in pw.inp   Done                     12/24/2018 19:15:19
00019 suncat0033 pw.x -in pw.inp   Done                     12/24/2018 19:15:19
00020 suncat0033 pw.x -in pw.inp   Done                     12/24/2018 19:15:19
00021 suncat0033 pw.x -in pw.inp   Done                     12/24/2018 19:15:19
00022 suncat0033 pw.x -in pw.inp   Done                     12/24/2018 19:15:19
00023 suncat0033 pw.x -in pw.inp   Done                     12/24/2018 19:15:19
00024 suncat0032 pw.x -in pw.inp   Done                     12/24/2018 19:15:19
00025 suncat0032 pw.x -in pw.inp   Done                     12/24/2018 19:15:19
00026 suncat0032 pw.x -in pw.inp   Done                     12/24/2018 19:15:19
00027 suncat0032 pw.x -in pw.inp   Done                     12/24/2018 19:15:19
00028 suncat0032 pw.x -in pw.inp   Done                     12/24/2018 19:15:19
00029 suncat0032 pw.x -in pw.inp   Done                     12/24/2018 19:15:19
00030 suncat0032 pw.x -in pw.inp   Done                     12/24/2018 19:15:19
00031 suncat0032 pw.x -in pw.inp   Done                     12/24/2018 19:15:19
00032 suncat0167 pw.x -in pw.inp   Done                     12/24/2018 19:15:19
00033 suncat0167 pw.x -in pw.inp   Done                     12/24/2018 19:15:19
00034 suncat0167 pw.x -in pw.inp   Done                     12/24/2018 19:15:19
00035 suncat0167 pw.x -in pw.inp   Done                     12/24/2018 19:15:19
00036 suncat0167 pw.x -in pw.inp   Done                     12/24/2018 19:15:19
00037 suncat0167 pw.x -in pw.inp   Done                     12/24/2018 19:15:19
00038 suncat0167 pw.x -in pw.inp   Done                     12/24/2018 19:15:19
00039 suncat0167 pw.x -in pw.inp   Done                     12/24/2018 19:15:19
00040 suncat0166 pw.x -in pw.inp   Done                     12/24/2018 19:15:19
00041 suncat0166 pw.x -in pw.inp   Done                     12/24/2018 19:15:19
00042 suncat0166 pw.x -in pw.inp   Done                     12/24/2018 19:15:19
00043 suncat0166 pw.x -in pw.inp   Done                     12/24/2018 19:15:19
00044 suncat0166 pw.x -in pw.inp   Done                     12/24/2018 19:15:19
00045 suncat0166 pw.x -in pw.inp   Done                     12/24/2018 19:15:19
00046 suncat0166 pw.x -in pw.inp   Done                     12/24/2018 19:15:19
00047 suncat0166 pw.x -in pw.inp   Done                     12/24/2018 19:15:19
00048 suncat0165 pw.x -in pw.inp   Done                     12/24/2018 19:15:19
00049 suncat0165 pw.x -in pw.inp   Done                     12/24/2018 19:15:19
00050 suncat0165 pw.x -in pw.inp   Done                     12/24/2018 19:15:19
00051 suncat0165 pw.x -in pw.inp   Done                     12/24/2018 19:15:19
00052 suncat0165 pw.x -in pw.inp   Done                     12/24/2018 19:15:19
00053 suncat0165 pw.x -in pw.inp   Done                     12/24/2018 19:15:19
00054 suncat0165 pw.x -in pw.inp   Done                     12/24/2018 19:15:19
00055 suncat0165 pw.x -in pw.inp   Done                     12/24/2018 19:15:19
00056 suncat0164 pw.x -in pw.inp   Done                     12/24/2018 19:15:19
00057 suncat0164 pw.x -in pw.inp   Done                     12/24/2018 19:15:19
00058 suncat0164 pw.x -in pw.inp   Done                     12/24/2018 19:15:19
00059 suncat0164 pw.x -in pw.inp   Done                     12/24/2018 19:15:19
00060 suncat0164 pw.x -in pw.inp   Done                     12/24/2018 19:15:19
00061 suncat0164 pw.x -in pw.inp   Done                     12/24/2018 19:15:19
00062 suncat0164 pw.x -in pw.inp   Done                     12/24/2018 19:15:19
00063 suncat0164 pw.x -in pw.inp   Done                     12/24/2018 19:15:19