     Program PWSCF v.5.1rc2 (svn rev. 11289) starts on 19Dec2018 at  0:57: 1

     Current dimensions of program PWSCF are:
     Max number of different atomic species (ntypx) = 10
     Max number of k-points (npk) =  40000
     Max angular momentum in pseudopotentials (lmaxx) =  3
     Presently stress not available with electric field

     IMPORTANT: XC functional enforced from input :
     Exchange-correlation      = BEEF-VDW ( 1  4 27 13 2)
     Any further DFT definition will be discarded
     Please, verify this is what you really want

     Subspace diagonalization in iterative solution of the eigenvalue problem:
     a serial algorithm will be used

     Found symmetry operation: I + ( -0.5000  0.0000  0.0000)
     This is a supercell, fractional translations are disabled

     bravais-lattice index     =            0
     lattice parameter (alat)  =       1.8897  a.u.
     unit-cell volume          =    4276.6577 (a.u.)^3
     number of atoms/cell      =           12
     number of atomic types    =            2
     number of electrons       =       186.00
     number of Kohn-Sham states=          123
     kinetic-energy cutoff     =      36.7493  Ry
     charge density cutoff     =     367.4932  Ry
     convergence threshold     =      1.0E-06
     mixing beta               =       0.1000
     number of iterations used =           10  plain     mixing
     Exchange-correlation      = BEEF-VDW ( 1  4 27 13 2)
     nstep                     =           50

     celldm(1)=   1.889726  celldm(2)=   0.000000  celldm(3)=   0.000000
     celldm(4)=   0.000000  celldm(5)=   0.000000  celldm(6)=   0.000000

     crystal axes: (cart. coord. in units of alat)
               a(1) = (   5.446674   0.000000   0.000000 )
               a(2) = (  -2.723337   4.755835   0.000000 )
               a(3) = (   0.000000   0.000000  24.465256 )

     reciprocal axes: (cart. coord. in units 2 pi/alat)
               b(1) = (  0.183598  0.105134  0.000000 )
               b(2) = (  0.000000  0.210268  0.000000 )
               b(3) = (  0.000000  0.000000  0.040874 )

     PseudoPot. # 1 for Os read from file:
     /afs/slac.stanford.edu/u/if/mamunm/psp/gbrv1.5pbe/Os.UPF
     MD5 check sum: a3fb40a04f0c37c25c34bbc47164c9a8
     Pseudo is Ultrasoft + core correction, Zval = 16.0
     Generated by new atomic code, or converted to UPF format
     Using radial grid of  983 points,  8 beta functions with:
                l(1) =   0
                l(2) =   0
                l(3) =   1
                l(4) =   1
                l(5) =   2
                l(6) =   2
                l(7) =   3
                l(8) =   3
     Q(r) pseudized with  8 coefficients,  rinner =    1.150   1.150   1.150
                                                       1.150   1.150   1.150
                                                       1.150

     PseudoPot. # 2 for Ir read from file:
     /afs/slac.stanford.edu/u/if/mamunm/psp/gbrv1.5pbe/Ir.UPF
     MD5 check sum: 8836f839c3459d2b385c504ce6d91f2c
     Pseudo is Ultrasoft + core correction, Zval = 15.0
     Generated by new atomic code, or converted to UPF format
     Using radial grid of  983 points,  7 beta functions with:
                l(1) =   0
                l(2) =   0
                l(3) =   1
                l(4) =   1
                l(5) =   1
                l(6) =   2
                l(7) =   2
     Q(r) pseudized with  8 coefficients,  rinner =    1.400   1.400   1.400
                                                       1.400   1.400

     vdW kernel table read from file vdW_kernel_table
     MD5 check sum: 095c7af220d748ca6e76c0b4c6cfb241

     atomic species   valence    mass     pseudopotential
        Os1           16.00   190.23000     Os( 1.00)
        Ir1           15.00   192.21700     Ir( 1.00)

     No symmetry found

   Cartesian axes

     site n.     atom                  positions (alat units)
         1           Os1 tau(   1) = (   0.0000000   0.0000000  10.0000000  )
         2           Os1 tau(   2) = (   2.7233368   0.0000000  10.0000000  )
         3           Ir1 tau(   3) = (   1.3616684   2.3779174  10.0000000  )
         4           Ir1 tau(   4) = (  -1.3616684   2.3779174  10.0000000  )
         5           Os1 tau(   5) = (   2.7233368   1.5594662  12.2326282  )
         6           Os1 tau(   6) = (  -0.0000000   1.5594662  12.2326282  )
         7           Ir1 tau(   7) = (  -1.3616684   3.9373836  12.2326282  )
         8           Ir1 tau(   8) = (   1.3616684   3.9373836  12.2326282  )
         9           Os1 tau(   9) = (   0.0000000   3.1189323  14.4652564  )
        10           Os1 tau(  10) = (   2.7233368   3.1189323  14.4652564  )
        11           Ir1 tau(  11) = (   4.0850052   0.7410149  14.4652564  )
        12           Ir1 tau(  12) = (   1.3616684   0.7410149  14.4652564  )

     number of k points=    20  Fermi-Dirac smearing, width (Ry)=  0.0110
                       cart. coord. in units 2pi/alat
        k(    1) = (   0.0000000   0.0000000   0.0000000), wk =   0.0555556
        k(    2) = (   0.0000000   0.0350447   0.0000000), wk =   0.1111111
        k(    3) = (   0.0000000   0.0700893   0.0000000), wk =   0.1111111
        k(    4) = (   0.0000000  -0.1051340   0.0000000), wk =   0.0555556
        k(    5) = (   0.0305997   0.0175223   0.0000000), wk =   0.1111111
        k(    6) = (   0.0305997   0.0525670   0.0000000), wk =   0.1111111
        k(    7) = (   0.0305997   0.0876117   0.0000000), wk =   0.1111111
        k(    8) = (   0.0305997  -0.0876117   0.0000000), wk =   0.1111111
        k(    9) = (   0.0305997  -0.0525670   0.0000000), wk =   0.1111111
        k(   10) = (   0.0305997  -0.0175223   0.0000000), wk =   0.1111111
        k(   11) = (   0.0611994   0.0350447   0.0000000), wk =   0.1111111
        k(   12) = (   0.0611994   0.0700893   0.0000000), wk =   0.1111111
        k(   13) = (   0.0611994   0.1051340   0.0000000), wk =   0.1111111
        k(   14) = (   0.0611994  -0.0700893   0.0000000), wk =   0.1111111
        k(   15) = (   0.0611994  -0.0350447   0.0000000), wk =   0.1111111
        k(   16) = (   0.0611994  -0.0000000   0.0000000), wk =   0.1111111
        k(   17) = (  -0.0917991  -0.0525670   0.0000000), wk =   0.0555556
        k(   18) = (  -0.0917991  -0.0175223   0.0000000), wk =   0.1111111
        k(   19) = (  -0.0917991   0.0175223   0.0000000), wk =   0.1111111
        k(   20) = (  -0.0917991  -0.1577010   0.0000000), wk =   0.0555556

     Largest allocated arrays     est. size (Mb)     dimensions
     Largest temporary arrays     est. size (Mb)     dimensions

     Initial potential from superposition of free atoms
     Check: negative starting charge=   -2.922277

     starting charge  179.99959, renormalised to  186.00000

     negative rho (up, down):  3.020E+00 0.000E+00

     *
     * You are using vdW-DF for exchange-correlation in this calculation.
     * Please cite the following three references that made this development
     * possible:
     *
     *   M. Dion, H. Rydberg, E. Schroder, D. C. Langreth, and
     *   B. I. Lundqvist, Phys. Rev. Lett. 92, 246401 (2004).
     *
     *   T. Thonhauser, V. R. Cooper, S. Li, A. Puzder, P. Hyldgaard, and
     *   D. C. Langreth, Phys. Rev. B 76, 125112 (2007).
     *
     *   G. Roman-Perez and J. M. Soler, Phys. Rev. Lett. 103, 096102 (2009).
     *
     *
     * If you are using vdW-DF2, please also cite:
     *
     *   K. Lee, E. D. Murray, L. Kong, B. I. Lundqvist, and
     *   D. C. Langreth, Phys. Rev. B 82, 081101(R) (2010).
     *
     *
     * If you are calculating the stress with vdW-DF, please also cite:
     *
     *   R. Sabatini, E. Kucukbenli, B. Kolb, T. Thonhauser, and
     *   S. de Gironcoli, J. Phys.: Condens. Matter 24, 424209 (2012).
     *

     Carrying out vdW-DF run using the following parameters:

     Nqs =      20    Nr_points =    1024   r_max =   100.000
     q_mesh =
               0.00001000     0.04494208     0.09755937     0.15916263
               0.23128650     0.31572767     0.41458969     0.53033537
               0.66584808     0.82450364     1.01025438     1.22772762
               1.48234092     1.78043706     2.12944203     2.53805004
               3.01644009     3.57652955     4.23227104     5.00000000

     Gradients computed in reciprocal space

     Adding external electric field

     Computed dipole along edir(3) :
        Dipole                0.0000 Ry au,          0.0000 Debye
        Dipole field          0.0000 Ry au

        Potential amp.       -0.0000 Ry
        Total length         45.0768 bohr

     Starting wfc are  150 randomized atomic wfcs

     Self-consistent Calculation

     iteration #  1     ecut=    36.75 Ry     beta=0.10
     Davidson diagonalization with overlap
     ethr =  1.00E-02,  avg # of iterations =  7.7

[...]

     total energy              =   -2298.07941961 Ry
     Harris-Foulkes estimate   =   -2301.86731526 Ry
     estimated scf accuracy    <      22.19051571 Ry

[...]

     iteration #  8     ecut=    36.75 Ry     beta=0.10
     Davidson diagonalization with overlap
     c_bands:  1 eigenvalues not converged
     ethr =  1.51E-05,  avg # of iterations =  8.3

[...]

     End of self-consistent calculation

          k = 0.0000 0.0000 0.0000 ( 16001 PWs)   bands (ev):

   -84.4444 -84.4151 -83.9710 -83.9707 -83.9418 -83.9415 -47.3756 -47.2220
   -47.2060 -47.1755 -47.1535 -46.9735 -46.8722 -46.8676 -46.7452 -46.7424
   -46.6944 -46.6885 -46.6323 -46.6084 -46.5940 -46.5668 -46.4731 -46.4729
   -43.9065 -43.7782 -43.7350 -43.6739 -43.6405 -43.4671 -43.4603 -43.4147
   -43.2250 -43.1987 -43.1975 -43.1741 -43.1629 -43.1625 -43.1530 -43.1121
   -42.9721 -42.9707  -6.9248  -4.9761  -4.5816  -4.2736  -4.2621  -4.2218
    -3.9673  -3.9460  -3.9134  -3.4119  -3.4091  -3.3952  -3.1449  -3.1262
    -3.0727  -1.6927  -1.6132  -1.5576  -1.0932  -0.9778  -0.9115  -0.7388
    -0.5582  -0.5409  -0.4854  -0.1989  -0.0807  -0.0761   0.0694   0.1349
     0.2004   0.2472   0.3045   0.4264   0.6712   1.6468   1.6718   1.7828
     1.7866   1.8888   2.0142   2.0240   2.0453   2.1356   2.8087   3.0321
     3.0419   3.1105   3.3362   3.3947   3.6135   3.6895   3.9044   3.9367
     3.9511   3.9518   3.9533   3.9537   3.9981   4.3063   4.4432   4.5270
     4.5916   4.8004   4.8863   5.0696   5.1815   6.0432   6.1317   6.2996
     6.4585   6.5418   6.7874   7.2270   7.4475   7.8639   8.7678   9.6712
     9.7394   9.7628   9.7637

[...]

          k =-0.0918-0.0526 0.0000 ( 16088 PWs)   bands (ev):

[...]

     the Fermi energy is     2.7122 ev

!    total energy              =   -2298.50664234 Ry
     Harris-Foulkes estimate   =   -2298.50663039 Ry
     estimated scf accuracy    <       0.00000098 Ry

     The total energy is the sum of the following terms:

     one-electron contribution =  -19805.49888743 Ry
     hartree contribution      =    9907.72080256 Ry
     xc contribution           =    -543.78745021 Ry
     ewald contribution        =    8143.13215821 Ry
     electric field correction =       0.00000000 Ry
     smearing contrib. (-TS)   =      -0.07326547 Ry

     convergence has been achieved in  15 iterations

[...]

[...]

   This run was terminated on:   1: 7: 1  19Dec2018

[...]

     Program PWSCF v.5.1rc2 (svn rev. 11289) starts on 19Dec2018 at  1: 7: 7

[...]

   This run was terminated on:   1:12:11  19Dec2018

[...]

     Program PWSCF v.5.1rc2 (svn rev. 11289) starts on 19Dec2018 at  1:12:17

     Current dimensions of program PWSCF are:
     Max number of different atomic species (ntypx) = 10
     Max number of k-points (npk) =  40000
     Max angular momentum in pseudopotentials (lmaxx) =  3
     Presently stress not available with electric field

     IMPORTANT: XC functional enforced from input :
     Exchange-correlation      = BEEF-VDW ( 1  4 27 13 2)
     Any further DFT definition will be discarded
     Please, verify this is what you really want

     Subspace diagonalization in iterative solution of the eigenvalue problem:
     a serial algorithm will be used

     Found symmetry operation: I + ( -0.5000  0.0000  0.0000)
     This is a supercell, fractional translations are disabled

     bravais-lattice index     =            0
     lattice parameter (alat)  =       1.8897  a.u.
     unit-cell volume          =    4276.6577 (a.u.)^3
     number of atoms/cell      =           12
     number of atomic types    =            2
     number of electrons       =       186.00
     number of Kohn-Sham states=          123
     kinetic-energy cutoff     =      36.7493  Ry
     charge density cutoff     =     367.4932  Ry
     convergence threshold     =      1.0E-06
     mixing beta               =       0.1000
     number of iterations used =           10  plain     mixing
     Exchange-correlation      = BEEF-VDW ( 1  4 27 13 2)
     nstep                     =           50

     celldm(1)=   1.889726  celldm(2)=   0.000000  celldm(3)=   0.000000
     celldm(4)=   0.000000  celldm(5)=   0.000000  celldm(6)=   0.000000

     crystal axes: (cart. coord. in units of alat)
               a(1) = (   5.446674   0.000000   0.000000 )
               a(2) = (  -2.723337   4.755835   0.000000 )
               a(3) = (   0.000000   0.000000  24.465256 )

     reciprocal axes: (cart. coord. in units 2 pi/alat)
               b(1) = (  0.183598  0.105134  0.000000 )
               b(2) = (  0.000000  0.210268  0.000000 )
               b(3) = (  0.000000  0.000000  0.040874 )

     PseudoPot. # 1 for Os read from file:
     /afs/slac.stanford.edu/u/if/mamunm/psp/gbrv1.5pbe/Os.UPF
     MD5 check sum: a3fb40a04f0c37c25c34bbc47164c9a8
     Pseudo is Ultrasoft + core correction, Zval = 16.0
     Generated by new atomic code, or converted to UPF format
     Using radial grid of  983 points,  8 beta functions with:
                l(1) =   0
                l(2) =   0
                l(3) =   1
                l(4) =   1
                l(5) =   2
                l(6) =   2
                l(7) =   3
                l(8) =   3
     Q(r) pseudized with  8 coefficients,  rinner =    1.150   1.150   1.150
                                                       1.150   1.150   1.150
                                                       1.150

     PseudoPot. # 2 for Ir read from file:
     /afs/slac.stanford.edu/u/if/mamunm/psp/gbrv1.5pbe/Ir.UPF
     MD5 check sum: 8836f839c3459d2b385c504ce6d91f2c
     Pseudo is Ultrasoft + core correction, Zval = 15.0
     Generated by new atomic code, or converted to UPF format
     Using radial grid of  983 points,  7 beta functions with:
                l(1) =   0
                l(2) =   0
                l(3) =   1
                l(4) =   1
                l(5) =   1
                l(6) =   2
                l(7) =   2
     Q(r) pseudized with  8 coefficients,  rinner =    1.400   1.400   1.400
                                                       1.400   1.400

     vdW kernel table read from file vdW_kernel_table
     MD5 check sum: 095c7af220d748ca6e76c0b4c6cfb241

     atomic species   valence    mass     pseudopotential
        Os1           16.00   190.23000     Os( 1.00)
        Ir1           15.00   192.21700     Ir( 1.00)

     No symmetry found

   Cartesian axes

     site n.     atom                  positions (alat units)
         1           Os1 tau(   1) = (   0.0000000   0.0000000  10.0000000  )
         2           Os1 tau(   2) = (   2.7233368   0.0000000  10.0000000  )
         3           Ir1 tau(   3) = (   1.3616684   2.3779174  10.0000000  )
         4           Ir1 tau(   4) = (  -1.3616684   2.3779174  10.0000000  )
         5           Os1 tau(   5) = (   2.7233368   1.5594662  12.2326282  )
         6           Os1 tau(   6) = (  -0.0000000   1.5594662  12.2326282  )
         7           Ir1 tau(   7) = (  -1.3616684   3.9373836  12.2326282  )
         8           Ir1 tau(   8) = (   1.3616684   3.9373836  12.2326282  )
         9           Os1 tau(   9) = (   0.0000009   3.0920615  14.3921562  )
        10           Os1 tau(  10) = (   2.7233385   3.0920681  14.3921625  )
        11           Ir1 tau(  11) = (   4.0850043   0.7921356  14.3781992  )
        12           Ir1 tau(  12) = (   1.3616697   0.7921357  14.3782006  )

     number of k points=    20  Fermi-Dirac smearing, width (Ry)=  0.0110
                       cart. coord. in units 2pi/alat
        k(    1) = (   0.0000000   0.0000000   0.0000000), wk =   0.0555556
        k(    2) = (   0.0000000   0.0350447   0.0000000), wk =   0.1111111
        k(    3) = (   0.0000000   0.0700893   0.0000000), wk =   0.1111111
        k(    4) = (   0.0000000  -0.1051340   0.0000000), wk =   0.0555556
        k(    5) = (   0.0305997   0.0175223   0.0000000), wk =   0.1111111
        k(    6) = (   0.0305997   0.0525670   0.0000000), wk =   0.1111111
        k(    7) = (   0.0305997   0.0876117   0.0000000), wk =   0.1111111
        k(    8) = (   0.0305997  -0.0876117   0.0000000), wk =   0.1111111
        k(    9) = (   0.0305997  -0.0525670   0.0000000), wk =   0.1111111
        k(   10) = (   0.0305997  -0.0175223   0.0000000), wk =   0.1111111
        k(   11) = (   0.0611994   0.0350447   0.0000000), wk =   0.1111111
        k(   12) = (   0.0611994   0.0700893   0.0000000), wk =   0.1111111
        k(   13) = (   0.0611994   0.1051340   0.0000000), wk =   0.1111111
        k(   14) = (   0.0611994  -0.0700893   0.0000000), wk =   0.1111111
        k(   15) = (   0.0611994  -0.0350447   0.0000000), wk =   0.1111111
        k(   16) = (   0.0611994  -0.0000000   0.0000000), wk =   0.1111111
        k(   17) = (  -0.0917991  -0.0525670   0.0000000), wk =   0.0555556
        k(   18) = (  -0.0917991  -0.0175223   0.0000000), wk =   0.1111111
        k(   19) = (  -0.0917991   0.0175223   0.0000000), wk =   0.1111111
        k(   20) = (  -0.0917991  -0.1577010   0.0000000), wk =   0.0555556

     Largest allocated arrays     est. size (Mb)     dimensions
     Largest temporary arrays     est. size (Mb)     dimensions

     Initial potential from superposition of free atoms
     Check: negative starting charge=   -2.923964

     starting charge  179.99959, renormalised to  186.00000

[...]

     *
     * You are using vdW-DF for exchange-correlation in this calculation.
     * Please cite the following three references that made this development
     * possible:
     *
     *   M. Dion, H. Rydberg, E. Schroder, D. C. Langreth, and
     *   B. I. Lundqvist, Phys. Rev. Lett. 92, 246401 (2004).
     *
     *   T. Thonhauser, V. R. Cooper, S. Li, A. Puzder, P. Hyldgaard, and
     *   D. C. Langreth, Phys. Rev. B 76, 125112 (2007).
     *
     *   G. Roman-Perez and J. M. Soler, Phys. Rev. Lett. 103, 096102 (2009).
     *
     *
     * If you are using vdW-DF2, please also cite:
     *
     *   K. Lee, E. D. Murray, L. Kong, B. I. Lundqvist, and
     *   D. C. Langreth, Phys. Rev. B 82, 081101(R) (2010).
     *
     *
     * If you are calculating the stress with vdW-DF, please also cite:
     *
     *   R. Sabatini, E. Kucukbenli, B. Kolb, T. Thonhauser, and
     *   S. de Gironcoli, J. Phys.: Condens. Matter 24, 424209 (2012).
     *

     Carrying out vdW-DF run using the following parameters:

     Nqs =      20    Nr_points =    1024   r_max =   100.000
     q_mesh =
               0.00001000     0.04494208     0.09755937     0.15916263
               0.23128650     0.31572767     0.41458969     0.53033537
               0.66584808     0.82450364     1.01025438     1.22772762
               1.48234092     1.78043706     2.12944203     2.53805004
               3.01644009     3.57652955     4.23227104     5.00000000

     Gradients computed in reciprocal space

[...]

     Starting wfc are  150 randomized atomic wfcs

     Self-consistent Calculation

[...]

     total energy              =   -2298.51944164 Ry
     Harris-Foulkes estimate   =   -2298.51943700 Ry
     estimated scf accuracy    <       0.00000233 Ry

     iteration # 16     ecut=    36.75 Ry     beta=0.10
     Davidson diagonalization with overlap
     ethr =  1.26E-09,  avg # of iterations =  2.2

[...]

     negative rho (up, down):  2.679E+00 0.000E+00

     Adding external electric field

     Computed dipole along edir(3) :
        Dipole                0.0111 Ry au,          0.0282 Debye
        Dipole field          0.0000 Ry au

        Potential amp.       -0.0029 Ry
        Total length         45.0768 bohr

     End of self-consistent calculation

[...]

          k = 0.0612-0.0000 0.0000 ( 16100 PWs)   bands (ev):

[...]

          k =-0.0918-0.1577 0.0000 ( 16088 PWs)   bands (ev):

   -84.4764 -84.4764 -83.9887 -83.9887 -83.8961 -83.8961 -47.2273 -47.2273
   -47.2033 -47.2033 -47.1934 -47.1934 -46.7916 -46.7916 -46.7663 -46.7663
   -46.7040 -46.7040 -46.6549 -46.6549 -46.6120 -46.6120 -46.5406 -46.5406
   -43.8398 -43.8398 -43.7229 -43.7229 -43.7085 -43.7085 -43.2582 -43.2582
   -43.2313 -43.2313 -43.2089 -43.2089 -43.1734 -43.1734 -43.1335 -43.1334
   -43.0953 -43.0952  -5.1011  -5.1011  -3.5716  -3.5716  -3.2724  -3.2724
    -3.1788  -3.1788  -3.1094  -3.1094  -2.5620  -2.5620  -2.1786  -2.1786
    -2.0329  -2.0329  -1.7460  -1.7460  -1.6291  -1.6291  -1.1820  -1.1820
    -0.6488  -0.6488  -0.4218  -0.4217  -0.3132  -0.3131  -0.1988  -0.1988
    -0.0863  -0.0863   0.1529   0.1529   0.2754   0.2754   0.3058   0.3058
     0.3706   0.3706   1.0321   1.0321   1.3596   1.3596   1.6603   1.6603
     1.7912   1.7912   2.1107   2.1107   2.2929   2.2929   2.5123   2.5123
     2.7860   2.7860   2.8959   2.8959   3.5438   3.5438   4.0548   4.0548
     4.3680   4.3680   5.1931   5.1931   6.3119   6.3119   6.9196   6.9196
     7.6458   7.6458   8.5780   8.5780   8.8429   8.8429   9.4530   9.4530
     9.5180   9.5180  10.6571

     the Fermi energy is     2.7414 ev

!    total energy              =   -2298.51945074 Ry
     Harris-Foulkes estimate   =   -2298.51944216 Ry
     estimated scf accuracy    <       0.00000088 Ry

     The total energy is the sum of the following terms:

     one-electron contribution =  -20034.51351981 Ry
     hartree contribution      =   10022.10155007 Ry
     xc contribution           =    -544.00341597 Ry
     ewald contribution        =    8257.96588805 Ry
     electric field correction =       0.00000036 Ry
     smearing contrib. (-TS)   =      -0.06995345 Ry

     convergence has been achieved in  16 iterations

 BEEF-vdW xc energy contributions
           1 :   -479.736633254766
           2 :    445.763090400669
           3 :   -385.244945220089
           4 :    310.526801788674
           5 :   -235.150331397784
           6 :    170.251300299811
           7 :   -122.126564968562
           8 :    91.5391189125953
           9 :   -74.7667112050183
          10 :    65.8105429181214
          11 :   -58.8617486005822
          12 :    50.1497195268242
          13 :   -38.6700310724822
          14 :    25.7667013458264
          15 :   -13.9550272737381
          16 :    5.55363541491556
          17 :   -1.66388693824797
          18 :    1.81542196200076
          19 :   -4.30692110115535
          20 :    6.99741266301828
          21 :   -8.17192371254600
          22 :    7.12682289720863
          23 :   -4.28182380936914
          24 :   0.831061773720535
          25 :    1.87151865458668
          26 :   -2.91491626136394
          27 :    2.17402107957696
          28 :  -0.280472460616920
          29 :   -1.72730617869001
          30 :    2.89049775751835
          31 :   -42.8853333699676
          32 :   -32.4446323089819

     Forces acting on atoms (Ry/au):

     negative rho (up, down):  2.679E+00 0.000E+00
     atom    1 type  1   force =    -0.00000106    0.01514834    0.02028397
     atom    2 type  1   force =     0.00000114    0.01515095    0.02028665
     atom    3 type  2   force =    -0.00000039   -0.01899134    0.02445320
     atom    4 type  2   force =     0.00000038   -0.01899105    0.02445391
     atom    5 type  1   force =    -0.00000044    0.00048597   -0.02647136
     atom    6 type  1   force =    -0.00000049    0.00047869   -0.02647603
     atom    7 type  2   force =     0.00000078    0.00201577   -0.01858354
     atom    8 type  2   force =    -0.00000076    0.00201490   -0.01858390
     atom    9 type  1   force =     0.00000054    0.00031523    0.00021494
     atom   10 type  1   force =     0.00000000    0.00031360    0.00021327
     atom   11 type  2   force =     0.00000047    0.00102936    0.00010476
     atom   12 type  2   force =    -0.00000017    0.00102959    0.00010414

     Total force =     0.072820     Total SCF correction =     0.005648

     entering subroutine stress ...

     negative rho (up, down):  2.679E+00 0.000E+00
          total   stress  (Ry/bohr**3)                   (kbar)     P=  -30.88
  -0.00024629   0.00000000  -0.00000000        -36.23      0.00     -0.00
   0.00000000  -0.00026352   0.00000964          0.00    -38.77      1.42
  -0.00000000   0.00000964  -0.00011990         -0.00      1.42    -17.64

 !ASE

     Writing output data file calc.save

     General routines

     Parallel routines

   This run was terminated on:   1:17:20  19Dec2018

   JOB DONE.
Job  /afs/slac/g/suncat/bin/suncat-tsmpirun -x LD_LIBRARY_PATH -wdir /scratch/qe530401_swXZm pw.x -in pw.inp

TID   HOST_NAME   COMMAND_LINE            STATUS            TERMINATION_TIME
00000 suncat2048 pw.x -in pw.inp   Done                     12/19/2018 01:17:20
00001 suncat2048 pw.x -in pw.inp   Done                     12/19/2018 01:17:20
00002 suncat2048 pw.x -in pw.inp   Done                     12/19/2018 01:17:20
00003 suncat2048 pw.x -in pw.inp   Done                     12/19/2018 01:17:20
00004 suncat2048 pw.x -in pw.inp   Done                     12/19/2018 01:17:20
00005 suncat2048 pw.x -in pw.inp   Done                     12/19/2018 01:17:20
00006 suncat2048 pw.x -in pw.inp   Done                     12/19/2018 01:17:20
00007 suncat2048 pw.x -in pw.inp   Done                     12/19/2018 01:17:20
00008 suncat2048 pw.x -in pw.inp   Done                     12/19/2018 01:17:20
00009 suncat2048 pw.x -in pw.inp   Done                     12/19/2018 01:17:20
00010 suncat2048 pw.x -in pw.inp   Done                     12/19/2018 01:17:20
00011 suncat2048 pw.x -in pw.inp   Done                     12/19/2018 01:17:20
00012 suncat2048 pw.x -in pw.inp   Done                     12/19/2018 01:17:20
00013 suncat2048 pw.x -in pw.inp   Done                     12/19/2018 01:17:20
00014 suncat2048 pw.x -in pw.inp   Done                     12/19/2018 01:17:20
00015 suncat2048 pw.x -in pw.inp   Done                     12/19/2018 01:17:20
00016 suncat2047 pw.x -in pw.inp   Done                     12/19/2018 01:17:20
00017 suncat2047 pw.x -in pw.inp   Done                     12/19/2018 01:17:20
00018 suncat2047 pw.x -in pw.inp   Done                     12/19/2018 01:17:20
00019 suncat2047 pw.x -in pw.inp   Done                     12/19/2018 01:17:20
00020 suncat2047 pw.x -in pw.inp   Done                     12/19/2018 01:17:20
00021 suncat2047 pw.x -in pw.inp   Done                     12/19/2018 01:17:20
00022 suncat2047 pw.x -in pw.inp   Done                     12/19/2018 01:17:20
00023 suncat2047 pw.x -in pw.inp   Done                     12/19/2018 01:17:20
00024 suncat2047 pw.x -in pw.inp   Done                     12/19/2018 01:17:20
00025 suncat2047 pw.x -in pw.inp   Done                     12/19/2018 01:17:20
00026 suncat2047 pw.x -in pw.inp   Done                     12/19/2018 01:17:20
00027 suncat2047 pw.x -in pw.inp   Done                     12/19/2018 01:17:20
00028 suncat2047 pw.x -in pw.inp   Done                     12/19/2018 01:17:20
00029 suncat2047 pw.x -in pw.inp   Done                     12/19/2018 01:17:20
00030 suncat2047 pw.x -in pw.inp   Done                     12/19/2018 01:17:20
00031 suncat2047 pw.x -in pw.inp   Done                     12/19/2018 01:17:20