     Program PWSCF v.5.1rc2 (svn rev. 11289) starts on 18Dec2018 at 19: 5:25

     Current dimensions of program PWSCF are:
     Max number of different atomic species (ntypx) = 10
     Max number of k-points (npk) =  40000
     Max angular momentum in pseudopotentials (lmaxx) =  3
     Presently stress not available with electric field

     IMPORTANT: XC functional enforced from input :
     Exchange-correlation      = BEEF-VDW ( 1  4 27 13 2)
     Any further DFT definition will be discarded
     Please, verify this is what you really want

     Subspace diagonalization in iterative solution of the eigenvalue problem:
     a serial algorithm will be used

     Found symmetry operation: I + ( -0.5000 -0.5000  0.0000)
     This is a supercell, fractional translations are disabled

     bravais-lattice index     =            0
     lattice parameter (alat)  =       1.8897  a.u.
     unit-cell volume          =    5019.0103 (a.u.)^3
     number of atoms/cell      =           12
     number of atomic types    =            2
     number of electrons       =       168.00
     number of Kohn-Sham states=          114
     kinetic-energy cutoff     =      36.7493  Ry
     charge density cutoff     =     367.4932  Ry
     convergence threshold     =      1.0E-06
     mixing beta               =       0.1000
     number of iterations used =           10  plain     mixing
     Exchange-correlation      = BEEF-VDW ( 1  4 27 13 2)
     nstep                     =           50

     celldm(1)=   1.889726  celldm(2)=   0.000000  celldm(3)=   0.000000
     celldm(4)=   0.000000  celldm(5)=   0.000000  celldm(6)=   0.000000

     crystal axes: (cart. coord. in units of alat)
               a(1) = (   5.796911   0.000000   0.000000 )
               a(2) = (   2.611146   5.175528   0.000000 )
               a(3) = (   0.000000   0.000000  24.789640 )

     reciprocal axes: (cart. coord. in units 2 pi/alat)
               b(1) = (  0.172506 -0.087032  0.000000 )
               b(2) = (  0.000000  0.193217  0.000000 )
               b(3) = (  0.000000  0.000000  0.040339 )

     PseudoPot. # 1 for Cd read from file:
     /afs/slac.stanford.edu/u/if/mamunm/psp/gbrv1.5pbe/Cd.UPF
     MD5 check sum: 17164a7926edb8e0dc231208abae86a6
     Pseudo is Ultrasoft + core correction, Zval = 12.0
     Generated by new atomic code, or converted to UPF format
     Using radial grid of  889 points,  6 beta functions with:
                l(1) =   0
                l(2) =   0
                l(3) =   1
                l(4) =   1
                l(5) =   2
                l(6) =   2
     Q(r) pseudized with  6 coefficients,  rinner =    1.000   1.000   1.000
                                                       1.000   1.000

     PseudoPot. # 2 for Pt read from file:
     /afs/slac.stanford.edu/u/if/mamunm/psp/gbrv1.5pbe/Pt.UPF
     MD5 check sum: f09d6de1a584b5a045c4fc126da2d0c4
     Pseudo is Ultrasoft + core correction, Zval = 16.0
     Generated by new atomic code, or converted to UPF format
     Using radial grid of  985 points,  6 beta functions with:
                l(1) =   0
                l(2) =   0
                l(3) =   1
                l(4) =   1
                l(5) =   2
                l(6) =   2
     Q(r) pseudized with  8 coefficients,  rinner =    1.300   1.300   1.300
                                                       1.300   1.300

     vdW kernel table read from file vdW_kernel_table
     MD5 check sum: 095c7af220d748ca6e76c0b4c6cfb241

     atomic species   valence    mass     pseudopotential
        Cd1           12.00   112.41400     Cd( 1.00)
        Pt1           16.00   195.08400     Pt( 1.00)

     No symmetry found

   Cartesian axes

     site n.     atom                  positions (alat units)
         1           Cd1 tau(   1) = (   0.0000000   0.0000000  10.0000000  )
         2           Cd1 tau(   2) = (   4.2040281   2.5877640  10.0000000  )
         3           Pt1 tau(   3) = (   2.8984553   0.0000000  10.0000000  )
         4           Pt1 tau(   4) = (   1.3055728   2.5877640  10.0000000  )
         5           Cd1 tau(   5) = (   5.7969105   3.5682531  12.3948202  )
         6           Cd1 tau(   6) = (   1.5928825   0.9804891  12.3948202  )
         7           Pt1 tau(   7) = (   2.8984553   3.5682531  12.3948202  )
         8           Pt1 tau(   8) = (   4.4913377   0.9804891  12.3948202  )
         9           Cd1 tau(   9) = (   3.1857649   1.9609783  14.7896403  )
        10           Cd1 tau(  10) = (   7.3897930   4.5487423  14.7896403  )
        11           Pt1 tau(  11) = (   6.0842202   1.9609783  14.7896403  )
        12           Pt1 tau(  12) = (   4.4913377   4.5487423  14.7896403  )

     number of k points=    20  Fermi-Dirac smearing, width (Ry)=  0.0110
                       cart. coord. in units 2pi/alat
        k(    1) = (   0.0000000   0.0000000   0.0000000), wk =   0.0555556
        k(    2) = (   0.0000000   0.0322028   0.0000000), wk =   0.1111111
        k(    3) = (   0.0000000   0.0644057   0.0000000), wk =   0.1111111
        k(    4) = (   0.0000000  -0.0966085   0.0000000), wk =   0.0555556
        k(    5) = (   0.0287509  -0.0145054   0.0000000), wk =   0.1111111
        k(    6) = (   0.0287509   0.0176975   0.0000000), wk =   0.1111111
        k(    7) = (   0.0287509   0.0499003   0.0000000), wk =   0.1111111
        k(    8) = (   0.0287509  -0.1111139   0.0000000), wk =   0.1111111
        k(    9) = (   0.0287509  -0.0789110   0.0000000), wk =   0.1111111
        k(   10) = (   0.0287509  -0.0467082   0.0000000), wk =   0.1111111
        k(   11) = (   0.0575019  -0.0290107   0.0000000), wk =   0.1111111
        k(   12) = (   0.0575019   0.0031921   0.0000000), wk =   0.1111111
        k(   13) = (   0.0575019   0.0353949   0.0000000), wk =   0.1111111
        k(   14) = (   0.0575019  -0.1256192   0.0000000), wk =   0.1111111
        k(   15) = (   0.0575019  -0.0934164   0.0000000), wk =   0.1111111
        k(   16) = (   0.0575019  -0.0612136   0.0000000), wk =   0.1111111
        k(   17) = (  -0.0862528   0.0435161   0.0000000), wk =   0.0555556
        k(   18) = (  -0.0862528   0.0757189   0.0000000), wk =   0.1111111
        k(   19) = (  -0.0862528   0.1079218   0.0000000), wk =   0.1111111
        k(   20) = (  -0.0862528  -0.0530924   0.0000000), wk =   0.0555556

     Largest allocated arrays     est. size (Mb)     dimensions
     Largest temporary arrays     est. size (Mb)     dimensions

     Initial potential from superposition of free atoms
     Check: negative starting charge=   -1.240149

     starting charge  161.99968, renormalised to  168.00000

     negative rho (up, down):  1.286E+00 0.000E+00

     *
     * You are using vdW-DF for exchange-correlation in this calculation.
     * Please cite the following three references that made this development
     * possible:
     *
     *   M. Dion, H. Rydberg, E. Schroder, D. C. Langreth, and
     *   B. I. Lundqvist, Phys. Rev. Lett. 92, 246401 (2004).
     *
     *   T. Thonhauser, V. R. Cooper, S. Li, A. Puzder, P. Hyldgaard, and
     *   D. C. Langreth, Phys. Rev. B 76, 125112 (2007).
     *
     *   G. Roman-Perez and J. M. Soler, Phys. Rev. Lett. 103, 096102 (2009).
     *
     *
     * If you are using vdW-DF2, please also cite:
     *
     *   K. Lee, E. D. Murray, L. Kong, B. I. Lundqvist, and
     *   D. C. Langreth, Phys. Rev. B 82, 081101(R) (2010).
     *
     *
     * If you are calculating the stress with vdW-DF, please also cite:
     *
     *   R. Sabatini, E. Kucukbenli, B. Kolb, T. Thonhauser, and
     *   S. de Gironcoli, J. Phys.: Condens. Matter 24, 424209 (2012).
     *

     Carrying out vdW-DF run using the following parameters:

     Nqs =      20    Nr_points =    1024   r_max =   100.000
     q_mesh =
               0.00001000     0.04494208     0.09755937     0.15916263
               0.23128650     0.31572767     0.41458969     0.53033537
               0.66584808     0.82450364     1.01025438     1.22772762
               1.48234092     1.78043706     2.12944203     2.53805004
               3.01644009     3.57652955     4.23227104     5.00000000

     Gradients computed in reciprocal space

     Adding external electric field

     Computed dipole along edir(3) :
        Dipole                0.0000 Ry au,          0.0000 Debye
        Dipole field          0.0000 Ry au

        Potential amp.       -0.0000 Ry
        Total length         45.6745 bohr

     Starting wfc are  126 randomized atomic wfcs

     Self-consistent Calculation

     iteration #  1     ecut=    36.75 Ry     beta=0.10
     Davidson diagonalization with overlap
     ethr =  1.00E-02,  avg # of iterations =  7.4

[...]

     total energy              =   -1970.89896034 Ry
     Harris-Foulkes estimate   =   -1973.30681912 Ry
     estimated scf accuracy    <      14.42106822 Ry

[...]

     End of self-consistent calculation

          k = 0.0000 0.0000 0.0000 ( 18855 PWs)   bands (ev):

   -51.1744 -51.1427 -51.1353 -51.1163 -51.1089 -51.0889 -50.8634 -50.8633
   -50.8577 -50.8564 -50.8504 -50.8492 -50.7789 -50.7788 -50.7330 -50.7313
   -50.7257 -50.7241  -8.2145  -8.2108  -8.0617  -8.0367  -8.0126  -7.9815
    -7.9157  -7.9028  -7.8455  -7.8265  -7.7875  -7.6989  -7.6244  -7.5779
    -7.4921  -7.4680  -7.4639  -7.4488  -7.4305  -7.3721  -7.3558  -7.3349
    -7.2536  -7.2478  -7.1895  -7.1782  -7.1227  -7.0955  -7.0415  -7.0152
    -6.8197  -5.1682  -3.6060  -3.3167  -2.8543  -2.5604  -2.5532  -2.2115
    -2.2106  -1.9769  -1.9446  -1.7197  -1.5816  -1.4930  -1.2994  -1.2684
    -1.0870  -0.8943  -0.8767  -0.7714  -0.7338  -0.5257  -0.4058  -0.3638
    -0.3546  -0.2577  -0.1577  -0.0804   0.0082   0.0289   0.1158   0.2329
     0.6542   0.8756   0.8961   1.2073   1.3538   1.9584   2.0057   2.0162
     2.1435   2.4075   2.9918   4.0233   4.4265   4.4737   4.7244   4.8434
     4.8907   5.2354   5.4208   5.5318   5.5402   5.9931   6.0451   6.5371
     7.0069   8.1632   8.5905   8.6276   8.6414   8.7800   8.8062   8.8398
     9.8838   9.9331

[...]

          k =-0.0863 0.0435 0.0000 ( 18876 PWs)   bands (ev):

[...]

     the Fermi energy is     0.9744 ev

!    total energy              =   -1970.80519263 Ry
     Harris-Foulkes estimate   =   -1970.80518343 Ry
     estimated scf accuracy    <       0.00000082 Ry

     The total energy is the sum of the following terms:

     one-electron contribution =  -13739.42927788 Ry
     hartree contribution      =    6936.41668039 Ry
     xc contribution           =    -596.97961595 Ry
     ewald contribution        =    5429.21645075 Ry
     electric field correction =       0.00000000 Ry
     smearing contrib. (-TS)   =      -0.02942994 Ry

     convergence has been achieved in  15 iterations

 BEEF-vdW xc energy contributions
           1 :   -528.161662187387
           2 :    488.119338097781
           3 :   -418.241132759178
           4 :    334.742415459312
           5 :   -253.886913400324
           6 :    186.959932239953
           7 :   -138.048654549392
           8 :    104.961808959819
           9 :   -82.2642291360632
          10 :    64.6550749605072
          11 :   -49.1440520261534
[...]

     Program PWSCF v.5.1rc2 (svn rev. 11289) starts on 18Dec2018 at 19:21:58

[...]

     Total force =     0.049804     Total SCF correction =     0.003740

[...]

     Total force =     0.044407     Total SCF correction =     0.004618
     SCF correction compared to forces is large: reduce conv_thr to get better values

[...]

     Program PWSCF v.5.1rc2 (svn rev. 11289) starts on 18Dec2018 at 20:28:26

     Current dimensions of program PWSCF are:
     Max number of different atomic species (ntypx) = 10
     Max number of k-points (npk) =  40000
     Max angular momentum in pseudopotentials (lmaxx) =  3
     Presently stress not available with electric field

     IMPORTANT: XC functional enforced from input :
     Exchange-correlation      = BEEF-VDW ( 1  4 27 13 2)
     Any further DFT definition will be discarded
     Please, verify this is what you really want

     Subspace diagonalization in iterative solution of the eigenvalue problem:
     a serial algorithm will be used

     Found symmetry operation: I + ( -0.5000 -0.5000  0.0000)
     This is a supercell, fractional translations are disabled

     bravais-lattice index     =            0
     lattice parameter (alat)  =       1.8897  a.u.
     unit-cell volume          =    5019.0103 (a.u.)^3
     number of atoms/cell      =           12
     number of atomic types    =            2
     number of electrons       =       168.00
     number of Kohn-Sham states=          114
     kinetic-energy cutoff     =      36.7493  Ry
     charge density cutoff     =     367.4932  Ry
     convergence threshold     =      1.0E-06
     mixing beta               =       0.1000
     number of iterations used =           10  plain     mixing
     Exchange-correlation      = BEEF-VDW ( 1  4 27 13 2)
     nstep                     =           50

     celldm(1)=   1.889726  celldm(2)=   0.000000  celldm(3)=   0.000000
     celldm(4)=   0.000000  celldm(5)=   0.000000  celldm(6)=   0.000000

     crystal axes: (cart. coord. in units of alat)
               a(1) = (   5.796911   0.000000   0.000000 )
               a(2) = (   2.611146   5.175528   0.000000 )
               a(3) = (   0.000000   0.000000  24.789640 )

     reciprocal axes: (cart. coord. in units 2 pi/alat)
               b(1) = (  0.172506 -0.087032  0.000000 )
               b(2) = (  0.000000  0.193217  0.000000 )
               b(3) = (  0.000000  0.000000  0.040339 )

     PseudoPot. # 1 for Cd read from file:
     /afs/slac.stanford.edu/u/if/mamunm/psp/gbrv1.5pbe/Cd.UPF
     MD5 check sum: 17164a7926edb8e0dc231208abae86a6
     Pseudo is Ultrasoft + core correction, Zval = 12.0
     Generated by new atomic code, or converted to UPF format
     Using radial grid of  889 points,  6 beta functions with:
                l(1) =   0
                l(2) =   0
                l(3) =   1
                l(4) =   1
                l(5) =   2
                l(6) =   2
     Q(r) pseudized with  6 coefficients,  rinner =    1.000   1.000   1.000
                                                       1.000   1.000

     PseudoPot. # 2 for Pt read from file:
     /afs/slac.stanford.edu/u/if/mamunm/psp/gbrv1.5pbe/Pt.UPF
     MD5 check sum: f09d6de1a584b5a045c4fc126da2d0c4
     Pseudo is Ultrasoft + core correction, Zval = 16.0
     Generated by new atomic code, or converted to UPF format
     Using radial grid of  985 points,  6 beta functions with:
                l(1) =   0
                l(2) =   0
                l(3) =   1
                l(4) =   1
                l(5) =   2
                l(6) =   2
     Q(r) pseudized with  8 coefficients,  rinner =    1.300   1.300   1.300
                                                       1.300   1.300

     vdW kernel table read from file vdW_kernel_table
     MD5 check sum: 095c7af220d748ca6e76c0b4c6cfb241

     atomic species   valence    mass     pseudopotential
        Cd1           12.00   112.41400     Cd( 1.00)
        Pt1           16.00   195.08400     Pt( 1.00)

     No symmetry found

   Cartesian axes

     site n.     atom                  positions (alat units)
         1           Cd1 tau(   1) = (   0.0000000   0.0000000  10.0000000  )
         2           Cd1 tau(   2) = (   4.2040281   2.5877640  10.0000000  )
         3           Pt1 tau(   3) = (   2.8984553   0.0000000  10.0000000  )
         4           Pt1 tau(   4) = (   1.3055728   2.5877640  10.0000000  )
         5           Cd1 tau(   5) = (   5.7969105   3.5682531  12.3948202  )
         6           Cd1 tau(   6) = (   1.5928825   0.9804891  12.3948202  )
         7           Pt1 tau(   7) = (   2.8984553   3.5682531  12.3948202  )
         8           Pt1 tau(   8) = (   4.4913377   0.9804891  12.3948202  )
         9           Cd1 tau(   9) = (   3.1865180   1.9614552  14.9466996  )
        10           Cd1 tau(  10) = (   7.3905709   4.5492278  14.9467125  )
        11           Pt1 tau(  11) = (   6.0774224   1.9567800  14.6831344  )
        12           Pt1 tau(  12) = (   4.4845308   4.5445468  14.6831373  )

     number of k points=    20  Fermi-Dirac smearing, width (Ry)=  0.0110
                       cart. coord. in units 2pi/alat
        k(    1) = (   0.0000000   0.0000000   0.0000000), wk =   0.0555556
        k(    2) = (   0.0000000   0.0322028   0.0000000), wk =   0.1111111
        k(    3) = (   0.0000000   0.0644057   0.0000000), wk =   0.1111111
        k(    4) = (   0.0000000  -0.0966085   0.0000000), wk =   0.0555556
        k(    5) = (   0.0287509  -0.0145054   0.0000000), wk =   0.1111111
        k(    6) = (   0.0287509   0.0176975   0.0000000), wk =   0.1111111
        k(    7) = (   0.0287509   0.0499003   0.0000000), wk =   0.1111111
        k(    8) = (   0.0287509  -0.1111139   0.0000000), wk =   0.1111111
        k(    9) = (   0.0287509  -0.0789110   0.0000000), wk =   0.1111111
        k(   10) = (   0.0287509  -0.0467082   0.0000000), wk =   0.1111111
        k(   11) = (   0.0575019  -0.0290107   0.0000000), wk =   0.1111111
        k(   12) = (   0.0575019   0.0031921   0.0000000), wk =   0.1111111
        k(   13) = (   0.0575019   0.0353949   0.0000000), wk =   0.1111111
        k(   14) = (   0.0575019  -0.1256192   0.0000000), wk =   0.1111111
        k(   15) = (   0.0575019  -0.0934164   0.0000000), wk =   0.1111111
        k(   16) = (   0.0575019  -0.0612136   0.0000000), wk =   0.1111111
        k(   17) = (  -0.0862528   0.0435161   0.0000000), wk =   0.0555556
        k(   18) = (  -0.0862528   0.0757189   0.0000000), wk =   0.1111111
        k(   19) = (  -0.0862528   0.1079218   0.0000000), wk =   0.1111111
        k(   20) = (  -0.0862528  -0.0530924   0.0000000), wk =   0.0555556

     Largest allocated arrays     est. size (Mb)     dimensions
     Largest temporary arrays     est. size (Mb)     dimensions

     Initial potential from superposition of free atoms
     Check: negative starting charge=   -1.236141

     starting charge  161.99968, renormalised to  168.00000

[...]

     *
     * You are using vdW-DF for exchange-correlation in this calculation.
     * Please cite the following three references that made this development
     * possible:
     *
     *   M. Dion, H. Rydberg, E. Schroder, D. C. Langreth, and
     *   B. I. Lundqvist, Phys. Rev. Lett. 92, 246401 (2004).
     *
     *   T. Thonhauser, V. R. Cooper, S. Li, A. Puzder, P. Hyldgaard, and
     *   D. C. Langreth, Phys. Rev. B 76, 125112 (2007).
     *
     *   G. Roman-Perez and J. M. Soler, Phys. Rev. Lett. 103, 096102 (2009).
     *
     *
     * If you are using vdW-DF2, please also cite:
     *
     *   K. Lee, E. D. Murray, L. Kong, B. I. Lundqvist, and
     *   D. C. Langreth, Phys. Rev. B 82, 081101(R) (2010).
     *
     *
     * If you are calculating the stress with vdW-DF, please also cite:
     *
     *   R. Sabatini, E. Kucukbenli, B. Kolb, T. Thonhauser, and
     *   S. de Gironcoli, J. Phys.: Condens. Matter 24, 424209 (2012).
     *

     Carrying out vdW-DF run using the following parameters:

     Nqs =      20    Nr_points =    1024   r_max =   100.000
     q_mesh =
               0.00001000     0.04494208     0.09755937     0.15916263
               0.23128650     0.31572767     0.41458969     0.53033537
               0.66584808     0.82450364     1.01025438     1.22772762
               1.48234092     1.78043706     2.12944203     2.53805004
               3.01644009     3.57652955     4.23227104     5.00000000

     Gradients computed in reciprocal space

[...]

     Starting wfc are  126 randomized atomic wfcs

     Self-consistent Calculation

[...]

     total energy              =   -1970.81510121 Ry
     Harris-Foulkes estimate   =   -1970.81509911 Ry
     estimated scf accuracy    <       0.00000210 Ry

     iteration # 16     ecut=    36.75 Ry     beta=0.10
     Davidson diagonalization with overlap
     ethr =  1.25E-09,  avg # of iterations =  3.6

[...]

     negative rho (up, down):  1.199E+00 0.000E+00

     Adding external electric field

     Computed dipole along edir(3) :
        Dipole                0.0461 Ry au,          0.1172 Debye
        Dipole field          0.0001 Ry au

        Potential amp.       -0.0106 Ry
        Total length         45.6745 bohr

     End of self-consistent calculation

[...]

          k = 0.0575-0.0612 0.0000 ( 18906 PWs)   bands (ev):

[...]

          k =-0.0863-0.0531 0.0000 ( 18802 PWs)   bands (ev):

   -51.0379 -51.0105 -51.0028 -50.9958 -50.9881 -50.9526 -50.8787 -50.8681
   -50.8606 -50.7940 -50.7929 -50.7859 -50.7784 -50.7678 -50.7606 -50.7084
   -50.6622 -50.6550  -8.0461  -7.9170  -7.9035  -7.8783  -7.7694  -7.7007
    -7.6493  -7.6377  -7.6155  -7.6130  -7.5926  -7.5834  -7.4589  -7.4449
    -7.3760  -7.3500  -7.2881  -7.2863  -7.2774  -7.2509  -7.2024  -7.2004
    -7.1541  -7.1344  -7.0955  -7.0818  -7.0387  -7.0343  -6.9482  -6.7473
    -5.1596  -4.9657  -3.8968  -3.3462  -3.0748  -2.8608  -2.6190  -2.6058
    -2.4651  -2.3682  -2.3056  -2.1576  -2.0264  -1.9967  -1.9891  -1.9763
    -1.7916  -1.5276  -1.4430  -1.1840  -1.1212  -0.8551  -0.7137  -0.6991
    -0.5336  -0.4872  -0.2670  -0.2649  -0.2250  -0.1870  -0.1346  -0.1308
     0.1264   0.2734   0.8385   1.0240   1.2229   1.6322   2.0944   2.4927
     3.5101   3.6617   3.7772   4.1163   5.9494   6.0952   6.2126   6.4502
     6.5509   6.5873   6.7706   6.8709   6.8874   6.9624   7.0181   7.4453
     8.0159   8.0330   8.0988   8.1569   8.2264   8.4239   8.4744   8.6803
     8.8520   9.0593

     the Fermi energy is     1.0438 ev

!    total energy              =   -1970.81510831 Ry
     Harris-Foulkes estimate   =   -1970.81510250 Ry
     estimated scf accuracy    <       0.00000066 Ry

     The total energy is the sum of the following terms:

     one-electron contribution =  -13721.72993951 Ry
     hartree contribution      =    6927.97597317 Ry
     xc contribution           =    -596.95434687 Ry
     ewald contribution        =    5419.92270677 Ry
     electric field correction =       0.00000533 Ry
     smearing contrib. (-TS)   =      -0.02950720 Ry

     convergence has been achieved in  16 iterations

 BEEF-vdW xc energy contributions
           1 :   -528.136077122437
           2 :    488.081053078030
           3 :   -418.185936519516
           4 :    334.678746766939
           5 :   -253.828949843921
           6 :    186.915342246631
           7 :   -138.012327061675
           8 :    104.921869789537
           9 :   -82.2151179160163
          10 :    64.6049588395127
          11 :   -49.1091584994824
          12 :    35.3629653077519
          13 :   -24.5031688602903
          14 :    17.6307991500669
          15 :   -14.8015440716448
          16 :    14.9302623571232
          17 :   -16.3997280290869
          18 :    17.8316413880666
          19 :   -18.5496062929747
          20 :    18.5617587843720
          21 :   -18.2148093968619
          22 :    17.8084118432171
          23 :   -17.4058286383457
          24 :    16.8920925804359
          25 :   -16.1665619622645
          26 :    15.2904320203024
          27 :   -14.4818233567679
          28 :    13.9757754369109
          29 :   -13.8659601323341
          30 :    14.0428302731082
          31 :   -44.9452270776583
          32 :   -33.0175892863658

     Forces acting on atoms (Ry/au):

     negative rho (up, down):  1.199E+00 0.000E+00
     atom    1 type  1   force =    -0.00232556   -0.00142785   -0.01769565
     atom    2 type  1   force =    -0.00232620   -0.00143329   -0.01769667
     atom    3 type  2   force =     0.00101867    0.00062759    0.01968522
     atom    4 type  2   force =     0.00101842    0.00062547    0.01968427
     atom    5 type  1   force =     0.00646147    0.00397759   -0.00922690
     atom    6 type  1   force =     0.00646420    0.00397654   -0.00923698
     atom    7 type  2   force =    -0.00372901   -0.00229615    0.00790799
     atom    8 type  2   force =    -0.00372883   -0.00229591    0.00790947
     atom    9 type  1   force =    -0.00019539   -0.00012425    0.00013205
     atom   10 type  1   force =    -0.00019864   -0.00011909    0.00013142
     atom   11 type  2   force =    -0.00123204   -0.00075447   -0.00079660
     atom   12 type  2   force =    -0.00122708   -0.00075616   -0.00079762

     Total force =     0.043286     Total SCF correction =     0.004484
     SCF correction compared to forces is large: reduce conv_thr to get better values

     entering subroutine stress ...

     negative rho (up, down):  1.199E+00 0.000E+00
          total   stress  (Ry/bohr**3)                   (kbar)     P=  -13.41
  -0.00012824  -0.00000871   0.00000029        -18.86     -1.28      0.04
  -0.00000871  -0.00011945   0.00000018         -1.28    -17.57      0.03
   0.00000029   0.00000018  -0.00002584          0.04      0.03     -3.80

 !ASE

     Writing output data file calc.save

     General routines

     Parallel routines

   This run was terminated on:  20:43:49  18Dec2018

   JOB DONE.
Job  /afs/slac/g/suncat/bin/suncat-tsmpirun -x LD_LIBRARY_PATH -wdir /scratch/qe529651_8YPpI pw.x -in pw.inp

TID   HOST_NAME   COMMAND_LINE            STATUS            TERMINATION_TIME
00000 suncat0061 pw.x -in pw.inp   Done                     12/18/2018 20:43:49
00001 suncat0061 pw.x -in pw.inp   Done                     12/18/2018 20:43:49
00002 suncat0061 pw.x -in pw.inp   Done                     12/18/2018 20:43:49
00003 suncat0061 pw.x -in pw.inp   Done                     12/18/2018 20:43:49
00004 suncat0061 pw.x -in pw.inp   Done                     12/18/2018 20:43:49
00005 suncat0061 pw.x -in pw.inp   Done                     12/18/2018 20:43:49
00006 suncat0061 pw.x -in pw.inp   Done                     12/18/2018 20:43:49
00007 suncat0061 pw.x -in pw.inp   Done                     12/18/2018 20:43:49
00008 suncat0060 pw.x -in pw.inp   Done                     12/18/2018 20:43:49
00009 suncat0060 pw.x -in pw.inp   Done                     12/18/2018 20:43:49
00010 suncat0060 pw.x -in pw.inp   Done                     12/18/2018 20:43:49
00011 suncat0060 pw.x -in pw.inp   Done                     12/18/2018 20:43:49
00012 suncat0060 pw.x -in pw.inp   Done                     12/18/2018 20:43:49
00013 suncat0060 pw.x -in pw.inp   Done                     12/18/2018 20:43:49
00014 suncat0060 pw.x -in pw.inp   Done                     12/18/2018 20:43:49
00015 suncat0060 pw.x -in pw.inp   Done                     12/18/2018 20:43:49
00016 suncat0059 pw.x -in pw.inp   Done                     12/18/2018 20:43:49
00017 suncat0059 pw.x -in pw.inp   Done                     12/18/2018 20:43:49
00018 suncat0059 pw.x -in pw.inp   Done                     12/18/2018 20:43:49
00019 suncat0059 pw.x -in pw.inp   Done                     12/18/2018 20:43:49
00020 suncat0059 pw.x -in pw.inp   Done                     12/18/2018 20:43:49
00021 suncat0059 pw.x -in pw.inp   Done                     12/18/2018 20:43:49
00022 suncat0059 pw.x -in pw.inp   Done                     12/18/2018 20:43:49
00023 suncat0059 pw.x -in pw.inp   Done                     12/18/2018 20:43:49
00024 suncat0058 pw.x -in pw.inp   Done                     12/18/2018 20:43:49
00025 suncat0058 pw.x -in pw.inp   Done                     12/18/2018 20:43:49
00026 suncat0058 pw.x -in pw.inp   Done                     12/18/2018 20:43:49
00027 suncat0058 pw.x -in pw.inp   Done                     12/18/2018 20:43:49
00028 suncat0058 pw.x -in pw.inp   Done                     12/18/2018 20:43:49
00029 suncat0058 pw.x -in pw.inp   Done                     12/18/2018 20:43:49
00030 suncat0058 pw.x -in pw.inp   Done                     12/18/2018 20:43:49
00031 suncat0058 pw.x -in pw.inp   Done                     12/18/2018 20:43:49