     Program PWSCF v.5.1rc2 (svn rev. 11289) starts on 19Dec2018 at  1:32:58

     Current dimensions of program PWSCF are:
     Max number of different atomic species (ntypx) = 10
     Max number of k-points (npk) =  40000
     Max angular momentum in pseudopotentials (lmaxx) =  3
     Presently stress not available with electric field

     IMPORTANT: XC functional enforced from input :
     Exchange-correlation      = BEEF-VDW ( 1  4 27 13 2)
     Any further DFT definition will be discarded
     Please, verify this is what you really want

     Subspace diagonalization in iterative solution of the eigenvalue problem:
     a serial algorithm will be used

     Found symmetry operation: I + ( -0.5000 -0.5000  0.0000)
     This is a supercell, fractional translations are disabled

     bravais-lattice index     =            0
     lattice parameter (alat)  =       1.8897  a.u.
     unit-cell volume          =    5058.0753 (a.u.)^3
     number of atoms/cell      =           12
     number of atomic types    =            2
     number of electrons       =       168.00
     number of Kohn-Sham states=          114
     kinetic-energy cutoff     =      36.7493  Ry
     charge density cutoff     =     367.4932  Ry
     convergence threshold     =      1.0E-06
     mixing beta               =       0.1000
     number of iterations used =           10  plain     mixing
     Exchange-correlation      = BEEF-VDW ( 1  4 27 13 2)
     nstep                     =           50

     celldm(1)=   1.889726  celldm(2)=   0.000000  celldm(3)=   0.000000
     celldm(4)=   0.000000  celldm(5)=   0.000000  celldm(6)=   0.000000

     crystal axes: (cart. coord. in units of alat)
               a(1) = (   5.777095   0.000000   0.000000 )
               a(2) = (   2.444021   5.234653   0.000000 )
               a(3) = (   0.000000   0.000000  24.785136 )

     reciprocal axes: (cart. coord. in units 2 pi/alat)
               b(1) = (  0.173097 -0.080818  0.000000 )
               b(2) = (  0.000000  0.191035  0.000000 )
               b(3) = (  0.000000  0.000000  0.040347 )

     PseudoPot. # 1 for Pd read from file:
     /afs/slac.stanford.edu/u/if/mamunm/psp/gbrv1.5pbe/Pd.UPF
     MD5 check sum: 2d733d2bc2cbfd217af676df1668a4bc
     Pseudo is Ultrasoft + core correction, Zval = 16.0
     Generated by new atomic code, or converted to UPF format
     Using radial grid of  887 points,  6 beta functions with:
                l(1) =   0
                l(2) =   0
                l(3) =   1
                l(4) =   1
                l(5) =   2
                l(6) =   2
     Q(r) pseudized with  8 coefficients,  rinner =    1.130   1.130   1.130
                                                       1.130   1.130

     PseudoPot. # 2 for Cd read from file:
     /afs/slac.stanford.edu/u/if/mamunm/psp/gbrv1.5pbe/Cd.UPF
     MD5 check sum: 17164a7926edb8e0dc231208abae86a6
     Pseudo is Ultrasoft + core correction, Zval = 12.0
     Generated by new atomic code, or converted to UPF format
     Using radial grid of  889 points,  6 beta functions with:
                l(1) =   0
                l(2) =   0
                l(3) =   1
                l(4) =   1
                l(5) =   2
                l(6) =   2
     Q(r) pseudized with  6 coefficients,  rinner =    1.000   1.000   1.000
                                                       1.000   1.000

     vdW kernel table read from file vdW_kernel_table
     MD5 check sum: 095c7af220d748ca6e76c0b4c6cfb241

     atomic species   valence    mass     pseudopotential
        Pd1           16.00   106.42000     Pd( 1.00)
        Cd1           12.00   112.41400     Cd( 1.00)

     No symmetry found

   Cartesian axes

     site n.     atom                  positions (alat units)
         1           Pd1 tau(   1) = (   0.0000000   0.0000000  10.0000000  )
         2           Pd1 tau(   2) = (   4.1105582   2.6173263  10.0000000  )
         3           Cd1 tau(   3) = (   2.8885475   0.0000000  10.0000000  )
         4           Cd1 tau(   4) = (   1.2220106   2.6173263  10.0000000  )
         5           Pd1 tau(   5) = (   5.7770951   3.6784646  12.3925681  )
         6           Pd1 tau(   6) = (   1.6665369   1.0611383  12.3925681  )
         7           Cd1 tau(   7) = (   2.8885475   3.6784646  12.3925681  )
         8           Cd1 tau(   8) = (   4.5550844   1.0611383  12.3925681  )
         9           Pd1 tau(   9) = (   3.3330738   2.1222767  14.7851363  )
        10           Pd1 tau(  10) = (   7.4436320   4.7396030  14.7851363  )
        11           Cd1 tau(  11) = (   6.2216214   2.1222767  14.7851363  )
        12           Cd1 tau(  12) = (   4.5550844   4.7396030  14.7851363  )

     number of k points=    20  Fermi-Dirac smearing, width (Ry)=  0.0110
                       cart. coord. in units 2pi/alat
        k(    1) = (   0.0000000   0.0000000   0.0000000), wk =   0.0555556
        k(    2) = (   0.0000000   0.0318391   0.0000000), wk =   0.1111111
        k(    3) = (   0.0000000   0.0636782   0.0000000), wk =   0.1111111
        k(    4) = (   0.0000000  -0.0955173   0.0000000), wk =   0.0555556
        k(    5) = (   0.0288496  -0.0134697   0.0000000), wk =   0.1111111
        k(    6) = (   0.0288496   0.0183695   0.0000000), wk =   0.1111111
        k(    7) = (   0.0288496   0.0502086   0.0000000), wk =   0.1111111
        k(    8) = (   0.0288496  -0.1089870   0.0000000), wk =   0.1111111
        k(    9) = (   0.0288496  -0.0771479   0.0000000), wk =   0.1111111
        k(   10) = (   0.0288496  -0.0453088   0.0000000), wk =   0.1111111
        k(   11) = (   0.0576991  -0.0269393   0.0000000), wk =   0.1111111
        k(   12) = (   0.0576991   0.0048998   0.0000000), wk =   0.1111111
        k(   13) = (   0.0576991   0.0367389   0.0000000), wk =   0.1111111
        k(   14) = (   0.0576991  -0.1224566   0.0000000), wk =   0.1111111
        k(   15) = (   0.0576991  -0.0906175   0.0000000), wk =   0.1111111
        k(   16) = (   0.0576991  -0.0587784   0.0000000), wk =   0.1111111
        k(   17) = (  -0.0865487   0.0404090   0.0000000), wk =   0.0555556
        k(   18) = (  -0.0865487   0.0722481   0.0000000), wk =   0.1111111
        k(   19) = (  -0.0865487   0.1040872   0.0000000), wk =   0.1111111
        k(   20) = (  -0.0865487  -0.0551084   0.0000000), wk =   0.0555556

     Largest allocated arrays     est. size (Mb)     dimensions
     Largest temporary arrays     est. size (Mb)     dimensions

     Initial potential from superposition of free atoms
     Check: negative starting charge=   -0.582302

     starting charge  161.99971, renormalised to  168.00000

     negative rho (up, down):  6.039E-01 0.000E+00

     *
     * You are using vdW-DF for exchange-correlation in this calculation.
     * Please cite the following three references that made this development
     * possible:
     *
     *   M. Dion, H. Rydberg, E. Schroder, D. C. Langreth, and
     *   B. I. Lundqvist, Phys. Rev. Lett. 92, 246401 (2004).
     *
     *   T. Thonhauser, V. R. Cooper, S. Li, A. Puzder, P. Hyldgaard, and
     *   D. C. Langreth, Phys. Rev. B 76, 125112 (2007).
     *
     *   G. Roman-Perez and J. M. Soler, Phys. Rev. Lett. 103, 096102 (2009).
     *
     *
     * If you are using vdW-DF2, please also cite:
     *
     *   K. Lee, E. D. Murray, L. Kong, B. I. Lundqvist, and
     *   D. C. Langreth, Phys. Rev. B 82, 081101(R) (2010).
     *
     *
     * If you are calculating the stress with vdW-DF, please also cite:
     *
     *   R. Sabatini, E. Kucukbenli, B. Kolb, T. Thonhauser, and
     *   S. de Gironcoli, J. Phys.: Condens. Matter 24, 424209 (2012).
     *

     Carrying out vdW-DF run using the following parameters:

     Nqs =      20    Nr_points =    1024   r_max =   100.000
     q_mesh =
               0.00001000     0.04494208     0.09755937     0.15916263
               0.23128650     0.31572767     0.41458969     0.53033537
               0.66584808     0.82450364     1.01025438     1.22772762
               1.48234092     1.78043706     2.12944203     2.53805004
               3.01644009     3.57652955     4.23227104     5.00000000

     Gradients computed in reciprocal space

     Adding external electric field

     Computed dipole along edir(3) :
        Dipole                0.0000 Ry au,          0.0000 Debye
        Dipole field          0.0000 Ry au

        Potential amp.       -0.0000 Ry
        Total length         45.6662 bohr

     Starting wfc are  126 randomized atomic wfcs

     Self-consistent Calculation

     iteration #  1     ecut=    36.75 Ry     beta=0.10
     Davidson diagonalization with overlap
     ethr =  1.00E-02,  avg # of iterations =  7.2

[...]

     total energy              =   -1894.37320897 Ry
     Harris-Foulkes estimate   =   -1898.99353798 Ry
     estimated scf accuracy    <      26.85331391 Ry

[...]

     End of self-consistent calculation

          k = 0.0000 0.0000 0.0000 ( 19097 PWs)   bands (ev):

   -49.1420 -49.1403 -49.1355 -49.0889 -49.0862 -49.0841 -48.8427 -48.8422
   -48.8380 -48.8375 -48.8133 -48.8132 -48.7582 -48.7581 -48.7288 -48.7279
   -48.7241 -48.7233  -8.4282  -8.3715  -8.2355  -8.2304  -8.2208  -8.1850
    -8.1694  -8.0970  -8.0732  -8.0481  -8.0226  -7.9586  -7.8708  -7.8506
    -7.7861  -7.7767  -7.7661  -7.7612  -7.6927  -7.6920  -7.6884  -7.6777
    -7.5868  -7.5783  -7.5271  -7.4822  -7.4794  -7.4014  -7.3725  -7.2014
    -6.4684  -4.7786  -3.5080  -3.2674  -2.8338  -2.6063  -2.3124  -1.9936
    -1.9874  -1.8660  -1.8140  -1.7325  -1.6309  -1.5728  -1.4474  -1.3467
    -1.2595  -1.1367  -1.1139  -1.0620  -1.0344  -1.0019  -0.8930  -0.7756
    -0.7568  -0.6328  -0.5891  -0.5871  -0.5498  -0.5444  -0.4250  -0.2311
    -0.0972   0.7088   0.7896   0.9475   1.1968   1.4927   1.5693   1.5862
     1.7081   2.5416   3.4344   3.5270   4.0422   4.2119   4.5653   4.7375
     4.7446   5.2006   5.4523   5.4566   5.6705   6.1548   6.2036   6.2098
     6.6984   7.5329   7.7061   8.1766   8.3065   8.3825   8.4453   8.4500
     9.2679   9.4981

[...]

          k =-0.0865 0.0404 0.0000 ( 19014 PWs)   bands (ev):

[...]

     the Fermi energy is     0.7835 ev

!    total energy              =   -1895.50484348 Ry
     Harris-Foulkes estimate   =   -1895.50485121 Ry
     estimated scf accuracy    <       0.00000044 Ry

     The total energy is the sum of the following terms:

     one-electron contribution =  -13816.00329864 Ry
     hartree contribution      =    6979.79403963 Ry
     xc contribution           =    -440.39540123 Ry
     ewald contribution        =    5381.12624756 Ry
     electric field correction =       0.00000000 Ry
     smearing contrib. (-TS)   =      -0.02643079 Ry

     convergence has been achieved in  15 iterations

 BEEF-vdW xc energy contributions
           1 :   -384.891377837886
           2 :    351.985788621415
           3 :   -296.190309359659
           4 :    233.016656443813
           5 :   -177.092856969115
           6 :    137.061937351685
           7 :   -113.827713022229
           8 :    102.359335712017
           9 :   -95.5949943246961
          10 :    88.2198068108806
          11 :   -78.5571001018821
[...]
00028 suncat2043 pw.x -in pw.inp   Done                     12/19/2018 01:37:24
00029 suncat2043 pw.x -in pw.inp   Done                     12/19/2018 01:37:24
00030 suncat2043 pw.x -in pw.inp   Done                     12/19/2018 01:37:24
00031 suncat2043 pw.x -in pw.inp   Done                     12/19/2018 01:37:24

[...]

   This run was terminated on:   1:42: 4  19Dec2018

[...]

   This run was terminated on:   1:51:27  19Dec2018

[...]

     Program PWSCF v.5.1rc2 (svn rev. 11289) starts on 19Dec2018 at  1:51:34

     Current dimensions of program PWSCF are:
     Max number of different atomic species (ntypx) = 10
     Max number of k-points (npk) =  40000
     Max angular momentum in pseudopotentials (lmaxx) =  3
     Presently stress not available with electric field

     IMPORTANT: XC functional enforced from input :
     Exchange-correlation      = BEEF-VDW ( 1  4 27 13 2)
     Any further DFT definition will be discarded
     Please, verify this is what you really want

     Subspace diagonalization in iterative solution of the eigenvalue problem:
     a serial algorithm will be used

     Found symmetry operation: I + ( -0.5000 -0.5000  0.0000)
     This is a supercell, fractional translations are disabled

     bravais-lattice index     =            0
     lattice parameter (alat)  =       1.8897  a.u.
     unit-cell volume          =    5058.0753 (a.u.)^3
     number of atoms/cell      =           12
     number of atomic types    =            2
     number of electrons       =       168.00
     number of Kohn-Sham states=          114
     kinetic-energy cutoff     =      36.7493  Ry
     charge density cutoff     =     367.4932  Ry
     convergence threshold     =      1.0E-06
     mixing beta               =       0.1000
     number of iterations used =           10  plain     mixing
     Exchange-correlation      = BEEF-VDW ( 1  4 27 13 2)
     nstep                     =           50

     celldm(1)=   1.889726  celldm(2)=   0.000000  celldm(3)=   0.000000
     celldm(4)=   0.000000  celldm(5)=   0.000000  celldm(6)=   0.000000

     crystal axes: (cart. coord. in units of alat)
               a(1) = (   5.777095   0.000000   0.000000 )
               a(2) = (   2.444021   5.234653   0.000000 )
               a(3) = (   0.000000   0.000000  24.785136 )

     reciprocal axes: (cart. coord. in units 2 pi/alat)
               b(1) = (  0.173097 -0.080818  0.000000 )
               b(2) = (  0.000000  0.191035  0.000000 )
               b(3) = (  0.000000  0.000000  0.040347 )

     PseudoPot. # 1 for Pd read from file:
     /afs/slac.stanford.edu/u/if/mamunm/psp/gbrv1.5pbe/Pd.UPF
     MD5 check sum: 2d733d2bc2cbfd217af676df1668a4bc
     Pseudo is Ultrasoft + core correction, Zval = 16.0
     Generated by new atomic code, or converted to UPF format
     Using radial grid of  887 points,  6 beta functions with:
                l(1) =   0
                l(2) =   0
                l(3) =   1
                l(4) =   1
                l(5) =   2
                l(6) =   2
     Q(r) pseudized with  8 coefficients,  rinner =    1.130   1.130   1.130
                                                       1.130   1.130

     PseudoPot. # 2 for Cd read from file:
     /afs/slac.stanford.edu/u/if/mamunm/psp/gbrv1.5pbe/Cd.UPF
     MD5 check sum: 17164a7926edb8e0dc231208abae86a6
     Pseudo is Ultrasoft + core correction, Zval = 12.0
     Generated by new atomic code, or converted to UPF format
     Using radial grid of  889 points,  6 beta functions with:
                l(1) =   0
                l(2) =   0
                l(3) =   1
                l(4) =   1
                l(5) =   2
                l(6) =   2
     Q(r) pseudized with  6 coefficients,  rinner =    1.000   1.000   1.000
                                                       1.000   1.000

     vdW kernel table read from file vdW_kernel_table
     MD5 check sum: 095c7af220d748ca6e76c0b4c6cfb241

     atomic species   valence    mass     pseudopotential
        Pd1           16.00   106.42000     Pd( 1.00)
        Cd1           12.00   112.41400     Cd( 1.00)

     No symmetry found

   Cartesian axes

     site n.     atom                  positions (alat units)
         1           Pd1 tau(   1) = (   0.0000000   0.0000000  10.0000000  )
         2           Pd1 tau(   2) = (   4.1105582   2.6173263  10.0000000  )
         3           Cd1 tau(   3) = (   2.8885475   0.0000000  10.0000000  )
         4           Cd1 tau(   4) = (   1.2220106   2.6173263  10.0000000  )
         5           Pd1 tau(   5) = (   5.7770951   3.6784646  12.3925681  )
         6           Pd1 tau(   6) = (   1.6665369   1.0611383  12.3925681  )
         7           Cd1 tau(   7) = (   2.8885475   3.6784646  12.3925681  )
         8           Cd1 tau(   8) = (   4.5550844   1.0611383  12.3925681  )
         9           Pd1 tau(   9) = (   3.3339556   2.1228400  14.6694475  )
        10           Pd1 tau(  10) = (   7.4445140   4.7401577  14.6694474  )
        11           Cd1 tau(  11) = (   6.2357537   2.1312455  14.8911910  )
        12           Cd1 tau(  12) = (   4.5692218   4.7485966  14.8911745  )

     number of k points=    20  Fermi-Dirac smearing, width (Ry)=  0.0110
                       cart. coord. in units 2pi/alat
        k(    1) = (   0.0000000   0.0000000   0.0000000), wk =   0.0555556
        k(    2) = (   0.0000000   0.0318391   0.0000000), wk =   0.1111111
        k(    3) = (   0.0000000   0.0636782   0.0000000), wk =   0.1111111
        k(    4) = (   0.0000000  -0.0955173   0.0000000), wk =   0.0555556
        k(    5) = (   0.0288496  -0.0134697   0.0000000), wk =   0.1111111
        k(    6) = (   0.0288496   0.0183695   0.0000000), wk =   0.1111111
        k(    7) = (   0.0288496   0.0502086   0.0000000), wk =   0.1111111
        k(    8) = (   0.0288496  -0.1089870   0.0000000), wk =   0.1111111
        k(    9) = (   0.0288496  -0.0771479   0.0000000), wk =   0.1111111
        k(   10) = (   0.0288496  -0.0453088   0.0000000), wk =   0.1111111
        k(   11) = (   0.0576991  -0.0269393   0.0000000), wk =   0.1111111
        k(   12) = (   0.0576991   0.0048998   0.0000000), wk =   0.1111111
        k(   13) = (   0.0576991   0.0367389   0.0000000), wk =   0.1111111
        k(   14) = (   0.0576991  -0.1224566   0.0000000), wk =   0.1111111
        k(   15) = (   0.0576991  -0.0906175   0.0000000), wk =   0.1111111
        k(   16) = (   0.0576991  -0.0587784   0.0000000), wk =   0.1111111
        k(   17) = (  -0.0865487   0.0404090   0.0000000), wk =   0.0555556
        k(   18) = (  -0.0865487   0.0722481   0.0000000), wk =   0.1111111
        k(   19) = (  -0.0865487   0.1040872   0.0000000), wk =   0.1111111
        k(   20) = (  -0.0865487  -0.0551084   0.0000000), wk =   0.0555556

     Largest allocated arrays     est. size (Mb)     dimensions
     Largest temporary arrays     est. size (Mb)     dimensions

     Initial potential from superposition of free atoms
     Check: negative starting charge=   -0.584224

     starting charge  161.99971, renormalised to  168.00000

[...]

     *
     * You are using vdW-DF for exchange-correlation in this calculation.
     * Please cite the following three references that made this development
     * possible:
     *
     *   M. Dion, H. Rydberg, E. Schroder, D. C. Langreth, and
     *   B. I. Lundqvist, Phys. Rev. Lett. 92, 246401 (2004).
     *
     *   T. Thonhauser, V. R. Cooper, S. Li, A. Puzder, P. Hyldgaard, and
     *   D. C. Langreth, Phys. Rev. B 76, 125112 (2007).
     *
     *   G. Roman-Perez and J. M. Soler, Phys. Rev. Lett. 103, 096102 (2009).
     *
     *
     * If you are using vdW-DF2, please also cite:
     *
     *   K. Lee, E. D. Murray, L. Kong, B. I. Lundqvist, and
     *   D. C. Langreth, Phys. Rev. B 82, 081101(R) (2010).
     *
     *
     * If you are calculating the stress with vdW-DF, please also cite:
     *
     *   R. Sabatini, E. Kucukbenli, B. Kolb, T. Thonhauser, and
     *   S. de Gironcoli, J. Phys.: Condens. Matter 24, 424209 (2012).
     *

     Carrying out vdW-DF run using the following parameters:

     Nqs =      20    Nr_points =    1024   r_max =   100.000
     q_mesh =
               0.00001000     0.04494208     0.09755937     0.15916263
               0.23128650     0.31572767     0.41458969     0.53033537
               0.66584808     0.82450364     1.01025438     1.22772762
               1.48234092     1.78043706     2.12944203     2.53805004
               3.01644009     3.57652955     4.23227104     5.00000000

     Gradients computed in reciprocal space

[...]

     Starting wfc are  126 randomized atomic wfcs

     Self-consistent Calculation

[...]

     total energy              =   -1895.51109461 Ry
     Harris-Foulkes estimate   =   -1895.51109769 Ry
     estimated scf accuracy    <       0.00000558 Ry

     iteration # 16     ecut=    36.75 Ry     beta=0.10
     Davidson diagonalization with overlap
     ethr =  3.32E-09,  avg # of iterations =  2.3

[...]

     negative rho (up, down):  6.046E-01 0.000E+00

     Adding external electric field

     Computed dipole along edir(3) :
        Dipole                0.0229 Ry au,          0.0583 Debye
        Dipole field          0.0001 Ry au

        Potential amp.       -0.0052 Ry
        Total length         45.6662 bohr

     End of self-consistent calculation

[...]

          k = 0.0577-0.0588 0.0000 ( 19028 PWs)   bands (ev):

[...]

          k =-0.0865-0.0551 0.0000 ( 19006 PWs)   bands (ev):

   -49.0548 -49.0538 -49.0498 -49.0090 -49.0039 -48.9981 -48.8807 -48.8758
   -48.8607 -48.8058 -48.8055 -48.8008 -48.7904 -48.7857 -48.7754 -48.7203
   -48.6902 -48.6855  -8.3222  -8.1906  -8.1713  -8.1578  -8.0696  -7.9944
    -7.9749  -7.9455  -7.9343  -7.9191  -7.9159  -7.8970  -7.7935  -7.7524
    -7.7200  -7.7020  -7.6700  -7.6504  -7.6386  -7.6338  -7.6049  -7.5693
    -7.5500  -7.5117  -7.4806  -7.4663  -7.4280  -7.4106  -7.3282  -7.1652
    -4.6965  -4.5951  -3.0982  -3.0236  -2.8681  -2.8070  -2.6656  -2.5755
    -2.4085  -2.3483  -2.2140  -2.0511  -2.0052  -1.9859  -1.9777  -1.9284
    -1.8738  -1.6093  -1.4942  -1.4069  -1.4025  -1.1569  -1.1379  -1.0590
    -1.0473  -0.8474  -0.8138  -0.7942  -0.7144  -0.6310  -0.5595  -0.4961
    -0.4383  -0.2644  -0.0347   0.7212   1.0744   1.2578   1.3722   1.8684
     2.9333   3.2590   3.5859   3.6917   5.5892   5.8113   5.8499   5.8882
     6.3247   6.3554   6.4599   6.6981   6.7466   6.9823   7.0561   7.1852
     7.7198   7.7310   7.7766   7.9149   8.0675   8.0859   8.1755   8.3790
     8.3956   8.8464

     the Fermi energy is     0.8164 ev

!    total energy              =   -1895.51108946 Ry
     Harris-Foulkes estimate   =   -1895.51109536 Ry
     estimated scf accuracy    <       0.00000057 Ry

     The total energy is the sum of the following terms:

     one-electron contribution =  -13852.11750749 Ry
     hartree contribution      =    6998.03486800 Ry
     xc contribution           =    -440.39396551 Ry
     ewald contribution        =    5398.99125351 Ry
     electric field correction =       0.00000131 Ry
     smearing contrib. (-TS)   =      -0.02573927 Ry

     convergence has been achieved in  16 iterations

 BEEF-vdW xc energy contributions
           1 :   -384.891852124043
           2 :    351.989661075408
           3 :   -296.194856767285
           4 :    233.013822865787
           5 :   -177.074886472935
           6 :    137.026532192727
           7 :   -113.779433161062
           8 :    102.308014387643
           9 :   -95.5522908250881
          10 :    88.1943562184488
          11 :   -78.5498955606029
          12 :    68.0893186296412
          13 :   -59.4252911426852
          14 :    54.2287733327938
          15 :   -52.2552632237500
          16 :    51.7747411560085
          17 :   -50.8364299459464
          18 :    48.4327711035409
          19 :   -44.8814513097725
          20 :    41.3394665139025
          21 :   -38.9014938735192
          22 :    37.8990116401744
          23 :   -37.7907081625430
          24 :    37.6136715209637
          25 :   -36.6348773302869
          26 :    34.7738432587414
          27 :   -32.5677349905495
          28 :    30.7564764200452
          29 :   -29.7901570744172
          30 :    29.5713892536266
          31 :   -35.8322722909029
          32 :   -26.3033424282357

     Forces acting on atoms (Ry/au):

     negative rho (up, down):  6.046E-01 0.000E+00
     atom    1 type  1   force =     0.00071866    0.00045924    0.01543384
     atom    2 type  1   force =     0.00071809    0.00045880    0.01543351
     atom    3 type  2   force =    -0.00267181   -0.00170029   -0.01212433
     atom    4 type  2   force =    -0.00267481   -0.00170616   -0.01212976
     atom    5 type  1   force =    -0.00251972   -0.00160468    0.00469561
     atom    6 type  1   force =    -0.00252024   -0.00160352    0.00469550
     atom    7 type  2   force =     0.00391689    0.00249174   -0.01052515
     atom    8 type  2   force =     0.00391732    0.00249922   -0.01053481
     atom    9 type  1   force =     0.00065400    0.00041642    0.00108611
     atom   10 type  1   force =     0.00065288    0.00041595    0.00108575
     atom   11 type  2   force =    -0.00009572   -0.00005875    0.00144577
     atom   12 type  2   force =    -0.00009556   -0.00006796    0.00143796

     Total force =     0.033566     Total SCF correction =     0.001144

     entering subroutine stress ...

     negative rho (up, down):  6.046E-01 0.000E+00
          total   stress  (Ry/bohr**3)                   (kbar)     P=   -9.30
  -0.00008814  -0.00001017   0.00000409        -12.97     -1.50      0.60
  -0.00001017  -0.00007864   0.00000261         -1.50    -11.57      0.38
   0.00000409   0.00000261  -0.00002287          0.60      0.38     -3.36

 !ASE

     Writing output data file calc.save

     General routines

     Parallel routines

   This run was terminated on:   1:56: 8  19Dec2018

   JOB DONE.
Job  /afs/slac/g/suncat/bin/suncat-tsmpirun -x LD_LIBRARY_PATH -wdir /scratch/qe530412_vOBF5 pw.x -in pw.inp

TID   HOST_NAME   COMMAND_LINE            STATUS            TERMINATION_TIME
00000 suncat2044 pw.x -in pw.inp   Done                     12/19/2018 01:56:09
00001 suncat2044 pw.x -in pw.inp   Done                     12/19/2018 01:56:09
00002 suncat2044 pw.x -in pw.inp   Done                     12/19/2018 01:56:09
00003 suncat2044 pw.x -in pw.inp   Done                     12/19/2018 01:56:08
00004 suncat2044 pw.x -in pw.inp   Done                     12/19/2018 01:56:09
00005 suncat2044 pw.x -in pw.inp   Done                     12/19/2018 01:56:08
00006 suncat2044 pw.x -in pw.inp   Done                     12/19/2018 01:56:08
00007 suncat2044 pw.x -in pw.inp   Done                     12/19/2018 01:56:08
00008 suncat2044 pw.x -in pw.inp   Done                     12/19/2018 01:56:09
00009 suncat2044 pw.x -in pw.inp   Done                     12/19/2018 01:56:09
00010 suncat2044 pw.x -in pw.inp   Done                     12/19/2018 01:56:09
00011 suncat2044 pw.x -in pw.inp   Done                     12/19/2018 01:56:09
00012 suncat2044 pw.x -in pw.inp   Done                     12/19/2018 01:56:09
00013 suncat2044 pw.x -in pw.inp   Done                     12/19/2018 01:56:09
00014 suncat2044 pw.x -in pw.inp   Done                     12/19/2018 01:56:08
00015 suncat2044 pw.x -in pw.inp   Done                     12/19/2018 01:56:08
00016 suncat2043 pw.x -in pw.inp   Done                     12/19/2018 01:56:09
00017 suncat2043 pw.x -in pw.inp   Done                     12/19/2018 01:56:09
00018 suncat2043 pw.x -in pw.inp   Done                     12/19/2018 01:56:09
00019 suncat2043 pw.x -in pw.inp   Done                     12/19/2018 01:56:09
00020 suncat2043 pw.x -in pw.inp   Done                     12/19/2018 01:56:09
00021 suncat2043 pw.x -in pw.inp   Done                     12/19/2018 01:56:09
00022 suncat2043 pw.x -in pw.inp   Done                     12/19/2018 01:56:08
00023 suncat2043 pw.x -in pw.inp   Done                     12/19/2018 01:56:09
00024 suncat2043 pw.x -in pw.inp   Done                     12/19/2018 01:56:09
00025 suncat2043 pw.x -in pw.inp   Done                     12/19/2018 01:56:09
00026 suncat2043 pw.x -in pw.inp   Done                     12/19/2018 01:56:09
00027 suncat2043 pw.x -in pw.inp   Done                     12/19/2018 01:56:09
00028 suncat2043 pw.x -in pw.inp   Done                     12/19/2018 01:56:09
00029 suncat2043 pw.x -in pw.inp   Done                     12/19/2018 01:56:09
00030 suncat2043 pw.x -in pw.inp   Done                     12/19/2018 01:56:09
00031 suncat2043 pw.x -in pw.inp   Done                     12/19/2018 01:56:09