     Program PWSCF v.5.1rc2 (svn rev. 11289) starts on 18Dec2018 at 18:59: 9

     Current dimensions of program PWSCF are:
     Max number of different atomic species (ntypx) = 10
     Max number of k-points (npk) =  40000
     Max angular momentum in pseudopotentials (lmaxx) =  3
     Presently stress not available with electric field

     IMPORTANT: XC functional enforced from input :
     Exchange-correlation      = BEEF-VDW ( 1  4 27 13 2)
     Any further DFT definition will be discarded
     Please, verify this is what you really want

     Subspace diagonalization in iterative solution of the eigenvalue problem:
     a serial algorithm will be used

     Found symmetry operation: I + ( -0.5000 -0.5000  0.0000)
     This is a supercell, fractional translations are disabled

     bravais-lattice index     =            0
     lattice parameter (alat)  =       1.8897  a.u.
     unit-cell volume          =    6999.4463 (a.u.)^3
     number of atoms/cell      =           12
     number of atomic types    =            2
     number of electrons       =       144.00
     number of Kohn-Sham states=          102
     kinetic-energy cutoff     =      36.7493  Ry
     charge density cutoff     =     367.4932  Ry
     convergence threshold     =      1.0E-06
     mixing beta               =       0.1000
     number of iterations used =           10  plain     mixing
     Exchange-correlation      = BEEF-VDW ( 1  4 27 13 2)
     nstep                     =           50

     celldm(1)=   1.889726  celldm(2)=   0.000000  celldm(3)=   0.000000
     celldm(4)=   0.000000  celldm(5)=   0.000000  celldm(6)=   0.000000

     crystal axes: (cart. coord. in units of alat)
               a(1) = (   6.638598   0.000000   0.000000 )
               a(2) = (   2.549114   6.129682   0.000000 )
               a(3) = (   0.000000   0.000000  25.489001 )

     reciprocal axes: (cart. coord. in units 2 pi/alat)
               b(1) = (  0.150634 -0.062643  0.000000 )
               b(2) = (  0.000000  0.163141  0.000000 )
               b(3) = (  0.000000  0.000000  0.039233 )

     PseudoPot. # 1 for Cd read from file:
     /afs/slac.stanford.edu/u/if/mamunm/psp/gbrv1.5pbe/Cd.UPF
     MD5 check sum: 17164a7926edb8e0dc231208abae86a6
     Pseudo is Ultrasoft + core correction, Zval = 12.0
     Generated by new atomic code, or converted to UPF format
     Using radial grid of  889 points,  6 beta functions with:
                l(1) =   0
                l(2) =   0
                l(3) =   1
                l(4) =   1
                l(5) =   2
                l(6) =   2
     Q(r) pseudized with  6 coefficients,  rinner =    1.000   1.000   1.000
                                                       1.000   1.000

     PseudoPot. # 2 for Hg read from file:
     /afs/slac.stanford.edu/u/if/mamunm/psp/gbrv1.5pbe/Hg.UPF
     MD5 check sum: 8f42caffe07f7fd9c0a564347f8c5498
     Pseudo is Ultrasoft + core correction, Zval = 12.0
     Generated by new atomic code, or converted to UPF format
     Using radial grid of  985 points,  6 beta functions with:
                l(1) =   0
                l(2) =   0
                l(3) =   1
                l(4) =   1
                l(5) =   2
                l(6) =   2
     Q(r) pseudized with  8 coefficients,  rinner =    2.000   2.000   2.000
                                                       2.000   2.000

     vdW kernel table read from file vdW_kernel_table
     MD5 check sum: 095c7af220d748ca6e76c0b4c6cfb241

     atomic species   valence    mass     pseudopotential
        Cd1           12.00   112.41400     Cd( 1.00)
        Hg1           12.00   200.59200     Hg( 1.00)

     No symmetry found

   Cartesian axes

     site n.     atom                  positions (alat units)
         1           Cd1 tau(   1) = (   0.0000000   0.0000000  10.0000000  )
         2           Cd1 tau(   2) = (   4.5938556   3.0648408  10.0000000  )
         3           Hg1 tau(   3) = (   3.3192988   0.0000000  10.0000000  )
         4           Hg1 tau(   4) = (   1.2745568   3.0648408  10.0000000  )
         5           Cd1 tau(   5) = (   6.6385975   4.4290127  12.7445007  )
         6           Cd1 tau(   6) = (   2.0447420   1.3641719  12.7445007  )
         7           Hg1 tau(   7) = (   3.3192988   4.4290127  12.7445007  )
         8           Hg1 tau(   8) = (   5.3640407   1.3641719  12.7445007  )
         9           Cd1 tau(   9) = (   4.0894840   2.7283438  15.4890015  )
        10           Cd1 tau(  10) = (   8.6833395   5.7931846  15.4890015  )
        11           Hg1 tau(  11) = (   7.4087827   2.7283438  15.4890015  )
        12           Hg1 tau(  12) = (   5.3640407   5.7931846  15.4890015  )

     number of k points=    20  Fermi-Dirac smearing, width (Ry)=  0.0110
                       cart. coord. in units 2pi/alat
        k(    1) = (   0.0000000   0.0000000   0.0000000), wk =   0.0555556
        k(    2) = (   0.0000000   0.0271901   0.0000000), wk =   0.1111111
        k(    3) = (   0.0000000   0.0543802   0.0000000), wk =   0.1111111
        k(    4) = (   0.0000000  -0.0815703   0.0000000), wk =   0.0555556
        k(    5) = (   0.0251057  -0.0104406   0.0000000), wk =   0.1111111
        k(    6) = (   0.0251057   0.0167495   0.0000000), wk =   0.1111111
        k(    7) = (   0.0251057   0.0439396   0.0000000), wk =   0.1111111
        k(    8) = (   0.0251057  -0.0920109   0.0000000), wk =   0.1111111
        k(    9) = (   0.0251057  -0.0648208   0.0000000), wk =   0.1111111
        k(   10) = (   0.0251057  -0.0376307   0.0000000), wk =   0.1111111
        k(   11) = (   0.0502114  -0.0208811   0.0000000), wk =   0.1111111
        k(   12) = (   0.0502114   0.0063090   0.0000000), wk =   0.1111111
        k(   13) = (   0.0502114   0.0334991   0.0000000), wk =   0.1111111
        k(   14) = (   0.0502114  -0.1024514   0.0000000), wk =   0.1111111
        k(   15) = (   0.0502114  -0.0752613   0.0000000), wk =   0.1111111
        k(   16) = (   0.0502114  -0.0480712   0.0000000), wk =   0.1111111
        k(   17) = (  -0.0753171   0.0313217   0.0000000), wk =   0.0555556
        k(   18) = (  -0.0753171   0.0585118   0.0000000), wk =   0.1111111
        k(   19) = (  -0.0753171   0.0857019   0.0000000), wk =   0.1111111
        k(   20) = (  -0.0753171  -0.0502486   0.0000000), wk =   0.0555556

     Largest allocated arrays     est. size (Mb)     dimensions
     Largest temporary arrays     est. size (Mb)     dimensions

     Initial potential from superposition of free atoms
     Check: negative starting charge=   -0.131151

     starting charge  140.99940, renormalised to  144.00000

     negative rho (up, down):  1.339E-01 0.000E+00

     *
     * You are using vdW-DF for exchange-correlation in this calculation.
     * Please cite the following three references that made this development
     * possible:
     *
     *   M. Dion, H. Rydberg, E. Schroder, D. C. Langreth, and
     *   B. I. Lundqvist, Phys. Rev. Lett. 92, 246401 (2004).
     *
     *   T. Thonhauser, V. R. Cooper, S. Li, A. Puzder, P. Hyldgaard, and
     *   D. C. Langreth, Phys. Rev. B 76, 125112 (2007).
     *
     *   G. Roman-Perez and J. M. Soler, Phys. Rev. Lett. 103, 096102 (2009).
     *
     *
     * If you are using vdW-DF2, please also cite:
     *
     *   K. Lee, E. D. Murray, L. Kong, B. I. Lundqvist, and
     *   D. C. Langreth, Phys. Rev. B 82, 081101(R) (2010).
     *
     *
     * If you are calculating the stress with vdW-DF, please also cite:
     *
     *   R. Sabatini, E. Kucukbenli, B. Kolb, T. Thonhauser, and
     *   S. de Gironcoli, J. Phys.: Condens. Matter 24, 424209 (2012).
     *

     Carrying out vdW-DF run using the following parameters:

     Nqs =      20    Nr_points =    1024   r_max =   100.000
     q_mesh =
               0.00001000     0.04494208     0.09755937     0.15916263
               0.23128650     0.31572767     0.41458969     0.53033537
               0.66584808     0.82450364     1.01025438     1.22772762
               1.48234092     1.78043706     2.12944203     2.53805004
               3.01644009     3.57652955     4.23227104     5.00000000

     Gradients computed in reciprocal space

     Adding external electric field

     Computed dipole along edir(3) :
        Dipole                0.0000 Ry au,          0.0000 Debye
        Dipole field          0.0000 Ry au

        Potential amp.       -0.0000 Ry
        Total length         46.9631 bohr

     Starting wfc are  108 randomized atomic wfcs

     Self-consistent Calculation

     iteration #  1     ecut=    36.75 Ry     beta=0.10
     Davidson diagonalization with overlap
     ethr =  1.00E-02,  avg # of iterations =  8.6

     Threshold (ethr) on eigenvalues was too large:
     Diagonalizing with lowered threshold

     Davidson diagonalization with overlap
     ethr =  5.52E-04,  avg # of iterations =  3.8

[...]

     total energy              =   -1351.24762407 Ry
     Harris-Foulkes estimate   =   -1351.38440312 Ry
     estimated scf accuracy    <       0.78787213 Ry

[...]

     End of self-consistent calculation

          k = 0.0000 0.0000 0.0000 ( 26297 PWs)   bands (ev):

    -8.9507  -8.9247  -8.9170  -8.9062  -8.8514  -8.8433  -8.7879  -8.7866
    -8.7795  -8.7644  -8.7633  -8.7594  -8.7369  -8.7173  -8.7059  -8.6954
    -8.6844  -8.6834  -8.6744  -8.6660  -8.6278  -8.6167  -8.6143  -8.6060
    -8.5752  -8.5557  -8.5515  -8.5400  -8.4838  -8.4548  -7.2404  -7.1651
    -7.1441  -7.1280  -7.0872  -6.9820  -6.9395  -6.9358  -6.8967  -6.8764
    -6.8383  -6.8271  -6.8259  -6.7788  -6.7415  -6.7404  -6.7236  -6.7057
    -6.7026  -6.6852  -6.6714  -6.6545  -6.6114  -6.5914  -6.5848  -6.5623
    -6.5532  -6.5377  -6.5341  -6.4758  -6.4269  -5.7222  -3.7611  -3.0072
    -2.9223  -2.2139  -1.9084  -1.7437  -1.4219  -0.8893  -0.6321  -0.5395
    -0.4460  -0.4160  -0.2930   0.3928   0.4841   0.8586   1.0392   1.2838
     1.5641   2.0310   2.1358   3.2993   3.7507   3.9530   3.9703   4.0817
     4.5658   4.6526   4.7378   4.8916   5.0016   5.7080   5.7535   6.0258
     6.0660   6.3396   6.5474   6.6088   6.6993   7.1438

[...]

          k =-0.0753 0.0313 0.0000 ( 26302 PWs)   bands (ev):

[...]

     the Fermi energy is    -0.1126 ev

!    total energy              =   -1351.15056740 Ry
     Harris-Foulkes estimate   =   -1351.15056677 Ry
     estimated scf accuracy    <       0.00000053 Ry

     The total energy is the sum of the following terms:

     one-electron contribution =   -7118.35583781 Ry
     hartree contribution      =    3649.25743857 Ry
     xc contribution           =    -487.03390267 Ry
     ewald contribution        =    2605.00426211 Ry
     electric field correction =       0.00000000 Ry
     smearing contrib. (-TS)   =      -0.02252760 Ry

     convergence has been achieved in  13 iterations

 BEEF-vdW xc energy contributions
           1 :   -426.704685258304
           2 :    390.633824155384
           3 :   -329.408381993639
           4 :    259.708794626598
           5 :   -196.962348401564
           6 :    150.060858849630
           7 :   -119.876090752178
           8 :    101.516174749363
           9 :   -88.4823778605079
[...]
     Total force =     0.010020     Total SCF correction =     0.002813
     SCF correction compared to forces is large: reduce conv_thr to get better values

[...]

     Program PWSCF v.5.1rc2 (svn rev. 11289) starts on 18Dec2018 at 19:36:26

[...]

     Program PWSCF v.5.1rc2 (svn rev. 11289) starts on 18Dec2018 at 19:54: 1

     Current dimensions of program PWSCF are:
     Max number of different atomic species (ntypx) = 10
     Max number of k-points (npk) =  40000
     Max angular momentum in pseudopotentials (lmaxx) =  3
     Presently stress not available with electric field

     IMPORTANT: XC functional enforced from input :
     Exchange-correlation      = BEEF-VDW ( 1  4 27 13 2)
     Any further DFT definition will be discarded
     Please, verify this is what you really want

     Subspace diagonalization in iterative solution of the eigenvalue problem:
     a serial algorithm will be used

     bravais-lattice index     =            0
     lattice parameter (alat)  =       1.8897  a.u.
     unit-cell volume          =    6999.4463 (a.u.)^3
     number of atoms/cell      =           12
     number of atomic types    =            2
     number of electrons       =       144.00
     number of Kohn-Sham states=          102
     kinetic-energy cutoff     =      36.7493  Ry
     charge density cutoff     =     367.4932  Ry
     convergence threshold     =      1.0E-06
     mixing beta               =       0.1000
     number of iterations used =           10  plain     mixing
     Exchange-correlation      = BEEF-VDW ( 1  4 27 13 2)
     nstep                     =           50

     celldm(1)=   1.889726  celldm(2)=   0.000000  celldm(3)=   0.000000
     celldm(4)=   0.000000  celldm(5)=   0.000000  celldm(6)=   0.000000

     crystal axes: (cart. coord. in units of alat)
               a(1) = (   6.638598   0.000000   0.000000 )
               a(2) = (   2.549114   6.129682   0.000000 )
               a(3) = (   0.000000   0.000000  25.489001 )

     reciprocal axes: (cart. coord. in units 2 pi/alat)
               b(1) = (  0.150634 -0.062643  0.000000 )
               b(2) = (  0.000000  0.163141  0.000000 )
               b(3) = (  0.000000  0.000000  0.039233 )

     PseudoPot. # 1 for Cd read from file:
     /afs/slac.stanford.edu/u/if/mamunm/psp/gbrv1.5pbe/Cd.UPF
     MD5 check sum: 17164a7926edb8e0dc231208abae86a6
     Pseudo is Ultrasoft + core correction, Zval = 12.0
     Generated by new atomic code, or converted to UPF format
     Using radial grid of  889 points,  6 beta functions with:
                l(1) =   0
                l(2) =   0
                l(3) =   1
                l(4) =   1
                l(5) =   2
                l(6) =   2
     Q(r) pseudized with  6 coefficients,  rinner =    1.000   1.000   1.000
                                                       1.000   1.000

     PseudoPot. # 2 for Hg read from file:
     /afs/slac.stanford.edu/u/if/mamunm/psp/gbrv1.5pbe/Hg.UPF
     MD5 check sum: 8f42caffe07f7fd9c0a564347f8c5498
     Pseudo is Ultrasoft + core correction, Zval = 12.0
     Generated by new atomic code, or converted to UPF format
     Using radial grid of  985 points,  6 beta functions with:
                l(1) =   0
                l(2) =   0
                l(3) =   1
                l(4) =   1
                l(5) =   2
                l(6) =   2
     Q(r) pseudized with  8 coefficients,  rinner =    2.000   2.000   2.000
                                                       2.000   2.000

     vdW kernel table read from file vdW_kernel_table
     MD5 check sum: 095c7af220d748ca6e76c0b4c6cfb241

     atomic species   valence    mass     pseudopotential
        Cd1           12.00   112.41400     Cd( 1.00)
        Hg1           12.00   200.59200     Hg( 1.00)

     No symmetry found

   Cartesian axes

     site n.     atom                  positions (alat units)
         1           Cd1 tau(   1) = (   0.0000000   0.0000000  10.0000000  )
         2           Cd1 tau(   2) = (   4.5938556   3.0648408  10.0000000  )
         3           Hg1 tau(   3) = (   3.3192988   0.0000000  10.0000000  )
         4           Hg1 tau(   4) = (   1.2745568   3.0648408  10.0000000  )
         5           Cd1 tau(   5) = (   6.6385975   4.4290127  12.7445007  )
         6           Cd1 tau(   6) = (   2.0447420   1.3641719  12.7445007  )
         7           Hg1 tau(   7) = (   3.3192988   4.4290127  12.7445007  )
         8           Hg1 tau(   8) = (   5.3640407   1.3641719  12.7445007  )
         9           Cd1 tau(   9) = (   4.0964184   2.7329049  15.5750292  )
        10           Cd1 tau(  10) = (   8.6902763   5.7980129  15.5748285  )
        11           Hg1 tau(  11) = (   7.4214180   2.7367450  15.7319799  )
        12           Hg1 tau(  12) = (   5.3766309   5.8016696  15.7319237  )

     number of k points=    20  Fermi-Dirac smearing, width (Ry)=  0.0110
                       cart. coord. in units 2pi/alat
        k(    1) = (   0.0000000   0.0000000   0.0000000), wk =   0.0555556
        k(    2) = (   0.0000000   0.0271901   0.0000000), wk =   0.1111111
        k(    3) = (   0.0000000   0.0543802   0.0000000), wk =   0.1111111
        k(    4) = (   0.0000000  -0.0815703   0.0000000), wk =   0.0555556
        k(    5) = (   0.0251057  -0.0104406   0.0000000), wk =   0.1111111
        k(    6) = (   0.0251057   0.0167495   0.0000000), wk =   0.1111111
        k(    7) = (   0.0251057   0.0439396   0.0000000), wk =   0.1111111
        k(    8) = (   0.0251057  -0.0920109   0.0000000), wk =   0.1111111
        k(    9) = (   0.0251057  -0.0648208   0.0000000), wk =   0.1111111
        k(   10) = (   0.0251057  -0.0376307   0.0000000), wk =   0.1111111
        k(   11) = (   0.0502114  -0.0208811   0.0000000), wk =   0.1111111
        k(   12) = (   0.0502114   0.0063090   0.0000000), wk =   0.1111111
        k(   13) = (   0.0502114   0.0334991   0.0000000), wk =   0.1111111
        k(   14) = (   0.0502114  -0.1024514   0.0000000), wk =   0.1111111
        k(   15) = (   0.0502114  -0.0752613   0.0000000), wk =   0.1111111
        k(   16) = (   0.0502114  -0.0480712   0.0000000), wk =   0.1111111
        k(   17) = (  -0.0753171   0.0313217   0.0000000), wk =   0.0555556
        k(   18) = (  -0.0753171   0.0585118   0.0000000), wk =   0.1111111
        k(   19) = (  -0.0753171   0.0857019   0.0000000), wk =   0.1111111
        k(   20) = (  -0.0753171  -0.0502486   0.0000000), wk =   0.0555556

     Largest allocated arrays     est. size (Mb)     dimensions
     Largest temporary arrays     est. size (Mb)     dimensions

     Initial potential from superposition of free atoms
     Check: negative starting charge=   -0.131266

     starting charge  140.99940, renormalised to  144.00000

[...]

     *
     * You are using vdW-DF for exchange-correlation in this calculation.
     * Please cite the following three references that made this development
     * possible:
     *
     *   M. Dion, H. Rydberg, E. Schroder, D. C. Langreth, and
     *   B. I. Lundqvist, Phys. Rev. Lett. 92, 246401 (2004).
     *
     *   T. Thonhauser, V. R. Cooper, S. Li, A. Puzder, P. Hyldgaard, and
     *   D. C. Langreth, Phys. Rev. B 76, 125112 (2007).
     *
     *   G. Roman-Perez and J. M. Soler, Phys. Rev. Lett. 103, 096102 (2009).
     *
     *
     * If you are using vdW-DF2, please also cite:
     *
     *   K. Lee, E. D. Murray, L. Kong, B. I. Lundqvist, and
     *   D. C. Langreth, Phys. Rev. B 82, 081101(R) (2010).
     *
     *
     * If you are calculating the stress with vdW-DF, please also cite:
     *
     *   R. Sabatini, E. Kucukbenli, B. Kolb, T. Thonhauser, and
     *   S. de Gironcoli, J. Phys.: Condens. Matter 24, 424209 (2012).
     *

     Carrying out vdW-DF run using the following parameters:

     Nqs =      20    Nr_points =    1024   r_max =   100.000
     q_mesh =
               0.00001000     0.04494208     0.09755937     0.15916263
               0.23128650     0.31572767     0.41458969     0.53033537
               0.66584808     0.82450364     1.01025438     1.22772762
               1.48234092     1.78043706     2.12944203     2.53805004
               3.01644009     3.57652955     4.23227104     5.00000000

     Gradients computed in reciprocal space

[...]

     Starting wfc are  108 randomized atomic wfcs

     Self-consistent Calculation

[...]

     Threshold (ethr) on eigenvalues was too large:
     Diagonalizing with lowered threshold

     Davidson diagonalization with overlap
     ethr =  5.45E-04,  avg # of iterations =  4.5

[...]

     iteration #  5     ecut=    36.75 Ry     beta=0.10
     Davidson diagonalization with overlap
     c_bands:  1 eigenvalues not converged
     ethr =  1.30E-05,  avg # of iterations =  8.3

[...]

     total energy              =   -1351.15354713 Ry
     Harris-Foulkes estimate   =   -1351.15354645 Ry
     estimated scf accuracy    <       0.00000378 Ry

     iteration # 12     ecut=    36.75 Ry     beta=0.10
     Davidson diagonalization with overlap
     ethr =  2.62E-09,  avg # of iterations =  4.0

[...]

     negative rho (up, down):  1.339E-01 0.000E+00

     Adding external electric field

     Computed dipole along edir(3) :
        Dipole                0.0051 Ry au,          0.0130 Debye
        Dipole field          0.0000 Ry au

        Potential amp.       -0.0009 Ry
        Total length         46.9631 bohr

     End of self-consistent calculation

[...]

          k = 0.0502-0.0481 0.0000 ( 26312 PWs)   bands (ev):

[...]

          k =-0.0753-0.0502 0.0000 ( 26426 PWs)   bands (ev):

    -8.8397  -8.8181  -8.7864  -8.7611  -8.7546  -8.7394  -8.7391  -8.7250
    -8.7143  -8.6793  -8.6765  -8.6664  -8.6476  -8.6462  -8.6444  -8.6321
    -8.6280  -8.6126  -8.5943  -8.5895  -8.5794  -8.5744  -8.5730  -8.5684
    -8.5474  -8.5200  -8.5135  -8.5122  -8.4679  -8.4288  -7.1306  -7.0776
    -7.0610  -6.9924  -6.9690  -6.9668  -6.9432  -6.9398  -6.8947  -6.8882
    -6.8328  -6.8141  -6.8057  -6.7923  -6.7812  -6.7769  -6.7574  -6.7277
    -6.7080  -6.6847  -6.6682  -6.6468  -6.6423  -6.6402  -6.5844  -6.5663
    -6.5582  -6.4996  -6.4695  -6.4039  -5.6385  -5.5242  -4.6376  -4.0997
    -3.8981  -3.3048  -3.0551  -2.5052  -2.3479  -2.0311  -1.9256  -0.5373
     1.1587   1.1700   1.8823   1.9562   2.2083   2.7647   2.9241   3.1496
     3.1512   3.2404   3.4451   3.7581   3.9313   4.2904   4.3917   4.4698
     4.4857   4.6251   4.9437   4.9474   5.0342   5.3676   5.5357   5.6999
     5.7444   5.8493   5.8751   5.9213   5.9569   5.9877

     the Fermi energy is    -0.1060 ev

!    total energy              =   -1351.15354986 Ry
     Harris-Foulkes estimate   =   -1351.15354856 Ry
     estimated scf accuracy    <       0.00000095 Ry

     The total energy is the sum of the following terms:

     one-electron contribution =   -6953.03005978 Ry
     hartree contribution      =    3566.74098491 Ry
     xc contribution           =    -486.99060643 Ry
     ewald contribution        =    2522.14811050 Ry
     electric field correction =       0.00000005 Ry
     smearing contrib. (-TS)   =      -0.02197911 Ry

     convergence has been achieved in  12 iterations

 BEEF-vdW xc energy contributions
           1 :   -426.647930729626
           2 :    390.503531263287
           3 :   -329.204356231464
           4 :    259.512006615276
           5 :   -196.873477463059
           6 :    150.120411833923
           7 :   -120.027261969646
           8 :    101.639787666288
           9 :   -88.4801687183147
          10 :    76.1384512149703
          11 :   -63.5982893443750
          12 :    52.2285022236529
          13 :   -43.7010503413858
          14 :    38.4097996736850
          15 :   -35.2578911958364
          16 :    32.5868912639738
          17 :   -29.3309516081877
          18 :    25.5461683105819
          19 :   -22.0836776798396
          20 :    19.8018900302440
          21 :   -18.9385256941023
          22 :    19.0192277268574
          23 :   -19.2402015900393
          24 :    18.9670116541748
          25 :   -18.0148383195046
          26 :    16.6117726585297
          27 :   -15.1737571721983
          28 :    14.0794890235702
          29 :   -13.5468112810763
          30 :    13.5969685798422
          31 :   -38.9902769318920
          32 :   -28.3210263721147

     Forces acting on atoms (Ry/au):

     negative rho (up, down):  1.339E-01 0.000E+00
     atom    1 type  1   force =    -0.00020671   -0.00014190   -0.00237331
     atom    2 type  1   force =    -0.00020301   -0.00014938   -0.00236859
     atom    3 type  2   force =    -0.00012880   -0.00008597   -0.00579752
     atom    4 type  2   force =    -0.00012830   -0.00008724   -0.00579489
     atom    5 type  1   force =    -0.00028712   -0.00018323    0.00453219
     atom    6 type  1   force =    -0.00029188   -0.00019788    0.00451859
     atom    7 type  2   force =     0.00035111    0.00023213    0.00373687
     atom    8 type  2   force =     0.00034681    0.00023564    0.00373229
     atom    9 type  1   force =     0.00033775    0.00024140   -0.00162105
     atom   10 type  1   force =     0.00033549    0.00022183   -0.00161885
     atom   11 type  2   force =    -0.00006068   -0.00003651    0.00152928
     atom   12 type  2   force =    -0.00006464   -0.00004889    0.00152500

     Total force =     0.012582     Total SCF correction =     0.001659
     SCF correction compared to forces is large: reduce conv_thr to get better values

     entering subroutine stress ...

     negative rho (up, down):  1.339E-01 0.000E+00
          total   stress  (Ry/bohr**3)                   (kbar)     P=   -0.31
  -0.00000547  -0.00000378   0.00000117         -0.80     -0.56      0.17
  -0.00000378  -0.00000233   0.00000078         -0.56     -0.34      0.12
   0.00000117   0.00000078   0.00000147          0.17      0.12      0.22

 !ASE

     Writing output data file calc.save

     General routines

     Parallel routines

   This run was terminated on:  20:11:40  18Dec2018

   JOB DONE.
Job  /afs/slac/g/suncat/bin/suncat-tsmpirun -x LD_LIBRARY_PATH -wdir /scratch/qe529642_mgurG pw.x -in pw.inp

TID   HOST_NAME   COMMAND_LINE            STATUS            TERMINATION_TIME
00000 suncat0036 pw.x -in pw.inp   Done                     12/18/2018 20:11:40
00001 suncat0036 pw.x -in pw.inp   Done                     12/18/2018 20:11:40
00002 suncat0036 pw.x -in pw.inp   Done                     12/18/2018 20:11:40
00003 suncat0036 pw.x -in pw.inp   Done                     12/18/2018 20:11:40
00004 suncat0036 pw.x -in pw.inp   Done                     12/18/2018 20:11:40
00005 suncat0036 pw.x -in pw.inp   Done                     12/18/2018 20:11:40
00006 suncat0036 pw.x -in pw.inp   Done                     12/18/2018 20:11:40
00007 suncat0036 pw.x -in pw.inp   Done                     12/18/2018 20:11:40
00008 suncat0035 pw.x -in pw.inp   Done                     12/18/2018 20:11:40
00009 suncat0035 pw.x -in pw.inp   Done                     12/18/2018 20:11:40
00010 suncat0035 pw.x -in pw.inp   Done                     12/18/2018 20:11:40
00011 suncat0035 pw.x -in pw.inp   Done                     12/18/2018 20:11:40
00012 suncat0035 pw.x -in pw.inp   Done                     12/18/2018 20:11:40
00013 suncat0035 pw.x -in pw.inp   Done                     12/18/2018 20:11:40
00014 suncat0035 pw.x -in pw.inp   Done                     12/18/2018 20:11:40
00015 suncat0035 pw.x -in pw.inp   Done                     12/18/2018 20:11:40
00016 suncat0034 pw.x -in pw.inp   Done                     12/18/2018 20:11:40
00017 suncat0034 pw.x -in pw.inp   Done                     12/18/2018 20:11:40
00018 suncat0034 pw.x -in pw.inp   Done                     12/18/2018 20:11:40
00019 suncat0034 pw.x -in pw.inp   Done                     12/18/2018 20:11:40
00020 suncat0034 pw.x -in pw.inp   Done                     12/18/2018 20:11:40
00021 suncat0034 pw.x -in pw.inp   Done                     12/18/2018 20:11:40
00022 suncat0034 pw.x -in pw.inp   Done                     12/18/2018 20:11:40
00023 suncat0034 pw.x -in pw.inp   Done                     12/18/2018 20:11:40
00024 suncat0033 pw.x -in pw.inp   Done                     12/18/2018 20:11:40
00025 suncat0033 pw.x -in pw.inp   Done                     12/18/2018 20:11:40
00026 suncat0033 pw.x -in pw.inp   Done                     12/18/2018 20:11:40
00027 suncat0033 pw.x -in pw.inp   Done                     12/18/2018 20:11:40
00028 suncat0033 pw.x -in pw.inp   Done                     12/18/2018 20:11:40
00029 suncat0033 pw.x -in pw.inp   Done                     12/18/2018 20:11:40
00030 suncat0033 pw.x -in pw.inp   Done                     12/18/2018 20:11:40
00031 suncat0033 pw.x -in pw.inp   Done                     12/18/2018 20:11:40