     Program PWSCF v.5.1rc2 (svn rev. 11289) starts on 25Dec2018 at  5:15:59

     Current dimensions of program PWSCF are:
     Max number of different atomic species (ntypx) = 10
     Max number of k-points (npk) =  40000
     Max angular momentum in pseudopotentials (lmaxx) =  3
     Presently stress not available with electric field

     IMPORTANT: XC functional enforced from input :
     Exchange-correlation      = BEEF-VDW ( 1  4 27 13 2)
     Any further DFT definition will be discarded
     Please, verify this is what you really want

     Subspace diagonalization in iterative solution of the eigenvalue problem:
     a serial algorithm will be used

     Found symmetry operation: I + ( -0.5000  0.0000  0.0000)
     This is a supercell, fractional translations are disabled

     bravais-lattice index     =            0
     lattice parameter (alat)  =       1.8897  a.u.
     unit-cell volume          =    4298.0033 (a.u.)^3
     number of atoms/cell      =           12
     number of atomic types    =            2
     number of electrons       =       216.00
     number of Kohn-Sham states=          138
     kinetic-energy cutoff     =      36.7493  Ry
     charge density cutoff     =     367.4932  Ry
     convergence threshold     =      1.0E-06
     mixing beta               =       0.1000
     number of iterations used =           10  plain     mixing
     Exchange-correlation      = BEEF-VDW ( 1  4 27 13 2)
     nstep                     =           50

     celldm(1)=   1.889726  celldm(2)=   0.000000  celldm(3)=   0.000000
     celldm(4)=   0.000000  celldm(5)=   0.000000  celldm(6)=   0.000000

     crystal axes: (cart. coord. in units of alat)
               a(1) = (   5.315639   0.000000   0.000000 )
               a(2) = (  -2.657819   4.897488   0.000000 )
               a(3) = (   0.000000   0.000000  24.464780 )

     reciprocal axes: (cart. coord. in units 2 pi/alat)
               b(1) = (  0.188124  0.102093  0.000000 )
               b(2) = (  0.000000  0.204186  0.000000 )
               b(3) = (  0.000000  0.000000  0.040875 )

     PseudoPot. # 1 for Zn read from file:
     /afs/slac.stanford.edu/u/if/mamunm/psp/gbrv1.5pbe/Zn.UPF
     MD5 check sum: df62231357ef9e81f77b2b3087fa5675
     Pseudo is Ultrasoft, Zval = 20.0
     Generated by new atomic code, or converted to UPF format
     Using radial grid of  943 points,  6 beta functions with:
                l(1) =   0
                l(2) =   0
                l(3) =   1
                l(4) =   1
                l(5) =   2
                l(6) =   2
     Q(r) pseudized with  8 coefficients,  rinner =    1.100   1.100   1.100
                                                       1.100   1.100

     PseudoPot. # 2 for Os read from file:
     /afs/slac.stanford.edu/u/if/mamunm/psp/gbrv1.5pbe/Os.UPF
     MD5 check sum: a3fb40a04f0c37c25c34bbc47164c9a8
     Pseudo is Ultrasoft + core correction, Zval = 16.0
     Generated by new atomic code, or converted to UPF format
     Using radial grid of  983 points,  8 beta functions with:
                l(1) =   0
                l(2) =   0
                l(3) =   1
                l(4) =   1
                l(5) =   2
                l(6) =   2
                l(7) =   3
                l(8) =   3
     Q(r) pseudized with  8 coefficients,  rinner =    1.150   1.150   1.150
                                                       1.150   1.150   1.150
                                                       1.150

     vdW kernel table read from file vdW_kernel_table
     MD5 check sum: 095c7af220d748ca6e76c0b4c6cfb241

     atomic species   valence    mass     pseudopotential
        Zn1           20.00    65.38000     Zn( 1.00)
        Os1           16.00   190.23000     Os( 1.00)

     No symmetry found

   Cartesian axes

     site n.     atom                  positions (alat units)
         1           Zn1 tau(   1) = (   0.0000000   0.0000000  10.0000000  )
         2           Zn1 tau(   2) = (   2.6578195   0.0000000  10.0000000  )
         3           Os1 tau(   3) = (   1.3289097   2.4487439  10.0000000  )
         4           Os1 tau(   4) = (  -1.3289097   2.4487439  10.0000000  )
         5           Zn1 tau(   5) = (   2.6578195   1.4423731  12.2323898  )
         6           Zn1 tau(   6) = (  -0.0000000   1.4423731  12.2323898  )
         7           Os1 tau(   7) = (  -1.3289097   3.8911169  12.2323898  )
         8           Os1 tau(   8) = (   1.3289097   3.8911169  12.2323898  )
         9           Zn1 tau(   9) = (  -0.0000000   2.8847461  14.4647796  )
        10           Zn1 tau(  10) = (   2.6578195   2.8847461  14.4647796  )
        11           Os1 tau(  11) = (   3.9867292   0.4360023  14.4647796  )
        12           Os1 tau(  12) = (   1.3289097   0.4360023  14.4647796  )

     number of k points=    20  Fermi-Dirac smearing, width (Ry)=  0.0110
                       cart. coord. in units 2pi/alat
        k(    1) = (   0.0000000   0.0000000   0.0000000), wk =   0.0555556
        k(    2) = (   0.0000000   0.0340311   0.0000000), wk =   0.1111111
        k(    3) = (   0.0000000   0.0680621   0.0000000), wk =   0.1111111
        k(    4) = (   0.0000000  -0.1020932   0.0000000), wk =   0.0555556
        k(    5) = (   0.0313540   0.0170155   0.0000000), wk =   0.1111111
        k(    6) = (   0.0313540   0.0510466   0.0000000), wk =   0.1111111
        k(    7) = (   0.0313540   0.0850776   0.0000000), wk =   0.1111111
        k(    8) = (   0.0313540  -0.0850776   0.0000000), wk =   0.1111111
        k(    9) = (   0.0313540  -0.0510466   0.0000000), wk =   0.1111111
        k(   10) = (   0.0313540  -0.0170155   0.0000000), wk =   0.1111111
        k(   11) = (   0.0627080   0.0340311   0.0000000), wk =   0.1111111
        k(   12) = (   0.0627080   0.0680621   0.0000000), wk =   0.1111111
        k(   13) = (   0.0627080   0.1020932   0.0000000), wk =   0.1111111
        k(   14) = (   0.0627080  -0.0680621   0.0000000), wk =   0.1111111
        k(   15) = (   0.0627080  -0.0340311   0.0000000), wk =   0.1111111
        k(   16) = (   0.0627080   0.0000000   0.0000000), wk =   0.1111111
        k(   17) = (  -0.0940621  -0.0510466   0.0000000), wk =   0.0555556
        k(   18) = (  -0.0940621  -0.0170155   0.0000000), wk =   0.1111111
        k(   19) = (  -0.0940621   0.0170155   0.0000000), wk =   0.1111111
        k(   20) = (  -0.0940621  -0.1531397   0.0000000), wk =   0.0555556

     Largest allocated arrays     est. size (Mb)     dimensions
     Largest temporary arrays     est. size (Mb)     dimensions

     Initial potential from superposition of free atoms
     Check: negative starting charge=   -0.746562

     starting charge  212.99894, renormalised to  216.00000

     negative rho (up, down):  7.571E-01 0.000E+00

     *
     * You are using vdW-DF for exchange-correlation in this calculation.
     * Please cite the following three references that made this development
     * possible:
     *
     *   M. Dion, H. Rydberg, E. Schroder, D. C. Langreth, and
     *   B. I. Lundqvist, Phys. Rev. Lett. 92, 246401 (2004).
     *
     *   T. Thonhauser, V. R. Cooper, S. Li, A. Puzder, P. Hyldgaard, and
     *   D. C. Langreth, Phys. Rev. B 76, 125112 (2007).
     *
     *   G. Roman-Perez and J. M. Soler, Phys. Rev. Lett. 103, 096102 (2009).
     *
     *
     * If you are using vdW-DF2, please also cite:
     *
     *   K. Lee, E. D. Murray, L. Kong, B. I. Lundqvist, and
     *   D. C. Langreth, Phys. Rev. B 82, 081101(R) (2010).
     *
     *
     * If you are calculating the stress with vdW-DF, please also cite:
     *
     *   R. Sabatini, E. Kucukbenli, B. Kolb, T. Thonhauser, and
     *   S. de Gironcoli, J. Phys.: Condens. Matter 24, 424209 (2012).
     *

     Carrying out vdW-DF run using the following parameters:

     Nqs =      20    Nr_points =    1024   r_max =   100.000
     q_mesh =
               0.00001000     0.04494208     0.09755937     0.15916263
               0.23128650     0.31572767     0.41458969     0.53033537
               0.66584808     0.82450364     1.01025438     1.22772762
               1.48234092     1.78043706     2.12944203     2.53805004
               3.01644009     3.57652955     4.23227104     5.00000000

     Gradients computed in reciprocal space

     Adding external electric field

     Computed dipole along edir(3) :
        Dipole               -0.0000 Ry au,         -0.0000 Debye
        Dipole field         -0.0000 Ry au

        Potential amp.        0.0000 Ry
        Total length         45.0759 bohr

     Starting wfc are  156 randomized atomic wfcs

     Self-consistent Calculation

     iteration #  1     ecut=    36.75 Ry     beta=0.10
     Davidson diagonalization with overlap
     ethr =  1.00E-02,  avg # of iterations =  7.8

[...]

     total energy              =   -3971.17241037 Ry
     Harris-Foulkes estimate   =   -3977.94304968 Ry
     estimated scf accuracy    <      36.98471215 Ry

[...]

     End of self-consistent calculation

          k = 0.0000 0.0000 0.0000 ( 16129 PWs)   bands (ev):

  -124.7526-124.7513-124.5912-124.5911-124.5898-124.5898 -84.9623 -84.9216
   -84.6174 -84.6168 -84.5764 -84.5758 -78.9576 -78.9567 -78.9560 -78.9371
   -78.9002 -78.8986 -78.7954 -78.7953 -78.7804 -78.7801 -78.7788 -78.7785
   -78.7759 -78.7758 -78.7437 -78.7436 -78.7421 -78.7419 -44.5643 -44.4378
   -44.3655 -44.3351 -44.3317 -44.1650 -44.0960 -43.9147 -43.8917 -43.8518
   -43.8237 -43.7987 -43.7843 -43.7402 -43.7307 -43.6885 -43.6867 -43.6772
    -7.8882  -6.3801  -6.3587  -6.3564  -6.2973  -6.2527  -6.1651  -6.1335
    -6.1053  -6.0347  -6.0291  -5.9961  -5.9809  -5.8835  -5.7853  -5.6824
    -5.6248  -5.6201  -5.6084  -5.6063  -5.5381  -5.4899  -5.4786  -5.4745
    -5.3958  -5.2976  -5.2969  -5.2874  -5.2576  -5.2108  -5.2077  -5.0200
    -3.7024  -3.2724  -3.1437  -3.0189  -2.7848  -2.7305  -2.4072  -2.2507
    -1.8385  -1.8075  -1.0803  -1.0196  -0.9428  -0.7826  -0.3621  -0.3599
    -0.0470   0.2397   0.6772   0.9027   0.9632   1.0944   1.2097   1.3513
     1.4291   1.5827   1.5932   1.7473   1.9650   2.0844   2.3975   2.4084
     2.4765   2.4995   2.6363   3.0135   3.1186   3.2014   3.2148   4.2874
     4.7330   5.5350   5.6143   5.6886   5.8951   5.9277   6.0316   6.3572
     6.8618   7.1122   7.2869   8.1684   8.2338   8.5141   8.7743   9.1090
     9.4813   9.5550

[...]

          k =-0.0941-0.0510 0.0000 ( 16196 PWs)   bands (ev):

[...]

     the Fermi energy is     1.5350 ev

!    total energy              =   -3975.02520059 Ry
     Harris-Foulkes estimate   =   -3975.02519394 Ry
     estimated scf accuracy    <       0.00000091 Ry

     The total energy is the sum of the following terms:

     one-electron contribution =  -28747.99555438 Ry
     hartree contribution      =   14357.46475893 Ry
     xc contribution           =    -492.63497198 Ry
     ewald contribution        =   10908.20617937 Ry
     electric field correction =       0.00000000 Ry
     smearing contrib. (-TS)   =      -0.06561253 Ry

     convergence has been achieved in  15 iterations

 BEEF-vdW xc energy contributions
           1 :   -434.911280131335
           2 :    398.254979120244
[...]
                l(1) =   0
                l(2) =   0
                l(3) =   1
                l(4) =   1
                l(5) =   2
                l(6) =   2
     Q(r) pseudized with  8 coefficients,  rinner =    1.100   1.100   1.100
                                                       1.100   1.100

     PseudoPot. # 2 for Os read from file:
     /afs/slac.stanford.edu/u/if/mamunm/psp/gbrv1.5pbe/Os.UPF
     MD5 check sum: a3fb40a04f0c37c25c34bbc47164c9a8
     Pseudo is Ultrasoft + core correction, Zval = 16.0
     Generated by new atomic code, or converted to UPF format
     Using radial grid of  983 points,  8 beta functions with:
                l(1) =   0
                l(2) =   0
                l(3) =   1
                l(4) =   1
                l(5) =   2
                l(6) =   2
                l(7) =   3
                l(8) =   3
     Q(r) pseudized with  8 coefficients,  rinner =    1.150   1.150   1.150
                                                       1.150   1.150   1.150
                                                       1.150

     vdW kernel table read from file vdW_kernel_table
     MD5 check sum: 095c7af220d748ca6e76c0b4c6cfb241

     atomic species   valence    mass     pseudopotential
        Zn1           20.00    65.38000     Zn( 1.00)
        Os1           16.00   190.23000     Os( 1.00)

     No symmetry found

   Cartesian axes

     site n.     atom                  positions (alat units)
         1           Zn1 tau(   1) = (   0.0000000   0.0000000  10.0000000  )
         2           Zn1 tau(   2) = (   2.6578195   0.0000000  10.0000000  )
         3           Os1 tau(   3) = (   1.3289097   2.4487439  10.0000000  )
         4           Os1 tau(   4) = (  -1.3289097   2.4487439  10.0000000  )
         5           Zn1 tau(   5) = (   2.6578195   1.4423731  12.2323898  )
         6           Zn1 tau(   6) = (  -0.0000000   1.4423731  12.2323898  )
         7           Os1 tau(   7) = (  -1.3289097   3.8911169  12.2323898  )
         8           Os1 tau(   8) = (   1.3289097   3.8911169  12.2323898  )
         9           Zn1 tau(   9) = (  -0.0002666   2.6650526  14.6507602  )
        10           Zn1 tau(  10) = (   2.6577001   2.6650547  14.6507621  )
        11           Os1 tau(  11) = (   3.9866250   0.1806065  14.3326260  )
        12           Os1 tau(  12) = (   1.3288067   0.1806801  14.3326549  )

     number of k points=    20  Fermi-Dirac smearing, width (Ry)=  0.0110
                       cart. coord. in units 2pi/alat
        k(    1) = (   0.0000000   0.0000000   0.0000000), wk =   0.0555556
        k(    2) = (   0.0000000   0.0340311   0.0000000), wk =   0.1111111
        k(    3) = (   0.0000000   0.0680621   0.0000000), wk =   0.1111111
        k(    4) = (   0.0000000  -0.1020932   0.0000000), wk =   0.0555556
        k(    5) = (   0.0313540   0.0170155   0.0000000), wk =   0.1111111
        k(    6) = (   0.0313540   0.0510466   0.0000000), wk =   0.1111111
        k(    7) = (   0.0313540   0.0850776   0.0000000), wk =   0.1111111
        k(    8) = (   0.0313540  -0.0850776   0.0000000), wk =   0.1111111
        k(    9) = (   0.0313540  -0.0510466   0.0000000), wk =   0.1111111
        k(   10) = (   0.0313540  -0.0170155   0.0000000), wk =   0.1111111
        k(   11) = (   0.0627080   0.0340311   0.0000000), wk =   0.1111111
        k(   12) = (   0.0627080   0.0680621   0.0000000), wk =   0.1111111
        k(   13) = (   0.0627080   0.1020932   0.0000000), wk =   0.1111111
        k(   14) = (   0.0627080  -0.0680621   0.0000000), wk =   0.1111111
        k(   15) = (   0.0627080  -0.0340311   0.0000000), wk =   0.1111111
        k(   16) = (   0.0627080   0.0000000   0.0000000), wk =   0.1111111
        k(   17) = (  -0.0940621  -0.0510466   0.0000000), wk =   0.0555556
        k(   18) = (  -0.0940621  -0.0170155   0.0000000), wk =   0.1111111
        k(   19) = (  -0.0940621   0.0170155   0.0000000), wk =   0.1111111
        k(   20) = (  -0.0940621  -0.1531397   0.0000000), wk =   0.0555556

     Largest allocated arrays     est. size (Mb)     dimensions
     Largest temporary arrays     est. size (Mb)     dimensions

     Initial potential from superposition of free atoms
     Check: negative starting charge=   -0.745767

     starting charge  212.99894, renormalised to  216.00000

[...]

     *
     * You are using vdW-DF for exchange-correlation in this calculation.
     * Please cite the following three references that made this development
     * possible:
     *
     *   M. Dion, H. Rydberg, E. Schroder, D. C. Langreth, and
     *   B. I. Lundqvist, Phys. Rev. Lett. 92, 246401 (2004).
     *
     *   T. Thonhauser, V. R. Cooper, S. Li, A. Puzder, P. Hyldgaard, and
     *   D. C. Langreth, Phys. Rev. B 76, 125112 (2007).
     *
     *   G. Roman-Perez and J. M. Soler, Phys. Rev. Lett. 103, 096102 (2009).
     *
     *
     * If you are using vdW-DF2, please also cite:
     *
     *   K. Lee, E. D. Murray, L. Kong, B. I. Lundqvist, and
     *   D. C. Langreth, Phys. Rev. B 82, 081101(R) (2010).
     *
     *
     * If you are calculating the stress with vdW-DF, please also cite:
     *
     *   R. Sabatini, E. Kucukbenli, B. Kolb, T. Thonhauser, and
     *   S. de Gironcoli, J. Phys.: Condens. Matter 24, 424209 (2012).
     *

     Carrying out vdW-DF run using the following parameters:

     Nqs =      20    Nr_points =    1024   r_max =   100.000
     q_mesh =
               0.00001000     0.04494208     0.09755937     0.15916263
               0.23128650     0.31572767     0.41458969     0.53033537
               0.66584808     0.82450364     1.01025438     1.22772762
               1.48234092     1.78043706     2.12944203     2.53805004
               3.01644009     3.57652955     4.23227104     5.00000000

     Gradients computed in reciprocal space

[...]

     Starting wfc are  156 randomized atomic wfcs

     Self-consistent Calculation

[...]

     total energy              =   -3975.05188379 Ry
     Harris-Foulkes estimate   =   -3975.05188228 Ry
     estimated scf accuracy    <       0.00000203 Ry

     iteration # 17     ecut=    36.75 Ry     beta=0.10
     Davidson diagonalization with overlap
     ethr =  9.38E-10,  avg # of iterations =  2.0

[...]

     negative rho (up, down):  7.343E-01 0.000E+00

     Adding external electric field

     Computed dipole along edir(3) :
        Dipole                0.0891 Ry au,          0.2264 Debye
        Dipole field          0.0003 Ry au

        Potential amp.       -0.0235 Ry
        Total length         45.0759 bohr

     End of self-consistent calculation

[...]

          k = 0.0627 0.0000 0.0000 ( 16142 PWs)   bands (ev):

[...]

          k =-0.0941-0.1531 0.0000 ( 16196 PWs)   bands (ev):

  -124.6980-124.6980-124.4856-124.4856-124.4741-124.4741 -84.9897 -84.9896
   -84.6822 -84.6821 -84.4311 -84.4311 -78.8996 -78.8996 -78.8949 -78.8949
   -78.8481 -78.8481 -78.6853 -78.6853 -78.6753 -78.6753 -78.6693 -78.6693
   -78.6638 -78.6638 -78.6351 -78.6351 -78.6261 -78.6261 -44.7084 -44.7083
   -44.2483 -44.2483 -44.1501 -44.1500 -44.0186 -44.0186 -43.9074 -43.9074
   -43.8507 -43.8507 -43.8152 -43.8152 -43.6691 -43.6691 -43.5693 -43.5693
    -6.2227  -6.2227  -5.9647  -5.9647  -5.9186  -5.9185  -5.8643  -5.8643
    -5.7843  -5.7843  -5.6992  -5.6992  -5.6110  -5.6110  -5.5154  -5.5153
    -5.4800  -5.4799  -5.4621  -5.4620  -5.4271  -5.4270  -5.4139  -5.4139
    -5.3820  -5.3820  -5.3357  -5.3357  -5.3108  -5.3108  -5.1570  -5.1569
    -4.0439  -4.0438  -3.2537  -3.2537  -2.6809  -2.6808  -2.2301  -2.2300
    -1.5562  -1.5561  -1.0752  -1.0751  -0.6270  -0.6269  -0.4772  -0.4772
    -0.3650  -0.3650  -0.0633  -0.0633   0.0384   0.0384   0.2683   0.2683
     0.5099   0.5100   0.8555   0.8555   1.5916   1.5916   1.9837   1.9838
     2.4727   2.4728   2.6641   2.6641   3.4256   3.4256   4.7327   4.7328
     5.3066   5.3067   6.9457   6.9457   7.3745   7.3746   7.6535   7.6535
     7.8341   7.8341   8.0811   8.0812   8.2478   8.2478   8.9543   8.9543
     9.2928   9.2928

     the Fermi energy is     1.6976 ev

!    total energy              =   -3975.05188839 Ry
     Harris-Foulkes estimate   =   -3975.05188437 Ry
     estimated scf accuracy    <       0.00000041 Ry

     The total energy is the sum of the following terms:

     one-electron contribution =  -28567.32323676 Ry
     hartree contribution      =   14267.51427923 Ry
     xc contribution           =    -492.72021847 Ry
     ewald contribution        =   10817.53311093 Ry
     electric field correction =       0.00002320 Ry
     smearing contrib. (-TS)   =      -0.05584653 Ry

     convergence has been achieved in  17 iterations

 BEEF-vdW xc energy contributions
           1 :   -434.999320124520
           2 :    398.361461482044
           3 :   -335.536855650020
           4 :    262.799400191485
           5 :   -195.714279749015
           6 :    143.913813291406
           7 :   -109.323617481712
           8 :    87.9789813999718
           9 :   -73.8094662852457
          10 :    62.0775510061230
          11 :   -50.8663383447577
          12 :    40.4678797553957
          13 :   -31.7725997046313
          14 :    25.0288207815651
          15 :   -19.6871553792366
          16 :    15.0624666458263
          17 :   -11.0066747246757
          18 :    7.96193073260457
          19 :   -6.40618806135143
          20 :    6.22669432869543
          21 :   -6.58901280460242
          22 :    6.42704261461887
          23 :   -5.16853879612944
          24 :    3.12117476921605
          25 :   -1.21892988057726
          26 :   0.321541724215024
          27 :  -0.595816741330793
          28 :    1.42635141533884
          29 :   -1.89586137871180
          30 :    1.45499584935681
          31 :   -37.1182661353600
          32 :   -26.8415447425581

     Forces acting on atoms (Ry/au):

     negative rho (up, down):  7.343E-01 0.000E+00
     atom    1 type  1   force =    -0.00000517    0.00206698   -0.01935588
     atom    2 type  1   force =    -0.00000431    0.00206681   -0.01935564
     atom    3 type  2   force =    -0.00000103    0.00893470    0.03139728
     atom    4 type  2   force =    -0.00000112    0.00893632    0.03140142
     atom    5 type  1   force =     0.00000333    0.01052247   -0.00444781
     atom    6 type  1   force =    -0.00000521    0.01052287   -0.00444837
     atom    7 type  2   force =    -0.00000272   -0.02130097   -0.00776933
     atom    8 type  2   force =    -0.00000252   -0.02131516   -0.00778432
     atom    9 type  1   force =     0.00003022   -0.00084965   -0.00042527
     atom   10 type  1   force =    -0.00001147   -0.00085016   -0.00042504
     atom   11 type  2   force =     0.00000027    0.00064163    0.00061221
     atom   12 type  2   force =    -0.00000028    0.00062415    0.00060075

     Total force =     0.064674     Total SCF correction =     0.004050

     entering subroutine stress ...

     negative rho (up, down):  7.343E-01 0.000E+00
          total   stress  (Ry/bohr**3)                   (kbar)     P=  -24.77
  -0.00018283  -0.00000000   0.00000001        -26.90     -0.00      0.00
  -0.00000000  -0.00026362  -0.00002381         -0.00    -38.78     -3.50
   0.00000001  -0.00002381  -0.00005866          0.00     -3.50     -8.63

 !ASE

     Writing output data file calc.save

     General routines

     Parallel routines

   This run was terminated on:   8:41:47  25Dec2018

   JOB DONE.
Job  /afs/slac/g/suncat/bin/suncat-tsmpirun -x LD_LIBRARY_PATH -wdir /scratch/qe109227_Azy2x pw.x -in pw.inp

TID   HOST_NAME   COMMAND_LINE            STATUS            TERMINATION_TIME
00000 suncat0163 pw.x -in pw.inp   Done                     12/25/2018 08:41:47
00001 suncat0163 pw.x -in pw.inp   Done                     12/25/2018 08:41:47
00002 suncat0163 pw.x -in pw.inp   Done                     12/25/2018 08:41:47
00003 suncat0163 pw.x -in pw.inp   Done                     12/25/2018 08:41:47
00004 suncat0163 pw.x -in pw.inp   Done                     12/25/2018 08:41:47
00005 suncat0163 pw.x -in pw.inp   Done                     12/25/2018 08:41:47
00006 suncat0163 pw.x -in pw.inp   Done                     12/25/2018 08:41:47
00007 suncat0163 pw.x -in pw.inp   Done                     12/25/2018 08:41:47
00008 suncat0162 pw.x -in pw.inp   Done                     12/25/2018 08:41:47
00009 suncat0162 pw.x -in pw.inp   Done                     12/25/2018 08:41:47
00010 suncat0162 pw.x -in pw.inp   Done                     12/25/2018 08:41:47
00011 suncat0162 pw.x -in pw.inp   Done                     12/25/2018 08:41:47
00012 suncat0162 pw.x -in pw.inp   Done                     12/25/2018 08:41:47
00013 suncat0162 pw.x -in pw.inp   Done                     12/25/2018 08:41:47
00014 suncat0162 pw.x -in pw.inp   Done                     12/25/2018 08:41:47
00015 suncat0162 pw.x -in pw.inp   Done                     12/25/2018 08:41:47
00016 suncat0145 pw.x -in pw.inp   Done                     12/25/2018 08:41:47
00017 suncat0145 pw.x -in pw.inp   Done                     12/25/2018 08:41:47
00018 suncat0145 pw.x -in pw.inp   Done                     12/25/2018 08:41:47
00019 suncat0145 pw.x -in pw.inp   Done                     12/25/2018 08:41:47
00020 suncat0145 pw.x -in pw.inp   Done                     12/25/2018 08:41:47
00021 suncat0145 pw.x -in pw.inp   Done                     12/25/2018 08:41:47
00022 suncat0145 pw.x -in pw.inp   Done                     12/25/2018 08:41:47
00023 suncat0145 pw.x -in pw.inp   Done                     12/25/2018 08:41:47
00024 suncat0144 pw.x -in pw.inp   Done                     12/25/2018 08:41:47
00025 suncat0144 pw.x -in pw.inp   Done                     12/25/2018 08:41:47
00026 suncat0144 pw.x -in pw.inp   Done                     12/25/2018 08:41:47
00027 suncat0144 pw.x -in pw.inp   Done                     12/25/2018 08:41:47
00028 suncat0144 pw.x -in pw.inp   Done                     12/25/2018 08:41:47
00029 suncat0144 pw.x -in pw.inp   Done                     12/25/2018 08:41:47
00030 suncat0144 pw.x -in pw.inp   Done                     12/25/2018 08:41:47
00031 suncat0144 pw.x -in pw.inp   Done                     12/25/2018 08:41:47
00032 suncat0133 pw.x -in pw.inp   Done                     12/25/2018 08:41:47
00033 suncat0133 pw.x -in pw.inp   Done                     12/25/2018 08:41:47
00034 suncat0133 pw.x -in pw.inp   Done                     12/25/2018 08:41:47
00035 suncat0133 pw.x -in pw.inp   Done                     12/25/2018 08:41:47
00036 suncat0133 pw.x -in pw.inp   Done                     12/25/2018 08:41:47
00037 suncat0133 pw.x -in pw.inp   Done                     12/25/2018 08:41:47
00038 suncat0133 pw.x -in pw.inp   Done                     12/25/2018 08:41:47
00039 suncat0133 pw.x -in pw.inp   Done                     12/25/2018 08:41:47
00040 suncat0132 pw.x -in pw.inp   Done                     12/25/2018 08:41:47
00041 suncat0132 pw.x -in pw.inp   Done                     12/25/2018 08:41:47
00042 suncat0132 pw.x -in pw.inp   Done                     12/25/2018 08:41:47
00043 suncat0132 pw.x -in pw.inp   Done                     12/25/2018 08:41:47
00044 suncat0132 pw.x -in pw.inp   Done                     12/25/2018 08:41:47
00045 suncat0132 pw.x -in pw.inp   Done                     12/25/2018 08:41:47
00046 suncat0132 pw.x -in pw.inp   Done                     12/25/2018 08:41:47
00047 suncat0132 pw.x -in pw.inp   Done                     12/25/2018 08:41:47
00048 suncat0131 pw.x -in pw.inp   Done                     12/25/2018 08:41:47
00049 suncat0131 pw.x -in pw.inp   Done                     12/25/2018 08:41:47
00050 suncat0131 pw.x -in pw.inp   Done                     12/25/2018 08:41:47
00051 suncat0131 pw.x -in pw.inp   Done                     12/25/2018 08:41:47
00052 suncat0131 pw.x -in pw.inp   Done                     12/25/2018 08:41:47
00053 suncat0131 pw.x -in pw.inp   Done                     12/25/2018 08:41:47
00054 suncat0131 pw.x -in pw.inp   Done                     12/25/2018 08:41:47
00055 suncat0131 pw.x -in pw.inp   Done                     12/25/2018 08:41:47
00056 suncat0130 pw.x -in pw.inp   Done                     12/25/2018 08:41:47
00057 suncat0130 pw.x -in pw.inp   Done                     12/25/2018 08:41:47
00058 suncat0130 pw.x -in pw.inp   Done                     12/25/2018 08:41:47
00059 suncat0130 pw.x -in pw.inp   Done                     12/25/2018 08:41:47
00060 suncat0130 pw.x -in pw.inp   Done                     12/25/2018 08:41:47
00061 suncat0130 pw.x -in pw.inp   Done                     12/25/2018 08:41:47
00062 suncat0130 pw.x -in pw.inp   Done                     12/25/2018 08:41:47
00063 suncat0130 pw.x -in pw.inp   Done                     12/25/2018 08:41:47