     Program PWSCF v.5.1rc2 (svn rev. 11289) starts on 19Dec2018 at  4:43:57

     Current dimensions of program PWSCF are:
     Max number of different atomic species (ntypx) = 10
     Max number of k-points (npk) =  40000
     Max angular momentum in pseudopotentials (lmaxx) =  3
     Presently stress not available with electric field

     IMPORTANT: XC functional enforced from input :
     Exchange-correlation      = BEEF-VDW ( 1  4 27 13 2)
     Any further DFT definition will be discarded
     Please, verify this is what you really want

     Subspace diagonalization in iterative solution of the eigenvalue problem:
     a serial algorithm will be used

     Found symmetry operation: I + (  0.5000 -0.5000  0.0000)
     This is a supercell, fractional translations are disabled

     bravais-lattice index     =            0
     lattice parameter (alat)  =       1.8897  a.u.
     unit-cell volume          =    6015.8234 (a.u.)^3
     number of atoms/cell      =           12
     number of atomic types    =            2
     number of electrons       =       138.00
     number of Kohn-Sham states=           99
     kinetic-energy cutoff     =      36.7493  Ry
     charge density cutoff     =     367.4932  Ry
     convergence threshold     =      1.0E-06
     mixing beta               =       0.1000
     number of iterations used =           10  plain     mixing
     Exchange-correlation      = BEEF-VDW ( 1  4 27 13 2)
     nstep                     =           50

     celldm(1)=   1.889726  celldm(2)=   0.000000  celldm(3)=   0.000000
     celldm(4)=   0.000000  celldm(5)=   0.000000  celldm(6)=   0.000000

     crystal axes: (cart. coord. in units of alat)
               a(1) = (   6.147756   0.000000   0.000000 )
               a(2) = (   2.051102   5.795505   0.000000 )
               a(3) = (   0.000000   0.000000  25.020187 )

     reciprocal axes: (cart. coord. in units 2 pi/alat)
               b(1) = (  0.162661 -0.057568  0.000000 )
               b(2) = (  0.000000  0.172548  0.000000 )
               b(3) = (  0.000000  0.000000  0.039968 )

     PseudoPot. # 1 for Sc read from file:
     /afs/slac.stanford.edu/u/if/mamunm/psp/gbrv1.5pbe/Sc.UPF
     MD5 check sum: db30a2753ba66ef00f23801d899b7e7f
     Pseudo is Ultrasoft + core correction, Zval = 11.0
     Generated by new atomic code, or converted to UPF format
     Using radial grid of  849 points,  6 beta functions with:
                l(1) =   0
                l(2) =   0
                l(3) =   1
                l(4) =   1
                l(5) =   2
                l(6) =   2
     Q(r) pseudized with  6 coefficients,  rinner =    1.200   1.200   1.200
                                                       1.200   1.200

     PseudoPot. # 2 for Hg read from file:
     /afs/slac.stanford.edu/u/if/mamunm/psp/gbrv1.5pbe/Hg.UPF
     MD5 check sum: 8f42caffe07f7fd9c0a564347f8c5498
     Pseudo is Ultrasoft + core correction, Zval = 12.0
     Generated by new atomic code, or converted to UPF format
     Using radial grid of  985 points,  6 beta functions with:
                l(1) =   0
                l(2) =   0
                l(3) =   1
                l(4) =   1
                l(5) =   2
                l(6) =   2
     Q(r) pseudized with  8 coefficients,  rinner =    2.000   2.000   2.000
                                                       2.000   2.000

     vdW kernel table read from file vdW_kernel_table
     MD5 check sum: 095c7af220d748ca6e76c0b4c6cfb241

     atomic species   valence    mass     pseudopotential
        Sc1           11.00    44.95591     Sc( 1.00)
        Hg1           12.00   200.59200     Hg( 1.00)

     No symmetry found

   Cartesian axes

     site n.     atom                  positions (alat units)
         1           Sc1 tau(   1) = (   0.0000000   0.0000000  10.0000000  )
         2           Sc1 tau(   2) = (   4.0994289   2.8977527  10.0000000  )
         3           Hg1 tau(   3) = (   3.0738779   0.0000000  10.0000000  )
         4           Hg1 tau(   4) = (   1.0255510   2.8977527  10.0000000  )
         5           Sc1 tau(   5) = (   6.1477558   4.3456483  12.5100934  )
         6           Sc1 tau(   6) = (   2.0483269   1.4478956  12.5100934  )
         7           Hg1 tau(   7) = (   3.0738779   4.3456483  12.5100934  )
         8           Hg1 tau(   8) = (   5.1222049   1.4478956  12.5100934  )
         9           Sc1 tau(   9) = (   4.0966539   2.8957911  15.0201869  )
        10           Sc1 tau(  10) = (   8.1960828   5.7935438  15.0201869  )
        11           Hg1 tau(  11) = (   7.1705318   2.8957911  15.0201869  )
        12           Hg1 tau(  12) = (   5.1222049   5.7935438  15.0201869  )

     number of k points=    20  Fermi-Dirac smearing, width (Ry)=  0.0110
                       cart. coord. in units 2pi/alat
        k(    1) = (   0.0000000   0.0000000   0.0000000), wk =   0.0555556
        k(    2) = (   0.0000000   0.0287579   0.0000000), wk =   0.1111111
        k(    3) = (   0.0000000   0.0575158   0.0000000), wk =   0.1111111
        k(    4) = (   0.0000000  -0.0862738   0.0000000), wk =   0.0555556
        k(    5) = (   0.0271102  -0.0095946   0.0000000), wk =   0.1111111
        k(    6) = (   0.0271102   0.0191633   0.0000000), wk =   0.1111111
        k(    7) = (   0.0271102   0.0479212   0.0000000), wk =   0.1111111
        k(    8) = (   0.0271102  -0.0958684   0.0000000), wk =   0.1111111
        k(    9) = (   0.0271102  -0.0671105   0.0000000), wk =   0.1111111
        k(   10) = (   0.0271102  -0.0383525   0.0000000), wk =   0.1111111
        k(   11) = (   0.0542203  -0.0191893   0.0000000), wk =   0.1111111
        k(   12) = (   0.0542203   0.0095687   0.0000000), wk =   0.1111111
        k(   13) = (   0.0542203   0.0383266   0.0000000), wk =   0.1111111
        k(   14) = (   0.0542203  -0.1054630   0.0000000), wk =   0.1111111
        k(   15) = (   0.0542203  -0.0767051   0.0000000), wk =   0.1111111
        k(   16) = (   0.0542203  -0.0479472   0.0000000), wk =   0.1111111
        k(   17) = (  -0.0813305   0.0287839   0.0000000), wk =   0.0555556
        k(   18) = (  -0.0813305   0.0575418   0.0000000), wk =   0.1111111
        k(   19) = (  -0.0813305   0.0862997   0.0000000), wk =   0.1111111
        k(   20) = (  -0.0813305  -0.0574899   0.0000000), wk =   0.0555556

     Largest allocated arrays     est. size (Mb)     dimensions
     Largest temporary arrays     est. size (Mb)     dimensions

     Initial potential from superposition of free atoms
     Check: negative starting charge=   -0.000234

     starting charge  137.98524, renormalised to  138.00000

     negative rho (up, down):  2.341E-04 0.000E+00

     *
     * You are using vdW-DF for exchange-correlation in this calculation.
     * Please cite the following three references that made this development
     * possible:
     *
     *   M. Dion, H. Rydberg, E. Schroder, D. C. Langreth, and
     *   B. I. Lundqvist, Phys. Rev. Lett. 92, 246401 (2004).
     *
     *   T. Thonhauser, V. R. Cooper, S. Li, A. Puzder, P. Hyldgaard, and
     *   D. C. Langreth, Phys. Rev. B 76, 125112 (2007).
     *
     *   G. Roman-Perez and J. M. Soler, Phys. Rev. Lett. 103, 096102 (2009).
     *
     *
     * If you are using vdW-DF2, please also cite:
     *
     *   K. Lee, E. D. Murray, L. Kong, B. I. Lundqvist, and
     *   D. C. Langreth, Phys. Rev. B 82, 081101(R) (2010).
     *
     *
     * If you are calculating the stress with vdW-DF, please also cite:
     *
     *   R. Sabatini, E. Kucukbenli, B. Kolb, T. Thonhauser, and
     *   S. de Gironcoli, J. Phys.: Condens. Matter 24, 424209 (2012).
     *

     Carrying out vdW-DF run using the following parameters:

     Nqs =      20    Nr_points =    1024   r_max =   100.000
     q_mesh =
               0.00001000     0.04494208     0.09755937     0.15916263
               0.23128650     0.31572767     0.41458969     0.53033537
               0.66584808     0.82450364     1.01025438     1.22772762
               1.48234092     1.78043706     2.12944203     2.53805004
               3.01644009     3.57652955     4.23227104     5.00000000

     Gradients computed in reciprocal space

     Adding external electric field

     Computed dipole along edir(3) :
        Dipole                0.0000 Ry au,          0.0000 Debye
        Dipole field          0.0000 Ry au

        Potential amp.       -0.0000 Ry
        Total length         46.0993 bohr

     Starting wfc are  132 randomized atomic wfcs

     Self-consistent Calculation

     iteration #  1     ecut=    36.75 Ry     beta=0.10
     Davidson diagonalization with overlap
     ethr =  1.00E-02,  avg # of iterations =  3.2

     Threshold (ethr) on eigenvalues was too large:
     Diagonalizing with lowered threshold

     Davidson diagonalization with overlap
     ethr =  8.83E-04,  avg # of iterations =  2.8

[...]

     total energy              =   -1223.57713041 Ry
     Harris-Foulkes estimate   =   -1223.80123402 Ry
     estimated scf accuracy    <       1.31872508 Ry

[...]

     iteration #  8     ecut=    36.75 Ry     beta=0.10
     Davidson diagonalization with overlap
     c_bands:  1 eigenvalues not converged
     ethr =  3.75E-06,  avg # of iterations =  7.8

[...]

     End of self-consistent calculation

          k = 0.0000 0.0000 0.0000 ( 22617 PWs)   bands (ev):

   -49.8948 -49.8946 -49.8883 -49.8882 -49.7181 -49.7116 -28.5448 -28.5434
   -28.5380 -28.5340 -28.4621 -28.4577 -28.4575 -28.4503 -28.4302 -28.4293
   -28.3445 -28.3443 -28.3318 -28.3127 -28.2991 -28.2826 -28.2750 -28.2422
    -7.0796  -7.0639  -7.0366  -7.0178  -6.9562  -6.8771  -6.8574  -6.8533
    -6.8461  -6.8058  -6.7522  -6.7098  -6.6931  -6.6568  -6.6563  -6.6001
    -6.5929  -6.5789  -6.5427  -6.5404  -6.4890  -6.4823  -6.4396  -6.4247
    -6.3754  -6.2940  -6.2886  -6.1769  -6.1266  -6.0884  -6.0034  -5.2486
    -3.6615  -3.4027  -3.2213  -2.9454  -0.7396  -0.3929   0.1116   0.2207
     0.2504   0.3043   0.3794   0.6765   0.7848   0.9635   1.1957   1.2062
     1.3452   1.3840   1.4030   1.4454   1.5112   1.6594   1.8496   1.9865
     2.0032   2.1833   2.2728   2.3063   2.3342   2.4438   2.5742   2.6088
     2.6610   2.7294   2.7520   2.8461   2.9738   3.0774   3.5588   3.5812
     3.6594   3.7734   3.8237

[...]

          k =-0.0813 0.0288 0.0000 ( 22630 PWs)   bands (ev):

[...]

     the Fermi energy is     0.7605 ev

!    total energy              =   -1223.66053337 Ry
     Harris-Foulkes estimate   =   -1223.66053393 Ry
     estimated scf accuracy    <       0.00000042 Ry

     The total energy is the sum of the following terms:

     one-electron contribution =   -7736.41827621 Ry
     hartree contribution      =    3903.42309927 Ry
     xc contribution           =    -325.69368491 Ry
     ewald contribution        =    2935.11576881 Ry
     electric field correction =       0.00000000 Ry
     smearing contrib. (-TS)   =      -0.08744033 Ry

     convergence has been achieved in  16 iterations

 BEEF-vdW xc energy contributions
           1 :   -283.210740088232
           2 :    257.979663677448
           3 :   -215.527193933004
           4 :    167.701268029592
[...]
00030 suncat2045 pw.x -in pw.inp   Done                     12/19/2018 04:48:02
00031 suncat2045 pw.x -in pw.inp   Done                     12/19/2018 04:48:02

     Program PWSCF v.5.1rc2 (svn rev. 11289) starts on 19Dec2018 at  4:48: 8

[...]

     Found symmetry operation: I + (  0.5000 -0.5000  0.0000)
     This is a supercell, fractional translations are disabled

[...]

   This run was terminated on:   4:52:12  19Dec2018

[...]

     Program PWSCF v.5.1rc2 (svn rev. 11289) starts on 19Dec2018 at  4:52:18

     Current dimensions of program PWSCF are:
     Max number of different atomic species (ntypx) = 10
     Max number of k-points (npk) =  40000
     Max angular momentum in pseudopotentials (lmaxx) =  3
     Presently stress not available with electric field

     IMPORTANT: XC functional enforced from input :
     Exchange-correlation      = BEEF-VDW ( 1  4 27 13 2)
     Any further DFT definition will be discarded
     Please, verify this is what you really want

     Subspace diagonalization in iterative solution of the eigenvalue problem:
     a serial algorithm will be used

     bravais-lattice index     =            0
     lattice parameter (alat)  =       1.8897  a.u.
     unit-cell volume          =    6015.8234 (a.u.)^3
     number of atoms/cell      =           12
     number of atomic types    =            2
     number of electrons       =       138.00
     number of Kohn-Sham states=           99
     kinetic-energy cutoff     =      36.7493  Ry
     charge density cutoff     =     367.4932  Ry
     convergence threshold     =      1.0E-06
     mixing beta               =       0.1000
     number of iterations used =           10  plain     mixing
     Exchange-correlation      = BEEF-VDW ( 1  4 27 13 2)
     nstep                     =           50

     celldm(1)=   1.889726  celldm(2)=   0.000000  celldm(3)=   0.000000
     celldm(4)=   0.000000  celldm(5)=   0.000000  celldm(6)=   0.000000

     crystal axes: (cart. coord. in units of alat)
               a(1) = (   6.147756   0.000000   0.000000 )
               a(2) = (   2.051102   5.795505   0.000000 )
               a(3) = (   0.000000   0.000000  25.020187 )

     reciprocal axes: (cart. coord. in units 2 pi/alat)
               b(1) = (  0.162661 -0.057568  0.000000 )
               b(2) = (  0.000000  0.172548  0.000000 )
               b(3) = (  0.000000  0.000000  0.039968 )

     PseudoPot. # 1 for Sc read from file:
     /afs/slac.stanford.edu/u/if/mamunm/psp/gbrv1.5pbe/Sc.UPF
     MD5 check sum: db30a2753ba66ef00f23801d899b7e7f
     Pseudo is Ultrasoft + core correction, Zval = 11.0
     Generated by new atomic code, or converted to UPF format
     Using radial grid of  849 points,  6 beta functions with:
                l(1) =   0
                l(2) =   0
                l(3) =   1
                l(4) =   1
                l(5) =   2
                l(6) =   2
     Q(r) pseudized with  6 coefficients,  rinner =    1.200   1.200   1.200
                                                       1.200   1.200

     PseudoPot. # 2 for Hg read from file:
     /afs/slac.stanford.edu/u/if/mamunm/psp/gbrv1.5pbe/Hg.UPF
     MD5 check sum: 8f42caffe07f7fd9c0a564347f8c5498
     Pseudo is Ultrasoft + core correction, Zval = 12.0
     Generated by new atomic code, or converted to UPF format
     Using radial grid of  985 points,  6 beta functions with:
                l(1) =   0
                l(2) =   0
                l(3) =   1
                l(4) =   1
                l(5) =   2
                l(6) =   2
     Q(r) pseudized with  8 coefficients,  rinner =    2.000   2.000   2.000
                                                       2.000   2.000

     vdW kernel table read from file vdW_kernel_table
     MD5 check sum: 095c7af220d748ca6e76c0b4c6cfb241

     atomic species   valence    mass     pseudopotential
        Sc1           11.00    44.95591     Sc( 1.00)
        Hg1           12.00   200.59200     Hg( 1.00)

     No symmetry found

   Cartesian axes

     site n.     atom                  positions (alat units)
         1           Sc1 tau(   1) = (   0.0000000   0.0000000  10.0000000  )
         2           Sc1 tau(   2) = (   4.0994289   2.8977527  10.0000000  )
         3           Hg1 tau(   3) = (   3.0738779   0.0000000  10.0000000  )
         4           Hg1 tau(   4) = (   1.0255510   2.8977527  10.0000000  )
         5           Sc1 tau(   5) = (   6.1477558   4.3456483  12.5100934  )
         6           Sc1 tau(   6) = (   2.0483269   1.4478956  12.5100934  )
         7           Hg1 tau(   7) = (   3.0738779   4.3456483  12.5100934  )
         8           Hg1 tau(   8) = (   5.1222049   1.4478956  12.5100934  )
         9           Sc1 tau(   9) = (   4.0968443   2.8959150  14.9729275  )
        10           Sc1 tau(  10) = (   8.1962881   5.7937017  14.9729122  )
        11           Hg1 tau(  11) = (   7.1706977   2.8958581  15.0691755  )
        12           Hg1 tau(  12) = (   5.1223542   5.7936743  15.0691738  )

     number of k points=    20  Fermi-Dirac smearing, width (Ry)=  0.0110
                       cart. coord. in units 2pi/alat
        k(    1) = (   0.0000000   0.0000000   0.0000000), wk =   0.0555556
        k(    2) = (   0.0000000   0.0287579   0.0000000), wk =   0.1111111
        k(    3) = (   0.0000000   0.0575158   0.0000000), wk =   0.1111111
        k(    4) = (   0.0000000  -0.0862738   0.0000000), wk =   0.0555556
        k(    5) = (   0.0271102  -0.0095946   0.0000000), wk =   0.1111111
        k(    6) = (   0.0271102   0.0191633   0.0000000), wk =   0.1111111
        k(    7) = (   0.0271102   0.0479212   0.0000000), wk =   0.1111111
        k(    8) = (   0.0271102  -0.0958684   0.0000000), wk =   0.1111111
        k(    9) = (   0.0271102  -0.0671105   0.0000000), wk =   0.1111111
        k(   10) = (   0.0271102  -0.0383525   0.0000000), wk =   0.1111111
        k(   11) = (   0.0542203  -0.0191893   0.0000000), wk =   0.1111111
        k(   12) = (   0.0542203   0.0095687   0.0000000), wk =   0.1111111
        k(   13) = (   0.0542203   0.0383266   0.0000000), wk =   0.1111111
        k(   14) = (   0.0542203  -0.1054630   0.0000000), wk =   0.1111111
        k(   15) = (   0.0542203  -0.0767051   0.0000000), wk =   0.1111111
        k(   16) = (   0.0542203  -0.0479472   0.0000000), wk =   0.1111111
        k(   17) = (  -0.0813305   0.0287839   0.0000000), wk =   0.0555556
        k(   18) = (  -0.0813305   0.0575418   0.0000000), wk =   0.1111111
        k(   19) = (  -0.0813305   0.0862997   0.0000000), wk =   0.1111111
        k(   20) = (  -0.0813305  -0.0574899   0.0000000), wk =   0.0555556

     Largest allocated arrays     est. size (Mb)     dimensions
     Largest temporary arrays     est. size (Mb)     dimensions

     Initial potential from superposition of free atoms
     Check: negative starting charge=   -0.000231

     starting charge  137.98524, renormalised to  138.00000

[...]

     *
     * You are using vdW-DF for exchange-correlation in this calculation.
     * Please cite the following three references that made this development
     * possible:
     *
     *   M. Dion, H. Rydberg, E. Schroder, D. C. Langreth, and
     *   B. I. Lundqvist, Phys. Rev. Lett. 92, 246401 (2004).
     *
     *   T. Thonhauser, V. R. Cooper, S. Li, A. Puzder, P. Hyldgaard, and
     *   D. C. Langreth, Phys. Rev. B 76, 125112 (2007).
     *
     *   G. Roman-Perez and J. M. Soler, Phys. Rev. Lett. 103, 096102 (2009).
     *
     *
     * If you are using vdW-DF2, please also cite:
     *
     *   K. Lee, E. D. Murray, L. Kong, B. I. Lundqvist, and
     *   D. C. Langreth, Phys. Rev. B 82, 081101(R) (2010).
     *
     *
     * If you are calculating the stress with vdW-DF, please also cite:
     *
     *   R. Sabatini, E. Kucukbenli, B. Kolb, T. Thonhauser, and
     *   S. de Gironcoli, J. Phys.: Condens. Matter 24, 424209 (2012).
     *

     Carrying out vdW-DF run using the following parameters:

     Nqs =      20    Nr_points =    1024   r_max =   100.000
     q_mesh =
               0.00001000     0.04494208     0.09755937     0.15916263
               0.23128650     0.31572767     0.41458969     0.53033537
               0.66584808     0.82450364     1.01025438     1.22772762
               1.48234092     1.78043706     2.12944203     2.53805004
               3.01644009     3.57652955     4.23227104     5.00000000

     Gradients computed in reciprocal space

[...]

     Starting wfc are  132 randomized atomic wfcs

     Self-consistent Calculation

[...]

     Threshold (ethr) on eigenvalues was too large:
     Diagonalizing with lowered threshold

     Davidson diagonalization with overlap
     ethr =  8.92E-04,  avg # of iterations =  2.9

[...]

     total energy              =   -1223.66136735 Ry
     Harris-Foulkes estimate   =   -1223.66136756 Ry
     estimated scf accuracy    <       0.00000111 Ry

     iteration # 17     ecut=    36.75 Ry     beta=0.10
     Davidson diagonalization with overlap
     ethr =  8.05E-10,  avg # of iterations =  3.0

[...]

     negative rho (up, down):  8.286E-05 0.000E+00

     Adding external electric field

     Computed dipole along edir(3) :
        Dipole               -0.0225 Ry au,         -0.0572 Debye
        Dipole field         -0.0000 Ry au

        Potential amp.        0.0043 Ry
        Total length         46.0993 bohr

     End of self-consistent calculation

[...]

          k = 0.0542-0.0479 0.0000 ( 22642 PWs)   bands (ev):

[...]

          k =-0.0813-0.0575 0.0000 ( 22650 PWs)   bands (ev):

   -49.9179 -49.9117 -49.8870 -49.8808 -49.7429 -49.7362 -28.5694 -28.5599
   -28.5347 -28.5254 -28.4898 -28.4763 -28.4641 -28.4544 -28.4511 -28.4285
   -28.3675 -28.3575 -28.3410 -28.3316 -28.3283 -28.3079 -28.2970 -28.2682
    -7.0413  -6.9666  -6.9343  -6.8716  -6.8626  -6.8507  -6.8334  -6.7634
    -6.7576  -6.7190  -6.6824  -6.6590  -6.6582  -6.6471  -6.6216  -6.5920
    -6.5544  -6.5462  -6.5431  -6.4988  -6.4813  -6.4300  -6.4224  -6.3849
    -6.3783  -6.3367  -6.2593  -6.1893  -6.1287  -6.0270  -5.1516  -5.0355
    -4.1916  -4.0298  -3.1694  -2.3069  -2.2048  -1.5523  -1.2811  -0.8692
    -0.5843  -0.5238  -0.4344   0.1674   0.4383   0.6318   0.7685   0.7913
     0.9647   1.1842   1.4438   1.4557   1.5122   1.6583   1.7435   1.7926
     1.9010   2.0110   2.0485   2.0912   2.1252   2.4298   2.4382   2.5170
     2.6186   2.7090   2.8624   2.9367   3.4589   3.5496   3.6751   3.8129
     3.8280   3.9430   4.0594

     the Fermi energy is     0.7357 ev

!    total energy              =   -1223.66136658 Ry
     Harris-Foulkes estimate   =   -1223.66136791 Ry
     estimated scf accuracy    <       0.00000045 Ry

     The total energy is the sum of the following terms:

     one-electron contribution =   -7732.74340181 Ry
     hartree contribution      =    3901.49565526 Ry
     xc contribution           =    -325.70074315 Ry
     ewald contribution        =    2933.37544213 Ry
     electric field correction =       0.00000106 Ry
     smearing contrib. (-TS)   =      -0.08832006 Ry

     convergence has been achieved in  17 iterations

 BEEF-vdW xc energy contributions
           1 :   -283.216369003219
           2 :    257.981219692461
           3 :   -215.524541777633
           4 :    167.698730026477
           5 :   -124.852563055240
           6 :    92.4803760074034
           7 :   -71.0357411955704
           8 :    57.8990545711525
           9 :   -49.6883698570869
          10 :    43.6826673991254
          11 :   -38.1919120794121
          12 :    32.3831741741833
          13 :   -26.1041633858810
          14 :    19.8296105738103
          15 :   -14.4874374598082
          16 :    10.9631420594088
          17 :   -9.48546882184149
          18 :    9.37406465240122
          19 :   -9.42681178665686
          20 :    8.69416199536516
          21 :   -7.05286853373025
          22 :    5.15624457176392
          23 :   -3.84747768155336
          24 :    3.52243024463030
          25 :   -3.91400836678719
          26 :    4.38623269551204
          27 :   -4.42806578343652
          28 :    3.94668902977315
          29 :   -3.20713047483594
          30 :    2.57057999059123
          31 :   -28.0778524126982
          32 :   -20.5326655170867

     Forces acting on atoms (Ry/au):

     negative rho (up, down):  8.286E-05 0.000E+00
     atom    1 type  1   force =    -0.00001462   -0.00000993    0.00381644
     atom    2 type  1   force =    -0.00001392   -0.00001044    0.00381335
     atom    3 type  2   force =    -0.00001240   -0.00001056   -0.00397865
     atom    4 type  2   force =    -0.00001431   -0.00000930   -0.00397863
     atom    5 type  1   force =     0.00000240    0.00000031    0.00116364
     atom    6 type  1   force =    -0.00000203   -0.00000060    0.00116033
     atom    7 type  2   force =    -0.00000451    0.00000412   -0.00189819
     atom    8 type  2   force =     0.00000450   -0.00000506   -0.00189965
     atom    9 type  1   force =     0.00001564    0.00001291    0.00024801
     atom   10 type  1   force =     0.00000899    0.00000341    0.00025392
     atom   11 type  2   force =     0.00001320    0.00001879    0.00064908
     atom   12 type  2   force =     0.00001705    0.00000634    0.00065035

     Total force =     0.008465     Total SCF correction =     0.002521
     SCF correction compared to forces is large: reduce conv_thr to get better values

     entering subroutine stress ...

     negative rho (up, down):  8.286E-05 0.000E+00
          total   stress  (Ry/bohr**3)                   (kbar)     P=   -5.06
  -0.00005661  -0.00001058   0.00000008         -8.33     -1.56      0.01
  -0.00001058  -0.00004912   0.00000006         -1.56     -7.23      0.01
   0.00000008   0.00000006   0.00000259          0.01      0.01      0.38

 !ASE

     Writing output data file calc.save

     General routines

     Parallel routines

   This run was terminated on:   4:56:42  19Dec2018

   JOB DONE.
Job  /afs/slac/g/suncat/bin/suncat-tsmpirun -x LD_LIBRARY_PATH -wdir /scratch/qe530557_wGKC4 pw.x -in pw.inp

TID   HOST_NAME   COMMAND_LINE            STATUS            TERMINATION_TIME
00000 suncat2046 pw.x -in pw.inp   Done                     12/19/2018 04:56:42
00001 suncat2046 pw.x -in pw.inp   Done                     12/19/2018 04:56:42
00002 suncat2046 pw.x -in pw.inp   Done                     12/19/2018 04:56:42
00003 suncat2046 pw.x -in pw.inp   Done                     12/19/2018 04:56:42
00004 suncat2046 pw.x -in pw.inp   Done                     12/19/2018 04:56:42
00005 suncat2046 pw.x -in pw.inp   Done                     12/19/2018 04:56:42
00006 suncat2046 pw.x -in pw.inp   Done                     12/19/2018 04:56:42
00007 suncat2046 pw.x -in pw.inp   Done                     12/19/2018 04:56:42
00008 suncat2046 pw.x -in pw.inp   Done                     12/19/2018 04:56:42
00009 suncat2046 pw.x -in pw.inp   Done                     12/19/2018 04:56:42
00010 suncat2046 pw.x -in pw.inp   Done                     12/19/2018 04:56:42
00011 suncat2046 pw.x -in pw.inp   Done                     12/19/2018 04:56:42
00012 suncat2046 pw.x -in pw.inp   Done                     12/19/2018 04:56:42
00013 suncat2046 pw.x -in pw.inp   Done                     12/19/2018 04:56:42
00014 suncat2046 pw.x -in pw.inp   Done                     12/19/2018 04:56:42
00015 suncat2046 pw.x -in pw.inp   Done                     12/19/2018 04:56:42
00016 suncat2045 pw.x -in pw.inp   Done                     12/19/2018 04:56:42
00017 suncat2045 pw.x -in pw.inp   Done                     12/19/2018 04:56:42
00018 suncat2045 pw.x -in pw.inp   Done                     12/19/2018 04:56:42
00019 suncat2045 pw.x -in pw.inp   Done                     12/19/2018 04:56:42
00020 suncat2045 pw.x -in pw.inp   Done                     12/19/2018 04:56:42
00021 suncat2045 pw.x -in pw.inp   Done                     12/19/2018 04:56:42
00022 suncat2045 pw.x -in pw.inp   Done                     12/19/2018 04:56:42
00023 suncat2045 pw.x -in pw.inp   Done                     12/19/2018 04:56:42
00024 suncat2045 pw.x -in pw.inp   Done                     12/19/2018 04:56:42
00025 suncat2045 pw.x -in pw.inp   Done                     12/19/2018 04:56:42
00026 suncat2045 pw.x -in pw.inp   Done                     12/19/2018 04:56:42
00027 suncat2045 pw.x -in pw.inp   Done                     12/19/2018 04:56:42
00028 suncat2045 pw.x -in pw.inp   Done                     12/19/2018 04:56:42
00029 suncat2045 pw.x -in pw.inp   Done                     12/19/2018 04:56:42
00030 suncat2045 pw.x -in pw.inp   Done                     12/19/2018 04:56:42
00031 suncat2045 pw.x -in pw.inp   Done                     12/19/2018 04:56:42