     Program PWSCF v.5.1rc2 (svn rev. 11289) starts on 18Dec2018 at 16:49:42

     Current dimensions of program PWSCF are:
     Max number of different atomic species (ntypx) = 10
     Max number of k-points (npk) =  40000
     Max angular momentum in pseudopotentials (lmaxx) =  3
     Presently stress not available with electric field

     IMPORTANT: XC functional enforced from input :
     Exchange-correlation      = BEEF-VDW ( 1  4 27 13 2)
     Any further DFT definition will be discarded
     Please, verify this is what you really want

     Subspace diagonalization in iterative solution of the eigenvalue problem:
     a serial algorithm will be used

     Found symmetry operation: I + ( -0.5000 -0.5000  0.0000)
     This is a supercell, fractional translations are disabled

     bravais-lattice index     =            0
     lattice parameter (alat)  =       1.8897  a.u.
     unit-cell volume          =    6581.2166 (a.u.)^3
     number of atoms/cell      =           12
     number of atomic types    =            2
     number of electrons       =       198.00
     number of Kohn-Sham states=          129
     kinetic-energy cutoff     =      36.7493  Ry
     charge density cutoff     =     367.4932  Ry
     convergence threshold     =      1.0E-06
     mixing beta               =       0.1000
     number of iterations used =           10  plain     mixing
     Exchange-correlation      = BEEF-VDW ( 1  4 27 13 2)
     nstep                     =           50

     celldm(1)=   1.889726  celldm(2)=   0.000000  celldm(3)=   0.000000
     celldm(4)=   0.000000  celldm(5)=   0.000000  celldm(6)=   0.000000

     crystal axes: (cart. coord. in units of alat)
               a(1) = (   6.441572   0.000000   0.000000 )
               a(2) = (   2.393560   5.980361   0.000000 )
               a(3) = (   0.000000   0.000000  25.315724 )

     reciprocal axes: (cart. coord. in units 2 pi/alat)
               b(1) = (  0.155242 -0.062133  0.000000 )
               b(2) = (  0.000000  0.167214  0.000000 )
               b(3) = (  0.000000  0.000000  0.039501 )

     PseudoPot. # 1 for Ag read from file:
     /afs/slac.stanford.edu/u/if/mamunm/psp/gbrv1.5pbe/Ag.UPF
     MD5 check sum: d66d668201baa78d5eb5b04ef7011058
     Pseudo is Ultrasoft + core correction, Zval = 19.0
     Generated by new atomic code, or converted to UPF format
     Using radial grid of  887 points,  6 beta functions with:
                l(1) =   0
                l(2) =   0
                l(3) =   1
                l(4) =   1
                l(5) =   2
                l(6) =   2
     Q(r) pseudized with  6 coefficients,  rinner =    1.300   1.300   1.300
                                                       1.300   1.300

     PseudoPot. # 2 for Pb read from file:
     /afs/slac.stanford.edu/u/if/mamunm/psp/gbrv1.5pbe/Pb.UPF
     MD5 check sum: 3d1c1779aa92214d1e8f3a7db79003e2
     Pseudo is Ultrasoft + core correction, Zval = 14.0
     Generated by new atomic code, or converted to UPF format
     Using radial grid of  899 points,  6 beta functions with:
                l(1) =   0
                l(2) =   0
                l(3) =   1
                l(4) =   1
                l(5) =   2
                l(6) =   2
     Q(r) pseudized with  6 coefficients,  rinner =    1.000   1.000   1.000
                                                       1.000   1.000

     vdW kernel table read from file vdW_kernel_table
     MD5 check sum: 095c7af220d748ca6e76c0b4c6cfb241

     atomic species   valence    mass     pseudopotential
        Ag1           19.00   107.86820     Ag( 1.00)
        Pb1           14.00   207.20000     Pb( 1.00)

     No symmetry found

   Cartesian axes

     site n.     atom                  positions (alat units)
         1           Ag1 tau(   1) = (   0.0000000   0.0000000  10.0000000  )
         2           Ag1 tau(   2) = (   4.4175661   2.9901804  10.0000000  )
         3           Pb1 tau(   3) = (   3.2207859   0.0000000  10.0000000  )
         4           Pb1 tau(   4) = (   1.1967802   2.9901804  10.0000000  )
         5           Ag1 tau(   5) = (   6.4415717   4.3601977  12.6578622  )
         6           Ag1 tau(   6) = (   2.0240056   1.3700173  12.6578622  )
         7           Pb1 tau(   7) = (   3.2207859   4.3601977  12.6578622  )
         8           Pb1 tau(   8) = (   5.2447915   1.3700173  12.6578622  )
         9           Ag1 tau(   9) = (   4.0480113   2.7400346  15.3157243  )
        10           Ag1 tau(  10) = (   8.4655773   5.7302150  15.3157243  )
        11           Pb1 tau(  11) = (   7.2687971   2.7400346  15.3157243  )
        12           Pb1 tau(  12) = (   5.2447915   5.7302150  15.3157243  )

     number of k points=    20  Fermi-Dirac smearing, width (Ry)=  0.0110
                       cart. coord. in units 2pi/alat
        k(    1) = (   0.0000000   0.0000000   0.0000000), wk =   0.0555556
        k(    2) = (   0.0000000   0.0278690   0.0000000), wk =   0.1111111
        k(    3) = (   0.0000000   0.0557380   0.0000000), wk =   0.1111111
        k(    4) = (   0.0000000  -0.0836070   0.0000000), wk =   0.0555556
        k(    5) = (   0.0258736  -0.0103556   0.0000000), wk =   0.1111111
        k(    6) = (   0.0258736   0.0175134   0.0000000), wk =   0.1111111
        k(    7) = (   0.0258736   0.0453824   0.0000000), wk =   0.1111111
        k(    8) = (   0.0258736  -0.0939626   0.0000000), wk =   0.1111111
        k(    9) = (   0.0258736  -0.0660936   0.0000000), wk =   0.1111111
        k(   10) = (   0.0258736  -0.0382246   0.0000000), wk =   0.1111111
        k(   11) = (   0.0517472  -0.0207111   0.0000000), wk =   0.1111111
        k(   12) = (   0.0517472   0.0071579   0.0000000), wk =   0.1111111
        k(   13) = (   0.0517472   0.0350269   0.0000000), wk =   0.1111111
        k(   14) = (   0.0517472  -0.1043181   0.0000000), wk =   0.1111111
        k(   15) = (   0.0517472  -0.0764491   0.0000000), wk =   0.1111111
        k(   16) = (   0.0517472  -0.0485801   0.0000000), wk =   0.1111111
        k(   17) = (  -0.0776208   0.0310667   0.0000000), wk =   0.0555556
        k(   18) = (  -0.0776208   0.0589357   0.0000000), wk =   0.1111111
        k(   19) = (  -0.0776208   0.0868047   0.0000000), wk =   0.1111111
        k(   20) = (  -0.0776208  -0.0525403   0.0000000), wk =   0.0555556

     Largest allocated arrays     est. size (Mb)     dimensions
     Largest temporary arrays     est. size (Mb)     dimensions

     Check: negative/imaginary core charge=   -0.000001    0.000000

     Initial potential from superposition of free atoms
     Check: negative starting charge=   -0.102092

     starting charge  194.98561, renormalised to  198.00000

     negative rho (up, down):  1.037E-01 0.000E+00

     *
     * You are using vdW-DF for exchange-correlation in this calculation.
     * Please cite the following three references that made this development
     * possible:
     *
     *   M. Dion, H. Rydberg, E. Schroder, D. C. Langreth, and
     *   B. I. Lundqvist, Phys. Rev. Lett. 92, 246401 (2004).
     *
     *   T. Thonhauser, V. R. Cooper, S. Li, A. Puzder, P. Hyldgaard, and
     *   D. C. Langreth, Phys. Rev. B 76, 125112 (2007).
     *
     *   G. Roman-Perez and J. M. Soler, Phys. Rev. Lett. 103, 096102 (2009).
     *
     *
     * If you are using vdW-DF2, please also cite:
     *
     *   K. Lee, E. D. Murray, L. Kong, B. I. Lundqvist, and
     *   D. C. Langreth, Phys. Rev. B 82, 081101(R) (2010).
     *
     *
     * If you are calculating the stress with vdW-DF, please also cite:
     *
     *   R. Sabatini, E. Kucukbenli, B. Kolb, T. Thonhauser, and
     *   S. de Gironcoli, J. Phys.: Condens. Matter 24, 424209 (2012).
     *

     Carrying out vdW-DF run using the following parameters:

     Nqs =      20    Nr_points =    1024   r_max =   100.000
     q_mesh =
               0.00001000     0.04494208     0.09755937     0.15916263
               0.23128650     0.31572767     0.41458969     0.53033537
               0.66584808     0.82450364     1.01025438     1.22772762
               1.48234092     1.78043706     2.12944203     2.53805004
               3.01644009     3.57652955     4.23227104     5.00000000

     Gradients computed in reciprocal space

     Adding external electric field

     Computed dipole along edir(3) :
        Dipole               -0.0000 Ry au,         -0.0000 Debye
        Dipole field         -0.0000 Ry au

        Potential amp.        0.0000 Ry
        Total length         46.6438 bohr

     Starting wfc are  132 randomized atomic wfcs

     Self-consistent Calculation

     iteration #  1     ecut=    36.75 Ry     beta=0.10
     Davidson diagonalization with overlap
     ethr =  1.00E-02,  avg # of iterations =  7.8

[...]

     total energy              =   -2776.19271329 Ry
     Harris-Foulkes estimate   =   -2776.68644928 Ry
     estimated scf accuracy    <       2.96657346 Ry

[...]

     End of self-consistent calculation

          k = 0.0000 0.0000 0.0000 ( 24735 PWs)   bands (ev):

   -91.3372 -91.3370 -91.0927 -91.0927 -91.0926 -91.0926 -54.8362 -54.8359
   -54.8280 -54.8277 -54.8241 -54.8198 -54.6095 -54.6094 -54.6091 -54.6091
   -54.5921 -54.5920 -54.5878 -54.5878 -54.5763 -54.5763 -54.5760 -54.5760
   -16.5055 -16.4557 -16.4499 -16.4476 -16.4453 -16.4372 -16.4251 -16.4189
   -16.4037 -16.3905 -16.3877 -16.3872 -16.3780 -16.3750 -16.3723 -16.3643
   -16.3629 -16.3577 -16.3546 -16.3533 -16.3479 -16.3451 -16.3282 -16.3260
   -16.3187 -16.3131 -16.2966 -16.2806 -16.2591 -16.2415  -9.1975  -8.2560
    -7.5197  -7.2385  -6.8890  -6.8063  -3.8991  -3.7907  -3.7516  -3.6996
    -3.6898  -3.6533  -3.6446  -3.6413  -3.5429  -3.5196  -3.4988  -3.4667
    -3.4588  -3.4527  -3.4362  -3.3795  -3.3315  -3.3227  -3.2536  -3.2393
    -3.2298  -3.1918  -3.1804  -3.1725  -3.1682  -3.0124  -3.0045  -2.9906
    -2.9380  -2.8527  -1.6761  -1.4197  -1.2679  -1.1556  -1.0578  -0.7212
    -0.6941  -0.5464   0.2122   0.2783   0.7038   1.2783   1.5449   1.7897
     2.3755   2.3920   2.7305   2.9342   3.9266   4.0032   4.0827   4.2496
     4.6132   4.6587   5.1365   5.2922   5.3948   5.6309   5.8651   6.1062
     6.5979   7.1580   7.2389   7.4723   7.4829   7.4903   7.5631   7.8866
     8.0685

[...]

          k =-0.0776 0.0311 0.0000 ( 24756 PWs)   bands (ev):

[...]

     the Fermi energy is     0.8817 ev

!    total energy              =   -2775.97065114 Ry
     Harris-Foulkes estimate   =   -2775.97065176 Ry
     estimated scf accuracy    <       0.00000040 Ry

     The total energy is the sum of the following terms:

     one-electron contribution =  -15124.61811690 Ry
     hartree contribution      =    7589.71671320 Ry
     xc contribution           =    -572.11603128 Ry
     ewald contribution        =    5331.07981008 Ry
     electric field correction =       0.00000000 Ry
     smearing contrib. (-TS)   =      -0.03302625 Ry

     convergence has been achieved in  14 iterations

 BEEF-vdW xc energy contributions
           1 :   -505.521301722109
           2 :    465.671495225627
           3 :   -397.053773260818
           4 :    317.010665930181
           5 :   -242.321382771183
[...]

     Program PWSCF v.5.1rc2 (svn rev. 11289) starts on 18Dec2018 at 17: 8:10

[...]

   This run was terminated on:  17:26:39  18Dec2018

[...]

     Program PWSCF v.5.1rc2 (svn rev. 11289) starts on 18Dec2018 at 17:44:29

[...]

   This run was terminated on:  18: 1:54  18Dec2018

[...]

     Program PWSCF v.5.1rc2 (svn rev. 11289) starts on 18Dec2018 at 18: 2: 0

     Current dimensions of program PWSCF are:
     Max number of different atomic species (ntypx) = 10
     Max number of k-points (npk) =  40000
     Max angular momentum in pseudopotentials (lmaxx) =  3
     Presently stress not available with electric field

     IMPORTANT: XC functional enforced from input :
     Exchange-correlation      = BEEF-VDW ( 1  4 27 13 2)
     Any further DFT definition will be discarded
     Please, verify this is what you really want

     Subspace diagonalization in iterative solution of the eigenvalue problem:
     a serial algorithm will be used

     bravais-lattice index     =            0
     lattice parameter (alat)  =       1.8897  a.u.
     unit-cell volume          =    6581.2166 (a.u.)^3
     number of atoms/cell      =           12
     number of atomic types    =            2
     number of electrons       =       198.00
     number of Kohn-Sham states=          129
     kinetic-energy cutoff     =      36.7493  Ry
     charge density cutoff     =     367.4932  Ry
     convergence threshold     =      1.0E-06
     mixing beta               =       0.1000
     number of iterations used =           10  plain     mixing
     Exchange-correlation      = BEEF-VDW ( 1  4 27 13 2)
     nstep                     =           50

     celldm(1)=   1.889726  celldm(2)=   0.000000  celldm(3)=   0.000000
     celldm(4)=   0.000000  celldm(5)=   0.000000  celldm(6)=   0.000000

     crystal axes: (cart. coord. in units of alat)
               a(1) = (   6.441572   0.000000   0.000000 )
               a(2) = (   2.393560   5.980361   0.000000 )
               a(3) = (   0.000000   0.000000  25.315724 )

     reciprocal axes: (cart. coord. in units 2 pi/alat)
               b(1) = (  0.155242 -0.062133  0.000000 )
               b(2) = (  0.000000  0.167214  0.000000 )
               b(3) = (  0.000000  0.000000  0.039501 )

     PseudoPot. # 1 for Ag read from file:
     /afs/slac.stanford.edu/u/if/mamunm/psp/gbrv1.5pbe/Ag.UPF
     MD5 check sum: d66d668201baa78d5eb5b04ef7011058
     Pseudo is Ultrasoft + core correction, Zval = 19.0
     Generated by new atomic code, or converted to UPF format
     Using radial grid of  887 points,  6 beta functions with:
                l(1) =   0
                l(2) =   0
                l(3) =   1
                l(4) =   1
                l(5) =   2
                l(6) =   2
     Q(r) pseudized with  6 coefficients,  rinner =    1.300   1.300   1.300
                                                       1.300   1.300

     PseudoPot. # 2 for Pb read from file:
     /afs/slac.stanford.edu/u/if/mamunm/psp/gbrv1.5pbe/Pb.UPF
     MD5 check sum: 3d1c1779aa92214d1e8f3a7db79003e2
     Pseudo is Ultrasoft + core correction, Zval = 14.0
     Generated by new atomic code, or converted to UPF format
     Using radial grid of  899 points,  6 beta functions with:
                l(1) =   0
                l(2) =   0
                l(3) =   1
                l(4) =   1
                l(5) =   2
                l(6) =   2
     Q(r) pseudized with  6 coefficients,  rinner =    1.000   1.000   1.000
                                                       1.000   1.000

     vdW kernel table read from file vdW_kernel_table
     MD5 check sum: 095c7af220d748ca6e76c0b4c6cfb241

     atomic species   valence    mass     pseudopotential
        Ag1           19.00   107.86820     Ag( 1.00)
        Pb1           14.00   207.20000     Pb( 1.00)

     No symmetry found

   Cartesian axes

     site n.     atom                  positions (alat units)
         1           Ag1 tau(   1) = (   0.0000000   0.0000000  10.0000000  )
         2           Ag1 tau(   2) = (   4.4175661   2.9901804  10.0000000  )
         3           Pb1 tau(   3) = (   3.2207859   0.0000000  10.0000000  )
         4           Pb1 tau(   4) = (   1.1967802   2.9901804  10.0000000  )
         5           Ag1 tau(   5) = (   6.4415717   4.3601977  12.6578622  )
         6           Ag1 tau(   6) = (   2.0240056   1.3700173  12.6578622  )
         7           Pb1 tau(   7) = (   3.2207859   4.3601977  12.6578622  )
         8           Pb1 tau(   8) = (   5.2447915   1.3700173  12.6578622  )
         9           Ag1 tau(   9) = (   4.0304856   2.7282037  15.2470152  )
        10           Ag1 tau(  10) = (   8.4517334   5.7209019  15.2472208  )
        11           Pb1 tau(  11) = (   7.3097179   2.7696071  15.3029561  )
        12           Pb1 tau(  12) = (   5.2872612   5.7570360  15.3034043  )

     number of k points=    20  Fermi-Dirac smearing, width (Ry)=  0.0110
                       cart. coord. in units 2pi/alat
        k(    1) = (   0.0000000   0.0000000   0.0000000), wk =   0.0555556
        k(    2) = (   0.0000000   0.0278690   0.0000000), wk =   0.1111111
        k(    3) = (   0.0000000   0.0557380   0.0000000), wk =   0.1111111
        k(    4) = (   0.0000000  -0.0836070   0.0000000), wk =   0.0555556
        k(    5) = (   0.0258736  -0.0103556   0.0000000), wk =   0.1111111
        k(    6) = (   0.0258736   0.0175134   0.0000000), wk =   0.1111111
        k(    7) = (   0.0258736   0.0453824   0.0000000), wk =   0.1111111
        k(    8) = (   0.0258736  -0.0939626   0.0000000), wk =   0.1111111
        k(    9) = (   0.0258736  -0.0660936   0.0000000), wk =   0.1111111
        k(   10) = (   0.0258736  -0.0382246   0.0000000), wk =   0.1111111
        k(   11) = (   0.0517472  -0.0207111   0.0000000), wk =   0.1111111
        k(   12) = (   0.0517472   0.0071579   0.0000000), wk =   0.1111111
        k(   13) = (   0.0517472   0.0350269   0.0000000), wk =   0.1111111
        k(   14) = (   0.0517472  -0.1043181   0.0000000), wk =   0.1111111
        k(   15) = (   0.0517472  -0.0764491   0.0000000), wk =   0.1111111
        k(   16) = (   0.0517472  -0.0485801   0.0000000), wk =   0.1111111
        k(   17) = (  -0.0776208   0.0310667   0.0000000), wk =   0.0555556
        k(   18) = (  -0.0776208   0.0589357   0.0000000), wk =   0.1111111
        k(   19) = (  -0.0776208   0.0868047   0.0000000), wk =   0.1111111
        k(   20) = (  -0.0776208  -0.0525403   0.0000000), wk =   0.0555556

     Largest allocated arrays     est. size (Mb)     dimensions
     Largest temporary arrays     est. size (Mb)     dimensions

     Check: negative/imaginary core charge=   -0.000001    0.000000

     Initial potential from superposition of free atoms
     Check: negative starting charge=   -0.101713

     starting charge  194.98561, renormalised to  198.00000

[...]

     *
     * You are using vdW-DF for exchange-correlation in this calculation.
     * Please cite the following three references that made this development
     * possible:
     *
     *   M. Dion, H. Rydberg, E. Schroder, D. C. Langreth, and
     *   B. I. Lundqvist, Phys. Rev. Lett. 92, 246401 (2004).
     *
     *   T. Thonhauser, V. R. Cooper, S. Li, A. Puzder, P. Hyldgaard, and
     *   D. C. Langreth, Phys. Rev. B 76, 125112 (2007).
     *
     *   G. Roman-Perez and J. M. Soler, Phys. Rev. Lett. 103, 096102 (2009).
     *
     *
     * If you are using vdW-DF2, please also cite:
     *
     *   K. Lee, E. D. Murray, L. Kong, B. I. Lundqvist, and
     *   D. C. Langreth, Phys. Rev. B 82, 081101(R) (2010).
     *
     *
     * If you are calculating the stress with vdW-DF, please also cite:
     *
     *   R. Sabatini, E. Kucukbenli, B. Kolb, T. Thonhauser, and
     *   S. de Gironcoli, J. Phys.: Condens. Matter 24, 424209 (2012).
     *

     Carrying out vdW-DF run using the following parameters:

     Nqs =      20    Nr_points =    1024   r_max =   100.000
     q_mesh =
               0.00001000     0.04494208     0.09755937     0.15916263
               0.23128650     0.31572767     0.41458969     0.53033537
               0.66584808     0.82450364     1.01025438     1.22772762
               1.48234092     1.78043706     2.12944203     2.53805004
               3.01644009     3.57652955     4.23227104     5.00000000

     Gradients computed in reciprocal space

[...]

     Starting wfc are  132 randomized atomic wfcs

     Self-consistent Calculation

[...]

     total energy              =   -2775.97137557 Ry
     Harris-Foulkes estimate   =   -2775.97134885 Ry
     estimated scf accuracy    <       0.00000118 Ry

     iteration # 14     ecut=    36.75 Ry     beta=0.10
     Davidson diagonalization with overlap
     ethr =  5.94E-10,  avg # of iterations =  3.0

[...]

     negative rho (up, down):  1.069E-01 0.000E+00

     Adding external electric field

     Computed dipole along edir(3) :
        Dipole                0.0076 Ry au,          0.0194 Debye
        Dipole field          0.0000 Ry au

        Potential amp.       -0.0014 Ry
        Total length         46.6438 bohr

     End of self-consistent calculation

[...]

          k = 0.0517-0.0486 0.0000 ( 24766 PWs)   bands (ev):

[...]

          k =-0.0776-0.0525 0.0000 ( 24758 PWs)   bands (ev):

   -91.3434 -91.3426 -91.1364 -91.1360 -91.0867 -91.0865 -54.8418 -54.8410
   -54.8346 -54.8338 -54.8300 -54.8257 -54.6500 -54.6494 -54.6362 -54.6319
   -54.6222 -54.6218 -54.6040 -54.6035 -54.5862 -54.5819 -54.5701 -54.5697
   -16.4989 -16.4595 -16.4443 -16.4411 -16.4400 -16.4344 -16.4136 -16.4024
   -16.3915 -16.3853 -16.3816 -16.3769 -16.3751 -16.3677 -16.3674 -16.3576
   -16.3537 -16.3515 -16.3487 -16.3438 -16.3354 -16.3312 -16.3271 -16.3181
   -16.3177 -16.3129 -16.3058 -16.2889 -16.2564 -16.2386  -8.3932  -8.1601
    -7.8552  -7.5879  -6.8474  -5.9646  -4.2184  -4.1896  -4.1715  -4.0870
    -4.0763  -3.8302  -3.8227  -3.7886  -3.7666  -3.7513  -3.7318  -3.7189
    -3.7129  -3.6261  -3.5788  -3.5536  -3.5272  -3.4912  -3.4705  -3.4567
    -3.3612  -3.3466  -3.3452  -3.2993  -3.2359  -3.1846  -3.1765  -3.1566
    -3.1527  -3.0381  -2.5434  -2.2057  -1.9972  -1.4950  -1.3572   0.4409
     0.6226   1.3636   1.4282   1.6035   2.1820   3.0247   3.0344   3.0490
     3.2319   3.8212   4.1140   4.1840   4.2327   4.4755   4.6565   5.2026
     5.2738   5.3266   5.3778   5.4495   5.6730   5.7421   5.8924   5.9491
     5.9602   6.2402   6.2471   6.4256   6.5536   6.7025   6.7923   6.8598
     7.0050

     the Fermi energy is     0.8854 ev

!    total energy              =   -2775.97137369 Ry
     Harris-Foulkes estimate   =   -2775.97137581 Ry
     estimated scf accuracy    <       0.00000013 Ry

     The total energy is the sum of the following terms:

     one-electron contribution =  -15216.15319182 Ry
     hartree contribution      =    7635.43589992 Ry
     xc contribution           =    -572.13518335 Ry
     ewald contribution        =    5376.91419010 Ry
     electric field correction =       0.00000011 Ry
     smearing contrib. (-TS)   =      -0.03308865 Ry

     convergence has been achieved in  14 iterations

 BEEF-vdW xc energy contributions
           1 :   -505.544247868570
           2 :    465.716012303470
           3 :   -397.121999458620
           4 :    317.081158238582
           5 :   -242.363574576218
           6 :    183.634480685278
           7 :   -143.317610598673
           8 :    117.168726373625
           9 :   -98.1785997004607
          10 :    80.5858934992032
          11 :   -62.1429371422357
          12 :    43.9778041607137
          13 :   -28.7431463296058
          14 :    18.4571291314541
          15 :   -13.2791022397571
          16 :    11.6497860450365
          17 :   -11.3757314844485
          18 :    10.8127619539745
          19 :   -9.46385390418845
          20 :    7.80532457230333
          21 :   -6.64051086886082
          22 :    6.46146154421137
          23 :   -7.16957674894115
          24 :    8.20915552070369
          25 :   -8.93246186323279
          26 :    8.94138242484746
          27 :   -8.23831496584739
          28 :    7.15812801482321
          29 :   -6.16444081472969
          30 :    5.62521581905310
          31 :   -43.4347351508685
          32 :   -31.6912013460345

     Forces acting on atoms (Ry/au):

     negative rho (up, down):  1.069E-01 0.000E+00
     atom    1 type  1   force =     0.00163936    0.00110960    0.00271961
     atom    2 type  1   force =     0.00164058    0.00111171    0.00271919
     atom    3 type  2   force =    -0.00270002   -0.00183859    0.00021006
     atom    4 type  2   force =    -0.00270869   -0.00182438    0.00021043
     atom    5 type  1   force =    -0.00004415   -0.00002115   -0.00069260
     atom    6 type  1   force =    -0.00019051   -0.00013723   -0.00063338
     atom    7 type  2   force =     0.00094138    0.00065772   -0.00223295
     atom    8 type  2   force =     0.00095344    0.00062570   -0.00222846
     atom    9 type  1   force =     0.00080593    0.00053660   -0.00059133
     atom   10 type  1   force =     0.00091380    0.00062436   -0.00057627
     atom   11 type  2   force =    -0.00066268   -0.00038096    0.00056948
     atom   12 type  2   force =    -0.00058844   -0.00046339    0.00052623

     Total force =     0.007884     Total SCF correction =     0.003230
     SCF correction compared to forces is large: reduce conv_thr to get better values

     entering subroutine stress ...

     negative rho (up, down):  1.069E-01 0.000E+00
          total   stress  (Ry/bohr**3)                   (kbar)     P=   -7.04
  -0.00006476   0.00000543   0.00000181         -9.53      0.80      0.27
   0.00000543  -0.00006911   0.00000122          0.80    -10.17      0.18
   0.00000181   0.00000122  -0.00000967          0.27      0.18     -1.42

 !ASE

     Writing output data file calc.save

     General routines

     Parallel routines

   This run was terminated on:  18:20:41  18Dec2018

   JOB DONE.
Job  /afs/slac/g/suncat/bin/suncat-tsmpirun -x LD_LIBRARY_PATH -wdir /scratch/qe529559_k40Ex pw.x -in pw.inp

TID   HOST_NAME   COMMAND_LINE            STATUS            TERMINATION_TIME
00000 suncat0195 pw.x -in pw.inp   Done                     12/18/2018 18:20:42
00001 suncat0195 pw.x -in pw.inp   Done                     12/18/2018 18:20:42
00002 suncat0195 pw.x -in pw.inp   Done                     12/18/2018 18:20:42
00003 suncat0195 pw.x -in pw.inp   Done                     12/18/2018 18:20:42
00004 suncat0195 pw.x -in pw.inp   Done                     12/18/2018 18:20:42
00005 suncat0195 pw.x -in pw.inp   Done                     12/18/2018 18:20:42
00006 suncat0195 pw.x -in pw.inp   Done                     12/18/2018 18:20:42
00007 suncat0195 pw.x -in pw.inp   Done                     12/18/2018 18:20:42
00008 suncat0194 pw.x -in pw.inp   Done                     12/18/2018 18:20:42
00009 suncat0194 pw.x -in pw.inp   Done                     12/18/2018 18:20:42
00010 suncat0194 pw.x -in pw.inp   Done                     12/18/2018 18:20:42
00011 suncat0194 pw.x -in pw.inp   Done                     12/18/2018 18:20:42
00012 suncat0194 pw.x -in pw.inp   Done                     12/18/2018 18:20:42
00013 suncat0194 pw.x -in pw.inp   Done                     12/18/2018 18:20:42
00014 suncat0194 pw.x -in pw.inp   Done                     12/18/2018 18:20:42
00015 suncat0194 pw.x -in pw.inp   Done                     12/18/2018 18:20:42
00016 suncat0193 pw.x -in pw.inp   Done                     12/18/2018 18:20:42
00017 suncat0193 pw.x -in pw.inp   Done                     12/18/2018 18:20:42
00018 suncat0193 pw.x -in pw.inp   Done                     12/18/2018 18:20:42
00019 suncat0193 pw.x -in pw.inp   Done                     12/18/2018 18:20:42
00020 suncat0193 pw.x -in pw.inp   Done                     12/18/2018 18:20:42
00021 suncat0193 pw.x -in pw.inp   Done                     12/18/2018 18:20:42
00022 suncat0193 pw.x -in pw.inp   Done                     12/18/2018 18:20:42
00023 suncat0193 pw.x -in pw.inp   Done                     12/18/2018 18:20:42
00024 suncat0192 pw.x -in pw.inp   Done                     12/18/2018 18:20:42
00025 suncat0192 pw.x -in pw.inp   Done                     12/18/2018 18:20:42
00026 suncat0192 pw.x -in pw.inp   Done                     12/18/2018 18:20:42
00027 suncat0192 pw.x -in pw.inp   Done                     12/18/2018 18:20:42
00028 suncat0192 pw.x -in pw.inp   Done                     12/18/2018 18:20:42
00029 suncat0192 pw.x -in pw.inp   Done                     12/18/2018 18:20:42
00030 suncat0192 pw.x -in pw.inp   Done                     12/18/2018 18:20:42
00031 suncat0192 pw.x -in pw.inp   Done                     12/18/2018 18:20:42