     Program PWSCF v.5.1rc2 (svn rev. 11289) starts on 18Dec2018 at 20: 5:34

     Current dimensions of program PWSCF are:
     Max number of different atomic species (ntypx) = 10
     Max number of k-points (npk) =  40000
     Max angular momentum in pseudopotentials (lmaxx) =  3
     Presently stress not available with electric field

     IMPORTANT: XC functional enforced from input :
     Exchange-correlation      = BEEF-VDW ( 1  4 27 13 2)
     Any further DFT definition will be discarded
     Please, verify this is what you really want

     Subspace diagonalization in iterative solution of the eigenvalue problem:
     a serial algorithm will be used

     Found symmetry operation: I + ( -0.5000 -0.5000  0.0000)
     This is a supercell, fractional translations are disabled

     bravais-lattice index     =            0
     lattice parameter (alat)  =       1.8897  a.u.
     unit-cell volume          =    5948.0325 (a.u.)^3
     number of atoms/cell      =           12
     number of atomic types    =            2
     number of electrons       =       162.00
     number of Kohn-Sham states=          111
     kinetic-energy cutoff     =      36.7493  Ry
     charge density cutoff     =     367.4932  Ry
     convergence threshold     =      1.0E-06
     mixing beta               =       0.1000
     number of iterations used =           10  plain     mixing
     Exchange-correlation      = BEEF-VDW ( 1  4 27 13 2)
     nstep                     =           50

     celldm(1)=   1.889726  celldm(2)=   0.000000  celldm(3)=   0.000000
     celldm(4)=   0.000000  celldm(5)=   0.000000  celldm(6)=   0.000000

     crystal axes: (cart. coord. in units of alat)
               a(1) = (   6.087736   0.000000   0.000000 )
               a(2) = (   1.782209   5.821019   0.000000 )
               a(3) = (   0.000000   0.000000  24.872642 )

     reciprocal axes: (cart. coord. in units 2 pi/alat)
               b(1) = (  0.164265 -0.050293  0.000000 )
               b(2) = (  0.000000  0.171791  0.000000 )
               b(3) = (  0.000000  0.000000  0.040205 )

     PseudoPot. # 1 for Nb read from file:
     /afs/slac.stanford.edu/u/if/mamunm/psp/gbrv1.5pbe/Nb.UPF
     MD5 check sum: 573aab8a2fa660278ed4a62cd769473f
     Pseudo is Ultrasoft + core correction, Zval = 13.0
     Generated by new atomic code, or converted to UPF format
     Using radial grid of  887 points,  6 beta functions with:
                l(1) =   0
                l(2) =   0
                l(3) =   1
                l(4) =   1
                l(5) =   2
                l(6) =   2
     Q(r) pseudized with  6 coefficients,  rinner =    1.000   1.000   1.000
                                                       1.000   1.000

     PseudoPot. # 2 for Pb read from file:
     /afs/slac.stanford.edu/u/if/mamunm/psp/gbrv1.5pbe/Pb.UPF
     MD5 check sum: 3d1c1779aa92214d1e8f3a7db79003e2
     Pseudo is Ultrasoft + core correction, Zval = 14.0
     Generated by new atomic code, or converted to UPF format
     Using radial grid of  899 points,  6 beta functions with:
                l(1) =   0
                l(2) =   0
                l(3) =   1
                l(4) =   1
                l(5) =   2
                l(6) =   2
     Q(r) pseudized with  6 coefficients,  rinner =    1.000   1.000   1.000
                                                       1.000   1.000

     vdW kernel table read from file vdW_kernel_table
     MD5 check sum: 095c7af220d748ca6e76c0b4c6cfb241

     atomic species   valence    mass     pseudopotential
        Nb1           13.00    92.90637     Nb( 1.00)
        Pb1           14.00   207.20000     Pb( 1.00)

     No symmetry found

   Cartesian axes

     site n.     atom                  positions (alat units)
         1           Nb1 tau(   1) = (   0.0000000   0.0000000  10.0000000  )
         2           Nb1 tau(   2) = (   3.9349727   2.9105094  10.0000000  )
         3           Pb1 tau(   3) = (   3.0438680   0.0000000  10.0000000  )
         4           Pb1 tau(   4) = (   0.8911047   2.9105094  10.0000000  )
         5           Nb1 tau(   5) = (   6.0877360   4.5028044  12.4363212  )
         6           Nb1 tau(   6) = (   2.1527633   1.5922951  12.4363212  )
         7           Pb1 tau(   7) = (   3.0438680   4.5028044  12.4363212  )
         8           Pb1 tau(   8) = (   5.1966313   1.5922951  12.4363212  )
         9           Nb1 tau(   9) = (   4.3055265   3.1845902  14.8726424  )
        10           Nb1 tau(  10) = (   0.3705539   0.2740808  14.8726424  )
        11           Pb1 tau(  11) = (   1.2616586   3.1845902  14.8726424  )
        12           Pb1 tau(  12) = (   3.4144218   0.2740808  14.8726424  )

     number of k points=    20  Fermi-Dirac smearing, width (Ry)=  0.0110
                       cart. coord. in units 2pi/alat
        k(    1) = (   0.0000000   0.0000000   0.0000000), wk =   0.0555556
        k(    2) = (   0.0000000   0.0286319   0.0000000), wk =   0.1111111
        k(    3) = (   0.0000000   0.0572637   0.0000000), wk =   0.1111111
        k(    4) = (   0.0000000  -0.0858956   0.0000000), wk =   0.0555556
        k(    5) = (   0.0273774  -0.0083821   0.0000000), wk =   0.1111111
        k(    6) = (   0.0273774   0.0202498   0.0000000), wk =   0.1111111
        k(    7) = (   0.0273774   0.0488816   0.0000000), wk =   0.1111111
        k(    8) = (   0.0273774  -0.0942777   0.0000000), wk =   0.1111111
        k(    9) = (   0.0273774  -0.0656458   0.0000000), wk =   0.1111111
        k(   10) = (   0.0273774  -0.0370140   0.0000000), wk =   0.1111111
        k(   11) = (   0.0547549  -0.0167642   0.0000000), wk =   0.1111111
        k(   12) = (   0.0547549   0.0118677   0.0000000), wk =   0.1111111
        k(   13) = (   0.0547549   0.0404996   0.0000000), wk =   0.1111111
        k(   14) = (   0.0547549  -0.1026598   0.0000000), wk =   0.1111111
        k(   15) = (   0.0547549  -0.0740279   0.0000000), wk =   0.1111111
        k(   16) = (   0.0547549  -0.0453961   0.0000000), wk =   0.1111111
        k(   17) = (  -0.0821323   0.0251463   0.0000000), wk =   0.0555556
        k(   18) = (  -0.0821323   0.0537782   0.0000000), wk =   0.1111111
        k(   19) = (  -0.0821323   0.0824100   0.0000000), wk =   0.1111111
        k(   20) = (  -0.0821323  -0.0607493   0.0000000), wk =   0.0555556

     Largest allocated arrays     est. size (Mb)     dimensions
     Largest temporary arrays     est. size (Mb)     dimensions

     Check: negative/imaginary core charge=   -0.000001    0.000000

     Initial potential from superposition of free atoms
     Check: negative starting charge=   -0.101768

     starting charge  161.96949, renormalised to  162.00000

     negative rho (up, down):  1.018E-01 0.000E+00

     *
     * You are using vdW-DF for exchange-correlation in this calculation.
     * Please cite the following three references that made this development
     * possible:
     *
     *   M. Dion, H. Rydberg, E. Schroder, D. C. Langreth, and
     *   B. I. Lundqvist, Phys. Rev. Lett. 92, 246401 (2004).
     *
     *   T. Thonhauser, V. R. Cooper, S. Li, A. Puzder, P. Hyldgaard, and
     *   D. C. Langreth, Phys. Rev. B 76, 125112 (2007).
     *
     *   G. Roman-Perez and J. M. Soler, Phys. Rev. Lett. 103, 096102 (2009).
     *
     *
     * If you are using vdW-DF2, please also cite:
     *
     *   K. Lee, E. D. Murray, L. Kong, B. I. Lundqvist, and
     *   D. C. Langreth, Phys. Rev. B 82, 081101(R) (2010).
     *
     *
     * If you are calculating the stress with vdW-DF, please also cite:
     *
     *   R. Sabatini, E. Kucukbenli, B. Kolb, T. Thonhauser, and
     *   S. de Gironcoli, J. Phys.: Condens. Matter 24, 424209 (2012).
     *

     Carrying out vdW-DF run using the following parameters:

     Nqs =      20    Nr_points =    1024   r_max =   100.000
     q_mesh =
               0.00001000     0.04494208     0.09755937     0.15916263
               0.23128650     0.31572767     0.41458969     0.53033537
               0.66584808     0.82450364     1.01025438     1.22772762
               1.48234092     1.78043706     2.12944203     2.53805004
               3.01644009     3.57652955     4.23227104     5.00000000

     Gradients computed in reciprocal space

     Adding external electric field

     Computed dipole along edir(3) :
        Dipole               -0.0000 Ry au,         -0.0001 Debye
        Dipole field         -0.0000 Ry au

        Potential amp.        0.0000 Ry
        Total length         45.8274 bohr

     Starting wfc are  132 randomized atomic wfcs

     Self-consistent Calculation

     iteration #  1     ecut=    36.75 Ry     beta=0.10
     Davidson diagonalization with overlap
     ethr =  1.00E-02,  avg # of iterations =  4.0

[...]

     total energy              =   -1706.72591959 Ry
     Harris-Foulkes estimate   =   -1707.13872171 Ry
     estimated scf accuracy    <       2.51526916 Ry

[...]

     End of self-consistent calculation

          k = 0.0000 0.0000 0.0000 ( 22363 PWs)   bands (ev):

   -53.7836 -53.7832 -53.7782 -53.7781 -53.5761 -53.5710 -29.8926 -29.8916
   -29.8875 -29.8774 -29.8284 -29.8271 -29.7605 -29.7501 -29.7379 -29.7378
   -29.7302 -29.7232 -29.6481 -29.6438 -29.6398 -29.5431 -29.5386 -29.5220
   -15.4212 -15.3895 -15.3613 -15.3418 -15.3381 -15.3363 -15.3269 -15.3131
   -15.2690 -15.1895 -15.1653 -15.1487 -15.1457 -15.1311 -15.1266 -15.1135
   -15.0785 -15.0760 -15.0758 -15.0732 -15.0644 -15.0604 -15.0540 -15.0533
   -15.0458 -15.0448 -14.9829 -14.9500 -14.9450 -14.9166  -8.9760  -7.5791
    -6.8529  -6.4675  -6.2603  -6.0803  -1.6286  -1.3381  -0.8757  -0.6566
    -0.5778  -0.5152  -0.3376   0.0170   0.2004   0.4227   0.5596   0.6049
     0.6743   1.0968   1.1339   1.1971   1.3708   1.3748   1.7076   1.7949
     1.7969   1.7997   1.8059   2.1627   2.2548   2.2841   2.5799   2.5960
     2.6059   2.6895   2.8006   3.0986   3.3324   3.3400   3.4660   3.5224
     3.8348   4.0025   4.1246   4.1740   4.3389   4.6312   4.8461   4.8869
     5.1192   5.2522   5.3152   5.3245   5.8095   5.8430   6.2124

[...]

          k =-0.0821 0.0251 0.0000 ( 22434 PWs)   bands (ev):

[...]

     the Fermi energy is     1.8040 ev

!    total energy              =   -1706.82918413 Ry
     Harris-Foulkes estimate   =   -1706.82919676 Ry
     estimated scf accuracy    <       0.00000049 Ry

     The total energy is the sum of the following terms:

     one-electron contribution =  -10722.56994356 Ry
     hartree contribution      =    5393.80314188 Ry
     xc contribution           =    -506.32990097 Ry
     ewald contribution        =    4128.35157715 Ry
     electric field correction =       0.00000001 Ry
     smearing contrib. (-TS)   =      -0.08405864 Ry

     convergence has been achieved in  17 iterations

 BEEF-vdW xc energy contributions
           1 :   -447.650462758574
           2 :    414.322065324175
           3 :   -355.952748596673
           4 :    285.821686230436
           5 :   -217.478120485487
           6 :    160.582181900339
           7 :   -118.850673704819
           8 :    90.4923633675292
           9 :   -70.5294033523496
          10 :    53.7293091768318
[...]

     Program PWSCF v.5.1rc2 (svn rev. 11289) starts on 18Dec2018 at 20:21:46

[...]

   This run was terminated on:  21:10: 0  18Dec2018

[...]

     Program PWSCF v.5.1rc2 (svn rev. 11289) starts on 18Dec2018 at 21:10: 6

[...]

     Found symmetry operation: I + ( -0.5000 -0.5000  0.0000)
     This is a supercell, fractional translations are disabled

[...]

   This run was terminated on:  23: 4:17  18Dec2018

[...]

     Program PWSCF v.5.1rc2 (svn rev. 11289) starts on 18Dec2018 at 23: 4:23

[...]

     Program PWSCF v.5.1rc2 (svn rev. 11289) starts on 18Dec2018 at 23:20:28

     Current dimensions of program PWSCF are:
     Max number of different atomic species (ntypx) = 10
     Max number of k-points (npk) =  40000
     Max angular momentum in pseudopotentials (lmaxx) =  3
     Presently stress not available with electric field

     IMPORTANT: XC functional enforced from input :
     Exchange-correlation      = BEEF-VDW ( 1  4 27 13 2)
     Any further DFT definition will be discarded
     Please, verify this is what you really want

     Subspace diagonalization in iterative solution of the eigenvalue problem:
     a serial algorithm will be used

     bravais-lattice index     =            0
     lattice parameter (alat)  =       1.8897  a.u.
     unit-cell volume          =    5948.0325 (a.u.)^3
     number of atoms/cell      =           12
     number of atomic types    =            2
     number of electrons       =       162.00
     number of Kohn-Sham states=          111
     kinetic-energy cutoff     =      36.7493  Ry
     charge density cutoff     =     367.4932  Ry
     convergence threshold     =      1.0E-06
     mixing beta               =       0.1000
     number of iterations used =           10  plain     mixing
     Exchange-correlation      = BEEF-VDW ( 1  4 27 13 2)
     nstep                     =           50

     celldm(1)=   1.889726  celldm(2)=   0.000000  celldm(3)=   0.000000
     celldm(4)=   0.000000  celldm(5)=   0.000000  celldm(6)=   0.000000

     crystal axes: (cart. coord. in units of alat)
               a(1) = (   6.087736   0.000000   0.000000 )
               a(2) = (   1.782209   5.821019   0.000000 )
               a(3) = (   0.000000   0.000000  24.872642 )

     reciprocal axes: (cart. coord. in units 2 pi/alat)
               b(1) = (  0.164265 -0.050293  0.000000 )
               b(2) = (  0.000000  0.171791  0.000000 )
               b(3) = (  0.000000  0.000000  0.040205 )

     PseudoPot. # 1 for Nb read from file:
     /afs/slac.stanford.edu/u/if/mamunm/psp/gbrv1.5pbe/Nb.UPF
     MD5 check sum: 573aab8a2fa660278ed4a62cd769473f
     Pseudo is Ultrasoft + core correction, Zval = 13.0
     Generated by new atomic code, or converted to UPF format
     Using radial grid of  887 points,  6 beta functions with:
                l(1) =   0
                l(2) =   0
                l(3) =   1
                l(4) =   1
                l(5) =   2
                l(6) =   2
     Q(r) pseudized with  6 coefficients,  rinner =    1.000   1.000   1.000
                                                       1.000   1.000

     PseudoPot. # 2 for Pb read from file:
     /afs/slac.stanford.edu/u/if/mamunm/psp/gbrv1.5pbe/Pb.UPF
     MD5 check sum: 3d1c1779aa92214d1e8f3a7db79003e2
     Pseudo is Ultrasoft + core correction, Zval = 14.0
     Generated by new atomic code, or converted to UPF format
     Using radial grid of  899 points,  6 beta functions with:
                l(1) =   0
                l(2) =   0
                l(3) =   1
                l(4) =   1
                l(5) =   2
                l(6) =   2
     Q(r) pseudized with  6 coefficients,  rinner =    1.000   1.000   1.000
                                                       1.000   1.000

     vdW kernel table read from file vdW_kernel_table
     MD5 check sum: 095c7af220d748ca6e76c0b4c6cfb241

     atomic species   valence    mass     pseudopotential
        Nb1           13.00    92.90637     Nb( 1.00)
        Pb1           14.00   207.20000     Pb( 1.00)

     No symmetry found

   Cartesian axes

     site n.     atom                  positions (alat units)
         1           Nb1 tau(   1) = (   0.0000000   0.0000000  10.0000000  )
         2           Nb1 tau(   2) = (   3.9349727   2.9105094  10.0000000  )
         3           Pb1 tau(   3) = (   3.0438680   0.0000000  10.0000000  )
         4           Pb1 tau(   4) = (   0.8911047   2.9105094  10.0000000  )
         5           Nb1 tau(   5) = (   6.0877360   4.5028044  12.4363212  )
         6           Nb1 tau(   6) = (   2.1527633   1.5922951  12.4363212  )
         7           Pb1 tau(   7) = (   3.0438680   4.5028044  12.4363212  )
         8           Pb1 tau(   8) = (   5.1966313   1.5922951  12.4363212  )
         9           Nb1 tau(   9) = (   4.7615253   3.5218742  14.5758578  )
        10           Nb1 tau(  10) = (   0.8266758   0.6114869  14.5757713  )
        11           Pb1 tau(  11) = (   1.6405003   3.4649772  15.2431298  )
        12           Pb1 tau(  12) = (   3.7933615   0.5542727  15.2431559  )

     number of k points=    20  Fermi-Dirac smearing, width (Ry)=  0.0110
                       cart. coord. in units 2pi/alat
        k(    1) = (   0.0000000   0.0000000   0.0000000), wk =   0.0555556
        k(    2) = (   0.0000000   0.0286319   0.0000000), wk =   0.1111111
        k(    3) = (   0.0000000   0.0572637   0.0000000), wk =   0.1111111
        k(    4) = (   0.0000000  -0.0858956   0.0000000), wk =   0.0555556
        k(    5) = (   0.0273774  -0.0083821   0.0000000), wk =   0.1111111
        k(    6) = (   0.0273774   0.0202498   0.0000000), wk =   0.1111111
        k(    7) = (   0.0273774   0.0488816   0.0000000), wk =   0.1111111
        k(    8) = (   0.0273774  -0.0942777   0.0000000), wk =   0.1111111
        k(    9) = (   0.0273774  -0.0656458   0.0000000), wk =   0.1111111
        k(   10) = (   0.0273774  -0.0370140   0.0000000), wk =   0.1111111
        k(   11) = (   0.0547549  -0.0167642   0.0000000), wk =   0.1111111
        k(   12) = (   0.0547549   0.0118677   0.0000000), wk =   0.1111111
        k(   13) = (   0.0547549   0.0404996   0.0000000), wk =   0.1111111
        k(   14) = (   0.0547549  -0.1026598   0.0000000), wk =   0.1111111
        k(   15) = (   0.0547549  -0.0740279   0.0000000), wk =   0.1111111
        k(   16) = (   0.0547549  -0.0453961   0.0000000), wk =   0.1111111
        k(   17) = (  -0.0821323   0.0251463   0.0000000), wk =   0.0555556
        k(   18) = (  -0.0821323   0.0537782   0.0000000), wk =   0.1111111
        k(   19) = (  -0.0821323   0.0824100   0.0000000), wk =   0.1111111
        k(   20) = (  -0.0821323  -0.0607493   0.0000000), wk =   0.0555556

     Largest allocated arrays     est. size (Mb)     dimensions
     Largest temporary arrays     est. size (Mb)     dimensions

     Check: negative/imaginary core charge=   -0.000001    0.000000

     Initial potential from superposition of free atoms
     Check: negative starting charge=   -0.100854

     starting charge  161.96949, renormalised to  162.00000

[...]

     *
     * You are using vdW-DF for exchange-correlation in this calculation.
     * Please cite the following three references that made this development
     * possible:
     *
     *   M. Dion, H. Rydberg, E. Schroder, D. C. Langreth, and
     *   B. I. Lundqvist, Phys. Rev. Lett. 92, 246401 (2004).
     *
     *   T. Thonhauser, V. R. Cooper, S. Li, A. Puzder, P. Hyldgaard, and
     *   D. C. Langreth, Phys. Rev. B 76, 125112 (2007).
     *
     *   G. Roman-Perez and J. M. Soler, Phys. Rev. Lett. 103, 096102 (2009).
     *
     *
     * If you are using vdW-DF2, please also cite:
     *
     *   K. Lee, E. D. Murray, L. Kong, B. I. Lundqvist, and
     *   D. C. Langreth, Phys. Rev. B 82, 081101(R) (2010).
     *
     *
     * If you are calculating the stress with vdW-DF, please also cite:
     *
     *   R. Sabatini, E. Kucukbenli, B. Kolb, T. Thonhauser, and
     *   S. de Gironcoli, J. Phys.: Condens. Matter 24, 424209 (2012).
     *

     Carrying out vdW-DF run using the following parameters:

     Nqs =      20    Nr_points =    1024   r_max =   100.000
     q_mesh =
               0.00001000     0.04494208     0.09755937     0.15916263
               0.23128650     0.31572767     0.41458969     0.53033537
               0.66584808     0.82450364     1.01025438     1.22772762
               1.48234092     1.78043706     2.12944203     2.53805004
               3.01644009     3.57652955     4.23227104     5.00000000

     Gradients computed in reciprocal space

[...]

     Starting wfc are  132 randomized atomic wfcs

     Self-consistent Calculation

[...]

     total energy              =   -1706.90792854 Ry
     Harris-Foulkes estimate   =   -1706.90792633 Ry
     estimated scf accuracy    <       0.00000112 Ry

     iteration # 18     ecut=    36.75 Ry     beta=0.10
     Davidson diagonalization with overlap
     ethr =  6.91E-10,  avg # of iterations =  2.0

[...]

     negative rho (up, down):  1.143E-01 0.000E+00

     Adding external electric field

     Computed dipole along edir(3) :
        Dipole               -0.0080 Ry au,         -0.0203 Debye
        Dipole field         -0.0000 Ry au

        Potential amp.        0.0015 Ry
        Total length         45.8274 bohr

     End of self-consistent calculation

[...]

          k = 0.0548-0.0454 0.0000 ( 22384 PWs)   bands (ev):

[...]

          k =-0.0821-0.0607 0.0000 ( 22388 PWs)   bands (ev):

   -53.7806 -53.7757 -53.5832 -53.5788 -53.4888 -53.4828 -29.9022 -29.8847
   -29.8395 -29.8384 -29.8297 -29.7472 -29.7360 -29.7163 -29.6972 -29.6939
   -29.6709 -29.6023 -29.6009 -29.5965 -29.5922 -29.5121 -29.1303 -29.1247
   -15.4979 -15.4463 -15.4422 -15.4084 -15.4038 -15.4020 -15.3863 -15.3812
   -15.3528 -15.2692 -15.2479 -15.2443 -15.1953 -15.1887 -15.1809 -15.1769
   -15.1652 -15.1574 -15.1506 -15.1436 -15.1376 -15.1242 -15.0965 -15.0951
   -15.0841 -15.0717 -15.0663 -15.0546 -15.0176 -14.9685  -7.8840  -7.2778
    -7.2163  -6.7180  -6.0480  -5.0679  -3.1246  -2.9198  -2.3899  -1.8173
    -1.5932  -1.5530  -1.2076  -0.9979  -0.3983   0.1287   0.1567   0.2707
     0.4187   0.4862   0.6150   0.8663   1.0204   1.3953   1.6225   1.7308
     1.8221   2.0765   2.1200   2.3343   2.3523   2.5644   2.7400   2.8059
     2.8140   3.1398   3.4161   3.4208   3.7339   3.7450   3.8478   3.9269
     4.3222   4.5307   4.5509   5.0053   5.1847   5.5288   5.7150   6.0821
     6.4008   6.5636   6.5722   6.7914   6.8831   6.9573   7.0234

     the Fermi energy is     1.8040 ev

!    total energy              =   -1706.90792276 Ry
     Harris-Foulkes estimate   =   -1706.90792879 Ry
     estimated scf accuracy    <       0.00000055 Ry

     The total energy is the sum of the following terms:

     one-electron contribution =  -10627.74653030 Ry
     hartree contribution      =    5346.33139005 Ry
     xc contribution           =    -506.38981537 Ry
     ewald contribution        =    4080.97589763 Ry
     electric field correction =       0.00000014 Ry
     smearing contrib. (-TS)   =      -0.07886491 Ry

     convergence has been achieved in  18 iterations

 BEEF-vdW xc energy contributions
           1 :   -447.705712300690
           2 :    414.338682089457
           3 :   -355.914696218733
           4 :    285.735730728510
           5 :   -217.355817508781
           6 :    160.420208970569
           7 :   -118.615172024985
           8 :    90.1236260535165
           9 :   -69.9807543671451
          10 :    53.0236111393988
          11 :   -36.1317349698180
          12 :    18.9640680030715
          13 :   -3.22557095098114
          14 :   -8.87420263526934
          15 :    16.0572626204873
          16 :   -18.6461201034785
          17 :    18.2858966333797
          18 :   -17.0426592660590
          19 :    16.4338670438179
          20 :   -16.8912776108110
          21 :    17.8461027562387
          22 :   -18.2908980867911
          23 :    17.4521808755587
          24 :   -15.2212881320808
          25 :    12.1657869784451
          26 :   -9.18986887907903
          27 :    7.06877610245328
          28 :   -6.10971727759085
          29 :    6.08228636257309
          30 :   -6.41213978531016
          31 :   -39.1968553916118
          32 :   -29.0770430077843

     Forces acting on atoms (Ry/au):

     negative rho (up, down):  1.143E-01 0.000E+00
     atom    1 type  1   force =     0.00025362    0.00018757    0.05029423
     atom    2 type  1   force =     0.00025877    0.00019115    0.05028901
     atom    3 type  2   force =     0.00030115    0.00021907   -0.04986360
     atom    4 type  2   force =     0.00029871    0.00022506   -0.04986227
     atom    5 type  1   force =     0.00185274    0.00137170    0.01667242
     atom    6 type  1   force =     0.00186155    0.00137668    0.01667423
     atom    7 type  2   force =    -0.00324701   -0.00241284   -0.01902134
     atom    8 type  2   force =    -0.00325798   -0.00239602   -0.01901865
     atom    9 type  1   force =     0.00044751    0.00033142    0.00123190
     atom   10 type  1   force =     0.00044220    0.00032655    0.00125165
     atom   11 type  2   force =     0.00039530    0.00028528    0.00067594
     atom   12 type  2   force =     0.00039343    0.00029438    0.00067648

     Total force =     0.106581     Total SCF correction =     0.003263

     entering subroutine stress ...

     negative rho (up, down):  1.143E-01 0.000E+00
          total   stress  (Ry/bohr**3)                   (kbar)     P=  -11.18
  -0.00011983  -0.00001402   0.00000097        -17.63     -2.06      0.14
  -0.00001402  -0.00011125   0.00000072         -2.06    -16.36      0.11
   0.00000097   0.00000072   0.00000301          0.14      0.11      0.44

 !ASE

     Writing output data file calc.save

     General routines

     Parallel routines

   This run was terminated on:  23:36:56  18Dec2018

   JOB DONE.
Job  /afs/slac/g/suncat/bin/suncat-tsmpirun -x LD_LIBRARY_PATH -wdir /scratch/qe530301_Ngae9 pw.x -in pw.inp

TID   HOST_NAME   COMMAND_LINE            STATUS            TERMINATION_TIME
00000 suncat2028 pw.x -in pw.inp   Done                     12/18/2018 23:36:56
00001 suncat2028 pw.x -in pw.inp   Done                     12/18/2018 23:36:56
00002 suncat2028 pw.x -in pw.inp   Done                     12/18/2018 23:36:56
00003 suncat2028 pw.x -in pw.inp   Done                     12/18/2018 23:36:56
00004 suncat2028 pw.x -in pw.inp   Done                     12/18/2018 23:36:56
00005 suncat2028 pw.x -in pw.inp   Done                     12/18/2018 23:36:56
00006 suncat2028 pw.x -in pw.inp   Done                     12/18/2018 23:36:56
00007 suncat2028 pw.x -in pw.inp   Done                     12/18/2018 23:36:56
00008 suncat2028 pw.x -in pw.inp   Done                     12/18/2018 23:36:56
00009 suncat2028 pw.x -in pw.inp   Done                     12/18/2018 23:36:56
00010 suncat2028 pw.x -in pw.inp   Done                     12/18/2018 23:36:56
00011 suncat2028 pw.x -in pw.inp   Done                     12/18/2018 23:36:56
00012 suncat2028 pw.x -in pw.inp   Done                     12/18/2018 23:36:56
00013 suncat2028 pw.x -in pw.inp   Done                     12/18/2018 23:36:56
00014 suncat2028 pw.x -in pw.inp   Done                     12/18/2018 23:36:56
00015 suncat2028 pw.x -in pw.inp   Done                     12/18/2018 23:36:56
00016 suncat2027 pw.x -in pw.inp   Done                     12/18/2018 23:36:56
00017 suncat2027 pw.x -in pw.inp   Done                     12/18/2018 23:36:56
00018 suncat2027 pw.x -in pw.inp   Done                     12/18/2018 23:36:56
00019 suncat2027 pw.x -in pw.inp   Done                     12/18/2018 23:36:56
00020 suncat2027 pw.x -in pw.inp   Done                     12/18/2018 23:36:56
00021 suncat2027 pw.x -in pw.inp   Done                     12/18/2018 23:36:56
00022 suncat2027 pw.x -in pw.inp   Done                     12/18/2018 23:36:56
00023 suncat2027 pw.x -in pw.inp   Done                     12/18/2018 23:36:56
00024 suncat2027 pw.x -in pw.inp   Done                     12/18/2018 23:36:56
00025 suncat2027 pw.x -in pw.inp   Done                     12/18/2018 23:36:56
00026 suncat2027 pw.x -in pw.inp   Done                     12/18/2018 23:36:56
00027 suncat2027 pw.x -in pw.inp   Done                     12/18/2018 23:36:56
00028 suncat2027 pw.x -in pw.inp   Done                     12/18/2018 23:36:56
00029 suncat2027 pw.x -in pw.inp   Done                     12/18/2018 23:36:56
00030 suncat2027 pw.x -in pw.inp   Done                     12/18/2018 23:36:56
00031 suncat2027 pw.x -in pw.inp   Done                     12/18/2018 23:36:56