     Program PWSCF v.5.1rc2 (svn rev. 11289) starts on 18Dec2018 at 19:22:40

     Current dimensions of program PWSCF are:
     Max number of different atomic species (ntypx) = 10
     Max number of k-points (npk) =  40000
     Max angular momentum in pseudopotentials (lmaxx) =  3
     Presently stress not available with electric field

     IMPORTANT: XC functional enforced from input :
     Exchange-correlation      = BEEF-VDW ( 1  4 27 13 2)
     Any further DFT definition will be discarded
     Please, verify this is what you really want

     Subspace diagonalization in iterative solution of the eigenvalue problem:
     a serial algorithm will be used

     Found symmetry operation: I + ( -0.5000  0.5000  0.0000)
     This is a supercell, fractional translations are disabled

     bravais-lattice index     =            0
     lattice parameter (alat)  =       1.8897  a.u.
     unit-cell volume          =    4368.9112 (a.u.)^3
     number of atoms/cell      =           12
     number of atomic types    =            2
     number of electrons       =       180.00
     number of Kohn-Sham states=          120
     kinetic-energy cutoff     =      36.7493  Ry
     charge density cutoff     =     367.4932  Ry
     convergence threshold     =      1.0E-06
     mixing beta               =       0.1000
     number of iterations used =           10  plain     mixing
     Exchange-correlation      = BEEF-VDW ( 1  4 27 13 2)
     nstep                     =           50

     celldm(1)=   1.889726  celldm(2)=   0.000000  celldm(3)=   0.000000
     celldm(4)=   0.000000  celldm(5)=   0.000000  celldm(6)=   0.000000

     crystal axes: (cart. coord. in units of alat)
               a(1) = (   5.499859   0.000000   0.000000 )
               a(2) = (   2.679543   4.802968   0.000000 )
               a(3) = (   0.000000   0.000000  24.508419 )

     reciprocal axes: (cart. coord. in units 2 pi/alat)
               b(1) = (  0.181823 -0.101438  0.000000 )
               b(2) = (  0.000000  0.208205  0.000000 )
               b(3) = (  0.000000  0.000000  0.040802 )

     PseudoPot. # 1 for Mo read from file:
     /afs/slac.stanford.edu/u/if/mamunm/psp/gbrv1.5pbe/Mo.UPF
     MD5 check sum: 30c4dcd161f5d35cd49bb5239c51a633
     Pseudo is Ultrasoft + core correction, Zval = 14.0
     Generated by new atomic code, or converted to UPF format
     Using radial grid of  889 points,  6 beta functions with:
                l(1) =   0
                l(2) =   0
                l(3) =   1
                l(4) =   1
                l(5) =   2
                l(6) =   2
     Q(r) pseudized with  6 coefficients,  rinner =    1.000   1.000   1.000
                                                       1.000   1.000

     PseudoPot. # 2 for Ru read from file:
     /afs/slac.stanford.edu/u/if/mamunm/psp/gbrv1.5pbe/Ru.UPF
     MD5 check sum: 7158a806dd851261a58e6920c40ebe78
     Pseudo is Ultrasoft + core correction, Zval = 16.0
     Generated by new atomic code, or converted to UPF format
     Using radial grid of  967 points,  6 beta functions with:
                l(1) =   0
                l(2) =   0
                l(3) =   1
                l(4) =   1
                l(5) =   2
                l(6) =   2
     Q(r) pseudized with  8 coefficients,  rinner =    1.300   1.300   1.300
                                                       1.300   1.300

     vdW kernel table read from file vdW_kernel_table
     MD5 check sum: 095c7af220d748ca6e76c0b4c6cfb241

     atomic species   valence    mass     pseudopotential
        Mo1           14.00    95.95000     Mo( 1.00)
        Ru1           16.00   101.07000     Ru( 1.00)

     No symmetry found

   Cartesian axes

     site n.     atom                  positions (alat units)
         1           Mo1 tau(   1) = (   0.0000000   0.0000000  10.0000000  )
         2           Mo1 tau(   2) = (   4.0897010   2.4014842  10.0000000  )
         3           Ru1 tau(   3) = (   2.7499297   0.0000000  10.0000000  )
         4           Ru1 tau(   4) = (   1.3397713   2.4014842  10.0000000  )
         5           Mo1 tau(   5) = (   5.4998595   3.2295333  12.2542096  )
         6           Mo1 tau(   6) = (   1.4101584   0.8280491  12.2542096  )
         7           Ru1 tau(   7) = (   2.7499297   3.2295333  12.2542096  )
         8           Ru1 tau(   8) = (   4.1600881   0.8280491  12.2542096  )
         9           Mo1 tau(   9) = (   2.8203168   1.6560981  14.5084193  )
        10           Mo1 tau(  10) = (   6.9100179   4.0575823  14.5084193  )
        11           Ru1 tau(  11) = (   5.5702466   1.6560981  14.5084193  )
        12           Ru1 tau(  12) = (   4.1600881   4.0575823  14.5084193  )

     number of k points=    20  Fermi-Dirac smearing, width (Ry)=  0.0110
                       cart. coord. in units 2pi/alat
        k(    1) = (   0.0000000   0.0000000   0.0000000), wk =   0.0555556
        k(    2) = (   0.0000000   0.0347008   0.0000000), wk =   0.1111111
        k(    3) = (   0.0000000   0.0694015   0.0000000), wk =   0.1111111
        k(    4) = (   0.0000000  -0.1041023   0.0000000), wk =   0.0555556
        k(    5) = (   0.0303038  -0.0169063   0.0000000), wk =   0.1111111
        k(    6) = (   0.0303038   0.0177945   0.0000000), wk =   0.1111111
        k(    7) = (   0.0303038   0.0524952   0.0000000), wk =   0.1111111
        k(    8) = (   0.0303038  -0.1210086   0.0000000), wk =   0.1111111
        k(    9) = (   0.0303038  -0.0863078   0.0000000), wk =   0.1111111
        k(   10) = (   0.0303038  -0.0516070   0.0000000), wk =   0.1111111
        k(   11) = (   0.0606076  -0.0338126   0.0000000), wk =   0.1111111
        k(   12) = (   0.0606076   0.0008882   0.0000000), wk =   0.1111111
        k(   13) = (   0.0606076   0.0355890   0.0000000), wk =   0.1111111
        k(   14) = (   0.0606076  -0.1379149   0.0000000), wk =   0.1111111
        k(   15) = (   0.0606076  -0.1032141   0.0000000), wk =   0.1111111
        k(   16) = (   0.0606076  -0.0685133   0.0000000), wk =   0.1111111
        k(   17) = (  -0.0909114   0.0507188   0.0000000), wk =   0.0555556
        k(   18) = (  -0.0909114   0.0854196   0.0000000), wk =   0.1111111
        k(   19) = (  -0.0909114   0.1201204   0.0000000), wk =   0.1111111
        k(   20) = (  -0.0909114  -0.0533834   0.0000000), wk =   0.0555556

     Largest allocated arrays     est. size (Mb)     dimensions
     Largest temporary arrays     est. size (Mb)     dimensions

     Initial potential from superposition of free atoms
     Check: negative starting charge=   -0.440093

     starting charge  173.99353, renormalised to  180.00000

     negative rho (up, down):  4.553E-01 0.000E+00

     *
     * You are using vdW-DF for exchange-correlation in this calculation.
     * Please cite the following three references that made this development
     * possible:
     *
     *   M. Dion, H. Rydberg, E. Schroder, D. C. Langreth, and
     *   B. I. Lundqvist, Phys. Rev. Lett. 92, 246401 (2004).
     *
     *   T. Thonhauser, V. R. Cooper, S. Li, A. Puzder, P. Hyldgaard, and
     *   D. C. Langreth, Phys. Rev. B 76, 125112 (2007).
     *
     *   G. Roman-Perez and J. M. Soler, Phys. Rev. Lett. 103, 096102 (2009).
     *
     *
     * If you are using vdW-DF2, please also cite:
     *
     *   K. Lee, E. D. Murray, L. Kong, B. I. Lundqvist, and
     *   D. C. Langreth, Phys. Rev. B 82, 081101(R) (2010).
     *
     *
     * If you are calculating the stress with vdW-DF, please also cite:
     *
     *   R. Sabatini, E. Kucukbenli, B. Kolb, T. Thonhauser, and
     *   S. de Gironcoli, J. Phys.: Condens. Matter 24, 424209 (2012).
     *

     Carrying out vdW-DF run using the following parameters:

     Nqs =      20    Nr_points =    1024   r_max =   100.000
     q_mesh =
               0.00001000     0.04494208     0.09755937     0.15916263
               0.23128650     0.31572767     0.41458969     0.53033537
               0.66584808     0.82450364     1.01025438     1.22772762
               1.48234092     1.78043706     2.12944203     2.53805004
               3.01644009     3.57652955     4.23227104     5.00000000

     Gradients computed in reciprocal space

     Adding external electric field

     Computed dipole along edir(3) :
        Dipole               -0.0000 Ry au,         -0.0000 Debye
        Dipole field         -0.0000 Ry au

        Potential amp.        0.0000 Ry
        Total length         45.1563 bohr

     Starting wfc are  156 randomized atomic wfcs

     Self-consistent Calculation

     iteration #  1     ecut=    36.75 Ry     beta=0.10
     Davidson diagonalization with overlap
     ethr =  1.00E-02,  avg # of iterations =  2.8

[...]

     total energy              =   -2011.01136889 Ry
     Harris-Foulkes estimate   =   -2011.60795840 Ry
     estimated scf accuracy    <       4.00885080 Ry

[...]

     End of self-consistent calculation

          k = 0.0000 0.0000 0.0000 ( 16359 PWs)   bands (ev):

   -70.5465 -70.5099 -70.1721 -70.1716 -70.1357 -70.1353 -58.9466 -58.8597
   -58.8571 -58.8461 -58.7718 -58.7616 -40.6618 -40.5852 -40.5403 -40.5283
   -40.4792 -40.3000 -40.2968 -40.2743 -40.1771 -40.1576 -40.1298 -40.1297
   -40.1094 -40.1070 -40.0908 -40.0691 -39.9147 -39.9146 -33.3151 -33.1701
   -33.1329 -33.1200 -33.0886 -32.9618 -32.9613 -32.8954 -32.8779 -32.8699
   -32.8378 -32.7986 -32.7700 -32.6351 -32.5689 -32.5664 -32.3899 -32.3856
    -4.0113  -2.7098  -2.6990  -2.6421  -2.6103  -2.6094  -2.2894  -2.2685
    -2.2432  -2.0813  -2.0759  -2.0023  -1.7336  -1.7241  -1.7180  -0.6225
    -0.6069  -0.5383   0.0517   0.0692   0.1969   0.4033   0.4966   0.4998
     0.7838   0.8849   0.9843   1.0433   1.0691   1.2773   1.2832   1.5086
     1.6413   1.8642   1.9745   2.0879   2.2813   2.5096   2.5443   2.5945
     2.8017   3.0797   3.2183   3.2544   3.3859   3.4849   3.6828   4.0103
     4.0567   4.1884   4.4735   4.5160   4.7227   4.7232   4.7782   4.8381
     4.9052   4.9061   4.9517   4.9943   5.0014   5.4319   5.6498   5.7114
     5.7378   5.9548   6.1202   6.4903   6.7055   6.9163   7.1054   7.1562

[...]

          k =-0.0909 0.0507 0.0000 ( 16420 PWs)   bands (ev):

[...]

     the Fermi energy is     2.3695 ev

!    total energy              =   -2010.35493640 Ry
     Harris-Foulkes estimate   =   -2010.35493575 Ry
     estimated scf accuracy    <       0.00000099 Ry

     The total energy is the sum of the following terms:

     one-electron contribution =  -18302.22298560 Ry
     hartree contribution      =    9147.89450857 Ry
     xc contribution           =    -280.89928468 Ry
     ewald contribution        =    7424.95905815 Ry
     electric field correction =       0.00000000 Ry
     smearing contrib. (-TS)   =      -0.08623283 Ry

     convergence has been achieved in  16 iterations

 BEEF-vdW xc energy contributions
           1 :   -242.667507484845
           2 :    222.379490742804
           3 :   -187.373348434675
           4 :    146.546209011656
           5 :   -108.931716244720
           6 :    80.8567942403531
           7 :   -64.4764014505803
           8 :    57.9815620827923
           9 :   -57.1409908054407
[...]
00030 suncat2047 pw.x -in pw.inp   Done                     12/18/2018 19:26:46
00031 suncat2047 pw.x -in pw.inp   Done                     12/18/2018 19:26:46

[...]

   This run was terminated on:  19:31: 7  18Dec2018

[...]

     Total force =     0.056184     Total SCF correction =     0.002362

[...]

     Program PWSCF v.5.1rc2 (svn rev. 11289) starts on 18Dec2018 at 19:35:59

     Current dimensions of program PWSCF are:
     Max number of different atomic species (ntypx) = 10
     Max number of k-points (npk) =  40000
     Max angular momentum in pseudopotentials (lmaxx) =  3
     Presently stress not available with electric field

     IMPORTANT: XC functional enforced from input :
     Exchange-correlation      = BEEF-VDW ( 1  4 27 13 2)
     Any further DFT definition will be discarded
     Please, verify this is what you really want

     Subspace diagonalization in iterative solution of the eigenvalue problem:
     a serial algorithm will be used

     Found symmetry operation: I + ( -0.5000  0.5000  0.0000)
     This is a supercell, fractional translations are disabled

     bravais-lattice index     =            0
     lattice parameter (alat)  =       1.8897  a.u.
     unit-cell volume          =    4368.9112 (a.u.)^3
     number of atoms/cell      =           12
     number of atomic types    =            2
     number of electrons       =       180.00
     number of Kohn-Sham states=          120
     kinetic-energy cutoff     =      36.7493  Ry
     charge density cutoff     =     367.4932  Ry
     convergence threshold     =      1.0E-06
     mixing beta               =       0.1000
     number of iterations used =           10  plain     mixing
     Exchange-correlation      = BEEF-VDW ( 1  4 27 13 2)
     nstep                     =           50

     celldm(1)=   1.889726  celldm(2)=   0.000000  celldm(3)=   0.000000
     celldm(4)=   0.000000  celldm(5)=   0.000000  celldm(6)=   0.000000

     crystal axes: (cart. coord. in units of alat)
               a(1) = (   5.499859   0.000000   0.000000 )
               a(2) = (   2.679543   4.802968   0.000000 )
               a(3) = (   0.000000   0.000000  24.508419 )

     reciprocal axes: (cart. coord. in units 2 pi/alat)
               b(1) = (  0.181823 -0.101438  0.000000 )
               b(2) = (  0.000000  0.208205  0.000000 )
               b(3) = (  0.000000  0.000000  0.040802 )

     PseudoPot. # 1 for Mo read from file:
     /afs/slac.stanford.edu/u/if/mamunm/psp/gbrv1.5pbe/Mo.UPF
     MD5 check sum: 30c4dcd161f5d35cd49bb5239c51a633
     Pseudo is Ultrasoft + core correction, Zval = 14.0
     Generated by new atomic code, or converted to UPF format
     Using radial grid of  889 points,  6 beta functions with:
                l(1) =   0
                l(2) =   0
                l(3) =   1
                l(4) =   1
                l(5) =   2
                l(6) =   2
     Q(r) pseudized with  6 coefficients,  rinner =    1.000   1.000   1.000
                                                       1.000   1.000

     PseudoPot. # 2 for Ru read from file:
     /afs/slac.stanford.edu/u/if/mamunm/psp/gbrv1.5pbe/Ru.UPF
     MD5 check sum: 7158a806dd851261a58e6920c40ebe78
     Pseudo is Ultrasoft + core correction, Zval = 16.0
     Generated by new atomic code, or converted to UPF format
     Using radial grid of  967 points,  6 beta functions with:
                l(1) =   0
                l(2) =   0
                l(3) =   1
                l(4) =   1
                l(5) =   2
                l(6) =   2
     Q(r) pseudized with  8 coefficients,  rinner =    1.300   1.300   1.300
                                                       1.300   1.300

     vdW kernel table read from file vdW_kernel_table
     MD5 check sum: 095c7af220d748ca6e76c0b4c6cfb241

     atomic species   valence    mass     pseudopotential
        Mo1           14.00    95.95000     Mo( 1.00)
        Ru1           16.00   101.07000     Ru( 1.00)

     No symmetry found

   Cartesian axes

     site n.     atom                  positions (alat units)
         1           Mo1 tau(   1) = (   0.0000000   0.0000000  10.0000000  )
         2           Mo1 tau(   2) = (   4.0897010   2.4014842  10.0000000  )
         3           Ru1 tau(   3) = (   2.7499297   0.0000000  10.0000000  )
         4           Ru1 tau(   4) = (   1.3397713   2.4014842  10.0000000  )
         5           Mo1 tau(   5) = (   5.4998595   3.2295333  12.2542096  )
         6           Mo1 tau(   6) = (   1.4101584   0.8280491  12.2542096  )
         7           Ru1 tau(   7) = (   2.7499297   3.2295333  12.2542096  )
         8           Ru1 tau(   8) = (   4.1600881   0.8280491  12.2542096  )
         9           Mo1 tau(   9) = (   2.8105518   1.6503638  14.3748973  )
        10           Mo1 tau(  10) = (   6.9002517   4.0518476  14.3748974  )
        11           Ru1 tau(  11) = (   5.5541485   1.6466451  14.4304406  )
        12           Ru1 tau(  12) = (   4.1439897   4.0481297  14.4304400  )

     number of k points=    20  Fermi-Dirac smearing, width (Ry)=  0.0110
                       cart. coord. in units 2pi/alat
        k(    1) = (   0.0000000   0.0000000   0.0000000), wk =   0.0555556
        k(    2) = (   0.0000000   0.0347008   0.0000000), wk =   0.1111111
        k(    3) = (   0.0000000   0.0694015   0.0000000), wk =   0.1111111
        k(    4) = (   0.0000000  -0.1041023   0.0000000), wk =   0.0555556
        k(    5) = (   0.0303038  -0.0169063   0.0000000), wk =   0.1111111
        k(    6) = (   0.0303038   0.0177945   0.0000000), wk =   0.1111111
        k(    7) = (   0.0303038   0.0524952   0.0000000), wk =   0.1111111
        k(    8) = (   0.0303038  -0.1210086   0.0000000), wk =   0.1111111
        k(    9) = (   0.0303038  -0.0863078   0.0000000), wk =   0.1111111
        k(   10) = (   0.0303038  -0.0516070   0.0000000), wk =   0.1111111
        k(   11) = (   0.0606076  -0.0338126   0.0000000), wk =   0.1111111
        k(   12) = (   0.0606076   0.0008882   0.0000000), wk =   0.1111111
        k(   13) = (   0.0606076   0.0355890   0.0000000), wk =   0.1111111
        k(   14) = (   0.0606076  -0.1379149   0.0000000), wk =   0.1111111
        k(   15) = (   0.0606076  -0.1032141   0.0000000), wk =   0.1111111
        k(   16) = (   0.0606076  -0.0685133   0.0000000), wk =   0.1111111
        k(   17) = (  -0.0909114   0.0507188   0.0000000), wk =   0.0555556
        k(   18) = (  -0.0909114   0.0854196   0.0000000), wk =   0.1111111
        k(   19) = (  -0.0909114   0.1201204   0.0000000), wk =   0.1111111
        k(   20) = (  -0.0909114  -0.0533834   0.0000000), wk =   0.0555556

     Largest allocated arrays     est. size (Mb)     dimensions
     Largest temporary arrays     est. size (Mb)     dimensions

     Initial potential from superposition of free atoms
     Check: negative starting charge=   -0.439430

     starting charge  173.99353, renormalised to  180.00000

[...]

     *
     * You are using vdW-DF for exchange-correlation in this calculation.
     * Please cite the following three references that made this development
     * possible:
     *
     *   M. Dion, H. Rydberg, E. Schroder, D. C. Langreth, and
     *   B. I. Lundqvist, Phys. Rev. Lett. 92, 246401 (2004).
     *
     *   T. Thonhauser, V. R. Cooper, S. Li, A. Puzder, P. Hyldgaard, and
     *   D. C. Langreth, Phys. Rev. B 76, 125112 (2007).
     *
     *   G. Roman-Perez and J. M. Soler, Phys. Rev. Lett. 103, 096102 (2009).
     *
     *
     * If you are using vdW-DF2, please also cite:
     *
     *   K. Lee, E. D. Murray, L. Kong, B. I. Lundqvist, and
     *   D. C. Langreth, Phys. Rev. B 82, 081101(R) (2010).
     *
     *
     * If you are calculating the stress with vdW-DF, please also cite:
     *
     *   R. Sabatini, E. Kucukbenli, B. Kolb, T. Thonhauser, and
     *   S. de Gironcoli, J. Phys.: Condens. Matter 24, 424209 (2012).
     *

     Carrying out vdW-DF run using the following parameters:

     Nqs =      20    Nr_points =    1024   r_max =   100.000
     q_mesh =
               0.00001000     0.04494208     0.09755937     0.15916263
               0.23128650     0.31572767     0.41458969     0.53033537
               0.66584808     0.82450364     1.01025438     1.22772762
               1.48234092     1.78043706     2.12944203     2.53805004
               3.01644009     3.57652955     4.23227104     5.00000000

     Gradients computed in reciprocal space

[...]

     Starting wfc are  156 randomized atomic wfcs

     Self-consistent Calculation

[...]

     total energy              =   -2010.36783457 Ry
     Harris-Foulkes estimate   =   -2010.36783437 Ry
     estimated scf accuracy    <       0.00000416 Ry

     iteration # 17     ecut=    36.75 Ry     beta=0.10
     Davidson diagonalization with overlap
     ethr =  2.11E-09,  avg # of iterations =  1.0

[...]

     negative rho (up, down):  4.596E-01 0.000E+00

     Adding external electric field

     Computed dipole along edir(3) :
        Dipole                0.0396 Ry au,          0.1006 Debye
        Dipole field          0.0001 Ry au

        Potential amp.       -0.0103 Ry
        Total length         45.1563 bohr

     End of self-consistent calculation

[...]

          k = 0.0606-0.0685 0.0000 ( 16456 PWs)   bands (ev):

[...]

          k =-0.0909-0.0534 0.0000 ( 16412 PWs)   bands (ev):

   -70.5810 -70.5443 -70.1580 -70.1546 -70.1216 -70.1183 -58.9276 -58.8736
   -58.8400 -58.7874 -58.7602 -58.6733 -40.7088 -40.6365 -40.5930 -40.5473
   -40.5082 -40.3243 -40.2890 -40.2762 -40.1501 -40.1289 -40.1187 -40.1121
   -40.0890 -40.0863 -40.0787 -40.0507 -39.9091 -39.8999 -33.3234 -33.2441
   -33.1595 -33.1471 -33.0794 -32.9815 -32.9472 -32.8857 -32.8840 -32.8735
   -32.8210 -32.8054 -32.7448 -32.5566 -32.5410 -32.4686 -32.4075 -32.3237
    -2.5550  -2.3985  -1.9153  -1.8473  -1.7718  -1.6692  -1.6071  -1.4952
    -1.4594  -1.2618  -1.1367  -1.0330  -0.9906  -0.8882  -0.7213  -0.5791
    -0.4592  -0.4301  -0.2048  -0.1742   0.1291   0.3075   0.4338   0.5595
     0.6933   0.7581   0.8083   0.8205   0.8752   0.9489   1.0201   1.0359
     1.1475   1.2286   1.2993   1.3499   1.3776   1.4883   1.4982   1.5395
     1.6739   1.8828   2.1218   2.1336   2.2146   2.3436   2.7312   2.8762
     2.9090   2.9153   3.0806   3.3605   3.6765   3.7131   3.7816   3.9286
     4.0360   4.1011   4.2640   4.4411   4.6650   5.0804   5.2933   5.5022
     5.9476   6.0886   6.3377   7.0971   7.3682   7.7361   8.1583   8.2590

     the Fermi energy is     2.3798 ev

!    total energy              =   -2010.36783482 Ry
     Harris-Foulkes estimate   =   -2010.36783369 Ry
     estimated scf accuracy    <       0.00000074 Ry

     The total energy is the sum of the following terms:

     one-electron contribution =  -18574.38741046 Ry
     hartree contribution      =    9284.04540959 Ry
     xc contribution           =    -281.14788228 Ry
     ewald contribution        =    7561.20441384 Ry
     electric field correction =       0.00000451 Ry
     smearing contrib. (-TS)   =      -0.08237003 Ry

     convergence has been achieved in  17 iterations

 BEEF-vdW xc energy contributions
           1 :   -242.920646247320
           2 :    222.721867522894
           3 :   -187.836315864629
           4 :    147.076176483989
           5 :   -109.409171701422
           6 :    81.1539275636179
           7 :   -64.5247630404140
           8 :    57.8137049722916
           9 :   -56.8818963218329
          10 :    57.1746880565011
          11 :   -55.4397854823597
          12 :    50.5680226303472
          13 :   -43.4327093971410
          14 :    35.9888754391234
          15 :   -30.1368250535159
          16 :    26.8418071201823
          17 :   -25.8301269311472
          18 :    25.8910072690734
          19 :   -25.5664192563243
          20 :    23.8609844681233
          21 :   -20.6474179771021
          22 :    16.6125930390264
          23 :   -12.8275140825471
          24 :    10.1850751340305
          25 :   -8.98737817184252
          26 :    8.85734541228237
          27 :   -8.98392559585864
          28 :    8.54922131000137
          29 :   -7.11903390056784
          30 :    4.81278320767399
          31 :   -26.2245529241195
          32 :   -20.0194234000516

     Forces acting on atoms (Ry/au):

     negative rho (up, down):  4.596E-01 0.000E+00
     atom    1 type  1   force =     0.00014062    0.00008252    0.02544108
     atom    2 type  1   force =     0.00014045    0.00008248    0.02544080
     atom    3 type  2   force =     0.00270622    0.00158920    0.01040607
     atom    4 type  2   force =     0.00270639    0.00158913    0.01040616
     atom    5 type  1   force =    -0.00012431   -0.00007293   -0.01359992
     atom    6 type  1   force =    -0.00012418   -0.00007304   -0.01359992
     atom    7 type  2   force =    -0.00063754   -0.00037414   -0.02195202
     atom    8 type  2   force =    -0.00063695   -0.00037409   -0.02195173
     atom    9 type  1   force =    -0.00094835   -0.00055680   -0.00003326
     atom   10 type  1   force =    -0.00094807   -0.00055676   -0.00003315
     atom   11 type  2   force =    -0.00113736   -0.00066782   -0.00026226
     atom   12 type  2   force =    -0.00113692   -0.00066774   -0.00026185

     Total force =     0.053588     Total SCF correction =     0.005396
     SCF correction compared to forces is large: reduce conv_thr to get better values

     entering subroutine stress ...

     negative rho (up, down):  4.596E-01 0.000E+00
          total   stress  (Ry/bohr**3)                   (kbar)     P=  -18.95
  -0.00015555   0.00000299  -0.00000932        -22.88      0.44     -1.37
   0.00000299  -0.00015888  -0.00000547          0.44    -23.37     -0.81
  -0.00000932  -0.00000547  -0.00007196         -1.37     -0.81    -10.59

 !ASE

     Writing output data file calc.save

     General routines

     Parallel routines

   This run was terminated on:  19:40:13  18Dec2018

   JOB DONE.
Job  /afs/slac/g/suncat/bin/suncat-tsmpirun -x LD_LIBRARY_PATH -wdir /scratch/qe530275_fyiFK pw.x -in pw.inp

TID   HOST_NAME   COMMAND_LINE            STATUS            TERMINATION_TIME
00000 suncat2048 pw.x -in pw.inp   Done                     12/18/2018 19:40:13
00001 suncat2048 pw.x -in pw.inp   Done                     12/18/2018 19:40:13
00002 suncat2048 pw.x -in pw.inp   Done                     12/18/2018 19:40:13
00003 suncat2048 pw.x -in pw.inp   Done                     12/18/2018 19:40:13
00004 suncat2048 pw.x -in pw.inp   Done                     12/18/2018 19:40:13
00005 suncat2048 pw.x -in pw.inp   Done                     12/18/2018 19:40:13
00006 suncat2048 pw.x -in pw.inp   Done                     12/18/2018 19:40:13
00007 suncat2048 pw.x -in pw.inp   Done                     12/18/2018 19:40:13
00008 suncat2048 pw.x -in pw.inp   Done                     12/18/2018 19:40:13
00009 suncat2048 pw.x -in pw.inp   Done                     12/18/2018 19:40:13
00010 suncat2048 pw.x -in pw.inp   Done                     12/18/2018 19:40:13
00011 suncat2048 pw.x -in pw.inp   Done                     12/18/2018 19:40:13
00012 suncat2048 pw.x -in pw.inp   Done                     12/18/2018 19:40:13
00013 suncat2048 pw.x -in pw.inp   Done                     12/18/2018 19:40:13
00014 suncat2048 pw.x -in pw.inp   Done                     12/18/2018 19:40:13
00015 suncat2048 pw.x -in pw.inp   Done                     12/18/2018 19:40:13
00016 suncat2047 pw.x -in pw.inp   Done                     12/18/2018 19:40:13
00017 suncat2047 pw.x -in pw.inp   Done                     12/18/2018 19:40:13
00018 suncat2047 pw.x -in pw.inp   Done                     12/18/2018 19:40:13
00019 suncat2047 pw.x -in pw.inp   Done                     12/18/2018 19:40:13
00020 suncat2047 pw.x -in pw.inp   Done                     12/18/2018 19:40:13
00021 suncat2047 pw.x -in pw.inp   Done                     12/18/2018 19:40:13
00022 suncat2047 pw.x -in pw.inp   Done                     12/18/2018 19:40:13
00023 suncat2047 pw.x -in pw.inp   Done                     12/18/2018 19:40:13
00024 suncat2047 pw.x -in pw.inp   Done                     12/18/2018 19:40:13
00025 suncat2047 pw.x -in pw.inp   Done                     12/18/2018 19:40:13
00026 suncat2047 pw.x -in pw.inp   Done                     12/18/2018 19:40:13
00027 suncat2047 pw.x -in pw.inp   Done                     12/18/2018 19:40:13
00028 suncat2047 pw.x -in pw.inp   Done                     12/18/2018 19:40:13
00029 suncat2047 pw.x -in pw.inp   Done                     12/18/2018 19:40:13
00030 suncat2047 pw.x -in pw.inp   Done                     12/18/2018 19:40:13
00031 suncat2047 pw.x -in pw.inp   Done                     12/18/2018 19:40:13