     Program PWSCF v.5.1rc2 (svn rev. 11289) starts on 25Dec2018 at  5:18:51

     Current dimensions of program PWSCF are:
     Max number of different atomic species (ntypx) = 10
     Max number of k-points (npk) =  40000
     Max angular momentum in pseudopotentials (lmaxx) =  3
     Presently stress not available with electric field

     IMPORTANT: XC functional enforced from input :
     Exchange-correlation      = BEEF-VDW ( 1  4 27 13 2)
     Any further DFT definition will be discarded
     Please, verify this is what you really want

     Subspace diagonalization in iterative solution of the eigenvalue problem:
     a serial algorithm will be used

     Found symmetry operation: I + ( -0.5000 -0.5000  0.0000)
     This is a supercell, fractional translations are disabled

     bravais-lattice index     =            0
     lattice parameter (alat)  =       1.8897  a.u.
     unit-cell volume          =    4376.3520 (a.u.)^3
     number of atoms/cell      =           12
     number of atomic types    =            2
     number of electrons       =       216.00
     number of Kohn-Sham states=          138
     kinetic-energy cutoff     =      36.7493  Ry
     charge density cutoff     =     367.4932  Ry
     convergence threshold     =      1.0E-06
     mixing beta               =       0.1000
     number of iterations used =           10  plain     mixing
     Exchange-correlation      = BEEF-VDW ( 1  4 27 13 2)
     nstep                     =           50

     celldm(1)=   1.889726  celldm(2)=   0.000000  celldm(3)=   0.000000
     celldm(4)=   0.000000  celldm(5)=   0.000000  celldm(6)=   0.000000

     crystal axes: (cart. coord. in units of alat)
               a(1) = (   5.385181   0.000000   0.000000 )
               a(2) = (   2.182191   4.923232   0.000000 )
               a(3) = (   0.000000   0.000000  24.460482 )

     reciprocal axes: (cart. coord. in units 2 pi/alat)
               b(1) = (  0.185695 -0.082308  0.000000 )
               b(2) = (  0.000000  0.203119  0.000000 )
               b(3) = (  0.000000  0.000000  0.040882 )

     PseudoPot. # 1 for Zn read from file:
     /afs/slac.stanford.edu/u/if/mamunm/psp/gbrv1.5pbe/Zn.UPF
     MD5 check sum: df62231357ef9e81f77b2b3087fa5675
     Pseudo is Ultrasoft, Zval = 20.0
     Generated by new atomic code, or converted to UPF format
     Using radial grid of  943 points,  6 beta functions with:
                l(1) =   0
                l(2) =   0
                l(3) =   1
                l(4) =   1
                l(5) =   2
                l(6) =   2
     Q(r) pseudized with  8 coefficients,  rinner =    1.100   1.100   1.100
                                                       1.100   1.100

     PseudoPot. # 2 for Pd read from file:
     /afs/slac.stanford.edu/u/if/mamunm/psp/gbrv1.5pbe/Pd.UPF
     MD5 check sum: 2d733d2bc2cbfd217af676df1668a4bc
     Pseudo is Ultrasoft + core correction, Zval = 16.0
     Generated by new atomic code, or converted to UPF format
     Using radial grid of  887 points,  6 beta functions with:
                l(1) =   0
                l(2) =   0
                l(3) =   1
                l(4) =   1
                l(5) =   2
                l(6) =   2
     Q(r) pseudized with  8 coefficients,  rinner =    1.130   1.130   1.130
                                                       1.130   1.130

     vdW kernel table read from file vdW_kernel_table
     MD5 check sum: 095c7af220d748ca6e76c0b4c6cfb241

     atomic species   valence    mass     pseudopotential
        Zn1           20.00    65.38000     Zn( 1.00)
        Pd1           16.00   106.42000     Pd( 1.00)

     No symmetry found

   Cartesian axes

     site n.     atom                  positions (alat units)
         1           Zn1 tau(   1) = (   0.0000000   0.0000000  10.0000000  )
         2           Zn1 tau(   2) = (   3.7836860   2.4616162  10.0000000  )
         3           Pd1 tau(   3) = (   2.6925905   0.0000000  10.0000000  )
         4           Pd1 tau(   4) = (   1.0910955   2.4616162  10.0000000  )
         5           Zn1 tau(   5) = (   5.3851810   3.5035277  12.2302409  )
         6           Zn1 tau(   6) = (   1.6014950   1.0419115  12.2302409  )
         7           Pd1 tau(   7) = (   2.6925905   3.5035277  12.2302409  )
         8           Pd1 tau(   8) = (   4.2940855   1.0419115  12.2302409  )
         9           Zn1 tau(   9) = (   3.2029900   2.0838231  14.4604819  )
        10           Zn1 tau(  10) = (   6.9866760   4.5454393  14.4604819  )
        11           Pd1 tau(  11) = (   5.8955805   2.0838231  14.4604819  )
        12           Pd1 tau(  12) = (   4.2940855   4.5454393  14.4604819  )

     number of k points=    20  Fermi-Dirac smearing, width (Ry)=  0.0110
                       cart. coord. in units 2pi/alat
        k(    1) = (   0.0000000   0.0000000   0.0000000), wk =   0.0555556
        k(    2) = (   0.0000000   0.0338531   0.0000000), wk =   0.1111111
        k(    3) = (   0.0000000   0.0677062   0.0000000), wk =   0.1111111
        k(    4) = (   0.0000000  -0.1015593   0.0000000), wk =   0.0555556
        k(    5) = (   0.0309491  -0.0137180   0.0000000), wk =   0.1111111
        k(    6) = (   0.0309491   0.0201351   0.0000000), wk =   0.1111111
        k(    7) = (   0.0309491   0.0539882   0.0000000), wk =   0.1111111
        k(    8) = (   0.0309491  -0.1152773   0.0000000), wk =   0.1111111
        k(    9) = (   0.0309491  -0.0814242   0.0000000), wk =   0.1111111
        k(   10) = (   0.0309491  -0.0475711   0.0000000), wk =   0.1111111
        k(   11) = (   0.0618983  -0.0274360   0.0000000), wk =   0.1111111
        k(   12) = (   0.0618983   0.0064171   0.0000000), wk =   0.1111111
        k(   13) = (   0.0618983   0.0402702   0.0000000), wk =   0.1111111
        k(   14) = (   0.0618983  -0.1289953   0.0000000), wk =   0.1111111
        k(   15) = (   0.0618983  -0.0951422   0.0000000), wk =   0.1111111
        k(   16) = (   0.0618983  -0.0612891   0.0000000), wk =   0.1111111
        k(   17) = (  -0.0928474   0.0411540   0.0000000), wk =   0.0555556
        k(   18) = (  -0.0928474   0.0750071   0.0000000), wk =   0.1111111
        k(   19) = (  -0.0928474   0.1088602   0.0000000), wk =   0.1111111
        k(   20) = (  -0.0928474  -0.0604053   0.0000000), wk =   0.0555556

     Largest allocated arrays     est. size (Mb)     dimensions
     Largest temporary arrays     est. size (Mb)     dimensions

     Initial potential from superposition of free atoms
     Check: negative starting charge=   -0.448870

     starting charge  212.99911, renormalised to  216.00000

     negative rho (up, down):  4.552E-01 0.000E+00

     *
     * You are using vdW-DF for exchange-correlation in this calculation.
     * Please cite the following three references that made this development
     * possible:
     *
     *   M. Dion, H. Rydberg, E. Schroder, D. C. Langreth, and
     *   B. I. Lundqvist, Phys. Rev. Lett. 92, 246401 (2004).
     *
     *   T. Thonhauser, V. R. Cooper, S. Li, A. Puzder, P. Hyldgaard, and
     *   D. C. Langreth, Phys. Rev. B 76, 125112 (2007).
     *
     *   G. Roman-Perez and J. M. Soler, Phys. Rev. Lett. 103, 096102 (2009).
     *
     *
     * If you are using vdW-DF2, please also cite:
     *
     *   K. Lee, E. D. Murray, L. Kong, B. I. Lundqvist, and
     *   D. C. Langreth, Phys. Rev. B 82, 081101(R) (2010).
     *
     *
     * If you are calculating the stress with vdW-DF, please also cite:
     *
     *   R. Sabatini, E. Kucukbenli, B. Kolb, T. Thonhauser, and
     *   S. de Gironcoli, J. Phys.: Condens. Matter 24, 424209 (2012).
     *

     Carrying out vdW-DF run using the following parameters:

     Nqs =      20    Nr_points =    1024   r_max =   100.000
     q_mesh =
               0.00001000     0.04494208     0.09755937     0.15916263
               0.23128650     0.31572767     0.41458969     0.53033537
               0.66584808     0.82450364     1.01025438     1.22772762
               1.48234092     1.78043706     2.12944203     2.53805004
               3.01644009     3.57652955     4.23227104     5.00000000

     Gradients computed in reciprocal space

     Adding external electric field

     Computed dipole along edir(3) :
        Dipole               -0.0000 Ry au,         -0.0000 Debye
        Dipole field         -0.0000 Ry au

        Potential amp.        0.0000 Ry
        Total length         45.0680 bohr

     Starting wfc are  150 randomized atomic wfcs

     Self-consistent Calculation

     iteration #  1     ecut=    36.75 Ry     beta=0.10
     Davidson diagonalization with overlap
     ethr =  1.00E-02,  avg # of iterations =  7.5

[...]

     total energy              =   -3976.08068360 Ry
     Harris-Foulkes estimate   =   -3977.34335999 Ry
     estimated scf accuracy    <       7.50855060 Ry

[...]

     End of self-consistent calculation

          k = 0.0000 0.0000 0.0000 ( 16447 PWs)   bands (ev):

  -125.3434-125.3431-125.1871-125.1870-125.1868-125.1868 -79.5403 -79.5399
   -79.5358 -79.5303 -79.5114 -79.5110 -79.3887 -79.3885 -79.3883 -79.3881
   -79.3728 -79.3727 -79.3674 -79.3673 -79.3539 -79.3539 -79.3536 -79.3535
   -49.4678 -49.4232 -49.4137 -49.3842 -49.3746 -49.3622 -49.1030 -49.1029
   -49.0976 -49.0958 -49.0882 -49.0862 -48.9988 -48.9988 -48.9790 -48.9763
   -48.9693 -48.9670  -7.3143  -6.7277  -6.7140  -6.6247  -6.6244  -6.5776
    -6.5436  -6.5396  -6.5159  -6.4896  -6.4408  -6.4318  -6.3907  -6.3100
    -6.2917  -6.2793  -6.2746  -6.2335  -6.2167  -6.1970  -6.1791  -6.1381
    -6.1159  -6.0714  -6.0663  -5.9987  -5.9896  -5.9809  -5.9665  -5.9480
    -5.8268  -5.2480  -4.1444  -3.9766  -3.5806  -3.2669  -2.8107  -2.4416
    -2.4387  -2.3136  -2.2066  -2.1639  -1.9503  -1.9371  -1.7744  -1.6607
    -1.4768  -1.4083  -1.4020  -1.2259  -1.1566  -1.1458  -1.0250  -0.9292
    -0.7938  -0.7162  -0.7013  -0.6251  -0.6031  -0.5994  -0.4470  -0.2737
    -0.0147   0.7250   0.7805   0.8976   1.2090   1.6139   1.6512   1.6812
     1.6937   2.9583   3.7723   4.1277   4.2004   4.5193   4.9714   5.0028
     5.4796   5.4969   5.8006   6.1510   6.2260   6.5669   6.9186   6.9888
     7.0972   7.8635   8.3299   8.6867   8.7404   8.9437   9.0378   9.2813
     9.8874  10.3165

[...]

          k =-0.0928 0.0412 0.0000 ( 16478 PWs)   bands (ev):

[...]

     the Fermi energy is     0.8967 ev

!    total energy              =   -3975.74621125 Ry
     Harris-Foulkes estimate   =   -3975.74621342 Ry
     estimated scf accuracy    <       0.00000021 Ry

     The total energy is the sum of the following terms:

     one-electron contribution =  -28438.89306709 Ry
     hartree contribution      =   14235.50688278 Ry
     xc contribution           =    -456.03838870 Ry
     ewald contribution        =   10683.70240630 Ry
     electric field correction =       0.00000000 Ry
     smearing contrib. (-TS)   =      -0.02404453 Ry

     convergence has been achieved in  15 iterations

 BEEF-vdW xc energy contributions
           1 :   -401.847910537027
           2 :    365.686949613898
           3 :   -304.538719289953
           4 :    235.536282741954
           5 :   -174.459166807113
[...]
     Pseudo is Ultrasoft, Zval = 20.0
     Generated by new atomic code, or converted to UPF format
     Using radial grid of  943 points,  6 beta functions with:
                l(1) =   0
                l(2) =   0
                l(3) =   1
                l(4) =   1
                l(5) =   2
                l(6) =   2
     Q(r) pseudized with  8 coefficients,  rinner =    1.100   1.100   1.100
                                                       1.100   1.100

     PseudoPot. # 2 for Pd read from file:
     /afs/slac.stanford.edu/u/if/mamunm/psp/gbrv1.5pbe/Pd.UPF
     MD5 check sum: 2d733d2bc2cbfd217af676df1668a4bc
     Pseudo is Ultrasoft + core correction, Zval = 16.0
     Generated by new atomic code, or converted to UPF format
     Using radial grid of  887 points,  6 beta functions with:
                l(1) =   0
                l(2) =   0
                l(3) =   1
                l(4) =   1
                l(5) =   2
                l(6) =   2
     Q(r) pseudized with  8 coefficients,  rinner =    1.130   1.130   1.130
                                                       1.130   1.130

     vdW kernel table read from file vdW_kernel_table
     MD5 check sum: 095c7af220d748ca6e76c0b4c6cfb241

     atomic species   valence    mass     pseudopotential
        Zn1           20.00    65.38000     Zn( 1.00)
        Pd1           16.00   106.42000     Pd( 1.00)

     No symmetry found

   Cartesian axes

     site n.     atom                  positions (alat units)
         1           Zn1 tau(   1) = (   0.0000000   0.0000000  10.0000000  )
         2           Zn1 tau(   2) = (   3.7836860   2.4616162  10.0000000  )
         3           Pd1 tau(   3) = (   2.6925905   0.0000000  10.0000000  )
         4           Pd1 tau(   4) = (   1.0910955   2.4616162  10.0000000  )
         5           Zn1 tau(   5) = (   5.3851810   3.5035277  12.2302409  )
         6           Zn1 tau(   6) = (   1.6014950   1.0419115  12.2302409  )
         7           Pd1 tau(   7) = (   2.6925905   3.5035277  12.2302409  )
         8           Pd1 tau(   8) = (   4.2940855   1.0419115  12.2302409  )
         9           Zn1 tau(   9) = (   3.3600708   2.1860020  14.5579810  )
        10           Zn1 tau(  10) = (   7.1437536   4.6476535  14.5579896  )
        11           Pd1 tau(  11) = (   6.0600049   2.1907993  14.3738782  )
        12           Pd1 tau(  12) = (   4.4584974   4.6524062  14.3738787  )

     number of k points=    20  Fermi-Dirac smearing, width (Ry)=  0.0110
                       cart. coord. in units 2pi/alat
        k(    1) = (   0.0000000   0.0000000   0.0000000), wk =   0.0555556
        k(    2) = (   0.0000000   0.0338531   0.0000000), wk =   0.1111111
        k(    3) = (   0.0000000   0.0677062   0.0000000), wk =   0.1111111
        k(    4) = (   0.0000000  -0.1015593   0.0000000), wk =   0.0555556
        k(    5) = (   0.0309491  -0.0137180   0.0000000), wk =   0.1111111
        k(    6) = (   0.0309491   0.0201351   0.0000000), wk =   0.1111111
        k(    7) = (   0.0309491   0.0539882   0.0000000), wk =   0.1111111
        k(    8) = (   0.0309491  -0.1152773   0.0000000), wk =   0.1111111
        k(    9) = (   0.0309491  -0.0814242   0.0000000), wk =   0.1111111
        k(   10) = (   0.0309491  -0.0475711   0.0000000), wk =   0.1111111
        k(   11) = (   0.0618983  -0.0274360   0.0000000), wk =   0.1111111
        k(   12) = (   0.0618983   0.0064171   0.0000000), wk =   0.1111111
        k(   13) = (   0.0618983   0.0402702   0.0000000), wk =   0.1111111
        k(   14) = (   0.0618983  -0.1289953   0.0000000), wk =   0.1111111
        k(   15) = (   0.0618983  -0.0951422   0.0000000), wk =   0.1111111
        k(   16) = (   0.0618983  -0.0612891   0.0000000), wk =   0.1111111
        k(   17) = (  -0.0928474   0.0411540   0.0000000), wk =   0.0555556
        k(   18) = (  -0.0928474   0.0750071   0.0000000), wk =   0.1111111
        k(   19) = (  -0.0928474   0.1088602   0.0000000), wk =   0.1111111
        k(   20) = (  -0.0928474  -0.0604053   0.0000000), wk =   0.0555556

     Largest allocated arrays     est. size (Mb)     dimensions
     Largest temporary arrays     est. size (Mb)     dimensions

     Initial potential from superposition of free atoms
     Check: negative starting charge=   -0.454686

     starting charge  212.99911, renormalised to  216.00000

[...]

     *
     * You are using vdW-DF for exchange-correlation in this calculation.
     * Please cite the following three references that made this development
     * possible:
     *
     *   M. Dion, H. Rydberg, E. Schroder, D. C. Langreth, and
     *   B. I. Lundqvist, Phys. Rev. Lett. 92, 246401 (2004).
     *
     *   T. Thonhauser, V. R. Cooper, S. Li, A. Puzder, P. Hyldgaard, and
     *   D. C. Langreth, Phys. Rev. B 76, 125112 (2007).
     *
     *   G. Roman-Perez and J. M. Soler, Phys. Rev. Lett. 103, 096102 (2009).
     *
     *
     * If you are using vdW-DF2, please also cite:
     *
     *   K. Lee, E. D. Murray, L. Kong, B. I. Lundqvist, and
     *   D. C. Langreth, Phys. Rev. B 82, 081101(R) (2010).
     *
     *
     * If you are calculating the stress with vdW-DF, please also cite:
     *
     *   R. Sabatini, E. Kucukbenli, B. Kolb, T. Thonhauser, and
     *   S. de Gironcoli, J. Phys.: Condens. Matter 24, 424209 (2012).
     *

     Carrying out vdW-DF run using the following parameters:

     Nqs =      20    Nr_points =    1024   r_max =   100.000
     q_mesh =
               0.00001000     0.04494208     0.09755937     0.15916263
               0.23128650     0.31572767     0.41458969     0.53033537
               0.66584808     0.82450364     1.01025438     1.22772762
               1.48234092     1.78043706     2.12944203     2.53805004
               3.01644009     3.57652955     4.23227104     5.00000000

     Gradients computed in reciprocal space

[...]

     Starting wfc are  150 randomized atomic wfcs

     Self-consistent Calculation

[...]

     total energy              =   -3975.75141852 Ry
     Harris-Foulkes estimate   =   -3975.75141921 Ry
     estimated scf accuracy    <       0.00000129 Ry

     iteration # 15     ecut=    36.75 Ry     beta=0.10
     Davidson diagonalization with overlap
     ethr =  5.97E-10,  avg # of iterations =  2.0

[...]

     negative rho (up, down):  4.744E-01 0.000E+00

     Adding external electric field

     Computed dipole along edir(3) :
        Dipole                0.0116 Ry au,          0.0296 Debye
        Dipole field          0.0000 Ry au

        Potential amp.       -0.0030 Ry
        Total length         45.0680 bohr

     End of self-consistent calculation

[...]

          k = 0.0619-0.0613 0.0000 ( 16464 PWs)   bands (ev):

[...]

          k =-0.0928-0.0604 0.0000 ( 16502 PWs)   bands (ev):

  -125.2986-125.2983-125.1719-125.1717-125.1690-125.1687 -79.4937 -79.4932
   -79.4908 -79.4852 -79.4701 -79.4697 -79.3734 -79.3730 -79.3711 -79.3707
   -79.3580 -79.3553 -79.3524 -79.3498 -79.3388 -79.3383 -79.3350 -79.3346
   -49.4060 -49.3602 -49.3499 -49.3246 -49.3138 -49.3003 -49.1789 -49.1575
   -49.1479 -49.0829 -49.0798 -49.0743 -49.0699 -49.0687 -49.0595 -48.9785
   -48.9549 -48.9456  -6.6520  -6.5299  -6.4571  -6.4456  -6.4355  -6.3973
    -6.3769  -6.3686  -6.3548  -6.3422  -6.2492  -6.2248  -6.2211  -6.2167
    -6.2028  -6.1887  -6.1807  -6.1559  -6.1478  -6.1376  -6.0877  -6.0820
    -6.0506  -6.0034  -5.9608  -5.9530  -5.9432  -5.9419  -5.9205  -5.8120
    -5.2275  -5.0397  -3.6613  -3.5226  -3.4966  -3.4402  -3.3647  -3.2508
    -2.9290  -2.9136  -2.6330  -2.5581  -2.5051  -2.4215  -2.3570  -2.2855
    -2.2173  -1.8708  -1.8206  -1.7792  -1.7201  -1.3911  -1.3620  -1.2579
    -1.2518  -1.2316  -0.9289  -0.8726  -0.7245  -0.6882  -0.6000  -0.5374
    -0.4900  -0.0205   0.0052   0.5407   1.1440   1.5922   1.6829   2.2015
     2.8426   3.6139   3.9200   3.9830   5.6877   6.0337   6.3829   6.4019
     6.6094   6.8325   6.9591   7.1901   7.2570   7.4607   7.7291   8.1739
     8.2667   8.3023   8.3032   8.3847   8.4979   8.6858   9.1255   9.1573
     9.4078   9.5736

     the Fermi energy is     0.9133 ev

!    total energy              =   -3975.75141543 Ry
     Harris-Foulkes estimate   =   -3975.75141883 Ry
     estimated scf accuracy    <       0.00000040 Ry

     The total energy is the sum of the following terms:

     one-electron contribution =  -28377.10850627 Ry
     hartree contribution      =   14204.72352662 Ry
     xc contribution           =    -456.03296211 Ry
     ewald contribution        =   10652.69076351 Ry
     electric field correction =       0.00000039 Ry
     smearing contrib. (-TS)   =      -0.02423757 Ry

     convergence has been achieved in  15 iterations

 BEEF-vdW xc energy contributions
           1 :   -401.843911970418
           2 :    365.684181346531
           3 :   -304.532838555207
           4 :    235.519851471642
           5 :   -174.429088546053
           6 :    130.052425064540
           7 :   -102.647700515526
           8 :    86.5199992632304
           9 :   -74.6527881372473
          10 :    62.5948256480431
          11 :   -49.7610752289763
          12 :    38.1263244533802
          13 :   -29.7988217660425
          14 :    25.2652613651234
          15 :   -23.2481004537935
          16 :    21.8437116758113
          17 :   -19.8431797354901
          18 :    17.2678909935682
          19 :   -14.9222045968414
          20 :    13.5026674365846
          21 :   -13.0138266392534
          22 :    12.8630453581733
          23 :   -12.4267508033121
          24 :    11.5505349589513
          25 :   -10.5881061626399
          26 :    10.0109265119485
          27 :   -9.96700455720713
          28 :    10.1611734643089
          29 :   -10.1267635659345
          30 :    9.62807226141774
          31 :   -34.4081223668566
          32 :   -24.4342957310426

     Forces acting on atoms (Ry/au):

     negative rho (up, down):  4.744E-01 0.000E+00
     atom    1 type  1   force =     0.00031950    0.00020631   -0.00960974
     atom    2 type  1   force =     0.00031842    0.00020896   -0.00960923
     atom    3 type  2   force =    -0.00413370   -0.00268934    0.01411234
     atom    4 type  2   force =    -0.00413359   -0.00268909    0.01411247
     atom    5 type  1   force =     0.00254771    0.00165670   -0.01149705
     atom    6 type  1   force =     0.00254649    0.00165753   -0.01149613
     atom    7 type  2   force =     0.00115758    0.00075342    0.00738242
     atom    8 type  2   force =     0.00115825    0.00075341    0.00738170
     atom    9 type  1   force =     0.00030297    0.00019704   -0.00042336
     atom   10 type  1   force =     0.00030309    0.00019712   -0.00042426
     atom   11 type  2   force =    -0.00019365   -0.00012554    0.00003538
     atom   12 type  2   force =    -0.00019308   -0.00012652    0.00003545

     Total force =     0.032067     Total SCF correction =     0.004325
     SCF correction compared to forces is large: reduce conv_thr to get better values

     entering subroutine stress ...

     negative rho (up, down):  4.744E-01 0.000E+00
          total   stress  (Ry/bohr**3)                   (kbar)     P=  -13.99
  -0.00012595  -0.00001707   0.00000610        -18.53     -2.51      0.90
  -0.00001707  -0.00011081   0.00000397         -2.51    -16.30      0.58
   0.00000610   0.00000397  -0.00004847          0.90      0.58     -7.13

 !ASE

     Writing output data file calc.save

     General routines

     Parallel routines

   This run was terminated on:  10: 4:30  25Dec2018

   JOB DONE.

TID   HOST_NAME   COMMAND_LINE            STATUS            TERMINATION_TIME
00000 suncat0024 pw.x -in pw.inp   Done                     12/25/2018 10:04:30
00001 suncat0024 pw.x -in pw.inp   Done                     12/25/2018 10:04:30
00002 suncat0024 pw.x -in pw.inp   Done                     12/25/2018 10:04:30
00003 suncat0024 pw.x -in pw.inp   Done                     12/25/2018 10:04:30
00004 suncat0024 pw.x -in pw.inp   Done                     12/25/2018 10:04:30
00005 suncat0024 pw.x -in pw.inp   Done                     12/25/2018 10:04:30
00006 suncat0024 pw.x -in pw.inp   Done                     12/25/2018 10:04:30
00007 suncat0024 pw.x -in pw.inp   Done                     12/25/2018 10:04:30
00008 suncat0023 pw.x -in pw.inp   Done                     12/25/2018 10:04:30
00009 suncat0023 pw.x -in pw.inp   Done                     12/25/2018 10:04:30
00010 suncat0023 pw.x -in pw.inp   Done                     12/25/2018 10:04:30
00011 suncat0023 pw.x -in pw.inp   Done                     12/25/2018 10:04:30
00012 suncat0023 pw.x -in pw.inp   Done                     12/25/2018 10:04:30
00013 suncat0023 pw.x -in pw.inp   Done                     12/25/2018 10:04:30
00014 suncat0023 pw.x -in pw.inp   Done                     12/25/2018 10:04:30
00015 suncat0023 pw.x -in pw.inp   Done                     12/25/2018 10:04:30
00016 suncat0022 pw.x -in pw.inp   Done                     12/25/2018 10:04:30
00017 suncat0022 pw.x -in pw.inp   Done                     12/25/2018 10:04:30
00018 suncat0022 pw.x -in pw.inp   Done                     12/25/2018 10:04:30
00019 suncat0022 pw.x -in pw.inp   Done                     12/25/2018 10:04:30
00020 suncat0022 pw.x -in pw.inp   Done                     12/25/2018 10:04:30
00021 suncat0022 pw.x -in pw.inp   Done                     12/25/2018 10:04:30
00022 suncat0022 pw.x -in pw.inp   Done                     12/25/2018 10:04:30
00023 suncat0022 pw.x -in pw.inp   Done                     12/25/2018 10:04:30
00024 suncat0018 pw.x -in pw.inp   Done                     12/25/2018 10:04:30
00025 suncat0018 pw.x -in pw.inp   Done                     12/25/2018 10:04:30
00026 suncat0018 pw.x -in pw.inp   Done                     12/25/2018 10:04:30
00027 suncat0018 pw.x -in pw.inp   Done                     12/25/2018 10:04:30
00028 suncat0018 pw.x -in pw.inp   Done                     12/25/2018 10:04:30
00029 suncat0018 pw.x -in pw.inp   Done                     12/25/2018 10:04:30
00030 suncat0018 pw.x -in pw.inp   Done                     12/25/2018 10:04:30
00031 suncat0018 pw.x -in pw.inp   Done                     12/25/2018 10:04:30
00032 suncat0017 pw.x -in pw.inp   Done                     12/25/2018 10:04:30
00033 suncat0017 pw.x -in pw.inp   Done                     12/25/2018 10:04:30
00034 suncat0017 pw.x -in pw.inp   Done                     12/25/2018 10:04:30
00035 suncat0017 pw.x -in pw.inp   Done                     12/25/2018 10:04:30
00036 suncat0017 pw.x -in pw.inp   Done                     12/25/2018 10:04:30
00037 suncat0017 pw.x -in pw.inp   Done                     12/25/2018 10:04:30
00038 suncat0017 pw.x -in pw.inp   Done                     12/25/2018 10:04:30
00039 suncat0017 pw.x -in pw.inp   Done                     12/25/2018 10:04:30
00040 suncat0016 pw.x -in pw.inp   Done                     12/25/2018 10:04:30
00041 suncat0016 pw.x -in pw.inp   Done                     12/25/2018 10:04:30
00042 suncat0016 pw.x -in pw.inp   Done                     12/25/2018 10:04:30
00043 suncat0016 pw.x -in pw.inp   Done                     12/25/2018 10:04:30
00044 suncat0016 pw.x -in pw.inp   Done                     12/25/2018 10:04:30
00045 suncat0016 pw.x -in pw.inp   Done                     12/25/2018 10:04:30
00046 suncat0016 pw.x -in pw.inp   Done                     12/25/2018 10:04:30
00047 suncat0016 pw.x -in pw.inp   Done                     12/25/2018 10:04:30
00048 suncat0014 pw.x -in pw.inp   Done                     12/25/2018 10:04:30
00049 suncat0014 pw.x -in pw.inp   Done                     12/25/2018 10:04:30
00050 suncat0014 pw.x -in pw.inp   Done                     12/25/2018 10:04:30
00051 suncat0014 pw.x -in pw.inp   Done                     12/25/2018 10:04:30
00052 suncat0014 pw.x -in pw.inp   Done                     12/25/2018 10:04:30
00053 suncat0014 pw.x -in pw.inp   Done                     12/25/2018 10:04:30
00054 suncat0014 pw.x -in pw.inp   Done                     12/25/2018 10:04:30
00055 suncat0014 pw.x -in pw.inp   Done                     12/25/2018 10:04:30
00056 suncat0198 pw.x -in pw.inp   Done                     12/25/2018 10:04:30
00057 suncat0198 pw.x -in pw.inp   Done                     12/25/2018 10:04:30
00058 suncat0198 pw.x -in pw.inp   Done                     12/25/2018 10:04:30
00059 suncat0198 pw.x -in pw.inp   Done                     12/25/2018 10:04:30
00060 suncat0198 pw.x -in pw.inp   Done                     12/25/2018 10:04:30
00061 suncat0198 pw.x -in pw.inp   Done                     12/25/2018 10:04:30
00062 suncat0198 pw.x -in pw.inp   Done                     12/25/2018 10:04:30
00063 suncat0198 pw.x -in pw.inp   Done                     12/25/2018 10:04:30