     Program PWSCF v.5.1rc2 (svn rev. 11289) starts on 19Dec2018 at  5:26:58

     Current dimensions of program PWSCF are:
     Max number of different atomic species (ntypx) = 10
     Max number of k-points (npk) =  40000
     Max angular momentum in pseudopotentials (lmaxx) =  3
     Presently stress not available with electric field

     IMPORTANT: XC functional enforced from input :
     Exchange-correlation      = BEEF-VDW ( 1  4 27 13 2)
     Any further DFT definition will be discarded
     Please, verify this is what you really want

     Subspace diagonalization in iterative solution of the eigenvalue problem:
     a serial algorithm will be used

     Found symmetry operation: I + ( -0.5000  0.0000  0.0000)
     This is a supercell, fractional translations are disabled

     bravais-lattice index     =            0
     lattice parameter (alat)  =       1.8897  a.u.
     unit-cell volume          =    5527.8887 (a.u.)^3
     number of atoms/cell      =           12
     number of atomic types    =            2
     number of electrons       =       144.00
     number of Kohn-Sham states=          102
     kinetic-energy cutoff     =      36.7493  Ry
     charge density cutoff     =     367.4932  Ry
     convergence threshold     =      1.0E-06
     mixing beta               =       0.1000
     number of iterations used =           10  plain     mixing
     Exchange-correlation      = BEEF-VDW ( 1  4 27 13 2)
     nstep                     =           50

     celldm(1)=   1.889726  celldm(2)=   0.000000  celldm(3)=   0.000000
     celldm(4)=   0.000000  celldm(5)=   0.000000  celldm(6)=   0.000000

     crystal axes: (cart. coord. in units of alat)
               a(1) = (   5.745038   0.000000   0.000000 )
               a(2) = (  -2.872519   5.711230   0.000000 )
               a(3) = (   0.000000   0.000000  24.965493 )

     reciprocal axes: (cart. coord. in units 2 pi/alat)
               b(1) = (  0.174063  0.087547  0.000000 )
               b(2) = (  0.000000  0.175094  0.000000 )
               b(3) = (  0.000000  0.000000  0.040055 )

     PseudoPot. # 1 for Sc read from file:
     /afs/slac.stanford.edu/u/if/mamunm/psp/gbrv1.5pbe/Sc.UPF
     MD5 check sum: db30a2753ba66ef00f23801d899b7e7f
     Pseudo is Ultrasoft + core correction, Zval = 11.0
     Generated by new atomic code, or converted to UPF format
     Using radial grid of  849 points,  6 beta functions with:
                l(1) =   0
                l(2) =   0
                l(3) =   1
                l(4) =   1
                l(5) =   2
                l(6) =   2
     Q(r) pseudized with  6 coefficients,  rinner =    1.200   1.200   1.200
                                                       1.200   1.200

     PseudoPot. # 2 for Ta read from file:
     /afs/slac.stanford.edu/u/if/mamunm/psp/gbrv1.5pbe/Ta.UPF
     MD5 check sum: f8bbe9446314a3b8ea5d9f3e3836c939
     Pseudo is Ultrasoft + core correction, Zval = 13.0
     Generated by new atomic code, or converted to UPF format
     Using radial grid of  921 points,  7 beta functions with:
                l(1) =   0
                l(2) =   0
                l(3) =   1
                l(4) =   1
                l(5) =   2
                l(6) =   2
                l(7) =   3
     Q(r) pseudized with  6 coefficients,  rinner =    1.300   1.300   1.300
                                                       1.300   1.300   1.300
                                                       1.300

     vdW kernel table read from file vdW_kernel_table
     MD5 check sum: 095c7af220d748ca6e76c0b4c6cfb241

     atomic species   valence    mass     pseudopotential
        Sc1           11.00    44.95591     Sc( 1.00)
        Ta1           13.00   180.94788     Ta( 1.00)

     No symmetry found

   Cartesian axes

     site n.     atom                  positions (alat units)
         1           Sc1 tau(   1) = (   0.0000000   0.0000000  10.0000000  )
         2           Sc1 tau(   2) = (   2.8725191   0.0000000  10.0000000  )
         3           Ta1 tau(   3) = (   1.4362595   2.8556149  10.0000000  )
         4           Ta1 tau(   4) = (  -1.4362595   2.8556149  10.0000000  )
         5           Sc1 tau(   5) = (   2.8725191   1.4447617  12.4827464  )
         6           Sc1 tau(   6) = (   0.0000000   1.4447617  12.4827464  )
         7           Ta1 tau(   7) = (  -1.4362595   4.3003765  12.4827464  )
         8           Ta1 tau(   8) = (   1.4362595   4.3003765  12.4827464  )
         9           Sc1 tau(   9) = (   0.0000000   2.8895234  14.9654927  )
        10           Sc1 tau(  10) = (   2.8725191   2.8895234  14.9654927  )
        11           Ta1 tau(  11) = (   4.3087786   0.0339085  14.9654927  )
        12           Ta1 tau(  12) = (   1.4362595   0.0339085  14.9654927  )

     number of k points=    20  Fermi-Dirac smearing, width (Ry)=  0.0110
                       cart. coord. in units 2pi/alat
        k(    1) = (   0.0000000   0.0000000   0.0000000), wk =   0.0555556
        k(    2) = (   0.0000000   0.0291823   0.0000000), wk =   0.1111111
        k(    3) = (   0.0000000   0.0583645   0.0000000), wk =   0.1111111
        k(    4) = (   0.0000000  -0.0875468   0.0000000), wk =   0.0555556
        k(    5) = (   0.0290105   0.0145911   0.0000000), wk =   0.1111111
        k(    6) = (   0.0290105   0.0437734   0.0000000), wk =   0.1111111
        k(    7) = (   0.0290105   0.0729557   0.0000000), wk =   0.1111111
        k(    8) = (   0.0290105  -0.0729557   0.0000000), wk =   0.1111111
        k(    9) = (   0.0290105  -0.0437734   0.0000000), wk =   0.1111111
        k(   10) = (   0.0290105  -0.0145911   0.0000000), wk =   0.1111111
        k(   11) = (   0.0580211   0.0291823   0.0000000), wk =   0.1111111
        k(   12) = (   0.0580211   0.0583645   0.0000000), wk =   0.1111111
        k(   13) = (   0.0580211   0.0875468   0.0000000), wk =   0.1111111
        k(   14) = (   0.0580211  -0.0583645   0.0000000), wk =   0.1111111
        k(   15) = (   0.0580211  -0.0291823   0.0000000), wk =   0.1111111
        k(   16) = (   0.0580211   0.0000000   0.0000000), wk =   0.1111111
        k(   17) = (  -0.0870316  -0.0437734   0.0000000), wk =   0.0555556
        k(   18) = (  -0.0870316  -0.0145911   0.0000000), wk =   0.1111111
        k(   19) = (  -0.0870316   0.0145911   0.0000000), wk =   0.1111111
        k(   20) = (  -0.0870316  -0.1313202   0.0000000), wk =   0.0555556

     Largest allocated arrays     est. size (Mb)     dimensions
     Largest temporary arrays     est. size (Mb)     dimensions

     Initial potential from superposition of free atoms
     Check: negative starting charge=   -0.565550

     starting charge  143.97891, renormalised to  144.00000

     negative rho (up, down):  5.656E-01 0.000E+00

     *
     * You are using vdW-DF for exchange-correlation in this calculation.
     * Please cite the following three references that made this development
     * possible:
     *
     *   M. Dion, H. Rydberg, E. Schroder, D. C. Langreth, and
     *   B. I. Lundqvist, Phys. Rev. Lett. 92, 246401 (2004).
     *
     *   T. Thonhauser, V. R. Cooper, S. Li, A. Puzder, P. Hyldgaard, and
     *   D. C. Langreth, Phys. Rev. B 76, 125112 (2007).
     *
     *   G. Roman-Perez and J. M. Soler, Phys. Rev. Lett. 103, 096102 (2009).
     *
     *
     * If you are using vdW-DF2, please also cite:
     *
     *   K. Lee, E. D. Murray, L. Kong, B. I. Lundqvist, and
     *   D. C. Langreth, Phys. Rev. B 82, 081101(R) (2010).
     *
     *
     * If you are calculating the stress with vdW-DF, please also cite:
     *
     *   R. Sabatini, E. Kucukbenli, B. Kolb, T. Thonhauser, and
     *   S. de Gironcoli, J. Phys.: Condens. Matter 24, 424209 (2012).
     *

     Carrying out vdW-DF run using the following parameters:

     Nqs =      20    Nr_points =    1024   r_max =   100.000
     q_mesh =
               0.00001000     0.04494208     0.09755937     0.15916263
               0.23128650     0.31572767     0.41458969     0.53033537
               0.66584808     0.82450364     1.01025438     1.22772762
               1.48234092     1.78043706     2.12944203     2.53805004
               3.01644009     3.57652955     4.23227104     5.00000000

     Gradients computed in reciprocal space

     Adding external electric field

     Computed dipole along edir(3) :
        Dipole                0.0000 Ry au,          0.0000 Debye
        Dipole field          0.0000 Ry au

        Potential amp.       -0.0000 Ry
        Total length         45.9985 bohr

     Starting wfc are  156 randomized atomic wfcs

     Self-consistent Calculation

     iteration #  1     ecut=    36.75 Ry     beta=0.10
     Davidson diagonalization with overlap
     ethr =  1.00E-02,  avg # of iterations =  2.0

[...]

     total energy              =   -1426.97652848 Ry
     Harris-Foulkes estimate   =   -1428.44112053 Ry
     estimated scf accuracy    <       8.20312874 Ry

[...]

     iteration # 10     ecut=    36.75 Ry     beta=0.10
     Davidson diagonalization with overlap
     c_bands:  1 eigenvalues not converged
     ethr =  2.16E-06,  avg # of iterations =  8.2

[...]

     End of self-consistent calculation

          k = 0.0000 0.0000 0.0000 ( 20829 PWs)   bands (ev):

   -67.1135 -67.1125 -67.0685 -67.0676 -66.8549 -66.8094 -48.5964 -48.5946
   -48.5112 -48.5095 -48.1310 -48.0459 -33.7308 -33.7235 -33.6559 -33.5683
   -33.5618 -33.5243 -33.4463 -33.4324 -33.4210 -33.3488 -33.3382 -33.1730
   -33.0885 -33.0417 -33.0088 -33.0057 -32.9695 -32.8413 -27.5479 -27.5476
   -27.3286 -27.2459 -27.2384 -27.1621 -27.0897 -27.0869 -27.0843 -27.0139
   -27.0098 -26.9169 -26.9162 -26.7107 -26.6426 -26.6069 -26.5319 -26.4598
    -4.9237  -3.6343  -2.4636  -1.7227  -1.5761  -1.5683  -1.4204  -1.3947
    -1.0681  -0.9943  -0.9200  -0.7034  -0.5681  -0.5370  -0.3261  -0.2150
     0.3732   0.4508   0.5825   0.6337   1.0600   1.1247   1.3955   1.4571
     1.5328   1.5738   1.6924   1.7226   1.8702   1.9241   2.0671   2.1410
     2.2922   2.3154   2.6040   2.9658   3.0690   3.1939   3.2284   3.2407
     3.2709   3.3361   3.4117   3.4825   3.5110   3.5729   3.9667   4.0193
     4.0309   4.2415   4.2439   4.2801   4.7462   4.7602

[...]

          k =-0.0870-0.0438 0.0000 ( 20758 PWs)   bands (ev):

[...]

     the Fermi energy is     1.1272 ev

!    total energy              =   -1427.83838279 Ry
     Harris-Foulkes estimate   =   -1427.83838499 Ry
     estimated scf accuracy    <       0.00000046 Ry

     The total energy is the sum of the following terms:

     one-electron contribution =   -9213.33181955 Ry
     hartree contribution      =    4588.75596651 Ry
     xc contribution           =    -344.57090143 Ry
     ewald contribution        =    3541.42031692 Ry
     electric field correction =       0.00000000 Ry
     smearing contrib. (-TS)   =      -0.11194524 Ry

     convergence has been achieved in  18 iterations

 BEEF-vdW xc energy contributions
           1 :   -300.726527411438
           2 :    274.603466937491
           3 :   -230.417974155327
           4 :    180.310344924331
           5 :   -135.142054767830
           6 :    100.752241324701
[...]
00031 suncat2043 pw.x -in pw.inp   Done                     12/19/2018 05:31:48

[...]

     iteration #  7     ecut=    36.75 Ry     beta=0.10
     Davidson diagonalization with overlap
     c_bands:  1 eigenvalues not converged
     ethr =  6.26E-05,  avg # of iterations =  2.5

[...]

     Program PWSCF v.5.1rc2 (svn rev. 11289) starts on 19Dec2018 at  5:46:24

[...]

     Found symmetry operation: I + ( -0.5000  0.0000  0.0000)
     This is a supercell, fractional translations are disabled

[...]

   This run was terminated on:   5:51: 2  19Dec2018

[...]

     Program PWSCF v.5.1rc2 (svn rev. 11289) starts on 19Dec2018 at  5:51: 8

     Current dimensions of program PWSCF are:
     Max number of different atomic species (ntypx) = 10
     Max number of k-points (npk) =  40000
     Max angular momentum in pseudopotentials (lmaxx) =  3
     Presently stress not available with electric field

     IMPORTANT: XC functional enforced from input :
     Exchange-correlation      = BEEF-VDW ( 1  4 27 13 2)
     Any further DFT definition will be discarded
     Please, verify this is what you really want

     Subspace diagonalization in iterative solution of the eigenvalue problem:
     a serial algorithm will be used

     bravais-lattice index     =            0
     lattice parameter (alat)  =       1.8897  a.u.
     unit-cell volume          =    5527.8887 (a.u.)^3
     number of atoms/cell      =           12
     number of atomic types    =            2
     number of electrons       =       144.00
     number of Kohn-Sham states=          102
     kinetic-energy cutoff     =      36.7493  Ry
     charge density cutoff     =     367.4932  Ry
     convergence threshold     =      1.0E-06
     mixing beta               =       0.1000
     number of iterations used =           10  plain     mixing
     Exchange-correlation      = BEEF-VDW ( 1  4 27 13 2)
     nstep                     =           50

     celldm(1)=   1.889726  celldm(2)=   0.000000  celldm(3)=   0.000000
     celldm(4)=   0.000000  celldm(5)=   0.000000  celldm(6)=   0.000000

     crystal axes: (cart. coord. in units of alat)
               a(1) = (   5.745038   0.000000   0.000000 )
               a(2) = (  -2.872519   5.711230   0.000000 )
               a(3) = (   0.000000   0.000000  24.965493 )

     reciprocal axes: (cart. coord. in units 2 pi/alat)
               b(1) = (  0.174063  0.087547  0.000000 )
               b(2) = (  0.000000  0.175094  0.000000 )
               b(3) = (  0.000000  0.000000  0.040055 )

     PseudoPot. # 1 for Sc read from file:
     /afs/slac.stanford.edu/u/if/mamunm/psp/gbrv1.5pbe/Sc.UPF
     MD5 check sum: db30a2753ba66ef00f23801d899b7e7f
     Pseudo is Ultrasoft + core correction, Zval = 11.0
     Generated by new atomic code, or converted to UPF format
     Using radial grid of  849 points,  6 beta functions with:
                l(1) =   0
                l(2) =   0
                l(3) =   1
                l(4) =   1
                l(5) =   2
                l(6) =   2
     Q(r) pseudized with  6 coefficients,  rinner =    1.200   1.200   1.200
                                                       1.200   1.200

     PseudoPot. # 2 for Ta read from file:
     /afs/slac.stanford.edu/u/if/mamunm/psp/gbrv1.5pbe/Ta.UPF
     MD5 check sum: f8bbe9446314a3b8ea5d9f3e3836c939
     Pseudo is Ultrasoft + core correction, Zval = 13.0
     Generated by new atomic code, or converted to UPF format
     Using radial grid of  921 points,  7 beta functions with:
                l(1) =   0
                l(2) =   0
                l(3) =   1
                l(4) =   1
                l(5) =   2
                l(6) =   2
                l(7) =   3
     Q(r) pseudized with  6 coefficients,  rinner =    1.300   1.300   1.300
                                                       1.300   1.300   1.300
                                                       1.300

     vdW kernel table read from file vdW_kernel_table
     MD5 check sum: 095c7af220d748ca6e76c0b4c6cfb241

     atomic species   valence    mass     pseudopotential
        Sc1           11.00    44.95591     Sc( 1.00)
        Ta1           13.00   180.94788     Ta( 1.00)

     No symmetry found

   Cartesian axes

     site n.     atom                  positions (alat units)
         1           Sc1 tau(   1) = (   0.0000000   0.0000000  10.0000000  )
         2           Sc1 tau(   2) = (   2.8725191   0.0000000  10.0000000  )
         3           Ta1 tau(   3) = (   1.4362595   2.8556149  10.0000000  )
         4           Ta1 tau(   4) = (  -1.4362595   2.8556149  10.0000000  )
         5           Sc1 tau(   5) = (   2.8725191   1.4447617  12.4827464  )
         6           Sc1 tau(   6) = (   0.0000000   1.4447617  12.4827464  )
         7           Ta1 tau(   7) = (  -1.4362595   4.3003765  12.4827464  )
         8           Ta1 tau(   8) = (   1.4362595   4.3003765  12.4827464  )
         9           Sc1 tau(   9) = (  -0.0000994   3.1037620  14.9904022  )
        10           Sc1 tau(  10) = (   2.8723909   3.1037811  14.9903996  )
        11           Ta1 tau(  11) = (   4.3087859   0.1132187  14.7474590  )
        12           Ta1 tau(  12) = (   1.4363330   0.1132057  14.7474532  )

     number of k points=    20  Fermi-Dirac smearing, width (Ry)=  0.0110
                       cart. coord. in units 2pi/alat
        k(    1) = (   0.0000000   0.0000000   0.0000000), wk =   0.0555556
        k(    2) = (   0.0000000   0.0291823   0.0000000), wk =   0.1111111
        k(    3) = (   0.0000000   0.0583645   0.0000000), wk =   0.1111111
        k(    4) = (   0.0000000  -0.0875468   0.0000000), wk =   0.0555556
        k(    5) = (   0.0290105   0.0145911   0.0000000), wk =   0.1111111
        k(    6) = (   0.0290105   0.0437734   0.0000000), wk =   0.1111111
        k(    7) = (   0.0290105   0.0729557   0.0000000), wk =   0.1111111
        k(    8) = (   0.0290105  -0.0729557   0.0000000), wk =   0.1111111
        k(    9) = (   0.0290105  -0.0437734   0.0000000), wk =   0.1111111
        k(   10) = (   0.0290105  -0.0145911   0.0000000), wk =   0.1111111
        k(   11) = (   0.0580211   0.0291823   0.0000000), wk =   0.1111111
        k(   12) = (   0.0580211   0.0583645   0.0000000), wk =   0.1111111
        k(   13) = (   0.0580211   0.0875468   0.0000000), wk =   0.1111111
        k(   14) = (   0.0580211  -0.0583645   0.0000000), wk =   0.1111111
        k(   15) = (   0.0580211  -0.0291823   0.0000000), wk =   0.1111111
        k(   16) = (   0.0580211   0.0000000   0.0000000), wk =   0.1111111
        k(   17) = (  -0.0870316  -0.0437734   0.0000000), wk =   0.0555556
        k(   18) = (  -0.0870316  -0.0145911   0.0000000), wk =   0.1111111
        k(   19) = (  -0.0870316   0.0145911   0.0000000), wk =   0.1111111
        k(   20) = (  -0.0870316  -0.1313202   0.0000000), wk =   0.0555556

     Largest allocated arrays     est. size (Mb)     dimensions
     Largest temporary arrays     est. size (Mb)     dimensions

     Initial potential from superposition of free atoms
     Check: negative starting charge=   -0.564213

     starting charge  143.97891, renormalised to  144.00000

[...]

     *
     * You are using vdW-DF for exchange-correlation in this calculation.
     * Please cite the following three references that made this development
     * possible:
     *
     *   M. Dion, H. Rydberg, E. Schroder, D. C. Langreth, and
     *   B. I. Lundqvist, Phys. Rev. Lett. 92, 246401 (2004).
     *
     *   T. Thonhauser, V. R. Cooper, S. Li, A. Puzder, P. Hyldgaard, and
     *   D. C. Langreth, Phys. Rev. B 76, 125112 (2007).
     *
     *   G. Roman-Perez and J. M. Soler, Phys. Rev. Lett. 103, 096102 (2009).
     *
     *
     * If you are using vdW-DF2, please also cite:
     *
     *   K. Lee, E. D. Murray, L. Kong, B. I. Lundqvist, and
     *   D. C. Langreth, Phys. Rev. B 82, 081101(R) (2010).
     *
     *
     * If you are calculating the stress with vdW-DF, please also cite:
     *
     *   R. Sabatini, E. Kucukbenli, B. Kolb, T. Thonhauser, and
     *   S. de Gironcoli, J. Phys.: Condens. Matter 24, 424209 (2012).
     *

     Carrying out vdW-DF run using the following parameters:

     Nqs =      20    Nr_points =    1024   r_max =   100.000
     q_mesh =
               0.00001000     0.04494208     0.09755937     0.15916263
               0.23128650     0.31572767     0.41458969     0.53033537
               0.66584808     0.82450364     1.01025438     1.22772762
               1.48234092     1.78043706     2.12944203     2.53805004
               3.01644009     3.57652955     4.23227104     5.00000000

     Gradients computed in reciprocal space

[...]

     Starting wfc are  156 randomized atomic wfcs

     Self-consistent Calculation

[...]

     total energy              =   -1427.86298012 Ry
     Harris-Foulkes estimate   =   -1427.86298076 Ry
     estimated scf accuracy    <       0.00000249 Ry

     iteration # 18     ecut=    36.75 Ry     beta=0.10
     Davidson diagonalization with overlap
     ethr =  1.73E-09,  avg # of iterations =  2.0

[...]

     negative rho (up, down):  5.875E-01 0.000E+00

     Adding external electric field

     Computed dipole along edir(3) :
        Dipole                0.0611 Ry au,          0.1552 Debye
        Dipole field          0.0001 Ry au

        Potential amp.       -0.0128 Ry
        Total length         45.9985 bohr

     End of self-consistent calculation

[...]

          k = 0.0580 0.0000 0.0000 ( 20807 PWs)   bands (ev):

[...]

          k =-0.0870-0.1313 0.0000 ( 20758 PWs)   bands (ev):

   -67.0380 -67.0380 -66.8909 -66.8909 -66.7041 -66.7041 -48.5370 -48.5370
   -48.5045 -48.5045 -47.9557 -47.9557 -33.5605 -33.5605 -33.3861 -33.3860
   -33.3262 -33.3262 -33.3217 -33.3217 -33.2410 -33.2408 -33.2136 -33.2135
   -33.1007 -33.1007 -33.0204 -33.0204 -32.8097 -32.8097 -27.2196 -27.2196
   -27.2112 -27.2112 -27.1891 -27.1891 -27.1697 -27.1697 -27.0563 -27.0563
   -27.0000 -27.0000 -26.6510 -26.6510 -26.5678 -26.5678 -26.4657 -26.4657
    -3.2135  -3.2135  -1.9939  -1.9939  -1.1719  -1.1719  -0.7940  -0.7939
    -0.6495  -0.6495  -0.1557  -0.1557   0.2282   0.2282   0.3964   0.3965
     0.5121   0.5122   0.6343   0.6343   0.8614   0.8614   0.9773   0.9774
     1.1843   1.1843   1.3337   1.3337   1.5543   1.5543   1.8566   1.8567
     2.0305   2.0306   2.1199   2.1199   2.3789   2.3789   2.9064   2.9064
     3.1981   3.1981   3.3311   3.3311   3.4985   3.4985   3.6282   3.6282
     3.7565   3.7566   3.8496   3.8497   3.9896   3.9897

     the Fermi energy is     1.1775 ev

!    total energy              =   -1427.86297805 Ry
     Harris-Foulkes estimate   =   -1427.86298036 Ry
     estimated scf accuracy    <       0.00000094 Ry

     The total energy is the sum of the following terms:

     one-electron contribution =   -9352.44047348 Ry
     hartree contribution      =    4658.76117071 Ry
     xc contribution           =    -344.77687072 Ry
     ewald contribution        =    3610.70112714 Ry
     electric field correction =       0.00000848 Ry
     smearing contrib. (-TS)   =      -0.10794016 Ry

     convergence has been achieved in  18 iterations

 BEEF-vdW xc energy contributions
           1 :   -300.934848639183
           2 :    274.876696160763
           3 :   -230.761238811231
           4 :    180.649905379943
           5 :   -135.364357562834
           6 :    100.780475722820
           7 :   -77.2262730956297
           8 :    61.4969822358514
           9 :   -49.7452876571742
          10 :    39.5374165425326
          11 :   -30.3228735789872
          12 :    22.6474334574868
          13 :   -17.0338966471994
          14 :    13.3512536930082
          15 :   -10.9174644737040
          16 :    9.00282639047538
          17 :   -7.22662695561911
          18 :    5.59130916987050
          19 :   -4.26470677893917
          20 :    3.36954032178011
          21 :   -2.92245263853118
          22 :    2.87441851879805
          23 :   -3.13837009373822
          24 :    3.56446758572571
          25 :   -3.92523367509438
          26 :    3.98547642892981
          27 :   -3.64533743331123
          28 :    3.04378569990160
          29 :   -2.50718022687840
          30 :    2.34466431239599
          31 :   -28.8296966479601
          32 :   -21.1691408581821

     Forces acting on atoms (Ry/au):

     negative rho (up, down):  5.875E-01 0.000E+00
     atom    1 type  1   force =    -0.00000147   -0.01460284   -0.01184577
     atom    2 type  1   force =     0.00000345   -0.01460139   -0.01184529
     atom    3 type  2   force =    -0.00000126    0.00952077    0.03702746
     atom    4 type  2   force =     0.00000369    0.00952565    0.03702620
     atom    5 type  1   force =     0.00000584    0.01249730   -0.00581090
     atom    6 type  1   force =     0.00000366    0.01249428   -0.00580705
     atom    7 type  2   force =    -0.00000753   -0.00706178   -0.01759259
     atom    8 type  2   force =    -0.00001224   -0.00706178   -0.01759192
     atom    9 type  1   force =     0.00000347    0.00139671   -0.00122787
     atom   10 type  1   force =     0.00001154    0.00139254   -0.00122970
     atom   11 type  2   force =     0.00000500   -0.00174958   -0.00055139
     atom   12 type  2   force =    -0.00001415   -0.00174989   -0.00055119

     Total force =     0.068866     Total SCF correction =     0.002530

     entering subroutine stress ...

     negative rho (up, down):  5.875E-01 0.000E+00
          total   stress  (Ry/bohr**3)                   (kbar)     P=  -12.94
  -0.00004415  -0.00000000   0.00000001         -6.50     -0.00      0.00
  -0.00000000  -0.00015146   0.00000741         -0.00    -22.28      1.09
   0.00000001   0.00000741  -0.00006821          0.00      1.09    -10.03

 !ASE

     Writing output data file calc.save

     General routines

     Parallel routines

   This run was terminated on:   5:55:47  19Dec2018

   JOB DONE.
Job  /afs/slac/g/suncat/bin/suncat-tsmpirun -x LD_LIBRARY_PATH -wdir /scratch/qe530583_g089z pw.x -in pw.inp

TID   HOST_NAME   COMMAND_LINE            STATUS            TERMINATION_TIME
00000 suncat2044 pw.x -in pw.inp   Done                     12/19/2018 05:55:47
00001 suncat2044 pw.x -in pw.inp   Done                     12/19/2018 05:55:47
00002 suncat2044 pw.x -in pw.inp   Done                     12/19/2018 05:55:47
00003 suncat2044 pw.x -in pw.inp   Done                     12/19/2018 05:55:47
00004 suncat2044 pw.x -in pw.inp   Done                     12/19/2018 05:55:47
00005 suncat2044 pw.x -in pw.inp   Done                     12/19/2018 05:55:47
00006 suncat2044 pw.x -in pw.inp   Done                     12/19/2018 05:55:47
00007 suncat2044 pw.x -in pw.inp   Done                     12/19/2018 05:55:47
00008 suncat2044 pw.x -in pw.inp   Done                     12/19/2018 05:55:47
00009 suncat2044 pw.x -in pw.inp   Done                     12/19/2018 05:55:47
00010 suncat2044 pw.x -in pw.inp   Done                     12/19/2018 05:55:47
00011 suncat2044 pw.x -in pw.inp   Done                     12/19/2018 05:55:47
00012 suncat2044 pw.x -in pw.inp   Done                     12/19/2018 05:55:47
00013 suncat2044 pw.x -in pw.inp   Done                     12/19/2018 05:55:47
00014 suncat2044 pw.x -in pw.inp   Done                     12/19/2018 05:55:47
00015 suncat2044 pw.x -in pw.inp   Done                     12/19/2018 05:55:47
00016 suncat2043 pw.x -in pw.inp   Done                     12/19/2018 05:55:47
00017 suncat2043 pw.x -in pw.inp   Done                     12/19/2018 05:55:47
00018 suncat2043 pw.x -in pw.inp   Done                     12/19/2018 05:55:47
00019 suncat2043 pw.x -in pw.inp   Done                     12/19/2018 05:55:47
00020 suncat2043 pw.x -in pw.inp   Done                     12/19/2018 05:55:47
00021 suncat2043 pw.x -in pw.inp   Done                     12/19/2018 05:55:47
00022 suncat2043 pw.x -in pw.inp   Done                     12/19/2018 05:55:47
00023 suncat2043 pw.x -in pw.inp   Done                     12/19/2018 05:55:47
00024 suncat2043 pw.x -in pw.inp   Done                     12/19/2018 05:55:47
00025 suncat2043 pw.x -in pw.inp   Done                     12/19/2018 05:55:47
00026 suncat2043 pw.x -in pw.inp   Done                     12/19/2018 05:55:47
00027 suncat2043 pw.x -in pw.inp   Done                     12/19/2018 05:55:47
00028 suncat2043 pw.x -in pw.inp   Done                     12/19/2018 05:55:47
00029 suncat2043 pw.x -in pw.inp   Done                     12/19/2018 05:55:47
00030 suncat2043 pw.x -in pw.inp   Done                     12/19/2018 05:55:47
00031 suncat2043 pw.x -in pw.inp   Done                     12/19/2018 05:55:47