     Program PWSCF v.5.1rc2 (svn rev. 11289) starts on 18Dec2018 at 16:51:58

     Current dimensions of program PWSCF are:
     Max number of different atomic species (ntypx) = 10
     Max number of k-points (npk) =  40000
     Max angular momentum in pseudopotentials (lmaxx) =  3
     Presently stress not available with electric field

     IMPORTANT: XC functional enforced from input :
     Exchange-correlation      = BEEF-VDW ( 1  4 27 13 2)
     Any further DFT definition will be discarded
     Please, verify this is what you really want

     Subspace diagonalization in iterative solution of the eigenvalue problem:
     a serial algorithm will be used

     Found symmetry operation: I + ( -0.5000 -0.5000  0.0000)
     This is a supercell, fractional translations are disabled

     Generating pointlists ...
     new r_m :   0.4125 (alat units)  0.7795 (a.u.) for type    1
     new r_m :   0.4125 (alat units)  0.7795 (a.u.) for type    2

     bravais-lattice index     =            0
     lattice parameter (alat)  =       1.8897  a.u.
     unit-cell volume          =    5094.1869 (a.u.)^3
     number of atoms/cell      =           12
     number of atomic types    =            2
     number of electrons       =       168.00
     number of Kohn-Sham states=          114
     kinetic-energy cutoff     =      36.7493  Ry
     charge density cutoff     =     367.4932  Ry
     convergence threshold     =      1.0E-06
     mixing beta               =       0.1000
     number of iterations used =           10  plain     mixing
     Exchange-correlation      = BEEF-VDW ( 1  4 27 13 2)
     nstep                     =           50

     celldm(1)=   1.889726  celldm(2)=   0.000000  celldm(3)=   0.000000
     celldm(4)=   0.000000  celldm(5)=   0.000000  celldm(6)=   0.000000

     crystal axes: (cart. coord. in units of alat)
               a(1) = (   5.859658   0.000000   0.000000 )
               a(2) = (   2.723180   5.188437   0.000000 )
               a(3) = (   0.000000   0.000000  24.829586 )

     reciprocal axes: (cart. coord. in units 2 pi/alat)
               b(1) = (  0.170658 -0.089571  0.000000 )
               b(2) = (  0.000000  0.192736  0.000000 )
               b(3) = (  0.000000  0.000000  0.040275 )

     PseudoPot. # 1 for Mn read from file:
     /afs/slac.stanford.edu/u/if/mamunm/psp/gbrv1.5pbe/Mn.UPF
     MD5 check sum: 82ef2b46521d7a7d9e736dc3972e4928
     Pseudo is Ultrasoft + core correction, Zval = 15.0
     Generated by new atomic code, or converted to UPF format
     Using radial grid of  859 points,  6 beta functions with:
                l(1) =   0
                l(2) =   0
                l(3) =   1
                l(4) =   1
                l(5) =   2
                l(6) =   2
     Q(r) pseudized with  8 coefficients,  rinner =    0.950   0.950   0.950
                                                       0.950   0.950

     PseudoPot. # 2 for In read from file:
     /afs/slac.stanford.edu/u/if/mamunm/psp/gbrv1.5pbe/In.UPF
     MD5 check sum: 90777abd96fbb83f2e67db2a40c566b9
     Pseudo is Ultrasoft + core correction, Zval = 13.0
     Generated by new atomic code, or converted to UPF format
     Using radial grid of  889 points,  6 beta functions with:
                l(1) =   0
                l(2) =   0
                l(3) =   1
                l(4) =   1
                l(5) =   2
                l(6) =   2
     Q(r) pseudized with  6 coefficients,  rinner =    1.400   1.400   1.400
                                                       1.400   1.400

     vdW kernel table read from file vdW_kernel_table
     MD5 check sum: 095c7af220d748ca6e76c0b4c6cfb241

     atomic species   valence    mass     pseudopotential
        Mn1           15.00    54.93804     Mn( 1.00)
        In1           13.00   114.81800     In( 1.00)

     Starting magnetic structure
     atomic species   magnetization
        Mn1          0.133
        In1          0.154

     No symmetry found

   Cartesian axes

     site n.     atom                  positions (alat units)
         1           Mn1 tau(   1) = (   0.0000000   0.0000000  10.0000000  )
         2           Mn1 tau(   2) = (   4.2914191   2.5942185  10.0000000  )
         3           In1 tau(   3) = (   2.9298289   0.0000000  10.0000000  )
         4           In1 tau(   4) = (   1.3615902   2.5942185  10.0000000  )
         5           Mn1 tau(   5) = (   5.8596577   3.5422391  12.4147932  )
         6           Mn1 tau(   6) = (   1.5682387   0.9480206  12.4147932  )
         7           In1 tau(   7) = (   2.9298289   3.5422391  12.4147932  )
         8           In1 tau(   8) = (   4.4980676   0.9480206  12.4147932  )
         9           Mn1 tau(   9) = (   3.1364774   1.8960412  14.8295864  )
        10           Mn1 tau(  10) = (   7.4278964   4.4902597  14.8295864  )
        11           In1 tau(  11) = (   6.0663062   1.8960412  14.8295864  )
        12           In1 tau(  12) = (   4.4980676   4.4902597  14.8295864  )

     number of k points=    40  Fermi-Dirac smearing, width (Ry)=  0.0110
                       cart. coord. in units 2pi/alat
        k(    1) = (   0.0000000   0.0000000   0.0000000), wk =   0.0277778
        k(    2) = (   0.0000000   0.0321227   0.0000000), wk =   0.0555556
        k(    3) = (   0.0000000   0.0642454   0.0000000), wk =   0.0555556
        k(    4) = (   0.0000000  -0.0963681   0.0000000), wk =   0.0277778
        k(    5) = (   0.0284431  -0.0149285   0.0000000), wk =   0.0555556
        k(    6) = (   0.0284431   0.0171942   0.0000000), wk =   0.0555556
        k(    7) = (   0.0284431   0.0493169   0.0000000), wk =   0.0555556
        k(    8) = (   0.0284431  -0.1112966   0.0000000), wk =   0.0555556
        k(    9) = (   0.0284431  -0.0791739   0.0000000), wk =   0.0555556
        k(   10) = (   0.0284431  -0.0470512   0.0000000), wk =   0.0555556
        k(   11) = (   0.0568861  -0.0298570   0.0000000), wk =   0.0555556
        k(   12) = (   0.0568861   0.0022657   0.0000000), wk =   0.0555556
        k(   13) = (   0.0568861   0.0343884   0.0000000), wk =   0.0555556
        k(   14) = (   0.0568861  -0.1262252   0.0000000), wk =   0.0555556
        k(   15) = (   0.0568861  -0.0941024   0.0000000), wk =   0.0555556
        k(   16) = (   0.0568861  -0.0619797   0.0000000), wk =   0.0555556
        k(   17) = (  -0.0853292   0.0447855   0.0000000), wk =   0.0277778
        k(   18) = (  -0.0853292   0.0769082   0.0000000), wk =   0.0555556
        k(   19) = (  -0.0853292   0.1090309   0.0000000), wk =   0.0555556
        k(   20) = (  -0.0853292  -0.0515826   0.0000000), wk =   0.0277778
        k(   21) = (   0.0000000   0.0000000   0.0000000), wk =   0.0277778
        k(   22) = (   0.0000000   0.0321227   0.0000000), wk =   0.0555556
        k(   23) = (   0.0000000   0.0642454   0.0000000), wk =   0.0555556
        k(   24) = (   0.0000000  -0.0963681   0.0000000), wk =   0.0277778
        k(   25) = (   0.0284431  -0.0149285   0.0000000), wk =   0.0555556
        k(   26) = (   0.0284431   0.0171942   0.0000000), wk =   0.0555556
        k(   27) = (   0.0284431   0.0493169   0.0000000), wk =   0.0555556
        k(   28) = (   0.0284431  -0.1112966   0.0000000), wk =   0.0555556
        k(   29) = (   0.0284431  -0.0791739   0.0000000), wk =   0.0555556
        k(   30) = (   0.0284431  -0.0470512   0.0000000), wk =   0.0555556
        k(   31) = (   0.0568861  -0.0298570   0.0000000), wk =   0.0555556
        k(   32) = (   0.0568861   0.0022657   0.0000000), wk =   0.0555556
        k(   33) = (   0.0568861   0.0343884   0.0000000), wk =   0.0555556
        k(   34) = (   0.0568861  -0.1262252   0.0000000), wk =   0.0555556
        k(   35) = (   0.0568861  -0.0941024   0.0000000), wk =   0.0555556
        k(   36) = (   0.0568861  -0.0619797   0.0000000), wk =   0.0555556
        k(   37) = (  -0.0853292   0.0447855   0.0000000), wk =   0.0277778
        k(   38) = (  -0.0853292   0.0769082   0.0000000), wk =   0.0555556
        k(   39) = (  -0.0853292   0.1090309   0.0000000), wk =   0.0555556
        k(   40) = (  -0.0853292  -0.0515826   0.0000000), wk =   0.0277778

     Largest allocated arrays     est. size (Mb)     dimensions
     Largest temporary arrays     est. size (Mb)     dimensions

     Check: negative/imaginary core charge=   -0.000004    0.000000

     Initial potential from superposition of free atoms
     Check: negative starting charge=(component1):   -0.001409
     Check: negative starting charge=(component2):   -0.001077

     starting charge  155.99949, renormalised to  168.00000

     negative rho (up, down):  1.517E-03 1.160E-03

     *
     * You are using vdW-DF for exchange-correlation in this calculation.
     * Please cite the following three references that made this development
     * possible:
     *
     *   M. Dion, H. Rydberg, E. Schroder, D. C. Langreth, and
     *   B. I. Lundqvist, Phys. Rev. Lett. 92, 246401 (2004).
     *
     *   T. Thonhauser, V. R. Cooper, S. Li, A. Puzder, P. Hyldgaard, and
     *   D. C. Langreth, Phys. Rev. B 76, 125112 (2007).
     *
     *   G. Roman-Perez and J. M. Soler, Phys. Rev. Lett. 103, 096102 (2009).
     *
     *
     * If you are using vdW-DF2, please also cite:
     *
     *   K. Lee, E. D. Murray, L. Kong, B. I. Lundqvist, and
     *   D. C. Langreth, Phys. Rev. B 82, 081101(R) (2010).
     *
     *
     * If you are calculating the stress with vdW-DF, please also cite:
     *
     *   R. Sabatini, E. Kucukbenli, B. Kolb, T. Thonhauser, and
     *   S. de Gironcoli, J. Phys.: Condens. Matter 24, 424209 (2012).
     *

     Carrying out vdW-DF run using the following parameters:

     Nqs =      20    Nr_points =    1024   r_max =   100.000
     q_mesh =
               0.00001000     0.04494208     0.09755937     0.15916263
               0.23128650     0.31572767     0.41458969     0.53033537
               0.66584808     0.82450364     1.01025438     1.22772762
               1.48234092     1.78043706     2.12944203     2.53805004
               3.01644009     3.57652955     4.23227104     5.00000000

     Gradients computed in reciprocal space

     Adding external electric field

     Computed dipole along edir(3) :
        Dipole                0.0000 Ry au,          0.0000 Debye
        Dipole field          0.0000 Ry au

        Potential amp.       -0.0000 Ry
        Total length         45.7481 bohr

[...]

     Starting wfc are  132 randomized atomic wfcs

     Self-consistent Calculation

     iteration #  1     ecut=    36.75 Ry     beta=0.10
     Davidson diagonalization with overlap
     ethr =  1.00E-02,  avg # of iterations =  8.6

[...]

     Magnetic moment per site:
     atom:    1    charge:    6.1805    magn:    0.7774    constr:    0.0000
     atom:    2    charge:    6.1805    magn:    0.7774    constr:    0.0000
     atom:    3    charge:    3.2257    magn:    0.4572    constr:    0.0000
     atom:    4    charge:    3.2257    magn:    0.4572    constr:    0.0000
     atom:    5    charge:    6.1883    magn:    0.7800    constr:    0.0000
     atom:    6    charge:    6.1883    magn:    0.7800    constr:    0.0000
[...]
                l(2) =   0
                l(3) =   1
                l(4) =   1
                l(5) =   2
                l(6) =   2
     Q(r) pseudized with  8 coefficients,  rinner =    0.950   0.950   0.950
                                                       0.950   0.950

     PseudoPot. # 2 for In read from file:
     /afs/slac.stanford.edu/u/if/mamunm/psp/gbrv1.5pbe/In.UPF
     MD5 check sum: 90777abd96fbb83f2e67db2a40c566b9
     Pseudo is Ultrasoft + core correction, Zval = 13.0
     Generated by new atomic code, or converted to UPF format
     Using radial grid of  889 points,  6 beta functions with:
                l(1) =   0
                l(2) =   0
                l(3) =   1
                l(4) =   1
                l(5) =   2
                l(6) =   2
     Q(r) pseudized with  6 coefficients,  rinner =    1.400   1.400   1.400
                                                       1.400   1.400

     vdW kernel table read from file vdW_kernel_table
     MD5 check sum: 095c7af220d748ca6e76c0b4c6cfb241

     atomic species   valence    mass     pseudopotential
        Mn1           15.00    54.93804     Mn( 1.00)
        In1           13.00   114.81800     In( 1.00)

     Starting magnetic structure
     atomic species   magnetization
        Mn1          0.133
        In1          0.154

     No symmetry found

   Cartesian axes

     site n.     atom                  positions (alat units)
         1           Mn1 tau(   1) = (   0.0000000   0.0000000  10.0000000  )
         2           Mn1 tau(   2) = (   4.2914191   2.5942185  10.0000000  )
         3           In1 tau(   3) = (   2.9298289   0.0000000  10.0000000  )
         4           In1 tau(   4) = (   1.3615902   2.5942185  10.0000000  )
         5           Mn1 tau(   5) = (   5.8596577   3.5422391  12.4147932  )
         6           Mn1 tau(   6) = (   1.5682387   0.9480206  12.4147932  )
         7           In1 tau(   7) = (   2.9298289   3.5422391  12.4147932  )
         8           In1 tau(   8) = (   4.4980676   0.9480206  12.4147932  )
         9           Mn1 tau(   9) = (   3.1027216   1.8756357  14.8211274  )
        10           Mn1 tau(  10) = (   7.3939404   4.4697316  14.8210853  )
        11           In1 tau(  11) = (   6.0555121   1.8897494  15.1366875  )
        12           In1 tau(  12) = (   4.4874792   4.4836254  15.1366851  )

     number of k points=    40  Fermi-Dirac smearing, width (Ry)=  0.0110
                       cart. coord. in units 2pi/alat
        k(    1) = (   0.0000000   0.0000000   0.0000000), wk =   0.0277778
        k(    2) = (   0.0000000   0.0321227   0.0000000), wk =   0.0555556
        k(    3) = (   0.0000000   0.0642454   0.0000000), wk =   0.0555556
        k(    4) = (   0.0000000  -0.0963681   0.0000000), wk =   0.0277778
        k(    5) = (   0.0284431  -0.0149285   0.0000000), wk =   0.0555556
        k(    6) = (   0.0284431   0.0171942   0.0000000), wk =   0.0555556
        k(    7) = (   0.0284431   0.0493169   0.0000000), wk =   0.0555556
        k(    8) = (   0.0284431  -0.1112966   0.0000000), wk =   0.0555556
        k(    9) = (   0.0284431  -0.0791739   0.0000000), wk =   0.0555556
        k(   10) = (   0.0284431  -0.0470512   0.0000000), wk =   0.0555556
        k(   11) = (   0.0568861  -0.0298570   0.0000000), wk =   0.0555556
        k(   12) = (   0.0568861   0.0022657   0.0000000), wk =   0.0555556
        k(   13) = (   0.0568861   0.0343884   0.0000000), wk =   0.0555556
        k(   14) = (   0.0568861  -0.1262252   0.0000000), wk =   0.0555556
        k(   15) = (   0.0568861  -0.0941024   0.0000000), wk =   0.0555556
        k(   16) = (   0.0568861  -0.0619797   0.0000000), wk =   0.0555556
        k(   17) = (  -0.0853292   0.0447855   0.0000000), wk =   0.0277778
        k(   18) = (  -0.0853292   0.0769082   0.0000000), wk =   0.0555556
        k(   19) = (  -0.0853292   0.1090309   0.0000000), wk =   0.0555556
        k(   20) = (  -0.0853292  -0.0515826   0.0000000), wk =   0.0277778
        k(   21) = (   0.0000000   0.0000000   0.0000000), wk =   0.0277778
        k(   22) = (   0.0000000   0.0321227   0.0000000), wk =   0.0555556
        k(   23) = (   0.0000000   0.0642454   0.0000000), wk =   0.0555556
        k(   24) = (   0.0000000  -0.0963681   0.0000000), wk =   0.0277778
        k(   25) = (   0.0284431  -0.0149285   0.0000000), wk =   0.0555556
        k(   26) = (   0.0284431   0.0171942   0.0000000), wk =   0.0555556
        k(   27) = (   0.0284431   0.0493169   0.0000000), wk =   0.0555556
        k(   28) = (   0.0284431  -0.1112966   0.0000000), wk =   0.0555556
        k(   29) = (   0.0284431  -0.0791739   0.0000000), wk =   0.0555556
        k(   30) = (   0.0284431  -0.0470512   0.0000000), wk =   0.0555556
        k(   31) = (   0.0568861  -0.0298570   0.0000000), wk =   0.0555556
        k(   32) = (   0.0568861   0.0022657   0.0000000), wk =   0.0555556
        k(   33) = (   0.0568861   0.0343884   0.0000000), wk =   0.0555556
        k(   34) = (   0.0568861  -0.1262252   0.0000000), wk =   0.0555556
        k(   35) = (   0.0568861  -0.0941024   0.0000000), wk =   0.0555556
        k(   36) = (   0.0568861  -0.0619797   0.0000000), wk =   0.0555556
        k(   37) = (  -0.0853292   0.0447855   0.0000000), wk =   0.0277778
        k(   38) = (  -0.0853292   0.0769082   0.0000000), wk =   0.0555556
        k(   39) = (  -0.0853292   0.1090309   0.0000000), wk =   0.0555556
        k(   40) = (  -0.0853292  -0.0515826   0.0000000), wk =   0.0277778

     Largest allocated arrays     est. size (Mb)     dimensions
     Largest temporary arrays     est. size (Mb)     dimensions

     Check: negative/imaginary core charge=   -0.000004    0.000000

     Initial potential from superposition of free atoms
     Check: negative starting charge=(component1):   -0.001404
     Check: negative starting charge=(component2):   -0.001074

     starting charge  155.99949, renormalised to  168.00000

[...]

     *
     * You are using vdW-DF for exchange-correlation in this calculation.
     * Please cite the following three references that made this development
     * possible:
     *
     *   M. Dion, H. Rydberg, E. Schroder, D. C. Langreth, and
     *   B. I. Lundqvist, Phys. Rev. Lett. 92, 246401 (2004).
     *
     *   T. Thonhauser, V. R. Cooper, S. Li, A. Puzder, P. Hyldgaard, and
     *   D. C. Langreth, Phys. Rev. B 76, 125112 (2007).
     *
     *   G. Roman-Perez and J. M. Soler, Phys. Rev. Lett. 103, 096102 (2009).
     *
     *
     * If you are using vdW-DF2, please also cite:
     *
     *   K. Lee, E. D. Murray, L. Kong, B. I. Lundqvist, and
     *   D. C. Langreth, Phys. Rev. B 82, 081101(R) (2010).
     *
     *
     * If you are calculating the stress with vdW-DF, please also cite:
     *
     *   R. Sabatini, E. Kucukbenli, B. Kolb, T. Thonhauser, and
     *   S. de Gironcoli, J. Phys.: Condens. Matter 24, 424209 (2012).
     *

     Carrying out vdW-DF run using the following parameters:

     Nqs =      20    Nr_points =    1024   r_max =   100.000
     q_mesh =
               0.00001000     0.04494208     0.09755937     0.15916263
               0.23128650     0.31572767     0.41458969     0.53033537
               0.66584808     0.82450364     1.01025438     1.22772762
               1.48234092     1.78043706     2.12944203     2.53805004
               3.01644009     3.57652955     4.23227104     5.00000000

     Gradients computed in reciprocal space

[...]

     Starting wfc are  132 randomized atomic wfcs

     Self-consistent Calculation

[...]

     total energy              =   -2081.23293202 Ry
     Harris-Foulkes estimate   =   -2081.23292891 Ry
     estimated scf accuracy    <       0.00000120 Ry

[...]

     iteration # 31     ecut=    36.75 Ry     beta=0.10
     Davidson diagonalization with overlap
     ethr =  7.14E-10,  avg # of iterations =  2.0

[...]

     negative rho (up, down):  1.628E-03 1.805E-03

[...]

     Adding external electric field

     Computed dipole along edir(3) :
        Dipole                0.0082 Ry au,          0.0209 Debye
        Dipole field          0.0000 Ry au

        Potential amp.       -0.0019 Ry
        Total length         45.7481 bohr

     Magnetic moment per site:
     atom:    1    charge:    6.0137    magn:    1.5109    constr:    0.0000
     atom:    2    charge:    6.0137    magn:    1.5109    constr:    0.0000
     atom:    3    charge:    3.0679    magn:   -0.0028    constr:    0.0000
     atom:    4    charge:    3.0679    magn:   -0.0028    constr:    0.0000
     atom:    5    charge:    6.0135    magn:    1.4333    constr:    0.0000
     atom:    6    charge:    6.0135    magn:    1.4333    constr:    0.0000
     atom:    7    charge:    3.0719    magn:   -0.0024    constr:    0.0000
     atom:    8    charge:    3.0719    magn:   -0.0024    constr:    0.0000
     atom:    9    charge:    6.0134    magn:    1.5145    constr:    0.0000
     atom:   10    charge:    6.0134    magn:    1.5145    constr:    0.0000
     atom:   11    charge:    3.0674    magn:   -0.0033    constr:    0.0000
     atom:   12    charge:    3.0674    magn:   -0.0033    constr:    0.0000

     End of self-consistent calculation

 ------ SPIN UP ------------

[...]

 ------ SPIN DOWN ----------

[...]

          k = 0.0569-0.0620 0.0000 ( 19177 PWs)   bands (ev):

[...]

          k =-0.0853-0.0516 0.0000 ( 19126 PWs)   bands (ev):

   -76.4181 -76.4141 -76.4047 -76.4008 -76.3500 -76.3460 -45.2710 -45.2657
   -45.2495 -45.2442 -45.2121 -45.2066 -45.2050 -45.2002 -45.1999 -45.1942
   -45.1884 -45.1834 -45.1453 -45.1444 -45.1402 -45.1166 -45.1118 -45.0898
   -14.3715 -14.2066 -14.1982 -14.1498 -14.1413 -14.0676 -14.0312 -14.0231
   -14.0071 -13.9825 -13.9700 -13.9332 -13.9206 -13.9032 -13.8542 -13.8257
   -13.8055 -13.7944 -13.7830 -13.7718 -13.7613 -13.7529 -13.7414 -13.7195
   -13.6978 -13.6862 -13.6681 -13.6511 -13.5406 -13.5022  -7.1190  -6.3883
    -5.3553  -4.2449  -3.8906  -3.3130  -2.9310  -2.4425  -1.8994  -1.8583
    -1.1521  -0.9606  -0.6286  -0.1435  -0.0503   0.0004   0.0394   0.4147
     0.6488   0.8318   1.0624   1.0784   1.4643   1.7238   1.9094   1.9177
     1.9422   1.9730   1.9997   2.1116   2.1272   2.1389   2.2314   2.2505
     2.3177   2.3418   2.4903   2.7136   2.7976   2.8084   3.3269   3.3974
     3.4371   3.4710   3.7592   4.3972   4.5736   4.9288   4.9810   5.0526
     5.2813   5.6769   5.8017   5.8421   6.0090   6.1399   6.2683   6.3826
     6.5397   6.9354

     the Fermi energy is     0.8093 ev

!    total energy              =   -2081.23294680 Ry
     Harris-Foulkes estimate   =   -2081.23293227 Ry
     estimated scf accuracy    <       0.00000052 Ry

     The total energy is the sum of the following terms:

     one-electron contribution =  -13836.17647447 Ry
     hartree contribution      =    6955.37552727 Ry
     xc contribution           =    -401.06428642 Ry
     ewald contribution        =    5200.68715339 Ry
     electric field correction =       0.00000017 Ry
     smearing contrib. (-TS)   =      -0.05486673 Ry

     total magnetization       =    22.43 Bohr mag/cell
     absolute magnetization    =    24.65 Bohr mag/cell

     convergence has been achieved in  31 iterations

 BEEF-vdW xc energy contributions
           1 :   -350.956037237445
           2 :    319.179624973892
           3 :   -266.170288095701
           4 :    207.461646969529
           5 :   -156.386571931150
           6 :    119.421647312886
           7 :   -95.8232995641144
           8 :    80.5098891901868
           9 :   -67.8608134695007
          10 :    54.4381746096308
          11 :   -39.8052404102563
          12 :    25.7000559875892
          13 :   -14.4208195923986
          14 :    7.31739678315751
          15 :   -4.04005938145554
          16 :    2.81096837870291
          17 :   -1.51738647002281
          18 :   -1.05126102265535
          19 :    4.61627967905599
          20 :   -7.84088433531247
          21 :    9.41493928539114
          22 :   -8.99215379300932
          23 :    7.35061544403163
          24 :   -5.77303654261732
          25 :    5.18341968016261
          26 :   -5.66409150442911
          27 :    6.59583041175517
          28 :   -7.19543980646569
          29 :    7.01629528552417
          30 :   -6.12804039223062
          31 :   -31.6303627110094
          32 :   -22.7386588607212

     Forces acting on atoms (Ry/au):

     negative rho (up, down):  1.628E-03 1.805E-03
     atom    1 type  1   force =     0.00641734    0.00387928    0.00119217
     atom    2 type  1   force =     0.00641535    0.00387808    0.00119829
     atom    3 type  2   force =    -0.00505863   -0.00304913   -0.02559018
     atom    4 type  2   force =    -0.00505077   -0.00306212   -0.02559001
     atom    5 type  1   force =    -0.00447463   -0.00270508    0.01250867
     atom    6 type  1   force =    -0.00447589   -0.00270564    0.01252598
     atom    7 type  2   force =     0.00581079    0.00352442    0.01257356
     atom    8 type  2   force =     0.00582133    0.00350736    0.01257390
     atom    9 type  1   force =    -0.00152742   -0.00092342    0.00045660
     atom   10 type  1   force =    -0.00146395   -0.00088455    0.00045459
     atom   11 type  2   force =    -0.00115995   -0.00080716   -0.00115186
     atom   12 type  2   force =    -0.00125357   -0.00065202   -0.00115172

     Total force =     0.047797     Total SCF correction =     0.002774

     entering subroutine stress ...

     negative rho (up, down):  1.628E-03 1.805E-03
          total   stress  (Ry/bohr**3)                   (kbar)     P=   -4.59
  -0.00007584  -0.00002311  -0.00000727        -11.16     -3.40     -1.07
  -0.00002311  -0.00005158  -0.00000440         -3.40     -7.59     -0.65
  -0.00000727  -0.00000440   0.00003377         -1.07     -0.65      4.97

 !ASE

     Writing output data file calc.save

     General routines

     Parallel routines

   This run was terminated on:  19: 4:41  18Dec2018

   JOB DONE.
Job  /afs/slac/g/suncat/bin/suncat-tsmpirun -x LD_LIBRARY_PATH -wdir /scratch/qe530206_EJEb9 pw.x -in pw.inp

TID   HOST_NAME   COMMAND_LINE            STATUS            TERMINATION_TIME
00000 suncat2040 pw.x -in pw.inp   Done                     12/18/2018 19:04:41
00001 suncat2040 pw.x -in pw.inp   Done                     12/18/2018 19:04:41
00002 suncat2040 pw.x -in pw.inp   Done                     12/18/2018 19:04:41
00003 suncat2040 pw.x -in pw.inp   Done                     12/18/2018 19:04:41
00004 suncat2040 pw.x -in pw.inp   Done                     12/18/2018 19:04:41
00005 suncat2040 pw.x -in pw.inp   Done                     12/18/2018 19:04:41
00006 suncat2040 pw.x -in pw.inp   Done                     12/18/2018 19:04:41
00007 suncat2040 pw.x -in pw.inp   Done                     12/18/2018 19:04:41
00008 suncat2040 pw.x -in pw.inp   Done                     12/18/2018 19:04:41
00009 suncat2040 pw.x -in pw.inp   Done                     12/18/2018 19:04:41
00010 suncat2040 pw.x -in pw.inp   Done                     12/18/2018 19:04:41
00011 suncat2040 pw.x -in pw.inp   Done                     12/18/2018 19:04:41
00012 suncat2040 pw.x -in pw.inp   Done                     12/18/2018 19:04:41
00013 suncat2040 pw.x -in pw.inp   Done                     12/18/2018 19:04:41
00014 suncat2040 pw.x -in pw.inp   Done                     12/18/2018 19:04:41
00015 suncat2040 pw.x -in pw.inp   Done                     12/18/2018 19:04:41
00016 suncat2039 pw.x -in pw.inp   Done                     12/18/2018 19:04:41
00017 suncat2039 pw.x -in pw.inp   Done                     12/18/2018 19:04:41
00018 suncat2039 pw.x -in pw.inp   Done                     12/18/2018 19:04:41
00019 suncat2039 pw.x -in pw.inp   Done                     12/18/2018 19:04:41
00020 suncat2039 pw.x -in pw.inp   Done                     12/18/2018 19:04:41
00021 suncat2039 pw.x -in pw.inp   Done                     12/18/2018 19:04:41
00022 suncat2039 pw.x -in pw.inp   Done                     12/18/2018 19:04:41
00023 suncat2039 pw.x -in pw.inp   Done                     12/18/2018 19:04:41
00024 suncat2039 pw.x -in pw.inp   Done                     12/18/2018 19:04:41
00025 suncat2039 pw.x -in pw.inp   Done                     12/18/2018 19:04:41
00026 suncat2039 pw.x -in pw.inp   Done                     12/18/2018 19:04:41
00027 suncat2039 pw.x -in pw.inp   Done                     12/18/2018 19:04:41
00028 suncat2039 pw.x -in pw.inp   Done                     12/18/2018 19:04:41
00029 suncat2039 pw.x -in pw.inp   Done                     12/18/2018 19:04:41
00030 suncat2039 pw.x -in pw.inp   Done                     12/18/2018 19:04:41
00031 suncat2039 pw.x -in pw.inp   Done                     12/18/2018 19:04:41