     Program PWSCF v.5.1rc2 (svn rev. 11289) starts on 19Dec2018 at  0:10: 7

     Current dimensions of program PWSCF are:
     Max number of different atomic species (ntypx) = 10
     Max number of k-points (npk) =  40000
     Max angular momentum in pseudopotentials (lmaxx) =  3
     Presently stress not available with electric field

     IMPORTANT: XC functional enforced from input :
     Exchange-correlation      = BEEF-VDW ( 1  4 27 13 2)
     Any further DFT definition will be discarded
     Please, verify this is what you really want

     Subspace diagonalization in iterative solution of the eigenvalue problem:
     a serial algorithm will be used

     Found symmetry operation: I + (  0.5000  0.0000  0.0000)
     This is a supercell, fractional translations are disabled

     bravais-lattice index     =            0
     lattice parameter (alat)  =       1.8897  a.u.
     unit-cell volume          =    4624.2572 (a.u.)^3
     number of atoms/cell      =           12
     number of atomic types    =            2
     number of electrons       =       162.00
     number of Kohn-Sham states=          111
     kinetic-energy cutoff     =      36.7493  Ry
     charge density cutoff     =     367.4932  Ry
     convergence threshold     =      1.0E-06
     mixing beta               =       0.1000
     number of iterations used =           10  plain     mixing
     Exchange-correlation      = BEEF-VDW ( 1  4 27 13 2)
     nstep                     =           50

     celldm(1)=   1.889726  celldm(2)=   0.000000  celldm(3)=   0.000000
     celldm(4)=   0.000000  celldm(5)=   0.000000  celldm(6)=   0.000000

     crystal axes: (cart. coord. in units of alat)
               a(1) = (   5.593831   0.000000   0.000000 )
               a(2) = (  -2.796915   4.974440   0.000000 )
               a(3) = (   0.000000   0.000000  24.625887 )

     reciprocal axes: (cart. coord. in units 2 pi/alat)
               b(1) = (  0.178768  0.100514  0.000000 )
               b(2) = (  0.000000  0.201028  0.000000 )
               b(3) = (  0.000000  0.000000  0.040608 )

     PseudoPot. # 1 for Os read from file:
     /afs/slac.stanford.edu/u/if/mamunm/psp/gbrv1.5pbe/Os.UPF
     MD5 check sum: a3fb40a04f0c37c25c34bbc47164c9a8
     Pseudo is Ultrasoft + core correction, Zval = 16.0
     Generated by new atomic code, or converted to UPF format
     Using radial grid of  983 points,  8 beta functions with:
                l(1) =   0
                l(2) =   0
                l(3) =   1
                l(4) =   1
                l(5) =   2
                l(6) =   2
                l(7) =   3
                l(8) =   3
     Q(r) pseudized with  8 coefficients,  rinner =    1.150   1.150   1.150
                                                       1.150   1.150   1.150
                                                       1.150

     PseudoPot. # 2 for Au read from file:
     /afs/slac.stanford.edu/u/if/mamunm/psp/gbrv1.5pbe/Au.UPF
     MD5 check sum: 9d7f43293ad2c663164586bc4b293ffc
     Pseudo is Ultrasoft + core correction, Zval = 11.0
     Generated by new atomic code, or converted to UPF format
     Using radial grid of  985 points,  7 beta functions with:
                l(1) =   0
                l(2) =   0
                l(3) =   1
                l(4) =   1
                l(5) =   2
                l(6) =   2
                l(7) =   3
     Q(r) pseudized with  6 coefficients,  rinner =    1.900   1.900   1.900
                                                       1.900   1.900   1.900
                                                       1.900

     vdW kernel table read from file vdW_kernel_table
     MD5 check sum: 095c7af220d748ca6e76c0b4c6cfb241

     atomic species   valence    mass     pseudopotential
        Os1           16.00   190.23000     Os( 1.00)
        Au1           11.00   196.96657     Au( 1.00)

     No symmetry found

   Cartesian axes

     site n.     atom                  positions (alat units)
         1           Os1 tau(   1) = (   0.0000000   0.0000000  10.0000000  )
         2           Os1 tau(   2) = (   2.7969153   0.0000000  10.0000000  )
         3           Au1 tau(   3) = (   1.3984577   2.4872199  10.0000000  )
         4           Au1 tau(   4) = (  -1.3984577   2.4872199  10.0000000  )
         5           Os1 tau(   5) = (   2.7969153   1.5725862  12.3129436  )
         6           Os1 tau(   6) = (   0.0000000   1.5725862  12.3129436  )
         7           Au1 tau(   7) = (  -1.3984577   4.0598061  12.3129436  )
         8           Au1 tau(   8) = (   1.3984577   4.0598061  12.3129436  )
         9           Os1 tau(   9) = (   0.0000000   3.1451724  14.6258872  )
        10           Os1 tau(  10) = (   2.7969153   3.1451724  14.6258872  )
        11           Au1 tau(  11) = (   4.1953730   0.6579525  14.6258872  )
        12           Au1 tau(  12) = (   1.3984577   0.6579525  14.6258872  )

     number of k points=    20  Fermi-Dirac smearing, width (Ry)=  0.0110
                       cart. coord. in units 2pi/alat
        k(    1) = (   0.0000000   0.0000000   0.0000000), wk =   0.0555556
        k(    2) = (   0.0000000   0.0335046   0.0000000), wk =   0.1111111
        k(    3) = (   0.0000000   0.0670092   0.0000000), wk =   0.1111111
        k(    4) = (   0.0000000  -0.1005138   0.0000000), wk =   0.0555556
        k(    5) = (   0.0297947   0.0167523   0.0000000), wk =   0.1111111
        k(    6) = (   0.0297947   0.0502569   0.0000000), wk =   0.1111111
        k(    7) = (   0.0297947   0.0837615   0.0000000), wk =   0.1111111
        k(    8) = (   0.0297947  -0.0837615   0.0000000), wk =   0.1111111
        k(    9) = (   0.0297947  -0.0502569   0.0000000), wk =   0.1111111
        k(   10) = (   0.0297947  -0.0167523   0.0000000), wk =   0.1111111
        k(   11) = (   0.0595895   0.0335046   0.0000000), wk =   0.1111111
        k(   12) = (   0.0595895   0.0670092   0.0000000), wk =   0.1111111
        k(   13) = (   0.0595895   0.1005138   0.0000000), wk =   0.1111111
        k(   14) = (   0.0595895  -0.0670092   0.0000000), wk =   0.1111111
        k(   15) = (   0.0595895  -0.0335046   0.0000000), wk =   0.1111111
        k(   16) = (   0.0595895  -0.0000000   0.0000000), wk =   0.1111111
        k(   17) = (  -0.0893842  -0.0502569   0.0000000), wk =   0.0555556
        k(   18) = (  -0.0893842  -0.0167523   0.0000000), wk =   0.1111111
        k(   19) = (  -0.0893842   0.0167523   0.0000000), wk =   0.1111111
        k(   20) = (  -0.0893842  -0.1507707   0.0000000), wk =   0.0555556

     Largest allocated arrays     est. size (Mb)     dimensions
     Largest temporary arrays     est. size (Mb)     dimensions

     Check: negative/imaginary core charge=   -0.000002    0.000000

     Initial potential from superposition of free atoms
     Check: negative starting charge=   -0.748279

     starting charge  158.99905, renormalised to  162.00000

     negative rho (up, down):  7.624E-01 0.000E+00

     *
     * You are using vdW-DF for exchange-correlation in this calculation.
     * Please cite the following three references that made this development
     * possible:
     *
     *   M. Dion, H. Rydberg, E. Schroder, D. C. Langreth, and
     *   B. I. Lundqvist, Phys. Rev. Lett. 92, 246401 (2004).
     *
     *   T. Thonhauser, V. R. Cooper, S. Li, A. Puzder, P. Hyldgaard, and
     *   D. C. Langreth, Phys. Rev. B 76, 125112 (2007).
     *
     *   G. Roman-Perez and J. M. Soler, Phys. Rev. Lett. 103, 096102 (2009).
     *
     *
     * If you are using vdW-DF2, please also cite:
     *
     *   K. Lee, E. D. Murray, L. Kong, B. I. Lundqvist, and
     *   D. C. Langreth, Phys. Rev. B 82, 081101(R) (2010).
     *
     *
     * If you are calculating the stress with vdW-DF, please also cite:
     *
     *   R. Sabatini, E. Kucukbenli, B. Kolb, T. Thonhauser, and
     *   S. de Gironcoli, J. Phys.: Condens. Matter 24, 424209 (2012).
     *

     Carrying out vdW-DF run using the following parameters:

     Nqs =      20    Nr_points =    1024   r_max =   100.000
     q_mesh =
               0.00001000     0.04494208     0.09755937     0.15916263
               0.23128650     0.31572767     0.41458969     0.53033537
               0.66584808     0.82450364     1.01025438     1.22772762
               1.48234092     1.78043706     2.12944203     2.53805004
               3.01644009     3.57652955     4.23227104     5.00000000

     Gradients computed in reciprocal space

     Adding external electric field

     Computed dipole along edir(3) :
        Dipole                0.0000 Ry au,          0.0000 Debye
        Dipole field          0.0000 Ry au

        Potential amp.       -0.0000 Ry
        Total length         45.3728 bohr

     Starting wfc are  132 randomized atomic wfcs

     Self-consistent Calculation

     iteration #  1     ecut=    36.75 Ry     beta=0.10
     Davidson diagonalization with overlap
     ethr =  1.00E-02,  avg # of iterations =  8.2

[...]

     total energy              =   -1897.54768422 Ry
     Harris-Foulkes estimate   =   -1899.36049225 Ry
     estimated scf accuracy    <      10.17982618 Ry

[...]

     End of self-consistent calculation

          k = 0.0000 0.0000 0.0000 ( 17465 PWs)   bands (ev):

   -85.1150 -85.0948 -84.7372 -84.7370 -84.7168 -84.7167 -44.4933 -44.4927
   -44.4538 -44.4028 -44.3640 -44.2675 -44.2660 -44.1051 -44.0055 -43.9957
   -43.9670 -43.9575 -43.9330 -43.9043 -43.8947 -43.8819 -43.8811 -43.8679
    -7.6729  -5.9687  -5.6605  -5.5378  -5.4107  -5.3225  -5.1640  -5.1628
    -4.8658  -4.8582  -4.7698  -4.7073  -4.6372  -4.6145  -4.1870  -3.7187
    -3.4669  -3.3561  -3.3532  -3.1348  -3.0172  -2.8368  -2.8234  -2.8005
    -2.6691  -2.5286  -2.3372  -2.2628  -2.2533  -1.8558  -1.6343  -1.6029
    -1.5794  -1.4305  -1.0246  -0.8195  -0.7916  -0.6834  -0.6831  -0.3971
    -0.3230  -0.0581   0.0187   0.4315   0.4919   0.6431   0.6724   0.7119
     0.8116   1.2141   1.4057   1.5975   1.7022   1.8662   1.9121   1.9588
     2.0595   2.1366   2.3109   2.3444   2.4412   2.4704   2.4971   2.5186
     2.6705   2.6855   3.2227   3.7362   3.9261   3.9510   3.9830   4.5976
     4.8372   5.9953   6.2736   6.6041   6.6103   6.7513   6.8249   6.8605
     7.5688   7.6673   7.8037   7.8788   8.0136   8.3921   8.5034

[...]

          k =-0.0894-0.0503 0.0000 ( 17402 PWs)   bands (ev):

[...]

     the Fermi energy is     1.5063 ev

!    total energy              =   -1898.23820266 Ry
     Harris-Foulkes estimate   =   -1898.23819948 Ry
     estimated scf accuracy    <       0.00000033 Ry

     The total energy is the sum of the following terms:

     one-electron contribution =  -13810.68224710 Ry
     hartree contribution      =    6942.01778476 Ry
     xc contribution           =    -615.71172979 Ry
     ewald contribution        =    5586.22631102 Ry
     electric field correction =       0.00000000 Ry
     smearing contrib. (-TS)   =      -0.08832155 Ry

     convergence has been achieved in  17 iterations

 BEEF-vdW xc energy contributions
           1 :   -546.393821336241
           2 :    507.497281542419
           3 :   -438.079893016509
           4 :    352.016123276901
[...]

[...]

     Program PWSCF v.5.1rc2 (svn rev. 11289) starts on 19Dec2018 at  3:18: 8

[...]

   This run was terminated on:   4: 0:49  19Dec2018

[...]

     Program PWSCF v.5.1rc2 (svn rev. 11289) starts on 19Dec2018 at  4: 0:55

[...]

   This run was terminated on:   5:12:42  19Dec2018

[...]

     Program PWSCF v.5.1rc2 (svn rev. 11289) starts on 19Dec2018 at  5:12:48

     Current dimensions of program PWSCF are:
     Max number of different atomic species (ntypx) = 10
     Max number of k-points (npk) =  40000
     Max angular momentum in pseudopotentials (lmaxx) =  3
     Presently stress not available with electric field

     IMPORTANT: XC functional enforced from input :
     Exchange-correlation      = BEEF-VDW ( 1  4 27 13 2)
     Any further DFT definition will be discarded
     Please, verify this is what you really want

     Subspace diagonalization in iterative solution of the eigenvalue problem:
     a serial algorithm will be used

     bravais-lattice index     =            0
     lattice parameter (alat)  =       1.8897  a.u.
     unit-cell volume          =    4624.2572 (a.u.)^3
     number of atoms/cell      =           12
     number of atomic types    =            2
     number of electrons       =       162.00
     number of Kohn-Sham states=          111
     kinetic-energy cutoff     =      36.7493  Ry
     charge density cutoff     =     367.4932  Ry
     convergence threshold     =      1.0E-06
     mixing beta               =       0.1000
     number of iterations used =           10  plain     mixing
     Exchange-correlation      = BEEF-VDW ( 1  4 27 13 2)
     nstep                     =           50

     celldm(1)=   1.889726  celldm(2)=   0.000000  celldm(3)=   0.000000
     celldm(4)=   0.000000  celldm(5)=   0.000000  celldm(6)=   0.000000

     crystal axes: (cart. coord. in units of alat)
               a(1) = (   5.593831   0.000000   0.000000 )
               a(2) = (  -2.796915   4.974440   0.000000 )
               a(3) = (   0.000000   0.000000  24.625887 )

     reciprocal axes: (cart. coord. in units 2 pi/alat)
               b(1) = (  0.178768  0.100514  0.000000 )
               b(2) = (  0.000000  0.201028  0.000000 )
               b(3) = (  0.000000  0.000000  0.040608 )

     PseudoPot. # 1 for Os read from file:
     /afs/slac.stanford.edu/u/if/mamunm/psp/gbrv1.5pbe/Os.UPF
     MD5 check sum: a3fb40a04f0c37c25c34bbc47164c9a8
     Pseudo is Ultrasoft + core correction, Zval = 16.0
     Generated by new atomic code, or converted to UPF format
     Using radial grid of  983 points,  8 beta functions with:
                l(1) =   0
                l(2) =   0
                l(3) =   1
                l(4) =   1
                l(5) =   2
                l(6) =   2
                l(7) =   3
                l(8) =   3
     Q(r) pseudized with  8 coefficients,  rinner =    1.150   1.150   1.150
                                                       1.150   1.150   1.150
                                                       1.150

     PseudoPot. # 2 for Au read from file:
     /afs/slac.stanford.edu/u/if/mamunm/psp/gbrv1.5pbe/Au.UPF
     MD5 check sum: 9d7f43293ad2c663164586bc4b293ffc
     Pseudo is Ultrasoft + core correction, Zval = 11.0
     Generated by new atomic code, or converted to UPF format
     Using radial grid of  985 points,  7 beta functions with:
                l(1) =   0
                l(2) =   0
                l(3) =   1
                l(4) =   1
                l(5) =   2
                l(6) =   2
                l(7) =   3
     Q(r) pseudized with  6 coefficients,  rinner =    1.900   1.900   1.900
                                                       1.900   1.900   1.900
                                                       1.900

     vdW kernel table read from file vdW_kernel_table
     MD5 check sum: 095c7af220d748ca6e76c0b4c6cfb241

     atomic species   valence    mass     pseudopotential
        Os1           16.00   190.23000     Os( 1.00)
        Au1           11.00   196.96657     Au( 1.00)

     No symmetry found

   Cartesian axes

     site n.     atom                  positions (alat units)
         1           Os1 tau(   1) = (   0.0000000   0.0000000  10.0000000  )
         2           Os1 tau(   2) = (   2.7969153   0.0000000  10.0000000  )
         3           Au1 tau(   3) = (   1.3984577   2.4872199  10.0000000  )
         4           Au1 tau(   4) = (  -1.3984577   2.4872199  10.0000000  )
         5           Os1 tau(   5) = (   2.7969153   1.5725862  12.3129436  )
         6           Os1 tau(   6) = (   0.0000000   1.5725862  12.3129436  )
         7           Au1 tau(   7) = (  -1.3984577   4.0598061  12.3129436  )
         8           Au1 tau(   8) = (   1.3984577   4.0598061  12.3129436  )
         9           Os1 tau(   9) = (   0.0001243   1.1993643  14.5833113  )
        10           Os1 tau(  10) = (   2.7967905   1.1993081  14.5835936  )
        11           Au1 tau(  11) = (   1.3984615   3.6595183  15.0829206  )
        12           Au1 tau(  12) = (  -1.3984545   3.6592943  15.0829169  )

     number of k points=    20  Fermi-Dirac smearing, width (Ry)=  0.0110
                       cart. coord. in units 2pi/alat
        k(    1) = (   0.0000000   0.0000000   0.0000000), wk =   0.0555556
        k(    2) = (   0.0000000   0.0335046   0.0000000), wk =   0.1111111
        k(    3) = (   0.0000000   0.0670092   0.0000000), wk =   0.1111111
        k(    4) = (   0.0000000  -0.1005138   0.0000000), wk =   0.0555556
        k(    5) = (   0.0297947   0.0167523   0.0000000), wk =   0.1111111
        k(    6) = (   0.0297947   0.0502569   0.0000000), wk =   0.1111111
        k(    7) = (   0.0297947   0.0837615   0.0000000), wk =   0.1111111
        k(    8) = (   0.0297947  -0.0837615   0.0000000), wk =   0.1111111
        k(    9) = (   0.0297947  -0.0502569   0.0000000), wk =   0.1111111
        k(   10) = (   0.0297947  -0.0167523   0.0000000), wk =   0.1111111
        k(   11) = (   0.0595895   0.0335046   0.0000000), wk =   0.1111111
        k(   12) = (   0.0595895   0.0670092   0.0000000), wk =   0.1111111
        k(   13) = (   0.0595895   0.1005138   0.0000000), wk =   0.1111111
        k(   14) = (   0.0595895  -0.0670092   0.0000000), wk =   0.1111111
        k(   15) = (   0.0595895  -0.0335046   0.0000000), wk =   0.1111111
        k(   16) = (   0.0595895  -0.0000000   0.0000000), wk =   0.1111111
        k(   17) = (  -0.0893842  -0.0502569   0.0000000), wk =   0.0555556
        k(   18) = (  -0.0893842  -0.0167523   0.0000000), wk =   0.1111111
        k(   19) = (  -0.0893842   0.0167523   0.0000000), wk =   0.1111111
        k(   20) = (  -0.0893842  -0.1507707   0.0000000), wk =   0.0555556

     Largest allocated arrays     est. size (Mb)     dimensions
     Largest temporary arrays     est. size (Mb)     dimensions

     Check: negative/imaginary core charge=   -0.000002    0.000000

     Initial potential from superposition of free atoms
     Check: negative starting charge=   -0.748530

     starting charge  158.99905, renormalised to  162.00000

[...]

     *
     * You are using vdW-DF for exchange-correlation in this calculation.
     * Please cite the following three references that made this development
     * possible:
     *
     *   M. Dion, H. Rydberg, E. Schroder, D. C. Langreth, and
     *   B. I. Lundqvist, Phys. Rev. Lett. 92, 246401 (2004).
     *
     *   T. Thonhauser, V. R. Cooper, S. Li, A. Puzder, P. Hyldgaard, and
     *   D. C. Langreth, Phys. Rev. B 76, 125112 (2007).
     *
     *   G. Roman-Perez and J. M. Soler, Phys. Rev. Lett. 103, 096102 (2009).
     *
     *
     * If you are using vdW-DF2, please also cite:
     *
     *   K. Lee, E. D. Murray, L. Kong, B. I. Lundqvist, and
     *   D. C. Langreth, Phys. Rev. B 82, 081101(R) (2010).
     *
     *
     * If you are calculating the stress with vdW-DF, please also cite:
     *
     *   R. Sabatini, E. Kucukbenli, B. Kolb, T. Thonhauser, and
     *   S. de Gironcoli, J. Phys.: Condens. Matter 24, 424209 (2012).
     *

     Carrying out vdW-DF run using the following parameters:

     Nqs =      20    Nr_points =    1024   r_max =   100.000
     q_mesh =
               0.00001000     0.04494208     0.09755937     0.15916263
               0.23128650     0.31572767     0.41458969     0.53033537
               0.66584808     0.82450364     1.01025438     1.22772762
               1.48234092     1.78043706     2.12944203     2.53805004
               3.01644009     3.57652955     4.23227104     5.00000000

     Gradients computed in reciprocal space

[...]

     Starting wfc are  132 randomized atomic wfcs

     Self-consistent Calculation

[...]

     total energy              =   -1898.37657217 Ry
     Harris-Foulkes estimate   =   -1898.37657113 Ry
     estimated scf accuracy    <       0.00000245 Ry

     iteration # 17     ecut=    36.75 Ry     beta=0.10
     Davidson diagonalization with overlap
     ethr =  1.51E-09,  avg # of iterations =  2.0

[...]

     negative rho (up, down):  7.308E-01 0.000E+00

     Adding external electric field

     Computed dipole along edir(3) :
        Dipole                0.0899 Ry au,          0.2284 Debye
        Dipole field          0.0002 Ry au

        Potential amp.       -0.0222 Ry
        Total length         45.3728 bohr

     End of self-consistent calculation

[...]

          k = 0.0596-0.0000 0.0000 ( 17424 PWs)   bands (ev):

[...]

          k =-0.0894-0.1508 0.0000 ( 17402 PWs)   bands (ev):

   -85.2305 -85.2303 -84.8910 -84.8907 -84.5396 -84.5394 -45.1682 -45.1670
   -44.4494 -44.4492 -44.3557 -44.3555 -44.0862 -44.0859 -44.0763 -44.0759
   -43.9329 -43.9328 -43.8893 -43.8892 -43.7726 -43.7724 -43.7386 -43.7385
    -5.5395  -5.5394  -4.3735  -4.3734  -4.2123  -4.2123  -4.0182  -4.0181
    -3.8785  -3.8784  -3.6695  -3.6694  -3.4115  -3.4114  -3.2397  -3.2395
    -3.1053  -3.1052  -2.9013  -2.9012  -2.7246  -2.7245  -2.6594  -2.6593
    -2.5913  -2.5912  -2.4691  -2.4690  -2.3702  -2.3700  -2.0056  -2.0054
    -1.8015  -1.8013  -1.6990  -1.6987  -1.3248  -1.3247  -1.0714  -1.0711
    -0.9579  -0.9576  -0.5031  -0.5030  -0.3306  -0.3302   0.0352   0.0352
     0.3742   0.3743   0.6007   0.6010   0.6553   0.6555   0.8594   0.8595
     1.0941   1.0941   1.9838   1.9840   2.0979   2.0985   2.3969   2.3973
     3.1377   3.1378   3.5534   3.5535   4.2759   4.2761   5.3741   5.3743
     5.9173   5.9175   7.2849   7.2850   7.9220   7.9220   8.0080   8.0080
     8.0560   8.0561   8.7830   8.7832   9.1868   9.1869   9.4872

     the Fermi energy is     1.7209 ev

!    total energy              =   -1898.37657570 Ry
     Harris-Foulkes estimate   =   -1898.37657246 Ry
     estimated scf accuracy    <       0.00000048 Ry

     The total energy is the sum of the following terms:

     one-electron contribution =  -13497.30119414 Ry
     hartree contribution      =    6785.99308750 Ry
     xc contribution           =    -615.76014625 Ry
     ewald contribution        =    5428.75357709 Ry
     electric field correction =       0.00002195 Ry
     smearing contrib. (-TS)   =      -0.06192185 Ry

     convergence has been achieved in  17 iterations

 BEEF-vdW xc energy contributions
           1 :   -546.422417147937
           2 :    507.363643271933
           3 :   -437.718678381650
           4 :    351.476751140968
           5 :   -263.876724835751
           6 :    187.392970028935
           7 :   -129.170634315020
           8 :    90.4271658296476
           9 :   -67.7094122456911
          10 :    55.2649676566843
          11 :   -47.5160240024212
          12 :    40.7383112557350
          13 :   -33.5472978845908
          14 :    26.3291928881832
          15 :   -20.1538591437763
          16 :    15.7663812251390
          17 :   -13.0810348182990
          18 :    11.2811136357989
          19 :   -9.34463869048614
          20 :    6.63682905285441
          21 :   -3.24185049324512
          22 :  -0.120928045665323
          23 :    2.51147613895046
          24 :   -3.27712970534390
          25 :    2.38938489926909
          26 :  -0.458881882670653
          27 :   -1.55738413325957
          28 :    2.79059771758625
          29 :   -2.81928923570206
          30 :    1.78783929149063
          31 :   -46.3067664201440
          32 :   -34.3691497025015

     Forces acting on atoms (Ry/au):

     negative rho (up, down):  7.308E-01 0.000E+00
     atom    1 type  1   force =    -0.00000050    0.03673694    0.04486431
     atom    2 type  1   force =     0.00000046    0.03674096    0.04487072
     atom    3 type  2   force =     0.00000138   -0.00853821   -0.05362437
     atom    4 type  2   force =    -0.00000008   -0.00854253   -0.05362376
     atom    5 type  1   force =    -0.00000029   -0.03144126   -0.00434020
     atom    6 type  1   force =     0.00000048   -0.03139996   -0.00449646
     atom    7 type  2   force =    -0.00000519    0.00336713    0.01240478
     atom    8 type  2   force =     0.00000141    0.00336892    0.01239432
     atom    9 type  1   force =     0.00000360    0.00000213    0.00081532
     atom   10 type  1   force =    -0.00000354    0.00004130    0.00059010
     atom   11 type  2   force =     0.00000206   -0.00016501    0.00007247
     atom   12 type  2   force =     0.00000021   -0.00017041    0.00007276

     Total force =     0.122342     Total SCF correction =     0.002088

     entering subroutine stress ...

     negative rho (up, down):  7.308E-01 0.000E+00
          total   stress  (Ry/bohr**3)                   (kbar)     P=  -22.59
  -0.00026774   0.00000000   0.00000000        -39.39      0.00      0.00
   0.00000000  -0.00020499  -0.00005244          0.00    -30.16     -7.71
   0.00000000  -0.00005244   0.00001211          0.00     -7.71      1.78

 !ASE

     Writing output data file calc.save

     General routines

     Parallel routines

   This run was terminated on:   5:27: 1  19Dec2018

   JOB DONE.
Job  /afs/slac/g/suncat/bin/suncat-tsmpirun -x LD_LIBRARY_PATH -wdir /scratch/qe530396_Zs2Va pw.x -in pw.inp

TID   HOST_NAME   COMMAND_LINE            STATUS            TERMINATION_TIME
00000 suncat2066 pw.x -in pw.inp   Done                     12/19/2018 05:27:01
00001 suncat2066 pw.x -in pw.inp   Done                     12/19/2018 05:27:01
00002 suncat2066 pw.x -in pw.inp   Done                     12/19/2018 05:27:01
00003 suncat2066 pw.x -in pw.inp   Done                     12/19/2018 05:27:01
00004 suncat2066 pw.x -in pw.inp   Done                     12/19/2018 05:27:01
00005 suncat2066 pw.x -in pw.inp   Done                     12/19/2018 05:27:01
00006 suncat2066 pw.x -in pw.inp   Done                     12/19/2018 05:27:01
00007 suncat2066 pw.x -in pw.inp   Done                     12/19/2018 05:27:01
00008 suncat2066 pw.x -in pw.inp   Done                     12/19/2018 05:27:01
00009 suncat2066 pw.x -in pw.inp   Done                     12/19/2018 05:27:01
00010 suncat2066 pw.x -in pw.inp   Done                     12/19/2018 05:27:01
00011 suncat2066 pw.x -in pw.inp   Done                     12/19/2018 05:27:01
00012 suncat2066 pw.x -in pw.inp   Done                     12/19/2018 05:27:01
00013 suncat2066 pw.x -in pw.inp   Done                     12/19/2018 05:27:01
00014 suncat2066 pw.x -in pw.inp   Done                     12/19/2018 05:27:01
00015 suncat2066 pw.x -in pw.inp   Done                     12/19/2018 05:27:01
00016 suncat2065 pw.x -in pw.inp   Done                     12/19/2018 05:27:01
00017 suncat2065 pw.x -in pw.inp   Done                     12/19/2018 05:27:01
00018 suncat2065 pw.x -in pw.inp   Done                     12/19/2018 05:27:01
00019 suncat2065 pw.x -in pw.inp   Done                     12/19/2018 05:27:01
00020 suncat2065 pw.x -in pw.inp   Done                     12/19/2018 05:27:01
00021 suncat2065 pw.x -in pw.inp   Done                     12/19/2018 05:27:01
00022 suncat2065 pw.x -in pw.inp   Done                     12/19/2018 05:27:01
00023 suncat2065 pw.x -in pw.inp   Done                     12/19/2018 05:27:01
00024 suncat2065 pw.x -in pw.inp   Done                     12/19/2018 05:27:01
00025 suncat2065 pw.x -in pw.inp   Done                     12/19/2018 05:27:01
00026 suncat2065 pw.x -in pw.inp   Done                     12/19/2018 05:27:01
00027 suncat2065 pw.x -in pw.inp   Done                     12/19/2018 05:27:01
00028 suncat2065 pw.x -in pw.inp   Done                     12/19/2018 05:27:01
00029 suncat2065 pw.x -in pw.inp   Done                     12/19/2018 05:27:01
00030 suncat2065 pw.x -in pw.inp   Done                     12/19/2018 05:27:01
00031 suncat2065 pw.x -in pw.inp   Done                     12/19/2018 05:27:01