     Program PWSCF v.5.1rc2 (svn rev. 11289) starts on 18Dec2018 at 16:51:59

     Current dimensions of program PWSCF are:
     Max number of different atomic species (ntypx) = 10
     Max number of k-points (npk) =  40000
     Max angular momentum in pseudopotentials (lmaxx) =  3
     Presently stress not available with electric field

     IMPORTANT: XC functional enforced from input :
     Exchange-correlation      = BEEF-VDW ( 1  4 27 13 2)
     Any further DFT definition will be discarded
     Please, verify this is what you really want

     Subspace diagonalization in iterative solution of the eigenvalue problem:
     a serial algorithm will be used

     Found symmetry operation: I + (  0.5000 -0.5000  0.0000)
     This is a supercell, fractional translations are disabled

     Generating pointlists ...
     new r_m :   0.4125 (alat units)  0.7795 (a.u.) for type    1
     new r_m :   0.4125 (alat units)  0.7795 (a.u.) for type    2

     bravais-lattice index     =            0
     lattice parameter (alat)  =       1.8897  a.u.
     unit-cell volume          =    3997.1246 (a.u.)^3
     number of atoms/cell      =           12
     number of atomic types    =            2
     number of electrons       =       198.00
     number of Kohn-Sham states=          129
     kinetic-energy cutoff     =      36.7493  Ry
     charge density cutoff     =     367.4932  Ry
     convergence threshold     =      1.0E-06
     mixing beta               =       0.1000
     number of iterations used =           10  plain     mixing
     Exchange-correlation      = BEEF-VDW ( 1  4 27 13 2)
     nstep                     =           50

     celldm(1)=   1.889726  celldm(2)=   0.000000  celldm(3)=   0.000000
     celldm(4)=   0.000000  celldm(5)=   0.000000  celldm(6)=   0.000000

     crystal axes: (cart. coord. in units of alat)
               a(1) = (   5.090291   0.000000   0.000000 )
               a(2) = (   1.632879   4.821283   0.000000 )
               a(3) = (   0.000000   0.000000  24.134917 )

     reciprocal axes: (cart. coord. in units 2 pi/alat)
               b(1) = (  0.196452 -0.066535  0.000000 )
               b(2) = (  0.000000  0.207414  0.000000 )
               b(3) = (  0.000000  0.000000  0.041434 )

     PseudoPot. # 1 for Mn read from file:
     /afs/slac.stanford.edu/u/if/mamunm/psp/gbrv1.5pbe/Mn.UPF
     MD5 check sum: 82ef2b46521d7a7d9e736dc3972e4928
     Pseudo is Ultrasoft + core correction, Zval = 15.0
     Generated by new atomic code, or converted to UPF format
     Using radial grid of  859 points,  6 beta functions with:
                l(1) =   0
                l(2) =   0
                l(3) =   1
                l(4) =   1
                l(5) =   2
                l(6) =   2
     Q(r) pseudized with  8 coefficients,  rinner =    0.950   0.950   0.950
                                                       0.950   0.950

     PseudoPot. # 2 for Ni read from file:
     /afs/slac.stanford.edu/u/if/mamunm/psp/gbrv1.5pbe/Ni.UPF
     MD5 check sum: 1ee80287db30b12d2bc1f57a5b5d6409
     Pseudo is Ultrasoft + core correction, Zval = 18.0
     Generated by new atomic code, or converted to UPF format
     Using radial grid of  865 points,  6 beta functions with:
                l(1) =   0
                l(2) =   0
                l(3) =   1
                l(4) =   1
                l(5) =   2
                l(6) =   2
     Q(r) pseudized with 10 coefficients,  rinner =    0.980   0.980   0.980
                                                       0.980   0.980

     vdW kernel table read from file vdW_kernel_table
     MD5 check sum: 095c7af220d748ca6e76c0b4c6cfb241

     atomic species   valence    mass     pseudopotential
        Mn1           15.00    54.93804     Mn( 1.00)
        Ni1           18.00    58.69340     Ni( 1.00)

     Starting magnetic structure
     atomic species   magnetization
        Mn1          0.133
        Ni1          0.111

     No symmetry found

   Cartesian axes

     site n.     atom                  positions (alat units)
         1           Mn1 tau(   1) = (   0.0000000   0.0000000  10.0000000  )
         2           Mn1 tau(   2) = (   3.3615850   2.4106416  10.0000000  )
         3           Ni1 tau(   3) = (   2.5451456   0.0000000  10.0000000  )
         4           Ni1 tau(   4) = (   0.8164394   2.4106416  10.0000000  )
         5           Mn1 tau(   5) = (   5.0902912   3.6503220  12.0674587  )
         6           Mn1 tau(   6) = (   1.7287062   1.2396804  12.0674587  )
         7           Ni1 tau(   7) = (   2.5451456   3.6503220  12.0674587  )
         8           Ni1 tau(   8) = (   4.2738518   1.2396804  12.0674587  )
         9           Mn1 tau(   9) = (   3.4574124   2.4793608  14.1349173  )
        10           Mn1 tau(  10) = (   0.0958274   0.0687192  14.1349173  )
        11           Ni1 tau(  11) = (   0.9122668   2.4793608  14.1349173  )
        12           Ni1 tau(  12) = (   2.6409730   0.0687192  14.1349173  )

     number of k points=    40  Fermi-Dirac smearing, width (Ry)=  0.0110
                       cart. coord. in units 2pi/alat
        k(    1) = (   0.0000000   0.0000000   0.0000000), wk =   0.0277778
        k(    2) = (   0.0000000   0.0345689   0.0000000), wk =   0.0555556
        k(    3) = (   0.0000000   0.0691379   0.0000000), wk =   0.0555556
        k(    4) = (   0.0000000  -0.1037068   0.0000000), wk =   0.0277778
        k(    5) = (   0.0327421  -0.0110891   0.0000000), wk =   0.0555556
        k(    6) = (   0.0327421   0.0234798   0.0000000), wk =   0.0555556
        k(    7) = (   0.0327421   0.0580488   0.0000000), wk =   0.0555556
        k(    8) = (   0.0327421  -0.1147960   0.0000000), wk =   0.0555556
        k(    9) = (   0.0327421  -0.0802270   0.0000000), wk =   0.0555556
        k(   10) = (   0.0327421  -0.0456581   0.0000000), wk =   0.0555556
        k(   11) = (   0.0654841  -0.0221783   0.0000000), wk =   0.0555556
        k(   12) = (   0.0654841   0.0123907   0.0000000), wk =   0.0555556
        k(   13) = (   0.0654841   0.0469596   0.0000000), wk =   0.0555556
        k(   14) = (   0.0654841  -0.1258851   0.0000000), wk =   0.0555556
        k(   15) = (   0.0654841  -0.0913161   0.0000000), wk =   0.0555556
        k(   16) = (   0.0654841  -0.0567472   0.0000000), wk =   0.0555556
        k(   17) = (  -0.0982262   0.0332674   0.0000000), wk =   0.0277778
        k(   18) = (  -0.0982262   0.0678363   0.0000000), wk =   0.0555556
        k(   19) = (  -0.0982262   0.1024053   0.0000000), wk =   0.0555556
        k(   20) = (  -0.0982262  -0.0704394   0.0000000), wk =   0.0277778
        k(   21) = (   0.0000000   0.0000000   0.0000000), wk =   0.0277778
        k(   22) = (   0.0000000   0.0345689   0.0000000), wk =   0.0555556
        k(   23) = (   0.0000000   0.0691379   0.0000000), wk =   0.0555556
        k(   24) = (   0.0000000  -0.1037068   0.0000000), wk =   0.0277778
        k(   25) = (   0.0327421  -0.0110891   0.0000000), wk =   0.0555556
        k(   26) = (   0.0327421   0.0234798   0.0000000), wk =   0.0555556
        k(   27) = (   0.0327421   0.0580488   0.0000000), wk =   0.0555556
        k(   28) = (   0.0327421  -0.1147960   0.0000000), wk =   0.0555556
        k(   29) = (   0.0327421  -0.0802270   0.0000000), wk =   0.0555556
        k(   30) = (   0.0327421  -0.0456581   0.0000000), wk =   0.0555556
        k(   31) = (   0.0654841  -0.0221783   0.0000000), wk =   0.0555556
        k(   32) = (   0.0654841   0.0123907   0.0000000), wk =   0.0555556
        k(   33) = (   0.0654841   0.0469596   0.0000000), wk =   0.0555556
        k(   34) = (   0.0654841  -0.1258851   0.0000000), wk =   0.0555556
        k(   35) = (   0.0654841  -0.0913161   0.0000000), wk =   0.0555556
        k(   36) = (   0.0654841  -0.0567472   0.0000000), wk =   0.0555556
        k(   37) = (  -0.0982262   0.0332674   0.0000000), wk =   0.0277778
        k(   38) = (  -0.0982262   0.0678363   0.0000000), wk =   0.0555556
        k(   39) = (  -0.0982262   0.1024053   0.0000000), wk =   0.0555556
        k(   40) = (  -0.0982262  -0.0704394   0.0000000), wk =   0.0277778

     Largest allocated arrays     est. size (Mb)     dimensions
     Largest temporary arrays     est. size (Mb)     dimensions

     Check: negative/imaginary core charge=   -0.000007    0.000000

     Initial potential from superposition of free atoms
     Check: negative starting charge=(component1):   -0.001328
     Check: negative starting charge=(component2):   -0.001018

     starting charge  182.99949, renormalised to  198.00000

     negative rho (up, down):  1.437E-03 1.102E-03

     *
     * You are using vdW-DF for exchange-correlation in this calculation.
     * Please cite the following three references that made this development
     * possible:
     *
     *   M. Dion, H. Rydberg, E. Schroder, D. C. Langreth, and
     *   B. I. Lundqvist, Phys. Rev. Lett. 92, 246401 (2004).
     *
     *   T. Thonhauser, V. R. Cooper, S. Li, A. Puzder, P. Hyldgaard, and
     *   D. C. Langreth, Phys. Rev. B 76, 125112 (2007).
     *
     *   G. Roman-Perez and J. M. Soler, Phys. Rev. Lett. 103, 096102 (2009).
     *
     *
     * If you are using vdW-DF2, please also cite:
     *
     *   K. Lee, E. D. Murray, L. Kong, B. I. Lundqvist, and
     *   D. C. Langreth, Phys. Rev. B 82, 081101(R) (2010).
     *
     *
     * If you are calculating the stress with vdW-DF, please also cite:
     *
     *   R. Sabatini, E. Kucukbenli, B. Kolb, T. Thonhauser, and
     *   S. de Gironcoli, J. Phys.: Condens. Matter 24, 424209 (2012).
     *

     Carrying out vdW-DF run using the following parameters:

     Nqs =      20    Nr_points =    1024   r_max =   100.000
     q_mesh =
               0.00001000     0.04494208     0.09755937     0.15916263
               0.23128650     0.31572767     0.41458969     0.53033537
               0.66584808     0.82450364     1.01025438     1.22772762
               1.48234092     1.78043706     2.12944203     2.53805004
               3.01644009     3.57652955     4.23227104     5.00000000

     Gradients computed in reciprocal space

     Adding external electric field

     Computed dipole along edir(3) :
        Dipole                0.0000 Ry au,          0.0000 Debye
        Dipole field          0.0000 Ry au

        Potential amp.       -0.0000 Ry
        Total length         44.4682 bohr

[...]

     Starting wfc are  156 randomized atomic wfcs

     Self-consistent Calculation

     iteration #  1     ecut=    36.75 Ry     beta=0.10
     Davidson diagonalization with overlap
     ethr =  1.00E-02,  avg # of iterations =  7.9

[...]

     Magnetic moment per site:
     atom:    1    charge:    6.2745    magn:    0.7956    constr:    0.0000
     atom:    2    charge:    6.2745    magn:    0.7956    constr:    0.0000
     atom:    3    charge:    9.6394    magn:    1.0198    constr:    0.0000
     atom:    4    charge:    9.6394    magn:    1.0198    constr:    0.0000
     atom:    5    charge:    6.2820    magn:    0.7917    constr:    0.0000
     atom:    6    charge:    6.2820    magn:    0.7917    constr:    0.0000
[...]

     PseudoPot. # 2 for Ni read from file:
     /afs/slac.stanford.edu/u/if/mamunm/psp/gbrv1.5pbe/Ni.UPF
     MD5 check sum: 1ee80287db30b12d2bc1f57a5b5d6409
     Pseudo is Ultrasoft + core correction, Zval = 18.0
     Generated by new atomic code, or converted to UPF format
     Using radial grid of  865 points,  6 beta functions with:
                l(1) =   0
                l(2) =   0
                l(3) =   1
                l(4) =   1
                l(5) =   2
                l(6) =   2
     Q(r) pseudized with 10 coefficients,  rinner =    0.980   0.980   0.980
                                                       0.980   0.980

     vdW kernel table read from file vdW_kernel_table
     MD5 check sum: 095c7af220d748ca6e76c0b4c6cfb241

     atomic species   valence    mass     pseudopotential
        Mn1           15.00    54.93804     Mn( 1.00)
        Ni1           18.00    58.69340     Ni( 1.00)

     Starting magnetic structure
     atomic species   magnetization
        Mn1          0.133
        Ni1          0.111

     No symmetry found

   Cartesian axes

     site n.     atom                  positions (alat units)
         1           Mn1 tau(   1) = (   0.0000000   0.0000000  10.0000000  )
         2           Mn1 tau(   2) = (   3.3615850   2.4106416  10.0000000  )
         3           Ni1 tau(   3) = (   2.5451456   0.0000000  10.0000000  )
         4           Ni1 tau(   4) = (   0.8164394   2.4106416  10.0000000  )
         5           Mn1 tau(   5) = (   5.0902912   3.6503220  12.0674587  )
         6           Mn1 tau(   6) = (   1.7287062   1.2396804  12.0674587  )
         7           Ni1 tau(   7) = (   2.5451456   3.6503220  12.0674587  )
         8           Ni1 tau(   8) = (   4.2738518   1.2396804  12.0674587  )
         9           Mn1 tau(   9) = (   3.4452305   2.4706150  14.1897511  )
        10           Mn1 tau(  10) = (   0.0838510   0.0601393  14.1897556  )
        11           Ni1 tau(  11) = (   0.9032460   2.4731879  14.0066782  )
        12           Ni1 tau(  12) = (   2.6322269   0.0621520  14.0066446  )

     number of k points=    40  Fermi-Dirac smearing, width (Ry)=  0.0110
                       cart. coord. in units 2pi/alat
        k(    1) = (   0.0000000   0.0000000   0.0000000), wk =   0.0277778
        k(    2) = (   0.0000000   0.0345689   0.0000000), wk =   0.0555556
        k(    3) = (   0.0000000   0.0691379   0.0000000), wk =   0.0555556
        k(    4) = (   0.0000000  -0.1037068   0.0000000), wk =   0.0277778
        k(    5) = (   0.0327421  -0.0110891   0.0000000), wk =   0.0555556
        k(    6) = (   0.0327421   0.0234798   0.0000000), wk =   0.0555556
        k(    7) = (   0.0327421   0.0580488   0.0000000), wk =   0.0555556
        k(    8) = (   0.0327421  -0.1147960   0.0000000), wk =   0.0555556
        k(    9) = (   0.0327421  -0.0802270   0.0000000), wk =   0.0555556
        k(   10) = (   0.0327421  -0.0456581   0.0000000), wk =   0.0555556
        k(   11) = (   0.0654841  -0.0221783   0.0000000), wk =   0.0555556
        k(   12) = (   0.0654841   0.0123907   0.0000000), wk =   0.0555556
        k(   13) = (   0.0654841   0.0469596   0.0000000), wk =   0.0555556
        k(   14) = (   0.0654841  -0.1258851   0.0000000), wk =   0.0555556
        k(   15) = (   0.0654841  -0.0913161   0.0000000), wk =   0.0555556
        k(   16) = (   0.0654841  -0.0567472   0.0000000), wk =   0.0555556
        k(   17) = (  -0.0982262   0.0332674   0.0000000), wk =   0.0277778
        k(   18) = (  -0.0982262   0.0678363   0.0000000), wk =   0.0555556
        k(   19) = (  -0.0982262   0.1024053   0.0000000), wk =   0.0555556
        k(   20) = (  -0.0982262  -0.0704394   0.0000000), wk =   0.0277778
        k(   21) = (   0.0000000   0.0000000   0.0000000), wk =   0.0277778
        k(   22) = (   0.0000000   0.0345689   0.0000000), wk =   0.0555556
        k(   23) = (   0.0000000   0.0691379   0.0000000), wk =   0.0555556
        k(   24) = (   0.0000000  -0.1037068   0.0000000), wk =   0.0277778
        k(   25) = (   0.0327421  -0.0110891   0.0000000), wk =   0.0555556
        k(   26) = (   0.0327421   0.0234798   0.0000000), wk =   0.0555556
        k(   27) = (   0.0327421   0.0580488   0.0000000), wk =   0.0555556
        k(   28) = (   0.0327421  -0.1147960   0.0000000), wk =   0.0555556
        k(   29) = (   0.0327421  -0.0802270   0.0000000), wk =   0.0555556
        k(   30) = (   0.0327421  -0.0456581   0.0000000), wk =   0.0555556
        k(   31) = (   0.0654841  -0.0221783   0.0000000), wk =   0.0555556
        k(   32) = (   0.0654841   0.0123907   0.0000000), wk =   0.0555556
        k(   33) = (   0.0654841   0.0469596   0.0000000), wk =   0.0555556
        k(   34) = (   0.0654841  -0.1258851   0.0000000), wk =   0.0555556
        k(   35) = (   0.0654841  -0.0913161   0.0000000), wk =   0.0555556
        k(   36) = (   0.0654841  -0.0567472   0.0000000), wk =   0.0555556
        k(   37) = (  -0.0982262   0.0332674   0.0000000), wk =   0.0277778
        k(   38) = (  -0.0982262   0.0678363   0.0000000), wk =   0.0555556
        k(   39) = (  -0.0982262   0.1024053   0.0000000), wk =   0.0555556
        k(   40) = (  -0.0982262  -0.0704394   0.0000000), wk =   0.0277778

     Largest allocated arrays     est. size (Mb)     dimensions
     Largest temporary arrays     est. size (Mb)     dimensions

     Check: negative/imaginary core charge=   -0.000007    0.000000

     Initial potential from superposition of free atoms
     Check: negative starting charge=(component1):   -0.001318
     Check: negative starting charge=(component2):   -0.001011

     starting charge  182.99949, renormalised to  198.00000

[...]

     *
     * You are using vdW-DF for exchange-correlation in this calculation.
     * Please cite the following three references that made this development
     * possible:
     *
     *   M. Dion, H. Rydberg, E. Schroder, D. C. Langreth, and
     *   B. I. Lundqvist, Phys. Rev. Lett. 92, 246401 (2004).
     *
     *   T. Thonhauser, V. R. Cooper, S. Li, A. Puzder, P. Hyldgaard, and
     *   D. C. Langreth, Phys. Rev. B 76, 125112 (2007).
     *
     *   G. Roman-Perez and J. M. Soler, Phys. Rev. Lett. 103, 096102 (2009).
     *
     *
     * If you are using vdW-DF2, please also cite:
     *
     *   K. Lee, E. D. Murray, L. Kong, B. I. Lundqvist, and
     *   D. C. Langreth, Phys. Rev. B 82, 081101(R) (2010).
     *
     *
     * If you are calculating the stress with vdW-DF, please also cite:
     *
     *   R. Sabatini, E. Kucukbenli, B. Kolb, T. Thonhauser, and
     *   S. de Gironcoli, J. Phys.: Condens. Matter 24, 424209 (2012).
     *

     Carrying out vdW-DF run using the following parameters:

     Nqs =      20    Nr_points =    1024   r_max =   100.000
     q_mesh =
               0.00001000     0.04494208     0.09755937     0.15916263
               0.23128650     0.31572767     0.41458969     0.53033537
               0.66584808     0.82450364     1.01025438     1.22772762
               1.48234092     1.78043706     2.12944203     2.53805004
               3.01644009     3.57652955     4.23227104     5.00000000

     Gradients computed in reciprocal space

[...]

     Starting wfc are  156 randomized atomic wfcs

     Self-consistent Calculation

[...]

     total energy              =   -3339.27210834 Ry
     Harris-Foulkes estimate   =   -3339.27210636 Ry
     estimated scf accuracy    <       0.00000125 Ry

[...]

     iteration # 38     ecut=    36.75 Ry     beta=0.10
     Davidson diagonalization with overlap
     ethr =  6.29E-10,  avg # of iterations =  2.0

[...]

     negative rho (up, down):  1.702E-03 1.541E-03

[...]

     Adding external electric field

     Computed dipole along edir(3) :
        Dipole                0.0236 Ry au,          0.0599 Debye
        Dipole field          0.0001 Ry au

        Potential amp.       -0.0066 Ry
        Total length         44.4682 bohr

     Magnetic moment per site:
     atom:    1    charge:    6.0099    magn:    1.5330    constr:    0.0000
     atom:    2    charge:    6.0099    magn:    1.5330    constr:    0.0000
     atom:    3    charge:    9.3485    magn:    0.4088    constr:    0.0000
     atom:    4    charge:    9.3485    magn:    0.4088    constr:    0.0000
     atom:    5    charge:    6.0024    magn:    1.4297    constr:    0.0000
     atom:    6    charge:    6.0024    magn:    1.4298    constr:    0.0000
     atom:    7    charge:    9.3402    magn:    0.4863    constr:    0.0000
     atom:    8    charge:    9.3403    magn:    0.4863    constr:    0.0000
     atom:    9    charge:    6.0161    magn:    1.5458    constr:    0.0000
     atom:   10    charge:    6.0161    magn:    1.5458    constr:    0.0000
     atom:   11    charge:    9.3536    magn:    0.4042    constr:    0.0000
     atom:   12    charge:    9.3535    magn:    0.4042    constr:    0.0000

     End of self-consistent calculation

 ------ SPIN UP ------------

[...]

 ------ SPIN DOWN ----------

[...]

          k = 0.0655-0.0567 0.0000 ( 15044 PWs)   bands (ev):

[...]

          k =-0.0982-0.0704 0.0000 ( 15058 PWs)   bands (ev):

  -102.2005-102.1997-101.9423-101.9414-101.8725-101.8717 -76.3053 -76.3007
   -76.2901 -76.2839 -76.2785 -76.2727 -62.6239 -62.6088 -62.5971 -62.5967
   -62.5902 -62.5889 -62.3917 -62.3912 -62.3696 -62.3545 -62.3438 -62.3433
   -62.2969 -62.2869 -62.2860 -62.2820 -62.2005 -62.1994 -45.1345 -45.1338
   -45.1240 -45.1212 -45.1202 -45.1111 -45.1076 -45.0882 -45.0807 -45.0670
   -45.0637 -45.0624 -45.0605 -45.0597 -45.0561 -45.0508 -45.0483 -45.0416
    -4.6134  -4.4871  -3.3069  -3.1259  -2.7303  -2.5664  -2.0423  -1.9247
    -1.8207  -1.7416  -1.7139  -1.6072  -1.2469  -1.2339  -1.1737  -1.1482
    -0.9805  -0.8734  -0.8710  -0.8704  -0.8655  -0.7765  -0.7189  -0.7131
    -0.6154  -0.5471  -0.5086  -0.4192  -0.3990  -0.3548  -0.2415  -0.2239
    -0.1640  -0.0894  -0.0688   0.1760   0.2275   0.2585   0.3240   0.4730
     0.6307   1.1479   1.2096   1.2702   1.3841   1.3937   1.4530   1.4948
     1.7029   1.7229   1.7704   1.8670   1.9195   1.9249   2.0003   2.2170
     2.2904   2.6548   2.7065   2.7654   2.9033   2.9571   3.0023   3.0643
     3.0882   3.1999   3.3312   3.9922   4.3070   4.3348   4.9965   5.1328
     5.2988   5.5005   6.5528   6.6968   7.0871   7.1797   7.1805   7.3158
     7.3744

     the Fermi energy is     0.6342 ev

!    total energy              =   -3339.27211511 Ry
     Harris-Foulkes estimate   =   -3339.27210892 Ry
     estimated scf accuracy    <       0.00000075 Ry

     The total energy is the sum of the following terms:

     one-electron contribution =  -26268.20210929 Ry
     hartree contribution      =   13136.27032858 Ry
     xc contribution           =    -386.73288301 Ry
     ewald contribution        =   10179.44276877 Ry
     electric field correction =       0.00000174 Ry
     smearing contrib. (-TS)   =      -0.05022191 Ry

     total magnetization       =    26.80 Bohr mag/cell
     absolute magnetization    =    27.72 Bohr mag/cell

     convergence has been achieved in  38 iterations

 BEEF-vdW xc energy contributions
           1 :   -339.438539559043
           2 :    306.918883467976
           3 :   -252.749688752401
           4 :    193.096988762024
           5 :   -142.034279016874
           6 :    106.506895843591
           7 :   -85.6863781840770
           8 :    73.9350072727469
           9 :   -65.0235133285448
          10 :    55.2369785423170
          11 :   -44.1864697230471
          12 :    33.6124411174609
          13 :   -25.4612089609814
          14 :    20.5014228421717
          15 :   -18.0514479101587
          16 :    16.6114087268203
          17 :   -14.8253662699010
          18 :    12.1848734238800
          19 :   -9.13907387684588
          20 :    6.62251616879411
          21 :   -5.34731438983391
          22 :    5.30918613229909
          23 :   -5.80963945598756
          24 :    5.94653295995698
          25 :   -5.22384502006543
          26 :    3.84528535545320
          27 :   -2.49939592146637
          28 :    1.81693895565371
          29 :   -1.92423114140632
          30 :    2.40681840983558
          31 :   -29.0870147615573
          32 :   -20.3687909587990

     Forces acting on atoms (Ry/au):

     negative rho (up, down):  1.702E-03 1.541E-03
     atom    1 type  1   force =     0.00234596    0.00167847   -0.00806149
     atom    2 type  1   force =     0.00234293    0.00168358   -0.00806246
     atom    3 type  2   force =     0.00039162    0.00028010    0.02138563
     atom    4 type  2   force =     0.00040309    0.00029041    0.02138552
     atom    5 type  1   force =    -0.00112718   -0.00080607   -0.01514510
     atom    6 type  1   force =    -0.00112294   -0.00080760   -0.01509693
     atom    7 type  2   force =     0.00044287    0.00031715    0.00253983
     atom    8 type  2   force =     0.00041023    0.00029473    0.00254837
     atom    9 type  1   force =    -0.00089811   -0.00063760   -0.00059840
     atom   10 type  1   force =    -0.00088852   -0.00064355   -0.00059687
     atom   11 type  2   force =    -0.00112815   -0.00083978   -0.00015648
     atom   12 type  2   force =    -0.00117179   -0.00080985   -0.00014162

     Total force =     0.039289     Total SCF correction =     0.005124
     SCF correction compared to forces is large: reduce conv_thr to get better values

     entering subroutine stress ...

     negative rho (up, down):  1.702E-03 1.541E-03
          total   stress  (Ry/bohr**3)                   (kbar)     P=  -41.15
  -0.00028488   0.00004174  -0.00000934        -41.91      6.14     -1.37
   0.00004174  -0.00031316  -0.00000670          6.14    -46.07     -0.99
  -0.00000934  -0.00000670  -0.00024111         -1.37     -0.99    -35.47

 !ASE

     Writing output data file calc.save

     General routines

     Parallel routines

   This run was terminated on:  18: 8: 8  18Dec2018

   JOB DONE.
Job  /afs/slac/g/suncat/bin/suncat-tsmpirun -x LD_LIBRARY_PATH -wdir /scratch/qe530214_laNAG pw.x -in pw.inp

TID   HOST_NAME   COMMAND_LINE            STATUS            TERMINATION_TIME
00000 suncat2052 pw.x -in pw.inp   Done                     12/18/2018 18:08:08
00001 suncat2052 pw.x -in pw.inp   Done                     12/18/2018 18:08:08
00002 suncat2052 pw.x -in pw.inp   Done                     12/18/2018 18:08:08
00003 suncat2052 pw.x -in pw.inp   Done                     12/18/2018 18:08:08
00004 suncat2052 pw.x -in pw.inp   Done                     12/18/2018 18:08:08
00005 suncat2052 pw.x -in pw.inp   Done                     12/18/2018 18:08:08
00006 suncat2052 pw.x -in pw.inp   Done                     12/18/2018 18:08:08
00007 suncat2052 pw.x -in pw.inp   Done                     12/18/2018 18:08:08
00008 suncat2052 pw.x -in pw.inp   Done                     12/18/2018 18:08:08
00009 suncat2052 pw.x -in pw.inp   Done                     12/18/2018 18:08:08
00010 suncat2052 pw.x -in pw.inp   Done                     12/18/2018 18:08:08
00011 suncat2052 pw.x -in pw.inp   Done                     12/18/2018 18:08:08
00012 suncat2052 pw.x -in pw.inp   Done                     12/18/2018 18:08:08
00013 suncat2052 pw.x -in pw.inp   Done                     12/18/2018 18:08:08
00014 suncat2052 pw.x -in pw.inp   Done                     12/18/2018 18:08:08
00015 suncat2052 pw.x -in pw.inp   Done                     12/18/2018 18:08:08
00016 suncat2051 pw.x -in pw.inp   Done                     12/18/2018 18:08:08
00017 suncat2051 pw.x -in pw.inp   Done                     12/18/2018 18:08:08
00018 suncat2051 pw.x -in pw.inp   Done                     12/18/2018 18:08:08
00019 suncat2051 pw.x -in pw.inp   Done                     12/18/2018 18:08:08
00020 suncat2051 pw.x -in pw.inp   Done                     12/18/2018 18:08:08
00021 suncat2051 pw.x -in pw.inp   Done                     12/18/2018 18:08:08
00022 suncat2051 pw.x -in pw.inp   Done                     12/18/2018 18:08:08
00023 suncat2051 pw.x -in pw.inp   Done                     12/18/2018 18:08:08
00024 suncat2051 pw.x -in pw.inp   Done                     12/18/2018 18:08:08
00025 suncat2051 pw.x -in pw.inp   Done                     12/18/2018 18:08:08
00026 suncat2051 pw.x -in pw.inp   Done                     12/18/2018 18:08:08
00027 suncat2051 pw.x -in pw.inp   Done                     12/18/2018 18:08:08
00028 suncat2051 pw.x -in pw.inp   Done                     12/18/2018 18:08:08
00029 suncat2051 pw.x -in pw.inp   Done                     12/18/2018 18:08:08
00030 suncat2051 pw.x -in pw.inp   Done                     12/18/2018 18:08:08
00031 suncat2051 pw.x -in pw.inp   Done                     12/18/2018 18:08:08