     Program PWSCF v.5.1rc2 (svn rev. 11289) starts on 19Dec2018 at  6:18: 2

     Current dimensions of program PWSCF are:
     Max number of different atomic species (ntypx) = 10
     Max number of k-points (npk) =  40000
     Max angular momentum in pseudopotentials (lmaxx) =  3
     Presently stress not available with electric field

     IMPORTANT: XC functional enforced from input :
     Exchange-correlation      = BEEF-VDW ( 1  4 27 13 2)
     Any further DFT definition will be discarded
     Please, verify this is what you really want

     Subspace diagonalization in iterative solution of the eigenvalue problem:
     a serial algorithm will be used

     Found symmetry operation: I + (  0.5000 -0.5000  0.0000)
     This is a supercell, fractional translations are disabled

     bravais-lattice index     =            0
     lattice parameter (alat)  =       1.8897  a.u.
     unit-cell volume          =    5494.5633 (a.u.)^3
     number of atoms/cell      =           12
     number of atomic types    =            2
     number of electrons       =       162.00
     number of Kohn-Sham states=          111
     kinetic-energy cutoff     =      36.7493  Ry
     charge density cutoff     =     367.4932  Ry
     convergence threshold     =      1.0E-06
     mixing beta               =       0.1000
     number of iterations used =           10  plain     mixing
     Exchange-correlation      = BEEF-VDW ( 1  4 27 13 2)
     nstep                     =           50

     celldm(1)=   1.889726  celldm(2)=   0.000000  celldm(3)=   0.000000
     celldm(4)=   0.000000  celldm(5)=   0.000000  celldm(6)=   0.000000

     crystal axes: (cart. coord. in units of alat)
               a(1) = (   5.952949   0.000000   0.000000 )
               a(2) = (   2.307347   5.487600   0.000000 )
               a(3) = (   0.000000   0.000000  24.924242 )

     reciprocal axes: (cart. coord. in units 2 pi/alat)
               b(1) = (  0.167984 -0.070631  0.000000 )
               b(2) = (  0.000000  0.182229  0.000000 )
               b(3) = (  0.000000  0.000000  0.040122 )

     PseudoPot. # 1 for Sn read from file:
     /afs/slac.stanford.edu/u/if/mamunm/psp/gbrv1.5pbe/Sn.UPF
     MD5 check sum: 469debedee59599fedebd795477fea03
     Pseudo is Ultrasoft + core correction, Zval = 14.0
     Generated by new atomic code, or converted to UPF format
     Using radial grid of  891 points,  6 beta functions with:
                l(1) =   0
                l(2) =   0
                l(3) =   1
                l(4) =   1
                l(5) =   2
                l(6) =   2
     Q(r) pseudized with  8 coefficients,  rinner =    1.350   1.350   1.350
                                                       1.350   1.350

     PseudoPot. # 2 for Ta read from file:
     /afs/slac.stanford.edu/u/if/mamunm/psp/gbrv1.5pbe/Ta.UPF
     MD5 check sum: f8bbe9446314a3b8ea5d9f3e3836c939
     Pseudo is Ultrasoft + core correction, Zval = 13.0
     Generated by new atomic code, or converted to UPF format
     Using radial grid of  921 points,  7 beta functions with:
                l(1) =   0
                l(2) =   0
                l(3) =   1
                l(4) =   1
                l(5) =   2
                l(6) =   2
                l(7) =   3
     Q(r) pseudized with  6 coefficients,  rinner =    1.300   1.300   1.300
                                                       1.300   1.300   1.300
                                                       1.300

     vdW kernel table read from file vdW_kernel_table
     MD5 check sum: 095c7af220d748ca6e76c0b4c6cfb241

     atomic species   valence    mass     pseudopotential
        Sn1           14.00   118.71000     Sn( 1.00)
        Ta1           13.00   180.94788     Ta( 1.00)

     No symmetry found

   Cartesian axes

     site n.     atom                  positions (alat units)
         1           Sn1 tau(   1) = (   0.0000000   0.0000000  10.0000000  )
         2           Sn1 tau(   2) = (   4.1301483   2.7438000  10.0000000  )
         3           Ta1 tau(   3) = (   2.9764746   0.0000000  10.0000000  )
         4           Ta1 tau(   4) = (   1.1536737   2.7438000  10.0000000  )
         5           Sn1 tau(   5) = (   5.9529493   3.9547495  12.4621209  )
         6           Sn1 tau(   6) = (   1.8228009   1.2109495  12.4621209  )
         7           Ta1 tau(   7) = (   2.9764746   3.9547495  12.4621209  )
         8           Ta1 tau(   8) = (   4.7992756   1.2109495  12.4621209  )
         9           Sn1 tau(   9) = (   3.6456019   2.4218990  14.9242419  )
        10           Sn1 tau(  10) = (   7.7757502   5.1656990  14.9242419  )
        11           Ta1 tau(  11) = (   6.6220765   2.4218990  14.9242419  )
        12           Ta1 tau(  12) = (   4.7992756   5.1656990  14.9242419  )

     number of k points=    20  Fermi-Dirac smearing, width (Ry)=  0.0110
                       cart. coord. in units 2pi/alat
        k(    1) = (   0.0000000   0.0000000   0.0000000), wk =   0.0555556
        k(    2) = (   0.0000000   0.0303715   0.0000000), wk =   0.1111111
        k(    3) = (   0.0000000   0.0607430   0.0000000), wk =   0.1111111
        k(    4) = (   0.0000000  -0.0911145   0.0000000), wk =   0.0555556
        k(    5) = (   0.0279973  -0.0117719   0.0000000), wk =   0.1111111
        k(    6) = (   0.0279973   0.0185996   0.0000000), wk =   0.1111111
        k(    7) = (   0.0279973   0.0489711   0.0000000), wk =   0.1111111
        k(    8) = (   0.0279973  -0.1028864   0.0000000), wk =   0.1111111
        k(    9) = (   0.0279973  -0.0725149   0.0000000), wk =   0.1111111
        k(   10) = (   0.0279973  -0.0421434   0.0000000), wk =   0.1111111
        k(   11) = (   0.0559947  -0.0235438   0.0000000), wk =   0.1111111
        k(   12) = (   0.0559947   0.0068277   0.0000000), wk =   0.1111111
        k(   13) = (   0.0559947   0.0371992   0.0000000), wk =   0.1111111
        k(   14) = (   0.0559947  -0.1146583   0.0000000), wk =   0.1111111
        k(   15) = (   0.0559947  -0.0842868   0.0000000), wk =   0.1111111
        k(   16) = (   0.0559947  -0.0539153   0.0000000), wk =   0.1111111
        k(   17) = (  -0.0839920   0.0353157   0.0000000), wk =   0.0555556
        k(   18) = (  -0.0839920   0.0656872   0.0000000), wk =   0.1111111
        k(   19) = (  -0.0839920   0.0960588   0.0000000), wk =   0.1111111
        k(   20) = (  -0.0839920  -0.0557988   0.0000000), wk =   0.0555556

     Largest allocated arrays     est. size (Mb)     dimensions
     Largest temporary arrays     est. size (Mb)     dimensions

     Initial potential from superposition of free atoms
     Check: negative starting charge=   -0.571697

     starting charge  155.99306, renormalised to  162.00000

     negative rho (up, down):  5.937E-01 0.000E+00

     *
     * You are using vdW-DF for exchange-correlation in this calculation.
     * Please cite the following three references that made this development
     * possible:
     *
     *   M. Dion, H. Rydberg, E. Schroder, D. C. Langreth, and
     *   B. I. Lundqvist, Phys. Rev. Lett. 92, 246401 (2004).
     *
     *   T. Thonhauser, V. R. Cooper, S. Li, A. Puzder, P. Hyldgaard, and
     *   D. C. Langreth, Phys. Rev. B 76, 125112 (2007).
     *
     *   G. Roman-Perez and J. M. Soler, Phys. Rev. Lett. 103, 096102 (2009).
     *
     *
     * If you are using vdW-DF2, please also cite:
     *
     *   K. Lee, E. D. Murray, L. Kong, B. I. Lundqvist, and
     *   D. C. Langreth, Phys. Rev. B 82, 081101(R) (2010).
     *
     *
     * If you are calculating the stress with vdW-DF, please also cite:
     *
     *   R. Sabatini, E. Kucukbenli, B. Kolb, T. Thonhauser, and
     *   S. de Gironcoli, J. Phys.: Condens. Matter 24, 424209 (2012).
     *

     Carrying out vdW-DF run using the following parameters:

     Nqs =      20    Nr_points =    1024   r_max =   100.000
     q_mesh =
               0.00001000     0.04494208     0.09755937     0.15916263
               0.23128650     0.31572767     0.41458969     0.53033537
               0.66584808     0.82450364     1.01025438     1.22772762
               1.48234092     1.78043706     2.12944203     2.53805004
               3.01644009     3.57652955     4.23227104     5.00000000

     Gradients computed in reciprocal space

     Adding external electric field

     Computed dipole along edir(3) :
        Dipole               -0.0000 Ry au,         -0.0000 Debye
        Dipole field         -0.0000 Ry au

        Potential amp.        0.0000 Ry
        Total length         45.9225 bohr

     Starting wfc are  132 randomized atomic wfcs

     Self-consistent Calculation

     iteration #  1     ecut=    36.75 Ry     beta=0.10
     Davidson diagonalization with overlap
     ethr =  1.00E-02,  avg # of iterations =  6.3

[...]

     total energy              =   -1823.79098694 Ry
     Harris-Foulkes estimate   =   -1824.26487217 Ry
     estimated scf accuracy    <       3.11704826 Ry

[...]

     iteration #  5     ecut=    36.75 Ry     beta=0.10
     Davidson diagonalization with overlap
     c_bands:  1 eigenvalues not converged
     ethr =  7.48E-05,  avg # of iterations =  8.1

[...]

     End of self-consistent calculation

          k = 0.0000 0.0000 0.0000 ( 20625 PWs)   bands (ev):

   -67.1898 -67.1896 -67.1828 -67.1826 -66.8772 -66.8700 -33.5984 -33.5976
   -33.5826 -33.5780 -33.5143 -33.5133 -33.4730 -33.4612 -33.4551 -33.4433
   -33.3235 -33.3230 -33.2987 -33.2782 -33.2603 -33.1690 -33.1473 -33.0609
   -20.0340 -20.0143 -19.9641 -19.9432 -19.9418 -19.9358 -19.9137 -19.9102
   -19.8991 -19.8357 -19.8279 -19.8222 -19.7928 -19.7843 -19.7513 -19.7508
   -19.7293 -19.7267 -19.7077 -19.7073 -19.6819 -19.6819 -19.6815 -19.6811
   -19.6628 -19.6605 -19.6485 -19.6447 -19.6084 -19.6054  -8.8995  -7.3385
    -6.1022  -5.7265  -4.9637  -4.8498  -2.5425  -2.2944  -1.7311  -1.5858
    -1.4015  -1.2467  -1.1247  -0.7658  -0.1089  -0.0946  -0.0314   0.1791
     0.1792   0.7980   0.8678   0.9257   0.9529   1.0489   1.3471   1.3849
     1.7194   1.8620   2.0810   2.2985   2.4870   2.5474   2.6865   2.8250
     2.8831   3.2824   3.4242   3.5069   3.6166   3.7719   3.7951   3.8165
     3.9309   4.1765   4.6809   4.9554   5.1008   5.2084   5.2795   5.3312
     5.5301   5.6422   5.8228   5.9585   6.0746   6.2691   6.2808

[...]

          k =-0.0840 0.0353 0.0000 ( 20702 PWs)   bands (ev):

[...]

     the Fermi energy is     1.7968 ev

!    total energy              =   -1823.11954761 Ry
     Harris-Foulkes estimate   =   -1823.11955072 Ry
     estimated scf accuracy    <       0.00000077 Ry

     The total energy is the sum of the following terms:

     one-electron contribution =  -11685.40694485 Ry
     hartree contribution      =    5867.51206180 Ry
     xc contribution           =    -528.77270041 Ry
     ewald contribution        =    4523.61742816 Ry
     electric field correction =       0.00000000 Ry
     smearing contrib. (-TS)   =      -0.06939231 Ry

     convergence has been achieved in  15 iterations

 BEEF-vdW xc energy contributions
           1 :   -465.279450839804
           2 :    428.224589169744
           3 :   -364.348276938854
[...]
     ethr =  1.88E-05,  avg # of iterations =  6.2

[...]

   This run was terminated on:   6:44: 4  19Dec2018

[...]

   This run was terminated on:   7: 4:27  19Dec2018

[...]

     Program PWSCF v.5.1rc2 (svn rev. 11289) starts on 19Dec2018 at  7: 4:35

[...]

   This run was terminated on:   7: 9:49  19Dec2018

[...]

     Program PWSCF v.5.1rc2 (svn rev. 11289) starts on 19Dec2018 at  7: 9:55

[...]

     Program PWSCF v.5.1rc2 (svn rev. 11289) starts on 19Dec2018 at  7:14:54

     Current dimensions of program PWSCF are:
     Max number of different atomic species (ntypx) = 10
     Max number of k-points (npk) =  40000
     Max angular momentum in pseudopotentials (lmaxx) =  3
     Presently stress not available with electric field

     IMPORTANT: XC functional enforced from input :
     Exchange-correlation      = BEEF-VDW ( 1  4 27 13 2)
     Any further DFT definition will be discarded
     Please, verify this is what you really want

     Subspace diagonalization in iterative solution of the eigenvalue problem:
     a serial algorithm will be used

     Found symmetry operation: I + (  0.5000 -0.5000  0.0000)
     This is a supercell, fractional translations are disabled

     bravais-lattice index     =            0
     lattice parameter (alat)  =       1.8897  a.u.
     unit-cell volume          =    5494.5633 (a.u.)^3
     number of atoms/cell      =           12
     number of atomic types    =            2
     number of electrons       =       162.00
     number of Kohn-Sham states=          111
     kinetic-energy cutoff     =      36.7493  Ry
     charge density cutoff     =     367.4932  Ry
     convergence threshold     =      1.0E-06
     mixing beta               =       0.1000
     number of iterations used =           10  plain     mixing
     Exchange-correlation      = BEEF-VDW ( 1  4 27 13 2)
     nstep                     =           50

     celldm(1)=   1.889726  celldm(2)=   0.000000  celldm(3)=   0.000000
     celldm(4)=   0.000000  celldm(5)=   0.000000  celldm(6)=   0.000000

     crystal axes: (cart. coord. in units of alat)
               a(1) = (   5.952949   0.000000   0.000000 )
               a(2) = (   2.307347   5.487600   0.000000 )
               a(3) = (   0.000000   0.000000  24.924242 )

     reciprocal axes: (cart. coord. in units 2 pi/alat)
               b(1) = (  0.167984 -0.070631  0.000000 )
               b(2) = (  0.000000  0.182229  0.000000 )
               b(3) = (  0.000000  0.000000  0.040122 )

     PseudoPot. # 1 for Sn read from file:
     /afs/slac.stanford.edu/u/if/mamunm/psp/gbrv1.5pbe/Sn.UPF
     MD5 check sum: 469debedee59599fedebd795477fea03
     Pseudo is Ultrasoft + core correction, Zval = 14.0
     Generated by new atomic code, or converted to UPF format
     Using radial grid of  891 points,  6 beta functions with:
                l(1) =   0
                l(2) =   0
                l(3) =   1
                l(4) =   1
                l(5) =   2
                l(6) =   2
     Q(r) pseudized with  8 coefficients,  rinner =    1.350   1.350   1.350
                                                       1.350   1.350

     PseudoPot. # 2 for Ta read from file:
     /afs/slac.stanford.edu/u/if/mamunm/psp/gbrv1.5pbe/Ta.UPF
     MD5 check sum: f8bbe9446314a3b8ea5d9f3e3836c939
     Pseudo is Ultrasoft + core correction, Zval = 13.0
     Generated by new atomic code, or converted to UPF format
     Using radial grid of  921 points,  7 beta functions with:
                l(1) =   0
                l(2) =   0
                l(3) =   1
                l(4) =   1
                l(5) =   2
                l(6) =   2
                l(7) =   3
     Q(r) pseudized with  6 coefficients,  rinner =    1.300   1.300   1.300
                                                       1.300   1.300   1.300
                                                       1.300

     vdW kernel table read from file vdW_kernel_table
     MD5 check sum: 095c7af220d748ca6e76c0b4c6cfb241

     atomic species   valence    mass     pseudopotential
        Sn1           14.00   118.71000     Sn( 1.00)
        Ta1           13.00   180.94788     Ta( 1.00)

     No symmetry found

   Cartesian axes

     site n.     atom                  positions (alat units)
         1           Sn1 tau(   1) = (   0.0000000   0.0000000  10.0000000  )
         2           Sn1 tau(   2) = (   4.1301483   2.7438000  10.0000000  )
         3           Ta1 tau(   3) = (   2.9764746   0.0000000  10.0000000  )
         4           Ta1 tau(   4) = (   1.1536737   2.7438000  10.0000000  )
         5           Sn1 tau(   5) = (   5.9529493   3.9547495  12.4621209  )
         6           Sn1 tau(   6) = (   1.8228009   1.2109495  12.4621209  )
         7           Ta1 tau(   7) = (   2.9764746   3.9547495  12.4621209  )
         8           Ta1 tau(   8) = (   4.7992756   1.2109495  12.4621209  )
         9           Sn1 tau(   9) = (   3.2742453   2.1751944  15.2481656  )
        10           Sn1 tau(  10) = (   7.4044069   4.9190177  15.2481763  )
        11           Ta1 tau(  11) = (   6.1843129   2.1310979  14.7114373  )
        12           Ta1 tau(  12) = (   4.3615235   4.8748796  14.7114365  )

     number of k points=    20  Fermi-Dirac smearing, width (Ry)=  0.0110
                       cart. coord. in units 2pi/alat
        k(    1) = (   0.0000000   0.0000000   0.0000000), wk =   0.0555556
        k(    2) = (   0.0000000   0.0303715   0.0000000), wk =   0.1111111
        k(    3) = (   0.0000000   0.0607430   0.0000000), wk =   0.1111111
        k(    4) = (   0.0000000  -0.0911145   0.0000000), wk =   0.0555556
        k(    5) = (   0.0279973  -0.0117719   0.0000000), wk =   0.1111111
        k(    6) = (   0.0279973   0.0185996   0.0000000), wk =   0.1111111
        k(    7) = (   0.0279973   0.0489711   0.0000000), wk =   0.1111111
        k(    8) = (   0.0279973  -0.1028864   0.0000000), wk =   0.1111111
        k(    9) = (   0.0279973  -0.0725149   0.0000000), wk =   0.1111111
        k(   10) = (   0.0279973  -0.0421434   0.0000000), wk =   0.1111111
        k(   11) = (   0.0559947  -0.0235438   0.0000000), wk =   0.1111111
        k(   12) = (   0.0559947   0.0068277   0.0000000), wk =   0.1111111
        k(   13) = (   0.0559947   0.0371992   0.0000000), wk =   0.1111111
        k(   14) = (   0.0559947  -0.1146583   0.0000000), wk =   0.1111111
        k(   15) = (   0.0559947  -0.0842868   0.0000000), wk =   0.1111111
        k(   16) = (   0.0559947  -0.0539153   0.0000000), wk =   0.1111111
        k(   17) = (  -0.0839920   0.0353157   0.0000000), wk =   0.0555556
        k(   18) = (  -0.0839920   0.0656872   0.0000000), wk =   0.1111111
        k(   19) = (  -0.0839920   0.0960588   0.0000000), wk =   0.1111111
        k(   20) = (  -0.0839920  -0.0557988   0.0000000), wk =   0.0555556

     Largest allocated arrays     est. size (Mb)     dimensions
     Largest temporary arrays     est. size (Mb)     dimensions

     Initial potential from superposition of free atoms
     Check: negative starting charge=   -0.573176

     starting charge  155.99306, renormalised to  162.00000

[...]

     *
     * You are using vdW-DF for exchange-correlation in this calculation.
     * Please cite the following three references that made this development
     * possible:
     *
     *   M. Dion, H. Rydberg, E. Schroder, D. C. Langreth, and
     *   B. I. Lundqvist, Phys. Rev. Lett. 92, 246401 (2004).
     *
     *   T. Thonhauser, V. R. Cooper, S. Li, A. Puzder, P. Hyldgaard, and
     *   D. C. Langreth, Phys. Rev. B 76, 125112 (2007).
     *
     *   G. Roman-Perez and J. M. Soler, Phys. Rev. Lett. 103, 096102 (2009).
     *
     *
     * If you are using vdW-DF2, please also cite:
     *
     *   K. Lee, E. D. Murray, L. Kong, B. I. Lundqvist, and
     *   D. C. Langreth, Phys. Rev. B 82, 081101(R) (2010).
     *
     *
     * If you are calculating the stress with vdW-DF, please also cite:
     *
     *   R. Sabatini, E. Kucukbenli, B. Kolb, T. Thonhauser, and
     *   S. de Gironcoli, J. Phys.: Condens. Matter 24, 424209 (2012).
     *

     Carrying out vdW-DF run using the following parameters:

     Nqs =      20    Nr_points =    1024   r_max =   100.000
     q_mesh =
               0.00001000     0.04494208     0.09755937     0.15916263
               0.23128650     0.31572767     0.41458969     0.53033537
               0.66584808     0.82450364     1.01025438     1.22772762
               1.48234092     1.78043706     2.12944203     2.53805004
               3.01644009     3.57652955     4.23227104     5.00000000

     Gradients computed in reciprocal space

[...]

     Starting wfc are  132 randomized atomic wfcs

     Self-consistent Calculation

[...]

     total energy              =   -1823.18822089 Ry
     Harris-Foulkes estimate   =   -1823.18822174 Ry
     estimated scf accuracy    <       0.00000241 Ry

     iteration # 16     ecut=    36.75 Ry     beta=0.10
     Davidson diagonalization with overlap
     ethr =  1.49E-09,  avg # of iterations =  2.0

[...]

     negative rho (up, down):  5.948E-01 0.000E+00

     Adding external electric field

     Computed dipole along edir(3) :
        Dipole                0.0506 Ry au,          0.1286 Debye
        Dipole field          0.0001 Ry au

        Potential amp.       -0.0106 Ry
        Total length         45.9225 bohr

     End of self-consistent calculation

[...]

          k = 0.0560-0.0539 0.0000 ( 20675 PWs)   bands (ev):

[...]

          k =-0.0840-0.0558 0.0000 ( 20706 PWs)   bands (ev):

   -67.1500 -67.1430 -66.9407 -66.9336 -66.8393 -66.8320 -33.5525 -33.5318
   -33.4736 -33.4526 -33.4293 -33.3919 -33.3662 -33.3574 -33.3565 -33.3323
   -33.2822 -33.2748 -33.2609 -33.2559 -33.1584 -33.0619 -32.9067 -32.8907
   -20.0443 -19.9994 -19.9986 -19.9612 -19.9546 -19.9486 -19.9383 -19.9347
   -19.9322 -19.9041 -19.9039 -19.8970 -19.8822 -19.8675 -19.8431 -19.8345
   -19.8241 -19.8238 -19.8117 -19.7914 -19.7610 -19.7477 -19.7015 -19.7002
   -19.6758 -19.6451 -19.6450 -19.6310 -19.6226 -19.5754  -7.4875  -6.9304
    -6.0996  -5.7934  -4.6484  -4.2506  -4.1450  -3.3605  -3.2856  -2.6171
    -2.3612  -2.2583  -2.0607  -1.1858  -0.9526  -0.5761  -0.3211  -0.2562
     0.1756   0.5436   0.5665   0.9651   1.3528   1.5803   1.8983   1.9125
     1.9754   2.1282   2.1507   2.3665   2.4701   2.5309   2.6298   3.1391
     3.3822   3.5229   3.5421   3.6280   3.9143   4.0388   4.5731   4.6873
     4.8595   5.3260   5.5064   5.7260   5.8863   5.9667   5.9899   6.1199
     6.1655   6.3600   6.5878   6.8154   7.1035   7.1037   7.4502

     the Fermi energy is     1.8345 ev

!    total energy              =   -1823.18821803 Ry
     Harris-Foulkes estimate   =   -1823.18822090 Ry
     estimated scf accuracy    <       0.00000095 Ry

     The total energy is the sum of the following terms:

     one-electron contribution =  -11562.82832796 Ry
     hartree contribution      =    5806.31849428 Ry
     xc contribution           =    -528.79142649 Ry
     ewald contribution        =    4462.17788308 Ry
     electric field correction =       0.00000586 Ry
     smearing contrib. (-TS)   =      -0.06484679 Ry

     convergence has been achieved in  16 iterations

 BEEF-vdW xc energy contributions
           1 :   -465.293766928232
           2 :    428.198804763200
           3 :   -364.262983981357
           4 :    289.652974455960
           5 :   -220.187435662615
           6 :    166.066540299854
           7 :   -129.698182764486
           8 :    107.083794614716
           9 :   -91.5487114904785
          10 :    77.6444708849463
          11 :   -63.3228974092766
          12 :    49.6925901837736
          13 :   -39.0778676088534
          14 :    32.8690964864929
          15 :   -30.4724531906958
          16 :    29.7672428091367
          17 :   -28.5123232038801
          18 :    25.6636109190825
          19 :   -21.7873150405105
          20 :    18.4210048040466
          21 :   -16.9072132579659
          22 :    17.4868332630693
          23 :   -19.1939764225882
          24 :    20.5343785745962
          25 :   -20.4438464285753
          26 :    18.8938712462295
          27 :   -16.7960650241259
          28 :    15.3287514526381
          29 :   -15.1639643136854
          30 :    16.0912675864296
          31 :   -41.0431723338919
          32 :   -30.2899624665424

     Forces acting on atoms (Ry/au):

     negative rho (up, down):  5.948E-01 0.000E+00
     atom    1 type  1   force =    -0.00253260   -0.00168776   -0.04744856
     atom    2 type  1   force =    -0.00253610   -0.00168085   -0.04744271
     atom    3 type  2   force =     0.00193531    0.00128532    0.05189863
     atom    4 type  2   force =     0.00193464    0.00128544    0.05189833
     atom    5 type  1   force =     0.00822421    0.00546119   -0.02049765
     atom    6 type  1   force =     0.00821946    0.00546239   -0.02049242
     atom    7 type  2   force =    -0.00670733   -0.00445522    0.01659670
     atom    8 type  2   force =    -0.00670685   -0.00445538    0.01659554
     atom    9 type  1   force =     0.00061943    0.00041652   -0.00114169
     atom   10 type  1   force =     0.00062240    0.00040999   -0.00113684
     atom   11 type  2   force =    -0.00153599   -0.00102028    0.00058497
     atom   12 type  2   force =    -0.00153658   -0.00102135    0.00058569

     Total force =     0.107912     Total SCF correction =     0.002657

     entering subroutine stress ...

     negative rho (up, down):  5.948E-01 0.000E+00
          total   stress  (Ry/bohr**3)                   (kbar)     P=  -19.97
  -0.00017689   0.00002556  -0.00000207        -26.02      3.76     -0.31
   0.00002556  -0.00019838  -0.00000138          3.76    -29.18     -0.20
  -0.00000207  -0.00000138  -0.00003191         -0.31     -0.20     -4.69

 !ASE

     Writing output data file calc.save

     General routines

     Parallel routines

   This run was terminated on:   7:19:47  19Dec2018

   JOB DONE.
Job  /afs/slac/g/suncat/bin/suncat-tsmpirun -x LD_LIBRARY_PATH -wdir /scratch/qe530614_ia8PE pw.x -in pw.inp

TID   HOST_NAME   COMMAND_LINE            STATUS            TERMINATION_TIME
00000 suncat2054 pw.x -in pw.inp   Done                     12/19/2018 07:19:47
00001 suncat2054 pw.x -in pw.inp   Done                     12/19/2018 07:19:47
00002 suncat2054 pw.x -in pw.inp   Done                     12/19/2018 07:19:47
00003 suncat2054 pw.x -in pw.inp   Done                     12/19/2018 07:19:47
00004 suncat2054 pw.x -in pw.inp   Done                     12/19/2018 07:19:47
00005 suncat2054 pw.x -in pw.inp   Done                     12/19/2018 07:19:47
00006 suncat2054 pw.x -in pw.inp   Done                     12/19/2018 07:19:47
00007 suncat2054 pw.x -in pw.inp   Done                     12/19/2018 07:19:47
00008 suncat2054 pw.x -in pw.inp   Done                     12/19/2018 07:19:47
00009 suncat2054 pw.x -in pw.inp   Done                     12/19/2018 07:19:47
00010 suncat2054 pw.x -in pw.inp   Done                     12/19/2018 07:19:47
00011 suncat2054 pw.x -in pw.inp   Done                     12/19/2018 07:19:47
00012 suncat2054 pw.x -in pw.inp   Done                     12/19/2018 07:19:47
00013 suncat2054 pw.x -in pw.inp   Done                     12/19/2018 07:19:47
00014 suncat2054 pw.x -in pw.inp   Done                     12/19/2018 07:19:47
00015 suncat2054 pw.x -in pw.inp   Done                     12/19/2018 07:19:47
00016 suncat2053 pw.x -in pw.inp   Done                     12/19/2018 07:19:47
00017 suncat2053 pw.x -in pw.inp   Done                     12/19/2018 07:19:47
00018 suncat2053 pw.x -in pw.inp   Done                     12/19/2018 07:19:47
00019 suncat2053 pw.x -in pw.inp   Done                     12/19/2018 07:19:47
00020 suncat2053 pw.x -in pw.inp   Done                     12/19/2018 07:19:47
00021 suncat2053 pw.x -in pw.inp   Done                     12/19/2018 07:19:47
00022 suncat2053 pw.x -in pw.inp   Done                     12/19/2018 07:19:47
00023 suncat2053 pw.x -in pw.inp   Done                     12/19/2018 07:19:47
00024 suncat2053 pw.x -in pw.inp   Done                     12/19/2018 07:19:47
00025 suncat2053 pw.x -in pw.inp   Done                     12/19/2018 07:19:47
00026 suncat2053 pw.x -in pw.inp   Done                     12/19/2018 07:19:47
00027 suncat2053 pw.x -in pw.inp   Done                     12/19/2018 07:19:47
00028 suncat2053 pw.x -in pw.inp   Done                     12/19/2018 07:19:47
00029 suncat2053 pw.x -in pw.inp   Done                     12/19/2018 07:19:47
00030 suncat2053 pw.x -in pw.inp   Done                     12/19/2018 07:19:47
00031 suncat2053 pw.x -in pw.inp   Done                     12/19/2018 07:19:47