     Program PWSCF v.5.1rc2 (svn rev. 11289) starts on 19Dec2018 at  7:20:28

     Current dimensions of program PWSCF are:
     Max number of different atomic species (ntypx) = 10
     Max number of k-points (npk) =  40000
     Max angular momentum in pseudopotentials (lmaxx) =  3
     Presently stress not available with electric field

     IMPORTANT: XC functional enforced from input :
     Exchange-correlation      = BEEF-VDW ( 1  4 27 13 2)
     Any further DFT definition will be discarded
     Please, verify this is what you really want

     Subspace diagonalization in iterative solution of the eigenvalue problem:
     a serial algorithm will be used

     Found symmetry operation: I + ( -0.5000  0.0000  0.0000)
     This is a supercell, fractional translations are disabled

     bravais-lattice index     =            0
     lattice parameter (alat)  =       1.8897  a.u.
     unit-cell volume          =    4273.9077 (a.u.)^3
     number of atoms/cell      =           12
     number of atomic types    =            2
     number of electrons       =       186.00
     number of Kohn-Sham states=          123
     kinetic-energy cutoff     =      36.7493  Ry
     charge density cutoff     =     367.4932  Ry
     convergence threshold     =      1.0E-06
     mixing beta               =       0.1000
     number of iterations used =           10  plain     mixing
     Exchange-correlation      = BEEF-VDW ( 1  4 27 13 2)
     nstep                     =           50

     celldm(1)=   1.889726  celldm(2)=   0.000000  celldm(3)=   0.000000
     celldm(4)=   0.000000  celldm(5)=   0.000000  celldm(6)=   0.000000

     crystal axes: (cart. coord. in units of alat)
               a(1) = (   5.452922   0.000000   0.000000 )
               a(2) = (  -2.726461   4.747563   0.000000 )
               a(3) = (   0.000000   0.000000  24.464059 )

     reciprocal axes: (cart. coord. in units 2 pi/alat)
               b(1) = (  0.183388  0.105317  0.000000 )
               b(2) = (  0.000000  0.210634  0.000000 )
               b(3) = (  0.000000  0.000000  0.040876 )

     PseudoPot. # 1 for Ti read from file:
     /afs/slac.stanford.edu/u/if/mamunm/psp/gbrv1.5pbe/Ti.UPF
     MD5 check sum: 88a00a6731bd790ddea75d31a80cb452
     Pseudo is Ultrasoft + core correction, Zval = 12.0
     Generated by new atomic code, or converted to UPF format
     Using radial grid of  851 points,  6 beta functions with:
                l(1) =   0
                l(2) =   0
                l(3) =   1
                l(4) =   1
                l(5) =   2
                l(6) =   2
     Q(r) pseudized with  6 coefficients,  rinner =    1.000   1.000   1.000
                                                       1.000   1.000

     PseudoPot. # 2 for Cu read from file:
     /afs/slac.stanford.edu/u/if/mamunm/psp/gbrv1.5pbe/Cu.UPF
     MD5 check sum: 6e991ff952a84172a2a52a1c1e996048
     Pseudo is Ultrasoft + core correction, Zval = 19.0
     Generated by new atomic code, or converted to UPF format
     Using radial grid of  867 points,  6 beta functions with:
                l(1) =   0
                l(2) =   0
                l(3) =   1
                l(4) =   1
                l(5) =   2
                l(6) =   2
     Q(r) pseudized with  8 coefficients,  rinner =    1.150   1.150   1.150
                                                       1.150   1.150

     vdW kernel table read from file vdW_kernel_table
     MD5 check sum: 095c7af220d748ca6e76c0b4c6cfb241

     atomic species   valence    mass     pseudopotential
        Ti1           12.00    47.86700     Ti( 1.00)
        Cu1           19.00    63.54600     Cu( 1.00)

     No symmetry found

   Cartesian axes

     site n.     atom                  positions (alat units)
         1           Ti1 tau(   1) = (   0.0000000   0.0000000  10.0000000  )
         2           Ti1 tau(   2) = (   2.7264611   0.0000000  10.0000000  )
         3           Cu1 tau(   3) = (   1.3632305   2.3737814  10.0000000  )
         4           Cu1 tau(   4) = (  -1.3632305   2.3737814  10.0000000  )
         5           Ti1 tau(   5) = (   2.7264611   1.5657697  12.2320294  )
         6           Ti1 tau(   6) = (   0.0000000   1.5657697  12.2320294  )
         7           Cu1 tau(   7) = (  -1.3632305   3.9395511  12.2320294  )
         8           Cu1 tau(   8) = (   1.3632305   3.9395511  12.2320294  )
         9           Ti1 tau(   9) = (   0.0000000   3.1315394  14.4640588  )
        10           Ti1 tau(  10) = (   2.7264611   3.1315394  14.4640588  )
        11           Cu1 tau(  11) = (   4.0896916   0.7577580  14.4640588  )
        12           Cu1 tau(  12) = (   1.3632305   0.7577580  14.4640588  )

     number of k points=    20  Fermi-Dirac smearing, width (Ry)=  0.0110
                       cart. coord. in units 2pi/alat
        k(    1) = (   0.0000000   0.0000000   0.0000000), wk =   0.0555556
        k(    2) = (   0.0000000   0.0351057   0.0000000), wk =   0.1111111
        k(    3) = (   0.0000000   0.0702115   0.0000000), wk =   0.1111111
        k(    4) = (   0.0000000  -0.1053172   0.0000000), wk =   0.0555556
        k(    5) = (   0.0305647   0.0175529   0.0000000), wk =   0.1111111
        k(    6) = (   0.0305647   0.0526586   0.0000000), wk =   0.1111111
        k(    7) = (   0.0305647   0.0877643   0.0000000), wk =   0.1111111
        k(    8) = (   0.0305647  -0.0877643   0.0000000), wk =   0.1111111
        k(    9) = (   0.0305647  -0.0526586   0.0000000), wk =   0.1111111
        k(   10) = (   0.0305647  -0.0175529   0.0000000), wk =   0.1111111
        k(   11) = (   0.0611293   0.0351057   0.0000000), wk =   0.1111111
        k(   12) = (   0.0611293   0.0702115   0.0000000), wk =   0.1111111
        k(   13) = (   0.0611293   0.1053172   0.0000000), wk =   0.1111111
        k(   14) = (   0.0611293  -0.0702115   0.0000000), wk =   0.1111111
        k(   15) = (   0.0611293  -0.0351057   0.0000000), wk =   0.1111111
        k(   16) = (   0.0611293   0.0000000   0.0000000), wk =   0.1111111
        k(   17) = (  -0.0916940  -0.0526586   0.0000000), wk =   0.0555556
        k(   18) = (  -0.0916940  -0.0175529   0.0000000), wk =   0.1111111
        k(   19) = (  -0.0916940   0.0175529   0.0000000), wk =   0.1111111
        k(   20) = (  -0.0916940  -0.1579758   0.0000000), wk =   0.0555556

     Largest allocated arrays     est. size (Mb)     dimensions
     Largest temporary arrays     est. size (Mb)     dimensions

     Check: negative/imaginary core charge=   -0.000005    0.000000

     Initial potential from superposition of free atoms
     Check: negative starting charge=   -0.008258

     starting charge  173.99972, renormalised to  186.00000

     negative rho (up, down):  8.828E-03 0.000E+00

     *
     * You are using vdW-DF for exchange-correlation in this calculation.
     * Please cite the following three references that made this development
     * possible:
     *
     *   M. Dion, H. Rydberg, E. Schroder, D. C. Langreth, and
     *   B. I. Lundqvist, Phys. Rev. Lett. 92, 246401 (2004).
     *
     *   T. Thonhauser, V. R. Cooper, S. Li, A. Puzder, P. Hyldgaard, and
     *   D. C. Langreth, Phys. Rev. B 76, 125112 (2007).
     *
     *   G. Roman-Perez and J. M. Soler, Phys. Rev. Lett. 103, 096102 (2009).
     *
     *
     * If you are using vdW-DF2, please also cite:
     *
     *   K. Lee, E. D. Murray, L. Kong, B. I. Lundqvist, and
     *   D. C. Langreth, Phys. Rev. B 82, 081101(R) (2010).
     *
     *
     * If you are calculating the stress with vdW-DF, please also cite:
     *
     *   R. Sabatini, E. Kucukbenli, B. Kolb, T. Thonhauser, and
     *   S. de Gironcoli, J. Phys.: Condens. Matter 24, 424209 (2012).
     *

     Carrying out vdW-DF run using the following parameters:

     Nqs =      20    Nr_points =    1024   r_max =   100.000
     q_mesh =
               0.00001000     0.04494208     0.09755937     0.15916263
               0.23128650     0.31572767     0.41458969     0.53033537
               0.66584808     0.82450364     1.01025438     1.22772762
               1.48234092     1.78043706     2.12944203     2.53805004
               3.01644009     3.57652955     4.23227104     5.00000000

     Gradients computed in reciprocal space

     Adding external electric field

     Computed dipole along edir(3) :
        Dipole                0.0000 Ry au,          0.0000 Debye
        Dipole field          0.0000 Ry au

        Potential amp.       -0.0000 Ry
        Total length         45.0746 bohr

     Starting wfc are  138 randomized atomic wfcs

     Self-consistent Calculation

     iteration #  1     ecut=    36.75 Ry     beta=0.10
     Davidson diagonalization with overlap
     ethr =  1.00E-02,  avg # of iterations =  8.2

[...]

     total energy              =   -3092.65526256 Ry
     Harris-Foulkes estimate   =   -3179.84120771 Ry
     estimated scf accuracy    <     477.68626545 Ry

[...]

     iteration # 13     ecut=    36.75 Ry     beta=0.10
     Davidson diagonalization with overlap
     c_bands:  1 eigenvalues not converged
     ethr =  1.29E-04,  avg # of iterations =  8.2

[...]

     End of self-consistent calculation

          k = 0.0000 0.0000 0.0000 ( 16001 PWs)   bands (ev):

  -112.1894-112.1876-112.0350-112.0350-112.0333-112.0333 -69.5883 -69.5862
   -69.5598 -69.5499 -69.5478 -69.5346 -69.4816 -69.4814 -69.4795 -69.4793
   -69.4086 -69.4086 -69.3834 -69.3833 -69.3654 -69.3650 -69.3633 -69.3630
   -56.3488 -56.3450 -56.2673 -56.2641 -56.1099 -56.0279 -32.7416 -32.7205
   -32.7130 -32.6814 -32.6649 -32.6348 -32.6101 -32.5983 -32.5897 -32.5652
   -32.5190 -32.4291 -32.3532 -32.1704 -32.1150 -32.1117 -32.1066 -31.9964
    -6.1321  -4.6131  -3.6600  -3.2971  -3.2334  -3.1685  -3.0779  -3.0776
    -3.0684  -2.9132  -2.8793  -2.8695  -2.8212  -2.8166  -2.7234  -2.4773
    -2.3866  -2.2465  -2.2233  -2.2057  -2.1658  -2.1306  -2.0429  -2.0099
    -1.9752  -1.9408  -1.9208  -1.8667  -1.8453  -1.6470  -1.5722  -1.3529
    -1.1884  -0.3666  -0.1695  -0.1491  -0.0822  -0.0064   0.1933   0.2710
     0.2921   0.5766   0.6243   0.7027   0.9344   0.9654   1.1400   1.3579
     1.4093   1.4937   1.9823   2.0004   2.0554   2.0862   2.2553   2.2698
     2.6258   2.6949   2.8615   2.9283   3.1381   3.2573   3.3078   3.3535
     3.4176   3.6233   3.7264   3.8530   3.8820   3.8913   4.0123   4.3761
     4.5379   4.5572   5.0135

[...]

          k =-0.0917-0.0527 0.0000 ( 16108 PWs)   bands (ev):

[...]

     the Fermi energy is     0.8437 ev

!    total energy              =   -3148.90973454 Ry
     Harris-Foulkes estimate   =   -3148.90973076 Ry
     estimated scf accuracy    <       0.00000052 Ry

     The total energy is the sum of the following terms:

     one-electron contribution =  -21806.39139808 Ry
     hartree contribution      =   10902.53073504 Ry
     xc contribution           =    -352.18168631 Ry
     ewald contribution        =    8107.22499373 Ry
     electric field correction =       0.00000005 Ry
     smearing contrib. (-TS)   =      -0.09237896 Ry

     convergence has been achieved in  24 iterations

 BEEF-vdW xc energy contributions
           1 :   -309.231360729333
[...]

[...]

     Program PWSCF v.5.1rc2 (svn rev. 11289) starts on 19Dec2018 at  8:17: 4

[...]

   This run was terminated on:   8:24: 7  19Dec2018

[...]

     Program PWSCF v.5.1rc2 (svn rev. 11289) starts on 19Dec2018 at  8:24:12

     Current dimensions of program PWSCF are:
     Max number of different atomic species (ntypx) = 10
     Max number of k-points (npk) =  40000
     Max angular momentum in pseudopotentials (lmaxx) =  3
     Presently stress not available with electric field

     IMPORTANT: XC functional enforced from input :
     Exchange-correlation      = BEEF-VDW ( 1  4 27 13 2)
     Any further DFT definition will be discarded
     Please, verify this is what you really want

     Subspace diagonalization in iterative solution of the eigenvalue problem:
     a serial algorithm will be used

     bravais-lattice index     =            0
     lattice parameter (alat)  =       1.8897  a.u.
     unit-cell volume          =    4273.9077 (a.u.)^3
     number of atoms/cell      =           12
     number of atomic types    =            2
     number of electrons       =       186.00
     number of Kohn-Sham states=          123
     kinetic-energy cutoff     =      36.7493  Ry
     charge density cutoff     =     367.4932  Ry
     convergence threshold     =      1.0E-06
     mixing beta               =       0.1000
     number of iterations used =           10  plain     mixing
     Exchange-correlation      = BEEF-VDW ( 1  4 27 13 2)
     nstep                     =           50

     celldm(1)=   1.889726  celldm(2)=   0.000000  celldm(3)=   0.000000
     celldm(4)=   0.000000  celldm(5)=   0.000000  celldm(6)=   0.000000

     crystal axes: (cart. coord. in units of alat)
               a(1) = (   5.452922   0.000000   0.000000 )
               a(2) = (  -2.726461   4.747563   0.000000 )
               a(3) = (   0.000000   0.000000  24.464059 )

     reciprocal axes: (cart. coord. in units 2 pi/alat)
               b(1) = (  0.183388  0.105317  0.000000 )
               b(2) = (  0.000000  0.210634  0.000000 )
               b(3) = (  0.000000  0.000000  0.040876 )

     PseudoPot. # 1 for Ti read from file:
     /afs/slac.stanford.edu/u/if/mamunm/psp/gbrv1.5pbe/Ti.UPF
     MD5 check sum: 88a00a6731bd790ddea75d31a80cb452
     Pseudo is Ultrasoft + core correction, Zval = 12.0
     Generated by new atomic code, or converted to UPF format
     Using radial grid of  851 points,  6 beta functions with:
                l(1) =   0
                l(2) =   0
                l(3) =   1
                l(4) =   1
                l(5) =   2
                l(6) =   2
     Q(r) pseudized with  6 coefficients,  rinner =    1.000   1.000   1.000
                                                       1.000   1.000

     PseudoPot. # 2 for Cu read from file:
     /afs/slac.stanford.edu/u/if/mamunm/psp/gbrv1.5pbe/Cu.UPF
     MD5 check sum: 6e991ff952a84172a2a52a1c1e996048
     Pseudo is Ultrasoft + core correction, Zval = 19.0
     Generated by new atomic code, or converted to UPF format
     Using radial grid of  867 points,  6 beta functions with:
                l(1) =   0
                l(2) =   0
                l(3) =   1
                l(4) =   1
                l(5) =   2
                l(6) =   2
     Q(r) pseudized with  8 coefficients,  rinner =    1.150   1.150   1.150
                                                       1.150   1.150

     vdW kernel table read from file vdW_kernel_table
     MD5 check sum: 095c7af220d748ca6e76c0b4c6cfb241

     atomic species   valence    mass     pseudopotential
        Ti1           12.00    47.86700     Ti( 1.00)
        Cu1           19.00    63.54600     Cu( 1.00)

     No symmetry found

   Cartesian axes

     site n.     atom                  positions (alat units)
         1           Ti1 tau(   1) = (   0.0000000   0.0000000  10.0000000  )
         2           Ti1 tau(   2) = (   2.7264611   0.0000000  10.0000000  )
         3           Cu1 tau(   3) = (   1.3632305   2.3737814  10.0000000  )
         4           Cu1 tau(   4) = (  -1.3632305   2.3737814  10.0000000  )
         5           Ti1 tau(   5) = (   2.7264611   1.5657697  12.2320294  )
         6           Ti1 tau(   6) = (   0.0000000   1.5657697  12.2320294  )
         7           Cu1 tau(   7) = (  -1.3632305   3.9395511  12.2320294  )
         8           Cu1 tau(   8) = (   1.3632305   3.9395511  12.2320294  )
         9           Ti1 tau(   9) = (   0.0000011   3.2304623  14.4095741  )
        10           Ti1 tau(  10) = (   2.7264672   3.2312023  14.4095461  )
        11           Cu1 tau(  11) = (   4.0893923   0.8337663  14.4337943  )
        12           Cu1 tau(  12) = (   1.3635440   0.8337660  14.4337790  )

     number of k points=    20  Fermi-Dirac smearing, width (Ry)=  0.0110
                       cart. coord. in units 2pi/alat
        k(    1) = (   0.0000000   0.0000000   0.0000000), wk =   0.0555556
        k(    2) = (   0.0000000   0.0351057   0.0000000), wk =   0.1111111
        k(    3) = (   0.0000000   0.0702115   0.0000000), wk =   0.1111111
        k(    4) = (   0.0000000  -0.1053172   0.0000000), wk =   0.0555556
        k(    5) = (   0.0305647   0.0175529   0.0000000), wk =   0.1111111
        k(    6) = (   0.0305647   0.0526586   0.0000000), wk =   0.1111111
        k(    7) = (   0.0305647   0.0877643   0.0000000), wk =   0.1111111
        k(    8) = (   0.0305647  -0.0877643   0.0000000), wk =   0.1111111
        k(    9) = (   0.0305647  -0.0526586   0.0000000), wk =   0.1111111
        k(   10) = (   0.0305647  -0.0175529   0.0000000), wk =   0.1111111
        k(   11) = (   0.0611293   0.0351057   0.0000000), wk =   0.1111111
        k(   12) = (   0.0611293   0.0702115   0.0000000), wk =   0.1111111
        k(   13) = (   0.0611293   0.1053172   0.0000000), wk =   0.1111111
        k(   14) = (   0.0611293  -0.0702115   0.0000000), wk =   0.1111111
        k(   15) = (   0.0611293  -0.0351057   0.0000000), wk =   0.1111111
        k(   16) = (   0.0611293   0.0000000   0.0000000), wk =   0.1111111
        k(   17) = (  -0.0916940  -0.0526586   0.0000000), wk =   0.0555556
        k(   18) = (  -0.0916940  -0.0175529   0.0000000), wk =   0.1111111
        k(   19) = (  -0.0916940   0.0175529   0.0000000), wk =   0.1111111
        k(   20) = (  -0.0916940  -0.1579758   0.0000000), wk =   0.0555556

     Largest allocated arrays     est. size (Mb)     dimensions
     Largest temporary arrays     est. size (Mb)     dimensions

     Check: negative/imaginary core charge=   -0.000005    0.000000

     Initial potential from superposition of free atoms
     Check: negative starting charge=   -0.008736

     starting charge  173.99972, renormalised to  186.00000

[...]

     *
     * You are using vdW-DF for exchange-correlation in this calculation.
     * Please cite the following three references that made this development
     * possible:
     *
     *   M. Dion, H. Rydberg, E. Schroder, D. C. Langreth, and
     *   B. I. Lundqvist, Phys. Rev. Lett. 92, 246401 (2004).
     *
     *   T. Thonhauser, V. R. Cooper, S. Li, A. Puzder, P. Hyldgaard, and
     *   D. C. Langreth, Phys. Rev. B 76, 125112 (2007).
     *
     *   G. Roman-Perez and J. M. Soler, Phys. Rev. Lett. 103, 096102 (2009).
     *
     *
     * If you are using vdW-DF2, please also cite:
     *
     *   K. Lee, E. D. Murray, L. Kong, B. I. Lundqvist, and
     *   D. C. Langreth, Phys. Rev. B 82, 081101(R) (2010).
     *
     *
     * If you are calculating the stress with vdW-DF, please also cite:
     *
     *   R. Sabatini, E. Kucukbenli, B. Kolb, T. Thonhauser, and
     *   S. de Gironcoli, J. Phys.: Condens. Matter 24, 424209 (2012).
     *

     Carrying out vdW-DF run using the following parameters:

     Nqs =      20    Nr_points =    1024   r_max =   100.000
     q_mesh =
               0.00001000     0.04494208     0.09755937     0.15916263
               0.23128650     0.31572767     0.41458969     0.53033537
               0.66584808     0.82450364     1.01025438     1.22772762
               1.48234092     1.78043706     2.12944203     2.53805004
               3.01644009     3.57652955     4.23227104     5.00000000

     Gradients computed in reciprocal space

[...]

     Starting wfc are  138 randomized atomic wfcs

     Self-consistent Calculation

[...]

     iteration # 13     ecut=    36.75 Ry     beta=0.10
     Davidson diagonalization with overlap
     c_bands:  1 eigenvalues not converged
     ethr =  1.53E-04,  avg # of iterations =  5.7

[...]

     total energy              =   -3148.91190605 Ry
     Harris-Foulkes estimate   =   -3148.91190492 Ry
     estimated scf accuracy    <       0.00000184 Ry

     iteration # 25     ecut=    36.75 Ry     beta=0.10
     Davidson diagonalization with overlap
     ethr =  7.46E-10,  avg # of iterations =  2.0

[...]

     negative rho (up, down):  5.256E-03 0.000E+00

     Adding external electric field

     Computed dipole along edir(3) :
        Dipole                0.0040 Ry au,          0.0101 Debye
        Dipole field          0.0000 Ry au

        Potential amp.       -0.0011 Ry
        Total length         45.0746 bohr

     End of self-consistent calculation

[...]

          k = 0.0611 0.0000 0.0000 ( 16098 PWs)   bands (ev):

[...]

          k =-0.0917-0.1580 0.0000 ( 16108 PWs)   bands (ev):

  -112.2370-112.2370-112.0734-112.0734-112.0298-112.0298 -69.6350 -69.6350
   -69.5974 -69.5974 -69.5948 -69.5948 -69.5148 -69.5148 -69.4761 -69.4761
   -69.4348 -69.4348 -69.4085 -69.4085 -69.3923 -69.3923 -69.3595 -69.3595
   -56.3009 -56.3008 -56.2935 -56.2933 -56.0661 -56.0658 -32.6947 -32.6946
   -32.6393 -32.6391 -32.5944 -32.5943 -32.5465 -32.5463 -32.4155 -32.4154
   -32.4087 -32.4086 -32.3851 -32.3848 -32.3021 -32.3019 -32.1413 -32.1409
    -4.5391  -4.5389  -3.3464  -3.3461  -2.8499  -2.8498  -2.8295  -2.8294
    -2.7623  -2.7621  -2.6182  -2.6182  -2.5485  -2.5485  -2.4623  -2.4621
    -2.3300  -2.3297  -2.2930  -2.2929  -2.1923  -2.1920  -2.1661  -2.1658
    -2.1471  -2.1471  -2.1102  -2.1101  -2.0550  -2.0549  -1.9938  -1.9937
    -1.8856  -1.8855  -1.0375  -1.0374  -0.2889  -0.2886   0.0997   0.0997
     0.5981   0.5984   0.8310   0.8313   1.0815   1.0819   1.1805   1.1808
     1.4703   1.4708   1.5563   1.5564   1.7033   1.7038   1.8495   1.8496
     2.1172   2.1174   2.6482   2.6485   2.7998   2.8003   2.9413   2.9416
     3.3932   3.3934   3.7944   3.7946   4.1845   4.1846   4.7343   4.7344
     5.7021   5.7026   5.9257

     the Fermi energy is     0.8485 ev

!    total energy              =   -3148.91190901 Ry
     Harris-Foulkes estimate   =   -3148.91190614 Ry
     estimated scf accuracy    <       0.00000028 Ry

     The total energy is the sum of the following terms:

     one-electron contribution =  -21919.35252930 Ry
     hartree contribution      =   10958.92760928 Ry
     xc contribution           =    -352.22030078 Ry
     ewald contribution        =    8163.82524281 Ry
     electric field correction =       0.00000005 Ry
     smearing contrib. (-TS)   =      -0.09193105 Ry

     convergence has been achieved in  25 iterations

 BEEF-vdW xc energy contributions
           1 :   -309.273481241332
           2 :    279.253409866131
           3 :   -228.822508211582
           4 :    172.451849819191
           5 :   -122.971596128146
           6 :    86.8482408697370
           7 :   -63.3821509144781
           8 :    47.4604522662866
           9 :   -33.6995975487437
          10 :    19.4889601193100
          11 :   -5.57392292504289
          12 :   -5.56646397740872
          13 :    12.0748465451801
          14 :   -14.1811446450764
          15 :    13.9758786970478
          16 :   -13.9165135266645
          17 :    15.2577838523885
          18 :   -17.4858770757222
          19 :    19.0013446509212
          20 :   -18.4304425951627
          21 :    15.6082525279971
          22 :   -11.6306287371335
          23 :    8.05427307274476
          24 :   -5.87266516326781
          25 :    4.96488243513363
          26 :   -4.33779293165929
          27 :    2.92428044349964
          28 :  -0.356463536265551
          29 :   -2.80280225704666
          30 :    5.47721570192812
          31 :   -27.1416830602329
          32 :   -18.8380769330997

     Forces acting on atoms (Ry/au):

     negative rho (up, down):  5.256E-03 0.000E+00
     atom    1 type  1   force =    -0.00000036   -0.00666283    0.00651685
     atom    2 type  1   force =    -0.00000015   -0.00666592    0.00650427
     atom    3 type  2   force =    -0.00001762    0.00154406    0.00329781
     atom    4 type  2   force =     0.00001855    0.00154286    0.00329661
     atom    5 type  1   force =     0.00000042    0.00175903   -0.00314977
     atom    6 type  1   force =    -0.00000051    0.00172809   -0.00316574
     atom    7 type  2   force =    -0.00002305    0.00351951   -0.00706424
     atom    8 type  2   force =     0.00002294    0.00351966   -0.00706328
     atom    9 type  1   force =     0.00000074    0.00006867   -0.00065156
     atom   10 type  1   force =    -0.00000081    0.00002050   -0.00065125
     atom   11 type  2   force =     0.00003476   -0.00018583    0.00106352
     atom   12 type  2   force =    -0.00003490   -0.00018781    0.00106676

     Total force =     0.018812     Total SCF correction =     0.002020
     SCF correction compared to forces is large: reduce conv_thr to get better values

     entering subroutine stress ...

     negative rho (up, down):  5.256E-03 0.000E+00
          total   stress  (Ry/bohr**3)                   (kbar)     P=  -14.17
  -0.00011285   0.00000000  -0.00000000        -16.60      0.00     -0.00
   0.00000000  -0.00011460   0.00001077          0.00    -16.86      1.58
  -0.00000000   0.00001077  -0.00006143         -0.00      1.58     -9.04

 !ASE

     Writing output data file calc.save

     General routines

     Parallel routines

   This run was terminated on:   8:31:13  19Dec2018

   JOB DONE.
Job  /afs/slac/g/suncat/bin/suncat-tsmpirun -x LD_LIBRARY_PATH -wdir /scratch/qe530678_tocBm pw.x -in pw.inp

TID   HOST_NAME   COMMAND_LINE            STATUS            TERMINATION_TIME
00000 suncat2063 pw.x -in pw.inp   Done                     12/19/2018 08:31:13
00001 suncat2063 pw.x -in pw.inp   Done                     12/19/2018 08:31:13
00002 suncat2063 pw.x -in pw.inp   Done                     12/19/2018 08:31:13
00003 suncat2063 pw.x -in pw.inp   Done                     12/19/2018 08:31:13
00004 suncat2063 pw.x -in pw.inp   Done                     12/19/2018 08:31:13
00005 suncat2063 pw.x -in pw.inp   Done                     12/19/2018 08:31:13
00006 suncat2063 pw.x -in pw.inp   Done                     12/19/2018 08:31:13
00007 suncat2063 pw.x -in pw.inp   Done                     12/19/2018 08:31:13
00008 suncat2063 pw.x -in pw.inp   Done                     12/19/2018 08:31:13
00009 suncat2063 pw.x -in pw.inp   Done                     12/19/2018 08:31:13
00010 suncat2063 pw.x -in pw.inp   Done                     12/19/2018 08:31:13
00011 suncat2063 pw.x -in pw.inp   Done                     12/19/2018 08:31:13
00012 suncat2063 pw.x -in pw.inp   Done                     12/19/2018 08:31:13
00013 suncat2063 pw.x -in pw.inp   Done                     12/19/2018 08:31:13
00014 suncat2063 pw.x -in pw.inp   Done                     12/19/2018 08:31:13
00015 suncat2063 pw.x -in pw.inp   Done                     12/19/2018 08:31:13
00016 suncat2042 pw.x -in pw.inp   Done                     12/19/2018 08:31:13
00017 suncat2042 pw.x -in pw.inp   Done                     12/19/2018 08:31:13
00018 suncat2042 pw.x -in pw.inp   Done                     12/19/2018 08:31:13
00019 suncat2042 pw.x -in pw.inp   Done                     12/19/2018 08:31:13
00020 suncat2042 pw.x -in pw.inp   Done                     12/19/2018 08:31:13
00021 suncat2042 pw.x -in pw.inp   Done                     12/19/2018 08:31:13
00022 suncat2042 pw.x -in pw.inp   Done                     12/19/2018 08:31:13
00023 suncat2042 pw.x -in pw.inp   Done                     12/19/2018 08:31:13
00024 suncat2042 pw.x -in pw.inp   Done                     12/19/2018 08:31:13
00025 suncat2042 pw.x -in pw.inp   Done                     12/19/2018 08:31:13
00026 suncat2042 pw.x -in pw.inp   Done                     12/19/2018 08:31:13
00027 suncat2042 pw.x -in pw.inp   Done                     12/19/2018 08:31:13
00028 suncat2042 pw.x -in pw.inp   Done                     12/19/2018 08:31:13
00029 suncat2042 pw.x -in pw.inp   Done                     12/19/2018 08:31:13
00030 suncat2042 pw.x -in pw.inp   Done                     12/19/2018 08:31:13
00031 suncat2042 pw.x -in pw.inp   Done                     12/19/2018 08:31:13