     Program PWSCF v.5.1rc2 (svn rev. 11289) starts on 18Dec2018 at 16:49:47

     Current dimensions of program PWSCF are:
     Max number of different atomic species (ntypx) = 10
     Max number of k-points (npk) =  40000
     Max angular momentum in pseudopotentials (lmaxx) =  3
     Presently stress not available with electric field

     IMPORTANT: XC functional enforced from input :
     Exchange-correlation      = BEEF-VDW ( 1  4 27 13 2)
     Any further DFT definition will be discarded
     Please, verify this is what you really want

     Subspace diagonalization in iterative solution of the eigenvalue problem:
     a serial algorithm will be used

     Found symmetry operation: I + ( -0.5000  0.0000  0.0000)
     This is a supercell, fractional translations are disabled

     bravais-lattice index     =            0
     lattice parameter (alat)  =       1.8897  a.u.
     unit-cell volume          =    4696.3237 (a.u.)^3
     number of atoms/cell      =           12
     number of atomic types    =            2
     number of electrons       =       204.00
     number of Kohn-Sham states=          132
     kinetic-energy cutoff     =      36.7493  Ry
     charge density cutoff     =     367.4932  Ry
     convergence threshold     =      1.0E-06
     mixing beta               =       0.1000
     number of iterations used =           10  plain     mixing
     Exchange-correlation      = BEEF-VDW ( 1  4 27 13 2)
     nstep                     =           50

     celldm(1)=   1.889726  celldm(2)=   0.000000  celldm(3)=   0.000000
     celldm(4)=   0.000000  celldm(5)=   0.000000  celldm(6)=   0.000000

     crystal axes: (cart. coord. in units of alat)
               a(1) = (   5.308270   0.000000   0.000000 )
               a(2) = (  -2.654135   5.328698   0.000000 )
               a(3) = (   0.000000   0.000000  24.602956 )

     reciprocal axes: (cart. coord. in units 2 pi/alat)
               b(1) = (  0.188385  0.093832  0.000000 )
               b(2) = (  0.000000  0.187663  0.000000 )
               b(3) = (  0.000000  0.000000  0.040646 )

     PseudoPot. # 1 for Ag read from file:
     /afs/slac.stanford.edu/u/if/mamunm/psp/gbrv1.5pbe/Ag.UPF
     MD5 check sum: d66d668201baa78d5eb5b04ef7011058
     Pseudo is Ultrasoft + core correction, Zval = 19.0
     Generated by new atomic code, or converted to UPF format
     Using radial grid of  887 points,  6 beta functions with:
                l(1) =   0
                l(2) =   0
                l(3) =   1
                l(4) =   1
                l(5) =   2
                l(6) =   2
     Q(r) pseudized with  6 coefficients,  rinner =    1.300   1.300   1.300
                                                       1.300   1.300

     PseudoPot. # 2 for Re read from file:
     /afs/slac.stanford.edu/u/if/mamunm/psp/gbrv1.5pbe/Re.UPF
     MD5 check sum: 85f993410f3e006da9d71c142b4ad953
     Pseudo is Ultrasoft + core correction, Zval = 15.0
     Generated by new atomic code, or converted to UPF format
     Using radial grid of  981 points,  8 beta functions with:
                l(1) =   0
                l(2) =   0
                l(3) =   1
                l(4) =   1
                l(5) =   2
                l(6) =   2
                l(7) =   3
                l(8) =   3
     Q(r) pseudized with  8 coefficients,  rinner =    1.150   1.150   1.150
                                                       1.150   1.150   1.150
                                                       1.150

     vdW kernel table read from file vdW_kernel_table
     MD5 check sum: 095c7af220d748ca6e76c0b4c6cfb241

     atomic species   valence    mass     pseudopotential
        Ag1           19.00   107.86820     Ag( 1.00)
        Re1           15.00   186.20700     Re( 1.00)

     No symmetry found

   Cartesian axes

     site n.     atom                  positions (alat units)
         1           Ag1 tau(   1) = (   0.0000000   0.0000000  10.0000000  )
         2           Ag1 tau(   2) = (   2.6541352   0.0000000  10.0000000  )
         3           Re1 tau(   3) = (   1.3270676   2.6643489  10.0000000  )
         4           Re1 tau(   4) = (  -1.3270676   2.6643489  10.0000000  )
         5           Ag1 tau(   5) = (   2.6541352   1.3219803  12.3014782  )
         6           Ag1 tau(   6) = (   0.0000000   1.3219803  12.3014782  )
         7           Re1 tau(   7) = (  -1.3270676   3.9863292  12.3014782  )
         8           Re1 tau(   8) = (   1.3270676   3.9863292  12.3014782  )
         9           Ag1 tau(   9) = (  -0.0000000   2.6439607  14.6029563  )
        10           Ag1 tau(  10) = (   2.6541352   2.6439607  14.6029563  )
        11           Re1 tau(  11) = (   1.3270676   5.3083096  14.6029563  )
        12           Re1 tau(  12) = (  -1.3270676   5.3083096  14.6029563  )

     number of k points=    20  Fermi-Dirac smearing, width (Ry)=  0.0110
                       cart. coord. in units 2pi/alat
        k(    1) = (   0.0000000   0.0000000   0.0000000), wk =   0.0555556
        k(    2) = (   0.0000000   0.0312772   0.0000000), wk =   0.1111111
        k(    3) = (   0.0000000   0.0625544   0.0000000), wk =   0.1111111
        k(    4) = (   0.0000000  -0.0938316   0.0000000), wk =   0.0555556
        k(    5) = (   0.0313975   0.0156386   0.0000000), wk =   0.1111111
        k(    6) = (   0.0313975   0.0469158   0.0000000), wk =   0.1111111
        k(    7) = (   0.0313975   0.0781930   0.0000000), wk =   0.1111111
        k(    8) = (   0.0313975  -0.0781930   0.0000000), wk =   0.1111111
        k(    9) = (   0.0313975  -0.0469158   0.0000000), wk =   0.1111111
        k(   10) = (   0.0313975  -0.0156386   0.0000000), wk =   0.1111111
        k(   11) = (   0.0627951   0.0312772   0.0000000), wk =   0.1111111
        k(   12) = (   0.0627951   0.0625544   0.0000000), wk =   0.1111111
        k(   13) = (   0.0627951   0.0938316   0.0000000), wk =   0.1111111
        k(   14) = (   0.0627951  -0.0625544   0.0000000), wk =   0.1111111
        k(   15) = (   0.0627951  -0.0312772   0.0000000), wk =   0.1111111
        k(   16) = (   0.0627951   0.0000000   0.0000000), wk =   0.1111111
        k(   17) = (  -0.0941926  -0.0469158   0.0000000), wk =   0.0555556
        k(   18) = (  -0.0941926  -0.0156386   0.0000000), wk =   0.1111111
        k(   19) = (  -0.0941926   0.0156386   0.0000000), wk =   0.1111111
        k(   20) = (  -0.0941926  -0.1407473   0.0000000), wk =   0.0555556

     Largest allocated arrays     est. size (Mb)     dimensions
     Largest temporary arrays     est. size (Mb)     dimensions

     Initial potential from superposition of free atoms
     Check: negative starting charge=   -0.781210

     starting charge  197.99945, renormalised to  204.00000

     negative rho (up, down):  8.049E-01 0.000E+00

     *
     * You are using vdW-DF for exchange-correlation in this calculation.
     * Please cite the following three references that made this development
     * possible:
     *
     *   M. Dion, H. Rydberg, E. Schroder, D. C. Langreth, and
     *   B. I. Lundqvist, Phys. Rev. Lett. 92, 246401 (2004).
     *
     *   T. Thonhauser, V. R. Cooper, S. Li, A. Puzder, P. Hyldgaard, and
     *   D. C. Langreth, Phys. Rev. B 76, 125112 (2007).
     *
     *   G. Roman-Perez and J. M. Soler, Phys. Rev. Lett. 103, 096102 (2009).
     *
     *
     * If you are using vdW-DF2, please also cite:
     *
     *   K. Lee, E. D. Murray, L. Kong, B. I. Lundqvist, and
     *   D. C. Langreth, Phys. Rev. B 82, 081101(R) (2010).
     *
     *
     * If you are calculating the stress with vdW-DF, please also cite:
     *
     *   R. Sabatini, E. Kucukbenli, B. Kolb, T. Thonhauser, and
     *   S. de Gironcoli, J. Phys.: Condens. Matter 24, 424209 (2012).
     *

     Carrying out vdW-DF run using the following parameters:

     Nqs =      20    Nr_points =    1024   r_max =   100.000
     q_mesh =
               0.00001000     0.04494208     0.09755937     0.15916263
               0.23128650     0.31572767     0.41458969     0.53033537
               0.66584808     0.82450364     1.01025438     1.22772762
               1.48234092     1.78043706     2.12944203     2.53805004
               3.01644009     3.57652955     4.23227104     5.00000000

     Gradients computed in reciprocal space

     Adding external electric field

     Computed dipole along edir(3) :
        Dipole                0.0000 Ry au,          0.0000 Debye
        Dipole field          0.0000 Ry au

        Potential amp.       -0.0000 Ry
        Total length         45.3305 bohr

     Starting wfc are  156 randomized atomic wfcs

     Self-consistent Calculation

     iteration #  1     ecut=    36.75 Ry     beta=0.10
     Davidson diagonalization with overlap
     ethr =  1.00E-02,  avg # of iterations =  8.2

[...]

     total energy              =   -2925.58909847 Ry
     Harris-Foulkes estimate   =   -2937.29887835 Ry
     estimated scf accuracy    <      65.07374799 Ry

[...]

     End of self-consistent calculation

          k = 0.0000 0.0000 0.0000 ( 17667 PWs)   bands (ev):

   -90.6175 -90.5985 -90.2040 -90.2039 -90.1850 -90.1849 -78.9270 -78.8687
   -78.4651 -78.4641 -78.4068 -78.4058 -54.2280 -54.1219 -54.1009 -54.0935
   -54.0727 -54.0103 -53.8386 -53.8385 -53.6911 -53.6867 -53.6705 -53.6662
   -53.6449 -53.6355 -53.6247 -53.6211 -53.6211 -53.6159 -40.9780 -40.7631
   -40.6644 -40.6347 -40.5444 -40.5435 -40.5407 -40.1955 -40.1882 -40.1315
   -40.1222 -40.1050 -40.0981 -40.0315 -39.9772 -39.8954 -39.7000 -39.6984
    -6.1294  -4.6720  -4.6314  -4.5726  -4.5392  -4.5137  -4.2190  -4.0991
    -4.0326  -4.0150  -3.9154  -3.8699  -3.7793  -3.7476  -3.3561  -3.3255
    -3.2056  -3.1425  -2.8623  -2.6720  -2.5105  -2.3957  -2.2908  -2.2770
    -2.1395  -1.9793  -1.9769  -1.9146  -1.6968  -1.6898  -1.6400  -1.5433
    -1.5112  -1.3168  -0.9730  -0.8089  -0.7421  -0.6112  -0.5580  -0.3683
    -0.1855   0.0852   0.5744   0.8648   0.9113   0.9564   1.0672   1.0851
     1.1699   1.8118   1.9787   2.0537   2.3825   2.6075   2.7020   2.8102
     2.8682   2.9145   3.2484   3.3198   3.3379   3.4425   3.4931   3.7885
     3.9753   4.0122   4.0270   4.7510   4.8038   5.1411   5.4780   6.1866
     6.2249   6.2987   6.4264   6.7584   6.7616   6.9388   7.8280   8.4273
     8.5464   8.6701   9.0392   9.2207

[...]

          k =-0.0942-0.0469 0.0000 ( 17654 PWs)   bands (ev):

[...]

     the Fermi energy is     1.8472 ev

!    total energy              =   -2932.11521231 Ry
     Harris-Foulkes estimate   =   -2932.11521127 Ry
     estimated scf accuracy    <       0.00000042 Ry

     The total energy is the sum of the following terms:

     one-electron contribution =  -22297.77397395 Ry
     hartree contribution      =   11134.96389379 Ry
     xc contribution           =    -504.57410269 Ry
     ewald contribution        =    8735.33366800 Ry
     electric field correction =       0.00000000 Ry
     smearing contrib. (-TS)   =      -0.06469746 Ry

     convergence has been achieved in  17 iterations

 BEEF-vdW xc energy contributions
           1 :   -444.711288501096
           2 :    409.792920273366
           3 :   -348.716562015885
[...]

[...]

   This run was terminated on:  19:22:32  18Dec2018

[...]

   This run was terminated on:  19:42: 4  18Dec2018

[...]

     Program PWSCF v.5.1rc2 (svn rev. 11289) starts on 18Dec2018 at 19:42:10

     Current dimensions of program PWSCF are:
     Max number of different atomic species (ntypx) = 10
     Max number of k-points (npk) =  40000
     Max angular momentum in pseudopotentials (lmaxx) =  3
     Presently stress not available with electric field

     IMPORTANT: XC functional enforced from input :
     Exchange-correlation      = BEEF-VDW ( 1  4 27 13 2)
     Any further DFT definition will be discarded
     Please, verify this is what you really want

     Subspace diagonalization in iterative solution of the eigenvalue problem:
     a serial algorithm will be used

     bravais-lattice index     =            0
     lattice parameter (alat)  =       1.8897  a.u.
     unit-cell volume          =    4696.3237 (a.u.)^3
     number of atoms/cell      =           12
     number of atomic types    =            2
     number of electrons       =       204.00
     number of Kohn-Sham states=          132
     kinetic-energy cutoff     =      36.7493  Ry
     charge density cutoff     =     367.4932  Ry
     convergence threshold     =      1.0E-06
     mixing beta               =       0.1000
     number of iterations used =           10  plain     mixing
     Exchange-correlation      = BEEF-VDW ( 1  4 27 13 2)
     nstep                     =           50

     celldm(1)=   1.889726  celldm(2)=   0.000000  celldm(3)=   0.000000
     celldm(4)=   0.000000  celldm(5)=   0.000000  celldm(6)=   0.000000

     crystal axes: (cart. coord. in units of alat)
               a(1) = (   5.308270   0.000000   0.000000 )
               a(2) = (  -2.654135   5.328698   0.000000 )
               a(3) = (   0.000000   0.000000  24.602956 )

     reciprocal axes: (cart. coord. in units 2 pi/alat)
               b(1) = (  0.188385  0.093832  0.000000 )
               b(2) = (  0.000000  0.187663  0.000000 )
               b(3) = (  0.000000  0.000000  0.040646 )

     PseudoPot. # 1 for Ag read from file:
     /afs/slac.stanford.edu/u/if/mamunm/psp/gbrv1.5pbe/Ag.UPF
     MD5 check sum: d66d668201baa78d5eb5b04ef7011058
     Pseudo is Ultrasoft + core correction, Zval = 19.0
     Generated by new atomic code, or converted to UPF format
     Using radial grid of  887 points,  6 beta functions with:
                l(1) =   0
                l(2) =   0
                l(3) =   1
                l(4) =   1
                l(5) =   2
                l(6) =   2
     Q(r) pseudized with  6 coefficients,  rinner =    1.300   1.300   1.300
                                                       1.300   1.300

     PseudoPot. # 2 for Re read from file:
     /afs/slac.stanford.edu/u/if/mamunm/psp/gbrv1.5pbe/Re.UPF
     MD5 check sum: 85f993410f3e006da9d71c142b4ad953
     Pseudo is Ultrasoft + core correction, Zval = 15.0
     Generated by new atomic code, or converted to UPF format
     Using radial grid of  981 points,  8 beta functions with:
                l(1) =   0
                l(2) =   0
                l(3) =   1
                l(4) =   1
                l(5) =   2
                l(6) =   2
                l(7) =   3
                l(8) =   3
     Q(r) pseudized with  8 coefficients,  rinner =    1.150   1.150   1.150
                                                       1.150   1.150   1.150
                                                       1.150

     vdW kernel table read from file vdW_kernel_table
     MD5 check sum: 095c7af220d748ca6e76c0b4c6cfb241

     atomic species   valence    mass     pseudopotential
        Ag1           19.00   107.86820     Ag( 1.00)
        Re1           15.00   186.20700     Re( 1.00)

     No symmetry found

   Cartesian axes

     site n.     atom                  positions (alat units)
         1           Ag1 tau(   1) = (   0.0000000   0.0000000  10.0000000  )
         2           Ag1 tau(   2) = (   2.6541352   0.0000000  10.0000000  )
         3           Re1 tau(   3) = (   1.3270676   2.6643489  10.0000000  )
         4           Re1 tau(   4) = (  -1.3270676   2.6643489  10.0000000  )
         5           Ag1 tau(   5) = (   2.6541352   1.3219803  12.3014782  )
         6           Ag1 tau(   6) = (   0.0000000   1.3219803  12.3014782  )
         7           Re1 tau(   7) = (  -1.3270676   3.9863292  12.3014782  )
         8           Re1 tau(   8) = (   1.3270676   3.9863292  12.3014782  )
         9           Ag1 tau(   9) = (  -0.0009422   2.4583644  14.8882781  )
        10           Ag1 tau(  10) = (   2.6550285   2.4583883  14.8882790  )
        11           Re1 tau(  11) = (   1.3270214   5.0537257  14.4691195  )
        12           Re1 tau(  12) = (  -1.3271170   5.0535413  14.4690287  )

     number of k points=    20  Fermi-Dirac smearing, width (Ry)=  0.0110
                       cart. coord. in units 2pi/alat
        k(    1) = (   0.0000000   0.0000000   0.0000000), wk =   0.0555556
        k(    2) = (   0.0000000   0.0312772   0.0000000), wk =   0.1111111
        k(    3) = (   0.0000000   0.0625544   0.0000000), wk =   0.1111111
        k(    4) = (   0.0000000  -0.0938316   0.0000000), wk =   0.0555556
        k(    5) = (   0.0313975   0.0156386   0.0000000), wk =   0.1111111
        k(    6) = (   0.0313975   0.0469158   0.0000000), wk =   0.1111111
        k(    7) = (   0.0313975   0.0781930   0.0000000), wk =   0.1111111
        k(    8) = (   0.0313975  -0.0781930   0.0000000), wk =   0.1111111
        k(    9) = (   0.0313975  -0.0469158   0.0000000), wk =   0.1111111
        k(   10) = (   0.0313975  -0.0156386   0.0000000), wk =   0.1111111
        k(   11) = (   0.0627951   0.0312772   0.0000000), wk =   0.1111111
        k(   12) = (   0.0627951   0.0625544   0.0000000), wk =   0.1111111
        k(   13) = (   0.0627951   0.0938316   0.0000000), wk =   0.1111111
        k(   14) = (   0.0627951  -0.0625544   0.0000000), wk =   0.1111111
        k(   15) = (   0.0627951  -0.0312772   0.0000000), wk =   0.1111111
        k(   16) = (   0.0627951   0.0000000   0.0000000), wk =   0.1111111
        k(   17) = (  -0.0941926  -0.0469158   0.0000000), wk =   0.0555556
        k(   18) = (  -0.0941926  -0.0156386   0.0000000), wk =   0.1111111
        k(   19) = (  -0.0941926   0.0156386   0.0000000), wk =   0.1111111
        k(   20) = (  -0.0941926  -0.1407473   0.0000000), wk =   0.0555556

     Largest allocated arrays     est. size (Mb)     dimensions
     Largest temporary arrays     est. size (Mb)     dimensions

     Initial potential from superposition of free atoms
     Check: negative starting charge=   -0.779612

     starting charge  197.99945, renormalised to  204.00000

[...]

     *
     * You are using vdW-DF for exchange-correlation in this calculation.
     * Please cite the following three references that made this development
     * possible:
     *
     *   M. Dion, H. Rydberg, E. Schroder, D. C. Langreth, and
     *   B. I. Lundqvist, Phys. Rev. Lett. 92, 246401 (2004).
     *
     *   T. Thonhauser, V. R. Cooper, S. Li, A. Puzder, P. Hyldgaard, and
     *   D. C. Langreth, Phys. Rev. B 76, 125112 (2007).
     *
     *   G. Roman-Perez and J. M. Soler, Phys. Rev. Lett. 103, 096102 (2009).
     *
     *
     * If you are using vdW-DF2, please also cite:
     *
     *   K. Lee, E. D. Murray, L. Kong, B. I. Lundqvist, and
     *   D. C. Langreth, Phys. Rev. B 82, 081101(R) (2010).
     *
     *
     * If you are calculating the stress with vdW-DF, please also cite:
     *
     *   R. Sabatini, E. Kucukbenli, B. Kolb, T. Thonhauser, and
     *   S. de Gironcoli, J. Phys.: Condens. Matter 24, 424209 (2012).
     *

     Carrying out vdW-DF run using the following parameters:

     Nqs =      20    Nr_points =    1024   r_max =   100.000
     q_mesh =
               0.00001000     0.04494208     0.09755937     0.15916263
               0.23128650     0.31572767     0.41458969     0.53033537
               0.66584808     0.82450364     1.01025438     1.22772762
               1.48234092     1.78043706     2.12944203     2.53805004
               3.01644009     3.57652955     4.23227104     5.00000000

     Gradients computed in reciprocal space

[...]

     Starting wfc are  156 randomized atomic wfcs

     Self-consistent Calculation

[...]

     iteration # 10     ecut=    36.75 Ry     beta=0.10
     Davidson diagonalization with overlap
     c_bands:  1 eigenvalues not converged
     ethr =  4.00E-06,  avg # of iterations =  2.7

[...]

     total energy              =   -2932.15620027 Ry
     Harris-Foulkes estimate   =   -2932.15620017 Ry
     estimated scf accuracy    <       0.00000307 Ry

     iteration # 17     ecut=    36.75 Ry     beta=0.10
     Davidson diagonalization with overlap
     ethr =  1.51E-09,  avg # of iterations =  1.8

[...]

     negative rho (up, down):  7.872E-01 0.000E+00

     Adding external electric field

     Computed dipole along edir(3) :
        Dipole                0.0340 Ry au,          0.0865 Debye
        Dipole field          0.0001 Ry au

        Potential amp.       -0.0083 Ry
        Total length         45.3305 bohr

     End of self-consistent calculation

[...]

          k = 0.0628 0.0000 0.0000 ( 17600 PWs)   bands (ev):

[...]

          k =-0.0942-0.1407 0.0000 ( 17654 PWs)   bands (ev):

   -90.5646 -90.5646 -90.1937 -90.1937 -89.8995 -89.8993 -78.8196 -78.8195
   -78.4116 -78.4115 -78.3904 -78.3904 -54.0817 -54.0817 -54.0561 -54.0561
   -54.0361 -54.0361 -53.7303 -53.7303 -53.6780 -53.6780 -53.6280 -53.6280
   -53.4625 -53.4609 -53.3922 -53.3920 -53.3156 -53.3154 -40.9048 -40.9044
   -40.5391 -40.5390 -40.4837 -40.4837 -40.1256 -40.1255 -40.1151 -40.1151
   -40.1036 -40.1036 -40.0924 -40.0924 -40.0460 -40.0459 -39.7485 -39.7483
    -4.4072  -4.4069  -3.7813  -3.7813  -3.6722  -3.6722  -3.5858  -3.5853
    -3.3947  -3.3945  -3.2543  -3.2539  -3.0909  -3.0900  -2.8061  -2.8056
    -2.7502  -2.7496  -2.5964  -2.5946  -2.4837  -2.4828  -2.4307  -2.4287
    -2.2731  -2.2703  -2.1932  -2.1916  -2.0671  -2.0667  -1.9637  -1.9599
    -1.5339  -1.5329  -1.4380  -1.4370  -0.9893  -0.9891  -0.3377  -0.3375
    -0.2219  -0.2213   0.2980   0.2983   0.6585   0.6588   0.9179   0.9185
     1.0291   1.0292   1.1834   1.1836   1.3108   1.3112   1.5459   1.5461
     1.5874   1.5876   2.3305   2.3306   3.0492   3.0497   3.3929   3.3931
     4.0282   4.0286   4.2331   4.2333   4.6799   4.6804   6.0019   6.0026
     6.6359   6.6361   7.7147   7.7148   8.2572   8.2574   8.4464   8.4465
     8.6281   8.6287   9.1212   9.1220

     the Fermi energy is     1.8557 ev

!    total energy              =   -2932.15620172 Ry
     Harris-Foulkes estimate   =   -2932.15620069 Ry
     estimated scf accuracy    <       0.00000080 Ry

     The total energy is the sum of the following terms:

     one-electron contribution =  -21973.19811445 Ry
     hartree contribution      =   10973.18328068 Ry
     xc contribution           =    -504.70813334 Ry
     ewald contribution        =    8572.63183258 Ry
     electric field correction =       0.00000310 Ry
     smearing contrib. (-TS)   =      -0.06507029 Ry

     convergence has been achieved in  17 iterations

 BEEF-vdW xc energy contributions
           1 :   -444.829272057842
           2 :    409.859537440857
           3 :   -348.725941886497
           4 :    275.557541604474
           5 :   -204.789092320119
           6 :    146.781649245514
           7 :   -105.634967963694
           8 :    79.6387725093420
           9 :   -63.7069437176897
          10 :    52.4102175037212
          11 :   -42.2253315065928
          12 :    32.2345560382760
          13 :   -23.3923455368304
          14 :    17.1108459498021
          15 :   -14.0595975886345
          16 :    13.7271267387064
          17 :   -14.7655779169450
          18 :    15.7280693498615
          19 :   -15.7105703400845
          20 :    14.5821069289948
          21 :   -12.7883884087883
          22 :    10.9404676356978
          23 :   -9.46112098019927
          24 :    8.45486454586347
          25 :   -7.80203125740746
          26 :    7.34779470775857
          27 :   -7.03817262553304
          28 :    6.92499669773673
          29 :   -7.06907435756494
          30 :    7.43459625100166
          31 :   -39.5037522066893
          32 :   -29.0576175975531

     Forces acting on atoms (Ry/au):

     negative rho (up, down):  7.872E-01 0.000E+00
     atom    1 type  1   force =     0.00001464   -0.01480095   -0.03833720
     atom    2 type  1   force =     0.00001382   -0.01480110   -0.03833655
     atom    3 type  2   force =     0.00000781    0.01630532    0.03687278
     atom    4 type  2   force =     0.00000782    0.01629686    0.03685715
     atom    5 type  1   force =    -0.00003393    0.01585166    0.02156579
     atom    6 type  1   force =     0.00000079    0.01585144    0.02156463
     atom    7 type  2   force =     0.00002539   -0.01742856   -0.02006700
     atom    8 type  2   force =     0.00002497   -0.01739006   -0.01998201
     atom    9 type  1   force =     0.00071798   -0.00010545   -0.00003770
     atom   10 type  1   force =    -0.00078089   -0.00010859   -0.00003709
     atom   11 type  2   force =    -0.00000013    0.00008800   -0.00006904
     atom   12 type  2   force =     0.00000171    0.00024142    0.00000624

     Total force =     0.097309     Total SCF correction =     0.004964

     entering subroutine stress ...

     negative rho (up, down):  7.872E-01 0.000E+00
          total   stress  (Ry/bohr**3)                   (kbar)     P=  -18.45
  -0.00017604  -0.00000001   0.00000000        -25.90     -0.00      0.00
  -0.00000001  -0.00017550  -0.00000444         -0.00    -25.82     -0.65
   0.00000000  -0.00000444  -0.00002474          0.00     -0.65     -3.64

 !ASE

     Writing output data file calc.save

     General routines

     Parallel routines

   This run was terminated on:  20: 1:44  18Dec2018

   JOB DONE.
Job  /afs/slac/g/suncat/bin/suncat-tsmpirun -x LD_LIBRARY_PATH -wdir /scratch/qe529561_kYJfD pw.x -in pw.inp

TID   HOST_NAME   COMMAND_LINE            STATUS            TERMINATION_TIME
00000 suncat0016 pw.x -in pw.inp   Done                     12/18/2018 20:01:44
00001 suncat0016 pw.x -in pw.inp   Done                     12/18/2018 20:01:44
00002 suncat0016 pw.x -in pw.inp   Done                     12/18/2018 20:01:44
00003 suncat0016 pw.x -in pw.inp   Done                     12/18/2018 20:01:44
00004 suncat0016 pw.x -in pw.inp   Done                     12/18/2018 20:01:44
00005 suncat0016 pw.x -in pw.inp   Done                     12/18/2018 20:01:44
00006 suncat0016 pw.x -in pw.inp   Done                     12/18/2018 20:01:44
00007 suncat0016 pw.x -in pw.inp   Done                     12/18/2018 20:01:44
00008 suncat0015 pw.x -in pw.inp   Done                     12/18/2018 20:01:44
00009 suncat0015 pw.x -in pw.inp   Done                     12/18/2018 20:01:44
00010 suncat0015 pw.x -in pw.inp   Done                     12/18/2018 20:01:44
00011 suncat0015 pw.x -in pw.inp   Done                     12/18/2018 20:01:44
00012 suncat0015 pw.x -in pw.inp   Done                     12/18/2018 20:01:44
00013 suncat0015 pw.x -in pw.inp   Done                     12/18/2018 20:01:44
00014 suncat0015 pw.x -in pw.inp   Done                     12/18/2018 20:01:44
00015 suncat0015 pw.x -in pw.inp   Done                     12/18/2018 20:01:44
00016 suncat0014 pw.x -in pw.inp   Done                     12/18/2018 20:01:44
00017 suncat0014 pw.x -in pw.inp   Done                     12/18/2018 20:01:44
00018 suncat0014 pw.x -in pw.inp   Done                     12/18/2018 20:01:44
00019 suncat0014 pw.x -in pw.inp   Done                     12/18/2018 20:01:44
00020 suncat0014 pw.x -in pw.inp   Done                     12/18/2018 20:01:44
00021 suncat0014 pw.x -in pw.inp   Done                     12/18/2018 20:01:44
00022 suncat0014 pw.x -in pw.inp   Done                     12/18/2018 20:01:44
00023 suncat0014 pw.x -in pw.inp   Done                     12/18/2018 20:01:44
00024 suncat0013 pw.x -in pw.inp   Done                     12/18/2018 20:01:44
00025 suncat0013 pw.x -in pw.inp   Done                     12/18/2018 20:01:44
00026 suncat0013 pw.x -in pw.inp   Done                     12/18/2018 20:01:44
00027 suncat0013 pw.x -in pw.inp   Done                     12/18/2018 20:01:44
00028 suncat0013 pw.x -in pw.inp   Done                     12/18/2018 20:01:44
00029 suncat0013 pw.x -in pw.inp   Done                     12/18/2018 20:01:44
00030 suncat0013 pw.x -in pw.inp   Done                     12/18/2018 20:01:44
00031 suncat0013 pw.x -in pw.inp   Done                     12/18/2018 20:01:44