     Program PWSCF v.5.1rc2 (svn rev. 11289) starts on 18Dec2018 at 16:51:54

     Current dimensions of program PWSCF are:
     Max number of different atomic species (ntypx) = 10
     Max number of k-points (npk) =  40000
     Max angular momentum in pseudopotentials (lmaxx) =  3
     Presently stress not available with electric field

     IMPORTANT: XC functional enforced from input :
     Exchange-correlation      = BEEF-VDW ( 1  4 27 13 2)
     Any further DFT definition will be discarded
     Please, verify this is what you really want

     Subspace diagonalization in iterative solution of the eigenvalue problem:
     a serial algorithm will be used

     Found symmetry operation: I + ( -0.5000  0.5000  0.0000)
     This is a supercell, fractional translations are disabled

     Generating pointlists ...
     new r_m :   0.4125 (alat units)  0.7795 (a.u.) for type    1
     new r_m :   0.4125 (alat units)  0.7795 (a.u.) for type    2

     bravais-lattice index     =            0
     lattice parameter (alat)  =       1.8897  a.u.
     unit-cell volume          =    4192.2832 (a.u.)^3
     number of atoms/cell      =           12
     number of atomic types    =            2
     number of electrons       =       204.00
     number of Kohn-Sham states=          132
     kinetic-energy cutoff     =      36.7493  Ry
     charge density cutoff     =     367.4932  Ry
     convergence threshold     =      1.0E-06
     mixing beta               =       0.1000
     number of iterations used =           10  plain     mixing
     Exchange-correlation      = BEEF-VDW ( 1  4 27 13 2)
     nstep                     =           50

     celldm(1)=   1.889726  celldm(2)=   0.000000  celldm(3)=   0.000000
     celldm(4)=   0.000000  celldm(5)=   0.000000  celldm(6)=   0.000000

     crystal axes: (cart. coord. in units of alat)
               a(1) = (   5.219338   0.000000   0.000000 )
               a(2) = (   1.789311   4.903046   0.000000 )
               a(3) = (   0.000000   0.000000  24.275750 )

     reciprocal axes: (cart. coord. in units 2 pi/alat)
               b(1) = (  0.191595 -0.069921  0.000000 )
               b(2) = (  0.000000  0.203955  0.000000 )
               b(3) = (  0.000000  0.000000  0.041193 )

     PseudoPot. # 1 for Mn read from file:
     /afs/slac.stanford.edu/u/if/mamunm/psp/gbrv1.5pbe/Mn.UPF
     MD5 check sum: 82ef2b46521d7a7d9e736dc3972e4928
     Pseudo is Ultrasoft + core correction, Zval = 15.0
     Generated by new atomic code, or converted to UPF format
     Using radial grid of  859 points,  6 beta functions with:
                l(1) =   0
                l(2) =   0
                l(3) =   1
                l(4) =   1
                l(5) =   2
                l(6) =   2
     Q(r) pseudized with  8 coefficients,  rinner =    0.950   0.950   0.950
                                                       0.950   0.950

     PseudoPot. # 2 for Cu read from file:
     /afs/slac.stanford.edu/u/if/mamunm/psp/gbrv1.5pbe/Cu.UPF
     MD5 check sum: 6e991ff952a84172a2a52a1c1e996048
     Pseudo is Ultrasoft + core correction, Zval = 19.0
     Generated by new atomic code, or converted to UPF format
     Using radial grid of  867 points,  6 beta functions with:
                l(1) =   0
                l(2) =   0
                l(3) =   1
                l(4) =   1
                l(5) =   2
                l(6) =   2
     Q(r) pseudized with  8 coefficients,  rinner =    1.150   1.150   1.150
                                                       1.150   1.150

     vdW kernel table read from file vdW_kernel_table
     MD5 check sum: 095c7af220d748ca6e76c0b4c6cfb241

     atomic species   valence    mass     pseudopotential
        Mn1           15.00    54.93804     Mn( 1.00)
        Cu1           19.00    63.54600     Cu( 1.00)

     Starting magnetic structure
     atomic species   magnetization
        Mn1          0.133
        Cu1          0.105

     No symmetry found

   Cartesian axes

     site n.     atom                  positions (alat units)
         1           Mn1 tau(   1) = (   0.0000000   0.0000000  10.0000000  )
         2           Mn1 tau(   2) = (   3.5043248   2.4515228  10.0000000  )
         3           Cu1 tau(   3) = (   2.6096691   0.0000000  10.0000000  )
         4           Cu1 tau(   4) = (   0.8946557   2.4515228  10.0000000  )
         5           Mn1 tau(   5) = (   5.2193382   3.6512958  12.1378748  )
         6           Mn1 tau(   6) = (   1.7150134   1.1997730  12.1378748  )
         7           Cu1 tau(   7) = (   2.6096691   3.6512958  12.1378748  )
         8           Cu1 tau(   8) = (   4.3246825   1.1997730  12.1378748  )
         9           Mn1 tau(   9) = (   3.4300268   2.3995461  14.2757496  )
        10           Mn1 tau(  10) = (   6.9343516   4.8510688  14.2757496  )
        11           Cu1 tau(  11) = (   6.0396959   2.3995461  14.2757496  )
        12           Cu1 tau(  12) = (   4.3246825   4.8510688  14.2757496  )

     number of k points=    40  Fermi-Dirac smearing, width (Ry)=  0.0110
                       cart. coord. in units 2pi/alat
        k(    1) = (   0.0000000   0.0000000   0.0000000), wk =   0.0277778
        k(    2) = (   0.0000000   0.0339925   0.0000000), wk =   0.0555556
        k(    3) = (   0.0000000   0.0679850   0.0000000), wk =   0.0555556
        k(    4) = (   0.0000000  -0.1019774   0.0000000), wk =   0.0277778
        k(    5) = (   0.0319325  -0.0116534   0.0000000), wk =   0.0555556
        k(    6) = (   0.0319325   0.0223391   0.0000000), wk =   0.0555556
        k(    7) = (   0.0319325   0.0563315   0.0000000), wk =   0.0555556
        k(    8) = (   0.0319325  -0.1136309   0.0000000), wk =   0.0555556
        k(    9) = (   0.0319325  -0.0796384   0.0000000), wk =   0.0555556
        k(   10) = (   0.0319325  -0.0456459   0.0000000), wk =   0.0555556
        k(   11) = (   0.0638651  -0.0233068   0.0000000), wk =   0.0555556
        k(   12) = (   0.0638651   0.0106856   0.0000000), wk =   0.0555556
        k(   13) = (   0.0638651   0.0446781   0.0000000), wk =   0.0555556
        k(   14) = (   0.0638651  -0.1252843   0.0000000), wk =   0.0555556
        k(   15) = (   0.0638651  -0.0912918   0.0000000), wk =   0.0555556
        k(   16) = (   0.0638651  -0.0572993   0.0000000), wk =   0.0555556
        k(   17) = (  -0.0957976   0.0349603   0.0000000), wk =   0.0277778
        k(   18) = (  -0.0957976   0.0689527   0.0000000), wk =   0.0555556
        k(   19) = (  -0.0957976   0.1029452   0.0000000), wk =   0.0555556
        k(   20) = (  -0.0957976  -0.0670172   0.0000000), wk =   0.0277778
        k(   21) = (   0.0000000   0.0000000   0.0000000), wk =   0.0277778
        k(   22) = (   0.0000000   0.0339925   0.0000000), wk =   0.0555556
        k(   23) = (   0.0000000   0.0679850   0.0000000), wk =   0.0555556
        k(   24) = (   0.0000000  -0.1019774   0.0000000), wk =   0.0277778
        k(   25) = (   0.0319325  -0.0116534   0.0000000), wk =   0.0555556
        k(   26) = (   0.0319325   0.0223391   0.0000000), wk =   0.0555556
        k(   27) = (   0.0319325   0.0563315   0.0000000), wk =   0.0555556
        k(   28) = (   0.0319325  -0.1136309   0.0000000), wk =   0.0555556
        k(   29) = (   0.0319325  -0.0796384   0.0000000), wk =   0.0555556
        k(   30) = (   0.0319325  -0.0456459   0.0000000), wk =   0.0555556
        k(   31) = (   0.0638651  -0.0233068   0.0000000), wk =   0.0555556
        k(   32) = (   0.0638651   0.0106856   0.0000000), wk =   0.0555556
        k(   33) = (   0.0638651   0.0446781   0.0000000), wk =   0.0555556
        k(   34) = (   0.0638651  -0.1252843   0.0000000), wk =   0.0555556
        k(   35) = (   0.0638651  -0.0912918   0.0000000), wk =   0.0555556
        k(   36) = (   0.0638651  -0.0572993   0.0000000), wk =   0.0555556
        k(   37) = (  -0.0957976   0.0349603   0.0000000), wk =   0.0277778
        k(   38) = (  -0.0957976   0.0689527   0.0000000), wk =   0.0555556
        k(   39) = (  -0.0957976   0.1029452   0.0000000), wk =   0.0555556
        k(   40) = (  -0.0957976  -0.0670172   0.0000000), wk =   0.0277778

     Largest allocated arrays     est. size (Mb)     dimensions
     Largest temporary arrays     est. size (Mb)     dimensions

     Check: negative/imaginary core charge=   -0.000006    0.000000

     Initial potential from superposition of free atoms
     Check: negative starting charge=(component1):   -0.001319
     Check: negative starting charge=(component2):   -0.001009

     starting charge  194.99948, renormalised to  204.00000

     negative rho (up, down):  1.380E-03 1.055E-03

     *
     * You are using vdW-DF for exchange-correlation in this calculation.
     * Please cite the following three references that made this development
     * possible:
     *
     *   M. Dion, H. Rydberg, E. Schroder, D. C. Langreth, and
     *   B. I. Lundqvist, Phys. Rev. Lett. 92, 246401 (2004).
     *
     *   T. Thonhauser, V. R. Cooper, S. Li, A. Puzder, P. Hyldgaard, and
     *   D. C. Langreth, Phys. Rev. B 76, 125112 (2007).
     *
     *   G. Roman-Perez and J. M. Soler, Phys. Rev. Lett. 103, 096102 (2009).
     *
     *
     * If you are using vdW-DF2, please also cite:
     *
     *   K. Lee, E. D. Murray, L. Kong, B. I. Lundqvist, and
     *   D. C. Langreth, Phys. Rev. B 82, 081101(R) (2010).
     *
     *
     * If you are calculating the stress with vdW-DF, please also cite:
     *
     *   R. Sabatini, E. Kucukbenli, B. Kolb, T. Thonhauser, and
     *   S. de Gironcoli, J. Phys.: Condens. Matter 24, 424209 (2012).
     *

     Carrying out vdW-DF run using the following parameters:

     Nqs =      20    Nr_points =    1024   r_max =   100.000
     q_mesh =
               0.00001000     0.04494208     0.09755937     0.15916263
               0.23128650     0.31572767     0.41458969     0.53033537
               0.66584808     0.82450364     1.01025438     1.22772762
               1.48234092     1.78043706     2.12944203     2.53805004
               3.01644009     3.57652955     4.23227104     5.00000000

     Gradients computed in reciprocal space

     Adding external electric field

     Computed dipole along edir(3) :
        Dipole                0.0000 Ry au,          0.0000 Debye
        Dipole field          0.0000 Ry au

        Potential amp.       -0.0000 Ry
        Total length         44.7277 bohr

[...]

     Starting wfc are  156 randomized atomic wfcs

     Self-consistent Calculation

     iteration #  1     ecut=    36.75 Ry     beta=0.10
     Davidson diagonalization with overlap
     ethr =  1.00E-02,  avg # of iterations =  7.8

[...]

     Magnetic moment per site:
     atom:    1    charge:    6.1127    magn:    0.8005    constr:    0.0000
     atom:    2    charge:    6.1127    magn:    0.8005    constr:    0.0000
     atom:    3    charge:   10.7710    magn:    1.0864    constr:    0.0000
     atom:    4    charge:   10.7710    magn:    1.0864    constr:    0.0000
     atom:    5    charge:    6.1159    magn:    0.7974    constr:    0.0000
     atom:    6    charge:    6.1159    magn:    0.7974    constr:    0.0000
[...]

     PseudoPot. # 2 for Cu read from file:
     /afs/slac.stanford.edu/u/if/mamunm/psp/gbrv1.5pbe/Cu.UPF
     MD5 check sum: 6e991ff952a84172a2a52a1c1e996048
     Pseudo is Ultrasoft + core correction, Zval = 19.0
     Generated by new atomic code, or converted to UPF format
     Using radial grid of  867 points,  6 beta functions with:
                l(1) =   0
                l(2) =   0
                l(3) =   1
                l(4) =   1
                l(5) =   2
                l(6) =   2
     Q(r) pseudized with  8 coefficients,  rinner =    1.150   1.150   1.150
                                                       1.150   1.150

     vdW kernel table read from file vdW_kernel_table
     MD5 check sum: 095c7af220d748ca6e76c0b4c6cfb241

     atomic species   valence    mass     pseudopotential
        Mn1           15.00    54.93804     Mn( 1.00)
        Cu1           19.00    63.54600     Cu( 1.00)

     Starting magnetic structure
     atomic species   magnetization
        Mn1          0.133
        Cu1          0.105

     No symmetry found

   Cartesian axes

     site n.     atom                  positions (alat units)
         1           Mn1 tau(   1) = (   0.0000000   0.0000000  10.0000000  )
         2           Mn1 tau(   2) = (   3.5043248   2.4515228  10.0000000  )
         3           Cu1 tau(   3) = (   2.6096691   0.0000000  10.0000000  )
         4           Cu1 tau(   4) = (   0.8946557   2.4515228  10.0000000  )
         5           Mn1 tau(   5) = (   5.2193382   3.6512958  12.1378748  )
         6           Mn1 tau(   6) = (   1.7150134   1.1997730  12.1378748  )
         7           Cu1 tau(   7) = (   2.6096691   3.6512958  12.1378748  )
         8           Cu1 tau(   8) = (   4.3246825   1.1997730  12.1378748  )
         9           Mn1 tau(   9) = (   3.4343139   2.4025465  14.2986271  )
        10           Mn1 tau(  10) = (   6.9386623   4.8540852  14.2986441  )
        11           Cu1 tau(  11) = (   6.0419924   2.4011736  14.1961924  )
        12           Cu1 tau(  12) = (   4.3270011   4.8526663  14.1961916  )

     number of k points=    40  Fermi-Dirac smearing, width (Ry)=  0.0110
                       cart. coord. in units 2pi/alat
        k(    1) = (   0.0000000   0.0000000   0.0000000), wk =   0.0277778
        k(    2) = (   0.0000000   0.0339925   0.0000000), wk =   0.0555556
        k(    3) = (   0.0000000   0.0679850   0.0000000), wk =   0.0555556
        k(    4) = (   0.0000000  -0.1019774   0.0000000), wk =   0.0277778
        k(    5) = (   0.0319325  -0.0116534   0.0000000), wk =   0.0555556
        k(    6) = (   0.0319325   0.0223391   0.0000000), wk =   0.0555556
        k(    7) = (   0.0319325   0.0563315   0.0000000), wk =   0.0555556
        k(    8) = (   0.0319325  -0.1136309   0.0000000), wk =   0.0555556
        k(    9) = (   0.0319325  -0.0796384   0.0000000), wk =   0.0555556
        k(   10) = (   0.0319325  -0.0456459   0.0000000), wk =   0.0555556
        k(   11) = (   0.0638651  -0.0233068   0.0000000), wk =   0.0555556
        k(   12) = (   0.0638651   0.0106856   0.0000000), wk =   0.0555556
        k(   13) = (   0.0638651   0.0446781   0.0000000), wk =   0.0555556
        k(   14) = (   0.0638651  -0.1252843   0.0000000), wk =   0.0555556
        k(   15) = (   0.0638651  -0.0912918   0.0000000), wk =   0.0555556
        k(   16) = (   0.0638651  -0.0572993   0.0000000), wk =   0.0555556
        k(   17) = (  -0.0957976   0.0349603   0.0000000), wk =   0.0277778
        k(   18) = (  -0.0957976   0.0689527   0.0000000), wk =   0.0555556
        k(   19) = (  -0.0957976   0.1029452   0.0000000), wk =   0.0555556
        k(   20) = (  -0.0957976  -0.0670172   0.0000000), wk =   0.0277778
        k(   21) = (   0.0000000   0.0000000   0.0000000), wk =   0.0277778
        k(   22) = (   0.0000000   0.0339925   0.0000000), wk =   0.0555556
        k(   23) = (   0.0000000   0.0679850   0.0000000), wk =   0.0555556
        k(   24) = (   0.0000000  -0.1019774   0.0000000), wk =   0.0277778
        k(   25) = (   0.0319325  -0.0116534   0.0000000), wk =   0.0555556
        k(   26) = (   0.0319325   0.0223391   0.0000000), wk =   0.0555556
        k(   27) = (   0.0319325   0.0563315   0.0000000), wk =   0.0555556
        k(   28) = (   0.0319325  -0.1136309   0.0000000), wk =   0.0555556
        k(   29) = (   0.0319325  -0.0796384   0.0000000), wk =   0.0555556
        k(   30) = (   0.0319325  -0.0456459   0.0000000), wk =   0.0555556
        k(   31) = (   0.0638651  -0.0233068   0.0000000), wk =   0.0555556
        k(   32) = (   0.0638651   0.0106856   0.0000000), wk =   0.0555556
        k(   33) = (   0.0638651   0.0446781   0.0000000), wk =   0.0555556
        k(   34) = (   0.0638651  -0.1252843   0.0000000), wk =   0.0555556
        k(   35) = (   0.0638651  -0.0912918   0.0000000), wk =   0.0555556
        k(   36) = (   0.0638651  -0.0572993   0.0000000), wk =   0.0555556
        k(   37) = (  -0.0957976   0.0349603   0.0000000), wk =   0.0277778
        k(   38) = (  -0.0957976   0.0689527   0.0000000), wk =   0.0555556
        k(   39) = (  -0.0957976   0.1029452   0.0000000), wk =   0.0555556
        k(   40) = (  -0.0957976  -0.0670172   0.0000000), wk =   0.0277778

     Largest allocated arrays     est. size (Mb)     dimensions
     Largest temporary arrays     est. size (Mb)     dimensions

     Check: negative/imaginary core charge=   -0.000006    0.000000

     Initial potential from superposition of free atoms
     Check: negative starting charge=(component1):   -0.001302
     Check: negative starting charge=(component2):   -0.000996

     starting charge  194.99948, renormalised to  204.00000

[...]

     *
     * You are using vdW-DF for exchange-correlation in this calculation.
     * Please cite the following three references that made this development
     * possible:
     *
     *   M. Dion, H. Rydberg, E. Schroder, D. C. Langreth, and
     *   B. I. Lundqvist, Phys. Rev. Lett. 92, 246401 (2004).
     *
     *   T. Thonhauser, V. R. Cooper, S. Li, A. Puzder, P. Hyldgaard, and
     *   D. C. Langreth, Phys. Rev. B 76, 125112 (2007).
     *
     *   G. Roman-Perez and J. M. Soler, Phys. Rev. Lett. 103, 096102 (2009).
     *
     *
     * If you are using vdW-DF2, please also cite:
     *
     *   K. Lee, E. D. Murray, L. Kong, B. I. Lundqvist, and
     *   D. C. Langreth, Phys. Rev. B 82, 081101(R) (2010).
     *
     *
     * If you are calculating the stress with vdW-DF, please also cite:
     *
     *   R. Sabatini, E. Kucukbenli, B. Kolb, T. Thonhauser, and
     *   S. de Gironcoli, J. Phys.: Condens. Matter 24, 424209 (2012).
     *

     Carrying out vdW-DF run using the following parameters:

     Nqs =      20    Nr_points =    1024   r_max =   100.000
     q_mesh =
               0.00001000     0.04494208     0.09755937     0.15916263
               0.23128650     0.31572767     0.41458969     0.53033537
               0.66584808     0.82450364     1.01025438     1.22772762
               1.48234092     1.78043706     2.12944203     2.53805004
               3.01644009     3.57652955     4.23227104     5.00000000

     Gradients computed in reciprocal space

[...]

     Starting wfc are  156 randomized atomic wfcs

     Self-consistent Calculation

[...]

     total energy              =   -3702.20826362 Ry
     Harris-Foulkes estimate   =   -3702.20825983 Ry
     estimated scf accuracy    <       0.00000126 Ry

[...]

     iteration # 24     ecut=    36.75 Ry     beta=0.10
     Davidson diagonalization with overlap
     ethr =  6.17E-10,  avg # of iterations =  2.5

[...]

     negative rho (up, down):  1.579E-03 1.474E-03

[...]

     Adding external electric field

     Computed dipole along edir(3) :
        Dipole                0.0153 Ry au,          0.0389 Debye
        Dipole field          0.0000 Ry au

        Potential amp.       -0.0041 Ry
        Total length         44.7277 bohr

     Magnetic moment per site:
     atom:    1    charge:    6.0145    magn:    1.5533    constr:    0.0000
     atom:    2    charge:    6.0145    magn:    1.5533    constr:    0.0000
     atom:    3    charge:   10.5965    magn:    0.1203    constr:    0.0000
     atom:    4    charge:   10.5965    magn:    0.1203    constr:    0.0000
     atom:    5    charge:    6.0082    magn:    1.4862    constr:    0.0000
     atom:    6    charge:    6.0082    magn:    1.4862    constr:    0.0000
     atom:    7    charge:   10.5881    magn:    0.1308    constr:    0.0000
     atom:    8    charge:   10.5881    magn:    0.1308    constr:    0.0000
     atom:    9    charge:    6.0148    magn:    1.5597    constr:    0.0000
     atom:   10    charge:    6.0148    magn:    1.5597    constr:    0.0000
     atom:   11    charge:   10.5952    magn:    0.1277    constr:    0.0000
     atom:   12    charge:   10.5952    magn:    0.1277    constr:    0.0000

     End of self-consistent calculation

 ------ SPIN UP ------------

[...]

 ------ SPIN DOWN ----------

[...]

          k = 0.0639-0.0573 0.0000 ( 15793 PWs)   bands (ev):

[...]

          k =-0.0958-0.0670 0.0000 ( 15690 PWs)   bands (ev):

  -112.2634-112.2630-112.0813-112.0808-112.0115-112.0111 -76.5959 -76.5931
   -76.5914 -76.5886 -76.5848 -76.5791 -69.6633 -69.6628 -69.6559 -69.6480
   -69.6478 -69.6472 -69.5103 -69.5098 -69.4775 -69.4697 -69.4494 -69.4489
   -69.4455 -69.4450 -69.4106 -69.4028 -69.3671 -69.3666 -45.4178 -45.4115
   -45.4089 -45.4069 -45.4036 -45.3994 -45.3938 -45.3919 -45.3869 -45.3852
   -45.3796 -45.3617 -45.3611 -45.3583 -45.3543 -45.3508 -45.3500 -45.3453
    -5.1259  -4.9554  -3.9329  -3.9270  -3.2257  -3.1310  -3.0148  -2.9864
    -2.9645  -2.8804  -2.8613  -2.7286  -2.7194  -2.6970  -2.6132  -2.6068
    -2.3900  -2.3568  -2.3189  -2.3046  -2.2940  -2.2835  -2.2621  -2.2054
    -2.1720  -2.0721  -2.0633  -2.0536  -2.0386  -1.9816  -1.9529  -1.8646
    -1.8379  -1.7058  -1.3766  -1.0517  -0.9714  -0.6923  -0.4979  -0.4524
    -0.3733   0.2877   0.5032   0.7205   0.7598   0.8167   0.8621   0.9367
     1.0816   1.1566   1.4169   1.4908   1.5259   1.6668   1.7003   1.9019
     1.9125   2.1583   2.3068   2.3149   2.3204   2.4299   2.4428   2.4708
     2.5073   2.7816   2.9008   3.5949   3.7214   3.8339   4.0582   4.4854
     4.5984   4.8173   6.0413   6.2451   6.4417   6.6547   6.7381   6.9100
     7.0006   7.0476   7.2842   7.9877

     the Fermi energy is     0.6438 ev

!    total energy              =   -3702.20827817 Ry
     Harris-Foulkes estimate   =   -3702.20826385 Ry
     estimated scf accuracy    <       0.00000055 Ry

     The total energy is the sum of the following terms:

     one-electron contribution =  -26893.79830508 Ry
     hartree contribution      =   13448.56357522 Ry
     xc contribution           =    -405.85524904 Ry
     ewald contribution        =   10148.92947376 Ry
     electric field correction =       0.00000070 Ry
     smearing contrib. (-TS)   =      -0.04777373 Ry

     total magnetization       =    24.45 Bohr mag/cell
     absolute magnetization    =    25.81 Bohr mag/cell

     convergence has been achieved in  24 iterations

 BEEF-vdW xc energy contributions
           1 :   -357.598698643039
           2 :    323.423027076014
           3 :   -266.264798646189
           4 :    202.665661912966
           5 :   -146.898515497149
           6 :    105.996908640275
           7 :   -79.3465352117179
           8 :    61.7938293202134
           9 :   -47.7801139811208
          10 :    34.2208720737159
          11 :   -21.0995027700346
          12 :    10.1697168087630
          13 :   -3.05366790514836
          14 :  -4.535516604937584E-002
          15 :   0.478979460407686
          16 :  -0.327046410254411
          17 :    1.20820349458984
          18 :   -3.44423813272743
          19 :    6.06554582144906
          20 :   -7.63464248312005
          21 :    7.32034290679564
          22 :   -5.49406236704976
          23 :    3.45427828394406
          24 :   -2.50759896109201
          25 :    3.08169197654172
          26 :   -4.50686305050624
          27 :    5.58300492378697
          28 :   -5.46957612661447
          29 :    4.23197899462252
          30 :   -2.69583542065470
          31 :   -29.8431855155231
          32 :   -20.6230389034070

     Forces acting on atoms (Ry/au):

     negative rho (up, down):  1.579E-03 1.474E-03
     atom    1 type  1   force =    -0.00077907   -0.00054501   -0.00293010
     atom    2 type  1   force =    -0.00078061   -0.00054607   -0.00293584
     atom    3 type  2   force =     0.00013380    0.00010080    0.00996255
     atom    4 type  2   force =     0.00014111    0.00009181    0.00996291
     atom    5 type  1   force =     0.00029746    0.00020794   -0.00866362
     atom    6 type  1   force =     0.00029608    0.00020717   -0.00866049
     atom    7 type  2   force =    -0.00014519   -0.00009777    0.00231744
     atom    8 type  2   force =    -0.00014171   -0.00010260    0.00231656
     atom    9 type  1   force =     0.00024023    0.00016789   -0.00028684
     atom   10 type  1   force =     0.00024115    0.00016828   -0.00028765
     atom   11 type  2   force =     0.00025318    0.00016684   -0.00039689
     atom   12 type  2   force =     0.00024359    0.00018072   -0.00039803

     Total force =     0.019482     Total SCF correction =     0.002279
     SCF correction compared to forces is large: reduce conv_thr to get better values

     entering subroutine stress ...

     negative rho (up, down):  1.579E-03 1.474E-03
          total   stress  (Ry/bohr**3)                   (kbar)     P=  -13.23
  -0.00009243   0.00002178   0.00000216        -13.60      3.20      0.32
   0.00002178  -0.00010832   0.00000151          3.20    -15.93      0.22
   0.00000216   0.00000151  -0.00006906          0.32      0.22    -10.16

 !ASE

     Writing output data file calc.save

     General routines

     Parallel routines

   This run was terminated on:  17:39:58  18Dec2018

   JOB DONE.
Job  /afs/slac/g/suncat/bin/suncat-tsmpirun -x LD_LIBRARY_PATH -wdir /scratch/qe530201_GGChg pw.x -in pw.inp

TID   HOST_NAME   COMMAND_LINE            STATUS            TERMINATION_TIME
00000 suncat2034 pw.x -in pw.inp   Done                     12/18/2018 17:39:58
00001 suncat2034 pw.x -in pw.inp   Done                     12/18/2018 17:39:58
00002 suncat2034 pw.x -in pw.inp   Done                     12/18/2018 17:39:58
00003 suncat2034 pw.x -in pw.inp   Done                     12/18/2018 17:39:58
00004 suncat2034 pw.x -in pw.inp   Done                     12/18/2018 17:39:58
00005 suncat2034 pw.x -in pw.inp   Done                     12/18/2018 17:39:58
00006 suncat2034 pw.x -in pw.inp   Done                     12/18/2018 17:39:58
00007 suncat2034 pw.x -in pw.inp   Done                     12/18/2018 17:39:58
00008 suncat2034 pw.x -in pw.inp   Done                     12/18/2018 17:39:58
00009 suncat2034 pw.x -in pw.inp   Done                     12/18/2018 17:39:58
00010 suncat2034 pw.x -in pw.inp   Done                     12/18/2018 17:39:58
00011 suncat2034 pw.x -in pw.inp   Done                     12/18/2018 17:39:58
00012 suncat2034 pw.x -in pw.inp   Done                     12/18/2018 17:39:58
00013 suncat2034 pw.x -in pw.inp   Done                     12/18/2018 17:39:58
00014 suncat2034 pw.x -in pw.inp   Done                     12/18/2018 17:39:58
00015 suncat2034 pw.x -in pw.inp   Done                     12/18/2018 17:39:58
00016 suncat2033 pw.x -in pw.inp   Done                     12/18/2018 17:39:58
00017 suncat2033 pw.x -in pw.inp   Done                     12/18/2018 17:39:58
00018 suncat2033 pw.x -in pw.inp   Done                     12/18/2018 17:39:58
00019 suncat2033 pw.x -in pw.inp   Done                     12/18/2018 17:39:58
00020 suncat2033 pw.x -in pw.inp   Done                     12/18/2018 17:39:58
00021 suncat2033 pw.x -in pw.inp   Done                     12/18/2018 17:39:58
00022 suncat2033 pw.x -in pw.inp   Done                     12/18/2018 17:39:58
00023 suncat2033 pw.x -in pw.inp   Done                     12/18/2018 17:39:58
00024 suncat2033 pw.x -in pw.inp   Done                     12/18/2018 17:39:58
00025 suncat2033 pw.x -in pw.inp   Done                     12/18/2018 17:39:58
00026 suncat2033 pw.x -in pw.inp   Done                     12/18/2018 17:39:58
00027 suncat2033 pw.x -in pw.inp   Done                     12/18/2018 17:39:58
00028 suncat2033 pw.x -in pw.inp   Done                     12/18/2018 17:39:58
00029 suncat2033 pw.x -in pw.inp   Done                     12/18/2018 17:39:58
00030 suncat2033 pw.x -in pw.inp   Done                     12/18/2018 17:39:58
00031 suncat2033 pw.x -in pw.inp   Done                     12/18/2018 17:39:58