     Program PWSCF v.5.1rc2 (svn rev. 11289) starts on 19Dec2018 at  7:50: 7

     Current dimensions of program PWSCF are:
     Max number of different atomic species (ntypx) = 10
     Max number of k-points (npk) =  40000
     Max angular momentum in pseudopotentials (lmaxx) =  3
     Presently stress not available with electric field

     IMPORTANT: XC functional enforced from input :
     Exchange-correlation      = BEEF-VDW ( 1  4 27 13 2)
     Any further DFT definition will be discarded
     Please, verify this is what you really want

     Subspace diagonalization in iterative solution of the eigenvalue problem:
     a serial algorithm will be used

     Found symmetry operation: I + (  0.5000 -0.5000  0.0000)
     This is a supercell, fractional translations are disabled

     bravais-lattice index     =            0
     lattice parameter (alat)  =       1.8897  a.u.
     unit-cell volume          =    4474.0688 (a.u.)^3
     number of atoms/cell      =           12
     number of atomic types    =            2
     number of electrons       =       168.00
     number of Kohn-Sham states=          114
     kinetic-energy cutoff     =      36.7493  Ry
     charge density cutoff     =     367.4932  Ry
     convergence threshold     =      1.0E-06
     mixing beta               =       0.1000
     number of iterations used =           10  plain     mixing
     Exchange-correlation      = BEEF-VDW ( 1  4 27 13 2)
     nstep                     =           50

     celldm(1)=   1.889726  celldm(2)=   0.000000  celldm(3)=   0.000000
     celldm(4)=   0.000000  celldm(5)=   0.000000  celldm(6)=   0.000000

     crystal axes: (cart. coord. in units of alat)
               a(1) = (   5.369221   0.000000   0.000000 )
               a(2) = (   1.783452   5.064369   0.000000 )
               a(3) = (   0.000000   0.000000  24.382009 )

     reciprocal axes: (cart. coord. in units 2 pi/alat)
               b(1) = (  0.186247 -0.065588  0.000000 )
               b(2) = (  0.000000  0.197458  0.000000 )
               b(3) = (  0.000000  0.000000  0.041014 )

     PseudoPot. # 1 for Ti read from file:
     /afs/slac.stanford.edu/u/if/mamunm/psp/gbrv1.5pbe/Ti.UPF
     MD5 check sum: 88a00a6731bd790ddea75d31a80cb452
     Pseudo is Ultrasoft + core correction, Zval = 12.0
     Generated by new atomic code, or converted to UPF format
     Using radial grid of  851 points,  6 beta functions with:
                l(1) =   0
                l(2) =   0
                l(3) =   1
                l(4) =   1
                l(5) =   2
                l(6) =   2
     Q(r) pseudized with  6 coefficients,  rinner =    1.000   1.000   1.000
                                                       1.000   1.000

     PseudoPot. # 2 for Os read from file:
     /afs/slac.stanford.edu/u/if/mamunm/psp/gbrv1.5pbe/Os.UPF
     MD5 check sum: a3fb40a04f0c37c25c34bbc47164c9a8
     Pseudo is Ultrasoft + core correction, Zval = 16.0
     Generated by new atomic code, or converted to UPF format
     Using radial grid of  983 points,  8 beta functions with:
                l(1) =   0
                l(2) =   0
                l(3) =   1
                l(4) =   1
                l(5) =   2
                l(6) =   2
                l(7) =   3
                l(8) =   3
     Q(r) pseudized with  8 coefficients,  rinner =    1.150   1.150   1.150
                                                       1.150   1.150   1.150
                                                       1.150

     vdW kernel table read from file vdW_kernel_table
     MD5 check sum: 095c7af220d748ca6e76c0b4c6cfb241

     atomic species   valence    mass     pseudopotential
        Ti1           12.00    47.86700     Ti( 1.00)
        Os1           16.00   190.23000     Os( 1.00)

     No symmetry found

   Cartesian axes

     site n.     atom                  positions (alat units)
         1           Ti1 tau(   1) = (   0.0000000   0.0000000  10.0000000  )
         2           Ti1 tau(   2) = (   3.5763364   2.5321843  10.0000000  )
         3           Os1 tau(   3) = (   2.6846104   0.0000000  10.0000000  )
         4           Os1 tau(   4) = (   0.8917261   2.5321843  10.0000000  )
         5           Ti1 tau(   5) = (   5.3692207   3.8016156  12.1910047  )
         6           Ti1 tau(   6) = (   1.7928843   1.2694313  12.1910047  )
         7           Os1 tau(   7) = (   2.6846104   3.8016156  12.1910047  )
         8           Os1 tau(   8) = (   4.4774946   1.2694313  12.1910047  )
         9           Ti1 tau(   9) = (   3.5857685   2.5388626  14.3820094  )
        10           Ti1 tau(  10) = (   0.0094321   0.0066783  14.3820094  )
        11           Os1 tau(  11) = (   0.9011582   2.5388626  14.3820094  )
        12           Os1 tau(  12) = (   2.6940424   0.0066783  14.3820094  )

     number of k points=    20  Fermi-Dirac smearing, width (Ry)=  0.0110
                       cart. coord. in units 2pi/alat
        k(    1) = (   0.0000000   0.0000000   0.0000000), wk =   0.0555556
        k(    2) = (   0.0000000   0.0329097   0.0000000), wk =   0.1111111
        k(    3) = (   0.0000000   0.0658193   0.0000000), wk =   0.1111111
        k(    4) = (   0.0000000  -0.0987290   0.0000000), wk =   0.0555556
        k(    5) = (   0.0310411  -0.0109313   0.0000000), wk =   0.1111111
        k(    6) = (   0.0310411   0.0219783   0.0000000), wk =   0.1111111
        k(    7) = (   0.0310411   0.0548880   0.0000000), wk =   0.1111111
        k(    8) = (   0.0310411  -0.1096603   0.0000000), wk =   0.1111111
        k(    9) = (   0.0310411  -0.0767507   0.0000000), wk =   0.1111111
        k(   10) = (   0.0310411  -0.0438410   0.0000000), wk =   0.1111111
        k(   11) = (   0.0620823  -0.0218627   0.0000000), wk =   0.1111111
        k(   12) = (   0.0620823   0.0110470   0.0000000), wk =   0.1111111
        k(   13) = (   0.0620823   0.0439566   0.0000000), wk =   0.1111111
        k(   14) = (   0.0620823  -0.1205917   0.0000000), wk =   0.1111111
        k(   15) = (   0.0620823  -0.0876820   0.0000000), wk =   0.1111111
        k(   16) = (   0.0620823  -0.0547724   0.0000000), wk =   0.1111111
        k(   17) = (  -0.0931234   0.0327940   0.0000000), wk =   0.0555556
        k(   18) = (  -0.0931234   0.0657037   0.0000000), wk =   0.1111111
        k(   19) = (  -0.0931234   0.0986134   0.0000000), wk =   0.1111111
        k(   20) = (  -0.0931234  -0.0659350   0.0000000), wk =   0.0555556

     Largest allocated arrays     est. size (Mb)     dimensions
     Largest temporary arrays     est. size (Mb)     dimensions

     Check: negative/imaginary core charge=   -0.000004    0.000000

     Initial potential from superposition of free atoms
     Check: negative starting charge=   -0.764982

     starting charge  158.99952, renormalised to  168.00000

     negative rho (up, down):  8.083E-01 0.000E+00

     *
     * You are using vdW-DF for exchange-correlation in this calculation.
     * Please cite the following three references that made this development
     * possible:
     *
     *   M. Dion, H. Rydberg, E. Schroder, D. C. Langreth, and
     *   B. I. Lundqvist, Phys. Rev. Lett. 92, 246401 (2004).
     *
     *   T. Thonhauser, V. R. Cooper, S. Li, A. Puzder, P. Hyldgaard, and
     *   D. C. Langreth, Phys. Rev. B 76, 125112 (2007).
     *
     *   G. Roman-Perez and J. M. Soler, Phys. Rev. Lett. 103, 096102 (2009).
     *
     *
     * If you are using vdW-DF2, please also cite:
     *
     *   K. Lee, E. D. Murray, L. Kong, B. I. Lundqvist, and
     *   D. C. Langreth, Phys. Rev. B 82, 081101(R) (2010).
     *
     *
     * If you are calculating the stress with vdW-DF, please also cite:
     *
     *   R. Sabatini, E. Kucukbenli, B. Kolb, T. Thonhauser, and
     *   S. de Gironcoli, J. Phys.: Condens. Matter 24, 424209 (2012).
     *

     Carrying out vdW-DF run using the following parameters:

     Nqs =      20    Nr_points =    1024   r_max =   100.000
     q_mesh =
               0.00001000     0.04494208     0.09755937     0.15916263
               0.23128650     0.31572767     0.41458969     0.53033537
               0.66584808     0.82450364     1.01025438     1.22772762
               1.48234092     1.78043706     2.12944203     2.53805004
               3.01644009     3.57652955     4.23227104     5.00000000

     Gradients computed in reciprocal space

     Adding external electric field

     Computed dipole along edir(3) :
        Dipole                0.0000 Ry au,          0.0000 Debye
        Dipole field          0.0000 Ry au

        Potential amp.       -0.0000 Ry
        Total length         44.9234 bohr

     Starting wfc are  138 randomized atomic wfcs

     Self-consistent Calculation

     iteration #  1     ecut=    36.75 Ry     beta=0.10
     Davidson diagonalization with overlap
     ethr =  1.00E-02,  avg # of iterations =  2.0

[...]

     total energy              =   -1918.17871368 Ry
     Harris-Foulkes estimate   =   -1920.84983820 Ry
     estimated scf accuracy    <      15.61348557 Ry

[...]

     End of self-consistent calculation

          k = 0.0000 0.0000 0.0000 ( 16849 PWs)   bands (ev):

   -84.5978 -84.5930 -84.0724 -84.0720 -84.0677 -84.0673 -55.5026 -55.5017
   -55.4833 -55.4828 -55.4062 -55.3891 -43.9912 -43.9088 -43.8969 -43.8864
   -43.8773 -43.8521 -43.4442 -43.4406 -43.3865 -43.3823 -43.3731 -43.3665
   -43.3649 -43.3638 -43.3537 -43.3504 -43.3061 -43.3057 -31.8344 -31.8320
   -31.8277 -31.8148 -31.7349 -31.7251 -31.7100 -31.6988 -31.6627 -31.6296
   -31.6189 -31.6168 -31.5810 -31.5689 -31.5567 -31.5560 -31.5283 -31.5217
    -5.6866  -3.8432  -3.3370  -2.9618  -2.8611  -2.8298  -2.7259  -2.6781
    -2.5867  -2.5384  -1.8729  -1.7950  -1.5887  -1.1727  -1.0624  -0.9490
    -0.9185  -0.8132  -0.8027  -0.7114  -0.5388  -0.5084  -0.1083  -0.0339
     0.2163   0.3826   0.5063   1.1495   1.1737   1.2273   1.3369   1.4293
     1.6602   2.2265   2.2676   2.5579   2.8466   2.9348   2.9566   3.2481
     3.2751   3.3652   3.3922   3.4090   3.4251   3.4955   3.6713   3.6815
     3.6827   3.7148   3.7249   3.8307   3.8368   3.8922   4.0499   4.1379
     4.2497   4.2954   4.3359   4.6348   4.7117   4.7282   5.0381   5.0799
     5.2207   5.3802

[...]

          k =-0.0931 0.0328 0.0000 ( 16878 PWs)   bands (ev):

[...]

     the Fermi energy is     1.7535 ev

!    total energy              =   -1918.39570034 Ry
     Harris-Foulkes estimate   =   -1918.39569611 Ry
     estimated scf accuracy    <       0.00000044 Ry

     The total energy is the sum of the following terms:

     one-electron contribution =  -15745.38373346 Ry
     hartree contribution      =    7855.69351150 Ry
     xc contribution           =    -344.65957949 Ry
     ewald contribution        =    6316.01456560 Ry
     electric field correction =       0.00000001 Ry
     smearing contrib. (-TS)   =      -0.06046451 Ry

     convergence has been achieved in  16 iterations

 BEEF-vdW xc energy contributions
           1 :   -300.185798425500
           2 :    274.951081209784
           3 :   -231.563452387605
           4 :    181.026087449198
           5 :   -133.951107628383
           6 :    97.1920204139987
[...]
00031 suncat2039 pw.x -in pw.inp   Done                     12/19/2018 07:54:58

     Program PWSCF v.5.1rc2 (svn rev. 11289) starts on 19Dec2018 at  7:55: 4

[...]

   This run was terminated on:   8: 0:24  19Dec2018

[...]

     Program PWSCF v.5.1rc2 (svn rev. 11289) starts on 19Dec2018 at  8: 0:30

     Current dimensions of program PWSCF are:
     Max number of different atomic species (ntypx) = 10
     Max number of k-points (npk) =  40000
     Max angular momentum in pseudopotentials (lmaxx) =  3
     Presently stress not available with electric field

     IMPORTANT: XC functional enforced from input :
     Exchange-correlation      = BEEF-VDW ( 1  4 27 13 2)
     Any further DFT definition will be discarded
     Please, verify this is what you really want

     Subspace diagonalization in iterative solution of the eigenvalue problem:
     a serial algorithm will be used

     Found symmetry operation: I + (  0.5000 -0.5000  0.0000)
     This is a supercell, fractional translations are disabled

     bravais-lattice index     =            0
     lattice parameter (alat)  =       1.8897  a.u.
     unit-cell volume          =    4474.0688 (a.u.)^3
     number of atoms/cell      =           12
     number of atomic types    =            2
     number of electrons       =       168.00
     number of Kohn-Sham states=          114
     kinetic-energy cutoff     =      36.7493  Ry
     charge density cutoff     =     367.4932  Ry
     convergence threshold     =      1.0E-06
     mixing beta               =       0.1000
     number of iterations used =           10  plain     mixing
     Exchange-correlation      = BEEF-VDW ( 1  4 27 13 2)
     nstep                     =           50

     celldm(1)=   1.889726  celldm(2)=   0.000000  celldm(3)=   0.000000
     celldm(4)=   0.000000  celldm(5)=   0.000000  celldm(6)=   0.000000

     crystal axes: (cart. coord. in units of alat)
               a(1) = (   5.369221   0.000000   0.000000 )
               a(2) = (   1.783452   5.064369   0.000000 )
               a(3) = (   0.000000   0.000000  24.382009 )

     reciprocal axes: (cart. coord. in units 2 pi/alat)
               b(1) = (  0.186247 -0.065588  0.000000 )
               b(2) = (  0.000000  0.197458  0.000000 )
               b(3) = (  0.000000  0.000000  0.041014 )

     PseudoPot. # 1 for Ti read from file:
     /afs/slac.stanford.edu/u/if/mamunm/psp/gbrv1.5pbe/Ti.UPF
     MD5 check sum: 88a00a6731bd790ddea75d31a80cb452
     Pseudo is Ultrasoft + core correction, Zval = 12.0
     Generated by new atomic code, or converted to UPF format
     Using radial grid of  851 points,  6 beta functions with:
                l(1) =   0
                l(2) =   0
                l(3) =   1
                l(4) =   1
                l(5) =   2
                l(6) =   2
     Q(r) pseudized with  6 coefficients,  rinner =    1.000   1.000   1.000
                                                       1.000   1.000

     PseudoPot. # 2 for Os read from file:
     /afs/slac.stanford.edu/u/if/mamunm/psp/gbrv1.5pbe/Os.UPF
     MD5 check sum: a3fb40a04f0c37c25c34bbc47164c9a8
     Pseudo is Ultrasoft + core correction, Zval = 16.0
     Generated by new atomic code, or converted to UPF format
     Using radial grid of  983 points,  8 beta functions with:
                l(1) =   0
                l(2) =   0
                l(3) =   1
                l(4) =   1
                l(5) =   2
                l(6) =   2
                l(7) =   3
                l(8) =   3
     Q(r) pseudized with  8 coefficients,  rinner =    1.150   1.150   1.150
                                                       1.150   1.150   1.150
                                                       1.150

     vdW kernel table read from file vdW_kernel_table
     MD5 check sum: 095c7af220d748ca6e76c0b4c6cfb241

     atomic species   valence    mass     pseudopotential
        Ti1           12.00    47.86700     Ti( 1.00)
        Os1           16.00   190.23000     Os( 1.00)

     No symmetry found

   Cartesian axes

     site n.     atom                  positions (alat units)
         1           Ti1 tau(   1) = (   0.0000000   0.0000000  10.0000000  )
         2           Ti1 tau(   2) = (   3.5763364   2.5321843  10.0000000  )
         3           Os1 tau(   3) = (   2.6846104   0.0000000  10.0000000  )
         4           Os1 tau(   4) = (   0.8917261   2.5321843  10.0000000  )
         5           Ti1 tau(   5) = (   5.3692207   3.8016156  12.1910047  )
         6           Ti1 tau(   6) = (   1.7928843   1.2694313  12.1910047  )
         7           Os1 tau(   7) = (   2.6846104   3.8016156  12.1910047  )
         8           Os1 tau(   8) = (   4.4774946   1.2694313  12.1910047  )
         9           Ti1 tau(   9) = (   3.5835888   2.5373175  14.4130438  )
        10           Ti1 tau(  10) = (   0.0072606   0.0051415  14.4130463  )
        11           Os1 tau(  11) = (   0.9000940   2.5381081  14.2492615  )
        12           Os1 tau(  12) = (   2.6929794   0.0059263  14.2492665  )

     number of k points=    20  Fermi-Dirac smearing, width (Ry)=  0.0110
                       cart. coord. in units 2pi/alat
        k(    1) = (   0.0000000   0.0000000   0.0000000), wk =   0.0555556
        k(    2) = (   0.0000000   0.0329097   0.0000000), wk =   0.1111111
        k(    3) = (   0.0000000   0.0658193   0.0000000), wk =   0.1111111
        k(    4) = (   0.0000000  -0.0987290   0.0000000), wk =   0.0555556
        k(    5) = (   0.0310411  -0.0109313   0.0000000), wk =   0.1111111
        k(    6) = (   0.0310411   0.0219783   0.0000000), wk =   0.1111111
        k(    7) = (   0.0310411   0.0548880   0.0000000), wk =   0.1111111
        k(    8) = (   0.0310411  -0.1096603   0.0000000), wk =   0.1111111
        k(    9) = (   0.0310411  -0.0767507   0.0000000), wk =   0.1111111
        k(   10) = (   0.0310411  -0.0438410   0.0000000), wk =   0.1111111
        k(   11) = (   0.0620823  -0.0218627   0.0000000), wk =   0.1111111
        k(   12) = (   0.0620823   0.0110470   0.0000000), wk =   0.1111111
        k(   13) = (   0.0620823   0.0439566   0.0000000), wk =   0.1111111
        k(   14) = (   0.0620823  -0.1205917   0.0000000), wk =   0.1111111
        k(   15) = (   0.0620823  -0.0876820   0.0000000), wk =   0.1111111
        k(   16) = (   0.0620823  -0.0547724   0.0000000), wk =   0.1111111
        k(   17) = (  -0.0931234   0.0327940   0.0000000), wk =   0.0555556
        k(   18) = (  -0.0931234   0.0657037   0.0000000), wk =   0.1111111
        k(   19) = (  -0.0931234   0.0986134   0.0000000), wk =   0.1111111
        k(   20) = (  -0.0931234  -0.0659350   0.0000000), wk =   0.0555556

     Largest allocated arrays     est. size (Mb)     dimensions
     Largest temporary arrays     est. size (Mb)     dimensions

     Check: negative/imaginary core charge=   -0.000004    0.000000

     Initial potential from superposition of free atoms
     Check: negative starting charge=   -0.762190

     starting charge  158.99952, renormalised to  168.00000

[...]

     *
     * You are using vdW-DF for exchange-correlation in this calculation.
     * Please cite the following three references that made this development
     * possible:
     *
     *   M. Dion, H. Rydberg, E. Schroder, D. C. Langreth, and
     *   B. I. Lundqvist, Phys. Rev. Lett. 92, 246401 (2004).
     *
     *   T. Thonhauser, V. R. Cooper, S. Li, A. Puzder, P. Hyldgaard, and
     *   D. C. Langreth, Phys. Rev. B 76, 125112 (2007).
     *
     *   G. Roman-Perez and J. M. Soler, Phys. Rev. Lett. 103, 096102 (2009).
     *
     *
     * If you are using vdW-DF2, please also cite:
     *
     *   K. Lee, E. D. Murray, L. Kong, B. I. Lundqvist, and
     *   D. C. Langreth, Phys. Rev. B 82, 081101(R) (2010).
     *
     *
     * If you are calculating the stress with vdW-DF, please also cite:
     *
     *   R. Sabatini, E. Kucukbenli, B. Kolb, T. Thonhauser, and
     *   S. de Gironcoli, J. Phys.: Condens. Matter 24, 424209 (2012).
     *

     Carrying out vdW-DF run using the following parameters:

     Nqs =      20    Nr_points =    1024   r_max =   100.000
     q_mesh =
               0.00001000     0.04494208     0.09755937     0.15916263
               0.23128650     0.31572767     0.41458969     0.53033537
               0.66584808     0.82450364     1.01025438     1.22772762
               1.48234092     1.78043706     2.12944203     2.53805004
               3.01644009     3.57652955     4.23227104     5.00000000

     Gradients computed in reciprocal space

[...]

     Starting wfc are  138 randomized atomic wfcs

     Self-consistent Calculation

[...]

     total energy              =   -1918.40870326 Ry
     Harris-Foulkes estimate   =   -1918.40870283 Ry
     estimated scf accuracy    <       0.00000154 Ry

     iteration # 19     ecut=    36.75 Ry     beta=0.10
     Davidson diagonalization with overlap
     ethr =  9.19E-10,  avg # of iterations =  2.3

[...]

     negative rho (up, down):  7.478E-01 0.000E+00

     Adding external electric field

     Computed dipole along edir(3) :
        Dipole                0.0558 Ry au,          0.1419 Debye
        Dipole field          0.0002 Ry au

        Potential amp.       -0.0141 Ry
        Total length         44.9234 bohr

     End of self-consistent calculation

[...]

          k = 0.0621-0.0548 0.0000 ( 16831 PWs)   bands (ev):

[...]

          k =-0.0931-0.0659 0.0000 ( 16856 PWs)   bands (ev):

   -84.4936 -84.4889 -83.9987 -83.9941 -83.9774 -83.9726 -55.4288 -55.4275
   -55.4103 -55.4086 -55.2105 -55.1890 -43.8693 -43.8038 -43.7948 -43.7836
   -43.7699 -43.7364 -43.3724 -43.3597 -43.3036 -43.2955 -43.2939 -43.2829
   -43.2824 -43.2753 -43.2653 -43.2581 -43.2395 -43.2299 -31.7869 -31.7591
   -31.7476 -31.7310 -31.6787 -31.6582 -31.6150 -31.5945 -31.5859 -31.5643
   -31.5354 -31.4878 -31.4710 -31.4687 -31.4366 -31.3745 -31.3721 -31.3434
    -3.8894  -3.3692  -2.9128  -2.8302  -1.8971  -1.8573  -1.6921  -1.6269
    -1.5846  -1.3738  -1.2362  -1.2230  -1.2204  -1.2085  -0.8217  -0.8003
    -0.3685  -0.2243  -0.1317  -0.0530   0.0207   0.0980   0.2163   0.2367
     0.3664   0.5684   0.6758   0.7103   0.8072   0.9607   1.1183   1.1534
     1.1954   1.2022   1.2786   1.4620   1.5268   1.6012   1.8394   1.9165
     2.0612   2.1663   2.5606   2.7342   2.8029   2.8741   2.9854   3.0212
     3.0718   3.1016   3.2730   3.2923   3.3313   3.5588   3.6368   3.6487
     3.6946   3.9485   4.0867   4.3136   4.4112   4.6383   4.7630   4.8136
     5.1823   5.2278

     the Fermi energy is     1.8105 ev

!    total energy              =   -1918.40870558 Ry
     Harris-Foulkes estimate   =   -1918.40870337 Ry
     estimated scf accuracy    <       0.00000042 Ry

     The total energy is the sum of the following terms:

     one-electron contribution =  -15882.11931600 Ry
     hartree contribution      =    7924.67683147 Ry
     xc contribution           =    -344.78559101 Ry
     ewald contribution        =    6383.87938721 Ry
     electric field correction =       0.00000875 Ry
     smearing contrib. (-TS)   =      -0.06002601 Ry

     convergence has been achieved in  19 iterations

 BEEF-vdW xc energy contributions
           1 :   -300.313746031369
           2 :    275.124881015917
           3 :   -231.798621612496
           4 :    181.290203609881
           5 :   -134.172790676694
           6 :    97.3005223549058
           7 :   -72.6432500734733
           8 :    58.1778980568137
           9 :   -49.9222704196198
          10 :    43.9927112120568
          11 :   -37.9025974589640
          12 :    30.8293487552179
          13 :   -23.1226087744712
          14 :    15.5864289574124
          15 :   -8.98163690062501
          16 :    3.84675872833810
          17 :  -0.485444244857320
          18 :   -1.05861436563083
          19 :    1.05644485397596
          20 :  -8.383442463269830E-002
          21 :   -1.13989569704978
          22 :    2.02828209845990
          23 :   -2.37818935029367
          24 :    2.43048977031646
          25 :   -2.68515196103448
          26 :    3.56789767451420
          27 :   -5.15317461469868
          28 :    7.10893513741308
          29 :   -8.88496846524635
          30 :    10.0118190606868
          31 :   -29.5132994732995
          32 :   -21.9654314880703

     Forces acting on atoms (Ry/au):

     negative rho (up, down):  7.478E-01 0.000E+00
     atom    1 type  1   force =     0.00055319    0.00039152   -0.00932133
     atom    2 type  1   force =     0.00055357    0.00039190   -0.00932096
     atom    3 type  2   force =     0.00009029    0.00006551    0.03627122
     atom    4 type  2   force =     0.00009041    0.00006284    0.03627177
     atom    5 type  1   force =    -0.00019740   -0.00013931   -0.01608522
     atom    6 type  1   force =    -0.00019632   -0.00013970   -0.01608572
     atom    7 type  2   force =     0.00002379    0.00001951   -0.00923112
     atom    8 type  2   force =     0.00002606    0.00001505   -0.00922978
     atom    9 type  1   force =    -0.00019954   -0.00014079   -0.00155539
     atom   10 type  1   force =    -0.00020116   -0.00014289   -0.00155544
     atom   11 type  2   force =    -0.00027168   -0.00018953   -0.00007878
     atom   12 type  2   force =    -0.00027123   -0.00019412   -0.00007926

     Total force =     0.059154     Total SCF correction =     0.001946

     entering subroutine stress ...

     negative rho (up, down):  7.478E-01 0.000E+00
          total   stress  (Ry/bohr**3)                   (kbar)     P=  -22.37
  -0.00019076   0.00002233  -0.00000212        -28.06      3.28     -0.31
   0.00002233  -0.00020649  -0.00000150          3.28    -30.38     -0.22
  -0.00000212  -0.00000150  -0.00005905         -0.31     -0.22     -8.69

 !ASE

     Writing output data file calc.save

     General routines

     Parallel routines

   This run was terminated on:   8: 6: 6  19Dec2018

   JOB DONE.
Job  /afs/slac/g/suncat/bin/suncat-tsmpirun -x LD_LIBRARY_PATH -wdir /scratch/qe530699_p6a0O pw.x -in pw.inp

TID   HOST_NAME   COMMAND_LINE            STATUS            TERMINATION_TIME
00000 suncat2040 pw.x -in pw.inp   Done                     12/19/2018 08:06:06
00001 suncat2040 pw.x -in pw.inp   Done                     12/19/2018 08:06:06
00002 suncat2040 pw.x -in pw.inp   Done                     12/19/2018 08:06:06
00003 suncat2040 pw.x -in pw.inp   Done                     12/19/2018 08:06:06
00004 suncat2040 pw.x -in pw.inp   Done                     12/19/2018 08:06:06
00005 suncat2040 pw.x -in pw.inp   Done                     12/19/2018 08:06:06
00006 suncat2040 pw.x -in pw.inp   Done                     12/19/2018 08:06:06
00007 suncat2040 pw.x -in pw.inp   Done                     12/19/2018 08:06:06
00008 suncat2040 pw.x -in pw.inp   Done                     12/19/2018 08:06:06
00009 suncat2040 pw.x -in pw.inp   Done                     12/19/2018 08:06:06
00010 suncat2040 pw.x -in pw.inp   Done                     12/19/2018 08:06:06
00011 suncat2040 pw.x -in pw.inp   Done                     12/19/2018 08:06:06
00012 suncat2040 pw.x -in pw.inp   Done                     12/19/2018 08:06:06
00013 suncat2040 pw.x -in pw.inp   Done                     12/19/2018 08:06:06
00014 suncat2040 pw.x -in pw.inp   Done                     12/19/2018 08:06:06
00015 suncat2040 pw.x -in pw.inp   Done                     12/19/2018 08:06:06
00016 suncat2039 pw.x -in pw.inp   Done                     12/19/2018 08:06:06
00017 suncat2039 pw.x -in pw.inp   Done                     12/19/2018 08:06:06
00018 suncat2039 pw.x -in pw.inp   Done                     12/19/2018 08:06:06
00019 suncat2039 pw.x -in pw.inp   Done                     12/19/2018 08:06:06
00020 suncat2039 pw.x -in pw.inp   Done                     12/19/2018 08:06:06
00021 suncat2039 pw.x -in pw.inp   Done                     12/19/2018 08:06:06
00022 suncat2039 pw.x -in pw.inp   Done                     12/19/2018 08:06:06
00023 suncat2039 pw.x -in pw.inp   Done                     12/19/2018 08:06:06
00024 suncat2039 pw.x -in pw.inp   Done                     12/19/2018 08:06:06
00025 suncat2039 pw.x -in pw.inp   Done                     12/19/2018 08:06:06
00026 suncat2039 pw.x -in pw.inp   Done                     12/19/2018 08:06:06
00027 suncat2039 pw.x -in pw.inp   Done                     12/19/2018 08:06:06
00028 suncat2039 pw.x -in pw.inp   Done                     12/19/2018 08:06:06
00029 suncat2039 pw.x -in pw.inp   Done                     12/19/2018 08:06:06
00030 suncat2039 pw.x -in pw.inp   Done                     12/19/2018 08:06:06
00031 suncat2039 pw.x -in pw.inp   Done                     12/19/2018 08:06:06