     Program PWSCF v.5.1rc2 (svn rev. 11289) starts on 25Dec2018 at  7:36:22

     Current dimensions of program PWSCF are:
     Max number of different atomic species (ntypx) = 10
     Max number of k-points (npk) =  40000
     Max angular momentum in pseudopotentials (lmaxx) =  3
     Presently stress not available with electric field

     IMPORTANT: XC functional enforced from input :
     Exchange-correlation      = BEEF-VDW ( 1  4 27 13 2)
     Any further DFT definition will be discarded
     Please, verify this is what you really want

     Subspace diagonalization in iterative solution of the eigenvalue problem:
     a serial algorithm will be used

     Found symmetry operation: I + ( -0.5000 -0.5000  0.0000)
     This is a supercell, fractional translations are disabled

     bravais-lattice index     =            0
     lattice parameter (alat)  =       1.8897  a.u.
     unit-cell volume          =    5292.7598 (a.u.)^3
     number of atoms/cell      =           12
     number of atomic types    =            2
     number of electrons       =       156.00
     number of Kohn-Sham states=          108
     kinetic-energy cutoff     =      36.7493  Ry
     charge density cutoff     =     367.4932  Ry
     convergence threshold     =      1.0E-06
     mixing beta               =       0.1000
     number of iterations used =           10  plain     mixing
     Exchange-correlation      = BEEF-VDW ( 1  4 27 13 2)
     nstep                     =           50

     celldm(1)=   1.889726  celldm(2)=   0.000000  celldm(3)=   0.000000
     celldm(4)=   0.000000  celldm(5)=   0.000000  celldm(6)=   0.000000

     crystal axes: (cart. coord. in units of alat)
               a(1) = (   5.798999   0.000000   0.000000 )
               a(2) = (   1.930956   5.468070   0.000000 )
               a(3) = (   0.000000   0.000000  24.734235 )

     reciprocal axes: (cart. coord. in units 2 pi/alat)
               b(1) = (  0.172444 -0.060896  0.000000 )
               b(2) = (  0.000000  0.182880  0.000000 )
               b(3) = (  0.000000  0.000000  0.040430 )

     PseudoPot. # 1 for Zr read from file:
     /afs/slac.stanford.edu/u/if/mamunm/psp/gbrv1.5pbe/Zr.UPF
     MD5 check sum: 5db81b1e868ab7776c4564c113de050b
     Pseudo is Ultrasoft + core correction, Zval = 12.0
     Generated by new atomic code, or converted to UPF format
     Using radial grid of  887 points,  6 beta functions with:
                l(1) =   0
                l(2) =   0
                l(3) =   1
                l(4) =   1
                l(5) =   2
                l(6) =   2
     Q(r) pseudized with  6 coefficients,  rinner =    1.200   1.200   1.200
                                                       1.200   1.200

     PseudoPot. # 2 for Mo read from file:
     /afs/slac.stanford.edu/u/if/mamunm/psp/gbrv1.5pbe/Mo.UPF
     MD5 check sum: 30c4dcd161f5d35cd49bb5239c51a633
     Pseudo is Ultrasoft + core correction, Zval = 14.0
     Generated by new atomic code, or converted to UPF format
     Using radial grid of  889 points,  6 beta functions with:
                l(1) =   0
                l(2) =   0
                l(3) =   1
                l(4) =   1
                l(5) =   2
                l(6) =   2
     Q(r) pseudized with  6 coefficients,  rinner =    1.000   1.000   1.000
                                                       1.000   1.000

     vdW kernel table read from file vdW_kernel_table
     MD5 check sum: 095c7af220d748ca6e76c0b4c6cfb241

     atomic species   valence    mass     pseudopotential
        Zr1           12.00    91.22400     Zr( 1.00)
        Mo1           14.00    95.95000     Mo( 1.00)

     No symmetry found

   Cartesian axes

     site n.     atom                  positions (alat units)
         1           Zr1 tau(   1) = (   0.0000000   0.0000000  10.0000000  )
         2           Zr1 tau(   2) = (   3.8649773   2.7340352  10.0000000  )
         3           Mo1 tau(   3) = (   2.8994993   0.0000000  10.0000000  )
         4           Mo1 tau(   4) = (   0.9654780   2.7340352  10.0000000  )
         5           Zr1 tau(   5) = (   5.7989986   4.1021369  12.3671176  )
         6           Zr1 tau(   6) = (   1.9340213   1.3681017  12.3671176  )
         7           Mo1 tau(   7) = (   2.8994993   4.1021369  12.3671176  )
         8           Mo1 tau(   8) = (   4.8335206   1.3681017  12.3671176  )
         9           Zr1 tau(   9) = (   3.8680426   2.7362035  14.7342353  )
        10           Zr1 tau(  10) = (   0.0030652   0.0021683  14.7342353  )
        11           Mo1 tau(  11) = (   0.9685433   2.7362035  14.7342353  )
        12           Mo1 tau(  12) = (   2.9025645   0.0021683  14.7342353  )

     number of k points=    20  Fermi-Dirac smearing, width (Ry)=  0.0110
                       cart. coord. in units 2pi/alat
        k(    1) = (   0.0000000   0.0000000   0.0000000), wk =   0.0555556
        k(    2) = (   0.0000000   0.0304800   0.0000000), wk =   0.1111111
        k(    3) = (   0.0000000   0.0609600   0.0000000), wk =   0.1111111
        k(    4) = (   0.0000000  -0.0914399   0.0000000), wk =   0.0555556
        k(    5) = (   0.0287406  -0.0101493   0.0000000), wk =   0.1111111
        k(    6) = (   0.0287406   0.0203307   0.0000000), wk =   0.1111111
        k(    7) = (   0.0287406   0.0508107   0.0000000), wk =   0.1111111
        k(    8) = (   0.0287406  -0.1015892   0.0000000), wk =   0.1111111
        k(    9) = (   0.0287406  -0.0711092   0.0000000), wk =   0.1111111
        k(   10) = (   0.0287406  -0.0406292   0.0000000), wk =   0.1111111
        k(   11) = (   0.0574812  -0.0202985   0.0000000), wk =   0.1111111
        k(   12) = (   0.0574812   0.0101815   0.0000000), wk =   0.1111111
        k(   13) = (   0.0574812   0.0406615   0.0000000), wk =   0.1111111
        k(   14) = (   0.0574812  -0.1117384   0.0000000), wk =   0.1111111
        k(   15) = (   0.0574812  -0.0812585   0.0000000), wk =   0.1111111
        k(   16) = (   0.0574812  -0.0507785   0.0000000), wk =   0.1111111
        k(   17) = (  -0.0862218   0.0304478   0.0000000), wk =   0.0555556
        k(   18) = (  -0.0862218   0.0609277   0.0000000), wk =   0.1111111
        k(   19) = (  -0.0862218   0.0914077   0.0000000), wk =   0.1111111
        k(   20) = (  -0.0862218  -0.0609922   0.0000000), wk =   0.0555556

     Largest allocated arrays     est. size (Mb)     dimensions
     Largest temporary arrays     est. size (Mb)     dimensions

     Initial potential from superposition of free atoms
     Check: negative starting charge=   -0.369197

     starting charge  155.98072, renormalised to  156.00000

     negative rho (up, down):  3.692E-01 0.000E+00

     *
     * You are using vdW-DF for exchange-correlation in this calculation.
     * Please cite the following three references that made this development
     * possible:
     *
     *   M. Dion, H. Rydberg, E. Schroder, D. C. Langreth, and
     *   B. I. Lundqvist, Phys. Rev. Lett. 92, 246401 (2004).
     *
     *   T. Thonhauser, V. R. Cooper, S. Li, A. Puzder, P. Hyldgaard, and
     *   D. C. Langreth, Phys. Rev. B 76, 125112 (2007).
     *
     *   G. Roman-Perez and J. M. Soler, Phys. Rev. Lett. 103, 096102 (2009).
     *
     *
     * If you are using vdW-DF2, please also cite:
     *
     *   K. Lee, E. D. Murray, L. Kong, B. I. Lundqvist, and
     *   D. C. Langreth, Phys. Rev. B 82, 081101(R) (2010).
     *
     *
     * If you are calculating the stress with vdW-DF, please also cite:
     *
     *   R. Sabatini, E. Kucukbenli, B. Kolb, T. Thonhauser, and
     *   S. de Gironcoli, J. Phys.: Condens. Matter 24, 424209 (2012).
     *

     Carrying out vdW-DF run using the following parameters:

     Nqs =      20    Nr_points =    1024   r_max =   100.000
     q_mesh =
               0.00001000     0.04494208     0.09755937     0.15916263
               0.23128650     0.31572767     0.41458969     0.53033537
               0.66584808     0.82450364     1.01025438     1.22772762
               1.48234092     1.78043706     2.12944203     2.53805004
               3.01644009     3.57652955     4.23227104     5.00000000

     Gradients computed in reciprocal space

     Adding external electric field

     Computed dipole along edir(3) :
        Dipole               -0.0000 Ry au,         -0.0000 Debye
        Dipole field         -0.0000 Ry au

        Potential amp.        0.0000 Ry
        Total length         45.5724 bohr

     Starting wfc are  156 randomized atomic wfcs

     Self-consistent Calculation

     iteration #  1     ecut=    36.75 Ry     beta=0.10
     Davidson diagonalization with overlap
     ethr =  1.00E-02,  avg # of iterations =  2.0

[...]

     total energy              =   -1437.66248566 Ry
     Harris-Foulkes estimate   =   -1439.04564565 Ry
     estimated scf accuracy    <       7.81636163 Ry

[...]

     End of self-consistent calculation

          k = 0.0000 0.0000 0.0000 ( 19983 PWs)   bands (ev):

   -58.8024 -58.7913 -58.7775 -58.7758 -58.7686 -58.7684 -47.0484 -47.0478
   -47.0220 -47.0216 -46.4886 -46.4625 -32.9444 -32.9389 -32.9095 -32.9093
   -32.9049 -32.8975 -32.8928 -32.8923 -32.8824 -32.8482 -32.8172 -32.8126
   -32.7956 -32.7889 -32.7673 -32.7624 -32.7585 -32.7384 -25.1586 -25.1409
   -25.1193 -25.1072 -25.0855 -25.0853 -24.9810 -24.9705 -24.9635 -24.9465
   -24.8470 -24.8419 -24.6247 -24.5029 -24.4708 -24.4664 -24.4517 -24.3118
    -3.3423  -2.1099  -1.6596  -1.3774  -1.3670  -1.3262  -1.2734  -1.2319
    -1.2096  -1.1400  -0.8351  -0.5329  -0.4758   0.2443   0.2592   0.3101
     0.3121   0.3152   0.3436   0.3445   0.4327   0.7638   0.8841   1.2037
     1.5607   1.5627   1.5810   1.8955   2.1402   2.3569   2.3825   2.3996
     2.6122   2.8388   3.0579   3.2879   3.7081   3.9157   3.9347   3.9564
     4.2432   4.2763   4.3002   4.3245   4.5114   4.5152   4.7275   4.7336
     4.7680   4.8358   4.8495   4.9175   5.0267   5.1276   5.1950   5.2275
     5.4433   5.4652   5.5779   5.5912

[...]

          k =-0.0862 0.0304 0.0000 ( 19936 PWs)   bands (ev):

[...]

     the Fermi energy is     1.7890 ev

!    total energy              =   -1438.15427692 Ry
     Harris-Foulkes estimate   =   -1438.15427664 Ry
     estimated scf accuracy    <       0.00000079 Ry

     The total energy is the sum of the following terms:

     one-electron contribution =  -11239.34865016 Ry
     hartree contribution      =    5613.28334053 Ry
     xc contribution           =    -230.55843381 Ry
     ewald contribution        =    4418.56531833 Ry
     electric field correction =       0.00000008 Ry
     smearing contrib. (-TS)   =      -0.09585190 Ry

     convergence has been achieved in  17 iterations

 BEEF-vdW xc energy contributions
           1 :   -197.829319321237
           2 :    179.954238850239
           3 :   -149.498563332053
           4 :    114.707015661936
           5 :   -83.5258905134859
           6 :    60.9162435886240
           7 :   -47.8180535820679
           8 :    41.8684034249368
           9 :   -39.2341351856513
          10 :    36.5468867031622
          11 :   -32.1367067337256
          12 :    26.2084121551692
          13 :   -20.1469061697280
[...]
     /afs/slac.stanford.edu/u/if/mamunm/psp/gbrv1.5pbe/Zr.UPF
     MD5 check sum: 5db81b1e868ab7776c4564c113de050b
     Pseudo is Ultrasoft + core correction, Zval = 12.0
     Generated by new atomic code, or converted to UPF format
     Using radial grid of  887 points,  6 beta functions with:
                l(1) =   0
                l(2) =   0
                l(3) =   1
                l(4) =   1
                l(5) =   2
                l(6) =   2
     Q(r) pseudized with  6 coefficients,  rinner =    1.200   1.200   1.200
                                                       1.200   1.200

     PseudoPot. # 2 for Mo read from file:
     /afs/slac.stanford.edu/u/if/mamunm/psp/gbrv1.5pbe/Mo.UPF
     MD5 check sum: 30c4dcd161f5d35cd49bb5239c51a633
     Pseudo is Ultrasoft + core correction, Zval = 14.0
     Generated by new atomic code, or converted to UPF format
     Using radial grid of  889 points,  6 beta functions with:
                l(1) =   0
                l(2) =   0
                l(3) =   1
                l(4) =   1
                l(5) =   2
                l(6) =   2
     Q(r) pseudized with  6 coefficients,  rinner =    1.000   1.000   1.000
                                                       1.000   1.000

     vdW kernel table read from file vdW_kernel_table
     MD5 check sum: 095c7af220d748ca6e76c0b4c6cfb241

     atomic species   valence    mass     pseudopotential
        Zr1           12.00    91.22400     Zr( 1.00)
        Mo1           14.00    95.95000     Mo( 1.00)

     No symmetry found

   Cartesian axes

     site n.     atom                  positions (alat units)
         1           Zr1 tau(   1) = (   0.0000000   0.0000000  10.0000000  )
         2           Zr1 tau(   2) = (   3.8649773   2.7340352  10.0000000  )
         3           Mo1 tau(   3) = (   2.8994993   0.0000000  10.0000000  )
         4           Mo1 tau(   4) = (   0.9654780   2.7340352  10.0000000  )
         5           Zr1 tau(   5) = (   5.7989986   4.1021369  12.3671176  )
         6           Zr1 tau(   6) = (   1.9340213   1.3681017  12.3671176  )
         7           Mo1 tau(   7) = (   2.8994993   4.1021369  12.3671176  )
         8           Mo1 tau(   8) = (   4.8335206   1.3681017  12.3671176  )
         9           Zr1 tau(   9) = (   3.8670909   2.7355395  14.7134750  )
        10           Zr1 tau(  10) = (   0.0021037   0.0014839  14.7134752  )
        11           Mo1 tau(  11) = (   0.9681892   2.7359512  14.6343841  )
        12           Mo1 tau(  12) = (   2.9022062   0.0019197  14.6343886  )

     number of k points=    20  Fermi-Dirac smearing, width (Ry)=  0.0110
                       cart. coord. in units 2pi/alat
        k(    1) = (   0.0000000   0.0000000   0.0000000), wk =   0.0555556
        k(    2) = (   0.0000000   0.0304800   0.0000000), wk =   0.1111111
        k(    3) = (   0.0000000   0.0609600   0.0000000), wk =   0.1111111
        k(    4) = (   0.0000000  -0.0914399   0.0000000), wk =   0.0555556
        k(    5) = (   0.0287406  -0.0101493   0.0000000), wk =   0.1111111
        k(    6) = (   0.0287406   0.0203307   0.0000000), wk =   0.1111111
        k(    7) = (   0.0287406   0.0508107   0.0000000), wk =   0.1111111
        k(    8) = (   0.0287406  -0.1015892   0.0000000), wk =   0.1111111
        k(    9) = (   0.0287406  -0.0711092   0.0000000), wk =   0.1111111
        k(   10) = (   0.0287406  -0.0406292   0.0000000), wk =   0.1111111
        k(   11) = (   0.0574812  -0.0202985   0.0000000), wk =   0.1111111
        k(   12) = (   0.0574812   0.0101815   0.0000000), wk =   0.1111111
        k(   13) = (   0.0574812   0.0406615   0.0000000), wk =   0.1111111
        k(   14) = (   0.0574812  -0.1117384   0.0000000), wk =   0.1111111
        k(   15) = (   0.0574812  -0.0812585   0.0000000), wk =   0.1111111
        k(   16) = (   0.0574812  -0.0507785   0.0000000), wk =   0.1111111
        k(   17) = (  -0.0862218   0.0304478   0.0000000), wk =   0.0555556
        k(   18) = (  -0.0862218   0.0609277   0.0000000), wk =   0.1111111
        k(   19) = (  -0.0862218   0.0914077   0.0000000), wk =   0.1111111
        k(   20) = (  -0.0862218  -0.0609922   0.0000000), wk =   0.0555556

     Largest allocated arrays     est. size (Mb)     dimensions
     Largest temporary arrays     est. size (Mb)     dimensions

     Initial potential from superposition of free atoms
     Check: negative starting charge=   -0.368246

     starting charge  155.98072, renormalised to  156.00000

[...]

     *
     * You are using vdW-DF for exchange-correlation in this calculation.
     * Please cite the following three references that made this development
     * possible:
     *
     *   M. Dion, H. Rydberg, E. Schroder, D. C. Langreth, and
     *   B. I. Lundqvist, Phys. Rev. Lett. 92, 246401 (2004).
     *
     *   T. Thonhauser, V. R. Cooper, S. Li, A. Puzder, P. Hyldgaard, and
     *   D. C. Langreth, Phys. Rev. B 76, 125112 (2007).
     *
     *   G. Roman-Perez and J. M. Soler, Phys. Rev. Lett. 103, 096102 (2009).
     *
     *
     * If you are using vdW-DF2, please also cite:
     *
     *   K. Lee, E. D. Murray, L. Kong, B. I. Lundqvist, and
     *   D. C. Langreth, Phys. Rev. B 82, 081101(R) (2010).
     *
     *
     * If you are calculating the stress with vdW-DF, please also cite:
     *
     *   R. Sabatini, E. Kucukbenli, B. Kolb, T. Thonhauser, and
     *   S. de Gironcoli, J. Phys.: Condens. Matter 24, 424209 (2012).
     *

     Carrying out vdW-DF run using the following parameters:

     Nqs =      20    Nr_points =    1024   r_max =   100.000
     q_mesh =
               0.00001000     0.04494208     0.09755937     0.15916263
               0.23128650     0.31572767     0.41458969     0.53033537
               0.66584808     0.82450364     1.01025438     1.22772762
               1.48234092     1.78043706     2.12944203     2.53805004
               3.01644009     3.57652955     4.23227104     5.00000000

     Gradients computed in reciprocal space

[...]

     Starting wfc are  156 randomized atomic wfcs

     Self-consistent Calculation

[...]

     total energy              =   -1438.15784541 Ry
     Harris-Foulkes estimate   =   -1438.15784564 Ry
     estimated scf accuracy    <       0.00001496 Ry

     iteration # 17     ecut=    36.75 Ry     beta=0.10
     Davidson diagonalization with overlap
     ethr =  9.59E-09,  avg # of iterations =  1.2

[...]

     negative rho (up, down):  3.798E-01 0.000E+00

     Adding external electric field

     Computed dipole along edir(3) :
        Dipole                0.0235 Ry au,          0.0596 Debye
        Dipole field          0.0001 Ry au

        Potential amp.       -0.0051 Ry
        Total length         45.5724 bohr

     End of self-consistent calculation

[...]

          k = 0.0575-0.0508 0.0000 ( 19926 PWs)   bands (ev):

[...]

          k =-0.0862-0.0610 0.0000 ( 19834 PWs)   bands (ev):

   -58.8053 -58.7974 -58.7695 -58.7602 -58.7437 -58.7341 -47.0450 -47.0406
   -47.0177 -47.0133 -46.4173 -46.3880 -32.9246 -32.9216 -32.9177 -32.8859
   -32.8852 -32.8849 -32.8783 -32.8728 -32.8616 -32.8220 -32.8143 -32.7786
   -32.7714 -32.7537 -32.7483 -32.7477 -32.7464 -32.7329 -25.1893 -25.1687
   -25.1456 -25.1006 -25.0887 -25.0627 -25.0469 -25.0120 -25.0011 -24.9760
   -24.8499 -24.8437 -24.5948 -24.4526 -24.4270 -24.4213 -24.4147 -24.2583
    -1.5539  -1.4665  -0.6614  -0.5742  -0.5472  -0.4770  -0.4422  -0.4265
    -0.0836   0.0980   0.1923   0.1959   0.3626   0.4583   0.5229   0.5485
     0.5734   0.6069   0.8019   1.0963   1.1068   1.1289   1.2798   1.3390
     1.4235   1.4732   1.5656   1.6261   1.7182   1.7246   1.7738   1.8246
     1.8959   2.0151   2.0154   2.0204   2.1185   2.2420   2.5416   2.6060
     2.8464   2.8834   3.2546   3.3898   3.4407   3.6280   3.9660   4.0137
     4.0613   4.0809   4.2141   4.3598   4.3673   4.4168   4.4442   4.7024
     5.0714   5.0820   5.1243   5.3090

     the Fermi energy is     1.8049 ev

!    total energy              =   -1438.15784679 Ry
     Harris-Foulkes estimate   =   -1438.15784588 Ry
     estimated scf accuracy    <       0.00000100 Ry

     The total energy is the sum of the following terms:

     one-electron contribution =  -11340.51934712 Ry
     hartree contribution      =    5663.96660858 Ry
     xc contribution           =    -230.65945286 Ry
     ewald contribution        =    4469.15097387 Ry
     electric field correction =       0.00000131 Ry
     smearing contrib. (-TS)   =      -0.09663056 Ry

     convergence has been achieved in  17 iterations

 BEEF-vdW xc energy contributions
           1 :   -197.932821535569
           2 :    180.097794553390
           3 :   -149.691179262349
           4 :    114.916152999417
           5 :   -83.6927179816324
           6 :    60.9909947984580
           7 :   -47.7929868788419
           8 :    41.7862399981500
           9 :   -39.1644729618123
          10 :    36.5456297055458
          11 :   -32.2139845311127
          12 :    26.3254489405017
          13 :   -20.2421598394610
          14 :    15.4792590677474
          15 :   -12.8362403991005
          16 :    12.0796521479862
          17 :   -12.2246736560413
          18 :    12.1476845809283
          19 :   -11.1595615981656
          20 :    9.25316003983252
          21 :   -6.96725898145286
          22 :    5.00300341862356
          23 :   -3.82878502264188
          24 :    3.46576812638290
          25 :   -3.53515538453701
          26 :    3.50188426896898
          27 :   -2.96469620176629
          28 :    1.83396081493677
          29 :  -0.323518548081751
          30 :   -1.20932759585881
          31 :   -22.6895332717148
          32 :   -17.1586290483349

     Forces acting on atoms (Ry/au):

     negative rho (up, down):  3.798E-01 0.000E+00
     atom    1 type  1   force =     0.00014981    0.00010710   -0.00050395
     atom    2 type  1   force =     0.00014560    0.00010224   -0.00050475
     atom    3 type  2   force =     0.00003279    0.00002299    0.01812738
     atom    4 type  2   force =     0.00003256    0.00002295    0.01813164
     atom    5 type  1   force =    -0.00006517   -0.00003428   -0.01459911
     atom    6 type  1   force =    -0.00005445   -0.00005079   -0.01460618
     atom    7 type  2   force =    -0.00003654   -0.00002618   -0.00147790
     atom    8 type  2   force =    -0.00003006   -0.00002111   -0.00147753
     atom    9 type  1   force =    -0.00002736   -0.00002062   -0.00167568
     atom   10 type  1   force =    -0.00003345   -0.00002198   -0.00167671
     atom   11 type  2   force =    -0.00005639   -0.00004100    0.00013094
     atom   12 type  2   force =    -0.00005736   -0.00003930    0.00013185

     Total force =     0.033083     Total SCF correction =     0.003942
     SCF correction compared to forces is large: reduce conv_thr to get better values

     entering subroutine stress ...

     negative rho (up, down):  3.798E-01 0.000E+00
          total   stress  (Ry/bohr**3)                   (kbar)     P=  -18.87
  -0.00018408  -0.00002791  -0.00000045        -27.08     -4.11     -0.07
  -0.00002791  -0.00016437  -0.00000032         -4.11    -24.18     -0.05
  -0.00000045  -0.00000032  -0.00003639         -0.07     -0.05     -5.35

 !ASE

     Writing output data file calc.save

     General routines

     Parallel routines

   This run was terminated on:   8:50:34  25Dec2018

   JOB DONE.
Job  /afs/slac/g/suncat/bin/suncat-tsmpirun -x LD_LIBRARY_PATH -wdir /scratch/qe109278_1hOd6 pw.x -in pw.inp

TID   HOST_NAME   COMMAND_LINE            STATUS            TERMINATION_TIME
00000 suncat0050 pw.x -in pw.inp   Done                     12/25/2018 08:50:34
00001 suncat0050 pw.x -in pw.inp   Done                     12/25/2018 08:50:34
00002 suncat0050 pw.x -in pw.inp   Done                     12/25/2018 08:50:34
00003 suncat0050 pw.x -in pw.inp   Done                     12/25/2018 08:50:34
00004 suncat0050 pw.x -in pw.inp   Done                     12/25/2018 08:50:34
00005 suncat0050 pw.x -in pw.inp   Done                     12/25/2018 08:50:34
00006 suncat0050 pw.x -in pw.inp   Done                     12/25/2018 08:50:34
00007 suncat0050 pw.x -in pw.inp   Done                     12/25/2018 08:50:34
00008 suncat0049 pw.x -in pw.inp   Done                     12/25/2018 08:50:34
00009 suncat0049 pw.x -in pw.inp   Done                     12/25/2018 08:50:34
00010 suncat0049 pw.x -in pw.inp   Done                     12/25/2018 08:50:34
00011 suncat0049 pw.x -in pw.inp   Done                     12/25/2018 08:50:34
00012 suncat0049 pw.x -in pw.inp   Done                     12/25/2018 08:50:34
00013 suncat0049 pw.x -in pw.inp   Done                     12/25/2018 08:50:34
00014 suncat0049 pw.x -in pw.inp   Done                     12/25/2018 08:50:34
00015 suncat0049 pw.x -in pw.inp   Done                     12/25/2018 08:50:34
00016 suncat0031 pw.x -in pw.inp   Done                     12/25/2018 08:50:34
00017 suncat0031 pw.x -in pw.inp   Done                     12/25/2018 08:50:34
00018 suncat0031 pw.x -in pw.inp   Done                     12/25/2018 08:50:34
00019 suncat0031 pw.x -in pw.inp   Done                     12/25/2018 08:50:34
00020 suncat0031 pw.x -in pw.inp   Done                     12/25/2018 08:50:34
00021 suncat0031 pw.x -in pw.inp   Done                     12/25/2018 08:50:34
00022 suncat0031 pw.x -in pw.inp   Done                     12/25/2018 08:50:34
00023 suncat0031 pw.x -in pw.inp   Done                     12/25/2018 08:50:34
00024 suncat0030 pw.x -in pw.inp   Done                     12/25/2018 08:50:34
00025 suncat0030 pw.x -in pw.inp   Done                     12/25/2018 08:50:34
00026 suncat0030 pw.x -in pw.inp   Done                     12/25/2018 08:50:34
00027 suncat0030 pw.x -in pw.inp   Done                     12/25/2018 08:50:34
00028 suncat0030 pw.x -in pw.inp   Done                     12/25/2018 08:50:34
00029 suncat0030 pw.x -in pw.inp   Done                     12/25/2018 08:50:34
00030 suncat0030 pw.x -in pw.inp   Done                     12/25/2018 08:50:34
00031 suncat0030 pw.x -in pw.inp   Done                     12/25/2018 08:50:34
00032 suncat0280 pw.x -in pw.inp   Done                     12/25/2018 08:50:34
00033 suncat0280 pw.x -in pw.inp   Done                     12/25/2018 08:50:34
00034 suncat0280 pw.x -in pw.inp   Done                     12/25/2018 08:50:34
00035 suncat0280 pw.x -in pw.inp   Done                     12/25/2018 08:50:34
00036 suncat0280 pw.x -in pw.inp   Done                     12/25/2018 08:50:34
00037 suncat0280 pw.x -in pw.inp   Done                     12/25/2018 08:50:34
00038 suncat0280 pw.x -in pw.inp   Done                     12/25/2018 08:50:34
00039 suncat0280 pw.x -in pw.inp   Done                     12/25/2018 08:50:34
00040 suncat0279 pw.x -in pw.inp   Done                     12/25/2018 08:50:34
00041 suncat0279 pw.x -in pw.inp   Done                     12/25/2018 08:50:34
00042 suncat0279 pw.x -in pw.inp   Done                     12/25/2018 08:50:34
00043 suncat0279 pw.x -in pw.inp   Done                     12/25/2018 08:50:34
00044 suncat0279 pw.x -in pw.inp   Done                     12/25/2018 08:50:34
00045 suncat0279 pw.x -in pw.inp   Done                     12/25/2018 08:50:34
00046 suncat0279 pw.x -in pw.inp   Done                     12/25/2018 08:50:34
00047 suncat0279 pw.x -in pw.inp   Done                     12/25/2018 08:50:34
00048 suncat0278 pw.x -in pw.inp   Done                     12/25/2018 08:50:34
00049 suncat0278 pw.x -in pw.inp   Done                     12/25/2018 08:50:34
00050 suncat0278 pw.x -in pw.inp   Done                     12/25/2018 08:50:34
00051 suncat0278 pw.x -in pw.inp   Done                     12/25/2018 08:50:34
00052 suncat0278 pw.x -in pw.inp   Done                     12/25/2018 08:50:34
00053 suncat0278 pw.x -in pw.inp   Done                     12/25/2018 08:50:34
00054 suncat0278 pw.x -in pw.inp   Done                     12/25/2018 08:50:34
00055 suncat0278 pw.x -in pw.inp   Done                     12/25/2018 08:50:34
00056 suncat0099 pw.x -in pw.inp   Done                     12/25/2018 08:50:34
00057 suncat0099 pw.x -in pw.inp   Done                     12/25/2018 08:50:34
00058 suncat0099 pw.x -in pw.inp   Done                     12/25/2018 08:50:34
00059 suncat0099 pw.x -in pw.inp   Done                     12/25/2018 08:50:34
00060 suncat0099 pw.x -in pw.inp   Done                     12/25/2018 08:50:34
00061 suncat0099 pw.x -in pw.inp   Done                     12/25/2018 08:50:34
00062 suncat0099 pw.x -in pw.inp   Done                     12/25/2018 08:50:34
00063 suncat0099 pw.x -in pw.inp   Done                     12/25/2018 08:50:34