     Program PWSCF v.5.1rc2 (svn rev. 11289) starts on 18Dec2018 at 16:51:56

     Current dimensions of program PWSCF are:
     Max number of different atomic species (ntypx) = 10
     Max number of k-points (npk) =  40000
     Max angular momentum in pseudopotentials (lmaxx) =  3
     Presently stress not available with electric field

     IMPORTANT: XC functional enforced from input :
     Exchange-correlation      = BEEF-VDW ( 1  4 27 13 2)
     Any further DFT definition will be discarded
     Please, verify this is what you really want

     Subspace diagonalization in iterative solution of the eigenvalue problem:
     a serial algorithm will be used

     Found symmetry operation: I + ( -0.5000 -0.5000  0.0000)
     This is a supercell, fractional translations are disabled

     Generating pointlists ...
     new r_m :   0.4125 (alat units)  0.7795 (a.u.) for type    1
     new r_m :   0.4125 (alat units)  0.7795 (a.u.) for type    2

     bravais-lattice index     =            0
     lattice parameter (alat)  =       1.8897  a.u.
     unit-cell volume          =    4970.1929 (a.u.)^3
     number of atoms/cell      =           12
     number of atomic types    =            2
     number of electrons       =       156.00
     number of Kohn-Sham states=          108
     kinetic-energy cutoff     =      36.7493  Ry
     charge density cutoff     =     367.4932  Ry
     convergence threshold     =      1.0E-06
     mixing beta               =       0.1000
     number of iterations used =           10  plain     mixing
     Exchange-correlation      = BEEF-VDW ( 1  4 27 13 2)
     nstep                     =           50

     celldm(1)=   1.889726  celldm(2)=   0.000000  celldm(3)=   0.000000
     celldm(4)=   0.000000  celldm(5)=   0.000000  celldm(6)=   0.000000

     crystal axes: (cart. coord. in units of alat)
               a(1) = (   5.640753   0.000000   0.000000 )
               a(2) = (   1.919904   5.303966   0.000000 )
               a(3) = (   0.000000   0.000000  24.617209 )

     reciprocal axes: (cart. coord. in units 2 pi/alat)
               b(1) = (  0.177281 -0.064171  0.000000 )
               b(2) = (  0.000000  0.188538  0.000000 )
               b(3) = (  0.000000  0.000000  0.040622 )

     PseudoPot. # 1 for Mn read from file:
     /afs/slac.stanford.edu/u/if/mamunm/psp/gbrv1.5pbe/Mn.UPF
     MD5 check sum: 82ef2b46521d7a7d9e736dc3972e4928
     Pseudo is Ultrasoft + core correction, Zval = 15.0
     Generated by new atomic code, or converted to UPF format
     Using radial grid of  859 points,  6 beta functions with:
                l(1) =   0
                l(2) =   0
                l(3) =   1
                l(4) =   1
                l(5) =   2
                l(6) =   2
     Q(r) pseudized with  8 coefficients,  rinner =    0.950   0.950   0.950
                                                       0.950   0.950

     PseudoPot. # 2 for Au read from file:
     /afs/slac.stanford.edu/u/if/mamunm/psp/gbrv1.5pbe/Au.UPF
     MD5 check sum: 9d7f43293ad2c663164586bc4b293ffc
     Pseudo is Ultrasoft + core correction, Zval = 11.0
     Generated by new atomic code, or converted to UPF format
     Using radial grid of  985 points,  7 beta functions with:
                l(1) =   0
                l(2) =   0
                l(3) =   1
                l(4) =   1
                l(5) =   2
                l(6) =   2
                l(7) =   3
     Q(r) pseudized with  6 coefficients,  rinner =    1.900   1.900   1.900
                                                       1.900   1.900   1.900
                                                       1.900

     vdW kernel table read from file vdW_kernel_table
     MD5 check sum: 095c7af220d748ca6e76c0b4c6cfb241

     atomic species   valence    mass     pseudopotential
        Mn1           15.00    54.93804     Mn( 1.00)
        Au1           11.00   196.96657     Au( 1.00)

     Starting magnetic structure
     atomic species   magnetization
        Mn1          0.133
        Au1          0.182

     No symmetry found

   Cartesian axes

     site n.     atom                  positions (alat units)
         1           Mn1 tau(   1) = (   0.0000000   0.0000000  10.0000000  )
         2           Mn1 tau(   2) = (   3.7803284   2.6519832  10.0000000  )
         3           Au1 tau(   3) = (   2.8203764   0.0000000  10.0000000  )
         4           Au1 tau(   4) = (   0.9599520   2.6519832  10.0000000  )
         5           Mn1 tau(   5) = (   5.6407527   3.9571117  12.3086045  )
         6           Mn1 tau(   6) = (   1.8604244   1.3051285  12.3086045  )
         7           Au1 tau(   7) = (   2.8203764   3.9571117  12.3086045  )
         8           Au1 tau(   8) = (   4.6808007   1.3051285  12.3086045  )
         9           Mn1 tau(   9) = (   3.7208487   2.6102569  14.6172090  )
        10           Mn1 tau(  10) = (   7.5011771   5.2622402  14.6172090  )
        11           Au1 tau(  11) = (   6.5412251   2.6102569  14.6172090  )
        12           Au1 tau(  12) = (   4.6808007   5.2622402  14.6172090  )

     number of k points=    40  Fermi-Dirac smearing, width (Ry)=  0.0110
                       cart. coord. in units 2pi/alat
        k(    1) = (   0.0000000   0.0000000   0.0000000), wk =   0.0277778
        k(    2) = (   0.0000000   0.0314230   0.0000000), wk =   0.0555556
        k(    3) = (   0.0000000   0.0628460   0.0000000), wk =   0.0555556
        k(    4) = (   0.0000000  -0.0942691   0.0000000), wk =   0.0277778
        k(    5) = (   0.0295469  -0.0106952   0.0000000), wk =   0.0555556
        k(    6) = (   0.0295469   0.0207278   0.0000000), wk =   0.0555556
        k(    7) = (   0.0295469   0.0521508   0.0000000), wk =   0.0555556
        k(    8) = (   0.0295469  -0.1049643   0.0000000), wk =   0.0555556
        k(    9) = (   0.0295469  -0.0735413   0.0000000), wk =   0.0555556
        k(   10) = (   0.0295469  -0.0421183   0.0000000), wk =   0.0555556
        k(   11) = (   0.0590938  -0.0213905   0.0000000), wk =   0.0555556
        k(   12) = (   0.0590938   0.0100325   0.0000000), wk =   0.0555556
        k(   13) = (   0.0590938   0.0414556   0.0000000), wk =   0.0555556
        k(   14) = (   0.0590938  -0.1156595   0.0000000), wk =   0.0555556
        k(   15) = (   0.0590938  -0.0842365   0.0000000), wk =   0.0555556
        k(   16) = (   0.0590938  -0.0528135   0.0000000), wk =   0.0555556
        k(   17) = (  -0.0886407   0.0320857   0.0000000), wk =   0.0277778
        k(   18) = (  -0.0886407   0.0635087   0.0000000), wk =   0.0555556
        k(   19) = (  -0.0886407   0.0949318   0.0000000), wk =   0.0555556
        k(   20) = (  -0.0886407  -0.0621834   0.0000000), wk =   0.0277778
        k(   21) = (   0.0000000   0.0000000   0.0000000), wk =   0.0277778
        k(   22) = (   0.0000000   0.0314230   0.0000000), wk =   0.0555556
        k(   23) = (   0.0000000   0.0628460   0.0000000), wk =   0.0555556
        k(   24) = (   0.0000000  -0.0942691   0.0000000), wk =   0.0277778
        k(   25) = (   0.0295469  -0.0106952   0.0000000), wk =   0.0555556
        k(   26) = (   0.0295469   0.0207278   0.0000000), wk =   0.0555556
        k(   27) = (   0.0295469   0.0521508   0.0000000), wk =   0.0555556
        k(   28) = (   0.0295469  -0.1049643   0.0000000), wk =   0.0555556
        k(   29) = (   0.0295469  -0.0735413   0.0000000), wk =   0.0555556
        k(   30) = (   0.0295469  -0.0421183   0.0000000), wk =   0.0555556
        k(   31) = (   0.0590938  -0.0213905   0.0000000), wk =   0.0555556
        k(   32) = (   0.0590938   0.0100325   0.0000000), wk =   0.0555556
        k(   33) = (   0.0590938   0.0414556   0.0000000), wk =   0.0555556
        k(   34) = (   0.0590938  -0.1156595   0.0000000), wk =   0.0555556
        k(   35) = (   0.0590938  -0.0842365   0.0000000), wk =   0.0555556
        k(   36) = (   0.0590938  -0.0528135   0.0000000), wk =   0.0555556
        k(   37) = (  -0.0886407   0.0320857   0.0000000), wk =   0.0277778
        k(   38) = (  -0.0886407   0.0635087   0.0000000), wk =   0.0555556
        k(   39) = (  -0.0886407   0.0949318   0.0000000), wk =   0.0555556
        k(   40) = (  -0.0886407  -0.0621834   0.0000000), wk =   0.0277778

     Largest allocated arrays     est. size (Mb)     dimensions
     Largest temporary arrays     est. size (Mb)     dimensions

     Check: negative/imaginary core charge=   -0.000005    0.000000

     Initial potential from superposition of free atoms
     Check: negative starting charge=(component1):   -0.001311
     Check: negative starting charge=(component2):   -0.001006

     starting charge  152.99876, renormalised to  156.00000

     negative rho (up, down):  1.336E-03 1.025E-03

     *
     * You are using vdW-DF for exchange-correlation in this calculation.
     * Please cite the following three references that made this development
     * possible:
     *
     *   M. Dion, H. Rydberg, E. Schroder, D. C. Langreth, and
     *   B. I. Lundqvist, Phys. Rev. Lett. 92, 246401 (2004).
     *
     *   T. Thonhauser, V. R. Cooper, S. Li, A. Puzder, P. Hyldgaard, and
     *   D. C. Langreth, Phys. Rev. B 76, 125112 (2007).
     *
     *   G. Roman-Perez and J. M. Soler, Phys. Rev. Lett. 103, 096102 (2009).
     *
     *
     * If you are using vdW-DF2, please also cite:
     *
     *   K. Lee, E. D. Murray, L. Kong, B. I. Lundqvist, and
     *   D. C. Langreth, Phys. Rev. B 82, 081101(R) (2010).
     *
     *
     * If you are calculating the stress with vdW-DF, please also cite:
     *
     *   R. Sabatini, E. Kucukbenli, B. Kolb, T. Thonhauser, and
     *   S. de Gironcoli, J. Phys.: Condens. Matter 24, 424209 (2012).
     *

     Carrying out vdW-DF run using the following parameters:

     Nqs =      20    Nr_points =    1024   r_max =   100.000
     q_mesh =
               0.00001000     0.04494208     0.09755937     0.15916263
               0.23128650     0.31572767     0.41458969     0.53033537
               0.66584808     0.82450364     1.01025438     1.22772762
               1.48234092     1.78043706     2.12944203     2.53805004
               3.01644009     3.57652955     4.23227104     5.00000000

     Gradients computed in reciprocal space

     Adding external electric field

     Computed dipole along edir(3) :
        Dipole                0.0000 Ry au,          0.0000 Debye
        Dipole field          0.0000 Ry au

        Potential amp.       -0.0000 Ry
        Total length         45.3568 bohr

[...]

     Starting wfc are  132 randomized atomic wfcs

     Self-consistent Calculation

     iteration #  1     ecut=    36.75 Ry     beta=0.10
     Davidson diagonalization with overlap
     ethr =  1.00E-02,  avg # of iterations =  8.1

[...]

     Magnetic moment per site:
     atom:    1    charge:    6.0781    magn:    0.8531    constr:    0.0000
     atom:    2    charge:    6.0781    magn:    0.8530    constr:    0.0000
     atom:    3    charge:    1.4592    magn:    0.2490    constr:    0.0000
     atom:    4    charge:    1.4592    magn:    0.2490    constr:    0.0000
     atom:    5    charge:    6.0546    magn:    0.8471    constr:    0.0000
[...]
     Q(r) pseudized with  8 coefficients,  rinner =    0.950   0.950   0.950
                                                       0.950   0.950

     PseudoPot. # 2 for Au read from file:
     /afs/slac.stanford.edu/u/if/mamunm/psp/gbrv1.5pbe/Au.UPF
     MD5 check sum: 9d7f43293ad2c663164586bc4b293ffc
     Pseudo is Ultrasoft + core correction, Zval = 11.0
     Generated by new atomic code, or converted to UPF format
     Using radial grid of  985 points,  7 beta functions with:
                l(1) =   0
                l(2) =   0
                l(3) =   1
                l(4) =   1
                l(5) =   2
                l(6) =   2
                l(7) =   3
     Q(r) pseudized with  6 coefficients,  rinner =    1.900   1.900   1.900
                                                       1.900   1.900   1.900
                                                       1.900

     vdW kernel table read from file vdW_kernel_table
     MD5 check sum: 095c7af220d748ca6e76c0b4c6cfb241

     atomic species   valence    mass     pseudopotential
        Mn1           15.00    54.93804     Mn( 1.00)
        Au1           11.00   196.96657     Au( 1.00)

     Starting magnetic structure
     atomic species   magnetization
        Mn1          0.133
        Au1          0.182

     No symmetry found

   Cartesian axes

     site n.     atom                  positions (alat units)
         1           Mn1 tau(   1) = (   0.0000000   0.0000000  10.0000000  )
         2           Mn1 tau(   2) = (   3.7803284   2.6519832  10.0000000  )
         3           Au1 tau(   3) = (   2.8203764   0.0000000  10.0000000  )
         4           Au1 tau(   4) = (   0.9599520   2.6519832  10.0000000  )
         5           Mn1 tau(   5) = (   5.6407527   3.9571117  12.3086045  )
         6           Mn1 tau(   6) = (   1.8604244   1.3051285  12.3086045  )
         7           Au1 tau(   7) = (   2.8203764   3.9571117  12.3086045  )
         8           Au1 tau(   8) = (   4.6808007   1.3051285  12.3086045  )
         9           Mn1 tau(   9) = (   3.7209551   2.6103198  14.6141109  )
        10           Mn1 tau(  10) = (   7.5012568   5.2623099  14.6140974  )
        11           Au1 tau(  11) = (   6.5454703   2.6132634  14.5690639  )
        12           Au1 tau(  12) = (   4.6851029   5.2652290  14.5690995  )

     number of k points=    40  Fermi-Dirac smearing, width (Ry)=  0.0110
                       cart. coord. in units 2pi/alat
        k(    1) = (   0.0000000   0.0000000   0.0000000), wk =   0.0277778
        k(    2) = (   0.0000000   0.0314230   0.0000000), wk =   0.0555556
        k(    3) = (   0.0000000   0.0628460   0.0000000), wk =   0.0555556
        k(    4) = (   0.0000000  -0.0942691   0.0000000), wk =   0.0277778
        k(    5) = (   0.0295469  -0.0106952   0.0000000), wk =   0.0555556
        k(    6) = (   0.0295469   0.0207278   0.0000000), wk =   0.0555556
        k(    7) = (   0.0295469   0.0521508   0.0000000), wk =   0.0555556
        k(    8) = (   0.0295469  -0.1049643   0.0000000), wk =   0.0555556
        k(    9) = (   0.0295469  -0.0735413   0.0000000), wk =   0.0555556
        k(   10) = (   0.0295469  -0.0421183   0.0000000), wk =   0.0555556
        k(   11) = (   0.0590938  -0.0213905   0.0000000), wk =   0.0555556
        k(   12) = (   0.0590938   0.0100325   0.0000000), wk =   0.0555556
        k(   13) = (   0.0590938   0.0414556   0.0000000), wk =   0.0555556
        k(   14) = (   0.0590938  -0.1156595   0.0000000), wk =   0.0555556
        k(   15) = (   0.0590938  -0.0842365   0.0000000), wk =   0.0555556
        k(   16) = (   0.0590938  -0.0528135   0.0000000), wk =   0.0555556
        k(   17) = (  -0.0886407   0.0320857   0.0000000), wk =   0.0277778
        k(   18) = (  -0.0886407   0.0635087   0.0000000), wk =   0.0555556
        k(   19) = (  -0.0886407   0.0949318   0.0000000), wk =   0.0555556
        k(   20) = (  -0.0886407  -0.0621834   0.0000000), wk =   0.0277778
        k(   21) = (   0.0000000   0.0000000   0.0000000), wk =   0.0277778
        k(   22) = (   0.0000000   0.0314230   0.0000000), wk =   0.0555556
        k(   23) = (   0.0000000   0.0628460   0.0000000), wk =   0.0555556
        k(   24) = (   0.0000000  -0.0942691   0.0000000), wk =   0.0277778
        k(   25) = (   0.0295469  -0.0106952   0.0000000), wk =   0.0555556
        k(   26) = (   0.0295469   0.0207278   0.0000000), wk =   0.0555556
        k(   27) = (   0.0295469   0.0521508   0.0000000), wk =   0.0555556
        k(   28) = (   0.0295469  -0.1049643   0.0000000), wk =   0.0555556
        k(   29) = (   0.0295469  -0.0735413   0.0000000), wk =   0.0555556
        k(   30) = (   0.0295469  -0.0421183   0.0000000), wk =   0.0555556
        k(   31) = (   0.0590938  -0.0213905   0.0000000), wk =   0.0555556
        k(   32) = (   0.0590938   0.0100325   0.0000000), wk =   0.0555556
        k(   33) = (   0.0590938   0.0414556   0.0000000), wk =   0.0555556
        k(   34) = (   0.0590938  -0.1156595   0.0000000), wk =   0.0555556
        k(   35) = (   0.0590938  -0.0842365   0.0000000), wk =   0.0555556
        k(   36) = (   0.0590938  -0.0528135   0.0000000), wk =   0.0555556
        k(   37) = (  -0.0886407   0.0320857   0.0000000), wk =   0.0277778
        k(   38) = (  -0.0886407   0.0635087   0.0000000), wk =   0.0555556
        k(   39) = (  -0.0886407   0.0949318   0.0000000), wk =   0.0555556
        k(   40) = (  -0.0886407  -0.0621834   0.0000000), wk =   0.0277778

     Largest allocated arrays     est. size (Mb)     dimensions
     Largest temporary arrays     est. size (Mb)     dimensions

     Check: negative/imaginary core charge=   -0.000005    0.000000

     Initial potential from superposition of free atoms
     Check: negative starting charge=(component1):   -0.001314
     Check: negative starting charge=(component2):   -0.001008

     starting charge  152.99876, renormalised to  156.00000

[...]

     *
     * You are using vdW-DF for exchange-correlation in this calculation.
     * Please cite the following three references that made this development
     * possible:
     *
     *   M. Dion, H. Rydberg, E. Schroder, D. C. Langreth, and
     *   B. I. Lundqvist, Phys. Rev. Lett. 92, 246401 (2004).
     *
     *   T. Thonhauser, V. R. Cooper, S. Li, A. Puzder, P. Hyldgaard, and
     *   D. C. Langreth, Phys. Rev. B 76, 125112 (2007).
     *
     *   G. Roman-Perez and J. M. Soler, Phys. Rev. Lett. 103, 096102 (2009).
     *
     *
     * If you are using vdW-DF2, please also cite:
     *
     *   K. Lee, E. D. Murray, L. Kong, B. I. Lundqvist, and
     *   D. C. Langreth, Phys. Rev. B 82, 081101(R) (2010).
     *
     *
     * If you are calculating the stress with vdW-DF, please also cite:
     *
     *   R. Sabatini, E. Kucukbenli, B. Kolb, T. Thonhauser, and
     *   S. de Gironcoli, J. Phys.: Condens. Matter 24, 424209 (2012).
     *

     Carrying out vdW-DF run using the following parameters:

     Nqs =      20    Nr_points =    1024   r_max =   100.000
     q_mesh =
               0.00001000     0.04494208     0.09755937     0.15916263
               0.23128650     0.31572767     0.41458969     0.53033537
               0.66584808     0.82450364     1.01025438     1.22772762
               1.48234092     1.78043706     2.12944203     2.53805004
               3.01644009     3.57652955     4.23227104     5.00000000

     Gradients computed in reciprocal space

[...]

     Starting wfc are  132 randomized atomic wfcs

     Self-consistent Calculation

[...]

     total energy              =   -1973.02184834 Ry
     Harris-Foulkes estimate   =   -1973.02184573 Ry
     estimated scf accuracy    <       0.00000127 Ry

[...]

     iteration # 19     ecut=    36.75 Ry     beta=0.10
     Davidson diagonalization with overlap
     ethr =  8.15E-10,  avg # of iterations =  2.0

[...]

     negative rho (up, down):  1.608E-03 1.963E-03

[...]

     Adding external electric field

     Computed dipole along edir(3) :
        Dipole                0.0099 Ry au,          0.0253 Debye
        Dipole field          0.0000 Ry au

        Potential amp.       -0.0023 Ry
        Total length         45.3568 bohr

     Magnetic moment per site:
     atom:    1    charge:    6.0327    magn:    1.6584    constr:    0.0000
     atom:    2    charge:    6.0327    magn:    1.6584    constr:    0.0000
     atom:    3    charge:    1.4507    magn:    0.0264    constr:    0.0000
     atom:    4    charge:    1.4507    magn:    0.0264    constr:    0.0000
     atom:    5    charge:    6.0125    magn:    1.6310    constr:    0.0000
     atom:    6    charge:    6.0125    magn:    1.6310    constr:    0.0000
     atom:    7    charge:    1.4472    magn:    0.0292    constr:    0.0000
     atom:    8    charge:    1.4472    magn:    0.0292    constr:    0.0000
     atom:    9    charge:    6.0192    magn:    1.6542    constr:    0.0000
     atom:   10    charge:    6.0192    magn:    1.6542    constr:    0.0000
     atom:   11    charge:    1.4469    magn:    0.0273    constr:    0.0000
     atom:   12    charge:    1.4469    magn:    0.0273    constr:    0.0000

     End of self-consistent calculation

 ------ SPIN UP ------------

[...]

 ------ SPIN DOWN ----------

[...]

          k = 0.0591-0.0528 0.0000 ( 18696 PWs)   bands (ev):

[...]

          k =-0.0886-0.0622 0.0000 ( 18708 PWs)   bands (ev):

   -76.7017 -76.7011 -76.7002 -76.6997 -76.6779 -76.6763 -45.5167 -45.5142
   -45.5141 -45.5122 -45.4914 -45.4906 -45.4869 -45.4854 -45.4819 -45.4811
   -45.4786 -45.4660 -45.4659 -45.4636 -45.4623 -45.4622 -45.4614 -45.4598
    -5.8780  -5.3453  -5.1620  -5.1194  -4.8470  -4.7122  -4.6348  -4.5677
    -4.3763  -4.3532  -4.3356  -4.2120  -4.1587  -4.1112  -3.9305  -3.8588
    -3.8185  -3.7397  -3.7063  -3.6422  -3.5546  -3.4932  -3.4887  -3.3323
    -3.2488  -3.1735  -3.1569  -3.0923  -2.8904  -2.8783  -2.6969  -2.4712
    -2.3151  -1.9977  -1.9408  -1.4318  -1.1109  -0.4292  -0.3882  -0.1011
     0.0473   0.4107   0.4499   0.7464   0.8011   0.9542   1.0259   1.1208
     1.1886   1.2074   1.3869   1.4647   1.4694   1.4943   1.5912   1.7182
     1.8285   2.0308   2.0731   2.0949   2.2008   2.2211   2.2489   2.2973
     2.4022   2.4998   2.6313   3.0451   3.1474   3.3122   3.4286   4.2375
     4.2552   4.4975   5.8640   5.9498   5.9791   6.3093   6.4865   6.5357
     6.5673   6.6301   6.6527   7.6520

     the Fermi energy is     0.6927 ev

!    total energy              =   -1973.02185893 Ry
     Harris-Foulkes estimate   =   -1973.02184858 Ry
     estimated scf accuracy    <       0.00000031 Ry

     The total energy is the sum of the following terms:

     one-electron contribution =  -12506.31606446 Ry
     hartree contribution      =    6295.26110789 Ry
     xc contribution           =    -550.04425960 Ry
     ewald contribution        =    4788.12252084 Ry
     electric field correction =       0.00000025 Ry
     smearing contrib. (-TS)   =      -0.04516386 Ry

     total magnetization       =    26.40 Bohr mag/cell
     absolute magnetization    =    27.11 Bohr mag/cell

     convergence has been achieved in  19 iterations

 BEEF-vdW xc energy contributions
           1 :   -488.368687981867
           2 :    449.799349501683
           3 :   -383.072398889090
           4 :    303.868804510456
           5 :   -226.785068311753
           6 :    161.354628906497
           7 :   -111.401485080486
           8 :    76.3884905543431
           9 :   -53.2700879714124
          10 :    38.1340677963489
          11 :   -27.5166010955342
          12 :    19.2412342851905
          13 :   -12.5810434681810
          14 :    7.68048710160156
          15 :   -4.64231133683597
          16 :    2.93327033165474
          17 :   -1.52772722176974
          18 :  -0.461709443762174
          19 :    3.26071808792074
          20 :   -6.41940501338286
          21 :    9.19144174285998
          22 :   -10.9599583723317
          23 :    11.4486396977566
          24 :   -10.7197025226942
          25 :    9.07299042852856
          26 :   -6.95621698220339
          27 :    4.87971990455947
          28 :   -3.30603889788256
          29 :    2.51462044030063
          30 :   -2.52342625947949
          31 :   -39.9628486306653
          32 :   -28.7476969976877

     Forces acting on atoms (Ry/au):

     negative rho (up, down):  1.608E-03 1.963E-03
     atom    1 type  1   force =    -0.00004347   -0.00003135    0.00038070
     atom    2 type  1   force =    -0.00004210   -0.00002827    0.00037707
     atom    3 type  2   force =    -0.00050838   -0.00036062    0.00614707
     atom    4 type  2   force =    -0.00051210   -0.00035452    0.00614679
     atom    5 type  1   force =     0.00004360    0.00003214   -0.00445667
     atom    6 type  1   force =     0.00004031    0.00002678   -0.00445237
     atom    7 type  2   force =     0.00000935    0.00001255   -0.00096458
     atom    8 type  2   force =     0.00001484    0.00000360   -0.00096716
     atom    9 type  1   force =     0.00061003    0.00043159   -0.00032162
     atom   10 type  1   force =     0.00061640    0.00042837   -0.00032415
     atom   11 type  2   force =    -0.00011122   -0.00007820   -0.00078031
     atom   12 type  2   force =    -0.00011725   -0.00008207   -0.00078477

     Total force =     0.010990     Total SCF correction =     0.002111
     SCF correction compared to forces is large: reduce conv_thr to get better values

     entering subroutine stress ...

     negative rho (up, down):  1.608E-03 1.963E-03
          total   stress  (Ry/bohr**3)                   (kbar)     P=   -8.30
  -0.00007379   0.00000106   0.00000177        -10.86      0.16      0.26
   0.00000106  -0.00007456   0.00000124          0.16    -10.97      0.18
   0.00000177   0.00000124  -0.00002084          0.26      0.18     -3.07

 !ASE

     Writing output data file calc.save

     General routines

     Parallel routines

   This run was terminated on:  18: 9:48  18Dec2018

   JOB DONE.
Job  /afs/slac/g/suncat/bin/suncat-tsmpirun -x LD_LIBRARY_PATH -wdir /scratch/qe530196_kveoK pw.x -in pw.inp

TID   HOST_NAME   COMMAND_LINE            STATUS            TERMINATION_TIME
00000 suncat2028 pw.x -in pw.inp   Done                     12/18/2018 18:09:48
00001 suncat2028 pw.x -in pw.inp   Done                     12/18/2018 18:09:48
00002 suncat2028 pw.x -in pw.inp   Done                     12/18/2018 18:09:48
00003 suncat2028 pw.x -in pw.inp   Done                     12/18/2018 18:09:48
00004 suncat2028 pw.x -in pw.inp   Done                     12/18/2018 18:09:48
00005 suncat2028 pw.x -in pw.inp   Done                     12/18/2018 18:09:48
00006 suncat2028 pw.x -in pw.inp   Done                     12/18/2018 18:09:48
00007 suncat2028 pw.x -in pw.inp   Done                     12/18/2018 18:09:48
00008 suncat2028 pw.x -in pw.inp   Done                     12/18/2018 18:09:48
00009 suncat2028 pw.x -in pw.inp   Done                     12/18/2018 18:09:48
00010 suncat2028 pw.x -in pw.inp   Done                     12/18/2018 18:09:48
00011 suncat2028 pw.x -in pw.inp   Done                     12/18/2018 18:09:48
00012 suncat2028 pw.x -in pw.inp   Done                     12/18/2018 18:09:48
00013 suncat2028 pw.x -in pw.inp   Done                     12/18/2018 18:09:48
00014 suncat2028 pw.x -in pw.inp   Done                     12/18/2018 18:09:48
00015 suncat2028 pw.x -in pw.inp   Done                     12/18/2018 18:09:48
00016 suncat2027 pw.x -in pw.inp   Done                     12/18/2018 18:09:48
00017 suncat2027 pw.x -in pw.inp   Done                     12/18/2018 18:09:48
00018 suncat2027 pw.x -in pw.inp   Done                     12/18/2018 18:09:48
00019 suncat2027 pw.x -in pw.inp   Done                     12/18/2018 18:09:48
00020 suncat2027 pw.x -in pw.inp   Done                     12/18/2018 18:09:48
00021 suncat2027 pw.x -in pw.inp   Done                     12/18/2018 18:09:48
00022 suncat2027 pw.x -in pw.inp   Done                     12/18/2018 18:09:48
00023 suncat2027 pw.x -in pw.inp   Done                     12/18/2018 18:09:48
00024 suncat2027 pw.x -in pw.inp   Done                     12/18/2018 18:09:48
00025 suncat2027 pw.x -in pw.inp   Done                     12/18/2018 18:09:48
00026 suncat2027 pw.x -in pw.inp   Done                     12/18/2018 18:09:48
00027 suncat2027 pw.x -in pw.inp   Done                     12/18/2018 18:09:48
00028 suncat2027 pw.x -in pw.inp   Done                     12/18/2018 18:09:48
00029 suncat2027 pw.x -in pw.inp   Done                     12/18/2018 18:09:48
00030 suncat2027 pw.x -in pw.inp   Done                     12/18/2018 18:09:48
00031 suncat2027 pw.x -in pw.inp   Done                     12/18/2018 18:09:48