     Program PWSCF v.5.1rc2 (svn rev. 11289) starts on 19Dec2018 at  6:15:51

     Current dimensions of program PWSCF are:
     Max number of different atomic species (ntypx) = 10
     Max number of k-points (npk) =  40000
     Max angular momentum in pseudopotentials (lmaxx) =  3
     Presently stress not available with electric field

     IMPORTANT: XC functional enforced from input :
     Exchange-correlation      = BEEF-VDW ( 1  4 27 13 2)
     Any further DFT definition will be discarded
     Please, verify this is what you really want

     Subspace diagonalization in iterative solution of the eigenvalue problem:
     a serial algorithm will be used

     Found symmetry operation: I + ( -0.5000  0.5000  0.0000)
     This is a supercell, fractional translations are disabled

     bravais-lattice index     =            0
     lattice parameter (alat)  =       1.8897  a.u.
     unit-cell volume          =    5058.6140 (a.u.)^3
     number of atoms/cell      =           12
     number of atomic types    =            2
     number of electrons       =       174.00
     number of Kohn-Sham states=          117
     kinetic-energy cutoff     =      36.7493  Ry
     charge density cutoff     =     367.4932  Ry
     convergence threshold     =      1.0E-06
     mixing beta               =       0.1000
     number of iterations used =           10  plain     mixing
     Exchange-correlation      = BEEF-VDW ( 1  4 27 13 2)
     nstep                     =           50

     celldm(1)=   1.889726  celldm(2)=   0.000000  celldm(3)=   0.000000
     celldm(4)=   0.000000  celldm(5)=   0.000000  celldm(6)=   0.000000

     crystal axes: (cart. coord. in units of alat)
               a(1) = (   5.682338   0.000000   0.000000 )
               a(2) = (   1.905914   5.353173   0.000000 )
               a(3) = (   0.000000   0.000000  24.643171 )

     reciprocal axes: (cart. coord. in units 2 pi/alat)
               b(1) = (  0.175984 -0.062656  0.000000 )
               b(2) = (  0.000000  0.186805  0.000000 )
               b(3) = (  0.000000  0.000000  0.040579 )

     PseudoPot. # 1 for Sn read from file:
     /afs/slac.stanford.edu/u/if/mamunm/psp/gbrv1.5pbe/Sn.UPF
     MD5 check sum: 469debedee59599fedebd795477fea03
     Pseudo is Ultrasoft + core correction, Zval = 14.0
     Generated by new atomic code, or converted to UPF format
     Using radial grid of  891 points,  6 beta functions with:
                l(1) =   0
                l(2) =   0
                l(3) =   1
                l(4) =   1
                l(5) =   2
                l(6) =   2
     Q(r) pseudized with  8 coefficients,  rinner =    1.350   1.350   1.350
                                                       1.350   1.350

     PseudoPot. # 2 for Re read from file:
     /afs/slac.stanford.edu/u/if/mamunm/psp/gbrv1.5pbe/Re.UPF
     MD5 check sum: 85f993410f3e006da9d71c142b4ad953
     Pseudo is Ultrasoft + core correction, Zval = 15.0
     Generated by new atomic code, or converted to UPF format
     Using radial grid of  981 points,  8 beta functions with:
                l(1) =   0
                l(2) =   0
                l(3) =   1
                l(4) =   1
                l(5) =   2
                l(6) =   2
                l(7) =   3
                l(8) =   3
     Q(r) pseudized with  8 coefficients,  rinner =    1.150   1.150   1.150
                                                       1.150   1.150   1.150
                                                       1.150

     vdW kernel table read from file vdW_kernel_table
     MD5 check sum: 095c7af220d748ca6e76c0b4c6cfb241

     atomic species   valence    mass     pseudopotential
        Sn1           14.00   118.71000     Sn( 1.00)
        Re1           15.00   186.20700     Re( 1.00)

     No symmetry found

   Cartesian axes

     site n.     atom                  positions (alat units)
         1           Sn1 tau(   1) = (   0.0000000   0.0000000  10.0000000  )
         2           Sn1 tau(   2) = (   3.7941261   2.6765864  10.0000000  )
         3           Re1 tau(   3) = (   2.8411691   0.0000000  10.0000000  )
         4           Re1 tau(   4) = (   0.9529570   2.6765864  10.0000000  )
         5           Sn1 tau(   5) = (   5.6823382   4.0086357  12.3215856  )
         6           Sn1 tau(   6) = (   1.8882121   1.3320492  12.3215856  )
         7           Re1 tau(   7) = (   2.8411691   4.0086357  12.3215856  )
         8           Re1 tau(   8) = (   4.7293812   1.3320492  12.3215856  )
         9           Sn1 tau(   9) = (   3.7764242   2.6640985  14.6431712  )
        10           Sn1 tau(  10) = (   7.5705503   5.3406849  14.6431712  )
        11           Re1 tau(  11) = (   6.6175933   2.6640985  14.6431712  )
        12           Re1 tau(  12) = (   4.7293812   5.3406849  14.6431712  )

     number of k points=    20  Fermi-Dirac smearing, width (Ry)=  0.0110
                       cart. coord. in units 2pi/alat
        k(    1) = (   0.0000000   0.0000000   0.0000000), wk =   0.0555556
        k(    2) = (   0.0000000   0.0311342   0.0000000), wk =   0.1111111
        k(    3) = (   0.0000000   0.0622684   0.0000000), wk =   0.1111111
        k(    4) = (   0.0000000  -0.0934026   0.0000000), wk =   0.0555556
        k(    5) = (   0.0293306  -0.0104427   0.0000000), wk =   0.1111111
        k(    6) = (   0.0293306   0.0206915   0.0000000), wk =   0.1111111
        k(    7) = (   0.0293306   0.0518256   0.0000000), wk =   0.1111111
        k(    8) = (   0.0293306  -0.1038453   0.0000000), wk =   0.1111111
        k(    9) = (   0.0293306  -0.0727111   0.0000000), wk =   0.1111111
        k(   10) = (   0.0293306  -0.0415769   0.0000000), wk =   0.1111111
        k(   11) = (   0.0586613  -0.0208854   0.0000000), wk =   0.1111111
        k(   12) = (   0.0586613   0.0102487   0.0000000), wk =   0.1111111
        k(   13) = (   0.0586613   0.0413829   0.0000000), wk =   0.1111111
        k(   14) = (   0.0586613  -0.1142880   0.0000000), wk =   0.1111111
        k(   15) = (   0.0586613  -0.0831538   0.0000000), wk =   0.1111111
        k(   16) = (   0.0586613  -0.0520196   0.0000000), wk =   0.1111111
        k(   17) = (  -0.0879919   0.0313282   0.0000000), wk =   0.0555556
        k(   18) = (  -0.0879919   0.0624623   0.0000000), wk =   0.1111111
        k(   19) = (  -0.0879919   0.0935965   0.0000000), wk =   0.1111111
        k(   20) = (  -0.0879919  -0.0620744   0.0000000), wk =   0.0555556

     Largest allocated arrays     est. size (Mb)     dimensions
     Largest temporary arrays     est. size (Mb)     dimensions

     Initial potential from superposition of free atoms
     Check: negative starting charge=   -0.783372

     starting charge  164.99946, renormalised to  174.00000

     negative rho (up, down):  8.261E-01 0.000E+00

     *
     * You are using vdW-DF for exchange-correlation in this calculation.
     * Please cite the following three references that made this development
     * possible:
     *
     *   M. Dion, H. Rydberg, E. Schroder, D. C. Langreth, and
     *   B. I. Lundqvist, Phys. Rev. Lett. 92, 246401 (2004).
     *
     *   T. Thonhauser, V. R. Cooper, S. Li, A. Puzder, P. Hyldgaard, and
     *   D. C. Langreth, Phys. Rev. B 76, 125112 (2007).
     *
     *   G. Roman-Perez and J. M. Soler, Phys. Rev. Lett. 103, 096102 (2009).
     *
     *
     * If you are using vdW-DF2, please also cite:
     *
     *   K. Lee, E. D. Murray, L. Kong, B. I. Lundqvist, and
     *   D. C. Langreth, Phys. Rev. B 82, 081101(R) (2010).
     *
     *
     * If you are calculating the stress with vdW-DF, please also cite:
     *
     *   R. Sabatini, E. Kucukbenli, B. Kolb, T. Thonhauser, and
     *   S. de Gironcoli, J. Phys.: Condens. Matter 24, 424209 (2012).
     *

     Carrying out vdW-DF run using the following parameters:

     Nqs =      20    Nr_points =    1024   r_max =   100.000
     q_mesh =
               0.00001000     0.04494208     0.09755937     0.15916263
               0.23128650     0.31572767     0.41458969     0.53033537
               0.66584808     0.82450364     1.01025438     1.22772762
               1.48234092     1.78043706     2.12944203     2.53805004
               3.01644009     3.57652955     4.23227104     5.00000000

     Gradients computed in reciprocal space

     Adding external electric field

     Computed dipole along edir(3) :
        Dipole               -0.0000 Ry au,         -0.0000 Debye
        Dipole field         -0.0000 Ry au

        Potential amp.        0.0000 Ry
        Total length         45.4046 bohr

     Starting wfc are  132 randomized atomic wfcs

     Self-consistent Calculation

     iteration #  1     ecut=    36.75 Ry     beta=0.10
     Davidson diagonalization with overlap
     ethr =  1.00E-02,  avg # of iterations =  9.2

[...]

     total energy              =   -2117.70681512 Ry
     Harris-Foulkes estimate   =   -2118.60278733 Ry
     estimated scf accuracy    <       5.56152090 Ry

[...]

     End of self-consistent calculation

          k = 0.0000 0.0000 0.0000 ( 18999 PWs)   bands (ev):

   -78.2673 -78.2667 -78.2641 -78.2635 -78.2276 -78.2245 -40.1012 -40.1003
   -40.0181 -40.0163 -40.0102 -39.9994 -39.9988 -39.9985 -39.9870 -39.9777
   -39.9680 -39.9489 -39.9364 -39.9301 -39.9212 -39.9162 -39.9005 -39.8800
   -19.8746 -19.8541 -19.8089 -19.8081 -19.8025 -19.7796 -19.7735 -19.7666
   -19.7386 -19.7319 -19.7232 -19.6958 -19.6945 -19.6840 -19.6559 -19.6504
   -19.6281 -19.6270 -19.6267 -19.6230 -19.5992 -19.5925 -19.5894 -19.5824
   -19.5812 -19.5785 -19.5505 -19.5354 -19.5017 -19.4884  -9.3579  -7.5459
    -6.0048  -5.8565  -5.3093  -5.2303  -2.6788  -2.6150  -1.9710  -1.6282
    -1.6135  -1.3887  -1.1442  -1.0814  -0.8057  -0.6378  -0.2530  -0.2471
     0.0402   0.1221   0.4562   0.6139   0.7136   0.7317   1.0391   1.1189
     1.1352   1.2716   1.2889   1.4269   1.4270   1.4612   1.6929   1.7840
     1.8453   1.8851   2.2446   2.2631   2.8883   3.3470   3.5139   3.6071
     3.8752   3.8878   4.3265   4.6869   4.7795   4.8491   4.9775   4.9894
     5.4565   5.6314   5.7781   5.8813   5.9109   6.3755   6.6494   6.6591
     7.1367   7.2610   7.5628   8.0215   8.4153

[...]

          k =-0.0880 0.0313 0.0000 ( 19056 PWs)   bands (ev):

[...]

     the Fermi energy is     1.8826 ev

!    total energy              =   -2116.50408594 Ry
     Harris-Foulkes estimate   =   -2116.50408745 Ry
     estimated scf accuracy    <       0.00000070 Ry

     The total energy is the sum of the following terms:

     one-electron contribution =  -14748.07689729 Ry
     hartree contribution      =    7400.56558059 Ry
     xc contribution           =    -592.28915686 Ry
     ewald contribution        =    5823.37168641 Ry
     electric field correction =       0.00000000 Ry
     smearing contrib. (-TS)   =      -0.07529880 Ry

     convergence has been achieved in  16 iterations

 BEEF-vdW xc energy contributions
           1 :   -524.018787487520
           2 :    484.185255876904
           3 :   -414.498026043504
           4 :    331.000842011158
           5 :   -250.074264166787
           6 :    183.379785471865
           7 :   -135.349361165164
[...]

[...]

   This run was terminated on:   6:28:33  19Dec2018

[...]

   This run was terminated on:   6:35: 3  19Dec2018

[...]

     Program PWSCF v.5.1rc2 (svn rev. 11289) starts on 19Dec2018 at  6:35: 8

[...]

     iteration # 10     ecut=    36.75 Ry     beta=0.10
     Davidson diagonalization with overlap
     c_bands:  1 eigenvalues not converged
     c_bands:  1 eigenvalues not converged
     ethr =  4.04E-06,  avg # of iterations =  8.3

[...]

     Program PWSCF v.5.1rc2 (svn rev. 11289) starts on 19Dec2018 at  6:41:38

     Current dimensions of program PWSCF are:
     Max number of different atomic species (ntypx) = 10
     Max number of k-points (npk) =  40000
     Max angular momentum in pseudopotentials (lmaxx) =  3
     Presently stress not available with electric field

     IMPORTANT: XC functional enforced from input :
     Exchange-correlation      = BEEF-VDW ( 1  4 27 13 2)
     Any further DFT definition will be discarded
     Please, verify this is what you really want

     Subspace diagonalization in iterative solution of the eigenvalue problem:
     a serial algorithm will be used

     bravais-lattice index     =            0
     lattice parameter (alat)  =       1.8897  a.u.
     unit-cell volume          =    5058.6140 (a.u.)^3
     number of atoms/cell      =           12
     number of atomic types    =            2
     number of electrons       =       174.00
     number of Kohn-Sham states=          117
     kinetic-energy cutoff     =      36.7493  Ry
     charge density cutoff     =     367.4932  Ry
     convergence threshold     =      1.0E-06
     mixing beta               =       0.1000
     number of iterations used =           10  plain     mixing
     Exchange-correlation      = BEEF-VDW ( 1  4 27 13 2)
     nstep                     =           50

     celldm(1)=   1.889726  celldm(2)=   0.000000  celldm(3)=   0.000000
     celldm(4)=   0.000000  celldm(5)=   0.000000  celldm(6)=   0.000000

     crystal axes: (cart. coord. in units of alat)
               a(1) = (   5.682338   0.000000   0.000000 )
               a(2) = (   1.905914   5.353173   0.000000 )
               a(3) = (   0.000000   0.000000  24.643171 )

     reciprocal axes: (cart. coord. in units 2 pi/alat)
               b(1) = (  0.175984 -0.062656  0.000000 )
               b(2) = (  0.000000  0.186805  0.000000 )
               b(3) = (  0.000000  0.000000  0.040579 )

     PseudoPot. # 1 for Sn read from file:
     /afs/slac.stanford.edu/u/if/mamunm/psp/gbrv1.5pbe/Sn.UPF
     MD5 check sum: 469debedee59599fedebd795477fea03
     Pseudo is Ultrasoft + core correction, Zval = 14.0
     Generated by new atomic code, or converted to UPF format
     Using radial grid of  891 points,  6 beta functions with:
                l(1) =   0
                l(2) =   0
                l(3) =   1
                l(4) =   1
                l(5) =   2
                l(6) =   2
     Q(r) pseudized with  8 coefficients,  rinner =    1.350   1.350   1.350
                                                       1.350   1.350

     PseudoPot. # 2 for Re read from file:
     /afs/slac.stanford.edu/u/if/mamunm/psp/gbrv1.5pbe/Re.UPF
     MD5 check sum: 85f993410f3e006da9d71c142b4ad953
     Pseudo is Ultrasoft + core correction, Zval = 15.0
     Generated by new atomic code, or converted to UPF format
     Using radial grid of  981 points,  8 beta functions with:
                l(1) =   0
                l(2) =   0
                l(3) =   1
                l(4) =   1
                l(5) =   2
                l(6) =   2
                l(7) =   3
                l(8) =   3
     Q(r) pseudized with  8 coefficients,  rinner =    1.150   1.150   1.150
                                                       1.150   1.150   1.150
                                                       1.150

     vdW kernel table read from file vdW_kernel_table
     MD5 check sum: 095c7af220d748ca6e76c0b4c6cfb241

     atomic species   valence    mass     pseudopotential
        Sn1           14.00   118.71000     Sn( 1.00)
        Re1           15.00   186.20700     Re( 1.00)

     No symmetry found

   Cartesian axes

     site n.     atom                  positions (alat units)
         1           Sn1 tau(   1) = (   0.0000000   0.0000000  10.0000000  )
         2           Sn1 tau(   2) = (   3.7941261   2.6765864  10.0000000  )
         3           Re1 tau(   3) = (   2.8411691   0.0000000  10.0000000  )
         4           Re1 tau(   4) = (   0.9529570   2.6765864  10.0000000  )
         5           Sn1 tau(   5) = (   5.6823382   4.0086357  12.3215856  )
         6           Sn1 tau(   6) = (   1.8882121   1.3320492  12.3215856  )
         7           Re1 tau(   7) = (   2.8411691   4.0086357  12.3215856  )
         8           Re1 tau(   8) = (   4.7293812   1.3320492  12.3215856  )
         9           Sn1 tau(   9) = (   3.7787581   2.6658940  14.8679163  )
        10           Sn1 tau(  10) = (   7.5730554   5.3423087  14.8679418  )
        11           Re1 tau(  11) = (   6.6195891   2.6655325  14.4488850  )
        12           Re1 tau(  12) = (   4.7314733   5.3421220  14.4488949  )

     number of k points=    20  Fermi-Dirac smearing, width (Ry)=  0.0110
                       cart. coord. in units 2pi/alat
        k(    1) = (   0.0000000   0.0000000   0.0000000), wk =   0.0555556
        k(    2) = (   0.0000000   0.0311342   0.0000000), wk =   0.1111111
        k(    3) = (   0.0000000   0.0622684   0.0000000), wk =   0.1111111
        k(    4) = (   0.0000000  -0.0934026   0.0000000), wk =   0.0555556
        k(    5) = (   0.0293306  -0.0104427   0.0000000), wk =   0.1111111
        k(    6) = (   0.0293306   0.0206915   0.0000000), wk =   0.1111111
        k(    7) = (   0.0293306   0.0518256   0.0000000), wk =   0.1111111
        k(    8) = (   0.0293306  -0.1038453   0.0000000), wk =   0.1111111
        k(    9) = (   0.0293306  -0.0727111   0.0000000), wk =   0.1111111
        k(   10) = (   0.0293306  -0.0415769   0.0000000), wk =   0.1111111
        k(   11) = (   0.0586613  -0.0208854   0.0000000), wk =   0.1111111
        k(   12) = (   0.0586613   0.0102487   0.0000000), wk =   0.1111111
        k(   13) = (   0.0586613   0.0413829   0.0000000), wk =   0.1111111
        k(   14) = (   0.0586613  -0.1142880   0.0000000), wk =   0.1111111
        k(   15) = (   0.0586613  -0.0831538   0.0000000), wk =   0.1111111
        k(   16) = (   0.0586613  -0.0520196   0.0000000), wk =   0.1111111
        k(   17) = (  -0.0879919   0.0313282   0.0000000), wk =   0.0555556
        k(   18) = (  -0.0879919   0.0624623   0.0000000), wk =   0.1111111
        k(   19) = (  -0.0879919   0.0935965   0.0000000), wk =   0.1111111
        k(   20) = (  -0.0879919  -0.0620744   0.0000000), wk =   0.0555556

     Largest allocated arrays     est. size (Mb)     dimensions
     Largest temporary arrays     est. size (Mb)     dimensions

     Initial potential from superposition of free atoms
     Check: negative starting charge=   -0.783091

     starting charge  164.99946, renormalised to  174.00000

[...]

     *
     * You are using vdW-DF for exchange-correlation in this calculation.
     * Please cite the following three references that made this development
     * possible:
     *
     *   M. Dion, H. Rydberg, E. Schroder, D. C. Langreth, and
     *   B. I. Lundqvist, Phys. Rev. Lett. 92, 246401 (2004).
     *
     *   T. Thonhauser, V. R. Cooper, S. Li, A. Puzder, P. Hyldgaard, and
     *   D. C. Langreth, Phys. Rev. B 76, 125112 (2007).
     *
     *   G. Roman-Perez and J. M. Soler, Phys. Rev. Lett. 103, 096102 (2009).
     *
     *
     * If you are using vdW-DF2, please also cite:
     *
     *   K. Lee, E. D. Murray, L. Kong, B. I. Lundqvist, and
     *   D. C. Langreth, Phys. Rev. B 82, 081101(R) (2010).
     *
     *
     * If you are calculating the stress with vdW-DF, please also cite:
     *
     *   R. Sabatini, E. Kucukbenli, B. Kolb, T. Thonhauser, and
     *   S. de Gironcoli, J. Phys.: Condens. Matter 24, 424209 (2012).
     *

     Carrying out vdW-DF run using the following parameters:

     Nqs =      20    Nr_points =    1024   r_max =   100.000
     q_mesh =
               0.00001000     0.04494208     0.09755937     0.15916263
               0.23128650     0.31572767     0.41458969     0.53033537
               0.66584808     0.82450364     1.01025438     1.22772762
               1.48234092     1.78043706     2.12944203     2.53805004
               3.01644009     3.57652955     4.23227104     5.00000000

     Gradients computed in reciprocal space

[...]

     Starting wfc are  132 randomized atomic wfcs

     Self-consistent Calculation

[...]

     total energy              =   -2116.54560939 Ry
     Harris-Foulkes estimate   =   -2116.54560980 Ry
     estimated scf accuracy    <       0.00000303 Ry

     iteration # 17     ecut=    36.75 Ry     beta=0.10
     Davidson diagonalization with overlap
     ethr =  1.74E-09,  avg # of iterations =  2.0

[...]

     negative rho (up, down):  7.688E-01 0.000E+00

     Adding external electric field

     Computed dipole along edir(3) :
        Dipole                0.0443 Ry au,          0.1127 Debye
        Dipole field          0.0001 Ry au

        Potential amp.       -0.0100 Ry
        Total length         45.4046 bohr

     End of self-consistent calculation

[...]

          k = 0.0587-0.0520 0.0000 ( 19036 PWs)   bands (ev):

[...]

          k =-0.0880-0.0621 0.0000 ( 18980 PWs)   bands (ev):

   -78.2387 -78.2360 -78.2182 -78.2154 -78.2150 -78.2118 -40.0788 -40.0533
   -40.0373 -40.0178 -39.9998 -39.9841 -39.9733 -39.9653 -39.9504 -39.9168
   -39.9087 -39.8960 -39.8960 -39.8887 -39.8849 -39.8710 -39.8708 -39.8613
   -19.7709 -19.7445 -19.7246 -19.6924 -19.6903 -19.6875 -19.6814 -19.6734
   -19.6608 -19.6555 -19.6510 -19.6361 -19.6291 -19.6273 -19.6266 -19.6127
   -19.6050 -19.5991 -19.5902 -19.5769 -19.5672 -19.5639 -19.5604 -19.5396
   -19.5307 -19.5248 -19.5088 -19.5085 -19.4783 -19.4361  -7.4388  -7.1283
    -6.0848  -6.0751  -4.8646  -4.6388  -4.5261  -3.4502  -3.1130  -2.9281
    -2.7618  -2.6921  -2.3157  -1.4426  -1.3889  -0.7027  -0.4819  -0.4710
    -0.2909  -0.2695   0.1577   0.2112   0.2831   0.3388   0.5677   0.9692
     1.0455   1.1282   1.4126   1.7113   2.0305   2.0685   2.2480   2.3930
     2.4261   2.4644   2.5596   2.9077   3.1292   3.7493   3.8414   3.8959
     4.0967   4.3848   4.6082   4.9930   5.3904   5.9968   6.2277   6.2290
     6.9566   7.1339   7.1845   7.4978   7.8486   7.9113   8.0468   8.3150
     8.5060   8.7206   8.8003   8.8019   8.9303

     the Fermi energy is     1.9330 ev

!    total energy              =   -2116.54560830 Ry
     Harris-Foulkes estimate   =   -2116.54560922 Ry
     estimated scf accuracy    <       0.00000068 Ry

     The total energy is the sum of the following terms:

     one-electron contribution =  -14717.85284451 Ry
     hartree contribution      =    7385.68804778 Ry
     xc contribution           =    -592.24591702 Ry
     ewald contribution        =    5807.93858869 Ry
     electric field correction =       0.00000488 Ry
     smearing contrib. (-TS)   =      -0.07348813 Ry

     convergence has been achieved in  17 iterations

 BEEF-vdW xc energy contributions
           1 :   -523.979682808898
           2 :    484.140236762437
           3 :   -414.437105975803
           4 :    330.910646208423
           5 :   -249.946187340741
           6 :    183.219043911427
           7 :   -135.175385648960
           8 :    103.651520311523
           9 :   -82.8530856291487
          10 :    66.9668109603082
          11 :   -52.6742336411080
          12 :    39.6655455860434
          13 :   -29.4242979488741
          14 :    23.3704452790871
          15 :   -21.5499374343872
          16 :    22.4889913334044
          17 :   -24.0468040767571
          18 :    24.5559200457308
          19 :   -23.5172582130217
          20 :    21.5159616331997
          21 :   -19.5548288129069
          22 :    18.3176344177539
          23 :   -17.8268617271478
          24 :    17.6244815269438
          25 :   -17.2452653105382
          26 :    16.5951022255394
          27 :   -15.9794064038481
          28 :    15.8078571117882
          29 :   -16.2315955389345
          30 :    16.9911274814735
          31 :   -44.4903364326618
          32 :   -32.8040374790683

     Forces acting on atoms (Ry/au):

     negative rho (up, down):  7.688E-01 0.000E+00
     atom    1 type  1   force =    -0.00044807   -0.00037383   -0.04376524
     atom    2 type  1   force =    -0.00050726   -0.00030531   -0.04375607
     atom    3 type  2   force =     0.00001736    0.00001397    0.06087265
     atom    4 type  2   force =     0.00000060   -0.00000028    0.06086987
     atom    5 type  1   force =     0.00036663    0.00047218   -0.03929016
     atom    6 type  1   force =     0.00056425    0.00018346   -0.03927174
     atom    7 type  2   force =    -0.00023072   -0.00015991    0.02201727
     atom    8 type  2   force =    -0.00015619   -0.00010969    0.02202410
     atom    9 type  1   force =     0.00019683    0.00014072    0.00002599
     atom   10 type  1   force =     0.00019979    0.00013598    0.00002349
     atom   11 type  2   force =    -0.00001820   -0.00001085    0.00011964
     atom   12 type  2   force =     0.00001497    0.00001355    0.00013021

     Total force =     0.123685     Total SCF correction =     0.002624

     entering subroutine stress ...

     negative rho (up, down):  7.688E-01 0.000E+00
          total   stress  (Ry/bohr**3)                   (kbar)     P=  -23.36
  -0.00022050  -0.00001571   0.00000114        -32.44     -2.31      0.17
  -0.00001571  -0.00020931   0.00000081         -2.31    -30.79      0.12
   0.00000114   0.00000081  -0.00004665          0.17      0.12     -6.86

 !ASE

     Writing output data file calc.save

     General routines

     Parallel routines

   This run was terminated on:   6:47:59  19Dec2018

   JOB DONE.
Job  /afs/slac/g/suncat/bin/suncat-tsmpirun -x LD_LIBRARY_PATH -wdir /scratch/qe530611_B8ePg pw.x -in pw.inp

TID   HOST_NAME   COMMAND_LINE            STATUS            TERMINATION_TIME
00000 suncat2056 pw.x -in pw.inp   Done                     12/19/2018 06:47:59
00001 suncat2056 pw.x -in pw.inp   Done                     12/19/2018 06:47:59
00002 suncat2056 pw.x -in pw.inp   Done                     12/19/2018 06:47:59
00003 suncat2056 pw.x -in pw.inp   Done                     12/19/2018 06:47:59
00004 suncat2056 pw.x -in pw.inp   Done                     12/19/2018 06:47:59
00005 suncat2056 pw.x -in pw.inp   Done                     12/19/2018 06:47:59
00006 suncat2056 pw.x -in pw.inp   Done                     12/19/2018 06:47:59
00007 suncat2056 pw.x -in pw.inp   Done                     12/19/2018 06:47:59
00008 suncat2056 pw.x -in pw.inp   Done                     12/19/2018 06:47:59
00009 suncat2056 pw.x -in pw.inp   Done                     12/19/2018 06:47:59
00010 suncat2056 pw.x -in pw.inp   Done                     12/19/2018 06:47:59
00011 suncat2056 pw.x -in pw.inp   Done                     12/19/2018 06:47:59
00012 suncat2056 pw.x -in pw.inp   Done                     12/19/2018 06:47:59
00013 suncat2056 pw.x -in pw.inp   Done                     12/19/2018 06:47:59
00014 suncat2056 pw.x -in pw.inp   Done                     12/19/2018 06:47:59
00015 suncat2056 pw.x -in pw.inp   Done                     12/19/2018 06:47:59
00016 suncat2055 pw.x -in pw.inp   Done                     12/19/2018 06:47:59
00017 suncat2055 pw.x -in pw.inp   Done                     12/19/2018 06:47:59
00018 suncat2055 pw.x -in pw.inp   Done                     12/19/2018 06:47:59
00019 suncat2055 pw.x -in pw.inp   Done                     12/19/2018 06:47:59
00020 suncat2055 pw.x -in pw.inp   Done                     12/19/2018 06:47:59
00021 suncat2055 pw.x -in pw.inp   Done                     12/19/2018 06:47:59
00022 suncat2055 pw.x -in pw.inp   Done                     12/19/2018 06:47:59
00023 suncat2055 pw.x -in pw.inp   Done                     12/19/2018 06:47:59
00024 suncat2055 pw.x -in pw.inp   Done                     12/19/2018 06:47:59
00025 suncat2055 pw.x -in pw.inp   Done                     12/19/2018 06:47:59
00026 suncat2055 pw.x -in pw.inp   Done                     12/19/2018 06:47:59
00027 suncat2055 pw.x -in pw.inp   Done                     12/19/2018 06:47:59
00028 suncat2055 pw.x -in pw.inp   Done                     12/19/2018 06:47:59
00029 suncat2055 pw.x -in pw.inp   Done                     12/19/2018 06:47:59
00030 suncat2055 pw.x -in pw.inp   Done                     12/19/2018 06:47:59
00031 suncat2055 pw.x -in pw.inp   Done                     12/19/2018 06:47:59