     Program PWSCF v.5.1rc2 (svn rev. 11289) starts on 19Dec2018 at  9:26:36

     Current dimensions of program PWSCF are:
     Max number of different atomic species (ntypx) = 10
     Max number of k-points (npk) =  40000
     Max angular momentum in pseudopotentials (lmaxx) =  3
     Presently stress not available with electric field

     IMPORTANT: XC functional enforced from input :
     Exchange-correlation      = BEEF-VDW ( 1  4 27 13 2)
     Any further DFT definition will be discarded
     Please, verify this is what you really want

     Subspace diagonalization in iterative solution of the eigenvalue problem:
     a serial algorithm will be used

     Found symmetry operation: I + (  0.5000 -0.5000  0.0000)
     This is a supercell, fractional translations are disabled

     Generating pointlists ...
     new r_m :   0.4125 (alat units)  0.7795 (a.u.) for type    1
     new r_m :   0.4125 (alat units)  0.7795 (a.u.) for type    2

     bravais-lattice index     =            0
     lattice parameter (alat)  =       1.8897  a.u.
     unit-cell volume          =    6231.8355 (a.u.)^3
     number of atoms/cell      =           12
     number of atomic types    =            2
     number of electrons       =       162.00
     number of Kohn-Sham states=          111
     kinetic-energy cutoff     =      36.7493  Ry
     charge density cutoff     =     367.4932  Ry
     convergence threshold     =      1.0E-06
     mixing beta               =       0.1000
     number of iterations used =           10  plain     mixing
     Exchange-correlation      = BEEF-VDW ( 1  4 27 13 2)
     nstep                     =           50

     celldm(1)=   1.889726  celldm(2)=   0.000000  celldm(3)=   0.000000
     celldm(4)=   0.000000  celldm(5)=   0.000000  celldm(6)=   0.000000

     crystal axes: (cart. coord. in units of alat)
               a(1) = (   6.247670   0.000000   0.000000 )
               a(2) = (   2.089026   5.888068   0.000000 )
               a(3) = (   0.000000   0.000000  25.103168 )

     reciprocal axes: (cart. coord. in units 2 pi/alat)
               b(1) = (  0.160060 -0.056788  0.000000 )
               b(2) = (  0.000000  0.169835  0.000000 )
               b(3) = (  0.000000  0.000000  0.039836 )

     PseudoPot. # 1 for Fe read from file:
     /afs/slac.stanford.edu/u/if/mamunm/psp/gbrv1.5pbe/Fe.UPF
     MD5 check sum: a130daea23fe5165f5d574ae7f82ed95
     Pseudo is Ultrasoft + core correction, Zval = 16.0
     Generated by new atomic code, or converted to UPF format
     Using radial grid of  861 points,  6 beta functions with:
                l(1) =   0
                l(2) =   0
                l(3) =   1
                l(4) =   1
                l(5) =   2
                l(6) =   2
     Q(r) pseudized with  8 coefficients,  rinner =    1.000   1.000   1.000
                                                       1.000   1.000

     PseudoPot. # 2 for La read from file:
     /afs/slac.stanford.edu/u/if/mamunm/psp/gbrv1.5pbe/La.UPF
     MD5 check sum: 5937b0c7494ba0601a847275249473aa
     Pseudo is Ultrasoft + core correction, Zval = 11.0
     Generated by new atomic code, or converted to UPF format
     Using radial grid of  995 points,  8 beta functions with:
                l(1) =   0
                l(2) =   0
                l(3) =   1
                l(4) =   1
                l(5) =   2
                l(6) =   2
                l(7) =   3
                l(8) =   3
     Q(r) pseudized with  8 coefficients,  rinner =    1.700   1.700   1.700
                                                       1.700   1.700   1.700
                                                       1.700

     vdW kernel table read from file vdW_kernel_table
     MD5 check sum: 095c7af220d748ca6e76c0b4c6cfb241

     atomic species   valence    mass     pseudopotential
        Fe1           16.00    55.84500     Fe( 1.00)
        La1           11.00   138.90547     La( 1.00)

     Starting magnetic structure
     atomic species   magnetization
        Fe1          0.125
        La1          0.182

     No symmetry found

   Cartesian axes

     site n.     atom                  positions (alat units)
         1           Fe1 tau(   1) = (   0.0000000   0.0000000  10.0000000  )
         2           Fe1 tau(   2) = (   4.1683480   2.9440339  10.0000000  )
         3           La1 tau(   3) = (   3.1238348   0.0000000  10.0000000  )
         4           La1 tau(   4) = (   1.0445132   2.9440339  10.0000000  )
         5           Fe1 tau(   5) = (   6.2476695   4.4126237  12.5515838  )
         6           Fe1 tau(   6) = (   2.0793215   1.4685897  12.5515838  )
         7           La1 tau(   7) = (   3.1238348   4.4126237  12.5515838  )
         8           La1 tau(   8) = (   5.2031563   1.4685897  12.5515838  )
         9           Fe1 tau(   9) = (   4.1586431   2.9371795  15.1031676  )
        10           Fe1 tau(  10) = (   8.3269910   5.8812134  15.1031676  )
        11           La1 tau(  11) = (   7.2824778   2.9371795  15.1031676  )
        12           La1 tau(  12) = (   5.2031563   5.8812134  15.1031676  )

     number of k points=    40  Fermi-Dirac smearing, width (Ry)=  0.0110
                       cart. coord. in units 2pi/alat
        k(    1) = (   0.0000000   0.0000000   0.0000000), wk =   0.0277778
        k(    2) = (   0.0000000   0.0283058   0.0000000), wk =   0.0555556
        k(    3) = (   0.0000000   0.0566117   0.0000000), wk =   0.0555556
        k(    4) = (   0.0000000  -0.0849175   0.0000000), wk =   0.0277778
        k(    5) = (   0.0266766  -0.0094646   0.0000000), wk =   0.0555556
        k(    6) = (   0.0266766   0.0188412   0.0000000), wk =   0.0555556
        k(    7) = (   0.0266766   0.0471471   0.0000000), wk =   0.0555556
        k(    8) = (   0.0266766  -0.0943821   0.0000000), wk =   0.0555556
        k(    9) = (   0.0266766  -0.0660763   0.0000000), wk =   0.0555556
        k(   10) = (   0.0266766  -0.0377704   0.0000000), wk =   0.0555556
        k(   11) = (   0.0533532  -0.0189292   0.0000000), wk =   0.0555556
        k(   12) = (   0.0533532   0.0093767   0.0000000), wk =   0.0555556
        k(   13) = (   0.0533532   0.0376825   0.0000000), wk =   0.0555556
        k(   14) = (   0.0533532  -0.1038467   0.0000000), wk =   0.0555556
        k(   15) = (   0.0533532  -0.0755408   0.0000000), wk =   0.0555556
        k(   16) = (   0.0533532  -0.0472350   0.0000000), wk =   0.0555556
        k(   17) = (  -0.0800298   0.0283938   0.0000000), wk =   0.0277778
        k(   18) = (  -0.0800298   0.0566996   0.0000000), wk =   0.0555556
        k(   19) = (  -0.0800298   0.0850054   0.0000000), wk =   0.0555556
        k(   20) = (  -0.0800298  -0.0565237   0.0000000), wk =   0.0277778
        k(   21) = (   0.0000000   0.0000000   0.0000000), wk =   0.0277778
        k(   22) = (   0.0000000   0.0283058   0.0000000), wk =   0.0555556
        k(   23) = (   0.0000000   0.0566117   0.0000000), wk =   0.0555556
        k(   24) = (   0.0000000  -0.0849175   0.0000000), wk =   0.0277778
        k(   25) = (   0.0266766  -0.0094646   0.0000000), wk =   0.0555556
        k(   26) = (   0.0266766   0.0188412   0.0000000), wk =   0.0555556
        k(   27) = (   0.0266766   0.0471471   0.0000000), wk =   0.0555556
        k(   28) = (   0.0266766  -0.0943821   0.0000000), wk =   0.0555556
        k(   29) = (   0.0266766  -0.0660763   0.0000000), wk =   0.0555556
        k(   30) = (   0.0266766  -0.0377704   0.0000000), wk =   0.0555556
        k(   31) = (   0.0533532  -0.0189292   0.0000000), wk =   0.0555556
        k(   32) = (   0.0533532   0.0093767   0.0000000), wk =   0.0555556
        k(   33) = (   0.0533532   0.0376825   0.0000000), wk =   0.0555556
        k(   34) = (   0.0533532  -0.1038467   0.0000000), wk =   0.0555556
        k(   35) = (   0.0533532  -0.0755408   0.0000000), wk =   0.0555556
        k(   36) = (   0.0533532  -0.0472350   0.0000000), wk =   0.0555556
        k(   37) = (  -0.0800298   0.0283938   0.0000000), wk =   0.0277778
        k(   38) = (  -0.0800298   0.0566996   0.0000000), wk =   0.0555556
        k(   39) = (  -0.0800298   0.0850054   0.0000000), wk =   0.0555556
        k(   40) = (  -0.0800298  -0.0565237   0.0000000), wk =   0.0277778

     Largest allocated arrays     est. size (Mb)     dimensions
     Largest temporary arrays     est. size (Mb)     dimensions

     Check: negative/imaginary core charge=   -0.000003    0.000000

     Initial potential from superposition of free atoms
     Check: negative starting charge=(component1):   -0.248705
     Check: negative starting charge=(component2):   -0.172128

     starting charge  155.80755, renormalised to  162.00000

     negative rho (up, down):  2.586E-01 1.790E-01

     *
     * You are using vdW-DF for exchange-correlation in this calculation.
     * Please cite the following three references that made this development
     * possible:
     *
     *   M. Dion, H. Rydberg, E. Schroder, D. C. Langreth, and
     *   B. I. Lundqvist, Phys. Rev. Lett. 92, 246401 (2004).
     *
     *   T. Thonhauser, V. R. Cooper, S. Li, A. Puzder, P. Hyldgaard, and
     *   D. C. Langreth, Phys. Rev. B 76, 125112 (2007).
     *
     *   G. Roman-Perez and J. M. Soler, Phys. Rev. Lett. 103, 096102 (2009).
     *
     *
     * If you are using vdW-DF2, please also cite:
     *
     *   K. Lee, E. D. Murray, L. Kong, B. I. Lundqvist, and
     *   D. C. Langreth, Phys. Rev. B 82, 081101(R) (2010).
     *
     *
     * If you are calculating the stress with vdW-DF, please also cite:
     *
     *   R. Sabatini, E. Kucukbenli, B. Kolb, T. Thonhauser, and
     *   S. de Gironcoli, J. Phys.: Condens. Matter 24, 424209 (2012).
     *

     Carrying out vdW-DF run using the following parameters:

     Nqs =      20    Nr_points =    1024   r_max =   100.000
     q_mesh =
               0.00001000     0.04494208     0.09755937     0.15916263
               0.23128650     0.31572767     0.41458969     0.53033537
               0.66584808     0.82450364     1.01025438     1.22772762
               1.48234092     1.78043706     2.12944203     2.53805004
               3.01644009     3.57652955     4.23227104     5.00000000

     Gradients computed in reciprocal space

     Adding external electric field

     Computed dipole along edir(3) :
        Dipole                0.0000 Ry au,          0.0000 Debye
        Dipole field          0.0000 Ry au

        Potential amp.       -0.0000 Ry
        Total length         46.2522 bohr

[...]

     Starting wfc are  198 randomized atomic wfcs

     Self-consistent Calculation

     iteration #  1     ecut=    36.75 Ry     beta=0.10
     Davidson diagonalization with overlap
     ethr =  1.00E-02,  avg # of iterations =  2.1

[...]

     Magnetic moment per site:
     atom:    1    charge:    7.2208    magn:    0.9085    constr:    0.0000
     atom:    2    charge:    7.2326    magn:    0.9099    constr:    0.0000
     atom:    3    charge:    0.1229    magn:    0.0201    constr:    0.0000
     atom:    4    charge:    0.1229    magn:    0.0201    constr:    0.0000
[...]

     PseudoPot. # 2 for La read from file:
     /afs/slac.stanford.edu/u/if/mamunm/psp/gbrv1.5pbe/La.UPF
     MD5 check sum: 5937b0c7494ba0601a847275249473aa
     Pseudo is Ultrasoft + core correction, Zval = 11.0
     Generated by new atomic code, or converted to UPF format
     Using radial grid of  995 points,  8 beta functions with:
                l(1) =   0
                l(2) =   0
                l(3) =   1
                l(4) =   1
                l(5) =   2
                l(6) =   2
                l(7) =   3
                l(8) =   3
     Q(r) pseudized with  8 coefficients,  rinner =    1.700   1.700   1.700
                                                       1.700   1.700   1.700
                                                       1.700

     vdW kernel table read from file vdW_kernel_table
     MD5 check sum: 095c7af220d748ca6e76c0b4c6cfb241

     atomic species   valence    mass     pseudopotential
        Fe1           16.00    55.84500     Fe( 1.00)
        La1           11.00   138.90547     La( 1.00)

     Starting magnetic structure
     atomic species   magnetization
        Fe1          0.125
        La1          0.182

     No symmetry found

   Cartesian axes

     site n.     atom                  positions (alat units)
         1           Fe1 tau(   1) = (   0.0000000   0.0000000  10.0000000  )
         2           Fe1 tau(   2) = (   4.1683480   2.9440339  10.0000000  )
         3           La1 tau(   3) = (   3.1238348   0.0000000  10.0000000  )
         4           La1 tau(   4) = (   1.0445132   2.9440339  10.0000000  )
         5           Fe1 tau(   5) = (   6.2476695   4.4126237  12.5515838  )
         6           Fe1 tau(   6) = (   2.0793215   1.4685897  12.5515838  )
         7           La1 tau(   7) = (   3.1238348   4.4126237  12.5515838  )
         8           La1 tau(   8) = (   5.2031563   1.4685897  12.5515838  )
         9           Fe1 tau(   9) = (   4.1585223   2.9371349  14.7298191  )
        10           Fe1 tau(  10) = (   8.3226112   5.8780735  14.7296614  )
        11           La1 tau(  11) = (   7.2856021   2.9388768  15.1567511  )
        12           La1 tau(  12) = (   5.2058219   5.8836013  15.1567422  )

     number of k points=    40  Fermi-Dirac smearing, width (Ry)=  0.0110
                       cart. coord. in units 2pi/alat
        k(    1) = (   0.0000000   0.0000000   0.0000000), wk =   0.0277778
        k(    2) = (   0.0000000   0.0283058   0.0000000), wk =   0.0555556
        k(    3) = (   0.0000000   0.0566117   0.0000000), wk =   0.0555556
        k(    4) = (   0.0000000  -0.0849175   0.0000000), wk =   0.0277778
        k(    5) = (   0.0266766  -0.0094646   0.0000000), wk =   0.0555556
        k(    6) = (   0.0266766   0.0188412   0.0000000), wk =   0.0555556
        k(    7) = (   0.0266766   0.0471471   0.0000000), wk =   0.0555556
        k(    8) = (   0.0266766  -0.0943821   0.0000000), wk =   0.0555556
        k(    9) = (   0.0266766  -0.0660763   0.0000000), wk =   0.0555556
        k(   10) = (   0.0266766  -0.0377704   0.0000000), wk =   0.0555556
        k(   11) = (   0.0533532  -0.0189292   0.0000000), wk =   0.0555556
        k(   12) = (   0.0533532   0.0093767   0.0000000), wk =   0.0555556
        k(   13) = (   0.0533532   0.0376825   0.0000000), wk =   0.0555556
        k(   14) = (   0.0533532  -0.1038467   0.0000000), wk =   0.0555556
        k(   15) = (   0.0533532  -0.0755408   0.0000000), wk =   0.0555556
        k(   16) = (   0.0533532  -0.0472350   0.0000000), wk =   0.0555556
        k(   17) = (  -0.0800298   0.0283938   0.0000000), wk =   0.0277778
        k(   18) = (  -0.0800298   0.0566996   0.0000000), wk =   0.0555556
        k(   19) = (  -0.0800298   0.0850054   0.0000000), wk =   0.0555556
        k(   20) = (  -0.0800298  -0.0565237   0.0000000), wk =   0.0277778
        k(   21) = (   0.0000000   0.0000000   0.0000000), wk =   0.0277778
        k(   22) = (   0.0000000   0.0283058   0.0000000), wk =   0.0555556
        k(   23) = (   0.0000000   0.0566117   0.0000000), wk =   0.0555556
        k(   24) = (   0.0000000  -0.0849175   0.0000000), wk =   0.0277778
        k(   25) = (   0.0266766  -0.0094646   0.0000000), wk =   0.0555556
        k(   26) = (   0.0266766   0.0188412   0.0000000), wk =   0.0555556
        k(   27) = (   0.0266766   0.0471471   0.0000000), wk =   0.0555556
        k(   28) = (   0.0266766  -0.0943821   0.0000000), wk =   0.0555556
        k(   29) = (   0.0266766  -0.0660763   0.0000000), wk =   0.0555556
        k(   30) = (   0.0266766  -0.0377704   0.0000000), wk =   0.0555556
        k(   31) = (   0.0533532  -0.0189292   0.0000000), wk =   0.0555556
        k(   32) = (   0.0533532   0.0093767   0.0000000), wk =   0.0555556
        k(   33) = (   0.0533532   0.0376825   0.0000000), wk =   0.0555556
        k(   34) = (   0.0533532  -0.1038467   0.0000000), wk =   0.0555556
        k(   35) = (   0.0533532  -0.0755408   0.0000000), wk =   0.0555556
        k(   36) = (   0.0533532  -0.0472350   0.0000000), wk =   0.0555556
        k(   37) = (  -0.0800298   0.0283938   0.0000000), wk =   0.0277778
        k(   38) = (  -0.0800298   0.0566996   0.0000000), wk =   0.0555556
        k(   39) = (  -0.0800298   0.0850054   0.0000000), wk =   0.0555556
        k(   40) = (  -0.0800298  -0.0565237   0.0000000), wk =   0.0277778

     Largest allocated arrays     est. size (Mb)     dimensions
     Largest temporary arrays     est. size (Mb)     dimensions

     Check: negative/imaginary core charge=   -0.000003    0.000000

     Initial potential from superposition of free atoms
     Check: negative starting charge=(component1):   -0.249028
     Check: negative starting charge=(component2):   -0.172343

     starting charge  155.80755, renormalised to  162.00000

[...]

     *
     * You are using vdW-DF for exchange-correlation in this calculation.
     * Please cite the following three references that made this development
     * possible:
     *
     *   M. Dion, H. Rydberg, E. Schroder, D. C. Langreth, and
     *   B. I. Lundqvist, Phys. Rev. Lett. 92, 246401 (2004).
     *
     *   T. Thonhauser, V. R. Cooper, S. Li, A. Puzder, P. Hyldgaard, and
     *   D. C. Langreth, Phys. Rev. B 76, 125112 (2007).
     *
     *   G. Roman-Perez and J. M. Soler, Phys. Rev. Lett. 103, 096102 (2009).
     *
     *
     * If you are using vdW-DF2, please also cite:
     *
     *   K. Lee, E. D. Murray, L. Kong, B. I. Lundqvist, and
     *   D. C. Langreth, Phys. Rev. B 82, 081101(R) (2010).
     *
     *
     * If you are calculating the stress with vdW-DF, please also cite:
     *
     *   R. Sabatini, E. Kucukbenli, B. Kolb, T. Thonhauser, and
     *   S. de Gironcoli, J. Phys.: Condens. Matter 24, 424209 (2012).
     *

     Carrying out vdW-DF run using the following parameters:

     Nqs =      20    Nr_points =    1024   r_max =   100.000
     q_mesh =
               0.00001000     0.04494208     0.09755937     0.15916263
               0.23128650     0.31572767     0.41458969     0.53033537
               0.66584808     0.82450364     1.01025438     1.22772762
               1.48234092     1.78043706     2.12944203     2.53805004
               3.01644009     3.57652955     4.23227104     5.00000000

     Gradients computed in reciprocal space

[...]

     Starting wfc are  198 randomized atomic wfcs

     Self-consistent Calculation

[...]

     iteration # 28     ecut=    36.75 Ry     beta=0.10
     Davidson diagonalization with overlap
     c_bands:  1 eigenvalues not converged
     ethr =  1.62E-07,  avg # of iterations =  5.2

[...]

     total energy              =   -2131.92703874 Ry
     Harris-Foulkes estimate   =   -2131.92703711 Ry
     estimated scf accuracy    <       0.00000112 Ry

[...]

     iteration # 41     ecut=    36.75 Ry     beta=0.10
     Davidson diagonalization with overlap
     ethr =  6.90E-10,  avg # of iterations =  3.8

[...]

     negative rho (up, down):  1.749E-01 9.568E-02

[...]

     Adding external electric field

     Computed dipole along edir(3) :
        Dipole                0.1233 Ry au,          0.3133 Debye
        Dipole field          0.0002 Ry au

        Potential amp.       -0.0230 Ry
        Total length         46.2522 bohr

     Magnetic moment per site:
     atom:    1    charge:    7.0933    magn:    1.2064    constr:    0.0000
     atom:    2    charge:    7.1052    magn:    1.2085    constr:    0.0000
     atom:    3    charge:    0.1631    magn:   -0.0313    constr:    0.0000
     atom:    4    charge:    0.1631    magn:   -0.0313    constr:    0.0000
     atom:    5    charge:    7.0933    magn:    1.1206    constr:    0.0000
     atom:    6    charge:    7.0883    magn:    1.1192    constr:    0.0000
     atom:    7    charge:    0.1663    magn:   -0.0261    constr:    0.0000
     atom:    8    charge:    0.1663    magn:   -0.0261    constr:    0.0000
     atom:    9    charge:    7.0797    magn:    1.0903    constr:    0.0000
     atom:   10    charge:    7.0995    magn:    1.0930    constr:    0.0000
     atom:   11    charge:    0.1617    magn:   -0.0284    constr:    0.0000
     atom:   12    charge:    0.1617    magn:   -0.0284    constr:    0.0000

     End of self-consistent calculation

 ------ SPIN UP ------------

[...]

 ------ SPIN DOWN ----------

[...]

          k = 0.0534-0.0472 0.0000 ( 23461 PWs)   bands (ev):

[...]

          k =-0.0800-0.0565 0.0000 ( 23456 PWs)   bands (ev):

   -83.6060 -83.6056 -83.5858 -83.5857 -83.5698 -83.5697 -49.7325 -49.7317
   -49.7151 -49.7110 -49.7110 -49.7110 -49.7040 -49.7038 -49.7002 -49.6964
   -49.6925 -49.6914 -49.6785 -49.6781 -49.6721 -49.6719 -49.6659 -49.6622
   -31.4245 -31.3285 -31.3190 -31.2230 -30.5930 -30.4836 -15.5950 -15.5139
   -15.3241 -15.2811 -15.1161 -15.1036 -15.0706 -14.9980 -14.9775 -14.9001
   -14.8836 -14.5606 -14.4673 -14.2604 -14.2265 -14.2157 -14.1140 -13.8217
    -0.9516  -0.7795  -0.4259  -0.2832  -0.1184   0.0994   0.1869   0.2250
     0.4021   0.4128   0.5231   0.6161   0.9625   1.0611   1.0658   1.0972
     1.1462   1.1885   1.3218   1.3515   1.3565   1.3776   1.4623   1.5519
     1.5683   1.5835   1.7329   1.7402   1.7456   1.7691   1.7935   1.8322
     1.8494   1.8957   1.9255   2.0605   2.0859   2.0889   2.1149   2.1621
     2.3521   2.5558   2.7479   2.7912   2.8222   2.8877   2.9698   3.0333
     3.0602   3.1840   3.2411   3.2989   3.3640   3.5043   3.5227   3.5284
     3.6209   3.6685   3.6848   3.6867   3.7027   3.7202   3.7525

     the Fermi energy is     1.7623 ev

!    total energy              =   -2131.92704155 Ry
     Harris-Foulkes estimate   =   -2131.92703795 Ry
     estimated scf accuracy    <       0.00000085 Ry

     The total energy is the sum of the following terms:

     one-electron contribution =  -11274.65877186 Ry
     hartree contribution      =    5646.50256783 Ry
     xc contribution           =    -486.38449029 Ry
     ewald contribution        =    3982.73428513 Ry
     electric field correction =       0.00003063 Ry
     smearing contrib. (-TS)   =      -0.12066300 Ry

     total magnetization       =    10.43 Bohr mag/cell
     absolute magnetization    =    19.96 Bohr mag/cell

     convergence has been achieved in  41 iterations

 BEEF-vdW xc energy contributions
           1 :   -429.043823607037
           2 :    391.996229026375
           3 :   -328.022847692169
           4 :    252.948207010270
           5 :   -182.184040500537
           6 :    125.932054995355
           7 :   -87.5166786153842
           8 :    64.6798809995391
           9 :   -52.4365147984147
          10 :    45.7736248478566
          11 :   -41.1288818041261
          12 :    36.5322033261272
          13 :   -31.0664315534553
          14 :    24.3689727830281
          15 :   -16.5143259552660
          16 :    8.11053451450209
          17 :  -0.282063666550528
          18 :   -5.66101353659462
          19 :    8.74826809363651
          20 :   -8.79103855206108
          21 :    6.48893531401995
          22 :   -3.16572449986882
          23 :   0.268408645748423
          24 :    1.13709943226934
          25 :  -0.690732806520145
          26 :   -1.22134910964530
          27 :    3.69230540441623
          28 :   -5.69773989010457
          29 :    6.51591157356023
          30 :   -6.00458502217600
          31 :   -36.8735102434628
          32 :   -26.2130945892809

     Forces acting on atoms (Ry/au):

     negative rho (up, down):  1.749E-01 9.568E-02
     atom    1 type  1   force =     0.00007265    0.00005179    0.01833388
     atom    2 type  1   force =     0.00011205    0.00007896    0.01834229
     atom    3 type  2   force =    -0.00029876   -0.00017953   -0.01324436
     atom    4 type  2   force =    -0.00026899   -0.00022134   -0.01324416
     atom    5 type  1   force =     0.00024807    0.00017519    0.01062093
     atom    6 type  1   force =     0.00005363    0.00003769    0.01041983
     atom    7 type  2   force =     0.00010528    0.00013596   -0.01554784
     atom    8 type  2   force =     0.00016414    0.00005389   -0.01554585
     atom    9 type  1   force =    -0.00001101   -0.00000825   -0.00027556
     atom   10 type  1   force =    -0.00014407   -0.00010168   -0.00024217
     atom   11 type  2   force =    -0.00005881    0.00004833    0.00019101
     atom   12 type  2   force =     0.00002583   -0.00007101    0.00019199

     Total force =     0.041579     Total SCF correction =     0.002123

     entering subroutine stress ...

     negative rho (up, down):  1.749E-01 9.568E-02
          total   stress  (Ry/bohr**3)                   (kbar)     P=   -6.09
  -0.00007109  -0.00003570   0.00000022        -10.46     -5.25      0.03
  -0.00003570  -0.00004576   0.00000015         -5.25     -6.73      0.02
   0.00000022   0.00000015  -0.00000734          0.03      0.02     -1.08

 !ASE

     Writing output data file calc.save

     General routines

     Parallel routines

   This run was terminated on:  19:43:56  19Dec2018

   JOB DONE.
Job  /afs/slac/g/suncat/bin/suncat-tsmpirun -x LD_LIBRARY_PATH -wdir /scratch/qe529928_IOk9T pw.x -in pw.inp

TID   HOST_NAME   COMMAND_LINE            STATUS            TERMINATION_TIME
00000 suncat1014 pw.x -in pw.inp   Done                     12/19/2018 19:43:56
00001 suncat1014 pw.x -in pw.inp   Done                     12/19/2018 19:43:56
00002 suncat1014 pw.x -in pw.inp   Done                     12/19/2018 19:43:56
00003 suncat1014 pw.x -in pw.inp   Done                     12/19/2018 19:43:56
00004 suncat1014 pw.x -in pw.inp   Done                     12/19/2018 19:43:56
00005 suncat1014 pw.x -in pw.inp   Done                     12/19/2018 19:43:56
00006 suncat1014 pw.x -in pw.inp   Done                     12/19/2018 19:43:56
00007 suncat1014 pw.x -in pw.inp   Done                     12/19/2018 19:43:56
00008 suncat1012 pw.x -in pw.inp   Done                     12/19/2018 19:43:56
00009 suncat1012 pw.x -in pw.inp   Done                     12/19/2018 19:43:56
00010 suncat1012 pw.x -in pw.inp   Done                     12/19/2018 19:43:56
00011 suncat1012 pw.x -in pw.inp   Done                     12/19/2018 19:43:56
00012 suncat1012 pw.x -in pw.inp   Done                     12/19/2018 19:43:56
00013 suncat1012 pw.x -in pw.inp   Done                     12/19/2018 19:43:56
00014 suncat1012 pw.x -in pw.inp   Done                     12/19/2018 19:43:56
00015 suncat1012 pw.x -in pw.inp   Done                     12/19/2018 19:43:56
00016 suncat1012 pw.x -in pw.inp   Done                     12/19/2018 19:43:56
00017 suncat1012 pw.x -in pw.inp   Done                     12/19/2018 19:43:56
00018 suncat1012 pw.x -in pw.inp   Done                     12/19/2018 19:43:56
00019 suncat1012 pw.x -in pw.inp   Done                     12/19/2018 19:43:56
00020 suncat1011 pw.x -in pw.inp   Done                     12/19/2018 19:43:56
00021 suncat1011 pw.x -in pw.inp   Done                     12/19/2018 19:43:56
00022 suncat1011 pw.x -in pw.inp   Done                     12/19/2018 19:43:56
00023 suncat1011 pw.x -in pw.inp   Done                     12/19/2018 19:43:56
00024 suncat1011 pw.x -in pw.inp   Done                     12/19/2018 19:43:56
00025 suncat1011 pw.x -in pw.inp   Done                     12/19/2018 19:43:56
00026 suncat1011 pw.x -in pw.inp   Done                     12/19/2018 19:43:56
00027 suncat1011 pw.x -in pw.inp   Done                     12/19/2018 19:43:56
00028 suncat1011 pw.x -in pw.inp   Done                     12/19/2018 19:43:56
00029 suncat1011 pw.x -in pw.inp   Done                     12/19/2018 19:43:56
00030 suncat1011 pw.x -in pw.inp   Done                     12/19/2018 19:43:56
00031 suncat1011 pw.x -in pw.inp   Done                     12/19/2018 19:43:56