     Program PWSCF v.5.1rc2 (svn rev. 11289) starts on 18Dec2018 at 16:51:56

     Current dimensions of program PWSCF are:
     Max number of different atomic species (ntypx) = 10
     Max number of k-points (npk) =  40000
     Max angular momentum in pseudopotentials (lmaxx) =  3
     Presently stress not available with electric field

     IMPORTANT: XC functional enforced from input :
     Exchange-correlation      = BEEF-VDW ( 1  4 27 13 2)
     Any further DFT definition will be discarded
     Please, verify this is what you really want

     Subspace diagonalization in iterative solution of the eigenvalue problem:
     a serial algorithm will be used

     Found symmetry operation: I + ( -0.5000 -0.5000  0.0000)
     This is a supercell, fractional translations are disabled

     Generating pointlists ...
     new r_m :   0.4125 (alat units)  0.7795 (a.u.) for type    1
     new r_m :   0.4125 (alat units)  0.7795 (a.u.) for type    2

     bravais-lattice index     =            0
     lattice parameter (alat)  =       1.8897  a.u.
     unit-cell volume          =    4204.3770 (a.u.)^3
     number of atoms/cell      =           12
     number of atomic types    =            2
     number of electrons       =       180.00
     number of Kohn-Sham states=          120
     kinetic-energy cutoff     =      36.7493  Ry
     charge density cutoff     =     367.4932  Ry
     convergence threshold     =      1.0E-06
     mixing beta               =       0.1000
     number of iterations used =           10  plain     mixing
     Exchange-correlation      = BEEF-VDW ( 1  4 27 13 2)
     nstep                     =           50

     celldm(1)=   1.889726  celldm(2)=   0.000000  celldm(3)=   0.000000
     celldm(4)=   0.000000  celldm(5)=   0.000000  celldm(6)=   0.000000

     crystal axes: (cart. coord. in units of alat)
               a(1) = (   5.302402   0.000000   0.000000 )
               a(2) = (   2.216324   4.816989   0.000000 )
               a(3) = (   0.000000   0.000000  24.392525 )

     reciprocal axes: (cart. coord. in units 2 pi/alat)
               b(1) = (  0.188594 -0.086773  0.000000 )
               b(2) = (  0.000000  0.207599  0.000000 )
               b(3) = (  0.000000  0.000000  0.040996 )

     PseudoPot. # 1 for Mn read from file:
     /afs/slac.stanford.edu/u/if/mamunm/psp/gbrv1.5pbe/Mn.UPF
     MD5 check sum: 82ef2b46521d7a7d9e736dc3972e4928
     Pseudo is Ultrasoft + core correction, Zval = 15.0
     Generated by new atomic code, or converted to UPF format
     Using radial grid of  859 points,  6 beta functions with:
                l(1) =   0
                l(2) =   0
                l(3) =   1
                l(4) =   1
                l(5) =   2
                l(6) =   2
     Q(r) pseudized with  8 coefficients,  rinner =    0.950   0.950   0.950
                                                       0.950   0.950

     PseudoPot. # 2 for Ir read from file:
     /afs/slac.stanford.edu/u/if/mamunm/psp/gbrv1.5pbe/Ir.UPF
     MD5 check sum: 8836f839c3459d2b385c504ce6d91f2c
     Pseudo is Ultrasoft + core correction, Zval = 15.0
     Generated by new atomic code, or converted to UPF format
     Using radial grid of  983 points,  7 beta functions with:
                l(1) =   0
                l(2) =   0
                l(3) =   1
                l(4) =   1
                l(5) =   1
                l(6) =   2
                l(7) =   2
     Q(r) pseudized with  8 coefficients,  rinner =    1.400   1.400   1.400
                                                       1.400   1.400

     vdW kernel table read from file vdW_kernel_table
     MD5 check sum: 095c7af220d748ca6e76c0b4c6cfb241

     atomic species   valence    mass     pseudopotential
        Mn1           15.00    54.93804     Mn( 1.00)
        Ir1           15.00   192.21700     Ir( 1.00)

     Starting magnetic structure
     atomic species   magnetization
        Mn1          0.133
        Ir1          0.133

     No symmetry found

   Cartesian axes

     site n.     atom                  positions (alat units)
         1           Mn1 tau(   1) = (   0.0000000   0.0000000  10.0000000  )
         2           Mn1 tau(   2) = (   3.7593629   2.4084943  10.0000000  )
         3           Ir1 tau(   3) = (   2.6512011   0.0000000  10.0000000  )
         4           Ir1 tau(   4) = (   1.1081618   2.4084943  10.0000000  )
         5           Mn1 tau(   5) = (   5.3024022   3.3970665  12.1962627  )
         6           Mn1 tau(   6) = (   1.5430393   0.9885722  12.1962627  )
         7           Ir1 tau(   7) = (   2.6512011   3.3970665  12.1962627  )
         8           Ir1 tau(   8) = (   4.1942405   0.9885722  12.1962627  )
         9           Mn1 tau(   9) = (   3.0860787   1.9771443  14.3925254  )
        10           Mn1 tau(  10) = (   6.8454416   4.3856386  14.3925254  )
        11           Ir1 tau(  11) = (   5.7372798   1.9771443  14.3925254  )
        12           Ir1 tau(  12) = (   4.1942405   4.3856386  14.3925254  )

     number of k points=    40  Fermi-Dirac smearing, width (Ry)=  0.0110
                       cart. coord. in units 2pi/alat
        k(    1) = (   0.0000000   0.0000000   0.0000000), wk =   0.0277778
        k(    2) = (   0.0000000   0.0345998   0.0000000), wk =   0.0555556
        k(    3) = (   0.0000000   0.0691995   0.0000000), wk =   0.0555556
        k(    4) = (   0.0000000  -0.1037993   0.0000000), wk =   0.0277778
        k(    5) = (   0.0314323  -0.0144622   0.0000000), wk =   0.0555556
        k(    6) = (   0.0314323   0.0201376   0.0000000), wk =   0.0555556
        k(    7) = (   0.0314323   0.0547374   0.0000000), wk =   0.0555556
        k(    8) = (   0.0314323  -0.1182615   0.0000000), wk =   0.0555556
        k(    9) = (   0.0314323  -0.0836617   0.0000000), wk =   0.0555556
        k(   10) = (   0.0314323  -0.0490619   0.0000000), wk =   0.0555556
        k(   11) = (   0.0628646  -0.0289244   0.0000000), wk =   0.0555556
        k(   12) = (   0.0628646   0.0056754   0.0000000), wk =   0.0555556
        k(   13) = (   0.0628646   0.0402752   0.0000000), wk =   0.0555556
        k(   14) = (   0.0628646  -0.1327236   0.0000000), wk =   0.0555556
        k(   15) = (   0.0628646  -0.0981239   0.0000000), wk =   0.0555556
        k(   16) = (   0.0628646  -0.0635241   0.0000000), wk =   0.0555556
        k(   17) = (  -0.0942969   0.0433865   0.0000000), wk =   0.0277778
        k(   18) = (  -0.0942969   0.0779863   0.0000000), wk =   0.0555556
        k(   19) = (  -0.0942969   0.1125861   0.0000000), wk =   0.0555556
        k(   20) = (  -0.0942969  -0.0604128   0.0000000), wk =   0.0277778
        k(   21) = (   0.0000000   0.0000000   0.0000000), wk =   0.0277778
        k(   22) = (   0.0000000   0.0345998   0.0000000), wk =   0.0555556
        k(   23) = (   0.0000000   0.0691995   0.0000000), wk =   0.0555556
        k(   24) = (   0.0000000  -0.1037993   0.0000000), wk =   0.0277778
        k(   25) = (   0.0314323  -0.0144622   0.0000000), wk =   0.0555556
        k(   26) = (   0.0314323   0.0201376   0.0000000), wk =   0.0555556
        k(   27) = (   0.0314323   0.0547374   0.0000000), wk =   0.0555556
        k(   28) = (   0.0314323  -0.1182615   0.0000000), wk =   0.0555556
        k(   29) = (   0.0314323  -0.0836617   0.0000000), wk =   0.0555556
        k(   30) = (   0.0314323  -0.0490619   0.0000000), wk =   0.0555556
        k(   31) = (   0.0628646  -0.0289244   0.0000000), wk =   0.0555556
        k(   32) = (   0.0628646   0.0056754   0.0000000), wk =   0.0555556
        k(   33) = (   0.0628646   0.0402752   0.0000000), wk =   0.0555556
        k(   34) = (   0.0628646  -0.1327236   0.0000000), wk =   0.0555556
        k(   35) = (   0.0628646  -0.0981239   0.0000000), wk =   0.0555556
        k(   36) = (   0.0628646  -0.0635241   0.0000000), wk =   0.0555556
        k(   37) = (  -0.0942969   0.0433865   0.0000000), wk =   0.0277778
        k(   38) = (  -0.0942969   0.0779863   0.0000000), wk =   0.0555556
        k(   39) = (  -0.0942969   0.1125861   0.0000000), wk =   0.0555556
        k(   40) = (  -0.0942969  -0.0604128   0.0000000), wk =   0.0277778

     Largest allocated arrays     est. size (Mb)     dimensions
     Largest temporary arrays     est. size (Mb)     dimensions

     Check: negative/imaginary core charge=   -0.000005    0.000000

     Initial potential from superposition of free atoms
     Check: negative starting charge=(component1):   -1.232994
     Check: negative starting charge=(component2):   -0.942878

     starting charge  173.99930, renormalised to  180.00000

     negative rho (up, down):  1.276E+00 9.754E-01

     *
     * You are using vdW-DF for exchange-correlation in this calculation.
     * Please cite the following three references that made this development
     * possible:
     *
     *   M. Dion, H. Rydberg, E. Schroder, D. C. Langreth, and
     *   B. I. Lundqvist, Phys. Rev. Lett. 92, 246401 (2004).
     *
     *   T. Thonhauser, V. R. Cooper, S. Li, A. Puzder, P. Hyldgaard, and
     *   D. C. Langreth, Phys. Rev. B 76, 125112 (2007).
     *
     *   G. Roman-Perez and J. M. Soler, Phys. Rev. Lett. 103, 096102 (2009).
     *
     *
     * If you are using vdW-DF2, please also cite:
     *
     *   K. Lee, E. D. Murray, L. Kong, B. I. Lundqvist, and
     *   D. C. Langreth, Phys. Rev. B 82, 081101(R) (2010).
     *
     *
     * If you are calculating the stress with vdW-DF, please also cite:
     *
     *   R. Sabatini, E. Kucukbenli, B. Kolb, T. Thonhauser, and
     *   S. de Gironcoli, J. Phys.: Condens. Matter 24, 424209 (2012).
     *

     Carrying out vdW-DF run using the following parameters:

     Nqs =      20    Nr_points =    1024   r_max =   100.000
     q_mesh =
               0.00001000     0.04494208     0.09755937     0.15916263
               0.23128650     0.31572767     0.41458969     0.53033537
               0.66584808     0.82450364     1.01025438     1.22772762
               1.48234092     1.78043706     2.12944203     2.53805004
               3.01644009     3.57652955     4.23227104     5.00000000

     Gradients computed in reciprocal space

     Adding external electric field

     Computed dipole along edir(3) :
        Dipole                0.0000 Ry au,          0.0000 Debye
        Dipole field          0.0000 Ry au

        Potential amp.       -0.0000 Ry
        Total length         44.9428 bohr

[...]

     Starting wfc are  150 randomized atomic wfcs

     Self-consistent Calculation

     iteration #  1     ecut=    36.75 Ry     beta=0.10
     Davidson diagonalization with overlap
     ethr =  1.00E-02,  avg # of iterations =  8.8

[...]

     Magnetic moment per site:
     atom:    1    charge:    6.1216    magn:    0.8044    constr:    0.0000
     atom:    2    charge:    6.1216    magn:    0.8044    constr:    0.0000
     atom:    3    charge:    1.5990    magn:    0.1958    constr:    0.0000
     atom:    4    charge:    1.5990    magn:    0.1958    constr:    0.0000
     atom:    5    charge:    6.1255    magn:    0.7998    constr:    0.0000
     atom:    6    charge:    6.1255    magn:    0.7998    constr:    0.0000
[...]
                l(5) =   2
                l(6) =   2
     Q(r) pseudized with  8 coefficients,  rinner =    0.950   0.950   0.950
                                                       0.950   0.950

     PseudoPot. # 2 for Ir read from file:
     /afs/slac.stanford.edu/u/if/mamunm/psp/gbrv1.5pbe/Ir.UPF
     MD5 check sum: 8836f839c3459d2b385c504ce6d91f2c
     Pseudo is Ultrasoft + core correction, Zval = 15.0
     Generated by new atomic code, or converted to UPF format
     Using radial grid of  983 points,  7 beta functions with:
                l(1) =   0
                l(2) =   0
                l(3) =   1
                l(4) =   1
                l(5) =   1
                l(6) =   2
                l(7) =   2
     Q(r) pseudized with  8 coefficients,  rinner =    1.400   1.400   1.400
                                                       1.400   1.400

     vdW kernel table read from file vdW_kernel_table
     MD5 check sum: 095c7af220d748ca6e76c0b4c6cfb241

     atomic species   valence    mass     pseudopotential
        Mn1           15.00    54.93804     Mn( 1.00)
        Ir1           15.00   192.21700     Ir( 1.00)

     Starting magnetic structure
     atomic species   magnetization
        Mn1          0.133
        Ir1          0.133

     No symmetry found

   Cartesian axes

     site n.     atom                  positions (alat units)
         1           Mn1 tau(   1) = (   0.0000000   0.0000000  10.0000000  )
         2           Mn1 tau(   2) = (   3.7593629   2.4084943  10.0000000  )
         3           Ir1 tau(   3) = (   2.6512011   0.0000000  10.0000000  )
         4           Ir1 tau(   4) = (   1.1081618   2.4084943  10.0000000  )
         5           Mn1 tau(   5) = (   5.3024022   3.3970665  12.1962627  )
         6           Mn1 tau(   6) = (   1.5430393   0.9885722  12.1962627  )
         7           Ir1 tau(   7) = (   2.6512011   3.3970665  12.1962627  )
         8           Ir1 tau(   8) = (   4.1942405   0.9885722  12.1962627  )
         9           Mn1 tau(   9) = (   3.4339760   2.2000318  14.5277954  )
        10           Mn1 tau(  10) = (   7.1930678   4.6083500  14.5277320  )
        11           Ir1 tau(  11) = (   6.0890340   2.2027032  14.2464583  )
        12           Ir1 tau(  12) = (   4.5461790   4.6109119  14.2464578  )

     number of k points=    40  Fermi-Dirac smearing, width (Ry)=  0.0110
                       cart. coord. in units 2pi/alat
        k(    1) = (   0.0000000   0.0000000   0.0000000), wk =   0.0277778
        k(    2) = (   0.0000000   0.0345998   0.0000000), wk =   0.0555556
        k(    3) = (   0.0000000   0.0691995   0.0000000), wk =   0.0555556
        k(    4) = (   0.0000000  -0.1037993   0.0000000), wk =   0.0277778
        k(    5) = (   0.0314323  -0.0144622   0.0000000), wk =   0.0555556
        k(    6) = (   0.0314323   0.0201376   0.0000000), wk =   0.0555556
        k(    7) = (   0.0314323   0.0547374   0.0000000), wk =   0.0555556
        k(    8) = (   0.0314323  -0.1182615   0.0000000), wk =   0.0555556
        k(    9) = (   0.0314323  -0.0836617   0.0000000), wk =   0.0555556
        k(   10) = (   0.0314323  -0.0490619   0.0000000), wk =   0.0555556
        k(   11) = (   0.0628646  -0.0289244   0.0000000), wk =   0.0555556
        k(   12) = (   0.0628646   0.0056754   0.0000000), wk =   0.0555556
        k(   13) = (   0.0628646   0.0402752   0.0000000), wk =   0.0555556
        k(   14) = (   0.0628646  -0.1327236   0.0000000), wk =   0.0555556
        k(   15) = (   0.0628646  -0.0981239   0.0000000), wk =   0.0555556
        k(   16) = (   0.0628646  -0.0635241   0.0000000), wk =   0.0555556
        k(   17) = (  -0.0942969   0.0433865   0.0000000), wk =   0.0277778
        k(   18) = (  -0.0942969   0.0779863   0.0000000), wk =   0.0555556
        k(   19) = (  -0.0942969   0.1125861   0.0000000), wk =   0.0555556
        k(   20) = (  -0.0942969  -0.0604128   0.0000000), wk =   0.0277778
        k(   21) = (   0.0000000   0.0000000   0.0000000), wk =   0.0277778
        k(   22) = (   0.0000000   0.0345998   0.0000000), wk =   0.0555556
        k(   23) = (   0.0000000   0.0691995   0.0000000), wk =   0.0555556
        k(   24) = (   0.0000000  -0.1037993   0.0000000), wk =   0.0277778
        k(   25) = (   0.0314323  -0.0144622   0.0000000), wk =   0.0555556
        k(   26) = (   0.0314323   0.0201376   0.0000000), wk =   0.0555556
        k(   27) = (   0.0314323   0.0547374   0.0000000), wk =   0.0555556
        k(   28) = (   0.0314323  -0.1182615   0.0000000), wk =   0.0555556
        k(   29) = (   0.0314323  -0.0836617   0.0000000), wk =   0.0555556
        k(   30) = (   0.0314323  -0.0490619   0.0000000), wk =   0.0555556
        k(   31) = (   0.0628646  -0.0289244   0.0000000), wk =   0.0555556
        k(   32) = (   0.0628646   0.0056754   0.0000000), wk =   0.0555556
        k(   33) = (   0.0628646   0.0402752   0.0000000), wk =   0.0555556
        k(   34) = (   0.0628646  -0.1327236   0.0000000), wk =   0.0555556
        k(   35) = (   0.0628646  -0.0981239   0.0000000), wk =   0.0555556
        k(   36) = (   0.0628646  -0.0635241   0.0000000), wk =   0.0555556
        k(   37) = (  -0.0942969   0.0433865   0.0000000), wk =   0.0277778
        k(   38) = (  -0.0942969   0.0779863   0.0000000), wk =   0.0555556
        k(   39) = (  -0.0942969   0.1125861   0.0000000), wk =   0.0555556
        k(   40) = (  -0.0942969  -0.0604128   0.0000000), wk =   0.0277778

     Largest allocated arrays     est. size (Mb)     dimensions
     Largest temporary arrays     est. size (Mb)     dimensions

     Check: negative/imaginary core charge=   -0.000005    0.000000

     Initial potential from superposition of free atoms
     Check: negative starting charge=(component1):   -1.233065
     Check: negative starting charge=(component2):   -0.942932

     starting charge  173.99930, renormalised to  180.00000

[...]

     *
     * You are using vdW-DF for exchange-correlation in this calculation.
     * Please cite the following three references that made this development
     * possible:
     *
     *   M. Dion, H. Rydberg, E. Schroder, D. C. Langreth, and
     *   B. I. Lundqvist, Phys. Rev. Lett. 92, 246401 (2004).
     *
     *   T. Thonhauser, V. R. Cooper, S. Li, A. Puzder, P. Hyldgaard, and
     *   D. C. Langreth, Phys. Rev. B 76, 125112 (2007).
     *
     *   G. Roman-Perez and J. M. Soler, Phys. Rev. Lett. 103, 096102 (2009).
     *
     *
     * If you are using vdW-DF2, please also cite:
     *
     *   K. Lee, E. D. Murray, L. Kong, B. I. Lundqvist, and
     *   D. C. Langreth, Phys. Rev. B 82, 081101(R) (2010).
     *
     *
     * If you are calculating the stress with vdW-DF, please also cite:
     *
     *   R. Sabatini, E. Kucukbenli, B. Kolb, T. Thonhauser, and
     *   S. de Gironcoli, J. Phys.: Condens. Matter 24, 424209 (2012).
     *

     Carrying out vdW-DF run using the following parameters:

     Nqs =      20    Nr_points =    1024   r_max =   100.000
     q_mesh =
               0.00001000     0.04494208     0.09755937     0.15916263
               0.23128650     0.31572767     0.41458969     0.53033537
               0.66584808     0.82450364     1.01025438     1.22772762
               1.48234092     1.78043706     2.12944203     2.53805004
               3.01644009     3.57652955     4.23227104     5.00000000

     Gradients computed in reciprocal space

[...]

     Starting wfc are  150 randomized atomic wfcs

     Self-consistent Calculation

[...]

     total energy              =   -2372.73813341 Ry
     Harris-Foulkes estimate   =   -2372.73813125 Ry
     estimated scf accuracy    <       0.00000152 Ry

[...]

     iteration # 27     ecut=    36.75 Ry     beta=0.10
     Davidson diagonalization with overlap
     ethr =  8.47E-10,  avg # of iterations =  1.7

[...]

     negative rho (up, down):  9.857E-01 9.567E-01

[...]

     Adding external electric field

     Computed dipole along edir(3) :
        Dipole                0.0428 Ry au,          0.1087 Debye
        Dipole field          0.0001 Ry au

        Potential amp.       -0.0115 Ry
        Total length         44.9428 bohr

     Magnetic moment per site:
     atom:    1    charge:    6.0118    magn:    1.4560    constr:    0.0000
     atom:    2    charge:    6.0118    magn:    1.4560    constr:    0.0000
     atom:    3    charge:    1.6110    magn:   -0.0004    constr:    0.0000
     atom:    4    charge:    1.6110    magn:   -0.0004    constr:    0.0000
     atom:    5    charge:    6.0065    magn:    1.2759    constr:    0.0000
     atom:    6    charge:    6.0065    magn:    1.2760    constr:    0.0000
     atom:    7    charge:    1.6192    magn:    0.0043    constr:    0.0000
     atom:    8    charge:    1.6192    magn:    0.0043    constr:    0.0000
     atom:    9    charge:    6.0060    magn:    1.4935    constr:    0.0000
     atom:   10    charge:    6.0060    magn:    1.4934    constr:    0.0000
     atom:   11    charge:    1.6122    magn:   -0.0016    constr:    0.0000
     atom:   12    charge:    1.6122    magn:   -0.0016    constr:    0.0000

     End of self-consistent calculation

 ------ SPIN UP ------------

[...]

 ------ SPIN DOWN ----------

[...]

          k = 0.0629-0.0635 0.0000 ( 15787 PWs)   bands (ev):

[...]

          k =-0.0943-0.0604 0.0000 ( 15834 PWs)   bands (ev):

   -76.0336 -76.0246 -75.5784 -75.5694 -75.4908 -75.4819 -47.4432 -47.3653
   -47.3411 -47.3237 -47.3119 -47.2834 -47.2046 -47.1831 -47.1242 -47.1021
   -47.1021 -47.0818 -47.0773 -47.0402 -47.0185 -46.9471 -46.9131 -46.8893
   -44.8596 -44.8475 -44.8471 -44.7686 -44.7469 -44.7371 -44.4353 -44.4332
   -44.4230 -44.3511 -44.3361 -44.3353 -44.3262 -44.2627 -44.2551 -44.2506
   -44.1797 -44.1717  -4.7729  -4.3729  -3.7951  -3.2545  -2.8837  -2.6994
    -2.5211  -2.4898  -2.4417  -2.1103  -2.0914  -1.8742  -1.7916  -1.6262
    -1.5924  -1.5322  -1.3192  -1.0380  -0.9227  -0.8628  -0.8046  -0.7587
    -0.4510  -0.0606  -0.0204   0.0014   0.0045   0.3043   0.3077   0.6845
     0.7127   0.8429   1.0303   1.0564   1.1210   1.1215   1.2975   1.3466
     1.5333   1.7048   1.8219   1.8940   2.0944   2.2604   2.3158   2.3411
     2.4914   2.7003   2.7225   2.7346   2.9680   3.0840   3.1476   3.2156
     3.2316   3.2793   3.2913   3.5000   3.6885   3.8107   3.8749   3.9558
     4.0677   4.1355   4.5144   4.5608   4.7307   5.1047   5.1687   5.6265
     6.0800   6.3169   6.7625   7.3866   7.6232   7.7496   8.2613   8.3271

     the Fermi energy is     1.6697 ev

!    total energy              =   -2372.73814216 Ry
     Harris-Foulkes estimate   =   -2372.73813377 Ry
     estimated scf accuracy    <       0.00000069 Ry

     The total energy is the sum of the following terms:

     one-electron contribution =  -19427.21952529 Ry
     hartree contribution      =    9726.62454709 Ry
     xc contribution           =    -477.80403087 Ry
     ewald contribution        =    7805.73843578 Ry
     electric field correction =       0.00000547 Ry
     smearing contrib. (-TS)   =      -0.07757434 Ry

     total magnetization       =    21.53 Bohr mag/cell
     absolute magnetization    =    22.68 Bohr mag/cell

     convergence has been achieved in  27 iterations

 BEEF-vdW xc energy contributions
           1 :   -421.171944289013
           2 :    387.710634045028
           3 :   -329.774022609433
           4 :    261.246486636987
           5 :   -195.491052216614
           6 :    141.396243287748
           7 :   -102.126460284064
           8 :    76.1600579231156
           9 :   -59.4567078104549
          10 :    47.6095175793346
          11 :   -37.2888267376712
          12 :    26.8123423544891
          13 :   -16.0550015942509
          14 :    5.95832036749124
          15 :    2.16804383964995
          16 :   -7.36329543832733
          17 :    9.48739849973219
          18 :   -9.25538228365701
          19 :    7.86106218776581
          20 :   -6.44713525721130
          21 :    5.71273008900289
          22 :   -5.81639724732872
          23 :    6.52314014701028
          24 :   -7.43323578263806
          25 :    8.15059909513116
          26 :   -8.36719432737846
          27 :    7.91382651262074
          28 :   -6.81906305799839
          29 :    5.34374057300113
          30 :   -3.92967990358954
          31 :   -36.6616201926082
          32 :   -26.8787850539214

     Forces acting on atoms (Ry/au):

     negative rho (up, down):  9.857E-01 9.567E-01
     atom    1 type  1   force =    -0.00280478   -0.00179696   -0.01995580
     atom    2 type  1   force =    -0.00280023   -0.00179394   -0.01995853
     atom    3 type  2   force =    -0.00186502   -0.00120084    0.03434455
     atom    4 type  2   force =    -0.00187045   -0.00119231    0.03434478
     atom    5 type  1   force =     0.00374427    0.00239858   -0.02816754
     atom    6 type  1   force =     0.00374497    0.00239956   -0.02811085
     atom    7 type  2   force =     0.00080506    0.00051167    0.01267801
     atom    8 type  2   force =     0.00080145    0.00051759    0.01267803
     atom    9 type  1   force =     0.00038527    0.00024643    0.00029621
     atom   10 type  1   force =     0.00050125    0.00032137    0.00030861
     atom   11 type  2   force =    -0.00026518   -0.00029237    0.00077110
     atom   12 type  2   force =    -0.00037662   -0.00011878    0.00077142

     Total force =     0.071669     Total SCF correction =     0.002598

     entering subroutine stress ...

     negative rho (up, down):  9.857E-01 9.567E-01
          total   stress  (Ry/bohr**3)                   (kbar)     P=  -17.86
  -0.00015347  -0.00000000   0.00000947        -22.58     -0.00      1.39
  -0.00000000  -0.00015347   0.00000606         -0.00    -22.58      0.89
   0.00000947   0.00000606  -0.00005736          1.39      0.89     -8.44

 !ASE

     Writing output data file calc.save

     General routines

     Parallel routines

   This run was terminated on:  18:53: 1  18Dec2018

   JOB DONE.
Job  /afs/slac/g/suncat/bin/suncat-tsmpirun -x LD_LIBRARY_PATH -wdir /scratch/qe530208_Q02On pw.x -in pw.inp

TID   HOST_NAME   COMMAND_LINE            STATUS            TERMINATION_TIME
00000 suncat2044 pw.x -in pw.inp   Done                     12/18/2018 18:53:01
00001 suncat2044 pw.x -in pw.inp   Done                     12/18/2018 18:53:01
00002 suncat2044 pw.x -in pw.inp   Done                     12/18/2018 18:53:01
00003 suncat2044 pw.x -in pw.inp   Done                     12/18/2018 18:53:01
00004 suncat2044 pw.x -in pw.inp   Done                     12/18/2018 18:53:01
00005 suncat2044 pw.x -in pw.inp   Done                     12/18/2018 18:53:01
00006 suncat2044 pw.x -in pw.inp   Done                     12/18/2018 18:53:01
00007 suncat2044 pw.x -in pw.inp   Done                     12/18/2018 18:53:01
00008 suncat2044 pw.x -in pw.inp   Done                     12/18/2018 18:53:01
00009 suncat2044 pw.x -in pw.inp   Done                     12/18/2018 18:53:01
00010 suncat2044 pw.x -in pw.inp   Done                     12/18/2018 18:53:01
00011 suncat2044 pw.x -in pw.inp   Done                     12/18/2018 18:53:01
00012 suncat2044 pw.x -in pw.inp   Done                     12/18/2018 18:53:01
00013 suncat2044 pw.x -in pw.inp   Done                     12/18/2018 18:53:01
00014 suncat2044 pw.x -in pw.inp   Done                     12/18/2018 18:53:01
00015 suncat2044 pw.x -in pw.inp   Done                     12/18/2018 18:53:01
00016 suncat2043 pw.x -in pw.inp   Done                     12/18/2018 18:53:01
00017 suncat2043 pw.x -in pw.inp   Done                     12/18/2018 18:53:01
00018 suncat2043 pw.x -in pw.inp   Done                     12/18/2018 18:53:01
00019 suncat2043 pw.x -in pw.inp   Done                     12/18/2018 18:53:01
00020 suncat2043 pw.x -in pw.inp   Done                     12/18/2018 18:53:01
00021 suncat2043 pw.x -in pw.inp   Done                     12/18/2018 18:53:01
00022 suncat2043 pw.x -in pw.inp   Done                     12/18/2018 18:53:01
00023 suncat2043 pw.x -in pw.inp   Done                     12/18/2018 18:53:01
00024 suncat2043 pw.x -in pw.inp   Done                     12/18/2018 18:53:01
00025 suncat2043 pw.x -in pw.inp   Done                     12/18/2018 18:53:01
00026 suncat2043 pw.x -in pw.inp   Done                     12/18/2018 18:53:01
00027 suncat2043 pw.x -in pw.inp   Done                     12/18/2018 18:53:01
00028 suncat2043 pw.x -in pw.inp   Done                     12/18/2018 18:53:01
00029 suncat2043 pw.x -in pw.inp   Done                     12/18/2018 18:53:01
00030 suncat2043 pw.x -in pw.inp   Done                     12/18/2018 18:53:01
00031 suncat2043 pw.x -in pw.inp   Done                     12/18/2018 18:53:01