     Program PWSCF v.5.1rc2 (svn rev. 11289) starts on 19Dec2018 at  7:18:58

     Current dimensions of program PWSCF are:
     Max number of different atomic species (ntypx) = 10
     Max number of k-points (npk) =  40000
     Max angular momentum in pseudopotentials (lmaxx) =  3
     Presently stress not available with electric field

     IMPORTANT: XC functional enforced from input :
     Exchange-correlation      = BEEF-VDW ( 1  4 27 13 2)
     Any further DFT definition will be discarded
     Please, verify this is what you really want

     Subspace diagonalization in iterative solution of the eigenvalue problem:
     a serial algorithm will be used

     Found symmetry operation: I + ( -0.5000  0.0000  0.0000)
     This is a supercell, fractional translations are disabled

     bravais-lattice index     =            0
     lattice parameter (alat)  =       1.8897  a.u.
     unit-cell volume          =    5231.4887 (a.u.)^3
     number of atoms/cell      =           12
     number of atomic types    =            2
     number of electrons       =       144.00
     number of Kohn-Sham states=          102
     kinetic-energy cutoff     =      36.7493  Ry
     charge density cutoff     =     367.4932  Ry
     convergence threshold     =      1.0E-06
     mixing beta               =       0.1000
     number of iterations used =           10  plain     mixing
     Exchange-correlation      = BEEF-VDW ( 1  4 27 13 2)
     nstep                     =           50

     celldm(1)=   1.889726  celldm(2)=   0.000000  celldm(3)=   0.000000
     celldm(4)=   0.000000  celldm(5)=   0.000000  celldm(6)=   0.000000

     crystal axes: (cart. coord. in units of alat)
               a(1) = (   5.937415   0.000000   0.000000 )
               a(2) = (  -2.968708   5.244746   0.000000 )
               a(3) = (   0.000000   0.000000  24.894695 )

     reciprocal axes: (cart. coord. in units 2 pi/alat)
               b(1) = (  0.168423  0.095334  0.000000 )
               b(2) = (  0.000000  0.190667  0.000000 )
               b(3) = (  0.000000  0.000000  0.040169 )

     PseudoPot. # 1 for Ti read from file:
     /afs/slac.stanford.edu/u/if/mamunm/psp/gbrv1.5pbe/Ti.UPF
     MD5 check sum: 88a00a6731bd790ddea75d31a80cb452
     Pseudo is Ultrasoft + core correction, Zval = 12.0
     Generated by new atomic code, or converted to UPF format
     Using radial grid of  851 points,  6 beta functions with:
                l(1) =   0
                l(2) =   0
                l(3) =   1
                l(4) =   1
                l(5) =   2
                l(6) =   2
     Q(r) pseudized with  6 coefficients,  rinner =    1.000   1.000   1.000
                                                       1.000   1.000

     PseudoPot. # 2 for Cd read from file:
     /afs/slac.stanford.edu/u/if/mamunm/psp/gbrv1.5pbe/Cd.UPF
     MD5 check sum: 17164a7926edb8e0dc231208abae86a6
     Pseudo is Ultrasoft + core correction, Zval = 12.0
     Generated by new atomic code, or converted to UPF format
     Using radial grid of  889 points,  6 beta functions with:
                l(1) =   0
                l(2) =   0
                l(3) =   1
                l(4) =   1
                l(5) =   2
                l(6) =   2
     Q(r) pseudized with  6 coefficients,  rinner =    1.000   1.000   1.000
                                                       1.000   1.000

     vdW kernel table read from file vdW_kernel_table
     MD5 check sum: 095c7af220d748ca6e76c0b4c6cfb241

     atomic species   valence    mass     pseudopotential
        Ti1           12.00    47.86700     Ti( 1.00)
        Cd1           12.00   112.41400     Cd( 1.00)

     No symmetry found

   Cartesian axes

     site n.     atom                  positions (alat units)
         1           Ti1 tau(   1) = (   0.0000000   0.0000000  10.0000000  )
         2           Ti1 tau(   2) = (   2.9687077   0.0000000  10.0000000  )
         3           Cd1 tau(   3) = (   1.4843539   2.6223728  10.0000000  )
         4           Cd1 tau(   4) = (  -1.4843539   2.6223728  10.0000000  )
         5           Ti1 tau(   5) = (   2.9687077   1.6803914  12.4473476  )
         6           Ti1 tau(   6) = (  -0.0000000   1.6803914  12.4473476  )
         7           Cd1 tau(   7) = (  -1.4843539   4.3027643  12.4473476  )
         8           Cd1 tau(   8) = (   1.4843539   4.3027643  12.4473476  )
         9           Ti1 tau(   9) = (   0.0000000   3.3607828  14.8946952  )
        10           Ti1 tau(  10) = (   2.9687077   3.3607828  14.8946952  )
        11           Cd1 tau(  11) = (   4.4530616   0.7384100  14.8946952  )
        12           Cd1 tau(  12) = (   1.4843539   0.7384100  14.8946952  )

     number of k points=    20  Fermi-Dirac smearing, width (Ry)=  0.0110
                       cart. coord. in units 2pi/alat
        k(    1) = (   0.0000000   0.0000000   0.0000000), wk =   0.0555556
        k(    2) = (   0.0000000   0.0317778   0.0000000), wk =   0.1111111
        k(    3) = (   0.0000000   0.0635557   0.0000000), wk =   0.1111111
        k(    4) = (   0.0000000  -0.0953335   0.0000000), wk =   0.0555556
        k(    5) = (   0.0280706   0.0158889   0.0000000), wk =   0.1111111
        k(    6) = (   0.0280706   0.0476668   0.0000000), wk =   0.1111111
        k(    7) = (   0.0280706   0.0794446   0.0000000), wk =   0.1111111
        k(    8) = (   0.0280706  -0.0794446   0.0000000), wk =   0.1111111
        k(    9) = (   0.0280706  -0.0476668   0.0000000), wk =   0.1111111
        k(   10) = (   0.0280706  -0.0158889   0.0000000), wk =   0.1111111
        k(   11) = (   0.0561411   0.0317778   0.0000000), wk =   0.1111111
        k(   12) = (   0.0561411   0.0635557   0.0000000), wk =   0.1111111
        k(   13) = (   0.0561411   0.0953335   0.0000000), wk =   0.1111111
        k(   14) = (   0.0561411  -0.0635557   0.0000000), wk =   0.1111111
        k(   15) = (   0.0561411  -0.0317778   0.0000000), wk =   0.1111111
        k(   16) = (   0.0561411   0.0000000   0.0000000), wk =   0.1111111
        k(   17) = (  -0.0842117  -0.0476668   0.0000000), wk =   0.0555556
        k(   18) = (  -0.0842117  -0.0158889   0.0000000), wk =   0.1111111
        k(   19) = (  -0.0842117   0.0158889   0.0000000), wk =   0.1111111
        k(   20) = (  -0.0842117  -0.1430003   0.0000000), wk =   0.0555556

     Largest allocated arrays     est. size (Mb)     dimensions
     Largest temporary arrays     est. size (Mb)     dimensions

     Check: negative/imaginary core charge=   -0.000003    0.000000

     Initial potential from superposition of free atoms
     Check: negative starting charge=   -0.135028

     starting charge  134.99949, renormalised to  144.00000

     negative rho (up, down):  1.440E-01 0.000E+00

     *
     * You are using vdW-DF for exchange-correlation in this calculation.
     * Please cite the following three references that made this development
     * possible:
     *
     *   M. Dion, H. Rydberg, E. Schroder, D. C. Langreth, and
     *   B. I. Lundqvist, Phys. Rev. Lett. 92, 246401 (2004).
     *
     *   T. Thonhauser, V. R. Cooper, S. Li, A. Puzder, P. Hyldgaard, and
     *   D. C. Langreth, Phys. Rev. B 76, 125112 (2007).
     *
     *   G. Roman-Perez and J. M. Soler, Phys. Rev. Lett. 103, 096102 (2009).
     *
     *
     * If you are using vdW-DF2, please also cite:
     *
     *   K. Lee, E. D. Murray, L. Kong, B. I. Lundqvist, and
     *   D. C. Langreth, Phys. Rev. B 82, 081101(R) (2010).
     *
     *
     * If you are calculating the stress with vdW-DF, please also cite:
     *
     *   R. Sabatini, E. Kucukbenli, B. Kolb, T. Thonhauser, and
     *   S. de Gironcoli, J. Phys.: Condens. Matter 24, 424209 (2012).
     *

     Carrying out vdW-DF run using the following parameters:

     Nqs =      20    Nr_points =    1024   r_max =   100.000
     q_mesh =
               0.00001000     0.04494208     0.09755937     0.15916263
               0.23128650     0.31572767     0.41458969     0.53033537
               0.66584808     0.82450364     1.01025438     1.22772762
               1.48234092     1.78043706     2.12944203     2.53805004
               3.01644009     3.57652955     4.23227104     5.00000000

     Gradients computed in reciprocal space

     Adding external electric field

     Computed dipole along edir(3) :
        Dipole                0.0000 Ry au,          0.0000 Debye
        Dipole field          0.0000 Ry au

        Potential amp.       -0.0000 Ry
        Total length         45.8681 bohr

     Starting wfc are  114 randomized atomic wfcs

     Self-consistent Calculation

     iteration #  1     ecut=    36.75 Ry     beta=0.10
     Davidson diagonalization with overlap
     ethr =  1.00E-02,  avg # of iterations =  6.6

[...]

     total energy              =   -1416.33338593 Ry
     Harris-Foulkes estimate   =   -1417.39407639 Ry
     estimated scf accuracy    <       6.23325206 Ry

[...]

     End of self-consistent calculation

          k = 0.0000 0.0000 0.0000 ( 19579 PWs)   bands (ev):

   -56.6336 -56.6331 -56.6036 -56.6031 -56.3931 -56.3626 -32.9957 -32.9910
   -32.9659 -32.9610 -32.8782 -32.8554 -32.8470 -32.8382 -32.8375 -32.8255
   -32.7591 -32.7274 -32.6754 -32.5619 -32.5615 -32.5204 -32.4920 -32.3963
    -8.6409  -8.5448  -8.5023  -8.4415  -8.3571  -8.2956  -8.2910  -8.2834
    -8.2287  -8.2221  -8.1597  -8.1384  -7.9874  -7.9417  -7.9148  -7.8759
    -7.8145  -7.7876  -7.7458  -7.7198  -7.6810  -7.6540  -7.6309  -7.6307
    -7.6055  -7.5819  -7.5196  -7.4712  -7.4191  -7.1408  -6.4803  -4.9473
    -2.9942  -2.0048  -1.3369  -1.0396  -0.7606  -0.7021  -0.6338  -0.2341
    -0.1610  -0.0361   0.0478   0.2357   0.3806   0.7193   0.7231   0.7971
     0.8402   0.9017   1.0151   1.2668   1.2713   1.3046   1.5303   1.5597
     1.8386   1.9044   1.9431   2.2768   2.3037   2.3235   2.3435   2.4290
     2.5075   2.6063   2.6109   2.7076   2.7204   2.8622   3.0972   3.2797
     3.7125   3.9740   4.1798   4.2286   4.3597   4.6231

[...]

          k =-0.0842-0.0477 0.0000 ( 19678 PWs)   bands (ev):

[...]

     the Fermi energy is     0.7398 ev

!    total energy              =   -1415.65756083 Ry
     Harris-Foulkes estimate   =   -1415.65755997 Ry
     estimated scf accuracy    <       0.00000088 Ry

     The total energy is the sum of the following terms:

     one-electron contribution =   -9779.41192129 Ry
     hartree contribution      =    4929.15685507 Ry
     xc contribution           =    -357.12533374 Ry
     ewald contribution        =    3791.83114881 Ry
     electric field correction =       0.00000000 Ry
     smearing contrib. (-TS)   =      -0.10830969 Ry

     convergence has been achieved in  21 iterations

 BEEF-vdW xc energy contributions
           1 :   -311.164663551258
           2 :    282.782223311503
           3 :   -235.307434240178
           4 :    182.692051376163
           5 :   -137.280266468840
           6 :    105.312030433717
           7 :   -86.1546591718151
           8 :    74.8187414481858
           9 :   -65.7444476934434
          10 :    55.6672657665605
          11 :   -44.4085812442576
          12 :    33.7730367283568
[...]
00031 suncat2059 pw.x -in pw.inp   Done                     12/19/2018 07:24:19

[...]

   This run was terminated on:   7:29: 6  19Dec2018

[...]

   This run was terminated on:   7:34: 9  19Dec2018

[...]

     Program PWSCF v.5.1rc2 (svn rev. 11289) starts on 19Dec2018 at  7:59:21

[...]

     Found symmetry operation: I + ( -0.5000  0.0000  0.0000)
     This is a supercell, fractional translations are disabled

[...]

   This run was terminated on:   8: 4:20  19Dec2018

[...]

     Program PWSCF v.5.1rc2 (svn rev. 11289) starts on 19Dec2018 at  8: 4:26

[...]

   This run was terminated on:   8: 9:21  19Dec2018

[...]

     Program PWSCF v.5.1rc2 (svn rev. 11289) starts on 19Dec2018 at  8: 9:27

     Current dimensions of program PWSCF are:
     Max number of different atomic species (ntypx) = 10
     Max number of k-points (npk) =  40000
     Max angular momentum in pseudopotentials (lmaxx) =  3
     Presently stress not available with electric field

     IMPORTANT: XC functional enforced from input :
     Exchange-correlation      = BEEF-VDW ( 1  4 27 13 2)
     Any further DFT definition will be discarded
     Please, verify this is what you really want

     Subspace diagonalization in iterative solution of the eigenvalue problem:
     a serial algorithm will be used

     bravais-lattice index     =            0
     lattice parameter (alat)  =       1.8897  a.u.
     unit-cell volume          =    5231.4887 (a.u.)^3
     number of atoms/cell      =           12
     number of atomic types    =            2
     number of electrons       =       144.00
     number of Kohn-Sham states=          102
     kinetic-energy cutoff     =      36.7493  Ry
     charge density cutoff     =     367.4932  Ry
     convergence threshold     =      1.0E-06
     mixing beta               =       0.1000
     number of iterations used =           10  plain     mixing
     Exchange-correlation      = BEEF-VDW ( 1  4 27 13 2)
     nstep                     =           50

     celldm(1)=   1.889726  celldm(2)=   0.000000  celldm(3)=   0.000000
     celldm(4)=   0.000000  celldm(5)=   0.000000  celldm(6)=   0.000000

     crystal axes: (cart. coord. in units of alat)
               a(1) = (   5.937415   0.000000   0.000000 )
               a(2) = (  -2.968708   5.244746   0.000000 )
               a(3) = (   0.000000   0.000000  24.894695 )

     reciprocal axes: (cart. coord. in units 2 pi/alat)
               b(1) = (  0.168423  0.095334  0.000000 )
               b(2) = (  0.000000  0.190667  0.000000 )
               b(3) = (  0.000000  0.000000  0.040169 )

     PseudoPot. # 1 for Ti read from file:
     /afs/slac.stanford.edu/u/if/mamunm/psp/gbrv1.5pbe/Ti.UPF
     MD5 check sum: 88a00a6731bd790ddea75d31a80cb452
     Pseudo is Ultrasoft + core correction, Zval = 12.0
     Generated by new atomic code, or converted to UPF format
     Using radial grid of  851 points,  6 beta functions with:
                l(1) =   0
                l(2) =   0
                l(3) =   1
                l(4) =   1
                l(5) =   2
                l(6) =   2
     Q(r) pseudized with  6 coefficients,  rinner =    1.000   1.000   1.000
                                                       1.000   1.000

     PseudoPot. # 2 for Cd read from file:
     /afs/slac.stanford.edu/u/if/mamunm/psp/gbrv1.5pbe/Cd.UPF
     MD5 check sum: 17164a7926edb8e0dc231208abae86a6
     Pseudo is Ultrasoft + core correction, Zval = 12.0
     Generated by new atomic code, or converted to UPF format
     Using radial grid of  889 points,  6 beta functions with:
                l(1) =   0
                l(2) =   0
                l(3) =   1
                l(4) =   1
                l(5) =   2
                l(6) =   2
     Q(r) pseudized with  6 coefficients,  rinner =    1.000   1.000   1.000
                                                       1.000   1.000

     vdW kernel table read from file vdW_kernel_table
     MD5 check sum: 095c7af220d748ca6e76c0b4c6cfb241

     atomic species   valence    mass     pseudopotential
        Ti1           12.00    47.86700     Ti( 1.00)
        Cd1           12.00   112.41400     Cd( 1.00)

     No symmetry found

   Cartesian axes

     site n.     atom                  positions (alat units)
         1           Ti1 tau(   1) = (   0.0000000   0.0000000  10.0000000  )
         2           Ti1 tau(   2) = (   2.9687077   0.0000000  10.0000000  )
         3           Cd1 tau(   3) = (   1.4843539   2.6223728  10.0000000  )
         4           Cd1 tau(   4) = (  -1.4843539   2.6223728  10.0000000  )
         5           Ti1 tau(   5) = (   2.9687077   1.6803914  12.4473476  )
         6           Ti1 tau(   6) = (  -0.0000000   1.6803914  12.4473476  )
         7           Cd1 tau(   7) = (  -1.4843539   4.3027643  12.4473476  )
         8           Cd1 tau(   8) = (   1.4843539   4.3027643  12.4473476  )
         9           Ti1 tau(   9) = (   0.0000037   3.1968027  14.7498485  )
        10           Ti1 tau(  10) = (   2.9687092   3.1967744  14.7498177  )
        11           Cd1 tau(  11) = (   4.4529671   0.6084806  15.0664095  )
        12           Cd1 tau(  12) = (   1.4844706   0.6084912  15.0664151  )

     number of k points=    20  Fermi-Dirac smearing, width (Ry)=  0.0110
                       cart. coord. in units 2pi/alat
        k(    1) = (   0.0000000   0.0000000   0.0000000), wk =   0.0555556
        k(    2) = (   0.0000000   0.0317778   0.0000000), wk =   0.1111111
        k(    3) = (   0.0000000   0.0635557   0.0000000), wk =   0.1111111
        k(    4) = (   0.0000000  -0.0953335   0.0000000), wk =   0.0555556
        k(    5) = (   0.0280706   0.0158889   0.0000000), wk =   0.1111111
        k(    6) = (   0.0280706   0.0476668   0.0000000), wk =   0.1111111
        k(    7) = (   0.0280706   0.0794446   0.0000000), wk =   0.1111111
        k(    8) = (   0.0280706  -0.0794446   0.0000000), wk =   0.1111111
        k(    9) = (   0.0280706  -0.0476668   0.0000000), wk =   0.1111111
        k(   10) = (   0.0280706  -0.0158889   0.0000000), wk =   0.1111111
        k(   11) = (   0.0561411   0.0317778   0.0000000), wk =   0.1111111
        k(   12) = (   0.0561411   0.0635557   0.0000000), wk =   0.1111111
        k(   13) = (   0.0561411   0.0953335   0.0000000), wk =   0.1111111
        k(   14) = (   0.0561411  -0.0635557   0.0000000), wk =   0.1111111
        k(   15) = (   0.0561411  -0.0317778   0.0000000), wk =   0.1111111
        k(   16) = (   0.0561411   0.0000000   0.0000000), wk =   0.1111111
        k(   17) = (  -0.0842117  -0.0476668   0.0000000), wk =   0.0555556
        k(   18) = (  -0.0842117  -0.0158889   0.0000000), wk =   0.1111111
        k(   19) = (  -0.0842117   0.0158889   0.0000000), wk =   0.1111111
        k(   20) = (  -0.0842117  -0.1430003   0.0000000), wk =   0.0555556

     Largest allocated arrays     est. size (Mb)     dimensions
     Largest temporary arrays     est. size (Mb)     dimensions

     Check: negative/imaginary core charge=   -0.000003    0.000000

     Initial potential from superposition of free atoms
     Check: negative starting charge=   -0.135952

     starting charge  134.99949, renormalised to  144.00000

[...]

     *
     * You are using vdW-DF for exchange-correlation in this calculation.
     * Please cite the following three references that made this development
     * possible:
     *
     *   M. Dion, H. Rydberg, E. Schroder, D. C. Langreth, and
     *   B. I. Lundqvist, Phys. Rev. Lett. 92, 246401 (2004).
     *
     *   T. Thonhauser, V. R. Cooper, S. Li, A. Puzder, P. Hyldgaard, and
     *   D. C. Langreth, Phys. Rev. B 76, 125112 (2007).
     *
     *   G. Roman-Perez and J. M. Soler, Phys. Rev. Lett. 103, 096102 (2009).
     *
     *
     * If you are using vdW-DF2, please also cite:
     *
     *   K. Lee, E. D. Murray, L. Kong, B. I. Lundqvist, and
     *   D. C. Langreth, Phys. Rev. B 82, 081101(R) (2010).
     *
     *
     * If you are calculating the stress with vdW-DF, please also cite:
     *
     *   R. Sabatini, E. Kucukbenli, B. Kolb, T. Thonhauser, and
     *   S. de Gironcoli, J. Phys.: Condens. Matter 24, 424209 (2012).
     *

     Carrying out vdW-DF run using the following parameters:

     Nqs =      20    Nr_points =    1024   r_max =   100.000
     q_mesh =
               0.00001000     0.04494208     0.09755937     0.15916263
               0.23128650     0.31572767     0.41458969     0.53033537
               0.66584808     0.82450364     1.01025438     1.22772762
               1.48234092     1.78043706     2.12944203     2.53805004
               3.01644009     3.57652955     4.23227104     5.00000000

     Gradients computed in reciprocal space

[...]

     Starting wfc are  114 randomized atomic wfcs

     Self-consistent Calculation

[...]

     total energy              =   -1415.67017237 Ry
     Harris-Foulkes estimate   =   -1415.67017191 Ry
     estimated scf accuracy    <       0.00000147 Ry

     iteration # 23     ecut=    36.75 Ry     beta=0.10
     Davidson diagonalization with overlap
     ethr =  9.12E-10,  avg # of iterations =  2.0

[...]

     negative rho (up, down):  1.385E-01 0.000E+00

     Adding external electric field

     Computed dipole along edir(3) :
        Dipole               -0.0526 Ry au,         -0.1338 Debye
        Dipole field         -0.0001 Ry au

        Potential amp.        0.0116 Ry
        Total length         45.8681 bohr

     End of self-consistent calculation

[...]

          k = 0.0561 0.0000 0.0000 ( 19661 PWs)   bands (ev):

[...]

          k =-0.0842-0.1430 0.0000 ( 19678 PWs)   bands (ev):

   -56.6828 -56.6827 -56.5626 -56.5626 -56.3729 -56.3729 -33.0429 -33.0428
   -32.9259 -32.9259 -32.9088 -32.9087 -32.8192 -32.8191 -32.7594 -32.7593
   -32.7491 -32.7491 -32.6872 -32.6871 -32.5560 -32.5560 -32.4400 -32.4400
    -8.3656  -8.3656  -8.2409  -8.2409  -8.1972  -8.1972  -8.0811  -8.0811
    -8.0449  -8.0449  -8.0057  -8.0057  -7.9781  -7.9780  -7.9441  -7.9440
    -7.9252  -7.9251  -7.9082  -7.9081  -7.8944  -7.8942  -7.8563  -7.8562
    -7.7575  -7.7574  -7.7454  -7.7453  -7.6352  -7.6352  -4.9869  -4.9868
    -3.6882  -3.6880  -2.3746  -2.3745  -1.1150  -1.1150  -0.4414  -0.4414
     0.1545   0.1545   0.3950   0.3950   0.5901   0.5901   0.7067   0.7067
     0.8590   0.8591   1.0658   1.0658   1.1478   1.1479   1.3360   1.3361
     1.6532   1.6533   1.8366   1.8367   2.1148   2.1148   2.3094   2.3094
     2.5516   2.5517   2.7474   2.7474   2.9460   2.9460   3.5184   3.5184
     4.0774   4.0774   5.1344   5.1344   5.6764   5.6766

     the Fermi energy is     0.6860 ev

!    total energy              =   -1415.67017244 Ry
     Harris-Foulkes estimate   =   -1415.67017246 Ry
     estimated scf accuracy    <       0.00000025 Ry

     The total energy is the sum of the following terms:

     one-electron contribution =   -9756.43765380 Ry
     hartree contribution      =    4917.55126610 Ry
     xc contribution           =    -357.14649805 Ry
     ewald contribution        =    3780.47120903 Ry
     electric field correction =       0.00000666 Ry
     smearing contrib. (-TS)   =      -0.10850238 Ry

     convergence has been achieved in  23 iterations

 BEEF-vdW xc energy contributions
           1 :   -311.181422807214
           2 :    282.780486690138
           3 :   -235.278741477451
           4 :    182.644119992808
           5 :   -137.234184636343
           6 :    105.287934466968
           7 :   -86.1535500024983
           8 :    74.8194484562144
           9 :   -65.7217281952413
          10 :    55.6134749270630
          11 :   -44.3370685181752
          12 :    33.7034718096705
          13 :   -25.6359275607907
          14 :    20.8199272867565
          15 :   -18.5014308477180
          16 :    17.2270802678493
          17 :   -15.8228257335812
          18 :    13.9561262648581
          19 :   -12.0738435993429
          20 :    10.9225237999561
          21 :   -11.0266141696035
          22 :    12.3994471953349
          23 :   -14.5732999573306
          24 :    16.8628697570344
          25 :   -18.6971294917275
          26 :    19.8519643049738
          27 :   -20.4901302715223
          28 :    21.0076535380582
          29 :   -21.7749602233320
          30 :    22.9030444369244
          31 :   -29.5338622901089
          32 :   -21.4063747541791

     Forces acting on atoms (Ry/au):

     negative rho (up, down):  1.385E-01 0.000E+00
     atom    1 type  1   force =     0.00000017    0.00894540    0.02093862
     atom    2 type  1   force =    -0.00000007    0.00894532    0.02093976
     atom    3 type  2   force =    -0.00000441   -0.00420688   -0.01890290
     atom    4 type  2   force =     0.00000496   -0.00420668   -0.01890200
     atom    5 type  1   force =     0.00000001   -0.00968244    0.00156889
     atom    6 type  1   force =    -0.00000022   -0.00968722    0.00157410
     atom    7 type  2   force =    -0.00002201    0.00436055   -0.00246674
     atom    8 type  2   force =     0.00002265    0.00436117   -0.00246712
     atom    9 type  1   force =    -0.00000058    0.00001099   -0.00184054
     atom   10 type  1   force =     0.00000119    0.00003677   -0.00183446
     atom   11 type  2   force =     0.00003631    0.00056334    0.00069739
     atom   12 type  2   force =    -0.00003799    0.00055969    0.00069499

     Total force =     0.045145     Total SCF correction =     0.001144

     entering subroutine stress ...

     negative rho (up, down):  1.385E-01 0.000E+00
          total   stress  (Ry/bohr**3)                   (kbar)     P=   -7.41
  -0.00007695   0.00000000  -0.00000000        -11.32      0.00     -0.00
   0.00000000  -0.00005441  -0.00000771          0.00     -8.00     -1.13
  -0.00000000  -0.00000771  -0.00001965         -0.00     -1.13     -2.89

 !ASE

     Writing output data file calc.save

     General routines

     Parallel routines

   This run was terminated on:   8:14:35  19Dec2018

   JOB DONE.
Job  /afs/slac/g/suncat/bin/suncat-tsmpirun -x LD_LIBRARY_PATH -wdir /scratch/qe530675_rSnj0 pw.x -in pw.inp

TID   HOST_NAME   COMMAND_LINE            STATUS            TERMINATION_TIME
00000 suncat2060 pw.x -in pw.inp   Done                     12/19/2018 08:14:35
00001 suncat2060 pw.x -in pw.inp   Done                     12/19/2018 08:14:35
00002 suncat2060 pw.x -in pw.inp   Done                     12/19/2018 08:14:35
00003 suncat2060 pw.x -in pw.inp   Done                     12/19/2018 08:14:35
00004 suncat2060 pw.x -in pw.inp   Done                     12/19/2018 08:14:35
00005 suncat2060 pw.x -in pw.inp   Done                     12/19/2018 08:14:35
00006 suncat2060 pw.x -in pw.inp   Done                     12/19/2018 08:14:35
00007 suncat2060 pw.x -in pw.inp   Done                     12/19/2018 08:14:35
00008 suncat2060 pw.x -in pw.inp   Done                     12/19/2018 08:14:35
00009 suncat2060 pw.x -in pw.inp   Done                     12/19/2018 08:14:35
00010 suncat2060 pw.x -in pw.inp   Done                     12/19/2018 08:14:35
00011 suncat2060 pw.x -in pw.inp   Done                     12/19/2018 08:14:35
00012 suncat2060 pw.x -in pw.inp   Done                     12/19/2018 08:14:35
00013 suncat2060 pw.x -in pw.inp   Done                     12/19/2018 08:14:35
00014 suncat2060 pw.x -in pw.inp   Done                     12/19/2018 08:14:35
00015 suncat2060 pw.x -in pw.inp   Done                     12/19/2018 08:14:35
00016 suncat2059 pw.x -in pw.inp   Done                     12/19/2018 08:14:35
00017 suncat2059 pw.x -in pw.inp   Done                     12/19/2018 08:14:35
00018 suncat2059 pw.x -in pw.inp   Done                     12/19/2018 08:14:35
00019 suncat2059 pw.x -in pw.inp   Done                     12/19/2018 08:14:35
00020 suncat2059 pw.x -in pw.inp   Done                     12/19/2018 08:14:35
00021 suncat2059 pw.x -in pw.inp   Done                     12/19/2018 08:14:35
00022 suncat2059 pw.x -in pw.inp   Done                     12/19/2018 08:14:35
00023 suncat2059 pw.x -in pw.inp   Done                     12/19/2018 08:14:35
00024 suncat2059 pw.x -in pw.inp   Done                     12/19/2018 08:14:35
00025 suncat2059 pw.x -in pw.inp   Done                     12/19/2018 08:14:35
00026 suncat2059 pw.x -in pw.inp   Done                     12/19/2018 08:14:35
00027 suncat2059 pw.x -in pw.inp   Done                     12/19/2018 08:14:35
00028 suncat2059 pw.x -in pw.inp   Done                     12/19/2018 08:14:35
00029 suncat2059 pw.x -in pw.inp   Done                     12/19/2018 08:14:35
00030 suncat2059 pw.x -in pw.inp   Done                     12/19/2018 08:14:35
00031 suncat2059 pw.x -in pw.inp   Done                     12/19/2018 08:14:35