     Program PWSCF v.5.1rc2 (svn rev. 11289) starts on 19Dec2018 at  6:38:31

     Current dimensions of program PWSCF are:
     Max number of different atomic species (ntypx) = 10
     Max number of k-points (npk) =  40000
     Max angular momentum in pseudopotentials (lmaxx) =  3
     Presently stress not available with electric field

     IMPORTANT: XC functional enforced from input :
     Exchange-correlation      = BEEF-VDW ( 1  4 27 13 2)
     Any further DFT definition will be discarded
     Please, verify this is what you really want

     Subspace diagonalization in iterative solution of the eigenvalue problem:
     a serial algorithm will be used

     Found symmetry operation: I + ( -0.5000  0.0000  0.0000)
     This is a supercell, fractional translations are disabled

     bravais-lattice index     =            0
     lattice parameter (alat)  =       1.8897  a.u.
     unit-cell volume          =    4775.3044 (a.u.)^3
     number of atoms/cell      =           12
     number of atomic types    =            2
     number of electrons       =       162.00
     number of Kohn-Sham states=          111
     kinetic-energy cutoff     =      36.7493  Ry
     charge density cutoff     =     367.4932  Ry
     convergence threshold     =      1.0E-06
     mixing beta               =       0.1000
     number of iterations used =           10  plain     mixing
     Exchange-correlation      = BEEF-VDW ( 1  4 27 13 2)
     nstep                     =           50

     celldm(1)=   1.889726  celldm(2)=   0.000000  celldm(3)=   0.000000
     celldm(4)=   0.000000  celldm(5)=   0.000000  celldm(6)=   0.000000

     crystal axes: (cart. coord. in units of alat)
               a(1) = (   5.702906   0.000000   0.000000 )
               a(2) = (  -2.851453   5.024459   0.000000 )
               a(3) = (   0.000000   0.000000  24.695564 )

     reciprocal axes: (cart. coord. in units 2 pi/alat)
               b(1) = (  0.175349  0.099513  0.000000 )
               b(2) = (  0.000000  0.199026  0.000000 )
               b(3) = (  0.000000  0.000000  0.040493 )

     PseudoPot. # 1 for Cr read from file:
     /afs/slac.stanford.edu/u/if/mamunm/psp/gbrv1.5pbe/Cr.UPF
     MD5 check sum: 0d52af634a40206e4dee301ad30da4bf
     Pseudo is Ultrasoft + core correction, Zval = 14.0
     Generated by new atomic code, or converted to UPF format
     Using radial grid of  857 points,  6 beta functions with:
                l(1) =   0
                l(2) =   0
                l(3) =   1
                l(4) =   1
                l(5) =   2
                l(6) =   2
     Q(r) pseudized with  8 coefficients,  rinner =    0.950   0.950   0.950
                                                       0.950   0.950

     PseudoPot. # 2 for In read from file:
     /afs/slac.stanford.edu/u/if/mamunm/psp/gbrv1.5pbe/In.UPF
     MD5 check sum: 90777abd96fbb83f2e67db2a40c566b9
     Pseudo is Ultrasoft + core correction, Zval = 13.0
     Generated by new atomic code, or converted to UPF format
     Using radial grid of  889 points,  6 beta functions with:
                l(1) =   0
                l(2) =   0
                l(3) =   1
                l(4) =   1
                l(5) =   2
                l(6) =   2
     Q(r) pseudized with  6 coefficients,  rinner =    1.400   1.400   1.400
                                                       1.400   1.400

     vdW kernel table read from file vdW_kernel_table
     MD5 check sum: 095c7af220d748ca6e76c0b4c6cfb241

     atomic species   valence    mass     pseudopotential
        Cr1           14.00    51.99610     Cr( 1.00)
        In1           13.00   114.81800     In( 1.00)

     No symmetry found

   Cartesian axes

     site n.     atom                  positions (alat units)
         1           Cr1 tau(   1) = (   0.0000000   0.0000000  10.0000000  )
         2           Cr1 tau(   2) = (   2.8514528   0.0000000  10.0000000  )
         3           In1 tau(   3) = (   1.4257264   2.5122296  10.0000000  )
         4           In1 tau(   4) = (  -1.4257264   2.5122296  10.0000000  )
         5           Cr1 tau(   5) = (   2.8514528   1.6182405  12.3477821  )
         6           Cr1 tau(   6) = (   0.0000000   1.6182405  12.3477821  )
         7           In1 tau(   7) = (  -1.4257264   4.1304701  12.3477821  )
         8           In1 tau(   8) = (   1.4257264   4.1304701  12.3477821  )
         9           Cr1 tau(   9) = (   0.0000000   3.2364810  14.6955643  )
        10           Cr1 tau(  10) = (   2.8514528   3.2364810  14.6955643  )
        11           In1 tau(  11) = (   4.2771793   0.7242514  14.6955643  )
        12           In1 tau(  12) = (   1.4257264   0.7242514  14.6955643  )

     number of k points=    20  Fermi-Dirac smearing, width (Ry)=  0.0110
                       cart. coord. in units 2pi/alat
        k(    1) = (   0.0000000   0.0000000   0.0000000), wk =   0.0555556
        k(    2) = (   0.0000000   0.0331711   0.0000000), wk =   0.1111111
        k(    3) = (   0.0000000   0.0663421   0.0000000), wk =   0.1111111
        k(    4) = (   0.0000000  -0.0995132   0.0000000), wk =   0.0555556
        k(    5) = (   0.0292249   0.0165855   0.0000000), wk =   0.1111111
        k(    6) = (   0.0292249   0.0497566   0.0000000), wk =   0.1111111
        k(    7) = (   0.0292249   0.0829277   0.0000000), wk =   0.1111111
        k(    8) = (   0.0292249  -0.0829277   0.0000000), wk =   0.1111111
        k(    9) = (   0.0292249  -0.0497566   0.0000000), wk =   0.1111111
        k(   10) = (   0.0292249  -0.0165855   0.0000000), wk =   0.1111111
        k(   11) = (   0.0584497   0.0331711   0.0000000), wk =   0.1111111
        k(   12) = (   0.0584497   0.0663421   0.0000000), wk =   0.1111111
        k(   13) = (   0.0584497   0.0995132   0.0000000), wk =   0.1111111
        k(   14) = (   0.0584497  -0.0663421   0.0000000), wk =   0.1111111
        k(   15) = (   0.0584497  -0.0331711   0.0000000), wk =   0.1111111
        k(   16) = (   0.0584497   0.0000000   0.0000000), wk =   0.1111111
        k(   17) = (  -0.0876746  -0.0497566   0.0000000), wk =   0.0555556
        k(   18) = (  -0.0876746  -0.0165855   0.0000000), wk =   0.1111111
        k(   19) = (  -0.0876746   0.0165855   0.0000000), wk =   0.1111111
        k(   20) = (  -0.0876746  -0.1492698   0.0000000), wk =   0.0555556

     Largest allocated arrays     est. size (Mb)     dimensions
     Largest temporary arrays     est. size (Mb)     dimensions

     Check: negative/imaginary core charge=   -0.000002    0.000000

     Initial potential from superposition of free atoms
     Check: negative starting charge=   -0.007103

     starting charge  146.99991, renormalised to  162.00000

     negative rho (up, down):  7.828E-03 0.000E+00

     *
     * You are using vdW-DF for exchange-correlation in this calculation.
     * Please cite the following three references that made this development
     * possible:
     *
     *   M. Dion, H. Rydberg, E. Schroder, D. C. Langreth, and
     *   B. I. Lundqvist, Phys. Rev. Lett. 92, 246401 (2004).
     *
     *   T. Thonhauser, V. R. Cooper, S. Li, A. Puzder, P. Hyldgaard, and
     *   D. C. Langreth, Phys. Rev. B 76, 125112 (2007).
     *
     *   G. Roman-Perez and J. M. Soler, Phys. Rev. Lett. 103, 096102 (2009).
     *
     *
     * If you are using vdW-DF2, please also cite:
     *
     *   K. Lee, E. D. Murray, L. Kong, B. I. Lundqvist, and
     *   D. C. Langreth, Phys. Rev. B 82, 081101(R) (2010).
     *
     *
     * If you are calculating the stress with vdW-DF, please also cite:
     *
     *   R. Sabatini, E. Kucukbenli, B. Kolb, T. Thonhauser, and
     *   S. de Gironcoli, J. Phys.: Condens. Matter 24, 424209 (2012).
     *

     Carrying out vdW-DF run using the following parameters:

     Nqs =      20    Nr_points =    1024   r_max =   100.000
     q_mesh =
               0.00001000     0.04494208     0.09755937     0.15916263
               0.23128650     0.31572767     0.41458969     0.53033537
               0.66584808     0.82450364     1.01025438     1.22772762
               1.48234092     1.78043706     2.12944203     2.53805004
               3.01644009     3.57652955     4.23227104     5.00000000

     Gradients computed in reciprocal space

     Adding external electric field

     Computed dipole along edir(3) :
        Dipole                0.0000 Ry au,          0.0000 Debye
        Dipole field          0.0000 Ry au

        Potential amp.       -0.0000 Ry
        Total length         45.5012 bohr

     Starting wfc are  114 randomized atomic wfcs

     Self-consistent Calculation

     iteration #  1     ecut=    36.75 Ry     beta=0.10
     Davidson diagonalization with overlap
     ethr =  1.00E-02,  avg # of iterations =  8.7

[...]

     total energy              =   -1855.09548574 Ry
     Harris-Foulkes estimate   =   -1880.11431929 Ry
     estimated scf accuracy    <     146.23599509 Ry

[...]

     End of self-consistent calculation

          k = 0.0000 0.0000 0.0000 ( 18003 PWs)   bands (ev):

   -70.6994 -70.6841 -70.5935 -70.5933 -70.5785 -70.5782 -42.0911 -42.0710
   -42.0547 -41.9637 -41.9516 -41.9512 -41.9475 -41.9431 -41.9370 -41.9352
   -41.9277 -41.9200 -41.8932 -41.8803 -41.8777 -41.8656 -41.7997 -41.7996
   -14.4523 -14.2168 -14.1293 -14.1162 -14.0561 -14.0189 -13.9571 -13.9418
   -13.8568 -13.8183 -13.7752 -13.7695 -13.7126 -13.7048 -13.5844 -13.5655
   -13.5431 -13.5069 -13.4890 -13.4861 -13.4784 -13.4314 -13.3835 -13.3740
   -13.3443 -13.3195 -13.3156 -13.2894 -13.1451 -13.0623  -8.4903  -6.7491
    -4.6744  -3.6620  -2.6744  -2.2777  -2.0046  -1.6660  -1.5498  -1.4820
    -1.1106  -0.7573  -0.7526  -0.3776  -0.3289  -0.1733   0.0019   0.0481
     0.1252   0.1876   0.6443   0.6505   0.7184   0.7339   0.8968   0.9828
     1.0477   1.1048   1.2802   1.3276   1.3617   1.3997   1.5369   1.5967
     1.6401   1.6708   1.6735   1.7353   1.7889   1.9122   2.0213   2.3611
     2.5178   3.0315   3.2996   3.6197   4.1525   4.1959   4.5466   4.7756
     4.8918   5.0974   5.2351   5.8752   6.1121   6.3539   6.4783

[...]

          k =-0.0877-0.0498 0.0000 ( 17942 PWs)   bands (ev):

[...]

     the Fermi energy is     1.0323 ev

!    total energy              =   -1865.65668457 Ry
     Harris-Foulkes estimate   =   -1865.65669274 Ry
     estimated scf accuracy    <       0.00000066 Ry

     The total energy is the sum of the following terms:

     one-electron contribution =  -13824.15123628 Ry
     hartree contribution      =    6948.67017004 Ry
     xc contribution           =    -374.68335675 Ry
     ewald contribution        =    5384.63296943 Ry
     electric field correction =       0.00000001 Ry
     smearing contrib. (-TS)   =      -0.12523103 Ry

     convergence has been achieved in  28 iterations

 BEEF-vdW xc energy contributions
           1 :   -326.891696984445
           2 :    297.348539439151
           3 :   -247.707649992833
           4 :    192.348283372133
           5 :   -144.299911501238
           6 :    110.453805705963
           7 :   -90.3574119720898
           8 :    78.5699351310093
           9 :   -68.7685473677152
          10 :    57.1945273134158
[...]
00030 suncat0192 pw.x -in pw.inp   Done                     12/19/2018 06:59:16
00031 suncat0192 pw.x -in pw.inp   Done                     12/19/2018 06:59:16

[...]

   This run was terminated on:   8: 9:24  19Dec2018

[...]

     Program PWSCF v.5.1rc2 (svn rev. 11289) starts on 19Dec2018 at  8: 9:30

[...]

   This run was terminated on:  10: 3: 6  19Dec2018

[...]

     Program PWSCF v.5.1rc2 (svn rev. 11289) starts on 19Dec2018 at 10: 3:12

[...]

     Program PWSCF v.5.1rc2 (svn rev. 11289) starts on 19Dec2018 at 10:48: 5

[...]

     Program PWSCF v.5.1rc2 (svn rev. 11289) starts on 19Dec2018 at 12:16:37

     Current dimensions of program PWSCF are:
     Max number of different atomic species (ntypx) = 10
     Max number of k-points (npk) =  40000
     Max angular momentum in pseudopotentials (lmaxx) =  3
     Presently stress not available with electric field

     IMPORTANT: XC functional enforced from input :
     Exchange-correlation      = BEEF-VDW ( 1  4 27 13 2)
     Any further DFT definition will be discarded
     Please, verify this is what you really want

     Subspace diagonalization in iterative solution of the eigenvalue problem:
     a serial algorithm will be used

     bravais-lattice index     =            0
     lattice parameter (alat)  =       1.8897  a.u.
     unit-cell volume          =    4775.3044 (a.u.)^3
     number of atoms/cell      =           12
     number of atomic types    =            2
     number of electrons       =       162.00
     number of Kohn-Sham states=          111
     kinetic-energy cutoff     =      36.7493  Ry
     charge density cutoff     =     367.4932  Ry
     convergence threshold     =      1.0E-06
     mixing beta               =       0.1000
     number of iterations used =           10  plain     mixing
     Exchange-correlation      = BEEF-VDW ( 1  4 27 13 2)
     nstep                     =           50

     celldm(1)=   1.889726  celldm(2)=   0.000000  celldm(3)=   0.000000
     celldm(4)=   0.000000  celldm(5)=   0.000000  celldm(6)=   0.000000

     crystal axes: (cart. coord. in units of alat)
               a(1) = (   5.702906   0.000000   0.000000 )
               a(2) = (  -2.851453   5.024459   0.000000 )
               a(3) = (   0.000000   0.000000  24.695564 )

     reciprocal axes: (cart. coord. in units 2 pi/alat)
               b(1) = (  0.175349  0.099513  0.000000 )
               b(2) = (  0.000000  0.199026  0.000000 )
               b(3) = (  0.000000  0.000000  0.040493 )

     PseudoPot. # 1 for Cr read from file:
     /afs/slac.stanford.edu/u/if/mamunm/psp/gbrv1.5pbe/Cr.UPF
     MD5 check sum: 0d52af634a40206e4dee301ad30da4bf
     Pseudo is Ultrasoft + core correction, Zval = 14.0
     Generated by new atomic code, or converted to UPF format
     Using radial grid of  857 points,  6 beta functions with:
                l(1) =   0
                l(2) =   0
                l(3) =   1
                l(4) =   1
                l(5) =   2
                l(6) =   2
     Q(r) pseudized with  8 coefficients,  rinner =    0.950   0.950   0.950
                                                       0.950   0.950

     PseudoPot. # 2 for In read from file:
     /afs/slac.stanford.edu/u/if/mamunm/psp/gbrv1.5pbe/In.UPF
     MD5 check sum: 90777abd96fbb83f2e67db2a40c566b9
     Pseudo is Ultrasoft + core correction, Zval = 13.0
     Generated by new atomic code, or converted to UPF format
     Using radial grid of  889 points,  6 beta functions with:
                l(1) =   0
                l(2) =   0
                l(3) =   1
                l(4) =   1
                l(5) =   2
                l(6) =   2
     Q(r) pseudized with  6 coefficients,  rinner =    1.400   1.400   1.400
                                                       1.400   1.400

     vdW kernel table read from file vdW_kernel_table
     MD5 check sum: 095c7af220d748ca6e76c0b4c6cfb241

     atomic species   valence    mass     pseudopotential
        Cr1           14.00    51.99610     Cr( 1.00)
        In1           13.00   114.81800     In( 1.00)

     No symmetry found

   Cartesian axes

     site n.     atom                  positions (alat units)
         1           Cr1 tau(   1) = (   0.0000000   0.0000000  10.0000000  )
         2           Cr1 tau(   2) = (   2.8514528   0.0000000  10.0000000  )
         3           In1 tau(   3) = (   1.4257264   2.5122296  10.0000000  )
         4           In1 tau(   4) = (  -1.4257264   2.5122296  10.0000000  )
         5           Cr1 tau(   5) = (   2.8514528   1.6182405  12.3477821  )
         6           Cr1 tau(   6) = (   0.0000000   1.6182405  12.3477821  )
         7           In1 tau(   7) = (  -1.4257264   4.1304701  12.3477821  )
         8           In1 tau(   8) = (   1.4257264   4.1304701  12.3477821  )
         9           Cr1 tau(   9) = (   0.0000008   2.3416716  14.1038541  )
        10           Cr1 tau(  10) = (   2.8514530   2.3419764  14.1036748  )
        11           In1 tau(  11) = (   4.2779196   0.0361596  15.1792061  )
        12           In1 tau(  12) = (   1.4249866   0.0361614  15.1792083  )

     number of k points=    20  Fermi-Dirac smearing, width (Ry)=  0.0110
                       cart. coord. in units 2pi/alat
        k(    1) = (   0.0000000   0.0000000   0.0000000), wk =   0.0555556
        k(    2) = (   0.0000000   0.0331711   0.0000000), wk =   0.1111111
        k(    3) = (   0.0000000   0.0663421   0.0000000), wk =   0.1111111
        k(    4) = (   0.0000000  -0.0995132   0.0000000), wk =   0.0555556
        k(    5) = (   0.0292249   0.0165855   0.0000000), wk =   0.1111111
        k(    6) = (   0.0292249   0.0497566   0.0000000), wk =   0.1111111
        k(    7) = (   0.0292249   0.0829277   0.0000000), wk =   0.1111111
        k(    8) = (   0.0292249  -0.0829277   0.0000000), wk =   0.1111111
        k(    9) = (   0.0292249  -0.0497566   0.0000000), wk =   0.1111111
        k(   10) = (   0.0292249  -0.0165855   0.0000000), wk =   0.1111111
        k(   11) = (   0.0584497   0.0331711   0.0000000), wk =   0.1111111
        k(   12) = (   0.0584497   0.0663421   0.0000000), wk =   0.1111111
        k(   13) = (   0.0584497   0.0995132   0.0000000), wk =   0.1111111
        k(   14) = (   0.0584497  -0.0663421   0.0000000), wk =   0.1111111
        k(   15) = (   0.0584497  -0.0331711   0.0000000), wk =   0.1111111
        k(   16) = (   0.0584497   0.0000000   0.0000000), wk =   0.1111111
        k(   17) = (  -0.0876746  -0.0497566   0.0000000), wk =   0.0555556
        k(   18) = (  -0.0876746  -0.0165855   0.0000000), wk =   0.1111111
        k(   19) = (  -0.0876746   0.0165855   0.0000000), wk =   0.1111111
        k(   20) = (  -0.0876746  -0.1492698   0.0000000), wk =   0.0555556

     Largest allocated arrays     est. size (Mb)     dimensions
     Largest temporary arrays     est. size (Mb)     dimensions

     Check: negative/imaginary core charge=   -0.000002    0.000000

     Initial potential from superposition of free atoms
     Check: negative starting charge=   -0.006852

     starting charge  146.99991, renormalised to  162.00000

[...]

     *
     * You are using vdW-DF for exchange-correlation in this calculation.
     * Please cite the following three references that made this development
     * possible:
     *
     *   M. Dion, H. Rydberg, E. Schroder, D. C. Langreth, and
     *   B. I. Lundqvist, Phys. Rev. Lett. 92, 246401 (2004).
     *
     *   T. Thonhauser, V. R. Cooper, S. Li, A. Puzder, P. Hyldgaard, and
     *   D. C. Langreth, Phys. Rev. B 76, 125112 (2007).
     *
     *   G. Roman-Perez and J. M. Soler, Phys. Rev. Lett. 103, 096102 (2009).
     *
     *
     * If you are using vdW-DF2, please also cite:
     *
     *   K. Lee, E. D. Murray, L. Kong, B. I. Lundqvist, and
     *   D. C. Langreth, Phys. Rev. B 82, 081101(R) (2010).
     *
     *
     * If you are calculating the stress with vdW-DF, please also cite:
     *
     *   R. Sabatini, E. Kucukbenli, B. Kolb, T. Thonhauser, and
     *   S. de Gironcoli, J. Phys.: Condens. Matter 24, 424209 (2012).
     *

     Carrying out vdW-DF run using the following parameters:

     Nqs =      20    Nr_points =    1024   r_max =   100.000
     q_mesh =
               0.00001000     0.04494208     0.09755937     0.15916263
               0.23128650     0.31572767     0.41458969     0.53033537
               0.66584808     0.82450364     1.01025438     1.22772762
               1.48234092     1.78043706     2.12944203     2.53805004
               3.01644009     3.57652955     4.23227104     5.00000000

     Gradients computed in reciprocal space

[...]

     Starting wfc are  114 randomized atomic wfcs

     Self-consistent Calculation

[...]

     total energy              =   -1865.80483297 Ry
     Harris-Foulkes estimate   =   -1865.80483303 Ry
     estimated scf accuracy    <       0.00000130 Ry

     iteration # 29     ecut=    36.75 Ry     beta=0.10
     Davidson diagonalization with overlap
     ethr =  8.00E-10,  avg # of iterations =  2.4

[...]

     negative rho (up, down):  5.397E-03 0.000E+00

     Adding external electric field

     Computed dipole along edir(3) :
        Dipole                0.0972 Ry au,          0.2471 Debye
        Dipole field          0.0003 Ry au

        Potential amp.       -0.0233 Ry
        Total length         45.5012 bohr

     End of self-consistent calculation

[...]

          k = 0.0584 0.0000 0.0000 ( 17983 PWs)   bands (ev):

[...]

          k =-0.0877-0.1493 0.0000 ( 17942 PWs)   bands (ev):

   -70.6727 -70.6726 -70.3871 -70.3870 -70.0769 -70.0769 -42.9394 -42.9392
   -41.9311 -41.9311 -41.7765 -41.7765 -41.7466 -41.7465 -41.6864 -41.6864
   -41.6789 -41.6788 -41.5757 -41.5757 -41.4190 -41.4190 -40.6374 -40.6372
   -13.9912 -13.9911 -13.8389 -13.8387 -13.7827 -13.7825 -13.7432 -13.7432
   -13.7273 -13.7272 -13.6106 -13.6079 -13.5677 -13.5663 -13.5105 -13.5088
   -13.5015 -13.5007 -13.4915 -13.4913 -13.4416 -13.4415 -13.4249 -13.4249
   -13.3916 -13.3916 -13.3301 -13.3300 -13.2711 -13.2711  -6.6972  -6.6965
    -5.0805  -5.0776  -3.6672  -3.6650  -2.1013  -2.1010  -1.2065  -1.2061
    -0.9360  -0.9353  -0.6028  -0.6026  -0.4142  -0.4139  -0.1633  -0.1631
     0.1410   0.1411   0.5655   0.5660   0.7949   0.7951   0.9936   0.9937
     1.1998   1.2000   1.4370   1.4373   1.6994   1.6997   1.7517   1.7520
     2.0946   2.0953   2.5330   2.5333   3.1230   3.1234   3.2518   3.2519
     3.7394   3.7402   4.6365   4.6371   5.0915   5.0928   5.7143   5.7146
     5.9024   5.9029   6.1899   6.1902   6.5401   6.5418   6.6907

     the Fermi energy is     1.2001 ev

!    total energy              =   -1865.80483246 Ry
     Harris-Foulkes estimate   =   -1865.80483155 Ry
     estimated scf accuracy    <       0.00000048 Ry

     The total energy is the sum of the following terms:

     one-electron contribution =  -13920.26258945 Ry
     hartree contribution      =    6997.54474329 Ry
     xc contribution           =    -375.09794835 Ry
     ewald contribution        =    5432.10366400 Ry
     electric field correction =       0.00002487 Ry
     smearing contrib. (-TS)   =      -0.09272683 Ry

     convergence has been achieved in  29 iterations

 BEEF-vdW xc energy contributions
           1 :   -327.327760745301
           2 :    297.839810909291
           3 :   -248.206301557477
           4 :    192.679774548337
           5 :   -144.246036889326
           6 :    109.888375888147
           7 :   -89.3388234979359
           8 :    77.3355106610808
           9 :   -67.6425685968458
          10 :    56.4581231225375
          11 :   -43.6020603902224
          12 :    31.3805229236984
          13 :   -22.3292106851848
          14 :    17.4021504199404
          15 :   -15.5747459812841
          16 :    14.7755231989392
          17 :   -13.2815845525577
          18 :    10.6131009606643
          19 :   -7.48153418652453
          20 :    5.02381252124928
          21 :   -3.95122307850204
          22 :    4.15753692862194
          23 :   -4.92843617902179
          24 :    5.48301815067174
          25 :   -5.43344223247942
          26 :    4.89740339002742
          27 :   -4.28301162283083
          28 :    3.96281586026851
          29 :   -4.06483875578687
          30 :    4.46933108568112
          31 :   -30.5981096605832
          32 :   -22.1969204505188

     Forces acting on atoms (Ry/au):

     negative rho (up, down):  5.397E-03 0.000E+00
     atom    1 type  1   force =     0.00000009    0.00627459    0.03379458
     atom    2 type  1   force =     0.00000002    0.00627601    0.03381687
     atom    3 type  2   force =     0.00000422   -0.01193575   -0.05732101
     atom    4 type  2   force =    -0.00000441   -0.01193570   -0.05732101
     atom    5 type  1   force =    -0.00000007   -0.01212546    0.01635686
     atom    6 type  1   force =     0.00000004   -0.01216986    0.01639195
     atom    7 type  2   force =     0.00001554    0.01766149    0.00565338
     atom    8 type  2   force =    -0.00001554    0.01766123    0.00565351
     atom    9 type  1   force =    -0.00000006    0.00020357    0.00043950
     atom   10 type  1   force =     0.00000003   -0.00002404    0.00055227
     atom   11 type  2   force =    -0.00048653    0.00005712    0.00099131
     atom   12 type  2   force =     0.00048668    0.00005681    0.00099178

     Total force =     0.103648     Total SCF correction =     0.002688

     entering subroutine stress ...

     negative rho (up, down):  5.397E-03 0.000E+00
          total   stress  (Ry/bohr**3)                   (kbar)     P=   -4.05
  -0.00001101  -0.00000000  -0.00000000         -1.62     -0.00     -0.00
  -0.00000000  -0.00010829   0.00001111         -0.00    -15.93      1.63
  -0.00000000   0.00001111   0.00003678         -0.00      1.63      5.41

 !ASE

     Writing output data file calc.save

     General routines

     Parallel routines

   This run was terminated on:  12:39:14  19Dec2018

   JOB DONE.
Job  /afs/slac/g/suncat/bin/suncat-tsmpirun -x LD_LIBRARY_PATH -wdir /scratch/qe529740_5qRKr pw.x -in pw.inp

TID   HOST_NAME   COMMAND_LINE            STATUS            TERMINATION_TIME
00000 suncat0195 pw.x -in pw.inp   Done                     12/19/2018 12:39:14
00001 suncat0195 pw.x -in pw.inp   Done                     12/19/2018 12:39:14
00002 suncat0195 pw.x -in pw.inp   Done                     12/19/2018 12:39:14
00003 suncat0195 pw.x -in pw.inp   Done                     12/19/2018 12:39:14
00004 suncat0195 pw.x -in pw.inp   Done                     12/19/2018 12:39:14
00005 suncat0195 pw.x -in pw.inp   Done                     12/19/2018 12:39:14
00006 suncat0195 pw.x -in pw.inp   Done                     12/19/2018 12:39:14
00007 suncat0195 pw.x -in pw.inp   Done                     12/19/2018 12:39:14
00008 suncat0194 pw.x -in pw.inp   Done                     12/19/2018 12:39:14
00009 suncat0194 pw.x -in pw.inp   Done                     12/19/2018 12:39:14
00010 suncat0194 pw.x -in pw.inp   Done                     12/19/2018 12:39:14
00011 suncat0194 pw.x -in pw.inp   Done                     12/19/2018 12:39:14
00012 suncat0194 pw.x -in pw.inp   Done                     12/19/2018 12:39:14
00013 suncat0194 pw.x -in pw.inp   Done                     12/19/2018 12:39:14
00014 suncat0194 pw.x -in pw.inp   Done                     12/19/2018 12:39:14
00015 suncat0194 pw.x -in pw.inp   Done                     12/19/2018 12:39:14
00016 suncat0193 pw.x -in pw.inp   Done                     12/19/2018 12:39:14
00017 suncat0193 pw.x -in pw.inp   Done                     12/19/2018 12:39:14
00018 suncat0193 pw.x -in pw.inp   Done                     12/19/2018 12:39:14
00019 suncat0193 pw.x -in pw.inp   Done                     12/19/2018 12:39:14
00020 suncat0193 pw.x -in pw.inp   Done                     12/19/2018 12:39:14
00021 suncat0193 pw.x -in pw.inp   Done                     12/19/2018 12:39:14
00022 suncat0193 pw.x -in pw.inp   Done                     12/19/2018 12:39:14
00023 suncat0193 pw.x -in pw.inp   Done                     12/19/2018 12:39:14
00024 suncat0192 pw.x -in pw.inp   Done                     12/19/2018 12:39:14
00025 suncat0192 pw.x -in pw.inp   Done                     12/19/2018 12:39:14
00026 suncat0192 pw.x -in pw.inp   Done                     12/19/2018 12:39:14
00027 suncat0192 pw.x -in pw.inp   Done                     12/19/2018 12:39:14
00028 suncat0192 pw.x -in pw.inp   Done                     12/19/2018 12:39:14
00029 suncat0192 pw.x -in pw.inp   Done                     12/19/2018 12:39:14
00030 suncat0192 pw.x -in pw.inp   Done                     12/19/2018 12:39:14
00031 suncat0192 pw.x -in pw.inp   Done                     12/19/2018 12:39:14