     Program PWSCF v.5.1rc2 (svn rev. 11289) starts on 18Dec2018 at 18:11:23

     Current dimensions of program PWSCF are:
     Max number of different atomic species (ntypx) = 10
     Max number of k-points (npk) =  40000
     Max angular momentum in pseudopotentials (lmaxx) =  3
     Presently stress not available with electric field

     IMPORTANT: XC functional enforced from input :
     Exchange-correlation      = BEEF-VDW ( 1  4 27 13 2)
     Any further DFT definition will be discarded
     Please, verify this is what you really want

     Subspace diagonalization in iterative solution of the eigenvalue problem:
     a serial algorithm will be used

     Found symmetry operation: I + ( -0.5000  0.0000  0.0000)
     This is a supercell, fractional translations are disabled

     bravais-lattice index     =            0
     lattice parameter (alat)  =       1.8897  a.u.
     unit-cell volume          =    4760.0314 (a.u.)^3
     number of atoms/cell      =           12
     number of atomic types    =            2
     number of electrons       =        96.00
     number of Kohn-Sham states=           78
     kinetic-energy cutoff     =      36.7493  Ry
     charge density cutoff     =     367.4932  Ry
     convergence threshold     =      1.0E-06
     mixing beta               =       0.1000
     number of iterations used =           10  plain     mixing
     Exchange-correlation      = BEEF-VDW ( 1  4 27 13 2)
     nstep                     =           50

     celldm(1)=   1.889726  celldm(2)=   0.000000  celldm(3)=   0.000000
     celldm(4)=   0.000000  celldm(5)=   0.000000  celldm(6)=   0.000000

     crystal axes: (cart. coord. in units of alat)
               a(1) = (   5.664980   0.000000   0.000000 )
               a(2) = (  -2.832490   5.043616   0.000000 )
               a(3) = (   0.000000   0.000000  24.687258 )

     reciprocal axes: (cart. coord. in units 2 pi/alat)
               b(1) = (  0.176523  0.099135  0.000000 )
               b(2) = (  0.000000  0.198270  0.000000 )
               b(3) = (  0.000000  0.000000  0.040507 )

     PseudoPot. # 1 for Al read from file:
     /afs/slac.stanford.edu/u/if/mamunm/psp/gbrv1.5pbe/Al.UPF
     MD5 check sum: 0a6289f5291fc8f409219462bc851e1f
     Pseudo is Ultrasoft + core correction, Zval =  3.0
     Generated by new atomic code, or converted to UPF format
     Using radial grid of  893 points,  3 beta functions with:
                l(1) =   0
                l(2) =   1
                l(3) =   2
     Q(r) pseudized with  8 coefficients,  rinner =    0.900   0.900   0.900
                                                       0.900   0.900

     PseudoPot. # 2 for Ta read from file:
     /afs/slac.stanford.edu/u/if/mamunm/psp/gbrv1.5pbe/Ta.UPF
     MD5 check sum: f8bbe9446314a3b8ea5d9f3e3836c939
     Pseudo is Ultrasoft + core correction, Zval = 13.0
     Generated by new atomic code, or converted to UPF format
     Using radial grid of  921 points,  7 beta functions with:
                l(1) =   0
                l(2) =   0
                l(3) =   1
                l(4) =   1
                l(5) =   2
                l(6) =   2
                l(7) =   3
     Q(r) pseudized with  6 coefficients,  rinner =    1.300   1.300   1.300
                                                       1.300   1.300   1.300
                                                       1.300

     vdW kernel table read from file vdW_kernel_table
     MD5 check sum: 095c7af220d748ca6e76c0b4c6cfb241

     atomic species   valence    mass     pseudopotential
        Al1            3.00    26.98154     Al( 1.00)
        Ta1           13.00   180.94788     Ta( 1.00)

     No symmetry found

   Cartesian axes

     site n.     atom                  positions (alat units)
         1           Al1 tau(   1) = (   0.0000000   0.0000000  10.0000000  )
         2           Al1 tau(   2) = (   2.8324900   0.0000000  10.0000000  )
         3           Ta1 tau(   3) = (   1.4162450   2.5218078  10.0000000  )
         4           Ta1 tau(   4) = (  -1.4162450   2.5218078  10.0000000  )
         5           Al1 tau(   5) = (   2.8324900   1.5907238  12.3436291  )
         6           Al1 tau(   6) = (  -0.0000000   1.5907238  12.3436291  )
         7           Ta1 tau(   7) = (  -1.4162450   4.1125316  12.3436291  )
         8           Ta1 tau(   8) = (   1.4162450   4.1125316  12.3436291  )
         9           Al1 tau(   9) = (   0.0000000   3.1814477  14.6872581  )
        10           Al1 tau(  10) = (   2.8324900   3.1814477  14.6872581  )
        11           Ta1 tau(  11) = (   4.2487350   0.6596399  14.6872581  )
        12           Ta1 tau(  12) = (   1.4162450   0.6596399  14.6872581  )

     number of k points=    20  Fermi-Dirac smearing, width (Ry)=  0.0110
                       cart. coord. in units 2pi/alat
        k(    1) = (   0.0000000   0.0000000   0.0000000), wk =   0.0555556
        k(    2) = (   0.0000000   0.0330451   0.0000000), wk =   0.1111111
        k(    3) = (   0.0000000   0.0660902   0.0000000), wk =   0.1111111
        k(    4) = (   0.0000000  -0.0991352   0.0000000), wk =   0.0555556
        k(    5) = (   0.0294205   0.0165225   0.0000000), wk =   0.1111111
        k(    6) = (   0.0294205   0.0495676   0.0000000), wk =   0.1111111
        k(    7) = (   0.0294205   0.0826127   0.0000000), wk =   0.1111111
        k(    8) = (   0.0294205  -0.0826127   0.0000000), wk =   0.1111111
        k(    9) = (   0.0294205  -0.0495676   0.0000000), wk =   0.1111111
        k(   10) = (   0.0294205  -0.0165225   0.0000000), wk =   0.1111111
        k(   11) = (   0.0588410   0.0330451   0.0000000), wk =   0.1111111
        k(   12) = (   0.0588410   0.0660902   0.0000000), wk =   0.1111111
        k(   13) = (   0.0588410   0.0991352   0.0000000), wk =   0.1111111
        k(   14) = (   0.0588410  -0.0660902   0.0000000), wk =   0.1111111
        k(   15) = (   0.0588410  -0.0330451   0.0000000), wk =   0.1111111
        k(   16) = (   0.0588410   0.0000000   0.0000000), wk =   0.1111111
        k(   17) = (  -0.0882616  -0.0495676   0.0000000), wk =   0.0555556
        k(   18) = (  -0.0882616  -0.0165225   0.0000000), wk =   0.1111111
        k(   19) = (  -0.0882616   0.0165225   0.0000000), wk =   0.1111111
        k(   20) = (  -0.0882616  -0.1487028   0.0000000), wk =   0.0555556

     Largest allocated arrays     est. size (Mb)     dimensions
     Largest temporary arrays     est. size (Mb)     dimensions

     Initial potential from superposition of free atoms
     Check: negative starting charge=   -0.566800

     starting charge   95.97854, renormalised to   96.00000

     negative rho (up, down):  5.669E-01 0.000E+00

     *
     * You are using vdW-DF for exchange-correlation in this calculation.
     * Please cite the following three references that made this development
     * possible:
     *
     *   M. Dion, H. Rydberg, E. Schroder, D. C. Langreth, and
     *   B. I. Lundqvist, Phys. Rev. Lett. 92, 246401 (2004).
     *
     *   T. Thonhauser, V. R. Cooper, S. Li, A. Puzder, P. Hyldgaard, and
     *   D. C. Langreth, Phys. Rev. B 76, 125112 (2007).
     *
     *   G. Roman-Perez and J. M. Soler, Phys. Rev. Lett. 103, 096102 (2009).
     *
     *
     * If you are using vdW-DF2, please also cite:
     *
     *   K. Lee, E. D. Murray, L. Kong, B. I. Lundqvist, and
     *   D. C. Langreth, Phys. Rev. B 82, 081101(R) (2010).
     *
     *
     * If you are calculating the stress with vdW-DF, please also cite:
     *
     *   R. Sabatini, E. Kucukbenli, B. Kolb, T. Thonhauser, and
     *   S. de Gironcoli, J. Phys.: Condens. Matter 24, 424209 (2012).
     *

     Carrying out vdW-DF run using the following parameters:

     Nqs =      20    Nr_points =    1024   r_max =   100.000
     q_mesh =
               0.00001000     0.04494208     0.09755937     0.15916263
               0.23128650     0.31572767     0.41458969     0.53033537
               0.66584808     0.82450364     1.01025438     1.22772762
               1.48234092     1.78043706     2.12944203     2.53805004
               3.01644009     3.57652955     4.23227104     5.00000000

     Gradients computed in reciprocal space

     Adding external electric field

     Computed dipole along edir(3) :
        Dipole                0.0000 Ry au,          0.0000 Debye
        Dipole field          0.0000 Ry au

        Potential amp.       -0.0000 Ry
        Total length         45.4859 bohr

     Starting wfc are  102 randomized atomic wfcs

     Self-consistent Calculation

     iteration #  1     ecut=    36.75 Ry     beta=0.10
     Davidson diagonalization with overlap
     ethr =  1.00E-02,  avg # of iterations =  4.0

[...]

     total energy              =    -900.42911129 Ry
     Harris-Foulkes estimate   =    -900.79977072 Ry
     estimated scf accuracy    <       2.21333042 Ry

[...]

     End of self-consistent calculation

          k = 0.0000 0.0000 0.0000 ( 17971 PWs)   bands (ev):

   -67.7377 -67.7362 -67.6844 -67.6830 -67.4931 -67.4385 -34.3390 -34.3382
   -34.3204 -34.2380 -34.2373 -34.2204 -34.1572 -34.1277 -34.0959 -34.0647
   -34.0030 -33.9845 -33.8827 -33.6417 -33.5575 -33.5115 -33.5034 -33.4110
    -8.6292  -6.8576  -5.3865  -4.8409  -3.6758  -3.5373  -3.0084  -2.7425
    -2.7215  -2.4991  -2.4520  -1.7223  -1.6003  -1.4060  -1.1167  -1.0102
    -0.6562  -0.6440  -0.2787  -0.1295  -0.0870   0.4678   0.5158   0.5627
     0.8174   0.9687   0.9767   1.0968   1.5759   1.7998   1.8196   2.0329
     2.2868   2.5052   2.9615   3.5731   3.7598   3.7916   3.7942   3.9118
     3.9927   4.1177   4.1776   4.4824   4.5820   4.8214   5.2154   5.2953
     5.3597   5.3897   5.7983   5.8219   6.0899   6.2181

[...]

          k =-0.0883-0.0496 0.0000 ( 17868 PWs)   bands (ev):

[...]

     the Fermi energy is     0.6846 ev

!    total energy              =    -900.52670831 Ry
     Harris-Foulkes estimate   =    -900.52670740 Ry
     estimated scf accuracy    <       0.00000059 Ry

     The total energy is the sum of the following terms:

     one-electron contribution =   -4842.35262341 Ry
     hartree contribution      =    2412.88716008 Ry
     xc contribution           =    -288.31598019 Ry
     ewald contribution        =    1817.31184277 Ry
     electric field correction =       0.00000000 Ry
     smearing contrib. (-TS)   =      -0.05710756 Ry

     convergence has been achieved in  14 iterations

 BEEF-vdW xc energy contributions
           1 :   -252.340167304066
           2 :    231.655679302784
           3 :   -196.145542895069
           4 :    154.766010241546
           5 :   -115.869425078394
           6 :    84.5174830446659
           7 :   -61.8300900079571
           8 :    46.1438377153332
           9 :   -34.8864910353026
          10 :    26.0265252405630
          11 :   -18.5818984958553
          12 :    12.3713381275775
          13 :   -7.51119365114943
          14 :    4.04154651284784
          15 :   -1.78581291091939
          16 :   0.374343490819001
          17 :   0.642141781144119
          18 :   -1.62808470525533
          19 :    2.70417912128903
          20 :   -3.69833326967535
[...]
00023 suncat0168 pw.x -in pw.inp   Done                     12/18/2018 18:19:48
00024 suncat0167 pw.x -in pw.inp   Done                     12/18/2018 18:19:48
00025 suncat0167 pw.x -in pw.inp   Done                     12/18/2018 18:19:48
00026 suncat0167 pw.x -in pw.inp   Done                     12/18/2018 18:19:48
00027 suncat0167 pw.x -in pw.inp   Done                     12/18/2018 18:19:48
00028 suncat0167 pw.x -in pw.inp   Done                     12/18/2018 18:19:48
00029 suncat0167 pw.x -in pw.inp   Done                     12/18/2018 18:19:48
00030 suncat0167 pw.x -in pw.inp   Done                     12/18/2018 18:19:48
00031 suncat0167 pw.x -in pw.inp   Done                     12/18/2018 18:19:48

[...]

   This run was terminated on:  18:55:14  18Dec2018

[...]

     Program PWSCF v.5.1rc2 (svn rev. 11289) starts on 18Dec2018 at 18:55:24

     Current dimensions of program PWSCF are:
     Max number of different atomic species (ntypx) = 10
     Max number of k-points (npk) =  40000
     Max angular momentum in pseudopotentials (lmaxx) =  3
     Presently stress not available with electric field

     IMPORTANT: XC functional enforced from input :
     Exchange-correlation      = BEEF-VDW ( 1  4 27 13 2)
     Any further DFT definition will be discarded
     Please, verify this is what you really want

     Subspace diagonalization in iterative solution of the eigenvalue problem:
     a serial algorithm will be used

     Found symmetry operation: I + ( -0.5000  0.0000  0.0000)
     This is a supercell, fractional translations are disabled

     bravais-lattice index     =            0
     lattice parameter (alat)  =       1.8897  a.u.
     unit-cell volume          =    4760.0314 (a.u.)^3
     number of atoms/cell      =           12
     number of atomic types    =            2
     number of electrons       =        96.00
     number of Kohn-Sham states=           78
     kinetic-energy cutoff     =      36.7493  Ry
     charge density cutoff     =     367.4932  Ry
     convergence threshold     =      1.0E-06
     mixing beta               =       0.1000
     number of iterations used =           10  plain     mixing
     Exchange-correlation      = BEEF-VDW ( 1  4 27 13 2)
     nstep                     =           50

     celldm(1)=   1.889726  celldm(2)=   0.000000  celldm(3)=   0.000000
     celldm(4)=   0.000000  celldm(5)=   0.000000  celldm(6)=   0.000000

     crystal axes: (cart. coord. in units of alat)
               a(1) = (   5.664980   0.000000   0.000000 )
               a(2) = (  -2.832490   5.043616   0.000000 )
               a(3) = (   0.000000   0.000000  24.687258 )

     reciprocal axes: (cart. coord. in units 2 pi/alat)
               b(1) = (  0.176523  0.099135  0.000000 )
               b(2) = (  0.000000  0.198270  0.000000 )
               b(3) = (  0.000000  0.000000  0.040507 )

     PseudoPot. # 1 for Al read from file:
     /afs/slac.stanford.edu/u/if/mamunm/psp/gbrv1.5pbe/Al.UPF
     MD5 check sum: 0a6289f5291fc8f409219462bc851e1f
     Pseudo is Ultrasoft + core correction, Zval =  3.0
     Generated by new atomic code, or converted to UPF format
     Using radial grid of  893 points,  3 beta functions with:
                l(1) =   0
                l(2) =   1
                l(3) =   2
     Q(r) pseudized with  8 coefficients,  rinner =    0.900   0.900   0.900
                                                       0.900   0.900

     PseudoPot. # 2 for Ta read from file:
     /afs/slac.stanford.edu/u/if/mamunm/psp/gbrv1.5pbe/Ta.UPF
     MD5 check sum: f8bbe9446314a3b8ea5d9f3e3836c939
     Pseudo is Ultrasoft + core correction, Zval = 13.0
     Generated by new atomic code, or converted to UPF format
     Using radial grid of  921 points,  7 beta functions with:
                l(1) =   0
                l(2) =   0
                l(3) =   1
                l(4) =   1
                l(5) =   2
                l(6) =   2
                l(7) =   3
     Q(r) pseudized with  6 coefficients,  rinner =    1.300   1.300   1.300
                                                       1.300   1.300   1.300
                                                       1.300

     vdW kernel table read from file vdW_kernel_table
     MD5 check sum: 095c7af220d748ca6e76c0b4c6cfb241

     atomic species   valence    mass     pseudopotential
        Al1            3.00    26.98154     Al( 1.00)
        Ta1           13.00   180.94788     Ta( 1.00)

     No symmetry found

   Cartesian axes

     site n.     atom                  positions (alat units)
         1           Al1 tau(   1) = (   0.0000000   0.0000000  10.0000000  )
         2           Al1 tau(   2) = (   2.8324900   0.0000000  10.0000000  )
         3           Ta1 tau(   3) = (   1.4162450   2.5218078  10.0000000  )
         4           Ta1 tau(   4) = (  -1.4162450   2.5218078  10.0000000  )
         5           Al1 tau(   5) = (   2.8324900   1.5907238  12.3436291  )
         6           Al1 tau(   6) = (  -0.0000000   1.5907238  12.3436291  )
         7           Ta1 tau(   7) = (  -1.4162450   4.1125316  12.3436291  )
         8           Ta1 tau(   8) = (   1.4162450   4.1125316  12.3436291  )
         9           Al1 tau(   9) = (   0.0000002   3.1774538  14.8444002  )
        10           Al1 tau(  10) = (   2.8324893   3.1774521  14.8444005  )
        11           Ta1 tau(  11) = (   4.2487314   0.6517275  14.5799850  )
        12           Ta1 tau(  12) = (   1.4162494   0.6517297  14.5799848  )

     number of k points=    20  Fermi-Dirac smearing, width (Ry)=  0.0110
                       cart. coord. in units 2pi/alat
        k(    1) = (   0.0000000   0.0000000   0.0000000), wk =   0.0555556
        k(    2) = (   0.0000000   0.0330451   0.0000000), wk =   0.1111111
        k(    3) = (   0.0000000   0.0660902   0.0000000), wk =   0.1111111
        k(    4) = (   0.0000000  -0.0991352   0.0000000), wk =   0.0555556
        k(    5) = (   0.0294205   0.0165225   0.0000000), wk =   0.1111111
        k(    6) = (   0.0294205   0.0495676   0.0000000), wk =   0.1111111
        k(    7) = (   0.0294205   0.0826127   0.0000000), wk =   0.1111111
        k(    8) = (   0.0294205  -0.0826127   0.0000000), wk =   0.1111111
        k(    9) = (   0.0294205  -0.0495676   0.0000000), wk =   0.1111111
        k(   10) = (   0.0294205  -0.0165225   0.0000000), wk =   0.1111111
        k(   11) = (   0.0588410   0.0330451   0.0000000), wk =   0.1111111
        k(   12) = (   0.0588410   0.0660902   0.0000000), wk =   0.1111111
        k(   13) = (   0.0588410   0.0991352   0.0000000), wk =   0.1111111
        k(   14) = (   0.0588410  -0.0660902   0.0000000), wk =   0.1111111
        k(   15) = (   0.0588410  -0.0330451   0.0000000), wk =   0.1111111
        k(   16) = (   0.0588410   0.0000000   0.0000000), wk =   0.1111111
        k(   17) = (  -0.0882616  -0.0495676   0.0000000), wk =   0.0555556
        k(   18) = (  -0.0882616  -0.0165225   0.0000000), wk =   0.1111111
        k(   19) = (  -0.0882616   0.0165225   0.0000000), wk =   0.1111111
        k(   20) = (  -0.0882616  -0.1487028   0.0000000), wk =   0.0555556

     Largest allocated arrays     est. size (Mb)     dimensions
     Largest temporary arrays     est. size (Mb)     dimensions

     Initial potential from superposition of free atoms
     Check: negative starting charge=   -0.567905

     starting charge   95.97854, renormalised to   96.00000

[...]

     *
     * You are using vdW-DF for exchange-correlation in this calculation.
     * Please cite the following three references that made this development
     * possible:
     *
     *   M. Dion, H. Rydberg, E. Schroder, D. C. Langreth, and
     *   B. I. Lundqvist, Phys. Rev. Lett. 92, 246401 (2004).
     *
     *   T. Thonhauser, V. R. Cooper, S. Li, A. Puzder, P. Hyldgaard, and
     *   D. C. Langreth, Phys. Rev. B 76, 125112 (2007).
     *
     *   G. Roman-Perez and J. M. Soler, Phys. Rev. Lett. 103, 096102 (2009).
     *
     *
     * If you are using vdW-DF2, please also cite:
     *
     *   K. Lee, E. D. Murray, L. Kong, B. I. Lundqvist, and
     *   D. C. Langreth, Phys. Rev. B 82, 081101(R) (2010).
     *
     *
     * If you are calculating the stress with vdW-DF, please also cite:
     *
     *   R. Sabatini, E. Kucukbenli, B. Kolb, T. Thonhauser, and
     *   S. de Gironcoli, J. Phys.: Condens. Matter 24, 424209 (2012).
     *

     Carrying out vdW-DF run using the following parameters:

     Nqs =      20    Nr_points =    1024   r_max =   100.000
     q_mesh =
               0.00001000     0.04494208     0.09755937     0.15916263
               0.23128650     0.31572767     0.41458969     0.53033537
               0.66584808     0.82450364     1.01025438     1.22772762
               1.48234092     1.78043706     2.12944203     2.53805004
               3.01644009     3.57652955     4.23227104     5.00000000

     Gradients computed in reciprocal space

[...]

     Starting wfc are  102 randomized atomic wfcs

     Self-consistent Calculation

[...]

     total energy              =    -900.54136896 Ry
     Harris-Foulkes estimate   =    -900.54136845 Ry
     estimated scf accuracy    <       0.00000118 Ry

     iteration # 16     ecut=    36.75 Ry     beta=0.10
     Davidson diagonalization with overlap
     ethr =  1.23E-09,  avg # of iterations =  2.1

[...]

     negative rho (up, down):  5.960E-01 0.000E+00

     Adding external electric field

     Computed dipole along edir(3) :
        Dipole               -0.0193 Ry au,         -0.0489 Debye
        Dipole field         -0.0001 Ry au

        Potential amp.        0.0046 Ry
        Total length         45.4859 bohr

     End of self-consistent calculation

[...]

          k = 0.0588 0.0000 0.0000 ( 17930 PWs)   bands (ev):

[...]

          k =-0.0883-0.1487 0.0000 ( 17868 PWs)   bands (ev):

   -67.7561 -67.7561 -67.6152 -67.6152 -67.4847 -67.4847 -34.3241 -34.3241
   -34.1749 -34.1749 -34.0928 -34.0928 -34.0238 -34.0238 -33.9739 -33.9739
   -33.9483 -33.9483 -33.8914 -33.8914 -33.8263 -33.8263 -33.5508 -33.5508
    -6.9392  -6.9392  -5.4395  -5.4395  -4.4100  -4.4100  -3.0838  -3.0838
    -2.2955  -2.2955  -1.4658  -1.4658  -1.0853  -1.0853  -0.7340  -0.7340
    -0.5457  -0.5457  -0.3022  -0.3022   0.2254   0.2254   0.4048   0.4048
     0.8708   0.8708   1.0423   1.0423   1.6359   1.6359   1.9941   1.9941
     2.2545   2.2545   2.9132   2.9132   3.0911   3.0911   3.3029   3.3029
     3.7059   3.7059   4.7073   4.7073   5.2452   5.2452   5.6339   5.6339
     5.7635   5.7635   6.0591   6.0591   6.4787   6.4787

     the Fermi energy is     0.6519 ev

!    total energy              =    -900.54136993 Ry
     Harris-Foulkes estimate   =    -900.54136905 Ry
     estimated scf accuracy    <       0.00000016 Ry

     The total energy is the sum of the following terms:

     one-electron contribution =   -4879.50751722 Ry
     hartree contribution      =    2431.46563518 Ry
     xc contribution           =    -288.32726472 Ry
     ewald contribution        =    1835.88025810 Ry
     electric field correction =       0.00000098 Ry
     smearing contrib. (-TS)   =      -0.05248224 Ry

     convergence has been achieved in  16 iterations

 BEEF-vdW xc energy contributions
           1 :   -252.354958508942
           2 :    231.676612589971
           3 :   -196.169152827488
           4 :    154.775304253890
           5 :   -115.839360865838
           6 :    84.4276588760111
           7 :   -61.6772137466661
           8 :    45.9453426103292
           9 :   -34.6720114943229
          10 :    25.8219307189451
          11 :   -18.3960099971254
          12 :    12.1936623744400
          13 :   -7.32139462948618
          14 :    3.82307533225060
          15 :   -1.53460675979829
          16 :   9.897905536979579E-002
          17 :   0.925893484104336
          18 :   -1.90331464104406
          19 :    2.95738577917376
          20 :   -3.92339685888538
          21 :    4.48180254914882
          22 :   -4.41723810081658
          23 :    3.82196860180045
          24 :   -3.08274151231115
          25 :    2.64798662733705
          26 :   -2.74331599142943
          27 :    3.24262910318055
          28 :   -3.78229514105374
          29 :    4.02264476132734
          30 :   -3.86121880599762
          31 :   -23.8029404640022
          32 :   -17.6491130718392

     Forces acting on atoms (Ry/au):

     negative rho (up, down):  5.960E-01 0.000E+00
     atom    1 type  1   force =     0.00000010    0.00211329   -0.02327294
     atom    2 type  1   force =    -0.00000010    0.00211326   -0.02327295
     atom    3 type  2   force =     0.00000003    0.00635954    0.03552076
     atom    4 type  2   force =     0.00000012    0.00635988    0.03552130
     atom    5 type  1   force =    -0.00000005    0.00467652   -0.00713496
     atom    6 type  1   force =     0.00000007    0.00467621   -0.00713441
     atom    7 type  2   force =     0.00000002   -0.01486519   -0.00454900
     atom    8 type  2   force =     0.00000015   -0.01486638   -0.00455015
     atom    9 type  1   force =    -0.00000021    0.00081180   -0.00032955
     atom   10 type  1   force =     0.00000034    0.00081289   -0.00032974
     atom   11 type  2   force =     0.00000234    0.00090496   -0.00023375
     atom   12 type  2   force =    -0.00000279    0.00090323   -0.00023462

     Total force =     0.065793     Total SCF correction =     0.000863

     entering subroutine stress ...

     negative rho (up, down):  5.960E-01 0.000E+00
          total   stress  (Ry/bohr**3)                   (kbar)     P=  -18.78
  -0.00013493   0.00000000  -0.00000000        -19.85      0.00     -0.00
   0.00000000  -0.00019791  -0.00001257          0.00    -29.11     -1.85
  -0.00000000  -0.00001257  -0.00005018         -0.00     -1.85     -7.38

 !ASE

     Writing output data file calc.save

     General routines

     Parallel routines

   This run was terminated on:  19: 4:14  18Dec2018

   JOB DONE.
Job  /afs/slac/g/suncat/bin/suncat-tsmpirun -x LD_LIBRARY_PATH -wdir /scratch/qe529615_IybcK pw.x -in pw.inp

TID   HOST_NAME   COMMAND_LINE            STATUS            TERMINATION_TIME
00000 suncat0171 pw.x -in pw.inp   Done                     12/18/2018 19:04:14
00001 suncat0171 pw.x -in pw.inp   Done                     12/18/2018 19:04:14
00002 suncat0171 pw.x -in pw.inp   Done                     12/18/2018 19:04:14
00003 suncat0171 pw.x -in pw.inp   Done                     12/18/2018 19:04:14
00004 suncat0171 pw.x -in pw.inp   Done                     12/18/2018 19:04:14
00005 suncat0171 pw.x -in pw.inp   Done                     12/18/2018 19:04:14
00006 suncat0171 pw.x -in pw.inp   Done                     12/18/2018 19:04:14
00007 suncat0171 pw.x -in pw.inp   Done                     12/18/2018 19:04:14
00008 suncat0169 pw.x -in pw.inp   Done                     12/18/2018 19:04:14
00009 suncat0169 pw.x -in pw.inp   Done                     12/18/2018 19:04:14
00010 suncat0169 pw.x -in pw.inp   Done                     12/18/2018 19:04:14
00011 suncat0169 pw.x -in pw.inp   Done                     12/18/2018 19:04:14
00012 suncat0169 pw.x -in pw.inp   Done                     12/18/2018 19:04:14
00013 suncat0169 pw.x -in pw.inp   Done                     12/18/2018 19:04:14
00014 suncat0169 pw.x -in pw.inp   Done                     12/18/2018 19:04:14
00015 suncat0169 pw.x -in pw.inp   Done                     12/18/2018 19:04:14
00016 suncat0168 pw.x -in pw.inp   Done                     12/18/2018 19:04:14
00017 suncat0168 pw.x -in pw.inp   Done                     12/18/2018 19:04:14
00018 suncat0168 pw.x -in pw.inp   Done                     12/18/2018 19:04:14
00019 suncat0168 pw.x -in pw.inp   Done                     12/18/2018 19:04:14
00020 suncat0168 pw.x -in pw.inp   Done                     12/18/2018 19:04:14
00021 suncat0168 pw.x -in pw.inp   Done                     12/18/2018 19:04:14
00022 suncat0168 pw.x -in pw.inp   Done                     12/18/2018 19:04:14
00023 suncat0168 pw.x -in pw.inp   Done                     12/18/2018 19:04:14
00024 suncat0167 pw.x -in pw.inp   Done                     12/18/2018 19:04:14
00025 suncat0167 pw.x -in pw.inp   Done                     12/18/2018 19:04:14
00026 suncat0167 pw.x -in pw.inp   Done                     12/18/2018 19:04:14
00027 suncat0167 pw.x -in pw.inp   Done                     12/18/2018 19:04:14
00028 suncat0167 pw.x -in pw.inp   Done                     12/18/2018 19:04:14
00029 suncat0167 pw.x -in pw.inp   Done                     12/18/2018 19:04:14
00030 suncat0167 pw.x -in pw.inp   Done                     12/18/2018 19:04:14
00031 suncat0167 pw.x -in pw.inp   Done                     12/18/2018 19:04:14