     Program PWSCF v.5.1rc2 (svn rev. 11289) starts on 29Dec2018 at 18:26:58

     Current dimensions of program PWSCF are:
     Max number of different atomic species (ntypx) = 10
     Max number of k-points (npk) =  40000
     Max angular momentum in pseudopotentials (lmaxx) =  3
     Presently stress not available with electric field

     IMPORTANT: XC functional enforced from input :
     Exchange-correlation      = BEEF-VDW ( 1  4 27 13 2)
     Any further DFT definition will be discarded
     Please, verify this is what you really want

     Subspace diagonalization in iterative solution of the eigenvalue problem:
     a serial algorithm will be used

     Found symmetry operation: I + ( -0.5000  0.5000  0.0000)
     This is a supercell, fractional translations are disabled

     bravais-lattice index     =            0
     lattice parameter (alat)  =       1.8897  a.u.
     unit-cell volume          =    5013.3267 (a.u.)^3
     number of atoms/cell      =           12
     number of atomic types    =            2
     number of electrons       =       162.00
     number of Kohn-Sham states=          111
     kinetic-energy cutoff     =      36.7493  Ry
     charge density cutoff     =     367.4932  Ry
     convergence threshold     =      1.0E-06
     mixing beta               =       0.1000
     number of iterations used =           10  plain     mixing
     Exchange-correlation      = BEEF-VDW ( 1  4 27 13 2)
     nstep                     =           50

     celldm(1)=   1.889726  celldm(2)=   0.000000  celldm(3)=   0.000000
     celldm(4)=   0.000000  celldm(5)=   0.000000  celldm(6)=   0.000000

     crystal axes: (cart. coord. in units of alat)
               a(1) = (   5.661067   0.000000   0.000000 )
               a(2) = (   1.913025   5.328041   0.000000 )
               a(3) = (   0.000000   0.000000  24.629951 )

     reciprocal axes: (cart. coord. in units 2 pi/alat)
               b(1) = (  0.176645 -0.063424  0.000000 )
               b(2) = (  0.000000  0.187686  0.000000 )
               b(3) = (  0.000000  0.000000  0.040601 )

     PseudoPot. # 1 for Tc read from file:
     /afs/slac.stanford.edu/u/if/mamunm/psp/gbrv1.5pbe/Tc.UPF
     MD5 check sum: 9eb49e5b028550b2339a02317eb7b844
     Pseudo is Ultrasoft + core correction, Zval = 15.0
     Generated by new atomic code, or converted to UPF format
     Using radial grid of  965 points,  6 beta functions with:
                l(1) =   0
                l(2) =   0
                l(3) =   1
                l(4) =   1
                l(5) =   2
                l(6) =   2
     Q(r) pseudized with  8 coefficients,  rinner =    1.300   1.300   1.300
                                                       1.300   1.300

     PseudoPot. # 2 for Hf read from file:
     /afs/slac.stanford.edu/u/if/mamunm/psp/gbrv1.5pbe/Hf.UPF
     MD5 check sum: 8ee9378dfe14276e333edf04c5e4aa26
     Pseudo is Ultrasoft + core correction, Zval = 12.0
     Generated by new atomic code, or converted to UPF format
     Using radial grid of  921 points,  8 beta functions with:
                l(1) =   0
                l(2) =   0
                l(3) =   0
                l(4) =   1
                l(5) =   1
                l(6) =   2
                l(7) =   2
                l(8) =   3
     Q(r) pseudized with  6 coefficients,  rinner =    1.200   1.200   1.200
                                                       1.200   1.200   1.200
                                                       1.200

     vdW kernel table read from file vdW_kernel_table
     MD5 check sum: 095c7af220d748ca6e76c0b4c6cfb241

     atomic species   valence    mass     pseudopotential
        Tc1           15.00    97.90721     Tc( 1.00)
        Hf1           12.00   178.49000     Hf( 1.00)

     No symmetry found

   Cartesian axes

     site n.     atom                  positions (alat units)
         1           Tc1 tau(   1) = (   0.0000000   0.0000000  10.0000000  )
         2           Tc1 tau(   2) = (   3.7870459   2.6640204  10.0000000  )
         3           Hf1 tau(   3) = (   2.8305336   0.0000000  10.0000000  )
         4           Hf1 tau(   4) = (   0.9565123   2.6640204  10.0000000  )
         5           Tc1 tau(   5) = (   5.6610672   3.9823121  12.3149756  )
         6           Tc1 tau(   6) = (   1.8740213   1.3182916  12.3149756  )
         7           Hf1 tau(   7) = (   2.8305336   3.9823121  12.3149756  )
         8           Hf1 tau(   8) = (   4.7045549   1.3182916  12.3149756  )
         9           Tc1 tau(   9) = (   3.7480426   2.6365833  14.6299511  )
        10           Tc1 tau(  10) = (   7.5350885   5.3006037  14.6299511  )
        11           Hf1 tau(  11) = (   6.5785762   2.6365833  14.6299511  )
        12           Hf1 tau(  12) = (   4.7045549   5.3006037  14.6299511  )

     number of k points=    20  Fermi-Dirac smearing, width (Ry)=  0.0110
                       cart. coord. in units 2pi/alat
        k(    1) = (   0.0000000   0.0000000   0.0000000), wk =   0.0555556
        k(    2) = (   0.0000000   0.0312810   0.0000000), wk =   0.1111111
        k(    3) = (   0.0000000   0.0625621   0.0000000), wk =   0.1111111
        k(    4) = (   0.0000000  -0.0938431   0.0000000), wk =   0.0555556
        k(    5) = (   0.0294409  -0.0105707   0.0000000), wk =   0.1111111
        k(    6) = (   0.0294409   0.0207103   0.0000000), wk =   0.1111111
        k(    7) = (   0.0294409   0.0519914   0.0000000), wk =   0.1111111
        k(    8) = (   0.0294409  -0.1044138   0.0000000), wk =   0.1111111
        k(    9) = (   0.0294409  -0.0731328   0.0000000), wk =   0.1111111
        k(   10) = (   0.0294409  -0.0418517   0.0000000), wk =   0.1111111
        k(   11) = (   0.0588817  -0.0211414   0.0000000), wk =   0.1111111
        k(   12) = (   0.0588817   0.0101397   0.0000000), wk =   0.1111111
        k(   13) = (   0.0588817   0.0414207   0.0000000), wk =   0.1111111
        k(   14) = (   0.0588817  -0.1149845   0.0000000), wk =   0.1111111
        k(   15) = (   0.0588817  -0.0837035   0.0000000), wk =   0.1111111
        k(   16) = (   0.0588817  -0.0524224   0.0000000), wk =   0.1111111
        k(   17) = (  -0.0883226   0.0317121   0.0000000), wk =   0.0555556
        k(   18) = (  -0.0883226   0.0629931   0.0000000), wk =   0.1111111
        k(   19) = (  -0.0883226   0.0942742   0.0000000), wk =   0.1111111
        k(   20) = (  -0.0883226  -0.0621310   0.0000000), wk =   0.0555556

     Largest allocated arrays     est. size (Mb)     dimensions
     Largest temporary arrays     est. size (Mb)     dimensions

     Check: negative/imaginary core charge=   -0.000010    0.000000

     Initial potential from superposition of free atoms
     Check: negative starting charge=   -1.404043

     starting charge  143.99982, renormalised to  162.00000

     negative rho (up, down):  1.580E+00 0.000E+00

     *
     * You are using vdW-DF for exchange-correlation in this calculation.
     * Please cite the following three references that made this development
     * possible:
     *
     *   M. Dion, H. Rydberg, E. Schroder, D. C. Langreth, and
     *   B. I. Lundqvist, Phys. Rev. Lett. 92, 246401 (2004).
     *
     *   T. Thonhauser, V. R. Cooper, S. Li, A. Puzder, P. Hyldgaard, and
     *   D. C. Langreth, Phys. Rev. B 76, 125112 (2007).
     *
     *   G. Roman-Perez and J. M. Soler, Phys. Rev. Lett. 103, 096102 (2009).
     *
     *
     * If you are using vdW-DF2, please also cite:
     *
     *   K. Lee, E. D. Murray, L. Kong, B. I. Lundqvist, and
     *   D. C. Langreth, Phys. Rev. B 82, 081101(R) (2010).
     *
     *
     * If you are calculating the stress with vdW-DF, please also cite:
     *
     *   R. Sabatini, E. Kucukbenli, B. Kolb, T. Thonhauser, and
     *   S. de Gironcoli, J. Phys.: Condens. Matter 24, 424209 (2012).
     *

     Carrying out vdW-DF run using the following parameters:

     Nqs =      20    Nr_points =    1024   r_max =   100.000
     q_mesh =
               0.00001000     0.04494208     0.09755937     0.15916263
               0.23128650     0.31572767     0.41458969     0.53033537
               0.66584808     0.82450364     1.01025438     1.22772762
               1.48234092     1.78043706     2.12944203     2.53805004
               3.01644009     3.57652955     4.23227104     5.00000000

     Gradients computed in reciprocal space

     Adding external electric field

     Computed dipole along edir(3) :
        Dipole                0.0000 Ry au,          0.0000 Debye
        Dipole field          0.0000 Ry au

        Potential amp.       -0.0000 Ry
        Total length         45.3803 bohr

     Starting wfc are  156 randomized atomic wfcs

     Self-consistent Calculation

     iteration #  1     ecut=    36.75 Ry     beta=0.10
     Davidson diagonalization with overlap
     ethr =  1.00E-02,  avg # of iterations =  8.4

[...]

     total energy              =   -1998.50981918 Ry
     Harris-Foulkes estimate   =   -2028.94443587 Ry
     estimated scf accuracy    <     172.75563329 Ry

[...]

     End of self-consistent calculation

          k = 0.0000 0.0000 0.0000 ( 18851 PWs)   bands (ev):

   -64.5071 -64.4983 -64.3174 -64.3173 -64.3091 -64.3089 -60.3556 -60.3550
   -60.3431 -60.3429 -59.7127 -59.7001 -36.5949 -36.5794 -36.5686 -36.5677
   -36.5613 -36.4659 -36.4233 -36.4176 -36.4017 -36.4001 -36.3915 -36.3805
   -36.3420 -36.3349 -36.3263 -36.3149 -36.2948 -36.2945 -29.0008 -28.9928
   -28.9887 -28.9783 -28.9701 -28.9685 -28.8182 -28.8054 -28.8048 -28.7884
   -28.6974 -28.6934 -28.4236 -28.2817 -28.2794 -28.2617 -28.2488 -28.1245
    -4.4316  -2.9439  -2.2898  -1.9614  -1.8299  -1.7269  -1.6483  -1.5831
    -1.5648  -1.5227  -1.0780  -1.0595  -0.6960  -0.1276  -0.0963   0.0282
     0.0629   0.0757   0.0796   0.1706   0.1762   0.4762   0.6846   1.0097
     1.1925   1.2617   1.3140   1.6295   1.9640   1.9738   2.0049   2.0961
     2.2537   2.8602   2.8763   2.9147   3.7546   3.8237   3.8430   3.8758
     3.9749   4.0212   4.1243   4.3070   4.3726   4.4761   4.5634   4.5676
     4.9869   5.0320   5.2087   5.3462   5.3877   5.4211   5.4279   5.4955
     5.5634   5.6607   5.6738   5.7077   5.8472   5.9655   6.2099

[...]

          k =-0.0883 0.0317 0.0000 ( 18870 PWs)   bands (ev):

[...]

     the Fermi energy is     1.9028 ev

!    total energy              =   -2015.33874698 Ry
     Harris-Foulkes estimate   =   -2015.33874439 Ry
     estimated scf accuracy    <       0.00000053 Ry

     The total energy is the sum of the following terms:

     one-electron contribution =  -12883.83101708 Ry
     hartree contribution      =    6435.36704986 Ry
     xc contribution           =    -663.12906436 Ry
     ewald contribution        =    5096.33545975 Ry
     electric field correction =       0.00000001 Ry
     smearing contrib. (-TS)   =      -0.08117516 Ry

     convergence has been achieved in  21 iterations

 BEEF-vdW xc energy contributions
           1 :   -594.232839430307
           2 :    550.703422761071
           3 :   -473.312688250134
           4 :    377.734582143424
           5 :   -280.541987761557
           6 :    194.566921624061
[...]
     Pseudo is Ultrasoft + core correction, Zval = 15.0
     Generated by new atomic code, or converted to UPF format
     Using radial grid of  965 points,  6 beta functions with:
                l(1) =   0
                l(2) =   0
                l(3) =   1
                l(4) =   1
                l(5) =   2
                l(6) =   2
     Q(r) pseudized with  8 coefficients,  rinner =    1.300   1.300   1.300
                                                       1.300   1.300

     PseudoPot. # 2 for Hf read from file:
     /afs/slac.stanford.edu/u/if/mamunm/psp/gbrv1.5pbe/Hf.UPF
     MD5 check sum: 8ee9378dfe14276e333edf04c5e4aa26
     Pseudo is Ultrasoft + core correction, Zval = 12.0
     Generated by new atomic code, or converted to UPF format
     Using radial grid of  921 points,  8 beta functions with:
                l(1) =   0
                l(2) =   0
                l(3) =   0
                l(4) =   1
                l(5) =   1
                l(6) =   2
                l(7) =   2
                l(8) =   3
     Q(r) pseudized with  6 coefficients,  rinner =    1.200   1.200   1.200
                                                       1.200   1.200   1.200
                                                       1.200

     vdW kernel table read from file vdW_kernel_table
     MD5 check sum: 095c7af220d748ca6e76c0b4c6cfb241

     atomic species   valence    mass     pseudopotential
        Tc1           15.00    97.90721     Tc( 1.00)
        Hf1           12.00   178.49000     Hf( 1.00)

     No symmetry found

   Cartesian axes

     site n.     atom                  positions (alat units)
         1           Tc1 tau(   1) = (   0.0000000   0.0000000  10.0000000  )
         2           Tc1 tau(   2) = (   3.7870459   2.6640204  10.0000000  )
         3           Hf1 tau(   3) = (   2.8305336   0.0000000  10.0000000  )
         4           Hf1 tau(   4) = (   0.9565123   2.6640204  10.0000000  )
         5           Tc1 tau(   5) = (   5.6610672   3.9823121  12.3149756  )
         6           Tc1 tau(   6) = (   1.8740213   1.3182916  12.3149756  )
         7           Hf1 tau(   7) = (   2.8305336   3.9823121  12.3149756  )
         8           Hf1 tau(   8) = (   4.7045549   1.3182916  12.3149756  )
         9           Tc1 tau(   9) = (   3.7522082   2.6395120  14.5649887  )
        10           Tc1 tau(  10) = (   7.5392537   5.3035356  14.5649837  )
        11           Hf1 tau(  11) = (   6.5903927   2.6448935  14.5701598  )
        12           Hf1 tau(  12) = (   4.7163736   5.3089185  14.5701598  )

     number of k points=    20  Fermi-Dirac smearing, width (Ry)=  0.0110
                       cart. coord. in units 2pi/alat
        k(    1) = (   0.0000000   0.0000000   0.0000000), wk =   0.0555556
        k(    2) = (   0.0000000   0.0312810   0.0000000), wk =   0.1111111
        k(    3) = (   0.0000000   0.0625621   0.0000000), wk =   0.1111111
        k(    4) = (   0.0000000  -0.0938431   0.0000000), wk =   0.0555556
        k(    5) = (   0.0294409  -0.0105707   0.0000000), wk =   0.1111111
        k(    6) = (   0.0294409   0.0207103   0.0000000), wk =   0.1111111
        k(    7) = (   0.0294409   0.0519914   0.0000000), wk =   0.1111111
        k(    8) = (   0.0294409  -0.1044138   0.0000000), wk =   0.1111111
        k(    9) = (   0.0294409  -0.0731328   0.0000000), wk =   0.1111111
        k(   10) = (   0.0294409  -0.0418517   0.0000000), wk =   0.1111111
        k(   11) = (   0.0588817  -0.0211414   0.0000000), wk =   0.1111111
        k(   12) = (   0.0588817   0.0101397   0.0000000), wk =   0.1111111
        k(   13) = (   0.0588817   0.0414207   0.0000000), wk =   0.1111111
        k(   14) = (   0.0588817  -0.1149845   0.0000000), wk =   0.1111111
        k(   15) = (   0.0588817  -0.0837035   0.0000000), wk =   0.1111111
        k(   16) = (   0.0588817  -0.0524224   0.0000000), wk =   0.1111111
        k(   17) = (  -0.0883226   0.0317121   0.0000000), wk =   0.0555556
        k(   18) = (  -0.0883226   0.0629931   0.0000000), wk =   0.1111111
        k(   19) = (  -0.0883226   0.0942742   0.0000000), wk =   0.1111111
        k(   20) = (  -0.0883226  -0.0621310   0.0000000), wk =   0.0555556

     Largest allocated arrays     est. size (Mb)     dimensions
     Largest temporary arrays     est. size (Mb)     dimensions

     Check: negative/imaginary core charge=   -0.000010    0.000000

     Initial potential from superposition of free atoms
     Check: negative starting charge=   -1.402524

     starting charge  143.99982, renormalised to  162.00000

[...]

     *
     * You are using vdW-DF for exchange-correlation in this calculation.
     * Please cite the following three references that made this development
     * possible:
     *
     *   M. Dion, H. Rydberg, E. Schroder, D. C. Langreth, and
     *   B. I. Lundqvist, Phys. Rev. Lett. 92, 246401 (2004).
     *
     *   T. Thonhauser, V. R. Cooper, S. Li, A. Puzder, P. Hyldgaard, and
     *   D. C. Langreth, Phys. Rev. B 76, 125112 (2007).
     *
     *   G. Roman-Perez and J. M. Soler, Phys. Rev. Lett. 103, 096102 (2009).
     *
     *
     * If you are using vdW-DF2, please also cite:
     *
     *   K. Lee, E. D. Murray, L. Kong, B. I. Lundqvist, and
     *   D. C. Langreth, Phys. Rev. B 82, 081101(R) (2010).
     *
     *
     * If you are calculating the stress with vdW-DF, please also cite:
     *
     *   R. Sabatini, E. Kucukbenli, B. Kolb, T. Thonhauser, and
     *   S. de Gironcoli, J. Phys.: Condens. Matter 24, 424209 (2012).
     *

     Carrying out vdW-DF run using the following parameters:

     Nqs =      20    Nr_points =    1024   r_max =   100.000
     q_mesh =
               0.00001000     0.04494208     0.09755937     0.15916263
               0.23128650     0.31572767     0.41458969     0.53033537
               0.66584808     0.82450364     1.01025438     1.22772762
               1.48234092     1.78043706     2.12944203     2.53805004
               3.01644009     3.57652955     4.23227104     5.00000000

     Gradients computed in reciprocal space

[...]

     Starting wfc are  156 randomized atomic wfcs

     Self-consistent Calculation

[...]

     total energy              =   -2015.34172945 Ry
     Harris-Foulkes estimate   =   -2015.34172912 Ry
     estimated scf accuracy    <       0.00000197 Ry

     iteration # 22     ecut=    36.75 Ry     beta=0.10
     Davidson diagonalization with overlap
     ethr =  1.21E-09,  avg # of iterations =  1.3

[...]

     negative rho (up, down):  1.465E+00 0.000E+00

     Adding external electric field

     Computed dipole along edir(3) :
        Dipole                0.0126 Ry au,          0.0321 Debye
        Dipole field          0.0000 Ry au

        Potential amp.       -0.0029 Ry
        Total length         45.3803 bohr

     End of self-consistent calculation

[...]

          k = 0.0589-0.0524 0.0000 ( 18847 PWs)   bands (ev):

[...]

          k =-0.0883-0.0621 0.0000 ( 18844 PWs)   bands (ev):

   -64.5039 -64.4959 -64.3143 -64.3065 -64.2927 -64.2847 -60.3625 -60.3492
   -60.2965 -60.2833 -59.6463 -59.6325 -36.5901 -36.5815 -36.5686 -36.5580
   -36.5430 -36.4677 -36.4063 -36.4016 -36.3927 -36.3899 -36.3719 -36.3660
   -36.3211 -36.3119 -36.3061 -36.2976 -36.2898 -36.2763 -29.0229 -29.0172
   -28.9810 -28.9657 -28.9436 -28.9159 -28.8682 -28.8314 -28.8173 -28.7832
   -28.7092 -28.6542 -28.3929 -28.2648 -28.2338 -28.2105 -28.1979 -28.0739
    -2.4529  -2.3626  -1.3543  -1.3149  -1.0265  -0.9934  -0.8807  -0.8076
    -0.7573  -0.1801  -0.1139  -0.0977  -0.0845   0.0932   0.1499   0.2774
     0.2939   0.3455   0.4750   0.7263   0.7991   0.8560   1.0581   1.0699
     1.0746   1.2682   1.4050   1.4549   1.4828   1.4977   1.5228   1.5807
     1.7330   1.8646   1.8650   1.9079   2.0455   2.0778   2.1933   2.3847
     2.5144   2.6856   3.4281   3.5565   3.7223   3.7896   3.8527   3.9978
     4.1083   4.3019   4.3113   4.4486   4.6487   4.6965   4.7242   4.8682
     4.9993   5.1007   5.1905   5.4131   5.5434   6.2292   6.3241

     the Fermi energy is     1.9031 ev

!    total energy              =   -2015.34173183 Ry
     Harris-Foulkes estimate   =   -2015.34172957 Ry
     estimated scf accuracy    <       0.00000015 Ry

     The total energy is the sum of the following terms:

     one-electron contribution =  -12998.69561361 Ry
     hartree contribution      =    6492.90155573 Ry
     xc contribution           =    -663.26111493 Ry
     ewald contribution        =    5153.79472144 Ry
     electric field correction =       0.00000040 Ry
     smearing contrib. (-TS)   =      -0.08128086 Ry

     convergence has been achieved in  22 iterations

 BEEF-vdW xc energy contributions
           1 :   -594.366486673406
           2 :    550.881718150211
           3 :   -473.543434611546
           4 :    377.976316810184
           5 :   -280.727218320821
           6 :    194.643789676366
           7 :   -126.543464454128
           8 :    77.4281774259158
           9 :   -44.5040429261276
          10 :    23.5924708561703
          11 :   -10.9014227323941
          12 :    3.69766281371392
          13 :  -0.157039697672644
          14 :   -1.10239320529706
          15 :    1.30364751138711
          16 :   -1.46619138218080
          17 :    2.14720686005876
          18 :   -3.27232678577661
          19 :    4.24315680092195
          20 :   -4.32813062283572
          21 :    3.11838303632544
          22 :  -0.807731396581744
          23 :   -1.84669906914576
          24 :    3.81844938777488
          25 :   -4.19227056319710
          26 :    2.44748056301921
          27 :    1.42352523793090
          28 :   -6.94128167611518
          29 :    13.2336993335177
          30 :   -19.1631079762285
          31 :   -46.6455186713330
          32 :   -33.7807751811170

     Forces acting on atoms (Ry/au):

     negative rho (up, down):  1.465E+00 0.000E+00
     atom    1 type  1   force =    -0.00104729   -0.00073693    0.01146795
     atom    2 type  1   force =    -0.00104810   -0.00073728    0.01146659
     atom    3 type  2   force =    -0.00222865   -0.00156749    0.01050404
     atom    4 type  2   force =    -0.00222816   -0.00156788    0.01050390
     atom    5 type  1   force =     0.00067157    0.00047236   -0.01057891
     atom    6 type  1   force =     0.00066613    0.00046897   -0.01057939
     atom    7 type  2   force =     0.00071300    0.00052813   -0.01218350
     atom    8 type  2   force =     0.00073798    0.00049288   -0.01218393
     atom    9 type  1   force =     0.00145596    0.00102518    0.00008610
     atom   10 type  1   force =     0.00145689    0.00102349    0.00008284
     atom   11 type  2   force =     0.00042561    0.00030035    0.00070743
     atom   12 type  2   force =     0.00042505    0.00029821    0.00070691

     Total force =     0.032145     Total SCF correction =     0.000660

     entering subroutine stress ...

     negative rho (up, down):  1.465E+00 0.000E+00
          total   stress  (Ry/bohr**3)                   (kbar)     P=  -21.02
  -0.00019968  -0.00003726   0.00000787        -29.37     -5.48      1.16
  -0.00003726  -0.00017292   0.00000554         -5.48    -25.44      0.81
   0.00000787   0.00000554  -0.00005597          1.16      0.81     -8.23

 !ASE

     Writing output data file calc.save

     General routines

     Parallel routines

   This run was terminated on:  19:28:50  29Dec2018

   JOB DONE.
Job  /afs/slac/g/suncat/bin/suncat-tsmpirun -x LD_LIBRARY_PATH -wdir /scratch/qe387712_m45ZN pw.x -in pw.inp

TID   HOST_NAME   COMMAND_LINE            STATUS            TERMINATION_TIME
00000 suncat0020 pw.x -in pw.inp   Done                     12/29/2018 19:28:50
00001 suncat0020 pw.x -in pw.inp   Done                     12/29/2018 19:28:50
00002 suncat0020 pw.x -in pw.inp   Done                     12/29/2018 19:28:50
00003 suncat0020 pw.x -in pw.inp   Done                     12/29/2018 19:28:50
00004 suncat0020 pw.x -in pw.inp   Done                     12/29/2018 19:28:50
00005 suncat0020 pw.x -in pw.inp   Done                     12/29/2018 19:28:50
00006 suncat0020 pw.x -in pw.inp   Done                     12/29/2018 19:28:50
00007 suncat0020 pw.x -in pw.inp   Done                     12/29/2018 19:28:50
00008 suncat0014 pw.x -in pw.inp   Done                     12/29/2018 19:28:50
00009 suncat0014 pw.x -in pw.inp   Done                     12/29/2018 19:28:50
00010 suncat0014 pw.x -in pw.inp   Done                     12/29/2018 19:28:50
00011 suncat0014 pw.x -in pw.inp   Done                     12/29/2018 19:28:50
00012 suncat0014 pw.x -in pw.inp   Done                     12/29/2018 19:28:50
00013 suncat0014 pw.x -in pw.inp   Done                     12/29/2018 19:28:50
00014 suncat0014 pw.x -in pw.inp   Done                     12/29/2018 19:28:50
00015 suncat0014 pw.x -in pw.inp   Done                     12/29/2018 19:28:50
00016 suncat0199 pw.x -in pw.inp   Done                     12/29/2018 19:28:50
00017 suncat0199 pw.x -in pw.inp   Done                     12/29/2018 19:28:50
00018 suncat0199 pw.x -in pw.inp   Done                     12/29/2018 19:28:50
00019 suncat0199 pw.x -in pw.inp   Done                     12/29/2018 19:28:50
00020 suncat0199 pw.x -in pw.inp   Done                     12/29/2018 19:28:50
00021 suncat0199 pw.x -in pw.inp   Done                     12/29/2018 19:28:50
00022 suncat0199 pw.x -in pw.inp   Done                     12/29/2018 19:28:50
00023 suncat0199 pw.x -in pw.inp   Done                     12/29/2018 19:28:50
00024 suncat0006 pw.x -in pw.inp   Done                     12/29/2018 19:28:50
00025 suncat0006 pw.x -in pw.inp   Done                     12/29/2018 19:28:50
00026 suncat0006 pw.x -in pw.inp   Done                     12/29/2018 19:28:50
00027 suncat0006 pw.x -in pw.inp   Done                     12/29/2018 19:28:50
00028 suncat0006 pw.x -in pw.inp   Done                     12/29/2018 19:28:50
00029 suncat0006 pw.x -in pw.inp   Done                     12/29/2018 19:28:50
00030 suncat0006 pw.x -in pw.inp   Done                     12/29/2018 19:28:50
00031 suncat0006 pw.x -in pw.inp   Done                     12/29/2018 19:28:50
00032 suncat0005 pw.x -in pw.inp   Done                     12/29/2018 19:28:50
00033 suncat0005 pw.x -in pw.inp   Done                     12/29/2018 19:28:50
00034 suncat0005 pw.x -in pw.inp   Done                     12/29/2018 19:28:50
00035 suncat0005 pw.x -in pw.inp   Done                     12/29/2018 19:28:50
00036 suncat0005 pw.x -in pw.inp   Done                     12/29/2018 19:28:50
00037 suncat0005 pw.x -in pw.inp   Done                     12/29/2018 19:28:50
00038 suncat0005 pw.x -in pw.inp   Done                     12/29/2018 19:28:50
00039 suncat0005 pw.x -in pw.inp   Done                     12/29/2018 19:28:50
00040 suncat0004 pw.x -in pw.inp   Done                     12/29/2018 19:28:50
00041 suncat0004 pw.x -in pw.inp   Done                     12/29/2018 19:28:50
00042 suncat0004 pw.x -in pw.inp   Done                     12/29/2018 19:28:50
00043 suncat0004 pw.x -in pw.inp   Done                     12/29/2018 19:28:50
00044 suncat0004 pw.x -in pw.inp   Done                     12/29/2018 19:28:50
00045 suncat0004 pw.x -in pw.inp   Done                     12/29/2018 19:28:50
00046 suncat0004 pw.x -in pw.inp   Done                     12/29/2018 19:28:50
00047 suncat0004 pw.x -in pw.inp   Done                     12/29/2018 19:28:50
00048 suncat0187 pw.x -in pw.inp   Done                     12/29/2018 19:28:50
00049 suncat0187 pw.x -in pw.inp   Done                     12/29/2018 19:28:50
00050 suncat0187 pw.x -in pw.inp   Done                     12/29/2018 19:28:50
00051 suncat0187 pw.x -in pw.inp   Done                     12/29/2018 19:28:50
00052 suncat0187 pw.x -in pw.inp   Done                     12/29/2018 19:28:50
00053 suncat0187 pw.x -in pw.inp   Done                     12/29/2018 19:28:50
00054 suncat0187 pw.x -in pw.inp   Done                     12/29/2018 19:28:50
00055 suncat0187 pw.x -in pw.inp   Done                     12/29/2018 19:28:50
00056 suncat0186 pw.x -in pw.inp   Done                     12/29/2018 19:28:50
00057 suncat0186 pw.x -in pw.inp   Done                     12/29/2018 19:28:50
00058 suncat0186 pw.x -in pw.inp   Done                     12/29/2018 19:28:50
00059 suncat0186 pw.x -in pw.inp   Done                     12/29/2018 19:28:50
00060 suncat0186 pw.x -in pw.inp   Done                     12/29/2018 19:28:50
00061 suncat0186 pw.x -in pw.inp   Done                     12/29/2018 19:28:50
00062 suncat0186 pw.x -in pw.inp   Done                     12/29/2018 19:28:50
00063 suncat0186 pw.x -in pw.inp   Done                     12/29/2018 19:28:50