     Program PWSCF v.5.1rc2 (svn rev. 11289) starts on 19Dec2018 at  5:49:10

     Current dimensions of program PWSCF are:
     Max number of different atomic species (ntypx) = 10
     Max number of k-points (npk) =  40000
     Max angular momentum in pseudopotentials (lmaxx) =  3
     Presently stress not available with electric field

     IMPORTANT: XC functional enforced from input :
     Exchange-correlation      = BEEF-VDW ( 1  4 27 13 2)
     Any further DFT definition will be discarded
     Please, verify this is what you really want

     Subspace diagonalization in iterative solution of the eigenvalue problem:
     a serial algorithm will be used

     Found symmetry operation: I + ( -0.5000  0.0000  0.0000)
     This is a supercell, fractional translations are disabled

     bravais-lattice index     =            0
     lattice parameter (alat)  =       1.8897  a.u.
     unit-cell volume          =    6081.9277 (a.u.)^3
     number of atoms/cell      =           12
     number of atomic types    =            2
     number of electrons       =       138.00
     number of Kohn-Sham states=           99
     kinetic-energy cutoff     =      36.7493  Ry
     charge density cutoff     =     367.4932  Ry
     convergence threshold     =      1.0E-06
     mixing beta               =       0.1000
     number of iterations used =           10  plain     mixing
     Exchange-correlation      = BEEF-VDW ( 1  4 27 13 2)
     nstep                     =           50

     celldm(1)=   1.889726  celldm(2)=   0.000000  celldm(3)=   0.000000
     celldm(4)=   0.000000  celldm(5)=   0.000000  celldm(6)=   0.000000

     crystal axes: (cart. coord. in units of alat)
               a(1) = (   6.388562   0.000000   0.000000 )
               a(2) = (  -3.194281   5.588742   0.000000 )
               a(3) = (   0.000000   0.000000  25.242216 )

     reciprocal axes: (cart. coord. in units 2 pi/alat)
               b(1) = (  0.156530  0.089466  0.000000 )
               b(2) = (  0.000000  0.178931  0.000000 )
               b(3) = (  0.000000  0.000000  0.039616 )

     PseudoPot. # 1 for Sc read from file:
     /afs/slac.stanford.edu/u/if/mamunm/psp/gbrv1.5pbe/Sc.UPF
     MD5 check sum: db30a2753ba66ef00f23801d899b7e7f
     Pseudo is Ultrasoft + core correction, Zval = 11.0
     Generated by new atomic code, or converted to UPF format
     Using radial grid of  849 points,  6 beta functions with:
                l(1) =   0
                l(2) =   0
                l(3) =   1
                l(4) =   1
                l(5) =   2
                l(6) =   2
     Q(r) pseudized with  6 coefficients,  rinner =    1.200   1.200   1.200
                                                       1.200   1.200

     PseudoPot. # 2 for Zr read from file:
     /afs/slac.stanford.edu/u/if/mamunm/psp/gbrv1.5pbe/Zr.UPF
     MD5 check sum: 5db81b1e868ab7776c4564c113de050b
     Pseudo is Ultrasoft + core correction, Zval = 12.0
     Generated by new atomic code, or converted to UPF format
     Using radial grid of  887 points,  6 beta functions with:
                l(1) =   0
                l(2) =   0
                l(3) =   1
                l(4) =   1
                l(5) =   2
                l(6) =   2
     Q(r) pseudized with  6 coefficients,  rinner =    1.200   1.200   1.200
                                                       1.200   1.200

     vdW kernel table read from file vdW_kernel_table
     MD5 check sum: 095c7af220d748ca6e76c0b4c6cfb241

     atomic species   valence    mass     pseudopotential
        Sc1           11.00    44.95591     Sc( 1.00)
        Zr1           12.00    91.22400     Zr( 1.00)

     No symmetry found

   Cartesian axes

     site n.     atom                  positions (alat units)
         1           Sc1 tau(   1) = (   0.0000000   0.0000000  10.0000000  )
         2           Sc1 tau(   2) = (   3.1942809   0.0000000  10.0000000  )
         3           Zr1 tau(   3) = (   1.5971404   2.7943711  10.0000000  )
         4           Zr1 tau(   4) = (  -1.5971404   2.7943711  10.0000000  )
         5           Sc1 tau(   5) = (   3.1942809   1.8257114  12.6211082  )
         6           Sc1 tau(   6) = (   0.0000000   1.8257114  12.6211082  )
         7           Zr1 tau(   7) = (  -1.5971404   4.6200825  12.6211082  )
         8           Zr1 tau(   8) = (   1.5971404   4.6200825  12.6211082  )
         9           Sc1 tau(   9) = (  -0.0000000   3.6514229  15.2422164  )
        10           Sc1 tau(  10) = (   3.1942809   3.6514229  15.2422164  )
        11           Zr1 tau(  11) = (   4.7914213   0.8570518  15.2422164  )
        12           Zr1 tau(  12) = (   1.5971404   0.8570518  15.2422164  )

     number of k points=    20  Fermi-Dirac smearing, width (Ry)=  0.0110
                       cart. coord. in units 2pi/alat
        k(    1) = (   0.0000000   0.0000000   0.0000000), wk =   0.0555556
        k(    2) = (   0.0000000   0.0298219   0.0000000), wk =   0.1111111
        k(    3) = (   0.0000000   0.0596437   0.0000000), wk =   0.1111111
        k(    4) = (   0.0000000  -0.0894656   0.0000000), wk =   0.0555556
        k(    5) = (   0.0260883   0.0149109   0.0000000), wk =   0.1111111
        k(    6) = (   0.0260883   0.0447328   0.0000000), wk =   0.1111111
        k(    7) = (   0.0260883   0.0745546   0.0000000), wk =   0.1111111
        k(    8) = (   0.0260883  -0.0745546   0.0000000), wk =   0.1111111
        k(    9) = (   0.0260883  -0.0447328   0.0000000), wk =   0.1111111
        k(   10) = (   0.0260883  -0.0149109   0.0000000), wk =   0.1111111
        k(   11) = (   0.0521766   0.0298219   0.0000000), wk =   0.1111111
        k(   12) = (   0.0521766   0.0596437   0.0000000), wk =   0.1111111
        k(   13) = (   0.0521766   0.0894656   0.0000000), wk =   0.1111111
        k(   14) = (   0.0521766  -0.0596437   0.0000000), wk =   0.1111111
        k(   15) = (   0.0521766  -0.0298219   0.0000000), wk =   0.1111111
        k(   16) = (   0.0521766   0.0000000   0.0000000), wk =   0.1111111
        k(   17) = (  -0.0782649  -0.0447328   0.0000000), wk =   0.0555556
        k(   18) = (  -0.0782649  -0.0149109   0.0000000), wk =   0.1111111
        k(   19) = (  -0.0782649   0.0149109   0.0000000), wk =   0.1111111
        k(   20) = (  -0.0782649  -0.1341984   0.0000000), wk =   0.0555556

     Largest allocated arrays     est. size (Mb)     dimensions
     Largest temporary arrays     est. size (Mb)     dimensions

     Initial potential from superposition of free atoms
     Check: negative starting charge=   -0.364716

     starting charge  137.97269, renormalised to  138.00000

     negative rho (up, down):  3.648E-01 0.000E+00

     *
     * You are using vdW-DF for exchange-correlation in this calculation.
     * Please cite the following three references that made this development
     * possible:
     *
     *   M. Dion, H. Rydberg, E. Schroder, D. C. Langreth, and
     *   B. I. Lundqvist, Phys. Rev. Lett. 92, 246401 (2004).
     *
     *   T. Thonhauser, V. R. Cooper, S. Li, A. Puzder, P. Hyldgaard, and
     *   D. C. Langreth, Phys. Rev. B 76, 125112 (2007).
     *
     *   G. Roman-Perez and J. M. Soler, Phys. Rev. Lett. 103, 096102 (2009).
     *
     *
     * If you are using vdW-DF2, please also cite:
     *
     *   K. Lee, E. D. Murray, L. Kong, B. I. Lundqvist, and
     *   D. C. Langreth, Phys. Rev. B 82, 081101(R) (2010).
     *
     *
     * If you are calculating the stress with vdW-DF, please also cite:
     *
     *   R. Sabatini, E. Kucukbenli, B. Kolb, T. Thonhauser, and
     *   S. de Gironcoli, J. Phys.: Condens. Matter 24, 424209 (2012).
     *

     Carrying out vdW-DF run using the following parameters:

     Nqs =      20    Nr_points =    1024   r_max =   100.000
     q_mesh =
               0.00001000     0.04494208     0.09755937     0.15916263
               0.23128650     0.31572767     0.41458969     0.53033537
               0.66584808     0.82450364     1.01025438     1.22772762
               1.48234092     1.78043706     2.12944203     2.53805004
               3.01644009     3.57652955     4.23227104     5.00000000

     Gradients computed in reciprocal space

     Adding external electric field

     Computed dipole along edir(3) :
        Dipole                0.0000 Ry au,          0.0000 Debye
        Dipole field          0.0000 Ry au

        Potential amp.       -0.0000 Ry
        Total length         46.5084 bohr

     Starting wfc are  156 randomized atomic wfcs

     Self-consistent Calculation

     iteration #  1     ecut=    36.75 Ry     beta=0.10
     Davidson diagonalization with overlap
     ethr =  1.00E-02,  avg # of iterations =  2.0

[...]

     total energy              =   -1166.47987096 Ry
     Harris-Foulkes estimate   =   -1167.82508439 Ry
     estimated scf accuracy    <       7.54104194 Ry

[...]

     End of self-consistent calculation

          k = 0.0000 0.0000 0.0000 ( 22939 PWs)   bands (ev):

   -48.9319 -48.9312 -48.9049 -48.9047 -48.4632 -48.4337 -48.2682 -48.2662
   -48.2244 -48.2237 -47.9341 -47.8898 -27.6535 -27.6462 -27.5903 -27.5629
   -27.5544 -27.5387 -27.5353 -27.5287 -27.4900 -27.4823 -27.3858 -27.3848
   -27.1938 -27.1028 -27.0773 -27.0515 -27.0329 -26.9167 -26.4051 -26.3875
   -26.3067 -26.2956 -26.2746 -26.2419 -26.1906 -26.1836 -26.1661 -26.1555
   -26.1069 -25.9336 -25.9325 -25.8952 -25.8602 -25.8099 -25.7734 -25.6398
    -3.8772  -2.8054  -1.7161  -1.2545  -1.1902  -1.0296  -1.0069  -0.8143
    -0.7759  -0.7144  -0.6262  -0.3616  -0.2882  -0.2650  -0.1370   0.1373
     0.3580   0.5026   0.9666   1.0032   1.3811   1.3948   1.4639   1.4748
     1.5452   1.6798   1.8717   1.8748   2.0552   2.0816   2.2336   2.2572
     2.3012   2.3767   2.3867   2.3985   2.4126   2.4585   2.4790   2.5065
     2.5401   2.5718   2.6758   3.2791   3.3172   3.3459   3.7693   3.8568
     3.9326   3.9469   4.0485

[...]

          k =-0.0783-0.0447 0.0000 ( 22874 PWs)   bands (ev):

[...]

     the Fermi energy is     0.9407 ev

!    total energy              =   -1167.22042611 Ry
     Harris-Foulkes estimate   =   -1167.22042947 Ry
     estimated scf accuracy    <       0.00000058 Ry

     The total energy is the sum of the following terms:

     one-electron contribution =   -7654.04328109 Ry
     hartree contribution      =    3813.32909899 Ry
     xc contribution           =    -193.35718244 Ry
     ewald contribution        =    2866.97676933 Ry
     electric field correction =       0.00000002 Ry
     smearing contrib. (-TS)   =      -0.12583091 Ry

     convergence has been achieved in  17 iterations

 BEEF-vdW xc energy contributions
           1 :   -164.922527448972
           2 :    147.566723265026
           3 :   -119.335842041334
           4 :    89.5529249849322
           5 :   -65.6863699822492
           6 :    50.4787092210505
           7 :   -42.1743901052162
           8 :    36.9991869471303
           9 :   -31.8986402261203
          10 :    25.9096920049408
          11 :   -19.8201342241813
          12 :    14.8959009064626
          13 :   -11.7776451498270
          14 :    10.1911377487739
          15 :   -9.38529345669784
[...]
00031 suncat2055 pw.x -in pw.inp   Done                     12/19/2018 05:54:15

[...]

     Found symmetry operation: I + ( -0.5000  0.0000  0.0000)
     This is a supercell, fractional translations are disabled

[...]

   This run was terminated on:   6: 4:54  19Dec2018

[...]

     Program PWSCF v.5.1rc2 (svn rev. 11289) starts on 19Dec2018 at  6: 4:59

[...]

     Total force =     0.028091     Total SCF correction =     0.003321
     SCF correction compared to forces is large: reduce conv_thr to get better values

[...]

     Program PWSCF v.5.1rc2 (svn rev. 11289) starts on 19Dec2018 at  6:10:19

     Current dimensions of program PWSCF are:
     Max number of different atomic species (ntypx) = 10
     Max number of k-points (npk) =  40000
     Max angular momentum in pseudopotentials (lmaxx) =  3
     Presently stress not available with electric field

     IMPORTANT: XC functional enforced from input :
     Exchange-correlation      = BEEF-VDW ( 1  4 27 13 2)
     Any further DFT definition will be discarded
     Please, verify this is what you really want

     Subspace diagonalization in iterative solution of the eigenvalue problem:
     a serial algorithm will be used

     bravais-lattice index     =            0
     lattice parameter (alat)  =       1.8897  a.u.
     unit-cell volume          =    6081.9277 (a.u.)^3
     number of atoms/cell      =           12
     number of atomic types    =            2
     number of electrons       =       138.00
     number of Kohn-Sham states=           99
     kinetic-energy cutoff     =      36.7493  Ry
     charge density cutoff     =     367.4932  Ry
     convergence threshold     =      1.0E-06
     mixing beta               =       0.1000
     number of iterations used =           10  plain     mixing
     Exchange-correlation      = BEEF-VDW ( 1  4 27 13 2)
     nstep                     =           50

     celldm(1)=   1.889726  celldm(2)=   0.000000  celldm(3)=   0.000000
     celldm(4)=   0.000000  celldm(5)=   0.000000  celldm(6)=   0.000000

     crystal axes: (cart. coord. in units of alat)
               a(1) = (   6.388562   0.000000   0.000000 )
               a(2) = (  -3.194281   5.588742   0.000000 )
               a(3) = (   0.000000   0.000000  25.242216 )

     reciprocal axes: (cart. coord. in units 2 pi/alat)
               b(1) = (  0.156530  0.089466  0.000000 )
               b(2) = (  0.000000  0.178931  0.000000 )
               b(3) = (  0.000000  0.000000  0.039616 )

     PseudoPot. # 1 for Sc read from file:
     /afs/slac.stanford.edu/u/if/mamunm/psp/gbrv1.5pbe/Sc.UPF
     MD5 check sum: db30a2753ba66ef00f23801d899b7e7f
     Pseudo is Ultrasoft + core correction, Zval = 11.0
     Generated by new atomic code, or converted to UPF format
     Using radial grid of  849 points,  6 beta functions with:
                l(1) =   0
                l(2) =   0
                l(3) =   1
                l(4) =   1
                l(5) =   2
                l(6) =   2
     Q(r) pseudized with  6 coefficients,  rinner =    1.200   1.200   1.200
                                                       1.200   1.200

     PseudoPot. # 2 for Zr read from file:
     /afs/slac.stanford.edu/u/if/mamunm/psp/gbrv1.5pbe/Zr.UPF
     MD5 check sum: 5db81b1e868ab7776c4564c113de050b
     Pseudo is Ultrasoft + core correction, Zval = 12.0
     Generated by new atomic code, or converted to UPF format
     Using radial grid of  887 points,  6 beta functions with:
                l(1) =   0
                l(2) =   0
                l(3) =   1
                l(4) =   1
                l(5) =   2
                l(6) =   2
     Q(r) pseudized with  6 coefficients,  rinner =    1.200   1.200   1.200
                                                       1.200   1.200

     vdW kernel table read from file vdW_kernel_table
     MD5 check sum: 095c7af220d748ca6e76c0b4c6cfb241

     atomic species   valence    mass     pseudopotential
        Sc1           11.00    44.95591     Sc( 1.00)
        Zr1           12.00    91.22400     Zr( 1.00)

     No symmetry found

   Cartesian axes

     site n.     atom                  positions (alat units)
         1           Sc1 tau(   1) = (   0.0000000   0.0000000  10.0000000  )
         2           Sc1 tau(   2) = (   3.1942809   0.0000000  10.0000000  )
         3           Zr1 tau(   3) = (   1.5971404   2.7943711  10.0000000  )
         4           Zr1 tau(   4) = (  -1.5971404   2.7943711  10.0000000  )
         5           Sc1 tau(   5) = (   3.1942809   1.8257114  12.6211082  )
         6           Sc1 tau(   6) = (   0.0000000   1.8257114  12.6211082  )
         7           Zr1 tau(   7) = (  -1.5971404   4.6200825  12.6211082  )
         8           Zr1 tau(   8) = (   1.5971404   4.6200825  12.6211082  )
         9           Sc1 tau(   9) = (  -0.0000034   3.6548078  15.2161083  )
        10           Sc1 tau(  10) = (   3.1942916   3.6547443  15.2160466  )
        11           Zr1 tau(  11) = (   4.7914522   0.8399397  15.0761942  )
        12           Zr1 tau(  12) = (   1.5971099   0.8399556  15.0761990  )

     number of k points=    20  Fermi-Dirac smearing, width (Ry)=  0.0110
                       cart. coord. in units 2pi/alat
        k(    1) = (   0.0000000   0.0000000   0.0000000), wk =   0.0555556
        k(    2) = (   0.0000000   0.0298219   0.0000000), wk =   0.1111111
        k(    3) = (   0.0000000   0.0596437   0.0000000), wk =   0.1111111
        k(    4) = (   0.0000000  -0.0894656   0.0000000), wk =   0.0555556
        k(    5) = (   0.0260883   0.0149109   0.0000000), wk =   0.1111111
        k(    6) = (   0.0260883   0.0447328   0.0000000), wk =   0.1111111
        k(    7) = (   0.0260883   0.0745546   0.0000000), wk =   0.1111111
        k(    8) = (   0.0260883  -0.0745546   0.0000000), wk =   0.1111111
        k(    9) = (   0.0260883  -0.0447328   0.0000000), wk =   0.1111111
        k(   10) = (   0.0260883  -0.0149109   0.0000000), wk =   0.1111111
        k(   11) = (   0.0521766   0.0298219   0.0000000), wk =   0.1111111
        k(   12) = (   0.0521766   0.0596437   0.0000000), wk =   0.1111111
        k(   13) = (   0.0521766   0.0894656   0.0000000), wk =   0.1111111
        k(   14) = (   0.0521766  -0.0596437   0.0000000), wk =   0.1111111
        k(   15) = (   0.0521766  -0.0298219   0.0000000), wk =   0.1111111
        k(   16) = (   0.0521766   0.0000000   0.0000000), wk =   0.1111111
        k(   17) = (  -0.0782649  -0.0447328   0.0000000), wk =   0.0555556
        k(   18) = (  -0.0782649  -0.0149109   0.0000000), wk =   0.1111111
        k(   19) = (  -0.0782649   0.0149109   0.0000000), wk =   0.1111111
        k(   20) = (  -0.0782649  -0.1341984   0.0000000), wk =   0.0555556

     Largest allocated arrays     est. size (Mb)     dimensions
     Largest temporary arrays     est. size (Mb)     dimensions

     Initial potential from superposition of free atoms
     Check: negative starting charge=   -0.364992

     starting charge  137.97269, renormalised to  138.00000

[...]

     *
     * You are using vdW-DF for exchange-correlation in this calculation.
     * Please cite the following three references that made this development
     * possible:
     *
     *   M. Dion, H. Rydberg, E. Schroder, D. C. Langreth, and
     *   B. I. Lundqvist, Phys. Rev. Lett. 92, 246401 (2004).
     *
     *   T. Thonhauser, V. R. Cooper, S. Li, A. Puzder, P. Hyldgaard, and
     *   D. C. Langreth, Phys. Rev. B 76, 125112 (2007).
     *
     *   G. Roman-Perez and J. M. Soler, Phys. Rev. Lett. 103, 096102 (2009).
     *
     *
     * If you are using vdW-DF2, please also cite:
     *
     *   K. Lee, E. D. Murray, L. Kong, B. I. Lundqvist, and
     *   D. C. Langreth, Phys. Rev. B 82, 081101(R) (2010).
     *
     *
     * If you are calculating the stress with vdW-DF, please also cite:
     *
     *   R. Sabatini, E. Kucukbenli, B. Kolb, T. Thonhauser, and
     *   S. de Gironcoli, J. Phys.: Condens. Matter 24, 424209 (2012).
     *

     Carrying out vdW-DF run using the following parameters:

     Nqs =      20    Nr_points =    1024   r_max =   100.000
     q_mesh =
               0.00001000     0.04494208     0.09755937     0.15916263
               0.23128650     0.31572767     0.41458969     0.53033537
               0.66584808     0.82450364     1.01025438     1.22772762
               1.48234092     1.78043706     2.12944203     2.53805004
               3.01644009     3.57652955     4.23227104     5.00000000

     Gradients computed in reciprocal space

[...]

     Starting wfc are  156 randomized atomic wfcs

     Self-consistent Calculation

[...]

     iteration # 10     ecut=    36.75 Ry     beta=0.10
     Davidson diagonalization with overlap
     c_bands:  1 eigenvalues not converged
     ethr =  3.90E-06,  avg # of iterations =  5.3

[...]

     total energy              =   -1167.22750047 Ry
     Harris-Foulkes estimate   =   -1167.22749983 Ry
     estimated scf accuracy    <       0.00000291 Ry

     iteration # 18     ecut=    36.75 Ry     beta=0.10
     Davidson diagonalization with overlap
     ethr =  2.11E-09,  avg # of iterations =  2.8

[...]

     negative rho (up, down):  3.716E-01 0.000E+00

     Adding external electric field

     Computed dipole along edir(3) :
        Dipole               -0.0050 Ry au,         -0.0128 Debye
        Dipole field         -0.0000 Ry au

        Potential amp.        0.0010 Ry
        Total length         46.5084 bohr

     End of self-consistent calculation

[...]

          k = 0.0522 0.0000 0.0000 ( 22887 PWs)   bands (ev):

[...]

          k =-0.0783-0.1342 0.0000 ( 22874 PWs)   bands (ev):

   -48.9371 -48.9370 -48.9359 -48.9359 -48.3673 -48.3673 -48.2678 -48.2678
   -48.1311 -48.1311 -47.8632 -47.8632 -27.5873 -27.5872 -27.5756 -27.5755
   -27.5387 -27.5387 -27.5332 -27.5332 -27.5115 -27.5115 -27.5066 -27.5066
   -27.0016 -27.0016 -26.9938 -26.9938 -26.9738 -26.9738 -26.3143 -26.3143
   -26.2242 -26.2242 -26.2032 -26.2032 -26.1759 -26.1759 -26.0980 -26.0980
   -26.0779 -26.0778 -25.8510 -25.8510 -25.8334 -25.8334 -25.7197 -25.7197
    -2.5018  -2.5018  -1.5384  -1.5384  -0.7943  -0.7943  -0.5341  -0.5341
    -0.3419  -0.3419   0.2075   0.2075   0.3068   0.3068   0.5084   0.5084
     0.6366   0.6366   0.7149   0.7149   0.7852   0.7852   0.9092   0.9092
     1.0389   1.0389   1.2130   1.2130   1.3371   1.3371   1.5608   1.5608
     1.9052   1.9053   1.9993   1.9993   2.2468   2.2468   2.6892   2.6892
     2.8066   2.8066   3.1525   3.1526   3.2079   3.2079   3.3033   3.3033
     3.4586   3.4596   3.5273

     the Fermi energy is     0.9284 ev

!    total energy              =   -1167.22749970 Ry
     Harris-Foulkes estimate   =   -1167.22750088 Ry
     estimated scf accuracy    <       0.00000066 Ry

     The total energy is the sum of the following terms:

     one-electron contribution =   -7760.90493277 Ry
     hartree contribution      =    3866.90404837 Ry
     xc contribution           =    -193.48530305 Ry
     ewald contribution        =    2920.38101325 Ry
     electric field correction =       0.00000005 Ry
     smearing contrib. (-TS)   =      -0.12232555 Ry

     convergence has been achieved in  18 iterations

 BEEF-vdW xc energy contributions
           1 :   -165.051528811233
           2 :    147.736253125996
           3 :   -119.539002231516
           4 :    89.7302414753248
           5 :   -65.7693408794651
           6 :    50.4460315488738
           7 :   -42.0723531982721
           8 :    36.9078730359744
           9 :   -31.8726636120888
          10 :    25.9431945275556
          11 :   -19.8614355789008
          12 :    14.8927280363441
          13 :   -11.7125986861772
          14 :    10.0840731921068
          15 :   -9.27083839037130
          16 :    8.64918108855483
          17 :   -8.01298813383062
          18 :    7.45968947042149
          19 :   -7.10994191837074
          20 :    6.95817235954138
          21 :   -6.92675097091220
          22 :    6.97664341538518
          23 :   -7.11942449395977
          24 :    7.32909661719020
          25 :   -7.47922354498493
          26 :    7.40384547032352
          27 :   -7.04460678516111
          28 :    6.54080379448692
          29 :   -6.15309289223916
          30 :    6.06098767809306
          31 :   -19.2235589350313
          32 :   -14.1056224905037

     Forces acting on atoms (Ry/au):

     negative rho (up, down):  3.716E-01 0.000E+00
     atom    1 type  1   force =    -0.00000221   -0.00169086    0.00021131
     atom    2 type  1   force =     0.00000253   -0.00170413    0.00020946
     atom    3 type  2   force =     0.00000216    0.00325604    0.01576529
     atom    4 type  2   force =    -0.00000279    0.00325835    0.01576709
     atom    5 type  1   force =     0.00000071    0.00220730   -0.01021278
     atom    6 type  1   force =    -0.00000030    0.00226358   -0.01021380
     atom    7 type  2   force =    -0.00000260   -0.00277471   -0.00418318
     atom    8 type  2   force =     0.00000327   -0.00277609   -0.00418338
     atom    9 type  1   force =     0.00000335   -0.00129388   -0.00106302
     atom   10 type  1   force =    -0.00000315   -0.00129052   -0.00105778
     atom   11 type  2   force =    -0.00000459    0.00027398   -0.00051845
     atom   12 type  2   force =     0.00000362    0.00027094   -0.00052077

     Total force =     0.028276     Total SCF correction =     0.002039

     entering subroutine stress ...

     negative rho (up, down):  3.716E-01 0.000E+00
          total   stress  (Ry/bohr**3)                   (kbar)     P=   -5.01
  -0.00003522   0.00000000  -0.00000000         -5.18      0.00     -0.00
   0.00000000  -0.00003435  -0.00000413          0.00     -5.05     -0.61
  -0.00000000  -0.00000413  -0.00003256         -0.00     -0.61     -4.79

 !ASE

     Writing output data file calc.save

     General routines

     Parallel routines

   This run was terminated on:   6:15:27  19Dec2018

   JOB DONE.
Job  /afs/slac/g/suncat/bin/suncat-tsmpirun -x LD_LIBRARY_PATH -wdir /scratch/qe530598_DK6Tv pw.x -in pw.inp

TID   HOST_NAME   COMMAND_LINE            STATUS            TERMINATION_TIME
00000 suncat2056 pw.x -in pw.inp   Done                     12/19/2018 06:15:27
00001 suncat2056 pw.x -in pw.inp   Done                     12/19/2018 06:15:27
00002 suncat2056 pw.x -in pw.inp   Done                     12/19/2018 06:15:27
00003 suncat2056 pw.x -in pw.inp   Done                     12/19/2018 06:15:27
00004 suncat2056 pw.x -in pw.inp   Done                     12/19/2018 06:15:27
00005 suncat2056 pw.x -in pw.inp   Done                     12/19/2018 06:15:27
00006 suncat2056 pw.x -in pw.inp   Done                     12/19/2018 06:15:27
00007 suncat2056 pw.x -in pw.inp   Done                     12/19/2018 06:15:27
00008 suncat2056 pw.x -in pw.inp   Done                     12/19/2018 06:15:27
00009 suncat2056 pw.x -in pw.inp   Done                     12/19/2018 06:15:27
00010 suncat2056 pw.x -in pw.inp   Done                     12/19/2018 06:15:27
00011 suncat2056 pw.x -in pw.inp   Done                     12/19/2018 06:15:27
00012 suncat2056 pw.x -in pw.inp   Done                     12/19/2018 06:15:27
00013 suncat2056 pw.x -in pw.inp   Done                     12/19/2018 06:15:27
00014 suncat2056 pw.x -in pw.inp   Done                     12/19/2018 06:15:27
00015 suncat2056 pw.x -in pw.inp   Done                     12/19/2018 06:15:27
00016 suncat2055 pw.x -in pw.inp   Done                     12/19/2018 06:15:27
00017 suncat2055 pw.x -in pw.inp   Done                     12/19/2018 06:15:27
00018 suncat2055 pw.x -in pw.inp   Done                     12/19/2018 06:15:27
00019 suncat2055 pw.x -in pw.inp   Done                     12/19/2018 06:15:27
00020 suncat2055 pw.x -in pw.inp   Done                     12/19/2018 06:15:27
00021 suncat2055 pw.x -in pw.inp   Done                     12/19/2018 06:15:27
00022 suncat2055 pw.x -in pw.inp   Done                     12/19/2018 06:15:27
00023 suncat2055 pw.x -in pw.inp   Done                     12/19/2018 06:15:27
00024 suncat2055 pw.x -in pw.inp   Done                     12/19/2018 06:15:27
00025 suncat2055 pw.x -in pw.inp   Done                     12/19/2018 06:15:27
00026 suncat2055 pw.x -in pw.inp   Done                     12/19/2018 06:15:27
00027 suncat2055 pw.x -in pw.inp   Done                     12/19/2018 06:15:27
00028 suncat2055 pw.x -in pw.inp   Done                     12/19/2018 06:15:27
00029 suncat2055 pw.x -in pw.inp   Done                     12/19/2018 06:15:27
00030 suncat2055 pw.x -in pw.inp   Done                     12/19/2018 06:15:27
00031 suncat2055 pw.x -in pw.inp   Done                     12/19/2018 06:15:27