     Program PWSCF v.5.1rc2 (svn rev. 11289) starts on 29Dec2018 at 11:46:21

     Current dimensions of program PWSCF are:
     Max number of different atomic species (ntypx) = 10
     Max number of k-points (npk) =  40000
     Max angular momentum in pseudopotentials (lmaxx) =  3
     Presently stress not available with electric field

     IMPORTANT: XC functional enforced from input :
     Exchange-correlation      = BEEF-VDW ( 1  4 27 13 2)
     Any further DFT definition will be discarded
     Please, verify this is what you really want

     Subspace diagonalization in iterative solution of the eigenvalue problem:
     a serial algorithm will be used

     Found symmetry operation: I + (  0.5000 -0.5000  0.0000)
     This is a supercell, fractional translations are disabled

     Generating pointlists ...
     new r_m :   0.4125 (alat units)  0.7795 (a.u.) for type    1
     new r_m :   0.4125 (alat units)  0.7795 (a.u.) for type    2

     bravais-lattice index     =            0
     lattice parameter (alat)  =       1.8897  a.u.
     unit-cell volume          =    3999.1117 (a.u.)^3
     number of atoms/cell      =           12
     number of atomic types    =            2
     number of electrons       =       180.00
     number of Kohn-Sham states=          120
     kinetic-energy cutoff     =      36.7493  Ry
     charge density cutoff     =     367.4932  Ry
     convergence threshold     =      1.0E-06
     mixing beta               =       0.1000
     number of iterations used =           10  plain     mixing
     Exchange-correlation      = BEEF-VDW ( 1  4 27 13 2)
     nstep                     =           50

     celldm(1)=   1.889726  celldm(2)=   0.000000  celldm(3)=   0.000000
     celldm(4)=   0.000000  celldm(5)=   0.000000  celldm(6)=   0.000000

     crystal axes: (cart. coord. in units of alat)
               a(1) = (   5.286691   0.000000   0.000000 )
               a(2) = (   2.592643   4.607310   0.000000 )
               a(3) = (   0.000000   0.000000  24.329634 )

     reciprocal axes: (cart. coord. in units 2 pi/alat)
               b(1) = (  0.189154 -0.106442  0.000000 )
               b(2) = (  0.000000  0.217046  0.000000 )
               b(3) = (  0.000000  0.000000  0.041102 )

     PseudoPot. # 1 for Mn read from file:
     /afs/slac.stanford.edu/u/if/mamunm/psp/gbrv1.5pbe/Mn.UPF
     MD5 check sum: 82ef2b46521d7a7d9e736dc3972e4928
     Pseudo is Ultrasoft + core correction, Zval = 15.0
     Generated by new atomic code, or converted to UPF format
     Using radial grid of  859 points,  6 beta functions with:
                l(1) =   0
                l(2) =   0
                l(3) =   1
                l(4) =   1
                l(5) =   2
                l(6) =   2
     Q(r) pseudized with  8 coefficients,  rinner =    0.950   0.950   0.950
                                                       0.950   0.950

     PseudoPot. # 2 for Re read from file:
     /afs/slac.stanford.edu/u/if/mamunm/psp/gbrv1.5pbe/Re.UPF
     MD5 check sum: 85f993410f3e006da9d71c142b4ad953
     Pseudo is Ultrasoft + core correction, Zval = 15.0
     Generated by new atomic code, or converted to UPF format
     Using radial grid of  981 points,  8 beta functions with:
                l(1) =   0
                l(2) =   0
                l(3) =   1
                l(4) =   1
                l(5) =   2
                l(6) =   2
                l(7) =   3
                l(8) =   3
     Q(r) pseudized with  8 coefficients,  rinner =    1.150   1.150   1.150
                                                       1.150   1.150   1.150
                                                       1.150

     vdW kernel table read from file vdW_kernel_table
     MD5 check sum: 095c7af220d748ca6e76c0b4c6cfb241

     atomic species   valence    mass     pseudopotential
        Mn1           15.00    54.93804     Mn( 1.00)
        Re1           15.00   186.20700     Re( 1.00)

     Starting magnetic structure
     atomic species   magnetization
        Mn1          0.133
        Re1          0.133

     No symmetry found

   Cartesian axes

     site n.     atom                  positions (alat units)
         1           Mn1 tau(   1) = (   0.0000000   0.0000000  10.0000000  )
         2           Mn1 tau(   2) = (   3.9396667   2.3036550  10.0000000  )
         3           Re1 tau(   3) = (   2.6433455   0.0000000  10.0000000  )
         4           Re1 tau(   4) = (   1.2963213   2.3036550  10.0000000  )
         5           Mn1 tau(   5) = (   5.2866909   3.0913051  12.1648172  )
         6           Mn1 tau(   6) = (   1.3470242   0.7876501  12.1648172  )
         7           Re1 tau(   7) = (   2.6433455   3.0913051  12.1648172  )
         8           Re1 tau(   8) = (   3.9903696   0.7876501  12.1648172  )
         9           Mn1 tau(   9) = (   2.6940484   1.5753002  14.3296345  )
        10           Mn1 tau(  10) = (   6.6337151   3.8789552  14.3296345  )
        11           Re1 tau(  11) = (   5.3373938   1.5753002  14.3296345  )
        12           Re1 tau(  12) = (   3.9903696   3.8789552  14.3296345  )

     number of k points=    40  Fermi-Dirac smearing, width (Ry)=  0.0110
                       cart. coord. in units 2pi/alat
        k(    1) = (   0.0000000   0.0000000   0.0000000), wk =   0.0277778
        k(    2) = (   0.0000000   0.0361744   0.0000000), wk =   0.0555556
        k(    3) = (   0.0000000   0.0723488   0.0000000), wk =   0.0555556
        k(    4) = (   0.0000000  -0.1085232   0.0000000), wk =   0.0277778
        k(    5) = (   0.0315257  -0.0177403   0.0000000), wk =   0.0555556
        k(    6) = (   0.0315257   0.0184341   0.0000000), wk =   0.0555556
        k(    7) = (   0.0315257   0.0546085   0.0000000), wk =   0.0555556
        k(    8) = (   0.0315257  -0.1262635   0.0000000), wk =   0.0555556
        k(    9) = (   0.0315257  -0.0900891   0.0000000), wk =   0.0555556
        k(   10) = (   0.0315257  -0.0539147   0.0000000), wk =   0.0555556
        k(   11) = (   0.0630514  -0.0354805   0.0000000), wk =   0.0555556
        k(   12) = (   0.0630514   0.0006939   0.0000000), wk =   0.0555556
        k(   13) = (   0.0630514   0.0368683   0.0000000), wk =   0.0555556
        k(   14) = (   0.0630514  -0.1440037   0.0000000), wk =   0.0555556
        k(   15) = (   0.0630514  -0.1078293   0.0000000), wk =   0.0555556
        k(   16) = (   0.0630514  -0.0716549   0.0000000), wk =   0.0555556
        k(   17) = (  -0.0945771   0.0532208   0.0000000), wk =   0.0277778
        k(   18) = (  -0.0945771   0.0893952   0.0000000), wk =   0.0555556
        k(   19) = (  -0.0945771   0.1255696   0.0000000), wk =   0.0555556
        k(   20) = (  -0.0945771  -0.0553024   0.0000000), wk =   0.0277778
        k(   21) = (   0.0000000   0.0000000   0.0000000), wk =   0.0277778
        k(   22) = (   0.0000000   0.0361744   0.0000000), wk =   0.0555556
        k(   23) = (   0.0000000   0.0723488   0.0000000), wk =   0.0555556
        k(   24) = (   0.0000000  -0.1085232   0.0000000), wk =   0.0277778
        k(   25) = (   0.0315257  -0.0177403   0.0000000), wk =   0.0555556
        k(   26) = (   0.0315257   0.0184341   0.0000000), wk =   0.0555556
        k(   27) = (   0.0315257   0.0546085   0.0000000), wk =   0.0555556
        k(   28) = (   0.0315257  -0.1262635   0.0000000), wk =   0.0555556
        k(   29) = (   0.0315257  -0.0900891   0.0000000), wk =   0.0555556
        k(   30) = (   0.0315257  -0.0539147   0.0000000), wk =   0.0555556
        k(   31) = (   0.0630514  -0.0354805   0.0000000), wk =   0.0555556
        k(   32) = (   0.0630514   0.0006939   0.0000000), wk =   0.0555556
        k(   33) = (   0.0630514   0.0368683   0.0000000), wk =   0.0555556
        k(   34) = (   0.0630514  -0.1440037   0.0000000), wk =   0.0555556
        k(   35) = (   0.0630514  -0.1078293   0.0000000), wk =   0.0555556
        k(   36) = (   0.0630514  -0.0716549   0.0000000), wk =   0.0555556
        k(   37) = (  -0.0945771   0.0532208   0.0000000), wk =   0.0277778
        k(   38) = (  -0.0945771   0.0893952   0.0000000), wk =   0.0555556
        k(   39) = (  -0.0945771   0.1255696   0.0000000), wk =   0.0555556
        k(   40) = (  -0.0945771  -0.0553024   0.0000000), wk =   0.0277778

     Largest allocated arrays     est. size (Mb)     dimensions
     Largest temporary arrays     est. size (Mb)     dimensions

     Check: negative/imaginary core charge=   -0.000005    0.000000

     Initial potential from superposition of free atoms
     Check: negative starting charge=(component1):   -0.436867
     Check: negative starting charge=(component2):   -0.334075

     starting charge  173.99922, renormalised to  180.00000

     negative rho (up, down):  4.519E-01 3.456E-01

     *
     * You are using vdW-DF for exchange-correlation in this calculation.
     * Please cite the following three references that made this development
     * possible:
     *
     *   M. Dion, H. Rydberg, E. Schroder, D. C. Langreth, and
     *   B. I. Lundqvist, Phys. Rev. Lett. 92, 246401 (2004).
     *
     *   T. Thonhauser, V. R. Cooper, S. Li, A. Puzder, P. Hyldgaard, and
     *   D. C. Langreth, Phys. Rev. B 76, 125112 (2007).
     *
     *   G. Roman-Perez and J. M. Soler, Phys. Rev. Lett. 103, 096102 (2009).
     *
     *
     * If you are using vdW-DF2, please also cite:
     *
     *   K. Lee, E. D. Murray, L. Kong, B. I. Lundqvist, and
     *   D. C. Langreth, Phys. Rev. B 82, 081101(R) (2010).
     *
     *
     * If you are calculating the stress with vdW-DF, please also cite:
     *
     *   R. Sabatini, E. Kucukbenli, B. Kolb, T. Thonhauser, and
     *   S. de Gironcoli, J. Phys.: Condens. Matter 24, 424209 (2012).
     *

     Carrying out vdW-DF run using the following parameters:

     Nqs =      20    Nr_points =    1024   r_max =   100.000
     q_mesh =
               0.00001000     0.04494208     0.09755937     0.15916263
               0.23128650     0.31572767     0.41458969     0.53033537
               0.66584808     0.82450364     1.01025438     1.22772762
               1.48234092     1.78043706     2.12944203     2.53805004
               3.01644009     3.57652955     4.23227104     5.00000000

     Gradients computed in reciprocal space

     Adding external electric field

     Computed dipole along edir(3) :
        Dipole                0.0000 Ry au,          0.0000 Debye
        Dipole field          0.0000 Ry au

        Potential amp.       -0.0000 Ry
        Total length         44.8269 bohr

[...]

     Starting wfc are  156 randomized atomic wfcs

     Self-consistent Calculation

     iteration #  1     ecut=    36.75 Ry     beta=0.10
     Davidson diagonalization with overlap
     ethr =  1.00E-02,  avg # of iterations =  4.3

[...]

     Magnetic moment per site:
     atom:    1    charge:    6.0498    magn:    0.7744    constr:    0.0000
     atom:    2    charge:    6.0498    magn:    0.7744    constr:    0.0000
     atom:    3    charge:    1.9308    magn:    0.2346    constr:    0.0000
     atom:    4    charge:    1.9308    magn:    0.2346    constr:    0.0000
[...]
        k(    5) = (   0.0315257  -0.0177403   0.0000000), wk =   0.0555556
        k(    6) = (   0.0315257   0.0184341   0.0000000), wk =   0.0555556
        k(    7) = (   0.0315257   0.0546085   0.0000000), wk =   0.0555556
        k(    8) = (   0.0315257  -0.1262635   0.0000000), wk =   0.0555556
        k(    9) = (   0.0315257  -0.0900891   0.0000000), wk =   0.0555556
        k(   10) = (   0.0315257  -0.0539147   0.0000000), wk =   0.0555556
        k(   11) = (   0.0630514  -0.0354805   0.0000000), wk =   0.0555556
        k(   12) = (   0.0630514   0.0006939   0.0000000), wk =   0.0555556
        k(   13) = (   0.0630514   0.0368683   0.0000000), wk =   0.0555556
        k(   14) = (   0.0630514  -0.1440037   0.0000000), wk =   0.0555556
        k(   15) = (   0.0630514  -0.1078293   0.0000000), wk =   0.0555556
        k(   16) = (   0.0630514  -0.0716549   0.0000000), wk =   0.0555556
        k(   17) = (  -0.0945771   0.0532208   0.0000000), wk =   0.0277778
        k(   18) = (  -0.0945771   0.0893952   0.0000000), wk =   0.0555556
        k(   19) = (  -0.0945771   0.1255696   0.0000000), wk =   0.0555556
        k(   20) = (  -0.0945771  -0.0553024   0.0000000), wk =   0.0277778
        k(   21) = (   0.0000000   0.0000000   0.0000000), wk =   0.0277778
        k(   22) = (   0.0000000   0.0361744   0.0000000), wk =   0.0555556
        k(   23) = (   0.0000000   0.0723488   0.0000000), wk =   0.0555556
        k(   24) = (   0.0000000  -0.1085232   0.0000000), wk =   0.0277778
        k(   25) = (   0.0315257  -0.0177403   0.0000000), wk =   0.0555556
        k(   26) = (   0.0315257   0.0184341   0.0000000), wk =   0.0555556
        k(   27) = (   0.0315257   0.0546085   0.0000000), wk =   0.0555556
        k(   28) = (   0.0315257  -0.1262635   0.0000000), wk =   0.0555556
        k(   29) = (   0.0315257  -0.0900891   0.0000000), wk =   0.0555556
        k(   30) = (   0.0315257  -0.0539147   0.0000000), wk =   0.0555556
        k(   31) = (   0.0630514  -0.0354805   0.0000000), wk =   0.0555556
        k(   32) = (   0.0630514   0.0006939   0.0000000), wk =   0.0555556
        k(   33) = (   0.0630514   0.0368683   0.0000000), wk =   0.0555556
        k(   34) = (   0.0630514  -0.1440037   0.0000000), wk =   0.0555556
        k(   35) = (   0.0630514  -0.1078293   0.0000000), wk =   0.0555556
        k(   36) = (   0.0630514  -0.0716549   0.0000000), wk =   0.0555556
        k(   37) = (  -0.0945771   0.0532208   0.0000000), wk =   0.0277778
        k(   38) = (  -0.0945771   0.0893952   0.0000000), wk =   0.0555556
        k(   39) = (  -0.0945771   0.1255696   0.0000000), wk =   0.0555556
        k(   40) = (  -0.0945771  -0.0553024   0.0000000), wk =   0.0277778

     Largest allocated arrays     est. size (Mb)     dimensions
     Largest temporary arrays     est. size (Mb)     dimensions

     Check: negative/imaginary core charge=   -0.000005    0.000000

     Initial potential from superposition of free atoms
     Check: negative starting charge=(component1):   -0.435885
     Check: negative starting charge=(component2):   -0.333324

     starting charge  173.99922, renormalised to  180.00000

[...]

     *
     * You are using vdW-DF for exchange-correlation in this calculation.
     * Please cite the following three references that made this development
     * possible:
     *
     *   M. Dion, H. Rydberg, E. Schroder, D. C. Langreth, and
     *   B. I. Lundqvist, Phys. Rev. Lett. 92, 246401 (2004).
     *
     *   T. Thonhauser, V. R. Cooper, S. Li, A. Puzder, P. Hyldgaard, and
     *   D. C. Langreth, Phys. Rev. B 76, 125112 (2007).
     *
     *   G. Roman-Perez and J. M. Soler, Phys. Rev. Lett. 103, 096102 (2009).
     *
     *
     * If you are using vdW-DF2, please also cite:
     *
     *   K. Lee, E. D. Murray, L. Kong, B. I. Lundqvist, and
     *   D. C. Langreth, Phys. Rev. B 82, 081101(R) (2010).
     *
     *
     * If you are calculating the stress with vdW-DF, please also cite:
     *
     *   R. Sabatini, E. Kucukbenli, B. Kolb, T. Thonhauser, and
     *   S. de Gironcoli, J. Phys.: Condens. Matter 24, 424209 (2012).
     *

     Carrying out vdW-DF run using the following parameters:

     Nqs =      20    Nr_points =    1024   r_max =   100.000
     q_mesh =
               0.00001000     0.04494208     0.09755937     0.15916263
               0.23128650     0.31572767     0.41458969     0.53033537
               0.66584808     0.82450364     1.01025438     1.22772762
               1.48234092     1.78043706     2.12944203     2.53805004
               3.01644009     3.57652955     4.23227104     5.00000000

     Gradients computed in reciprocal space

[...]

     Starting wfc are  156 randomized atomic wfcs

     Self-consistent Calculation

[...]

     iteration #121     ecut=    36.75 Ry     beta=0.10
     Davidson diagonalization with overlap
     c_bands:  1 eigenvalues not converged
     ethr =  5.27E-07,  avg # of iterations =  5.7

[...]

     total energy              =   -2425.54504424 Ry
     Harris-Foulkes estimate   =   -2425.54504266 Ry
     estimated scf accuracy    <       0.00000110 Ry

[...]

     iteration #158     ecut=    36.75 Ry     beta=0.10
     Davidson diagonalization with overlap
     ethr =  6.08E-10,  avg # of iterations =  1.1

[...]

     negative rho (up, down):  4.100E-01 3.911E-01

[...]

     Adding external electric field

     Computed dipole along edir(3) :
        Dipole                0.0249 Ry au,          0.0632 Debye
        Dipole field          0.0001 Ry au

        Potential amp.       -0.0070 Ry
        Total length         44.8269 bohr

     Magnetic moment per site:
     atom:    1    charge:    5.9895    magn:    1.0239    constr:    0.0000
     atom:    2    charge:    5.9896    magn:    1.0239    constr:    0.0000
     atom:    3    charge:    1.8681    magn:   -0.0165    constr:    0.0000
     atom:    4    charge:    1.8681    magn:   -0.0165    constr:    0.0000
     atom:    5    charge:    5.9729    magn:   -0.6368    constr:    0.0000
     atom:    6    charge:    5.9730    magn:   -0.6384    constr:    0.0000
     atom:    7    charge:    1.8688    magn:   -0.0079    constr:    0.0000
     atom:    8    charge:    1.8688    magn:   -0.0079    constr:    0.0000
     atom:    9    charge:    5.9887    magn:    1.0548    constr:    0.0000
     atom:   10    charge:    5.9888    magn:    1.0550    constr:    0.0000
     atom:   11    charge:    1.8715    magn:   -0.0141    constr:    0.0000
     atom:   12    charge:    1.8715    magn:   -0.0141    constr:    0.0000

     End of self-consistent calculation

 ------ SPIN UP ------------

[...]

 ------ SPIN DOWN ----------

[...]

          k = 0.0631-0.0717 0.0000 ( 15048 PWs)   bands (ev):

[...]

          k =-0.0946-0.0553 0.0000 ( 15070 PWs)   bands (ev):

   -78.5848 -78.5290 -78.3677 -78.3247 -78.3110 -78.2659 -78.1330 -78.1180
   -75.7059 -75.6844 -75.6314 -75.6097 -46.9161 -46.9072 -46.8872 -46.8250
   -46.8026 -46.7250 -44.5765 -44.5459 -44.5236 -44.5185 -44.4775 -44.4553
   -44.4062 -44.3832 -44.3698 -44.3133 -44.3120 -44.2906 -40.7101 -40.5830
   -40.4843 -40.4218 -40.3945 -40.3146 -40.2208 -40.1372 -40.1125 -40.0744
   -40.0532 -40.0252 -39.9909 -39.8879 -39.8803 -39.8032 -39.6093 -39.5796
    -4.9321  -4.2418  -3.3739  -3.0852  -2.6106  -2.5125  -2.3369  -2.1781
    -1.9881  -1.7635  -1.6506  -1.6350  -1.6323  -1.2155  -1.0627  -1.0560
    -1.0049  -0.7139  -0.5670  -0.2069  -0.1684  -0.0113   0.2158   0.3182
     0.4452   0.5056   0.7741   0.8656   0.9818   1.0063   1.1707   1.1909
     1.2438   1.3503   1.4921   1.5401   1.7444   1.8140   1.8264   1.9564
     1.9954   2.1864   2.2503   2.3852   2.5452   2.6595   2.7985   2.9581
     3.2302   3.2695   3.2738   3.3533   3.4217   3.4604   3.5503   3.6462
     3.7697   3.8169   3.9360   4.3666   4.3936   4.5068   4.8913   5.0864
     5.4614   5.5454   5.9507   6.4804   6.8311   7.5985   8.0927   8.2477

     the Fermi energy is     2.0140 ev

!    total energy              =   -2425.54504950 Ry
     Harris-Foulkes estimate   =   -2425.54504415 Ry
     estimated scf accuracy    <       0.00000085 Ry

     The total energy is the sum of the following terms:

     one-electron contribution =  -20485.33470536 Ry
     hartree contribution      =   10232.95808414 Ry
     xc contribution           =    -490.04316259 Ry
     ewald contribution        =    8316.95231308 Ry
     electric field correction =       0.00000194 Ry
     smearing contrib. (-TS)   =      -0.07758071 Ry

     total magnetization       =     5.80 Bohr mag/cell
     absolute magnetization    =    15.86 Bohr mag/cell

     convergence has been achieved in 158 iterations

 BEEF-vdW xc energy contributions
           1 :   -433.057565075010
           2 :    399.005138705525
           3 :   -339.482106245352
           4 :    268.106482164923
           5 :   -198.531261131391
           6 :    140.343773201092
           7 :   -97.3246289967842
           8 :    68.1739796503593
           9 :   -48.7877758573048
          10 :    34.7760584042653
          11 :   -23.1742178906144
          12 :    12.9098845479241
          13 :   -4.26142786916358
          14 :   -2.07730706651438
          15 :    5.73632012342068
          16 :   -6.95486136281130
          17 :    6.47641114481991
          18 :   -5.26119891951402
          19 :    4.18434621436052
          20 :   -3.81479009180930
          21 :    4.31217893162881
          22 :   -5.45425523967350
          23 :    6.77395020031071
          24 :   -7.76375725972133
          25 :    8.07750039892102
          26 :   -7.65421564318569
          27 :    6.70790211770759
          28 :   -5.59656664641034
          29 :    4.64862454079503
          30 :   -4.04501158330817
          31 :   -37.1554622606487
          32 :   -27.1696964200629

     Forces acting on atoms (Ry/au):

     negative rho (up, down):  4.100E-01 3.911E-01
     atom    1 type  1   force =     0.00159765    0.00093406   -0.00978072
     atom    2 type  1   force =     0.00160523    0.00093915   -0.00977327
     atom    3 type  2   force =     0.00071878    0.00042262    0.02864825
     atom    4 type  2   force =     0.00071945    0.00041977    0.02864821
     atom    5 type  1   force =     0.00368554    0.00215509   -0.01322727
     atom    6 type  1   force =     0.00368771    0.00215623   -0.01323862
     atom    7 type  2   force =    -0.00660122   -0.00385558   -0.00452410
     atom    8 type  2   force =    -0.00659617   -0.00386331   -0.00452486
     atom    9 type  1   force =     0.00031430    0.00018453   -0.00073818
     atom   10 type  1   force =     0.00027197    0.00015899   -0.00073994
     atom   11 type  2   force =     0.00029333    0.00018472   -0.00037510
     atom   12 type  2   force =     0.00030343    0.00016372   -0.00037441

     Total force =     0.048860     Total SCF correction =     0.002002

     entering subroutine stress ...

     negative rho (up, down):  4.100E-01 3.911E-01
          total   stress  (Ry/bohr**3)                   (kbar)     P=  -17.17
  -0.00013779   0.00000719  -0.00000349        -20.27      1.06     -0.51
   0.00000719  -0.00014588  -0.00000204          1.06    -21.46     -0.30
  -0.00000349  -0.00000204  -0.00006656         -0.51     -0.30     -9.79

 !ASE

     Writing output data file calc.save

     General routines

     Parallel routines

   This run was terminated on:  19:32:55  30Dec2018

   JOB DONE.
Job  /afs/slac/g/suncat/bin/suncat-tsmpirun -x LD_LIBRARY_PATH -wdir /scratch/qe387689_U1Jp6 pw.x -in pw.inp

TID   HOST_NAME   COMMAND_LINE            STATUS            TERMINATION_TIME
00000 suncat0028 pw.x -in pw.inp   Done                     12/30/2018 19:32:55
00001 suncat0028 pw.x -in pw.inp   Done                     12/30/2018 19:32:55
00002 suncat0028 pw.x -in pw.inp   Done                     12/30/2018 19:32:55
00003 suncat0028 pw.x -in pw.inp   Done                     12/30/2018 19:32:55
00004 suncat0028 pw.x -in pw.inp   Done                     12/30/2018 19:32:55
00005 suncat0028 pw.x -in pw.inp   Done                     12/30/2018 19:32:55
00006 suncat0028 pw.x -in pw.inp   Done                     12/30/2018 19:32:55
00007 suncat0028 pw.x -in pw.inp   Done                     12/30/2018 19:32:55
00008 suncat0027 pw.x -in pw.inp   Done                     12/30/2018 19:32:55
00009 suncat0027 pw.x -in pw.inp   Done                     12/30/2018 19:32:55
00010 suncat0027 pw.x -in pw.inp   Done                     12/30/2018 19:32:55
00011 suncat0027 pw.x -in pw.inp   Done                     12/30/2018 19:32:55
00012 suncat0027 pw.x -in pw.inp   Done                     12/30/2018 19:32:55
00013 suncat0027 pw.x -in pw.inp   Done                     12/30/2018 19:32:55
00014 suncat0027 pw.x -in pw.inp   Done                     12/30/2018 19:32:55
00015 suncat0027 pw.x -in pw.inp   Done                     12/30/2018 19:32:55
00016 suncat0026 pw.x -in pw.inp   Done                     12/30/2018 19:32:55
00017 suncat0026 pw.x -in pw.inp   Done                     12/30/2018 19:32:55
00018 suncat0026 pw.x -in pw.inp   Done                     12/30/2018 19:32:55
00019 suncat0026 pw.x -in pw.inp   Done                     12/30/2018 19:32:55
00020 suncat0026 pw.x -in pw.inp   Done                     12/30/2018 19:32:55
00021 suncat0026 pw.x -in pw.inp   Done                     12/30/2018 19:32:55
00022 suncat0026 pw.x -in pw.inp   Done                     12/30/2018 19:32:55
00023 suncat0026 pw.x -in pw.inp   Done                     12/30/2018 19:32:55
00024 suncat0021 pw.x -in pw.inp   Done                     12/30/2018 19:32:55
00025 suncat0021 pw.x -in pw.inp   Done                     12/30/2018 19:32:55
00026 suncat0021 pw.x -in pw.inp   Done                     12/30/2018 19:32:55
00027 suncat0021 pw.x -in pw.inp   Done                     12/30/2018 19:32:55
00028 suncat0021 pw.x -in pw.inp   Done                     12/30/2018 19:32:55
00029 suncat0021 pw.x -in pw.inp   Done                     12/30/2018 19:32:55
00030 suncat0021 pw.x -in pw.inp   Done                     12/30/2018 19:32:55
00031 suncat0021 pw.x -in pw.inp   Done                     12/30/2018 19:32:55
00032 suncat0010 pw.x -in pw.inp   Done                     12/30/2018 19:32:55
00033 suncat0010 pw.x -in pw.inp   Done                     12/30/2018 19:32:55
00034 suncat0010 pw.x -in pw.inp   Done                     12/30/2018 19:32:55
00035 suncat0010 pw.x -in pw.inp   Done                     12/30/2018 19:32:55
00036 suncat0010 pw.x -in pw.inp   Done                     12/30/2018 19:32:55
00037 suncat0010 pw.x -in pw.inp   Done                     12/30/2018 19:32:55
00038 suncat0010 pw.x -in pw.inp   Done                     12/30/2018 19:32:55
00039 suncat0010 pw.x -in pw.inp   Done                     12/30/2018 19:32:55
00040 suncat0191 pw.x -in pw.inp   Done                     12/30/2018 19:32:55
00041 suncat0191 pw.x -in pw.inp   Done                     12/30/2018 19:32:55
00042 suncat0191 pw.x -in pw.inp   Done                     12/30/2018 19:32:55
00043 suncat0191 pw.x -in pw.inp   Done                     12/30/2018 19:32:55
00044 suncat0191 pw.x -in pw.inp   Done                     12/30/2018 19:32:55
00045 suncat0191 pw.x -in pw.inp   Done                     12/30/2018 19:32:55
00046 suncat0191 pw.x -in pw.inp   Done                     12/30/2018 19:32:55
00047 suncat0191 pw.x -in pw.inp   Done                     12/30/2018 19:32:55
00048 suncat0007 pw.x -in pw.inp   Done                     12/30/2018 19:32:55
00049 suncat0007 pw.x -in pw.inp   Done                     12/30/2018 19:32:55
00050 suncat0007 pw.x -in pw.inp   Done                     12/30/2018 19:32:55
00051 suncat0007 pw.x -in pw.inp   Done                     12/30/2018 19:32:55
00052 suncat0007 pw.x -in pw.inp   Done                     12/30/2018 19:32:55
00053 suncat0007 pw.x -in pw.inp   Done                     12/30/2018 19:32:55
00054 suncat0007 pw.x -in pw.inp   Done                     12/30/2018 19:32:55
00055 suncat0007 pw.x -in pw.inp   Done                     12/30/2018 19:32:55
00056 suncat0100 pw.x -in pw.inp   Done                     12/30/2018 19:32:55
00057 suncat0100 pw.x -in pw.inp   Done                     12/30/2018 19:32:55
00058 suncat0100 pw.x -in pw.inp   Done                     12/30/2018 19:32:55
00059 suncat0100 pw.x -in pw.inp   Done                     12/30/2018 19:32:55
00060 suncat0100 pw.x -in pw.inp   Done                     12/30/2018 19:32:55
00061 suncat0100 pw.x -in pw.inp   Done                     12/30/2018 19:32:55
00062 suncat0100 pw.x -in pw.inp   Done                     12/30/2018 19:32:55
00063 suncat0100 pw.x -in pw.inp   Done                     12/30/2018 19:32:55