     Program PWSCF v.5.1rc2 (svn rev. 11289) starts on 18Dec2018 at 16:49:46

     Current dimensions of program PWSCF are:
     Max number of different atomic species (ntypx) = 10
     Max number of k-points (npk) =  40000
     Max angular momentum in pseudopotentials (lmaxx) =  3
     Presently stress not available with electric field

     IMPORTANT: XC functional enforced from input :
     Exchange-correlation      = BEEF-VDW ( 1  4 27 13 2)
     Any further DFT definition will be discarded
     Please, verify this is what you really want

     Subspace diagonalization in iterative solution of the eigenvalue problem:
     a serial algorithm will be used

     Found symmetry operation: I + ( -0.5000 -0.5000  0.0000)
     This is a supercell, fractional translations are disabled

     bravais-lattice index     =            0
     lattice parameter (alat)  =       1.8897  a.u.
     unit-cell volume          =    5792.6724 (a.u.)^3
     number of atoms/cell      =           12
     number of atomic types    =            2
     number of electrons       =       186.00
     number of Kohn-Sham states=          123
     kinetic-energy cutoff     =      36.7493  Ry
     charge density cutoff     =     367.4932  Ry
     convergence threshold     =      1.0E-06
     mixing beta               =       0.1000
     number of iterations used =           10  plain     mixing
     Exchange-correlation      = BEEF-VDW ( 1  4 27 13 2)
     nstep                     =           50

     celldm(1)=   1.889726  celldm(2)=   0.000000  celldm(3)=   0.000000
     celldm(4)=   0.000000  celldm(5)=   0.000000  celldm(6)=   0.000000

     crystal axes: (cart. coord. in units of alat)
               a(1) = (   6.179904   0.000000   0.000000 )
               a(2) = (   2.755075   5.531797   0.000000 )
               a(3) = (   0.000000   0.000000  25.109287 )

     reciprocal axes: (cart. coord. in units 2 pi/alat)
               b(1) = (  0.161815 -0.080591  0.000000 )
               b(2) = (  0.000000  0.180773  0.000000 )
               b(3) = (  0.000000  0.000000  0.039826 )

     PseudoPot. # 1 for Ag read from file:
     /afs/slac.stanford.edu/u/if/mamunm/psp/gbrv1.5pbe/Ag.UPF
     MD5 check sum: d66d668201baa78d5eb5b04ef7011058
     Pseudo is Ultrasoft + core correction, Zval = 19.0
     Generated by new atomic code, or converted to UPF format
     Using radial grid of  887 points,  6 beta functions with:
                l(1) =   0
                l(2) =   0
                l(3) =   1
                l(4) =   1
                l(5) =   2
                l(6) =   2
     Q(r) pseudized with  6 coefficients,  rinner =    1.300   1.300   1.300
                                                       1.300   1.300

     PseudoPot. # 2 for Hg read from file:
     /afs/slac.stanford.edu/u/if/mamunm/psp/gbrv1.5pbe/Hg.UPF
     MD5 check sum: 8f42caffe07f7fd9c0a564347f8c5498
     Pseudo is Ultrasoft + core correction, Zval = 12.0
     Generated by new atomic code, or converted to UPF format
     Using radial grid of  985 points,  6 beta functions with:
                l(1) =   0
                l(2) =   0
                l(3) =   1
                l(4) =   1
                l(5) =   2
                l(6) =   2
     Q(r) pseudized with  8 coefficients,  rinner =    2.000   2.000   2.000
                                                       2.000   2.000

     vdW kernel table read from file vdW_kernel_table
     MD5 check sum: 095c7af220d748ca6e76c0b4c6cfb241

     atomic species   valence    mass     pseudopotential
        Ag1           19.00   107.86820     Ag( 1.00)
        Hg1           12.00   200.59200     Hg( 1.00)

     No symmetry found

   Cartesian axes

     site n.     atom                  positions (alat units)
         1           Ag1 tau(   1) = (   0.0000000   0.0000000  10.0000000  )
         2           Ag1 tau(   2) = (   4.4674895   2.7658986  10.0000000  )
         3           Hg1 tau(   3) = (   3.0899521   0.0000000  10.0000000  )
         4           Hg1 tau(   4) = (   1.3775374   2.7658986  10.0000000  )
         5           Ag1 tau(   5) = (   6.1799042   3.8260836  12.5546433  )
         6           Ag1 tau(   6) = (   1.7124147   1.0601850  12.5546433  )
         7           Hg1 tau(   7) = (   3.0899521   3.8260836  12.5546433  )
         8           Hg1 tau(   8) = (   4.8023668   1.0601850  12.5546433  )
         9           Ag1 tau(   9) = (   3.4248295   2.1203700  15.1092867  )
        10           Ag1 tau(  10) = (   7.8923190   4.8862686  15.1092867  )
        11           Hg1 tau(  11) = (   6.5147816   2.1203700  15.1092867  )
        12           Hg1 tau(  12) = (   4.8023668   4.8862686  15.1092867  )

     number of k points=    20  Fermi-Dirac smearing, width (Ry)=  0.0110
                       cart. coord. in units 2pi/alat
        k(    1) = (   0.0000000   0.0000000   0.0000000), wk =   0.0555556
        k(    2) = (   0.0000000   0.0301288   0.0000000), wk =   0.1111111
        k(    3) = (   0.0000000   0.0602577   0.0000000), wk =   0.1111111
        k(    4) = (   0.0000000  -0.0903865   0.0000000), wk =   0.0555556
        k(    5) = (   0.0269691  -0.0134318   0.0000000), wk =   0.1111111
        k(    6) = (   0.0269691   0.0166970   0.0000000), wk =   0.1111111
        k(    7) = (   0.0269691   0.0468259   0.0000000), wk =   0.1111111
        k(    8) = (   0.0269691  -0.1038183   0.0000000), wk =   0.1111111
        k(    9) = (   0.0269691  -0.0736895   0.0000000), wk =   0.1111111
        k(   10) = (   0.0269691  -0.0435606   0.0000000), wk =   0.1111111
        k(   11) = (   0.0539383  -0.0268636   0.0000000), wk =   0.1111111
        k(   12) = (   0.0539383   0.0032653   0.0000000), wk =   0.1111111
        k(   13) = (   0.0539383   0.0333941   0.0000000), wk =   0.1111111
        k(   14) = (   0.0539383  -0.1172501   0.0000000), wk =   0.1111111
        k(   15) = (   0.0539383  -0.0871213   0.0000000), wk =   0.1111111
        k(   16) = (   0.0539383  -0.0569924   0.0000000), wk =   0.1111111
        k(   17) = (  -0.0809074   0.0402954   0.0000000), wk =   0.0555556
        k(   18) = (  -0.0809074   0.0704242   0.0000000), wk =   0.1111111
        k(   19) = (  -0.0809074   0.1005531   0.0000000), wk =   0.1111111
        k(   20) = (  -0.0809074  -0.0500911   0.0000000), wk =   0.0555556

     Largest allocated arrays     est. size (Mb)     dimensions
     Largest temporary arrays     est. size (Mb)     dimensions

     Initial potential from superposition of free atoms
     Check: negative starting charge=   -0.001667

     starting charge  182.99937, renormalised to  186.00000

     negative rho (up, down):  1.694E-03 0.000E+00

     *
     * You are using vdW-DF for exchange-correlation in this calculation.
     * Please cite the following three references that made this development
     * possible:
     *
     *   M. Dion, H. Rydberg, E. Schroder, D. C. Langreth, and
     *   B. I. Lundqvist, Phys. Rev. Lett. 92, 246401 (2004).
     *
     *   T. Thonhauser, V. R. Cooper, S. Li, A. Puzder, P. Hyldgaard, and
     *   D. C. Langreth, Phys. Rev. B 76, 125112 (2007).
     *
     *   G. Roman-Perez and J. M. Soler, Phys. Rev. Lett. 103, 096102 (2009).
     *
     *
     * If you are using vdW-DF2, please also cite:
     *
     *   K. Lee, E. D. Murray, L. Kong, B. I. Lundqvist, and
     *   D. C. Langreth, Phys. Rev. B 82, 081101(R) (2010).
     *
     *
     * If you are calculating the stress with vdW-DF, please also cite:
     *
     *   R. Sabatini, E. Kucukbenli, B. Kolb, T. Thonhauser, and
     *   S. de Gironcoli, J. Phys.: Condens. Matter 24, 424209 (2012).
     *

     Carrying out vdW-DF run using the following parameters:

     Nqs =      20    Nr_points =    1024   r_max =   100.000
     q_mesh =
               0.00001000     0.04494208     0.09755937     0.15916263
               0.23128650     0.31572767     0.41458969     0.53033537
               0.66584808     0.82450364     1.01025438     1.22772762
               1.48234092     1.78043706     2.12944203     2.53805004
               3.01644009     3.57652955     4.23227104     5.00000000

     Gradients computed in reciprocal space

     Adding external electric field

     Computed dipole along edir(3) :
        Dipole               -0.0000 Ry au,         -0.0000 Debye
        Dipole field         -0.0000 Ry au

        Potential amp.        0.0000 Ry
        Total length         46.2634 bohr

     Starting wfc are  132 randomized atomic wfcs

     Self-consistent Calculation

     iteration #  1     ecut=    36.75 Ry     beta=0.10
     Davidson diagonalization with overlap
     ethr =  1.00E-02,  avg # of iterations =  7.8

[...]

     total energy              =   -2434.69468299 Ry
     Harris-Foulkes estimate   =   -2435.14654140 Ry
     estimated scf accuracy    <       2.77062537 Ry

[...]

     End of self-consistent calculation

          k = 0.0000 0.0000 0.0000 ( 21783 PWs)   bands (ev):

   -91.3812 -91.3803 -91.1119 -91.1118 -91.1110 -91.1109 -54.8960 -54.8937
   -54.8922 -54.8764 -54.8744 -54.8730 -54.6310 -54.6309 -54.6296 -54.6294
   -54.6224 -54.6223 -54.6028 -54.6027 -54.6013 -54.6012 -54.5999 -54.5997
    -7.1298  -6.9549  -6.9070  -6.8535  -6.8228  -6.7926  -6.7675  -6.6712
    -6.6325  -6.6307  -6.6216  -6.6113  -6.3749  -6.3682  -6.3591  -6.2817
    -6.2502  -6.2134  -6.1736  -6.1279  -6.1219  -6.0909  -6.0653  -5.9638
    -5.9622  -5.9439  -5.8774  -5.8010  -5.7642  -5.7587  -5.4314  -5.2431
    -4.4784  -4.2941  -4.0709  -4.0384  -3.8314  -3.8183  -3.8106  -3.7473
    -3.6470  -3.6156  -3.4457  -3.3460  -3.3450  -3.3344  -3.3127  -3.2851
    -3.2716  -3.2651  -3.2060  -3.2009  -3.1835  -3.1018  -3.1000  -3.0541
    -2.9865  -2.9813  -2.9439  -2.9328  -2.8496  -2.7623  -1.8576  -0.7185
    -0.5978   0.0632   0.3782   0.4898   0.5833   0.6926   0.9363   0.9552
     0.9856   1.6794   2.3372   2.3888   3.0906   3.2121   3.7355   3.9100
     4.0134   4.0864   4.6010   4.6385   4.8996   5.9076   6.0534   6.2601
     6.6364   6.9177   7.1414   7.4335   7.6632   8.0910   8.1174   8.2486
     8.5260   8.6465   8.6685

[...]

          k =-0.0809 0.0403 0.0000 ( 21810 PWs)   bands (ev):

[...]

     the Fermi energy is     0.7647 ev

!    total energy              =   -2434.46346951 Ry
     Harris-Foulkes estimate   =   -2434.46347032 Ry
     estimated scf accuracy    <       0.00000080 Ry

     The total energy is the sum of the following terms:

     one-electron contribution =  -15130.92089354 Ry
     hartree contribution      =    7604.78519896 Ry
     xc contribution           =    -423.09081129 Ry
     ewald contribution        =    5514.78656662 Ry
     electric field correction =       0.00000000 Ry
     smearing contrib. (-TS)   =      -0.02353025 Ry

     convergence has been achieved in  13 iterations

 BEEF-vdW xc energy contributions
           1 :   -369.069994860868
           2 :    337.112647838354
           3 :   -282.762036527509
           4 :    220.756656553267
           5 :   -164.980616176387
           6 :    123.779140346568
           7 :   -98.4088179564987
           8 :    84.6714157978768
           9 :   -76.3636944300023
[...]

     Program PWSCF v.5.1rc2 (svn rev. 11289) starts on 18Dec2018 at 17: 4: 7

[...]

   This run was terminated on:  17:18:23  18Dec2018

[...]

   This run was terminated on:  17:46: 1  18Dec2018

[...]

     Program PWSCF v.5.1rc2 (svn rev. 11289) starts on 18Dec2018 at 17:46: 6

[...]

     Program PWSCF v.5.1rc2 (svn rev. 11289) starts on 18Dec2018 at 18:13:46

     Current dimensions of program PWSCF are:
     Max number of different atomic species (ntypx) = 10
     Max number of k-points (npk) =  40000
     Max angular momentum in pseudopotentials (lmaxx) =  3
     Presently stress not available with electric field

     IMPORTANT: XC functional enforced from input :
     Exchange-correlation      = BEEF-VDW ( 1  4 27 13 2)
     Any further DFT definition will be discarded
     Please, verify this is what you really want

     Subspace diagonalization in iterative solution of the eigenvalue problem:
     a serial algorithm will be used

     Found symmetry operation: I + ( -0.5000 -0.5000  0.0000)
     This is a supercell, fractional translations are disabled

     bravais-lattice index     =            0
     lattice parameter (alat)  =       1.8897  a.u.
     unit-cell volume          =    5792.6724 (a.u.)^3
     number of atoms/cell      =           12
     number of atomic types    =            2
     number of electrons       =       186.00
     number of Kohn-Sham states=          123
     kinetic-energy cutoff     =      36.7493  Ry
     charge density cutoff     =     367.4932  Ry
     convergence threshold     =      1.0E-06
     mixing beta               =       0.1000
     number of iterations used =           10  plain     mixing
     Exchange-correlation      = BEEF-VDW ( 1  4 27 13 2)
     nstep                     =           50

     celldm(1)=   1.889726  celldm(2)=   0.000000  celldm(3)=   0.000000
     celldm(4)=   0.000000  celldm(5)=   0.000000  celldm(6)=   0.000000

     crystal axes: (cart. coord. in units of alat)
               a(1) = (   6.179904   0.000000   0.000000 )
               a(2) = (   2.755075   5.531797   0.000000 )
               a(3) = (   0.000000   0.000000  25.109287 )

     reciprocal axes: (cart. coord. in units 2 pi/alat)
               b(1) = (  0.161815 -0.080591  0.000000 )
               b(2) = (  0.000000  0.180773  0.000000 )
               b(3) = (  0.000000  0.000000  0.039826 )

     PseudoPot. # 1 for Ag read from file:
     /afs/slac.stanford.edu/u/if/mamunm/psp/gbrv1.5pbe/Ag.UPF
     MD5 check sum: d66d668201baa78d5eb5b04ef7011058
     Pseudo is Ultrasoft + core correction, Zval = 19.0
     Generated by new atomic code, or converted to UPF format
     Using radial grid of  887 points,  6 beta functions with:
                l(1) =   0
                l(2) =   0
                l(3) =   1
                l(4) =   1
                l(5) =   2
                l(6) =   2
     Q(r) pseudized with  6 coefficients,  rinner =    1.300   1.300   1.300
                                                       1.300   1.300

     PseudoPot. # 2 for Hg read from file:
     /afs/slac.stanford.edu/u/if/mamunm/psp/gbrv1.5pbe/Hg.UPF
     MD5 check sum: 8f42caffe07f7fd9c0a564347f8c5498
     Pseudo is Ultrasoft + core correction, Zval = 12.0
     Generated by new atomic code, or converted to UPF format
     Using radial grid of  985 points,  6 beta functions with:
                l(1) =   0
                l(2) =   0
                l(3) =   1
                l(4) =   1
                l(5) =   2
                l(6) =   2
     Q(r) pseudized with  8 coefficients,  rinner =    2.000   2.000   2.000
                                                       2.000   2.000

     vdW kernel table read from file vdW_kernel_table
     MD5 check sum: 095c7af220d748ca6e76c0b4c6cfb241

     atomic species   valence    mass     pseudopotential
        Ag1           19.00   107.86820     Ag( 1.00)
        Hg1           12.00   200.59200     Hg( 1.00)

     No symmetry found

   Cartesian axes

     site n.     atom                  positions (alat units)
         1           Ag1 tau(   1) = (   0.0000000   0.0000000  10.0000000  )
         2           Ag1 tau(   2) = (   4.4674895   2.7658986  10.0000000  )
         3           Hg1 tau(   3) = (   3.0899521   0.0000000  10.0000000  )
         4           Hg1 tau(   4) = (   1.3775374   2.7658986  10.0000000  )
         5           Ag1 tau(   5) = (   6.1799042   3.8260836  12.5546433  )
         6           Ag1 tau(   6) = (   1.7124147   1.0601850  12.5546433  )
         7           Hg1 tau(   7) = (   3.0899521   3.8260836  12.5546433  )
         8           Hg1 tau(   8) = (   4.8023668   1.0601850  12.5546433  )
         9           Ag1 tau(   9) = (   3.3949760   2.1019084  15.0806362  )
        10           Ag1 tau(  10) = (   7.8624891   4.8677809  15.0806271  )
        11           Hg1 tau(  11) = (   6.5145913   2.1202662  15.5264289  )
        12           Hg1 tau(  12) = (   4.8021846   4.8861512  15.5263909  )

     number of k points=    20  Fermi-Dirac smearing, width (Ry)=  0.0110
                       cart. coord. in units 2pi/alat
        k(    1) = (   0.0000000   0.0000000   0.0000000), wk =   0.0555556
        k(    2) = (   0.0000000   0.0301288   0.0000000), wk =   0.1111111
        k(    3) = (   0.0000000   0.0602577   0.0000000), wk =   0.1111111
        k(    4) = (   0.0000000  -0.0903865   0.0000000), wk =   0.0555556
        k(    5) = (   0.0269691  -0.0134318   0.0000000), wk =   0.1111111
        k(    6) = (   0.0269691   0.0166970   0.0000000), wk =   0.1111111
        k(    7) = (   0.0269691   0.0468259   0.0000000), wk =   0.1111111
        k(    8) = (   0.0269691  -0.1038183   0.0000000), wk =   0.1111111
        k(    9) = (   0.0269691  -0.0736895   0.0000000), wk =   0.1111111
        k(   10) = (   0.0269691  -0.0435606   0.0000000), wk =   0.1111111
        k(   11) = (   0.0539383  -0.0268636   0.0000000), wk =   0.1111111
        k(   12) = (   0.0539383   0.0032653   0.0000000), wk =   0.1111111
        k(   13) = (   0.0539383   0.0333941   0.0000000), wk =   0.1111111
        k(   14) = (   0.0539383  -0.1172501   0.0000000), wk =   0.1111111
        k(   15) = (   0.0539383  -0.0871213   0.0000000), wk =   0.1111111
        k(   16) = (   0.0539383  -0.0569924   0.0000000), wk =   0.1111111
        k(   17) = (  -0.0809074   0.0402954   0.0000000), wk =   0.0555556
        k(   18) = (  -0.0809074   0.0704242   0.0000000), wk =   0.1111111
        k(   19) = (  -0.0809074   0.1005531   0.0000000), wk =   0.1111111
        k(   20) = (  -0.0809074  -0.0500911   0.0000000), wk =   0.0555556

     Largest allocated arrays     est. size (Mb)     dimensions
     Largest temporary arrays     est. size (Mb)     dimensions

     Initial potential from superposition of free atoms
     Check: negative starting charge=   -0.001611

     starting charge  182.99937, renormalised to  186.00000

[...]

     *
     * You are using vdW-DF for exchange-correlation in this calculation.
     * Please cite the following three references that made this development
     * possible:
     *
     *   M. Dion, H. Rydberg, E. Schroder, D. C. Langreth, and
     *   B. I. Lundqvist, Phys. Rev. Lett. 92, 246401 (2004).
     *
     *   T. Thonhauser, V. R. Cooper, S. Li, A. Puzder, P. Hyldgaard, and
     *   D. C. Langreth, Phys. Rev. B 76, 125112 (2007).
     *
     *   G. Roman-Perez and J. M. Soler, Phys. Rev. Lett. 103, 096102 (2009).
     *
     *
     * If you are using vdW-DF2, please also cite:
     *
     *   K. Lee, E. D. Murray, L. Kong, B. I. Lundqvist, and
     *   D. C. Langreth, Phys. Rev. B 82, 081101(R) (2010).
     *
     *
     * If you are calculating the stress with vdW-DF, please also cite:
     *
     *   R. Sabatini, E. Kucukbenli, B. Kolb, T. Thonhauser, and
     *   S. de Gironcoli, J. Phys.: Condens. Matter 24, 424209 (2012).
     *

     Carrying out vdW-DF run using the following parameters:

     Nqs =      20    Nr_points =    1024   r_max =   100.000
     q_mesh =
               0.00001000     0.04494208     0.09755937     0.15916263
               0.23128650     0.31572767     0.41458969     0.53033537
               0.66584808     0.82450364     1.01025438     1.22772762
               1.48234092     1.78043706     2.12944203     2.53805004
               3.01644009     3.57652955     4.23227104     5.00000000

     Gradients computed in reciprocal space

[...]

     Starting wfc are  132 randomized atomic wfcs

     Self-consistent Calculation

[...]

     total energy              =   -2434.47348070 Ry
     Harris-Foulkes estimate   =   -2434.47347996 Ry
     estimated scf accuracy    <       0.00000182 Ry

     iteration # 13     ecut=    36.75 Ry     beta=0.10
     Davidson diagonalization with overlap
     ethr =  9.78E-10,  avg # of iterations =  2.0

[...]

     negative rho (up, down):  1.565E-03 0.000E+00

     Adding external electric field

     Computed dipole along edir(3) :
        Dipole                0.0173 Ry au,          0.0440 Debye
        Dipole field          0.0000 Ry au

        Potential amp.       -0.0035 Ry
        Total length         46.2634 bohr

     End of self-consistent calculation

[...]

          k = 0.0539-0.0570 0.0000 ( 21804 PWs)   bands (ev):

[...]

          k =-0.0809-0.0501 0.0000 ( 21800 PWs)   bands (ev):

   -91.2784 -91.2775 -91.1286 -91.1277 -91.1002 -91.0993 -54.7903 -54.7888
   -54.7874 -54.7736 -54.7722 -54.7706 -54.6476 -54.6462 -54.6402 -54.6206
   -54.6169 -54.6161 -54.6155 -54.6148 -54.6101 -54.5917 -54.5905 -54.5903
    -6.9325  -6.7313  -6.7297  -6.6471  -6.5601  -6.5392  -6.4750  -6.4556
    -6.4471  -6.4329  -6.3109  -6.2495  -6.1962  -6.1472  -6.1287  -6.1254
    -6.0718  -6.0501  -6.0276  -5.9979  -5.9581  -5.9481  -5.9039  -5.8534
    -5.7906  -5.7796  -5.6794  -5.6207  -5.6087  -5.4142  -5.2832  -4.8776
    -4.1084  -4.1025  -4.0108  -3.9916  -3.9532  -3.9285  -3.9092  -3.8225
    -3.8068  -3.7938  -3.7565  -3.7559  -3.7080  -3.6131  -3.4850  -3.4566
    -3.4362  -3.4032  -3.3851  -3.3083  -3.2899  -3.2860  -3.2799  -3.1935
    -3.1696  -3.1321  -3.1237  -3.0250  -2.9822  -2.9195  -2.7546  -2.3003
    -2.1078  -1.1467  -0.6925  -0.4683  -0.4020   0.2660   0.5281   2.2616
     2.4802   2.7473   4.1792   4.3701   4.5879   4.9973   5.0230   5.0407
     5.4941   5.8154   5.8409   5.8892   6.1693   6.2269   6.2373   6.2920
     6.7463   6.8664   7.0155   7.0733   7.2036   7.2682   7.2965   7.3733
     7.6118   8.0217   8.1560

     the Fermi energy is     0.7618 ev

!    total energy              =   -2434.47348157 Ry
     Harris-Foulkes estimate   =   -2434.47348061 Ry
     estimated scf accuracy    <       0.00000088 Ry

     The total energy is the sum of the following terms:

     one-electron contribution =  -14822.21531975 Ry
     hartree contribution      =    7450.74160895 Ry
     xc contribution           =    -423.00675052 Ry
     ewald contribution        =    5360.03039140 Ry
     electric field correction =       0.00000065 Ry
     smearing contrib. (-TS)   =      -0.02341230 Ry

     convergence has been achieved in  13 iterations

 BEEF-vdW xc energy contributions
           1 :   -368.963597760389
           2 :    336.883912231045
           3 :   -282.401709079108
           4 :    220.388491666677
           5 :   -164.775461643934
           6 :    123.828822803544
           7 :   -98.6501137389164
           8 :    84.9180856642359
           9 :   -76.4285810019763
          10 :    68.4003612425634
          11 :   -59.0541321216054
          12 :    49.1658269131590
          13 :   -40.4352437670631
          14 :    33.9336642604626
          15 :   -29.5102271619718
          16 :    26.2120867297482
          17 :   -23.1331092657229
          18 :    19.9899442617385
          19 :   -17.1020408303971
          20 :    14.9396623052068
          21 :   -13.6662476734040
          22 :    13.0015588905623
          23 :   -12.4377818777359
          24 :    11.5850583407860
          25 :   -10.3833425693692
          26 :    9.06360239965898
          27 :   -7.94152319365332
          28 :    7.21877299442383
          29 :   -6.91683728384896
          30 :    6.93607440344192
          31 :   -35.3141944534568
          32 :   -25.7719156008895

     Forces acting on atoms (Ry/au):

     negative rho (up, down):  1.565E-03 0.000E+00
     atom    1 type  1   force =     0.00281704    0.00174466    0.00108334
     atom    2 type  1   force =     0.00281843    0.00174438    0.00108292
     atom    3 type  2   force =    -0.00225391   -0.00139601   -0.01502145
     atom    4 type  2   force =    -0.00225556   -0.00139680   -0.01502133
     atom    5 type  1   force =    -0.00297596   -0.00184258    0.00728553
     atom    6 type  1   force =    -0.00297508   -0.00184245    0.00728535
     atom    7 type  2   force =     0.00369898    0.00229133    0.00676726
     atom    8 type  2   force =     0.00370129    0.00229102    0.00676837
     atom    9 type  1   force =    -0.00042581   -0.00026462   -0.00074214
     atom   10 type  1   force =    -0.00042653   -0.00026275   -0.00074158
     atom   11 type  2   force =    -0.00086188   -0.00053373    0.00062696
     atom   12 type  2   force =    -0.00086101   -0.00053246    0.00062677

     Total force =     0.027464     Total SCF correction =     0.004249
     SCF correction compared to forces is large: reduce conv_thr to get better values

     entering subroutine stress ...

     negative rho (up, down):  1.565E-03 0.000E+00
          total   stress  (Ry/bohr**3)                   (kbar)     P=   -5.43
  -0.00006865  -0.00001255  -0.00000358        -10.10     -1.85     -0.53
  -0.00001255  -0.00005614  -0.00000222         -1.85     -8.26     -0.33
  -0.00000358  -0.00000222   0.00001407         -0.53     -0.33      2.07

 !ASE

     Writing output data file calc.save

     General routines

     Parallel routines

   This run was terminated on:  18:27:34  18Dec2018

   JOB DONE.
Job  /afs/slac/g/suncat/bin/suncat-tsmpirun -x LD_LIBRARY_PATH -wdir /scratch/qe529552_u2eQe pw.x -in pw.inp

TID   HOST_NAME   COMMAND_LINE            STATUS            TERMINATION_TIME
00000 suncat0187 pw.x -in pw.inp   Done                     12/18/2018 18:27:34
00001 suncat0187 pw.x -in pw.inp   Done                     12/18/2018 18:27:34
00002 suncat0187 pw.x -in pw.inp   Done                     12/18/2018 18:27:34
00003 suncat0187 pw.x -in pw.inp   Done                     12/18/2018 18:27:34
00004 suncat0187 pw.x -in pw.inp   Done                     12/18/2018 18:27:34
00005 suncat0187 pw.x -in pw.inp   Done                     12/18/2018 18:27:34
00006 suncat0187 pw.x -in pw.inp   Done                     12/18/2018 18:27:34
00007 suncat0187 pw.x -in pw.inp   Done                     12/18/2018 18:27:34
00008 suncat0186 pw.x -in pw.inp   Done                     12/18/2018 18:27:34
00009 suncat0186 pw.x -in pw.inp   Done                     12/18/2018 18:27:34
00010 suncat0186 pw.x -in pw.inp   Done                     12/18/2018 18:27:34
00011 suncat0186 pw.x -in pw.inp   Done                     12/18/2018 18:27:34
00012 suncat0186 pw.x -in pw.inp   Done                     12/18/2018 18:27:34
00013 suncat0186 pw.x -in pw.inp   Done                     12/18/2018 18:27:34
00014 suncat0186 pw.x -in pw.inp   Done                     12/18/2018 18:27:34
00015 suncat0186 pw.x -in pw.inp   Done                     12/18/2018 18:27:34
00016 suncat0185 pw.x -in pw.inp   Done                     12/18/2018 18:27:34
00017 suncat0185 pw.x -in pw.inp   Done                     12/18/2018 18:27:34
00018 suncat0185 pw.x -in pw.inp   Done                     12/18/2018 18:27:34
00019 suncat0185 pw.x -in pw.inp   Done                     12/18/2018 18:27:34
00020 suncat0185 pw.x -in pw.inp   Done                     12/18/2018 18:27:34
00021 suncat0185 pw.x -in pw.inp   Done                     12/18/2018 18:27:34
00022 suncat0185 pw.x -in pw.inp   Done                     12/18/2018 18:27:34
00023 suncat0185 pw.x -in pw.inp   Done                     12/18/2018 18:27:34
00024 suncat0184 pw.x -in pw.inp   Done                     12/18/2018 18:27:34
00025 suncat0184 pw.x -in pw.inp   Done                     12/18/2018 18:27:34
00026 suncat0184 pw.x -in pw.inp   Done                     12/18/2018 18:27:34
00027 suncat0184 pw.x -in pw.inp   Done                     12/18/2018 18:27:34
00028 suncat0184 pw.x -in pw.inp   Done                     12/18/2018 18:27:34
00029 suncat0184 pw.x -in pw.inp   Done                     12/18/2018 18:27:34
00030 suncat0184 pw.x -in pw.inp   Done                     12/18/2018 18:27:34
00031 suncat0184 pw.x -in pw.inp   Done                     12/18/2018 18:27:34