     Program PWSCF v.5.1rc2 (svn rev. 11289) starts on 18Dec2018 at 17:44:27

     Current dimensions of program PWSCF are:
     Max number of different atomic species (ntypx) = 10
     Max number of k-points (npk) =  40000
     Max angular momentum in pseudopotentials (lmaxx) =  3
     Presently stress not available with electric field

     IMPORTANT: XC functional enforced from input :
     Exchange-correlation      = BEEF-VDW ( 1  4 27 13 2)
     Any further DFT definition will be discarded
     Please, verify this is what you really want

     Subspace diagonalization in iterative solution of the eigenvalue problem:
     a serial algorithm will be used

     Found symmetry operation: I + (  0.5000 -0.5000  0.0000)
     This is a supercell, fractional translations are disabled

     bravais-lattice index     =            0
     lattice parameter (alat)  =       1.8897  a.u.
     unit-cell volume          =    4439.1130 (a.u.)^3
     number of atoms/cell      =           12
     number of atomic types    =            2
     number of electrons       =       114.00
     number of Kohn-Sham states=           87
     kinetic-energy cutoff     =      36.7493  Ry
     charge density cutoff     =     367.4932  Ry
     convergence threshold     =      1.0E-06
     mixing beta               =       0.1000
     number of iterations used =           10  plain     mixing
     Exchange-correlation      = BEEF-VDW ( 1  4 27 13 2)
     nstep                     =           50

     celldm(1)=   1.889726  celldm(2)=   0.000000  celldm(3)=   0.000000
     celldm(4)=   0.000000  celldm(5)=   0.000000  celldm(6)=   0.000000

     crystal axes: (cart. coord. in units of alat)
               a(1) = (   5.350421   0.000000   0.000000 )
               a(2) = (   1.780693   5.045408   0.000000 )
               a(3) = (   0.000000   0.000000  24.367746 )

     reciprocal axes: (cart. coord. in units 2 pi/alat)
               b(1) = (  0.186901 -0.065964  0.000000 )
               b(2) = (  0.000000  0.198200  0.000000 )
               b(3) = (  0.000000  0.000000  0.041038 )

     PseudoPot. # 1 for Al read from file:
     /afs/slac.stanford.edu/u/if/mamunm/psp/gbrv1.5pbe/Al.UPF
     MD5 check sum: 0a6289f5291fc8f409219462bc851e1f
     Pseudo is Ultrasoft + core correction, Zval =  3.0
     Generated by new atomic code, or converted to UPF format
     Using radial grid of  893 points,  3 beta functions with:
                l(1) =   0
                l(2) =   1
                l(3) =   2
     Q(r) pseudized with  8 coefficients,  rinner =    0.900   0.900   0.900
                                                       0.900   0.900

     PseudoPot. # 2 for Pd read from file:
     /afs/slac.stanford.edu/u/if/mamunm/psp/gbrv1.5pbe/Pd.UPF
     MD5 check sum: 2d733d2bc2cbfd217af676df1668a4bc
     Pseudo is Ultrasoft + core correction, Zval = 16.0
     Generated by new atomic code, or converted to UPF format
     Using radial grid of  887 points,  6 beta functions with:
                l(1) =   0
                l(2) =   0
                l(3) =   1
                l(4) =   1
                l(5) =   2
                l(6) =   2
     Q(r) pseudized with  8 coefficients,  rinner =    1.130   1.130   1.130
                                                       1.130   1.130

     vdW kernel table read from file vdW_kernel_table
     MD5 check sum: 095c7af220d748ca6e76c0b4c6cfb241

     atomic species   valence    mass     pseudopotential
        Al1            3.00    26.98154     Al( 1.00)
        Pd1           16.00   106.42000     Pd( 1.00)

     No symmetry found

   Cartesian axes

     site n.     atom                  positions (alat units)
         1           Al1 tau(   1) = (   0.0000000   0.0000000  10.0000000  )
         2           Al1 tau(   2) = (   3.5655569   2.5227039  10.0000000  )
         3           Pd1 tau(   3) = (   2.6752106   0.0000000  10.0000000  )
         4           Pd1 tau(   4) = (   0.8903463   2.5227039  10.0000000  )
         5           Al1 tau(   5) = (   5.3504211   3.7855316  12.1838730  )
         6           Al1 tau(   6) = (   1.7848643   1.2628277  12.1838730  )
         7           Pd1 tau(   7) = (   2.6752106   3.7855316  12.1838730  )
         8           Pd1 tau(   8) = (   4.4600748   1.2628277  12.1838730  )
         9           Al1 tau(   9) = (   3.5697285   2.5256554  14.3677459  )
        10           Al1 tau(  10) = (   0.0041717   0.0029515  14.3677459  )
        11           Pd1 tau(  11) = (   0.8945180   2.5256554  14.3677459  )
        12           Pd1 tau(  12) = (   2.6793822   0.0029515  14.3677459  )

     number of k points=    20  Fermi-Dirac smearing, width (Ry)=  0.0110
                       cart. coord. in units 2pi/alat
        k(    1) = (   0.0000000   0.0000000   0.0000000), wk =   0.0555556
        k(    2) = (   0.0000000   0.0330333   0.0000000), wk =   0.1111111
        k(    3) = (   0.0000000   0.0660667   0.0000000), wk =   0.1111111
        k(    4) = (   0.0000000  -0.0991000   0.0000000), wk =   0.0555556
        k(    5) = (   0.0311502  -0.0109939   0.0000000), wk =   0.1111111
        k(    6) = (   0.0311502   0.0220394   0.0000000), wk =   0.1111111
        k(    7) = (   0.0311502   0.0550727   0.0000000), wk =   0.1111111
        k(    8) = (   0.0311502  -0.1100940   0.0000000), wk =   0.1111111
        k(    9) = (   0.0311502  -0.0770606   0.0000000), wk =   0.1111111
        k(   10) = (   0.0311502  -0.0440273   0.0000000), wk =   0.1111111
        k(   11) = (   0.0623004  -0.0219879   0.0000000), wk =   0.1111111
        k(   12) = (   0.0623004   0.0110455   0.0000000), wk =   0.1111111
        k(   13) = (   0.0623004   0.0440788   0.0000000), wk =   0.1111111
        k(   14) = (   0.0623004  -0.1210879   0.0000000), wk =   0.1111111
        k(   15) = (   0.0623004  -0.0880546   0.0000000), wk =   0.1111111
        k(   16) = (   0.0623004  -0.0550212   0.0000000), wk =   0.1111111
        k(   17) = (  -0.0934506   0.0329818   0.0000000), wk =   0.0555556
        k(   18) = (  -0.0934506   0.0660152   0.0000000), wk =   0.1111111
        k(   19) = (  -0.0934506   0.0990485   0.0000000), wk =   0.1111111
        k(   20) = (  -0.0934506  -0.0661182   0.0000000), wk =   0.0555556

     Largest allocated arrays     est. size (Mb)     dimensions
     Largest temporary arrays     est. size (Mb)     dimensions

     Initial potential from superposition of free atoms
     Check: negative starting charge=   -0.440173

     starting charge  110.98517, renormalised to  114.00000

     negative rho (up, down):  4.521E-01 0.000E+00

     *
     * You are using vdW-DF for exchange-correlation in this calculation.
     * Please cite the following three references that made this development
     * possible:
     *
     *   M. Dion, H. Rydberg, E. Schroder, D. C. Langreth, and
     *   B. I. Lundqvist, Phys. Rev. Lett. 92, 246401 (2004).
     *
     *   T. Thonhauser, V. R. Cooper, S. Li, A. Puzder, P. Hyldgaard, and
     *   D. C. Langreth, Phys. Rev. B 76, 125112 (2007).
     *
     *   G. Roman-Perez and J. M. Soler, Phys. Rev. Lett. 103, 096102 (2009).
     *
     *
     * If you are using vdW-DF2, please also cite:
     *
     *   K. Lee, E. D. Murray, L. Kong, B. I. Lundqvist, and
     *   D. C. Langreth, Phys. Rev. B 82, 081101(R) (2010).
     *
     *
     * If you are calculating the stress with vdW-DF, please also cite:
     *
     *   R. Sabatini, E. Kucukbenli, B. Kolb, T. Thonhauser, and
     *   S. de Gironcoli, J. Phys.: Condens. Matter 24, 424209 (2012).
     *

     Carrying out vdW-DF run using the following parameters:

     Nqs =      20    Nr_points =    1024   r_max =   100.000
     q_mesh =
               0.00001000     0.04494208     0.09755937     0.15916263
               0.23128650     0.31572767     0.41458969     0.53033537
               0.66584808     0.82450364     1.01025438     1.22772762
               1.48234092     1.78043706     2.12944203     2.53805004
               3.01644009     3.57652955     4.23227104     5.00000000

     Gradients computed in reciprocal space

     Adding external electric field

     Computed dipole along edir(3) :
        Dipole               -0.0000 Ry au,         -0.0000 Debye
        Dipole field         -0.0000 Ry au

        Potential amp.        0.0000 Ry
        Total length         44.8972 bohr

     Starting wfc are   96 randomized atomic wfcs

     Self-consistent Calculation

     iteration #  1     ecut=    36.75 Ry     beta=0.10
     Davidson diagonalization with overlap
     ethr =  1.00E-02,  avg # of iterations =  7.1

[...]

     total energy              =   -1240.32825520 Ry
     Harris-Foulkes estimate   =   -1243.58859611 Ry
     estimated scf accuracy    <      19.24978496 Ry

[...]

     End of self-consistent calculation

          k = 0.0000 0.0000 0.0000 ( 16729 PWs)   bands (ev):

   -50.8682 -50.8276 -50.8226 -50.8185 -50.8135 -50.8084 -50.4420 -50.4410
   -50.4372 -50.4357 -50.3718 -50.3718 -50.3135 -50.3134 -50.2451 -50.2440
   -50.2395 -50.2389  -9.2085  -7.3252  -6.2832  -6.2430  -5.9219  -5.4685
    -4.5359  -4.2899  -4.2838  -3.9098  -3.8799  -3.8464  -3.8119  -3.7292
    -3.4878  -3.4388  -3.3675  -3.0560  -3.0353  -2.9614  -2.8095  -2.7634
    -2.6880  -2.6751  -2.6149  -2.4554  -2.3271  -2.2344  -2.0562  -2.0523
    -1.9905  -1.6733  -1.5790  -1.5568  -1.5011  -0.8599  -0.8068  -0.7184
    -0.6767  -0.5428  -0.5273   1.3090   1.8347   2.0299   2.6965   2.7169
     3.4061   3.5150   3.6504   3.8340   3.9355   3.9887   4.1697   4.7710
     4.8474   5.3247   5.6688   5.7294   6.1843   6.6940   6.7006   6.7056
     6.9821   7.1532   7.5983   7.6952   7.7527   8.9177   9.1985

[...]

          k =-0.0935 0.0330 0.0000 ( 16720 PWs)   bands (ev):

[...]

     the Fermi energy is     0.1778 ev

!    total energy              =   -1240.53339437 Ry
     Harris-Foulkes estimate   =   -1240.53339855 Ry
     estimated scf accuracy    <       0.00000007 Ry

     The total energy is the sum of the following terms:

     one-electron contribution =   -7629.61830741 Ry
     hartree contribution      =    3836.76916846 Ry
     xc contribution           =    -221.91438183 Ry
     ewald contribution        =    2774.26226203 Ry
     electric field correction =       0.00000000 Ry
     smearing contrib. (-TS)   =      -0.03213562 Ry

     convergence has been achieved in  15 iterations

 BEEF-vdW xc energy contributions
           1 :   -192.023560017433
           2 :    174.552184827082
           3 :   -145.115462810213
           4 :    112.036067483923
           5 :   -82.8988638512915
           6 :    62.0201090481516
           7 :   -49.8810715343853
           8 :    44.2415984573888
           9 :   -41.9162884051316
          10 :    40.2183154064155
          11 :   -37.6447593086787
          12 :    33.9100510831671
          13 :   -29.6225402227891
          14 :    25.7944157641902
          15 :   -23.2885468254128
          16 :    22.3545288067917
          17 :   -22.4827655035398
          18 :    22.6995179690562
          19 :   -22.1522240843478
          20 :    20.6018175425870
          21 :   -18.4905888494220
[...]
00027 suncat0054 pw.x -in pw.inp   Done                     12/18/2018 17:54:59
00028 suncat0054 pw.x -in pw.inp   Done                     12/18/2018 17:54:59
00029 suncat0054 pw.x -in pw.inp   Done                     12/18/2018 17:54:59
00030 suncat0054 pw.x -in pw.inp   Done                     12/18/2018 17:54:59
00031 suncat0054 pw.x -in pw.inp   Done                     12/18/2018 17:54:59

     Program PWSCF v.5.1rc2 (svn rev. 11289) starts on 18Dec2018 at 17:55: 6

[...]

     Total force =     0.030031     Total SCF correction =     0.003123
     SCF correction compared to forces is large: reduce conv_thr to get better values

[...]

   This run was terminated on:  18: 4:59  18Dec2018

[...]

     Program PWSCF v.5.1rc2 (svn rev. 11289) starts on 18Dec2018 at 18: 5:28

     Current dimensions of program PWSCF are:
     Max number of different atomic species (ntypx) = 10
     Max number of k-points (npk) =  40000
     Max angular momentum in pseudopotentials (lmaxx) =  3
     Presently stress not available with electric field

     IMPORTANT: XC functional enforced from input :
     Exchange-correlation      = BEEF-VDW ( 1  4 27 13 2)
     Any further DFT definition will be discarded
     Please, verify this is what you really want

     Subspace diagonalization in iterative solution of the eigenvalue problem:
     a serial algorithm will be used

     Found symmetry operation: I + (  0.5000 -0.5000  0.0000)
     This is a supercell, fractional translations are disabled

     bravais-lattice index     =            0
     lattice parameter (alat)  =       1.8897  a.u.
     unit-cell volume          =    4439.1130 (a.u.)^3
     number of atoms/cell      =           12
     number of atomic types    =            2
     number of electrons       =       114.00
     number of Kohn-Sham states=           87
     kinetic-energy cutoff     =      36.7493  Ry
     charge density cutoff     =     367.4932  Ry
     convergence threshold     =      1.0E-06
     mixing beta               =       0.1000
     number of iterations used =           10  plain     mixing
     Exchange-correlation      = BEEF-VDW ( 1  4 27 13 2)
     nstep                     =           50

     celldm(1)=   1.889726  celldm(2)=   0.000000  celldm(3)=   0.000000
     celldm(4)=   0.000000  celldm(5)=   0.000000  celldm(6)=   0.000000

     crystal axes: (cart. coord. in units of alat)
               a(1) = (   5.350421   0.000000   0.000000 )
               a(2) = (   1.780693   5.045408   0.000000 )
               a(3) = (   0.000000   0.000000  24.367746 )

     reciprocal axes: (cart. coord. in units 2 pi/alat)
               b(1) = (  0.186901 -0.065964  0.000000 )
               b(2) = (  0.000000  0.198200  0.000000 )
               b(3) = (  0.000000  0.000000  0.041038 )

     PseudoPot. # 1 for Al read from file:
     /afs/slac.stanford.edu/u/if/mamunm/psp/gbrv1.5pbe/Al.UPF
     MD5 check sum: 0a6289f5291fc8f409219462bc851e1f
     Pseudo is Ultrasoft + core correction, Zval =  3.0
     Generated by new atomic code, or converted to UPF format
     Using radial grid of  893 points,  3 beta functions with:
                l(1) =   0
                l(2) =   1
                l(3) =   2
     Q(r) pseudized with  8 coefficients,  rinner =    0.900   0.900   0.900
                                                       0.900   0.900

     PseudoPot. # 2 for Pd read from file:
     /afs/slac.stanford.edu/u/if/mamunm/psp/gbrv1.5pbe/Pd.UPF
     MD5 check sum: 2d733d2bc2cbfd217af676df1668a4bc
     Pseudo is Ultrasoft + core correction, Zval = 16.0
     Generated by new atomic code, or converted to UPF format
     Using radial grid of  887 points,  6 beta functions with:
                l(1) =   0
                l(2) =   0
                l(3) =   1
                l(4) =   1
                l(5) =   2
                l(6) =   2
     Q(r) pseudized with  8 coefficients,  rinner =    1.130   1.130   1.130
                                                       1.130   1.130

     vdW kernel table read from file vdW_kernel_table
     MD5 check sum: 095c7af220d748ca6e76c0b4c6cfb241

     atomic species   valence    mass     pseudopotential
        Al1            3.00    26.98154     Al( 1.00)
        Pd1           16.00   106.42000     Pd( 1.00)

     No symmetry found

   Cartesian axes

     site n.     atom                  positions (alat units)
         1           Al1 tau(   1) = (   0.0000000   0.0000000  10.0000000  )
         2           Al1 tau(   2) = (   3.5655569   2.5227039  10.0000000  )
         3           Pd1 tau(   3) = (   2.6752106   0.0000000  10.0000000  )
         4           Pd1 tau(   4) = (   0.8903463   2.5227039  10.0000000  )
         5           Al1 tau(   5) = (   5.3504211   3.7855316  12.1838730  )
         6           Al1 tau(   6) = (   1.7848643   1.2628277  12.1838730  )
         7           Pd1 tau(   7) = (   2.6752106   3.7855316  12.1838730  )
         8           Pd1 tau(   8) = (   4.4600748   1.2628277  12.1838730  )
         9           Al1 tau(   9) = (   3.5695068   2.5254988  14.4194008  )
        10           Al1 tau(  10) = (   0.0039499   0.0027946  14.4194013  )
        11           Pd1 tau(  11) = (   0.8940389   2.5253158  14.2741712  )
        12           Pd1 tau(  12) = (   2.6789033   0.0026133  14.2741700  )

     number of k points=    20  Fermi-Dirac smearing, width (Ry)=  0.0110
                       cart. coord. in units 2pi/alat
        k(    1) = (   0.0000000   0.0000000   0.0000000), wk =   0.0555556
        k(    2) = (   0.0000000   0.0330333   0.0000000), wk =   0.1111111
        k(    3) = (   0.0000000   0.0660667   0.0000000), wk =   0.1111111
        k(    4) = (   0.0000000  -0.0991000   0.0000000), wk =   0.0555556
        k(    5) = (   0.0311502  -0.0109939   0.0000000), wk =   0.1111111
        k(    6) = (   0.0311502   0.0220394   0.0000000), wk =   0.1111111
        k(    7) = (   0.0311502   0.0550727   0.0000000), wk =   0.1111111
        k(    8) = (   0.0311502  -0.1100940   0.0000000), wk =   0.1111111
        k(    9) = (   0.0311502  -0.0770606   0.0000000), wk =   0.1111111
        k(   10) = (   0.0311502  -0.0440273   0.0000000), wk =   0.1111111
        k(   11) = (   0.0623004  -0.0219879   0.0000000), wk =   0.1111111
        k(   12) = (   0.0623004   0.0110455   0.0000000), wk =   0.1111111
        k(   13) = (   0.0623004   0.0440788   0.0000000), wk =   0.1111111
        k(   14) = (   0.0623004  -0.1210879   0.0000000), wk =   0.1111111
        k(   15) = (   0.0623004  -0.0880546   0.0000000), wk =   0.1111111
        k(   16) = (   0.0623004  -0.0550212   0.0000000), wk =   0.1111111
        k(   17) = (  -0.0934506   0.0329818   0.0000000), wk =   0.0555556
        k(   18) = (  -0.0934506   0.0660152   0.0000000), wk =   0.1111111
        k(   19) = (  -0.0934506   0.0990485   0.0000000), wk =   0.1111111
        k(   20) = (  -0.0934506  -0.0661182   0.0000000), wk =   0.0555556

     Largest allocated arrays     est. size (Mb)     dimensions
     Largest temporary arrays     est. size (Mb)     dimensions

     Initial potential from superposition of free atoms
     Check: negative starting charge=   -0.440614

     starting charge  110.98517, renormalised to  114.00000

[...]

     *
     * You are using vdW-DF for exchange-correlation in this calculation.
     * Please cite the following three references that made this development
     * possible:
     *
     *   M. Dion, H. Rydberg, E. Schroder, D. C. Langreth, and
     *   B. I. Lundqvist, Phys. Rev. Lett. 92, 246401 (2004).
     *
     *   T. Thonhauser, V. R. Cooper, S. Li, A. Puzder, P. Hyldgaard, and
     *   D. C. Langreth, Phys. Rev. B 76, 125112 (2007).
     *
     *   G. Roman-Perez and J. M. Soler, Phys. Rev. Lett. 103, 096102 (2009).
     *
     *
     * If you are using vdW-DF2, please also cite:
     *
     *   K. Lee, E. D. Murray, L. Kong, B. I. Lundqvist, and
     *   D. C. Langreth, Phys. Rev. B 82, 081101(R) (2010).
     *
     *
     * If you are calculating the stress with vdW-DF, please also cite:
     *
     *   R. Sabatini, E. Kucukbenli, B. Kolb, T. Thonhauser, and
     *   S. de Gironcoli, J. Phys.: Condens. Matter 24, 424209 (2012).
     *

     Carrying out vdW-DF run using the following parameters:

     Nqs =      20    Nr_points =    1024   r_max =   100.000
     q_mesh =
               0.00001000     0.04494208     0.09755937     0.15916263
               0.23128650     0.31572767     0.41458969     0.53033537
               0.66584808     0.82450364     1.01025438     1.22772762
               1.48234092     1.78043706     2.12944203     2.53805004
               3.01644009     3.57652955     4.23227104     5.00000000

     Gradients computed in reciprocal space

[...]

     Starting wfc are   96 randomized atomic wfcs

     Self-consistent Calculation

[...]

     total energy              =   -1240.53699001 Ry
     Harris-Foulkes estimate   =   -1240.53699102 Ry
     estimated scf accuracy    <       0.00000213 Ry

     iteration # 14     ecut=    36.75 Ry     beta=0.10
     Davidson diagonalization with overlap
     ethr =  1.87E-09,  avg # of iterations =  2.2

[...]

     negative rho (up, down):  4.649E-01 0.000E+00

     Adding external electric field

     Computed dipole along edir(3) :
        Dipole                0.0291 Ry au,          0.0739 Debye
        Dipole field          0.0001 Ry au

        Potential amp.       -0.0074 Ry
        Total length         44.8972 bohr

     End of self-consistent calculation

[...]

          k = 0.0623-0.0550 0.0000 ( 16698 PWs)   bands (ev):

[...]

          k =-0.0935-0.0661 0.0000 ( 16680 PWs)   bands (ev):

   -50.7992 -50.7677 -50.7616 -50.7516 -50.7445 -50.7394 -50.5031 -50.4976
   -50.4481 -50.4121 -50.4063 -50.3893 -50.3438 -50.3390 -50.3369 -50.2785
   -50.2111 -50.2062  -7.2743  -7.2386  -6.0087  -5.6362  -5.6330  -5.6091
    -5.4664  -5.0177  -4.8874  -4.5711  -4.2784  -4.0631  -4.0275  -3.9118
    -3.7533  -3.7302  -3.4732  -3.3696  -3.2910  -3.1781  -3.1524  -3.0405
    -3.0385  -3.0081  -2.9457  -2.6930  -2.5886  -2.2827  -2.2731  -2.2365
    -2.2138  -1.9870  -1.7400  -1.6462  -1.5599  -1.1190  -0.5680  -0.1986
    -0.0371   0.2162   0.5034   1.7786   1.8330   2.2308   3.1803   3.7860
     3.9745   3.9845   4.7520   5.4609   5.5012   5.8195   5.8366   6.1355
     6.1805   6.2199   6.3233   6.5093   6.5963   6.6936   7.3375   7.3791
     7.4493   7.4588   7.6746   7.8319   7.9498   8.0989   8.1720

     the Fermi energy is     0.2220 ev

!    total energy              =   -1240.53698332 Ry
     Harris-Foulkes estimate   =   -1240.53699086 Ry
     estimated scf accuracy    <       0.00000058 Ry

     The total energy is the sum of the following terms:

     one-electron contribution =   -7699.73987710 Ry
     hartree contribution      =    3871.87853170 Ry
     xc contribution           =    -221.92497179 Ry
     ewald contribution        =    2809.28133733 Ry
     electric field correction =       0.00000239 Ry
     smearing contrib. (-TS)   =      -0.03200586 Ry

     convergence has been achieved in  14 iterations

 BEEF-vdW xc energy contributions
           1 :   -192.039449415815
           2 :    174.587722601500
           3 :   -145.168171455424
           4 :    112.079600543769
           5 :   -82.9018254205158
           6 :    61.9680849081441
           7 :   -49.7860254562503
           8 :    44.1337621795408
           9 :   -41.8257225074866
          10 :    40.1589049409233
          11 :   -37.6102026789155
          12 :    33.8817876965967
          13 :   -29.5821979203969
          14 :    25.7325950141445
          15 :   -23.2068912407314
          16 :    22.2629944046743
          17 :   -22.3952704836070
          18 :    22.6287248513938
          19 :   -22.1036226560032
          20 :    20.5696113174262
          21 :   -18.4599403575115
          22 :    16.5229723320282
          23 :   -15.3075488856395
          24 :    14.8639046211308
          25 :   -14.8167692582835
          26 :    14.6808513004019
          27 :   -14.1597638868321
          28 :    13.2513454369261
          29 :   -12.1625142570974
          30 :    11.1498216421729
          31 :   -19.8097120577968
          32 :   -14.6625850207223

     Forces acting on atoms (Ry/au):

     negative rho (up, down):  4.649E-01 0.000E+00
     atom    1 type  1   force =     0.00002689    0.00001907   -0.00798324
     atom    2 type  1   force =     0.00002694    0.00001905   -0.00798323
     atom    3 type  2   force =     0.00007836    0.00005586    0.01652023
     atom    4 type  2   force =     0.00007936    0.00005559    0.01651926
     atom    5 type  1   force =    -0.00002332   -0.00001659   -0.00985044
     atom    6 type  1   force =    -0.00002342   -0.00001645   -0.00985051
     atom    7 type  2   force =     0.00001614    0.00001142   -0.00025096
     atom    8 type  2   force =     0.00001546    0.00001106   -0.00025081
     atom    9 type  1   force =    -0.00006041   -0.00004276    0.00009476
     atom   10 type  1   force =    -0.00006048   -0.00004277    0.00009469
     atom   11 type  2   force =    -0.00003742   -0.00002628    0.00147012
     atom   12 type  2   force =    -0.00003810   -0.00002720    0.00147013

     Total force =     0.029527     Total SCF correction =     0.003221
     SCF correction compared to forces is large: reduce conv_thr to get better values

     entering subroutine stress ...

     negative rho (up, down):  4.649E-01 0.000E+00
          total   stress  (Ry/bohr**3)                   (kbar)     P=  -17.00
  -0.00016231   0.00000014  -0.00000039        -23.88      0.02     -0.06
   0.00000014  -0.00016241  -0.00000027          0.02    -23.89     -0.04
  -0.00000039  -0.00000027  -0.00002202         -0.06     -0.04     -3.24

 !ASE

     Writing output data file calc.save

     General routines

     Parallel routines

   This run was terminated on:  18:15:18  18Dec2018

   JOB DONE.
Job  /afs/slac/g/suncat/bin/suncat-tsmpirun -x LD_LIBRARY_PATH -wdir /scratch/qe529602_l342N pw.x -in pw.inp

TID   HOST_NAME   COMMAND_LINE            STATUS            TERMINATION_TIME
00000 suncat0057 pw.x -in pw.inp   Done                     12/18/2018 18:15:18
00001 suncat0057 pw.x -in pw.inp   Done                     12/18/2018 18:15:18
00002 suncat0057 pw.x -in pw.inp   Done                     12/18/2018 18:15:18
00003 suncat0057 pw.x -in pw.inp   Done                     12/18/2018 18:15:18
00004 suncat0057 pw.x -in pw.inp   Done                     12/18/2018 18:15:18
00005 suncat0057 pw.x -in pw.inp   Done                     12/18/2018 18:15:18
00006 suncat0057 pw.x -in pw.inp   Done                     12/18/2018 18:15:18
00007 suncat0057 pw.x -in pw.inp   Done                     12/18/2018 18:15:18
00008 suncat0056 pw.x -in pw.inp   Done                     12/18/2018 18:15:18
00009 suncat0056 pw.x -in pw.inp   Done                     12/18/2018 18:15:18
00010 suncat0056 pw.x -in pw.inp   Done                     12/18/2018 18:15:18
00011 suncat0056 pw.x -in pw.inp   Done                     12/18/2018 18:15:18
00012 suncat0056 pw.x -in pw.inp   Done                     12/18/2018 18:15:18
00013 suncat0056 pw.x -in pw.inp   Done                     12/18/2018 18:15:18
00014 suncat0056 pw.x -in pw.inp   Done                     12/18/2018 18:15:18
00015 suncat0056 pw.x -in pw.inp   Done                     12/18/2018 18:15:18
00016 suncat0055 pw.x -in pw.inp   Done                     12/18/2018 18:15:18
00017 suncat0055 pw.x -in pw.inp   Done                     12/18/2018 18:15:18
00018 suncat0055 pw.x -in pw.inp   Done                     12/18/2018 18:15:18
00019 suncat0055 pw.x -in pw.inp   Done                     12/18/2018 18:15:18
00020 suncat0055 pw.x -in pw.inp   Done                     12/18/2018 18:15:18
00021 suncat0055 pw.x -in pw.inp   Done                     12/18/2018 18:15:18
00022 suncat0055 pw.x -in pw.inp   Done                     12/18/2018 18:15:18
00023 suncat0055 pw.x -in pw.inp   Done                     12/18/2018 18:15:18
00024 suncat0054 pw.x -in pw.inp   Done                     12/18/2018 18:15:18
00025 suncat0054 pw.x -in pw.inp   Done                     12/18/2018 18:15:18
00026 suncat0054 pw.x -in pw.inp   Done                     12/18/2018 18:15:18
00027 suncat0054 pw.x -in pw.inp   Done                     12/18/2018 18:15:18
00028 suncat0054 pw.x -in pw.inp   Done                     12/18/2018 18:15:18
00029 suncat0054 pw.x -in pw.inp   Done                     12/18/2018 18:15:18
00030 suncat0054 pw.x -in pw.inp   Done                     12/18/2018 18:15:18
00031 suncat0054 pw.x -in pw.inp   Done                     12/18/2018 18:15:18