     Program PWSCF v.5.1rc2 (svn rev. 11289) starts on 25Dec2018 at  1:19:48

     Current dimensions of program PWSCF are:
     Max number of different atomic species (ntypx) = 10
     Max number of k-points (npk) =  40000
     Max angular momentum in pseudopotentials (lmaxx) =  3
     Presently stress not available with electric field

     IMPORTANT: XC functional enforced from input :
     Exchange-correlation      = BEEF-VDW ( 1  4 27 13 2)
     Any further DFT definition will be discarded
     Please, verify this is what you really want

     Subspace diagonalization in iterative solution of the eigenvalue problem:
     a serial algorithm will be used

     Found symmetry operation: I + ( -0.5000  0.5000  0.0000)
     This is a supercell, fractional translations are disabled

     bravais-lattice index     =            0
     lattice parameter (alat)  =       1.8897  a.u.
     unit-cell volume          =    6231.6246 (a.u.)^3
     number of atoms/cell      =           12
     number of atomic types    =            2
     number of electrons       =       156.00
     number of Kohn-Sham states=          108
     kinetic-energy cutoff     =      36.7493  Ry
     charge density cutoff     =     367.4932  Ry
     convergence threshold     =      1.0E-06
     mixing beta               =       0.1000
     number of iterations used =           10  plain     mixing
     Exchange-correlation      = BEEF-VDW ( 1  4 27 13 2)
     nstep                     =           50

     celldm(1)=   1.889726  celldm(2)=   0.000000  celldm(3)=   0.000000
     celldm(4)=   0.000000  celldm(5)=   0.000000  celldm(6)=   0.000000

     crystal axes: (cart. coord. in units of alat)
               a(1) = (   6.247943   0.000000   0.000000 )
               a(2) = (   2.091811   5.887369   0.000000 )
               a(3) = (   0.000000   0.000000  25.104201 )

     reciprocal axes: (cart. coord. in units 2 pi/alat)
               b(1) = (  0.160053 -0.056868  0.000000 )
               b(2) = (  0.000000  0.169855  0.000000 )
               b(3) = (  0.000000  0.000000  0.039834 )

     PseudoPot. # 1 for La read from file:
     /afs/slac.stanford.edu/u/if/mamunm/psp/gbrv1.5pbe/La.UPF
     MD5 check sum: 5937b0c7494ba0601a847275249473aa
     Pseudo is Ultrasoft + core correction, Zval = 11.0
     Generated by new atomic code, or converted to UPF format
     Using radial grid of  995 points,  8 beta functions with:
                l(1) =   0
                l(2) =   0
                l(3) =   1
                l(4) =   1
                l(5) =   2
                l(6) =   2
                l(7) =   3
                l(8) =   3
     Q(r) pseudized with  8 coefficients,  rinner =    1.700   1.700   1.700
                                                       1.700   1.700   1.700
                                                       1.700

     PseudoPot. # 2 for Re read from file:
     /afs/slac.stanford.edu/u/if/mamunm/psp/gbrv1.5pbe/Re.UPF
     MD5 check sum: 85f993410f3e006da9d71c142b4ad953
     Pseudo is Ultrasoft + core correction, Zval = 15.0
     Generated by new atomic code, or converted to UPF format
     Using radial grid of  981 points,  8 beta functions with:
                l(1) =   0
                l(2) =   0
                l(3) =   1
                l(4) =   1
                l(5) =   2
                l(6) =   2
                l(7) =   3
                l(8) =   3
     Q(r) pseudized with  8 coefficients,  rinner =    1.150   1.150   1.150
                                                       1.150   1.150   1.150
                                                       1.150

     vdW kernel table read from file vdW_kernel_table
     MD5 check sum: 095c7af220d748ca6e76c0b4c6cfb241

     atomic species   valence    mass     pseudopotential
        La1           11.00   138.90547     La( 1.00)
        Re1           15.00   186.20700     Re( 1.00)

     No symmetry found

   Cartesian axes

     site n.     atom                  positions (alat units)
         1           La1 tau(   1) = (   0.0000000   0.0000000  10.0000000  )
         2           La1 tau(   2) = (   4.1698769   2.9436844  10.0000000  )
         3           Re1 tau(   3) = (   3.1239713   0.0000000  10.0000000  )
         4           Re1 tau(   4) = (   1.0459056   2.9436844  10.0000000  )
         5           La1 tau(   5) = (   6.2479426   4.4106749  12.5521005  )
         6           La1 tau(   6) = (   2.0780657   1.4669905  12.5521005  )
         7           Re1 tau(   7) = (   3.1239713   4.4106749  12.5521005  )
         8           Re1 tau(   8) = (   5.2020370   1.4669905  12.5521005  )
         9           La1 tau(   9) = (   4.1561314   2.9339810  15.1042010  )
        10           La1 tau(  10) = (   8.3260083   5.8776654  15.1042010  )
        11           Re1 tau(  11) = (   7.2801027   2.9339810  15.1042010  )
        12           Re1 tau(  12) = (   5.2020370   5.8776654  15.1042010  )

     number of k points=    20  Fermi-Dirac smearing, width (Ry)=  0.0110
                       cart. coord. in units 2pi/alat
        k(    1) = (   0.0000000   0.0000000   0.0000000), wk =   0.0555556
        k(    2) = (   0.0000000   0.0283092   0.0000000), wk =   0.1111111
        k(    3) = (   0.0000000   0.0566184   0.0000000), wk =   0.1111111
        k(    4) = (   0.0000000  -0.0849276   0.0000000), wk =   0.0555556
        k(    5) = (   0.0266754  -0.0094779   0.0000000), wk =   0.1111111
        k(    6) = (   0.0266754   0.0188313   0.0000000), wk =   0.1111111
        k(    7) = (   0.0266754   0.0471405   0.0000000), wk =   0.1111111
        k(    8) = (   0.0266754  -0.0944055   0.0000000), wk =   0.1111111
        k(    9) = (   0.0266754  -0.0660963   0.0000000), wk =   0.1111111
        k(   10) = (   0.0266754  -0.0377871   0.0000000), wk =   0.1111111
        k(   11) = (   0.0533509  -0.0189558   0.0000000), wk =   0.1111111
        k(   12) = (   0.0533509   0.0093534   0.0000000), wk =   0.1111111
        k(   13) = (   0.0533509   0.0376626   0.0000000), wk =   0.1111111
        k(   14) = (   0.0533509  -0.1038834   0.0000000), wk =   0.1111111
        k(   15) = (   0.0533509  -0.0755742   0.0000000), wk =   0.1111111
        k(   16) = (   0.0533509  -0.0472650   0.0000000), wk =   0.1111111
        k(   17) = (  -0.0800263   0.0284338   0.0000000), wk =   0.0555556
        k(   18) = (  -0.0800263   0.0567429   0.0000000), wk =   0.1111111
        k(   19) = (  -0.0800263   0.0850521   0.0000000), wk =   0.1111111
        k(   20) = (  -0.0800263  -0.0564938   0.0000000), wk =   0.0555556

     Largest allocated arrays     est. size (Mb)     dimensions
     Largest temporary arrays     est. size (Mb)     dimensions

     Initial potential from superposition of free atoms
     Check: negative starting charge=   -1.186997

     starting charge  152.80732, renormalised to  156.00000

     negative rho (up, down):  1.212E+00 0.000E+00

     *
     * You are using vdW-DF for exchange-correlation in this calculation.
     * Please cite the following three references that made this development
     * possible:
     *
     *   M. Dion, H. Rydberg, E. Schroder, D. C. Langreth, and
     *   B. I. Lundqvist, Phys. Rev. Lett. 92, 246401 (2004).
     *
     *   T. Thonhauser, V. R. Cooper, S. Li, A. Puzder, P. Hyldgaard, and
     *   D. C. Langreth, Phys. Rev. B 76, 125112 (2007).
     *
     *   G. Roman-Perez and J. M. Soler, Phys. Rev. Lett. 103, 096102 (2009).
     *
     *
     * If you are using vdW-DF2, please also cite:
     *
     *   K. Lee, E. D. Murray, L. Kong, B. I. Lundqvist, and
     *   D. C. Langreth, Phys. Rev. B 82, 081101(R) (2010).
     *
     *
     * If you are calculating the stress with vdW-DF, please also cite:
     *
     *   R. Sabatini, E. Kucukbenli, B. Kolb, T. Thonhauser, and
     *   S. de Gironcoli, J. Phys.: Condens. Matter 24, 424209 (2012).
     *

     Carrying out vdW-DF run using the following parameters:

     Nqs =      20    Nr_points =    1024   r_max =   100.000
     q_mesh =
               0.00001000     0.04494208     0.09755937     0.15916263
               0.23128650     0.31572767     0.41458969     0.53033537
               0.66584808     0.82450364     1.01025438     1.22772762
               1.48234092     1.78043706     2.12944203     2.53805004
               3.01644009     3.57652955     4.23227104     5.00000000

     Gradients computed in reciprocal space

     Adding external electric field

     Computed dipole along edir(3) :
        Dipole                0.0000 Ry au,          0.0000 Debye
        Dipole field          0.0000 Ry au

        Potential amp.       -0.0000 Ry
        Total length         46.2541 bohr

     Starting wfc are  198 randomized atomic wfcs

     Self-consistent Calculation

     iteration #  1     ecut=    36.75 Ry     beta=0.10
     Davidson diagonalization with overlap
     ethr =  1.00E-02,  avg # of iterations =  2.0

[...]

     total energy              =   -1775.86153394 Ry
     Harris-Foulkes estimate   =   -1777.10980757 Ry
     estimated scf accuracy    <       7.06166733 Ry

[...]

     iteration # 11     ecut=    36.75 Ry     beta=0.10
     Davidson diagonalization with overlap
     c_bands:  1 eigenvalues not converged
     c_bands:  1 eigenvalues not converged
     c_bands:  1 eigenvalues not converged
     c_bands:  1 eigenvalues not converged
     ethr =  4.29E-06,  avg # of iterations = 14.4

[...]

     End of self-consistent calculation

          k = 0.0000 0.0000 0.0000 ( 23445 PWs)   bands (ev):

   -77.4794 -77.4787 -77.4296 -77.4296 -77.4290 -77.4290 -39.2447 -39.2441
   -39.2168 -39.2080 -39.1980 -39.1939 -39.1913 -39.1910 -39.1873 -39.1870
   -39.1823 -39.1549 -39.1540 -39.1470 -39.1004 -39.0996 -39.0974 -39.0957
   -30.0534 -30.0408 -29.9415 -29.9393 -29.3494 -29.2516 -14.2744 -14.2398
   -13.9274 -13.8591 -13.8574 -13.8349 -13.7977 -13.6999 -13.6960 -13.6551
   -13.5966 -13.2380 -13.2333 -13.0886 -13.0125 -12.8677 -12.8609 -12.5737
    -2.3160  -1.4632  -1.3884  -1.3553  -1.3072  -0.5964  -0.5681  -0.3917
    -0.0141   0.0003   0.1141   0.2542   0.5759   0.7346   0.7640   0.7944
     0.7961   0.8460   0.9468   1.0442   1.1918   1.3054   1.3562   1.5583
     1.8091   1.8242   2.0475   2.1886   2.3313   2.3399   2.6416   2.6966
     2.8275   3.2874   3.5334   3.5873   3.6133   3.6869   3.7230   3.7902
     4.3929   4.3960   4.4975   4.5481   4.6676   4.6986   4.7325   4.7672
     4.8784   4.8868   4.8888   4.9091   4.9155   4.9500   4.9506   5.0262
     5.0454   5.0458   5.0555   5.0912

[...]

          k =-0.0800 0.0284 0.0000 ( 23438 PWs)   bands (ev):

[...]

     the Fermi energy is     2.1492 ev

!    total energy              =   -1776.37295489 Ry
     Harris-Foulkes estimate   =   -1776.37296308 Ry
     estimated scf accuracy    <       0.00000094 Ry

     The total energy is the sum of the following terms:

     one-electron contribution =   -9436.35693494 Ry
     hartree contribution      =    4720.16994614 Ry
     xc contribution           =    -629.43184454 Ry
     ewald contribution        =    3569.37335922 Ry
     electric field correction =       0.00000000 Ry
[...]
                l(2) =   0
                l(3) =   1
                l(4) =   1
                l(5) =   2
                l(6) =   2
                l(7) =   3
                l(8) =   3
     Q(r) pseudized with  8 coefficients,  rinner =    1.700   1.700   1.700
                                                       1.700   1.700   1.700
                                                       1.700

     PseudoPot. # 2 for Re read from file:
     /afs/slac.stanford.edu/u/if/mamunm/psp/gbrv1.5pbe/Re.UPF
     MD5 check sum: 85f993410f3e006da9d71c142b4ad953
     Pseudo is Ultrasoft + core correction, Zval = 15.0
     Generated by new atomic code, or converted to UPF format
     Using radial grid of  981 points,  8 beta functions with:
                l(1) =   0
                l(2) =   0
                l(3) =   1
                l(4) =   1
                l(5) =   2
                l(6) =   2
                l(7) =   3
                l(8) =   3
     Q(r) pseudized with  8 coefficients,  rinner =    1.150   1.150   1.150
                                                       1.150   1.150   1.150
                                                       1.150

     vdW kernel table read from file vdW_kernel_table
     MD5 check sum: 095c7af220d748ca6e76c0b4c6cfb241

     atomic species   valence    mass     pseudopotential
        La1           11.00   138.90547     La( 1.00)
        Re1           15.00   186.20700     Re( 1.00)

     No symmetry found

   Cartesian axes

     site n.     atom                  positions (alat units)
         1           La1 tau(   1) = (   0.0000000   0.0000000  10.0000000  )
         2           La1 tau(   2) = (   4.1698769   2.9436844  10.0000000  )
         3           Re1 tau(   3) = (   3.1239713   0.0000000  10.0000000  )
         4           Re1 tau(   4) = (   1.0459056   2.9436844  10.0000000  )
         5           La1 tau(   5) = (   6.2479426   4.4106749  12.5521005  )
         6           La1 tau(   6) = (   2.0780657   1.4669905  12.5521005  )
         7           Re1 tau(   7) = (   3.1239713   4.4106749  12.5521005  )
         8           Re1 tau(   8) = (   5.2020370   1.4669905  12.5521005  )
         9           La1 tau(   9) = (   4.1600286   2.9367388  15.1809653  )
        10           La1 tau(  10) = (   8.3296303   5.8802189  15.1807365  )
        11           Re1 tau(  11) = (   7.2684278   2.9255602  14.6079433  )
        12           Re1 tau(  12) = (   5.1908100   5.8699265  14.6080709  )

     number of k points=    20  Fermi-Dirac smearing, width (Ry)=  0.0110
                       cart. coord. in units 2pi/alat
        k(    1) = (   0.0000000   0.0000000   0.0000000), wk =   0.0555556
        k(    2) = (   0.0000000   0.0283092   0.0000000), wk =   0.1111111
        k(    3) = (   0.0000000   0.0566184   0.0000000), wk =   0.1111111
        k(    4) = (   0.0000000  -0.0849276   0.0000000), wk =   0.0555556
        k(    5) = (   0.0266754  -0.0094779   0.0000000), wk =   0.1111111
        k(    6) = (   0.0266754   0.0188313   0.0000000), wk =   0.1111111
        k(    7) = (   0.0266754   0.0471405   0.0000000), wk =   0.1111111
        k(    8) = (   0.0266754  -0.0944055   0.0000000), wk =   0.1111111
        k(    9) = (   0.0266754  -0.0660963   0.0000000), wk =   0.1111111
        k(   10) = (   0.0266754  -0.0377871   0.0000000), wk =   0.1111111
        k(   11) = (   0.0533509  -0.0189558   0.0000000), wk =   0.1111111
        k(   12) = (   0.0533509   0.0093534   0.0000000), wk =   0.1111111
        k(   13) = (   0.0533509   0.0376626   0.0000000), wk =   0.1111111
        k(   14) = (   0.0533509  -0.1038834   0.0000000), wk =   0.1111111
        k(   15) = (   0.0533509  -0.0755742   0.0000000), wk =   0.1111111
        k(   16) = (   0.0533509  -0.0472650   0.0000000), wk =   0.1111111
        k(   17) = (  -0.0800263   0.0284338   0.0000000), wk =   0.0555556
        k(   18) = (  -0.0800263   0.0567429   0.0000000), wk =   0.1111111
        k(   19) = (  -0.0800263   0.0850521   0.0000000), wk =   0.1111111
        k(   20) = (  -0.0800263  -0.0564938   0.0000000), wk =   0.0555556

     Largest allocated arrays     est. size (Mb)     dimensions
     Largest temporary arrays     est. size (Mb)     dimensions

     Initial potential from superposition of free atoms
     Check: negative starting charge=   -1.184359

     starting charge  152.80732, renormalised to  156.00000

[...]

     *
     * You are using vdW-DF for exchange-correlation in this calculation.
     * Please cite the following three references that made this development
     * possible:
     *
     *   M. Dion, H. Rydberg, E. Schroder, D. C. Langreth, and
     *   B. I. Lundqvist, Phys. Rev. Lett. 92, 246401 (2004).
     *
     *   T. Thonhauser, V. R. Cooper, S. Li, A. Puzder, P. Hyldgaard, and
     *   D. C. Langreth, Phys. Rev. B 76, 125112 (2007).
     *
     *   G. Roman-Perez and J. M. Soler, Phys. Rev. Lett. 103, 096102 (2009).
     *
     *
     * If you are using vdW-DF2, please also cite:
     *
     *   K. Lee, E. D. Murray, L. Kong, B. I. Lundqvist, and
     *   D. C. Langreth, Phys. Rev. B 82, 081101(R) (2010).
     *
     *
     * If you are calculating the stress with vdW-DF, please also cite:
     *
     *   R. Sabatini, E. Kucukbenli, B. Kolb, T. Thonhauser, and
     *   S. de Gironcoli, J. Phys.: Condens. Matter 24, 424209 (2012).
     *

     Carrying out vdW-DF run using the following parameters:

     Nqs =      20    Nr_points =    1024   r_max =   100.000
     q_mesh =
               0.00001000     0.04494208     0.09755937     0.15916263
               0.23128650     0.31572767     0.41458969     0.53033537
               0.66584808     0.82450364     1.01025438     1.22772762
               1.48234092     1.78043706     2.12944203     2.53805004
               3.01644009     3.57652955     4.23227104     5.00000000

     Gradients computed in reciprocal space

[...]

     Starting wfc are  198 randomized atomic wfcs

     Self-consistent Calculation

[...]

     iteration # 11     ecut=    36.75 Ry     beta=0.10
     Davidson diagonalization with overlap
     c_bands:  1 eigenvalues not converged
     ethr =  1.95E-06,  avg # of iterations =  7.7

[...]

     total energy              =   -1776.41782114 Ry
     Harris-Foulkes estimate   =   -1776.41782411 Ry
     estimated scf accuracy    <       0.00000200 Ry

     iteration # 21     ecut=    36.75 Ry     beta=0.10
     Davidson diagonalization with overlap
     ethr =  1.28E-09,  avg # of iterations =  1.5

[...]

     negative rho (up, down):  9.927E-01 0.000E+00

     Adding external electric field

     Computed dipole along edir(3) :
        Dipole                0.2550 Ry au,          0.6481 Debye
        Dipole field          0.0005 Ry au

        Potential amp.       -0.0476 Ry
        Total length         46.2541 bohr

     End of self-consistent calculation

[...]

          k = 0.0534-0.0473 0.0000 ( 23461 PWs)   bands (ev):

[...]

          k =-0.0800-0.0565 0.0000 ( 23464 PWs)   bands (ev):

   -77.3731 -77.3724 -77.2533 -77.2526 -77.2453 -77.2446 -39.1633 -39.1568
   -39.0873 -39.0778 -39.0650 -39.0399 -39.0349 -39.0314 -39.0205 -39.0082
   -39.0063 -38.9920 -38.9902 -38.9840 -38.9782 -38.9731 -38.9027 -38.8975
   -30.1572 -30.0617 -29.7845 -29.6902 -28.8742 -28.7718 -14.3963 -14.0871
   -14.0086 -13.9906 -13.8283 -13.7362 -13.6685 -13.6521 -13.5003 -13.4434
   -13.4096 -13.3432 -13.0077 -12.7588 -12.7113 -12.6805 -12.5505 -12.2874
    -0.4563  -0.3103  -0.2628  -0.0045   0.2954   0.3108   0.3851   0.4000
     0.6108   0.7832   0.8286   1.0618   1.0962   1.1852   1.2489   1.3895
     1.4165   1.4947   1.5099   1.5393   1.6610   1.7801   1.8991   1.9095
     2.0541   2.0563   2.2019   2.2192   2.2281   2.2495   2.2618   2.3054
     2.4246   2.4299   2.4677   2.5962   2.6388   2.9250   3.0958   3.4506
     3.4744   3.7149   3.8289   3.9129   4.1825   4.1979   4.3792   4.3859
     4.5209   4.6276   4.6284   4.7220   4.7815   4.9200   4.9385   4.9652
     4.9692   4.9738   5.0356   5.0812

     the Fermi energy is     2.3897 ev

!    total energy              =   -1776.41781066 Ry
     Harris-Foulkes estimate   =   -1776.41782341 Ry
     estimated scf accuracy    <       0.00000086 Ry

     The total energy is the sum of the following terms:

     one-electron contribution =   -9765.41699100 Ry
     hartree contribution      =    4885.66963755 Ry
     xc contribution           =    -629.70639960 Ry
     ewald contribution        =    3733.15538679 Ry
     electric field correction =       0.00013112 Ry
     smearing contrib. (-TS)   =      -0.11957553 Ry

     convergence has been achieved in  21 iterations

 BEEF-vdW xc energy contributions
           1 :   -559.127414271315
           2 :    517.059132711954
           3 :   -441.912573147977
           4 :    348.604738259411
           5 :   -253.472726605088
           6 :    170.091200076405
           7 :   -106.582735724045
           8 :    64.8456075805070
           9 :   -41.5932952049271
          10 :    30.6242639414079
          11 :   -25.4019072283495
          12 :    21.0241362804388
          13 :   -15.0814596465485
          14 :    7.43611801416750
          15 :   0.669204688776404
          16 :   -7.66143599288068
          17 :    12.4239728556689
          18 :   -14.6230649513570
          19 :    14.6171224416701
          20 :   -13.1493646998606
          21 :    11.0300999702215
          22 :   -8.93191210586770
          23 :    7.31284120027374
          24 :   -6.41688014715828
          25 :    6.28881169931822
          26 :   -6.78205158897799
          27 :    7.58146209727352
          28 :   -8.27532159758721
          29 :    8.48017447495647
          30 :   -7.98383900484703
          31 :   -46.8572436145535
          32 :   -34.0901393081657

     Forces acting on atoms (Ry/au):

     negative rho (up, down):  9.927E-01 0.000E+00
     atom    1 type  1   force =    -0.00058848   -0.00041803   -0.02937532
     atom    2 type  1   force =    -0.00059232   -0.00041600   -0.02936715
     atom    3 type  2   force =     0.00076187    0.00053125    0.05055703
     atom    4 type  2   force =     0.00074264    0.00053302    0.05056753
     atom    5 type  1   force =     0.00027068    0.00021346   -0.04657790
     atom    6 type  1   force =     0.00027231    0.00016918   -0.04659029
     atom    7 type  2   force =     0.00028394    0.00018568    0.02603719
     atom    8 type  2   force =     0.00025996    0.00019848    0.02608923
     atom    9 type  1   force =    -0.00030609   -0.00021767   -0.00028688
     atom   10 type  1   force =    -0.00030880   -0.00021679   -0.00028192
     atom   11 type  2   force =    -0.00039203   -0.00028452   -0.00038216
     atom   12 type  2   force =    -0.00040370   -0.00027805   -0.00038936

     Total force =     0.111989     Total SCF correction =     0.001468

     entering subroutine stress ...

     negative rho (up, down):  9.927E-01 0.000E+00
          total   stress  (Ry/bohr**3)                   (kbar)     P=  -13.43
  -0.00012671  -0.00003425  -0.00000123        -18.64     -5.04     -0.18
  -0.00003425  -0.00010238  -0.00000087         -5.04    -15.06     -0.13
  -0.00000123  -0.00000087  -0.00004480         -0.18     -0.13     -6.59

 !ASE

     Writing output data file calc.save

     General routines

     Parallel routines

   This run was terminated on:   4:56:39  25Dec2018

   JOB DONE.
Job  /afs/slac/g/suncat/bin/suncat-tsmpirun -x LD_LIBRARY_PATH -wdir /scratch/qe109073_Rzplj pw.x -in pw.inp

TID   HOST_NAME   COMMAND_LINE            STATUS            TERMINATION_TIME
00000 suncat0108 pw.x -in pw.inp   Done                     12/25/2018 04:56:39
00001 suncat0108 pw.x -in pw.inp   Done                     12/25/2018 04:56:39
00002 suncat0108 pw.x -in pw.inp   Done                     12/25/2018 04:56:39
00003 suncat0108 pw.x -in pw.inp   Done                     12/25/2018 04:56:39
00004 suncat0108 pw.x -in pw.inp   Done                     12/25/2018 04:56:39
00005 suncat0108 pw.x -in pw.inp   Done                     12/25/2018 04:56:39
00006 suncat0108 pw.x -in pw.inp   Done                     12/25/2018 04:56:39
00007 suncat0108 pw.x -in pw.inp   Done                     12/25/2018 04:56:39
00008 suncat0107 pw.x -in pw.inp   Done                     12/25/2018 04:56:39
00009 suncat0107 pw.x -in pw.inp   Done                     12/25/2018 04:56:39
00010 suncat0107 pw.x -in pw.inp   Done                     12/25/2018 04:56:39
00011 suncat0107 pw.x -in pw.inp   Done                     12/25/2018 04:56:39
00012 suncat0107 pw.x -in pw.inp   Done                     12/25/2018 04:56:39
00013 suncat0107 pw.x -in pw.inp   Done                     12/25/2018 04:56:39
00014 suncat0107 pw.x -in pw.inp   Done                     12/25/2018 04:56:39
00015 suncat0107 pw.x -in pw.inp   Done                     12/25/2018 04:56:39
00016 suncat0106 pw.x -in pw.inp   Done                     12/25/2018 04:56:39
00017 suncat0106 pw.x -in pw.inp   Done                     12/25/2018 04:56:39
00018 suncat0106 pw.x -in pw.inp   Done                     12/25/2018 04:56:39
00019 suncat0106 pw.x -in pw.inp   Done                     12/25/2018 04:56:39
00020 suncat0106 pw.x -in pw.inp   Done                     12/25/2018 04:56:39
00021 suncat0106 pw.x -in pw.inp   Done                     12/25/2018 04:56:39
00022 suncat0106 pw.x -in pw.inp   Done                     12/25/2018 04:56:39
00023 suncat0106 pw.x -in pw.inp   Done                     12/25/2018 04:56:39
00024 suncat0105 pw.x -in pw.inp   Done                     12/25/2018 04:56:39
00025 suncat0105 pw.x -in pw.inp   Done                     12/25/2018 04:56:39
00026 suncat0105 pw.x -in pw.inp   Done                     12/25/2018 04:56:39
00027 suncat0105 pw.x -in pw.inp   Done                     12/25/2018 04:56:39
00028 suncat0105 pw.x -in pw.inp   Done                     12/25/2018 04:56:39
00029 suncat0105 pw.x -in pw.inp   Done                     12/25/2018 04:56:39
00030 suncat0105 pw.x -in pw.inp   Done                     12/25/2018 04:56:39
00031 suncat0105 pw.x -in pw.inp   Done                     12/25/2018 04:56:39
00032 suncat0238 pw.x -in pw.inp   Done                     12/25/2018 04:56:39
00033 suncat0238 pw.x -in pw.inp   Done                     12/25/2018 04:56:39
00034 suncat0238 pw.x -in pw.inp   Done                     12/25/2018 04:56:39
00035 suncat0238 pw.x -in pw.inp   Done                     12/25/2018 04:56:39
00036 suncat0238 pw.x -in pw.inp   Done                     12/25/2018 04:56:39
00037 suncat0238 pw.x -in pw.inp   Done                     12/25/2018 04:56:39
00038 suncat0238 pw.x -in pw.inp   Done                     12/25/2018 04:56:39
00039 suncat0238 pw.x -in pw.inp   Done                     12/25/2018 04:56:39
00040 suncat0237 pw.x -in pw.inp   Done                     12/25/2018 04:56:39
00041 suncat0237 pw.x -in pw.inp   Done                     12/25/2018 04:56:39
00042 suncat0237 pw.x -in pw.inp   Done                     12/25/2018 04:56:39
00043 suncat0237 pw.x -in pw.inp   Done                     12/25/2018 04:56:39
00044 suncat0237 pw.x -in pw.inp   Done                     12/25/2018 04:56:39
00045 suncat0237 pw.x -in pw.inp   Done                     12/25/2018 04:56:39
00046 suncat0237 pw.x -in pw.inp   Done                     12/25/2018 04:56:39
00047 suncat0237 pw.x -in pw.inp   Done                     12/25/2018 04:56:39
00048 suncat0236 pw.x -in pw.inp   Done                     12/25/2018 04:56:39
00049 suncat0236 pw.x -in pw.inp   Done                     12/25/2018 04:56:39
00050 suncat0236 pw.x -in pw.inp   Done                     12/25/2018 04:56:39
00051 suncat0236 pw.x -in pw.inp   Done                     12/25/2018 04:56:39
00052 suncat0236 pw.x -in pw.inp   Done                     12/25/2018 04:56:39
00053 suncat0236 pw.x -in pw.inp   Done                     12/25/2018 04:56:39
00054 suncat0236 pw.x -in pw.inp   Done                     12/25/2018 04:56:39
00055 suncat0236 pw.x -in pw.inp   Done                     12/25/2018 04:56:39
00056 suncat0235 pw.x -in pw.inp   Done                     12/25/2018 04:56:39
00057 suncat0235 pw.x -in pw.inp   Done                     12/25/2018 04:56:39
00058 suncat0235 pw.x -in pw.inp   Done                     12/25/2018 04:56:39
00059 suncat0235 pw.x -in pw.inp   Done                     12/25/2018 04:56:39
00060 suncat0235 pw.x -in pw.inp   Done                     12/25/2018 04:56:39
00061 suncat0235 pw.x -in pw.inp   Done                     12/25/2018 04:56:39
00062 suncat0235 pw.x -in pw.inp   Done                     12/25/2018 04:56:39
00063 suncat0235 pw.x -in pw.inp   Done                     12/25/2018 04:56:39