     Program PWSCF v.5.1rc2 (svn rev. 11289) starts on 19Dec2018 at  5:29:48

     Current dimensions of program PWSCF are:
     Max number of different atomic species (ntypx) = 10
     Max number of k-points (npk) =  40000
     Max angular momentum in pseudopotentials (lmaxx) =  3
     Presently stress not available with electric field

     IMPORTANT: XC functional enforced from input :
     Exchange-correlation      = BEEF-VDW ( 1  4 27 13 2)
     Any further DFT definition will be discarded
     Please, verify this is what you really want

     Subspace diagonalization in iterative solution of the eigenvalue problem:
     a serial algorithm will be used

     Found symmetry operation: I + (  0.5000 -0.5000  0.0000)
     This is a supercell, fractional translations are disabled

     bravais-lattice index     =            0
     lattice parameter (alat)  =       1.8897  a.u.
     unit-cell volume          =    6190.6771 (a.u.)^3
     number of atoms/cell      =           12
     number of atomic types    =            2
     number of electrons       =       144.00
     number of Kohn-Sham states=          102
     kinetic-energy cutoff     =      36.7493  Ry
     charge density cutoff     =     367.4932  Ry
     convergence threshold     =      1.0E-06
     mixing beta               =       0.1000
     number of iterations used =           10  plain     mixing
     Exchange-correlation      = BEEF-VDW ( 1  4 27 13 2)
     nstep                     =           50

     celldm(1)=   1.889726  celldm(2)=   0.000000  celldm(3)=   0.000000
     celldm(4)=   0.000000  celldm(5)=   0.000000  celldm(6)=   0.000000

     crystal axes: (cart. coord. in units of alat)
               a(1) = (   6.342669   0.000000   0.000000 )
               a(2) = (   2.724639   5.727634   0.000000 )
               a(3) = (   0.000000   0.000000  25.251911 )

     reciprocal axes: (cart. coord. in units 2 pi/alat)
               b(1) = (  0.157662 -0.075000  0.000000 )
               b(2) = (  0.000000  0.174592  0.000000 )
               b(3) = (  0.000000  0.000000  0.039601 )

     PseudoPot. # 1 for Sc read from file:
     /afs/slac.stanford.edu/u/if/mamunm/psp/gbrv1.5pbe/Sc.UPF
     MD5 check sum: db30a2753ba66ef00f23801d899b7e7f
     Pseudo is Ultrasoft + core correction, Zval = 11.0
     Generated by new atomic code, or converted to UPF format
     Using radial grid of  849 points,  6 beta functions with:
                l(1) =   0
                l(2) =   0
                l(3) =   1
                l(4) =   1
                l(5) =   2
                l(6) =   2
     Q(r) pseudized with  6 coefficients,  rinner =    1.200   1.200   1.200
                                                       1.200   1.200

     PseudoPot. # 2 for Tl read from file:
     /afs/slac.stanford.edu/u/if/mamunm/psp/gbrv1.5pbe/Tl.UPF
     MD5 check sum: b76cf1f7e72655a2b2c53cf6385d7059
     Pseudo is Ultrasoft + core correction, Zval = 13.0
     Generated by new atomic code, or converted to UPF format
     Using radial grid of  899 points,  6 beta functions with:
                l(1) =   0
                l(2) =   0
                l(3) =   1
                l(4) =   1
                l(5) =   2
                l(6) =   2
     Q(r) pseudized with  6 coefficients,  rinner =    1.100   1.100   1.100
                                                       1.100   1.100

     vdW kernel table read from file vdW_kernel_table
     MD5 check sum: 095c7af220d748ca6e76c0b4c6cfb241

     atomic species   valence    mass     pseudopotential
        Sc1           11.00    44.95591     Sc( 1.00)
        Tl1           13.00   204.38000     Tl( 1.00)

     No symmetry found

   Cartesian axes

     site n.     atom                  positions (alat units)
         1           Sc1 tau(   1) = (   0.0000000   0.0000000  10.0000000  )
         2           Sc1 tau(   2) = (   4.5336537   2.8638170  10.0000000  )
         3           Tl1 tau(   3) = (   3.1713344   0.0000000  10.0000000  )
         4           Tl1 tau(   4) = (   1.3623193   2.8638170  10.0000000  )
         5           Sc1 tau(   5) = (   6.3426688   4.0065351  12.6259557  )
         6           Sc1 tau(   6) = (   1.8090151   1.1427181  12.6259557  )
         7           Tl1 tau(   7) = (   3.1713344   4.0065351  12.6259557  )
         8           Tl1 tau(   8) = (   4.9803495   1.1427181  12.6259557  )
         9           Sc1 tau(   9) = (   3.6180302   2.2854362  15.2519114  )
        10           Sc1 tau(  10) = (   8.1516839   5.1492532  15.2519114  )
        11           Tl1 tau(  11) = (   6.7893646   2.2854362  15.2519114  )
        12           Tl1 tau(  12) = (   4.9803495   5.1492532  15.2519114  )

     number of k points=    20  Fermi-Dirac smearing, width (Ry)=  0.0110
                       cart. coord. in units 2pi/alat
        k(    1) = (   0.0000000   0.0000000   0.0000000), wk =   0.0555556
        k(    2) = (   0.0000000   0.0290987   0.0000000), wk =   0.1111111
        k(    3) = (   0.0000000   0.0581974   0.0000000), wk =   0.1111111
        k(    4) = (   0.0000000  -0.0872961   0.0000000), wk =   0.0555556
        k(    5) = (   0.0262771  -0.0125000   0.0000000), wk =   0.1111111
        k(    6) = (   0.0262771   0.0165987   0.0000000), wk =   0.1111111
        k(    7) = (   0.0262771   0.0456974   0.0000000), wk =   0.1111111
        k(    8) = (   0.0262771  -0.0997961   0.0000000), wk =   0.1111111
        k(    9) = (   0.0262771  -0.0706974   0.0000000), wk =   0.1111111
        k(   10) = (   0.0262771  -0.0415987   0.0000000), wk =   0.1111111
        k(   11) = (   0.0525541  -0.0250000   0.0000000), wk =   0.1111111
        k(   12) = (   0.0525541   0.0040987   0.0000000), wk =   0.1111111
        k(   13) = (   0.0525541   0.0331974   0.0000000), wk =   0.1111111
        k(   14) = (   0.0525541  -0.1122961   0.0000000), wk =   0.1111111
        k(   15) = (   0.0525541  -0.0831974   0.0000000), wk =   0.1111111
        k(   16) = (   0.0525541  -0.0540987   0.0000000), wk =   0.1111111
        k(   17) = (  -0.0788312   0.0375000   0.0000000), wk =   0.0555556
        k(   18) = (  -0.0788312   0.0665987   0.0000000), wk =   0.1111111
        k(   19) = (  -0.0788312   0.0956974   0.0000000), wk =   0.1111111
        k(   20) = (  -0.0788312  -0.0497960   0.0000000), wk =   0.0555556

     Largest allocated arrays     est. size (Mb)     dimensions
     Largest temporary arrays     est. size (Mb)     dimensions

     Check: negative/imaginary core charge=   -0.000001    0.000000

     Initial potential from superposition of free atoms
     Check: negative starting charge=   -0.301157

     starting charge  143.95639, renormalised to  144.00000

     negative rho (up, down):  3.012E-01 0.000E+00

     *
     * You are using vdW-DF for exchange-correlation in this calculation.
     * Please cite the following three references that made this development
     * possible:
     *
     *   M. Dion, H. Rydberg, E. Schroder, D. C. Langreth, and
     *   B. I. Lundqvist, Phys. Rev. Lett. 92, 246401 (2004).
     *
     *   T. Thonhauser, V. R. Cooper, S. Li, A. Puzder, P. Hyldgaard, and
     *   D. C. Langreth, Phys. Rev. B 76, 125112 (2007).
     *
     *   G. Roman-Perez and J. M. Soler, Phys. Rev. Lett. 103, 096102 (2009).
     *
     *
     * If you are using vdW-DF2, please also cite:
     *
     *   K. Lee, E. D. Murray, L. Kong, B. I. Lundqvist, and
     *   D. C. Langreth, Phys. Rev. B 82, 081101(R) (2010).
     *
     *
     * If you are calculating the stress with vdW-DF, please also cite:
     *
     *   R. Sabatini, E. Kucukbenli, B. Kolb, T. Thonhauser, and
     *   S. de Gironcoli, J. Phys.: Condens. Matter 24, 424209 (2012).
     *

     Carrying out vdW-DF run using the following parameters:

     Nqs =      20    Nr_points =    1024   r_max =   100.000
     q_mesh =
               0.00001000     0.04494208     0.09755937     0.15916263
               0.23128650     0.31572767     0.41458969     0.53033537
               0.66584808     0.82450364     1.01025438     1.22772762
               1.48234092     1.78043706     2.12944203     2.53805004
               3.01644009     3.57652955     4.23227104     5.00000000

     Gradients computed in reciprocal space

     Adding external electric field

     Computed dipole along edir(3) :
        Dipole                0.0000 Ry au,          0.0000 Debye
        Dipole field          0.0000 Ry au

        Potential amp.       -0.0000 Ry
        Total length         46.5262 bohr

     Starting wfc are  132 randomized atomic wfcs

     Self-consistent Calculation

     iteration #  1     ecut=    36.75 Ry     beta=0.10
     Davidson diagonalization with overlap
     ethr =  1.00E-02,  avg # of iterations =  2.0

[...]

     total energy              =   -1449.56747128 Ry
     Harris-Foulkes estimate   =   -1449.83581096 Ry
     estimated scf accuracy    <       1.56249560 Ry

[...]

     End of self-consistent calculation

          k = 0.0000 0.0000 0.0000 ( 23347 PWs)   bands (ev):

   -49.6065 -49.6064 -49.5948 -49.5947 -49.2737 -49.2616 -28.2937 -28.2926
   -28.2801 -28.2779 -28.1710 -28.1664 -28.1568 -28.1539 -28.1535 -28.1522
   -28.0164 -28.0164 -27.9056 -27.8983 -27.8821 -27.8613 -27.8464 -27.7625
   -11.0616 -10.9751 -10.9288 -10.8797 -10.8619 -10.8567 -10.8161 -10.8098
   -10.7956 -10.7655 -10.7444 -10.6928 -10.6894 -10.6721 -10.6595 -10.6039
   -10.5711 -10.5705 -10.5583 -10.5511 -10.5452 -10.5202 -10.5055 -10.4937
   -10.4604 -10.4533 -10.4275 -10.3901 -10.3134 -10.2524  -7.7995  -6.5683
    -5.4139  -4.8889  -4.2841  -3.8447  -1.3892  -0.9512  -0.7733  -0.5785
    -0.5517  -0.2847  -0.2548   0.1682   0.3184   0.8004   0.8765   0.9253
     1.1301   1.1868   1.2140   1.2682   1.2726   1.6235   1.6247   1.8935
     1.9904   2.1473   2.2830   2.2979   2.5184   2.5992   2.6170   2.7721
     2.7904   2.8200   2.8594   2.8637   2.8792   2.8861   3.1119   3.1834
     3.2242   3.2337   3.4970   3.7214   3.8432   3.8719

[...]

          k =-0.0788 0.0375 0.0000 ( 23246 PWs)   bands (ev):

[...]

     the Fermi energy is     0.9103 ev

!    total energy              =   -1449.75983571 Ry
     Harris-Foulkes estimate   =   -1449.75985906 Ry
     estimated scf accuracy    <       0.00000100 Ry

     The total energy is the sum of the following terms:

     one-electron contribution =   -8133.88847832 Ry
     hartree contribution      =    4099.12187467 Ry
     xc contribution           =    -467.46445477 Ry
     ewald contribution        =    3052.54810230 Ry
     electric field correction =       0.00000000 Ry
     smearing contrib. (-TS)   =      -0.07687959 Ry

     convergence has been achieved in  16 iterations

 BEEF-vdW xc energy contributions
           1 :   -413.066133576214
           2 :    380.462589657024
           3 :   -324.645111121710
           4 :    259.767024740683
           5 :   -198.717388927446
           6 :    149.037627866697
           7 :   -112.296679101603
           8 :    86.0557142776820
           9 :   -66.5701542830592
          10 :    50.7460602102997
          11 :   -36.8999402548700
          12 :    24.6228981729113
[...]

[...]

     Program PWSCF v.5.1rc2 (svn rev. 11289) starts on 19Dec2018 at  5:55:36

[...]

   This run was terminated on:   6: 0:38  19Dec2018

[...]

     Program PWSCF v.5.1rc2 (svn rev. 11289) starts on 19Dec2018 at  6: 0:45

[...]

     Total force =     0.031611     Total SCF correction =     0.003606
     SCF correction compared to forces is large: reduce conv_thr to get better values

[...]

   This run was terminated on:   6: 6:35  19Dec2018

[...]

     Program PWSCF v.5.1rc2 (svn rev. 11289) starts on 19Dec2018 at  6: 6:41

     Current dimensions of program PWSCF are:
     Max number of different atomic species (ntypx) = 10
     Max number of k-points (npk) =  40000
     Max angular momentum in pseudopotentials (lmaxx) =  3
     Presently stress not available with electric field

     IMPORTANT: XC functional enforced from input :
     Exchange-correlation      = BEEF-VDW ( 1  4 27 13 2)
     Any further DFT definition will be discarded
     Please, verify this is what you really want

     Subspace diagonalization in iterative solution of the eigenvalue problem:
     a serial algorithm will be used

     bravais-lattice index     =            0
     lattice parameter (alat)  =       1.8897  a.u.
     unit-cell volume          =    6190.6771 (a.u.)^3
     number of atoms/cell      =           12
     number of atomic types    =            2
     number of electrons       =       144.00
     number of Kohn-Sham states=          102
     kinetic-energy cutoff     =      36.7493  Ry
     charge density cutoff     =     367.4932  Ry
     convergence threshold     =      1.0E-06
     mixing beta               =       0.1000
     number of iterations used =           10  plain     mixing
     Exchange-correlation      = BEEF-VDW ( 1  4 27 13 2)
     nstep                     =           50

     celldm(1)=   1.889726  celldm(2)=   0.000000  celldm(3)=   0.000000
     celldm(4)=   0.000000  celldm(5)=   0.000000  celldm(6)=   0.000000

     crystal axes: (cart. coord. in units of alat)
               a(1) = (   6.342669   0.000000   0.000000 )
               a(2) = (   2.724639   5.727634   0.000000 )
               a(3) = (   0.000000   0.000000  25.251911 )

     reciprocal axes: (cart. coord. in units 2 pi/alat)
               b(1) = (  0.157662 -0.075000  0.000000 )
               b(2) = (  0.000000  0.174592  0.000000 )
               b(3) = (  0.000000  0.000000  0.039601 )

     PseudoPot. # 1 for Sc read from file:
     /afs/slac.stanford.edu/u/if/mamunm/psp/gbrv1.5pbe/Sc.UPF
     MD5 check sum: db30a2753ba66ef00f23801d899b7e7f
     Pseudo is Ultrasoft + core correction, Zval = 11.0
     Generated by new atomic code, or converted to UPF format
     Using radial grid of  849 points,  6 beta functions with:
                l(1) =   0
                l(2) =   0
                l(3) =   1
                l(4) =   1
                l(5) =   2
                l(6) =   2
     Q(r) pseudized with  6 coefficients,  rinner =    1.200   1.200   1.200
                                                       1.200   1.200

     PseudoPot. # 2 for Tl read from file:
     /afs/slac.stanford.edu/u/if/mamunm/psp/gbrv1.5pbe/Tl.UPF
     MD5 check sum: b76cf1f7e72655a2b2c53cf6385d7059
     Pseudo is Ultrasoft + core correction, Zval = 13.0
     Generated by new atomic code, or converted to UPF format
     Using radial grid of  899 points,  6 beta functions with:
                l(1) =   0
                l(2) =   0
                l(3) =   1
                l(4) =   1
                l(5) =   2
                l(6) =   2
     Q(r) pseudized with  6 coefficients,  rinner =    1.100   1.100   1.100
                                                       1.100   1.100

     vdW kernel table read from file vdW_kernel_table
     MD5 check sum: 095c7af220d748ca6e76c0b4c6cfb241

     atomic species   valence    mass     pseudopotential
        Sc1           11.00    44.95591     Sc( 1.00)
        Tl1           13.00   204.38000     Tl( 1.00)

     No symmetry found

   Cartesian axes

     site n.     atom                  positions (alat units)
         1           Sc1 tau(   1) = (   0.0000000   0.0000000  10.0000000  )
         2           Sc1 tau(   2) = (   4.5336537   2.8638170  10.0000000  )
         3           Tl1 tau(   3) = (   3.1713344   0.0000000  10.0000000  )
         4           Tl1 tau(   4) = (   1.3623193   2.8638170  10.0000000  )
         5           Sc1 tau(   5) = (   6.3426688   4.0065351  12.6259557  )
         6           Sc1 tau(   6) = (   1.8090151   1.1427181  12.6259557  )
         7           Tl1 tau(   7) = (   3.1713344   4.0065351  12.6259557  )
         8           Tl1 tau(   8) = (   4.9803495   1.1427181  12.6259557  )
         9           Sc1 tau(   9) = (   3.5971883   2.2722695  15.1799815  )
        10           Sc1 tau(  10) = (   8.1305586   5.1359022  15.1799472  )
        11           Tl1 tau(  11) = (   6.7517702   2.2615357  15.4828554  )
        12           Tl1 tau(  12) = (   4.9425924   5.1255234  15.4829413  )

     number of k points=    20  Fermi-Dirac smearing, width (Ry)=  0.0110
                       cart. coord. in units 2pi/alat
        k(    1) = (   0.0000000   0.0000000   0.0000000), wk =   0.0555556
        k(    2) = (   0.0000000   0.0290987   0.0000000), wk =   0.1111111
        k(    3) = (   0.0000000   0.0581974   0.0000000), wk =   0.1111111
        k(    4) = (   0.0000000  -0.0872961   0.0000000), wk =   0.0555556
        k(    5) = (   0.0262771  -0.0125000   0.0000000), wk =   0.1111111
        k(    6) = (   0.0262771   0.0165987   0.0000000), wk =   0.1111111
        k(    7) = (   0.0262771   0.0456974   0.0000000), wk =   0.1111111
        k(    8) = (   0.0262771  -0.0997961   0.0000000), wk =   0.1111111
        k(    9) = (   0.0262771  -0.0706974   0.0000000), wk =   0.1111111
        k(   10) = (   0.0262771  -0.0415987   0.0000000), wk =   0.1111111
        k(   11) = (   0.0525541  -0.0250000   0.0000000), wk =   0.1111111
        k(   12) = (   0.0525541   0.0040987   0.0000000), wk =   0.1111111
        k(   13) = (   0.0525541   0.0331974   0.0000000), wk =   0.1111111
        k(   14) = (   0.0525541  -0.1122961   0.0000000), wk =   0.1111111
        k(   15) = (   0.0525541  -0.0831974   0.0000000), wk =   0.1111111
        k(   16) = (   0.0525541  -0.0540987   0.0000000), wk =   0.1111111
        k(   17) = (  -0.0788312   0.0375000   0.0000000), wk =   0.0555556
        k(   18) = (  -0.0788312   0.0665987   0.0000000), wk =   0.1111111
        k(   19) = (  -0.0788312   0.0956974   0.0000000), wk =   0.1111111
        k(   20) = (  -0.0788312  -0.0497960   0.0000000), wk =   0.0555556

     Largest allocated arrays     est. size (Mb)     dimensions
     Largest temporary arrays     est. size (Mb)     dimensions

     Check: negative/imaginary core charge=   -0.000001    0.000000

     Initial potential from superposition of free atoms
     Check: negative starting charge=   -0.301361

     starting charge  143.95639, renormalised to  144.00000

[...]

     *
     * You are using vdW-DF for exchange-correlation in this calculation.
     * Please cite the following three references that made this development
     * possible:
     *
     *   M. Dion, H. Rydberg, E. Schroder, D. C. Langreth, and
     *   B. I. Lundqvist, Phys. Rev. Lett. 92, 246401 (2004).
     *
     *   T. Thonhauser, V. R. Cooper, S. Li, A. Puzder, P. Hyldgaard, and
     *   D. C. Langreth, Phys. Rev. B 76, 125112 (2007).
     *
     *   G. Roman-Perez and J. M. Soler, Phys. Rev. Lett. 103, 096102 (2009).
     *
     *
     * If you are using vdW-DF2, please also cite:
     *
     *   K. Lee, E. D. Murray, L. Kong, B. I. Lundqvist, and
     *   D. C. Langreth, Phys. Rev. B 82, 081101(R) (2010).
     *
     *
     * If you are calculating the stress with vdW-DF, please also cite:
     *
     *   R. Sabatini, E. Kucukbenli, B. Kolb, T. Thonhauser, and
     *   S. de Gironcoli, J. Phys.: Condens. Matter 24, 424209 (2012).
     *

     Carrying out vdW-DF run using the following parameters:

     Nqs =      20    Nr_points =    1024   r_max =   100.000
     q_mesh =
               0.00001000     0.04494208     0.09755937     0.15916263
               0.23128650     0.31572767     0.41458969     0.53033537
               0.66584808     0.82450364     1.01025438     1.22772762
               1.48234092     1.78043706     2.12944203     2.53805004
               3.01644009     3.57652955     4.23227104     5.00000000

     Gradients computed in reciprocal space

[...]

     Starting wfc are  132 randomized atomic wfcs

     Self-consistent Calculation

[...]

     Threshold (ethr) on eigenvalues was too large:
     Diagonalizing with lowered threshold

     Davidson diagonalization with overlap
     ethr =  9.40E-04,  avg # of iterations =  2.8

[...]

     total energy              =   -1449.77013278 Ry
     Harris-Foulkes estimate   =   -1449.77013216 Ry
     estimated scf accuracy    <       0.00000274 Ry

     iteration # 18     ecut=    36.75 Ry     beta=0.10
     Davidson diagonalization with overlap
     ethr =  1.77E-09,  avg # of iterations =  2.0

[...]

     negative rho (up, down):  3.226E-01 0.000E+00

     Adding external electric field

     Computed dipole along edir(3) :
        Dipole               -0.0562 Ry au,         -0.1429 Debye
        Dipole field         -0.0001 Ry au

        Potential amp.        0.0106 Ry
        Total length         46.5262 bohr

     End of self-consistent calculation

[...]

          k = 0.0526-0.0541 0.0000 ( 23292 PWs)   bands (ev):

[...]

          k =-0.0788-0.0498 0.0000 ( 23252 PWs)   bands (ev):

   -49.6576 -49.6459 -49.6025 -49.5908 -49.3723 -49.3603 -28.3432 -28.3287
   -28.2774 -28.2626 -28.2265 -28.2101 -28.2042 -28.1684 -28.1675 -28.1519
   -28.0660 -28.0293 -28.0028 -27.9906 -27.9749 -27.9483 -27.9339 -27.8610
   -11.0888 -10.9825 -10.9396 -10.9230 -10.8479 -10.8355 -10.8337 -10.8258
   -10.7763 -10.7667 -10.7391 -10.7224 -10.6956 -10.6910 -10.6499 -10.6202
   -10.5930 -10.5773 -10.5603 -10.5386 -10.5359 -10.5262 -10.5132 -10.5089
   -10.5032 -10.4634 -10.4292 -10.4230 -10.3371 -10.2732  -6.9001  -6.3610
    -5.7394  -5.1399  -4.1623  -3.0722  -2.8231  -2.4694  -1.9815  -1.3548
    -1.2506  -0.8842  -0.6517  -0.1335   0.1055   0.2764   0.2874   0.5490
     0.8016   1.0293   1.2168   1.2903   1.7056   1.8875   1.8922   1.9323
     2.0202   2.1108   2.1854   2.1888   2.2651   2.4808   2.6143   2.7229
     2.7366   2.7825   2.8742   3.1105   3.1908   3.2094   3.2886   3.8092
     3.9904   3.9919   4.0505   4.1891   4.4828   4.7719

     the Fermi energy is     0.8552 ev

!    total energy              =   -1449.77010699 Ry
     Harris-Foulkes estimate   =   -1449.77013313 Ry
     estimated scf accuracy    <       0.00000024 Ry

     The total energy is the sum of the following terms:

     one-electron contribution =   -8025.18596196 Ry
     hartree contribution      =    4044.56374505 Ry
     xc contribution           =    -467.40809825 Ry
     ewald contribution        =    2998.33781659 Ry
     electric field correction =       0.00000642 Ry
     smearing contrib. (-TS)   =      -0.07761484 Ry

     convergence has been achieved in  18 iterations

 BEEF-vdW xc energy contributions
           1 :   -413.004716064341
           2 :    380.360698482341
           3 :   -324.505490924768
           4 :    259.640387737698
           5 :   -198.666113667921
           6 :    149.086629315034
           7 :   -112.409144487106
           8 :    86.1553790497025
           9 :   -66.5937719405646
          10 :    50.6831469208914
          11 :   -36.7911825493279
          12 :    24.5272990968190
          13 :   -14.2714938076758
          14 :    6.71082638641525
          15 :   -2.39643195030652
          16 :    1.28023784071502
          17 :   -2.42785515399413
          18 :    4.20533411811419
          19 :   -4.99171590225916
          20 :    4.01213706618881
          21 :   -1.71294178881709
          22 :  -0.618031515407210
          23 :    1.73396825347754
          24 :   -1.21284009619734
          25 :  -0.370893317124739
          26 :    1.93386678613393
          27 :   -2.62575010576325
          28 :    2.29941975415858
          29 :   -1.46066330327443
          30 :   0.836823425465298
          31 :   -35.7630594206841
          32 :   -26.1063150771733

     Forces acting on atoms (Ry/au):

     negative rho (up, down):  3.226E-01 0.000E+00
     atom    1 type  1   force =     0.00009007    0.00005757    0.00834606
     atom    2 type  1   force =     0.00009253    0.00005868    0.00834454
     atom    3 type  2   force =     0.00305918    0.00195954   -0.01764499
     atom    4 type  2   force =     0.00308458    0.00191943   -0.01764603
     atom    5 type  1   force =    -0.00362067   -0.00228681    0.00749561
     atom    6 type  1   force =    -0.00361209   -0.00228168    0.00749817
     atom    7 type  2   force =     0.00197469    0.00125959    0.00056141
     atom    8 type  2   force =     0.00198604    0.00123994    0.00056752
     atom    9 type  1   force =    -0.00032875   -0.00021127    0.00053117
     atom   10 type  1   force =    -0.00035503   -0.00022233    0.00052997
     atom   11 type  2   force =    -0.00120876   -0.00071635    0.00070904
     atom   12 type  2   force =    -0.00116178   -0.00077630    0.00070752

     Total force =     0.030901     Total SCF correction =     0.002697

     entering subroutine stress ...

     negative rho (up, down):  3.226E-01 0.000E+00
          total   stress  (Ry/bohr**3)                   (kbar)     P=   -8.32
  -0.00009634  -0.00002868  -0.00000754        -14.17     -4.22     -1.11
  -0.00002868  -0.00006906  -0.00000476         -4.22    -10.16     -0.70
  -0.00000754  -0.00000476  -0.00000422         -1.11     -0.70     -0.62

 !ASE

     Writing output data file calc.save

     General routines

     Parallel routines

   This run was terminated on:   6:12: 5  19Dec2018

   JOB DONE.
Job  /afs/slac/g/suncat/bin/suncat-tsmpirun -x LD_LIBRARY_PATH -wdir /scratch/qe530589_Rpba1 pw.x -in pw.inp

TID   HOST_NAME   COMMAND_LINE            STATUS            TERMINATION_TIME
00000 suncat2058 pw.x -in pw.inp   Done                     12/19/2018 06:12:05
00001 suncat2058 pw.x -in pw.inp   Done                     12/19/2018 06:12:05
00002 suncat2058 pw.x -in pw.inp   Done                     12/19/2018 06:12:05
00003 suncat2058 pw.x -in pw.inp   Done                     12/19/2018 06:12:05
00004 suncat2058 pw.x -in pw.inp   Done                     12/19/2018 06:12:05
00005 suncat2058 pw.x -in pw.inp   Done                     12/19/2018 06:12:05
00006 suncat2058 pw.x -in pw.inp   Done                     12/19/2018 06:12:05
00007 suncat2058 pw.x -in pw.inp   Done                     12/19/2018 06:12:05
00008 suncat2058 pw.x -in pw.inp   Done                     12/19/2018 06:12:05
00009 suncat2058 pw.x -in pw.inp   Done                     12/19/2018 06:12:05
00010 suncat2058 pw.x -in pw.inp   Done                     12/19/2018 06:12:05
00011 suncat2058 pw.x -in pw.inp   Done                     12/19/2018 06:12:05
00012 suncat2058 pw.x -in pw.inp   Done                     12/19/2018 06:12:05
00013 suncat2058 pw.x -in pw.inp   Done                     12/19/2018 06:12:05
00014 suncat2058 pw.x -in pw.inp   Done                     12/19/2018 06:12:05
00015 suncat2058 pw.x -in pw.inp   Done                     12/19/2018 06:12:05
00016 suncat2057 pw.x -in pw.inp   Done                     12/19/2018 06:12:05
00017 suncat2057 pw.x -in pw.inp   Done                     12/19/2018 06:12:05
00018 suncat2057 pw.x -in pw.inp   Done                     12/19/2018 06:12:05
00019 suncat2057 pw.x -in pw.inp   Done                     12/19/2018 06:12:05
00020 suncat2057 pw.x -in pw.inp   Done                     12/19/2018 06:12:05
00021 suncat2057 pw.x -in pw.inp   Done                     12/19/2018 06:12:05
00022 suncat2057 pw.x -in pw.inp   Done                     12/19/2018 06:12:05
00023 suncat2057 pw.x -in pw.inp   Done                     12/19/2018 06:12:05
00024 suncat2057 pw.x -in pw.inp   Done                     12/19/2018 06:12:05
00025 suncat2057 pw.x -in pw.inp   Done                     12/19/2018 06:12:05
00026 suncat2057 pw.x -in pw.inp   Done                     12/19/2018 06:12:05
00027 suncat2057 pw.x -in pw.inp   Done                     12/19/2018 06:12:05
00028 suncat2057 pw.x -in pw.inp   Done                     12/19/2018 06:12:05
00029 suncat2057 pw.x -in pw.inp   Done                     12/19/2018 06:12:05
00030 suncat2057 pw.x -in pw.inp   Done                     12/19/2018 06:12:05
00031 suncat2057 pw.x -in pw.inp   Done                     12/19/2018 06:12:05