     Program PWSCF v.5.1rc2 (svn rev. 11289) starts on 19Dec2018 at  2:59:17

     Current dimensions of program PWSCF are:
     Max number of different atomic species (ntypx) = 10
     Max number of k-points (npk) =  40000
     Max angular momentum in pseudopotentials (lmaxx) =  3
     Presently stress not available with electric field

     IMPORTANT: XC functional enforced from input :
     Exchange-correlation      = BEEF-VDW ( 1  4 27 13 2)
     Any further DFT definition will be discarded
     Please, verify this is what you really want

     Subspace diagonalization in iterative solution of the eigenvalue problem:
     a serial algorithm will be used

     Found symmetry operation: I + ( -0.5000  0.0000  0.0000)
     This is a supercell, fractional translations are disabled

     bravais-lattice index     =            0
     lattice parameter (alat)  =       1.8897  a.u.
     unit-cell volume          =    4270.2283 (a.u.)^3
     number of atoms/cell      =           12
     number of atomic types    =            2
     number of electrons       =       180.00
     number of Kohn-Sham states=          120
     kinetic-energy cutoff     =      36.7493  Ry
     charge density cutoff     =     367.4932  Ry
     convergence threshold     =      1.0E-06
     mixing beta               =       0.1000
     number of iterations used =           10  plain     mixing
     Exchange-correlation      = BEEF-VDW ( 1  4 27 13 2)
     nstep                     =           50

     celldm(1)=   1.889726  celldm(2)=   0.000000  celldm(3)=   0.000000
     celldm(4)=   0.000000  celldm(5)=   0.000000  celldm(6)=   0.000000

     crystal axes: (cart. coord. in units of alat)
               a(1) = (   5.460241   0.000000   0.000000 )
               a(2) = (  -2.730121   4.737444   0.000000 )
               a(3) = (   0.000000   0.000000  24.462373 )

     reciprocal axes: (cart. coord. in units 2 pi/alat)
               b(1) = (  0.183142  0.105542  0.000000 )
               b(2) = (  0.000000  0.211084  0.000000 )
               b(3) = (  0.000000  0.000000  0.040879 )

     PseudoPot. # 1 for Rh read from file:
     /afs/slac.stanford.edu/u/if/mamunm/psp/gbrv1.5pbe/Rh.UPF
     MD5 check sum: 761627e959a2e3a1f56b0b5fe687810e
     Pseudo is Ultrasoft + core correction, Zval = 15.0
     Generated by new atomic code, or converted to UPF format
     Using radial grid of  969 points,  7 beta functions with:
                l(1) =   0
                l(2) =   0
                l(3) =   1
                l(4) =   1
                l(5) =   2
                l(6) =   2
                l(7) =   2
     Q(r) pseudized with  8 coefficients,  rinner =    1.200   1.200   1.200
                                                       1.200   1.200

     PseudoPot. # 2 for Ir read from file:
     /afs/slac.stanford.edu/u/if/mamunm/psp/gbrv1.5pbe/Ir.UPF
     MD5 check sum: 8836f839c3459d2b385c504ce6d91f2c
     Pseudo is Ultrasoft + core correction, Zval = 15.0
     Generated by new atomic code, or converted to UPF format
     Using radial grid of  983 points,  7 beta functions with:
                l(1) =   0
                l(2) =   0
                l(3) =   1
                l(4) =   1
                l(5) =   1
                l(6) =   2
                l(7) =   2
     Q(r) pseudized with  8 coefficients,  rinner =    1.400   1.400   1.400
                                                       1.400   1.400

     vdW kernel table read from file vdW_kernel_table
     MD5 check sum: 095c7af220d748ca6e76c0b4c6cfb241

     atomic species   valence    mass     pseudopotential
        Rh1           15.00   102.90550     Rh( 1.00)
        Ir1           15.00   192.21700     Ir( 1.00)

     No symmetry found

   Cartesian axes

     site n.     atom                  positions (alat units)
         1           Rh1 tau(   1) = (   0.0000000   0.0000000  10.0000000  )
         2           Rh1 tau(   2) = (   2.7301206   0.0000000  10.0000000  )
         3           Ir1 tau(   3) = (   1.3650603   2.3687219  10.0000000  )
         4           Ir1 tau(   4) = (  -1.3650603   2.3687219  10.0000000  )
         5           Rh1 tau(   5) = (   2.7301206   1.5733291  12.2311867  )
         6           Rh1 tau(   6) = (  -0.0000000   1.5733291  12.2311867  )
         7           Ir1 tau(   7) = (  -1.3650603   3.9420511  12.2311867  )
         8           Ir1 tau(   8) = (   1.3650603   3.9420511  12.2311867  )
         9           Rh1 tau(   9) = (  -0.0000000   3.1466583  14.4623733  )
        10           Rh1 tau(  10) = (   2.7301206   3.1466583  14.4623733  )
        11           Ir1 tau(  11) = (   4.0951809   0.7779364  14.4623733  )
        12           Ir1 tau(  12) = (   1.3650603   0.7779364  14.4623733  )

     number of k points=    20  Fermi-Dirac smearing, width (Ry)=  0.0110
                       cart. coord. in units 2pi/alat
        k(    1) = (   0.0000000   0.0000000   0.0000000), wk =   0.0555556
        k(    2) = (   0.0000000   0.0351807   0.0000000), wk =   0.1111111
        k(    3) = (   0.0000000   0.0703614   0.0000000), wk =   0.1111111
        k(    4) = (   0.0000000  -0.1055421   0.0000000), wk =   0.0555556
        k(    5) = (   0.0305237   0.0175904   0.0000000), wk =   0.1111111
        k(    6) = (   0.0305237   0.0527711   0.0000000), wk =   0.1111111
        k(    7) = (   0.0305237   0.0879518   0.0000000), wk =   0.1111111
        k(    8) = (   0.0305237  -0.0879518   0.0000000), wk =   0.1111111
        k(    9) = (   0.0305237  -0.0527711   0.0000000), wk =   0.1111111
        k(   10) = (   0.0305237  -0.0175904   0.0000000), wk =   0.1111111
        k(   11) = (   0.0610474   0.0351807   0.0000000), wk =   0.1111111
        k(   12) = (   0.0610474   0.0703614   0.0000000), wk =   0.1111111
        k(   13) = (   0.0610474   0.1055421   0.0000000), wk =   0.1111111
        k(   14) = (   0.0610474  -0.0703614   0.0000000), wk =   0.1111111
        k(   15) = (   0.0610474  -0.0351807   0.0000000), wk =   0.1111111
        k(   16) = (   0.0610474   0.0000000   0.0000000), wk =   0.1111111
        k(   17) = (  -0.0915710  -0.0527711   0.0000000), wk =   0.0555556
        k(   18) = (  -0.0915710  -0.0175904   0.0000000), wk =   0.1111111
        k(   19) = (  -0.0915710   0.0175904   0.0000000), wk =   0.1111111
        k(   20) = (  -0.0915710  -0.1583132   0.0000000), wk =   0.0555556

     Largest allocated arrays     est. size (Mb)     dimensions
     Largest temporary arrays     est. size (Mb)     dimensions

     Initial potential from superposition of free atoms
     Check: negative starting charge=   -2.507078

     starting charge  173.99922, renormalised to  180.00000

     negative rho (up, down):  2.594E+00 0.000E+00

     *
     * You are using vdW-DF for exchange-correlation in this calculation.
     * Please cite the following three references that made this development
     * possible:
     *
     *   M. Dion, H. Rydberg, E. Schroder, D. C. Langreth, and
     *   B. I. Lundqvist, Phys. Rev. Lett. 92, 246401 (2004).
     *
     *   T. Thonhauser, V. R. Cooper, S. Li, A. Puzder, P. Hyldgaard, and
     *   D. C. Langreth, Phys. Rev. B 76, 125112 (2007).
     *
     *   G. Roman-Perez and J. M. Soler, Phys. Rev. Lett. 103, 096102 (2009).
     *
     *
     * If you are using vdW-DF2, please also cite:
     *
     *   K. Lee, E. D. Murray, L. Kong, B. I. Lundqvist, and
     *   D. C. Langreth, Phys. Rev. B 82, 081101(R) (2010).
     *
     *
     * If you are calculating the stress with vdW-DF, please also cite:
     *
     *   R. Sabatini, E. Kucukbenli, B. Kolb, T. Thonhauser, and
     *   S. de Gironcoli, J. Phys.: Condens. Matter 24, 424209 (2012).
     *

     Carrying out vdW-DF run using the following parameters:

     Nqs =      20    Nr_points =    1024   r_max =   100.000
     q_mesh =
               0.00001000     0.04494208     0.09755937     0.15916263
               0.23128650     0.31572767     0.41458969     0.53033537
               0.66584808     0.82450364     1.01025438     1.22772762
               1.48234092     1.78043706     2.12944203     2.53805004
               3.01644009     3.57652955     4.23227104     5.00000000

     Gradients computed in reciprocal space

     Adding external electric field

     Computed dipole along edir(3) :
        Dipole                0.0000 Ry au,          0.0000 Debye
        Dipole field          0.0000 Ry au

        Potential amp.       -0.0000 Ry
        Total length         45.0715 bohr

     Starting wfc are  144 randomized atomic wfcs

     Self-consistent Calculation

     iteration #  1     ecut=    36.75 Ry     beta=0.10
     Davidson diagonalization with overlap
     ethr =  1.00E-02,  avg # of iterations =  7.7

[...]

     total energy              =   -2133.52380153 Ry
     Harris-Foulkes estimate   =   -2135.95020114 Ry
     estimated scf accuracy    <      14.85099047 Ry

[...]

     End of self-consistent calculation

          k = 0.0000 0.0000 0.0000 ( 16005 PWs)   bands (ev):

   -47.7943 -47.6962 -47.6522 -47.6245 -47.5762 -47.4070 -47.3551 -47.3509
   -47.1527 -47.1394 -47.1039 -47.0895 -47.0243 -47.0162 -46.9871 -46.9740
   -46.9676 -46.9674 -45.0543 -44.9450 -44.9233 -44.9179 -44.8994 -44.7472
   -44.6572 -44.6521 -44.5429 -44.5335 -44.5256 -44.5171 -44.3803 -44.3538
   -44.3486 -44.3457 -44.3446 -44.3277  -6.2122  -4.5603  -4.4353  -4.1777
    -4.1285  -4.0115  -3.8322  -3.7774  -3.7204  -3.4958  -3.4540  -3.4461
    -3.1799  -3.1379  -3.0634  -2.0107  -1.8741  -1.7421  -1.4041  -1.3849
    -1.3653  -1.1669  -1.0458  -1.0439  -0.8493  -0.6721  -0.6634  -0.6453
    -0.5821  -0.5618  -0.4248  -0.4014  -0.0456   0.0987   0.1731   0.9531
     1.0074   1.0513   1.0706   1.0710   1.0735   1.1457   1.2196   1.4149
     1.7125   1.7680   2.1194   2.1823   2.2840   2.3320   2.3622   2.4982
     2.5030   2.5056   2.5570   2.7850   2.8239   2.9274   2.9737   2.9993
     3.1861   3.2475   3.3884   3.4741   3.5777   3.7388   3.8929   5.5689
     5.5929   5.6388   5.6750   5.7829   5.8419   6.5441   6.7899   7.1778
     8.0965   8.6867   8.7290   8.8767   9.2761   9.3818   9.7762   9.7810

[...]

          k =-0.0916-0.0528 0.0000 ( 16096 PWs)   bands (ev):

[...]

     the Fermi energy is     1.9946 ev

!    total energy              =   -2133.05177718 Ry
     Harris-Foulkes estimate   =   -2133.05178795 Ry
     estimated scf accuracy    <       0.00000052 Ry

     The total energy is the sum of the following terms:

     one-electron contribution =  -18622.71477056 Ry
     hartree contribution      =    9346.29637912 Ry
     xc contribution           =    -497.70587738 Ry
     ewald contribution        =    7641.18421022 Ry
     electric field correction =       0.00000000 Ry
     smearing contrib. (-TS)   =      -0.11171858 Ry

     convergence has been achieved in  17 iterations

 BEEF-vdW xc energy contributions
           1 :   -438.167185495370
           2 :    405.747851967419
           3 :   -348.507416684908
           4 :    278.862225869078
           5 :   -209.992903283450
           6 :    152.115357090549
           7 :   -110.235496279460
           8 :    83.9010828918110
[...]

     Program PWSCF v.5.1rc2 (svn rev. 11289) starts on 19Dec2018 at  3: 4:40

[...]

     Total force =     0.040749     Total SCF correction =     0.005000
     SCF correction compared to forces is large: reduce conv_thr to get better values

[...]

   This run was terminated on:   3: 9:51  19Dec2018

[...]

     Program PWSCF v.5.1rc2 (svn rev. 11289) starts on 19Dec2018 at  3: 9:57

     Current dimensions of program PWSCF are:
     Max number of different atomic species (ntypx) = 10
     Max number of k-points (npk) =  40000
     Max angular momentum in pseudopotentials (lmaxx) =  3
     Presently stress not available with electric field

     IMPORTANT: XC functional enforced from input :
     Exchange-correlation      = BEEF-VDW ( 1  4 27 13 2)
     Any further DFT definition will be discarded
     Please, verify this is what you really want

     Subspace diagonalization in iterative solution of the eigenvalue problem:
     a serial algorithm will be used

     Found symmetry operation: I + ( -0.5000  0.0000  0.0000)
     This is a supercell, fractional translations are disabled

     bravais-lattice index     =            0
     lattice parameter (alat)  =       1.8897  a.u.
     unit-cell volume          =    4270.2283 (a.u.)^3
     number of atoms/cell      =           12
     number of atomic types    =            2
     number of electrons       =       180.00
     number of Kohn-Sham states=          120
     kinetic-energy cutoff     =      36.7493  Ry
     charge density cutoff     =     367.4932  Ry
     convergence threshold     =      1.0E-06
     mixing beta               =       0.1000
     number of iterations used =           10  plain     mixing
     Exchange-correlation      = BEEF-VDW ( 1  4 27 13 2)
     nstep                     =           50

     celldm(1)=   1.889726  celldm(2)=   0.000000  celldm(3)=   0.000000
     celldm(4)=   0.000000  celldm(5)=   0.000000  celldm(6)=   0.000000

     crystal axes: (cart. coord. in units of alat)
               a(1) = (   5.460241   0.000000   0.000000 )
               a(2) = (  -2.730121   4.737444   0.000000 )
               a(3) = (   0.000000   0.000000  24.462373 )

     reciprocal axes: (cart. coord. in units 2 pi/alat)
               b(1) = (  0.183142  0.105542  0.000000 )
               b(2) = (  0.000000  0.211084  0.000000 )
               b(3) = (  0.000000  0.000000  0.040879 )

     PseudoPot. # 1 for Rh read from file:
     /afs/slac.stanford.edu/u/if/mamunm/psp/gbrv1.5pbe/Rh.UPF
     MD5 check sum: 761627e959a2e3a1f56b0b5fe687810e
     Pseudo is Ultrasoft + core correction, Zval = 15.0
     Generated by new atomic code, or converted to UPF format
     Using radial grid of  969 points,  7 beta functions with:
                l(1) =   0
                l(2) =   0
                l(3) =   1
                l(4) =   1
                l(5) =   2
                l(6) =   2
                l(7) =   2
     Q(r) pseudized with  8 coefficients,  rinner =    1.200   1.200   1.200
                                                       1.200   1.200

     PseudoPot. # 2 for Ir read from file:
     /afs/slac.stanford.edu/u/if/mamunm/psp/gbrv1.5pbe/Ir.UPF
     MD5 check sum: 8836f839c3459d2b385c504ce6d91f2c
     Pseudo is Ultrasoft + core correction, Zval = 15.0
     Generated by new atomic code, or converted to UPF format
     Using radial grid of  983 points,  7 beta functions with:
                l(1) =   0
                l(2) =   0
                l(3) =   1
                l(4) =   1
                l(5) =   1
                l(6) =   2
                l(7) =   2
     Q(r) pseudized with  8 coefficients,  rinner =    1.400   1.400   1.400
                                                       1.400   1.400

     vdW kernel table read from file vdW_kernel_table
     MD5 check sum: 095c7af220d748ca6e76c0b4c6cfb241

     atomic species   valence    mass     pseudopotential
        Rh1           15.00   102.90550     Rh( 1.00)
        Ir1           15.00   192.21700     Ir( 1.00)

     No symmetry found

   Cartesian axes

     site n.     atom                  positions (alat units)
         1           Rh1 tau(   1) = (   0.0000000   0.0000000  10.0000000  )
         2           Rh1 tau(   2) = (   2.7301206   0.0000000  10.0000000  )
         3           Ir1 tau(   3) = (   1.3650603   2.3687219  10.0000000  )
         4           Ir1 tau(   4) = (  -1.3650603   2.3687219  10.0000000  )
         5           Rh1 tau(   5) = (   2.7301206   1.5733291  12.2311867  )
         6           Rh1 tau(   6) = (  -0.0000000   1.5733291  12.2311867  )
         7           Ir1 tau(   7) = (  -1.3650603   3.9420511  12.2311867  )
         8           Ir1 tau(   8) = (   1.3650603   3.9420511  12.2311867  )
         9           Rh1 tau(   9) = (  -0.0000000   3.1500376  14.4284240  )
        10           Rh1 tau(  10) = (   2.7301201   3.1500381  14.4284314  )
        11           Ir1 tau(  11) = (   4.0951773   0.7688252  14.3893965  )
        12           Ir1 tau(  12) = (   1.3650625   0.7688243  14.3893978  )

     number of k points=    20  Fermi-Dirac smearing, width (Ry)=  0.0110
                       cart. coord. in units 2pi/alat
        k(    1) = (   0.0000000   0.0000000   0.0000000), wk =   0.0555556
        k(    2) = (   0.0000000   0.0351807   0.0000000), wk =   0.1111111
        k(    3) = (   0.0000000   0.0703614   0.0000000), wk =   0.1111111
        k(    4) = (   0.0000000  -0.1055421   0.0000000), wk =   0.0555556
        k(    5) = (   0.0305237   0.0175904   0.0000000), wk =   0.1111111
        k(    6) = (   0.0305237   0.0527711   0.0000000), wk =   0.1111111
        k(    7) = (   0.0305237   0.0879518   0.0000000), wk =   0.1111111
        k(    8) = (   0.0305237  -0.0879518   0.0000000), wk =   0.1111111
        k(    9) = (   0.0305237  -0.0527711   0.0000000), wk =   0.1111111
        k(   10) = (   0.0305237  -0.0175904   0.0000000), wk =   0.1111111
        k(   11) = (   0.0610474   0.0351807   0.0000000), wk =   0.1111111
        k(   12) = (   0.0610474   0.0703614   0.0000000), wk =   0.1111111
        k(   13) = (   0.0610474   0.1055421   0.0000000), wk =   0.1111111
        k(   14) = (   0.0610474  -0.0703614   0.0000000), wk =   0.1111111
        k(   15) = (   0.0610474  -0.0351807   0.0000000), wk =   0.1111111
        k(   16) = (   0.0610474   0.0000000   0.0000000), wk =   0.1111111
        k(   17) = (  -0.0915710  -0.0527711   0.0000000), wk =   0.0555556
        k(   18) = (  -0.0915710  -0.0175904   0.0000000), wk =   0.1111111
        k(   19) = (  -0.0915710   0.0175904   0.0000000), wk =   0.1111111
        k(   20) = (  -0.0915710  -0.1583132   0.0000000), wk =   0.0555556

     Largest allocated arrays     est. size (Mb)     dimensions
     Largest temporary arrays     est. size (Mb)     dimensions

     Initial potential from superposition of free atoms
     Check: negative starting charge=   -2.506993

     starting charge  173.99922, renormalised to  180.00000

[...]

     *
     * You are using vdW-DF for exchange-correlation in this calculation.
     * Please cite the following three references that made this development
     * possible:
     *
     *   M. Dion, H. Rydberg, E. Schroder, D. C. Langreth, and
     *   B. I. Lundqvist, Phys. Rev. Lett. 92, 246401 (2004).
     *
     *   T. Thonhauser, V. R. Cooper, S. Li, A. Puzder, P. Hyldgaard, and
     *   D. C. Langreth, Phys. Rev. B 76, 125112 (2007).
     *
     *   G. Roman-Perez and J. M. Soler, Phys. Rev. Lett. 103, 096102 (2009).
     *
     *
     * If you are using vdW-DF2, please also cite:
     *
     *   K. Lee, E. D. Murray, L. Kong, B. I. Lundqvist, and
     *   D. C. Langreth, Phys. Rev. B 82, 081101(R) (2010).
     *
     *
     * If you are calculating the stress with vdW-DF, please also cite:
     *
     *   R. Sabatini, E. Kucukbenli, B. Kolb, T. Thonhauser, and
     *   S. de Gironcoli, J. Phys.: Condens. Matter 24, 424209 (2012).
     *

     Carrying out vdW-DF run using the following parameters:

     Nqs =      20    Nr_points =    1024   r_max =   100.000
     q_mesh =
               0.00001000     0.04494208     0.09755937     0.15916263
               0.23128650     0.31572767     0.41458969     0.53033537
               0.66584808     0.82450364     1.01025438     1.22772762
               1.48234092     1.78043706     2.12944203     2.53805004
               3.01644009     3.57652955     4.23227104     5.00000000

     Gradients computed in reciprocal space

[...]

     Starting wfc are  144 randomized atomic wfcs

     Self-consistent Calculation

[...]

     total energy              =   -2133.05573480 Ry
     Harris-Foulkes estimate   =   -2133.05573208 Ry
     estimated scf accuracy    <       0.00000136 Ry

     iteration # 17     ecut=    36.75 Ry     beta=0.10
     Davidson diagonalization with overlap
     ethr =  7.55E-10,  avg # of iterations =  3.1

[...]

     negative rho (up, down):  2.285E+00 0.000E+00

     Adding external electric field

     Computed dipole along edir(3) :
        Dipole                0.0033 Ry au,          0.0083 Debye
        Dipole field          0.0000 Ry au

        Potential amp.       -0.0009 Ry
        Total length         45.0715 bohr

     End of self-consistent calculation

[...]

          k = 0.0610 0.0000 0.0000 ( 16086 PWs)   bands (ev):

[...]

          k =-0.0916-0.1583 0.0000 ( 16096 PWs)   bands (ev):

   -47.7147 -47.7147 -47.6170 -47.6170 -47.6094 -47.6094 -47.2032 -47.2032
   -47.1564 -47.1564 -47.1227 -47.1226 -47.0844 -47.0844 -47.0658 -47.0658
   -46.9594 -46.9594 -44.9789 -44.9789 -44.9386 -44.9386 -44.9272 -44.9272
   -44.5418 -44.5417 -44.5110 -44.5110 -44.5075 -44.5075 -44.4753 -44.4752
   -44.3723 -44.3722 -44.3217 -44.3216  -4.5580  -4.5580  -3.4221  -3.4220
    -3.1959  -3.1959  -3.0988  -3.0988  -2.9197  -2.9197  -2.6575  -2.6575
    -2.3327  -2.3327  -2.2253  -2.2253  -1.8707  -1.8707  -1.7864  -1.7864
    -1.5196  -1.5196  -1.0891  -1.0891  -0.7940  -0.7940  -0.6756  -0.6756
    -0.5980  -0.5980  -0.4926  -0.4926  -0.3514  -0.3514  -0.2580  -0.2579
    -0.2063  -0.2062  -0.1121  -0.1121   0.3424   0.3424   0.6013   0.6014
     0.7243   0.7243   0.9437   0.9437   1.1071   1.1071   1.2485   1.2485
     1.5955   1.5955   1.6979   1.6979   1.8319   1.8319   2.3235   2.3235
     2.6074   2.6074   2.8758   2.8758   4.2770   4.2770   5.1668   5.1668
     5.9470   5.9470   6.7855   6.7856   7.8824   7.8824   8.1582   8.1582
     8.7528   8.7528   8.8069   8.8069   9.9585   9.9585  10.2661  10.2661

     the Fermi energy is     2.0178 ev

!    total energy              =   -2133.05572909 Ry
     Harris-Foulkes estimate   =   -2133.05573503 Ry
     estimated scf accuracy    <       0.00000071 Ry

     The total energy is the sum of the following terms:

     one-electron contribution =  -18765.60471734 Ry
     hartree contribution      =    9417.68269715 Ry
     xc contribution           =    -497.81899452 Ry
     ewald contribution        =    7712.79466894 Ry
     electric field correction =       0.00000003 Ry
     smearing contrib. (-TS)   =      -0.10938335 Ry

     convergence has been achieved in  17 iterations

 BEEF-vdW xc energy contributions
           1 :   -438.285802223281
           2 :    405.921314398614
           3 :   -348.756348393496
           4 :    279.157614250781
           5 :   -210.267104341174
           6 :    152.294187968958
           7 :   -110.275909814627
           8 :    83.8155411851516
           9 :   -68.5922778188234
          10 :    58.8314046345370
          11 :   -49.6968856616291
          12 :    38.7578202867861
          13 :   -26.1856605886098
          14 :    13.8860635563070
          15 :   -4.14110186667818
          16 :   -1.59534203386704
          17 :    3.29427386236802
          18 :   -2.21682909907673
          19 :   0.238661156338765
          20 :   0.979321251600823
          21 :  -0.592472021651815
          22 :   -1.26650997390658
          23 :    3.75233744444358
          24 :   -5.81561995173422
          25 :    6.70452419101235
          26 :   -6.25275344642404
          27 :    4.86575906903369
          28 :   -3.26041153551859
          29 :    2.11182588254434
          30 :   -1.77828376159965
          31 :   -39.6230596331548
          32 :   -29.7216120513709

     Forces acting on atoms (Ry/au):

     negative rho (up, down):  2.285E+00 0.000E+00
     atom    1 type  1   force =    -0.00000012   -0.00414825    0.00752793
     atom    2 type  1   force =     0.00000012   -0.00414713    0.00752360
     atom    3 type  2   force =     0.00000030    0.00504694    0.02043473
     atom    4 type  2   force =     0.00000019    0.00504639    0.02043446
     atom    5 type  1   force =    -0.00000033    0.00272139   -0.01515148
     atom    6 type  1   force =     0.00000012    0.00272261   -0.01515121
     atom    7 type  2   force =    -0.00000483   -0.00312660   -0.01359097
     atom    8 type  2   force =     0.00000469   -0.00312642   -0.01359130
     atom    9 type  1   force =    -0.00000028    0.00049388   -0.00026723
     atom   10 type  1   force =    -0.00000017    0.00049656   -0.00027333
     atom   11 type  2   force =     0.00000146   -0.00098957    0.00105275
     atom   12 type  2   force =    -0.00000115   -0.00098980    0.00105205

     Total force =     0.043606     Total SCF correction =     0.003576

     entering subroutine stress ...

     negative rho (up, down):  2.285E+00 0.000E+00
          total   stress  (Ry/bohr**3)                   (kbar)     P=  -32.81
  -0.00025949  -0.00000000   0.00000000        -38.17     -0.00      0.00
  -0.00000000  -0.00024900  -0.00000254         -0.00    -36.63     -0.37
   0.00000000  -0.00000254  -0.00016059          0.00     -0.37    -23.62

 !ASE

     Writing output data file calc.save

     General routines

     Parallel routines

   This run was terminated on:   3:15: 6  19Dec2018

   JOB DONE.
Job  /afs/slac/g/suncat/bin/suncat-tsmpirun -x LD_LIBRARY_PATH -wdir /scratch/qe530472_QuvOM pw.x -in pw.inp

TID   HOST_NAME   COMMAND_LINE            STATUS            TERMINATION_TIME
00000 suncat2040 pw.x -in pw.inp   Done                     12/19/2018 03:15:06
00001 suncat2040 pw.x -in pw.inp   Done                     12/19/2018 03:15:06
00002 suncat2040 pw.x -in pw.inp   Done                     12/19/2018 03:15:06
00003 suncat2040 pw.x -in pw.inp   Done                     12/19/2018 03:15:06
00004 suncat2040 pw.x -in pw.inp   Done                     12/19/2018 03:15:06
00005 suncat2040 pw.x -in pw.inp   Done                     12/19/2018 03:15:06
00006 suncat2040 pw.x -in pw.inp   Done                     12/19/2018 03:15:06
00007 suncat2040 pw.x -in pw.inp   Done                     12/19/2018 03:15:06
00008 suncat2040 pw.x -in pw.inp   Done                     12/19/2018 03:15:06
00009 suncat2040 pw.x -in pw.inp   Done                     12/19/2018 03:15:06
00010 suncat2040 pw.x -in pw.inp   Done                     12/19/2018 03:15:06
00011 suncat2040 pw.x -in pw.inp   Done                     12/19/2018 03:15:06
00012 suncat2040 pw.x -in pw.inp   Done                     12/19/2018 03:15:06
00013 suncat2040 pw.x -in pw.inp   Done                     12/19/2018 03:15:06
00014 suncat2040 pw.x -in pw.inp   Done                     12/19/2018 03:15:06
00015 suncat2040 pw.x -in pw.inp   Done                     12/19/2018 03:15:06
00016 suncat2039 pw.x -in pw.inp   Done                     12/19/2018 03:15:06
00017 suncat2039 pw.x -in pw.inp   Done                     12/19/2018 03:15:06
00018 suncat2039 pw.x -in pw.inp   Done                     12/19/2018 03:15:06
00019 suncat2039 pw.x -in pw.inp   Done                     12/19/2018 03:15:06
00020 suncat2039 pw.x -in pw.inp   Done                     12/19/2018 03:15:06
00021 suncat2039 pw.x -in pw.inp   Done                     12/19/2018 03:15:06
00022 suncat2039 pw.x -in pw.inp   Done                     12/19/2018 03:15:06
00023 suncat2039 pw.x -in pw.inp   Done                     12/19/2018 03:15:06
00024 suncat2039 pw.x -in pw.inp   Done                     12/19/2018 03:15:06
00025 suncat2039 pw.x -in pw.inp   Done                     12/19/2018 03:15:06
00026 suncat2039 pw.x -in pw.inp   Done                     12/19/2018 03:15:06
00027 suncat2039 pw.x -in pw.inp   Done                     12/19/2018 03:15:06
00028 suncat2039 pw.x -in pw.inp   Done                     12/19/2018 03:15:06
00029 suncat2039 pw.x -in pw.inp   Done                     12/19/2018 03:15:06
00030 suncat2039 pw.x -in pw.inp   Done                     12/19/2018 03:15:06
00031 suncat2039 pw.x -in pw.inp   Done                     12/19/2018 03:15:06