     Program PWSCF v.5.1rc2 (svn rev. 11289) starts on 18Dec2018 at 17:43:10

     Current dimensions of program PWSCF are:
     Max number of different atomic species (ntypx) = 10
     Max number of k-points (npk) =  40000
     Max angular momentum in pseudopotentials (lmaxx) =  3
     Presently stress not available with electric field

     IMPORTANT: XC functional enforced from input :
     Exchange-correlation      = BEEF-VDW ( 1  4 27 13 2)
     Any further DFT definition will be discarded
     Please, verify this is what you really want

     Subspace diagonalization in iterative solution of the eigenvalue problem:
     a serial algorithm will be used

     Found symmetry operation: I + ( -0.5000 -0.5000  0.0000)
     This is a supercell, fractional translations are disabled

     bravais-lattice index     =            0
     lattice parameter (alat)  =       1.8897  a.u.
     unit-cell volume          =    6586.6846 (a.u.)^3
     number of atoms/cell      =           12
     number of atomic types    =            2
     number of electrons       =       102.00
     number of Kohn-Sham states=           81
     kinetic-energy cutoff     =      36.7493  Ry
     charge density cutoff     =     367.4932  Ry
     convergence threshold     =      1.0E-06
     mixing beta               =       0.1000
     number of iterations used =           10  plain     mixing
     Exchange-correlation      = BEEF-VDW ( 1  4 27 13 2)
     nstep                     =           50

     celldm(1)=   1.889726  celldm(2)=   0.000000  celldm(3)=   0.000000
     celldm(4)=   0.000000  celldm(5)=   0.000000  celldm(6)=   0.000000

     crystal axes: (cart. coord. in units of alat)
               a(1) = (   6.505364   0.000000   0.000000 )
               a(2) = (   2.719805   5.909519   0.000000 )
               a(3) = (   0.000000   0.000000  25.389054 )

     reciprocal axes: (cart. coord. in units 2 pi/alat)
               b(1) = (  0.153719 -0.070748  0.000000 )
               b(2) = (  0.000000  0.169218  0.000000 )
               b(3) = (  0.000000  0.000000  0.039387 )

     PseudoPot. # 1 for Al read from file:
     /afs/slac.stanford.edu/u/if/mamunm/psp/gbrv1.5pbe/Al.UPF
     MD5 check sum: 0a6289f5291fc8f409219462bc851e1f
     Pseudo is Ultrasoft + core correction, Zval =  3.0
     Generated by new atomic code, or converted to UPF format
     Using radial grid of  893 points,  3 beta functions with:
                l(1) =   0
                l(2) =   1
                l(3) =   2
     Q(r) pseudized with  8 coefficients,  rinner =    0.900   0.900   0.900
                                                       0.900   0.900

     PseudoPot. # 2 for Pb read from file:
     /afs/slac.stanford.edu/u/if/mamunm/psp/gbrv1.5pbe/Pb.UPF
     MD5 check sum: 3d1c1779aa92214d1e8f3a7db79003e2
     Pseudo is Ultrasoft + core correction, Zval = 14.0
     Generated by new atomic code, or converted to UPF format
     Using radial grid of  899 points,  6 beta functions with:
                l(1) =   0
                l(2) =   0
                l(3) =   1
                l(4) =   1
                l(5) =   2
                l(6) =   2
     Q(r) pseudized with  6 coefficients,  rinner =    1.000   1.000   1.000
                                                       1.000   1.000

     vdW kernel table read from file vdW_kernel_table
     MD5 check sum: 095c7af220d748ca6e76c0b4c6cfb241

     atomic species   valence    mass     pseudopotential
        Al1            3.00    26.98154     Al( 1.00)
        Pb1           14.00   207.20000     Pb( 1.00)

     No symmetry found

   Cartesian axes

     site n.     atom                  positions (alat units)
         1           Al1 tau(   1) = (   0.0000000   0.0000000  10.0000000  )
         2           Al1 tau(   2) = (   4.6125842   2.9547597  10.0000000  )
         3           Pb1 tau(   3) = (   3.2526819   0.0000000  10.0000000  )
         4           Pb1 tau(   4) = (   1.3599023   2.9547597  10.0000000  )
         5           Al1 tau(   5) = (   6.5053638   4.1672490  12.6945268  )
         6           Al1 tau(   6) = (   1.8927795   1.2124892  12.6945268  )
         7           Pb1 tau(   7) = (   3.2526819   4.1672490  12.6945268  )
         8           Pb1 tau(   8) = (   5.1454614   1.2124892  12.6945268  )
         9           Al1 tau(   9) = (   3.7855591   2.4249785  15.3890537  )
        10           Al1 tau(  10) = (   8.3981433   5.3797382  15.3890537  )
        11           Pb1 tau(  11) = (   7.0382410   2.4249785  15.3890537  )
        12           Pb1 tau(  12) = (   5.1454614   5.3797382  15.3890537  )

     number of k points=    20  Fermi-Dirac smearing, width (Ry)=  0.0110
                       cart. coord. in units 2pi/alat
        k(    1) = (   0.0000000   0.0000000   0.0000000), wk =   0.0555556
        k(    2) = (   0.0000000   0.0282031   0.0000000), wk =   0.1111111
        k(    3) = (   0.0000000   0.0564062   0.0000000), wk =   0.1111111
        k(    4) = (   0.0000000  -0.0846092   0.0000000), wk =   0.0555556
        k(    5) = (   0.0256199  -0.0117913   0.0000000), wk =   0.1111111
        k(    6) = (   0.0256199   0.0164118   0.0000000), wk =   0.1111111
        k(    7) = (   0.0256199   0.0446148   0.0000000), wk =   0.1111111
        k(    8) = (   0.0256199  -0.0964006   0.0000000), wk =   0.1111111
        k(    9) = (   0.0256199  -0.0681975   0.0000000), wk =   0.1111111
        k(   10) = (   0.0256199  -0.0399944   0.0000000), wk =   0.1111111
        k(   11) = (   0.0512398  -0.0235827   0.0000000), wk =   0.1111111
        k(   12) = (   0.0512398   0.0046204   0.0000000), wk =   0.1111111
        k(   13) = (   0.0512398   0.0328235   0.0000000), wk =   0.1111111
        k(   14) = (   0.0512398  -0.1081919   0.0000000), wk =   0.1111111
        k(   15) = (   0.0512398  -0.0799888   0.0000000), wk =   0.1111111
        k(   16) = (   0.0512398  -0.0517857   0.0000000), wk =   0.1111111
        k(   17) = (  -0.0768597   0.0353740   0.0000000), wk =   0.0555556
        k(   18) = (  -0.0768597   0.0635771   0.0000000), wk =   0.1111111
        k(   19) = (  -0.0768597   0.0917801   0.0000000), wk =   0.1111111
        k(   20) = (  -0.0768597  -0.0492353   0.0000000), wk =   0.0555556

     Largest allocated arrays     est. size (Mb)     dimensions
     Largest temporary arrays     est. size (Mb)     dimensions

     Initial potential from superposition of free atoms
     Check: negative starting charge=   -0.101060

     starting charge  101.97110, renormalised to  102.00000

     negative rho (up, down):  1.011E-01 0.000E+00

     *
     * You are using vdW-DF for exchange-correlation in this calculation.
     * Please cite the following three references that made this development
     * possible:
     *
     *   M. Dion, H. Rydberg, E. Schroder, D. C. Langreth, and
     *   B. I. Lundqvist, Phys. Rev. Lett. 92, 246401 (2004).
     *
     *   T. Thonhauser, V. R. Cooper, S. Li, A. Puzder, P. Hyldgaard, and
     *   D. C. Langreth, Phys. Rev. B 76, 125112 (2007).
     *
     *   G. Roman-Perez and J. M. Soler, Phys. Rev. Lett. 103, 096102 (2009).
     *
     *
     * If you are using vdW-DF2, please also cite:
     *
     *   K. Lee, E. D. Murray, L. Kong, B. I. Lundqvist, and
     *   D. C. Langreth, Phys. Rev. B 82, 081101(R) (2010).
     *
     *
     * If you are calculating the stress with vdW-DF, please also cite:
     *
     *   R. Sabatini, E. Kucukbenli, B. Kolb, T. Thonhauser, and
     *   S. de Gironcoli, J. Phys.: Condens. Matter 24, 424209 (2012).
     *

     Carrying out vdW-DF run using the following parameters:

     Nqs =      20    Nr_points =    1024   r_max =   100.000
     q_mesh =
               0.00001000     0.04494208     0.09755937     0.15916263
               0.23128650     0.31572767     0.41458969     0.53033537
               0.66584808     0.82450364     1.01025438     1.22772762
               1.48234092     1.78043706     2.12944203     2.53805004
               3.01644009     3.57652955     4.23227104     5.00000000

     Gradients computed in reciprocal space

     Adding external electric field

     Computed dipole along edir(3) :
        Dipole               -0.0000 Ry au,         -0.0000 Debye
        Dipole field         -0.0000 Ry au

        Potential amp.        0.0000 Ry
        Total length         46.7789 bohr

     Starting wfc are   78 randomized atomic wfcs +    3 random wfc

     Self-consistent Calculation

     iteration #  1     ecut=    36.75 Ry     beta=0.10
     Davidson diagonalization with overlap
     ethr =  1.00E-02,  avg # of iterations =  6.3

     Threshold (ethr) on eigenvalues was too large:
     Diagonalizing with lowered threshold

     Davidson diagonalization with overlap
     ethr =  2.48E-04,  avg # of iterations =  7.3

[...]

     total energy              =   -1037.04479593 Ry
     Harris-Foulkes estimate   =   -1037.08330785 Ry
     estimated scf accuracy    <       0.25529204 Ry

[...]

     End of self-consistent calculation

          k = 0.0000 0.0000 0.0000 ( 24775 PWs)   bands (ev):

   -17.3174 -17.3033 -17.2477 -17.2337 -17.2240 -17.2220 -17.2205 -17.2059
   -17.2041 -17.1891 -17.1808 -17.1778 -17.1738 -17.1734 -17.1661 -17.1527
   -17.1476 -17.1272 -17.1265 -17.1222 -17.1151 -17.0831 -17.0672 -17.0607
   -17.0591 -17.0308 -17.0238 -17.0194 -17.0058 -16.9394 -10.5633  -9.5333
    -8.3394  -7.8435  -7.5354  -7.0681  -4.3821  -4.3327  -4.2883  -4.1798
    -3.2566  -3.1543  -3.0292  -3.0237  -2.8500  -2.5037  -2.3398  -1.7412
    -1.6876  -1.4573  -1.1604  -0.9715   0.2513   1.0488   1.5624   1.8433
     1.8774   2.3065   2.3211   2.5177   2.9388   3.3223   3.4958   3.5101
     3.8618   3.9889   4.2119   4.5392   4.7012   4.9529   5.0718   5.2284
     5.2472   5.4772   5.5826   5.6064   5.6705   5.7542   5.8420   6.1832
     6.2488

[...]

          k =-0.0769 0.0354 0.0000 ( 24778 PWs)   bands (ev):

[...]

     the Fermi energy is     0.1326 ev

!    total energy              =   -1037.05512859 Ry
     Harris-Foulkes estimate   =   -1037.05510139 Ry
     estimated scf accuracy    <       0.00000022 Ry

     The total energy is the sum of the following terms:

     one-electron contribution =   -3943.67181165 Ry
     hartree contribution      =    2007.49353132 Ry
     xc contribution           =    -417.64519434 Ry
     ewald contribution        =    1316.80374921 Ry
     electric field correction =       0.00000000 Ry
     smearing contrib. (-TS)   =      -0.03540313 Ry

     convergence has been achieved in  12 iterations

 BEEF-vdW xc energy contributions
           1 :   -370.479159306734
           2 :    342.449832145484
           3 :   -293.793372812509
           4 :    235.993546627424
           5 :   -180.134830376836
           6 :    133.488624416612
           7 :   -98.3573997028725
           8 :    73.0790567753757
           9 :   -54.1681564028562
          10 :    38.3695361779529
          11 :   -23.8610779979036
          12 :    10.4668111002097
          13 :   0.847661936993404
          14 :   -8.82595928057219
          15 :    12.7728838975700
          16 :   -13.0908712312755
[...]

[...]

     Total force =     0.030762     Total SCF correction =     0.003715
     SCF correction compared to forces is large: reduce conv_thr to get better values

[...]

     iteration #  7     ecut=    36.75 Ry     beta=0.10
     Davidson diagonalization with overlap
     c_bands:  1 eigenvalues not converged
     ethr =  2.08E-06,  avg # of iterations =  1.9

[...]

     Program PWSCF v.5.1rc2 (svn rev. 11289) starts on 18Dec2018 at 19:58:20

[...]

   This run was terminated on:  20:11: 2  18Dec2018

[...]

     Total force =     0.026041     Total SCF correction =     0.002882
     SCF correction compared to forces is large: reduce conv_thr to get better values

[...]

   This run was terminated on:  20:49:59  18Dec2018

[...]

     Program PWSCF v.5.1rc2 (svn rev. 11289) starts on 18Dec2018 at 20:50: 5

     Current dimensions of program PWSCF are:
     Max number of different atomic species (ntypx) = 10
     Max number of k-points (npk) =  40000
     Max angular momentum in pseudopotentials (lmaxx) =  3
     Presently stress not available with electric field

     IMPORTANT: XC functional enforced from input :
     Exchange-correlation      = BEEF-VDW ( 1  4 27 13 2)
     Any further DFT definition will be discarded
     Please, verify this is what you really want

     Subspace diagonalization in iterative solution of the eigenvalue problem:
     a serial algorithm will be used

     bravais-lattice index     =            0
     lattice parameter (alat)  =       1.8897  a.u.
     unit-cell volume          =    6586.6846 (a.u.)^3
     number of atoms/cell      =           12
     number of atomic types    =            2
     number of electrons       =       102.00
     number of Kohn-Sham states=           81
     kinetic-energy cutoff     =      36.7493  Ry
     charge density cutoff     =     367.4932  Ry
     convergence threshold     =      1.0E-06
     mixing beta               =       0.1000
     number of iterations used =           10  plain     mixing
     Exchange-correlation      = BEEF-VDW ( 1  4 27 13 2)
     nstep                     =           50

     celldm(1)=   1.889726  celldm(2)=   0.000000  celldm(3)=   0.000000
     celldm(4)=   0.000000  celldm(5)=   0.000000  celldm(6)=   0.000000

     crystal axes: (cart. coord. in units of alat)
               a(1) = (   6.505364   0.000000   0.000000 )
               a(2) = (   2.719805   5.909519   0.000000 )
               a(3) = (   0.000000   0.000000  25.389054 )

     reciprocal axes: (cart. coord. in units 2 pi/alat)
               b(1) = (  0.153719 -0.070748  0.000000 )
               b(2) = (  0.000000  0.169218  0.000000 )
               b(3) = (  0.000000  0.000000  0.039387 )

     PseudoPot. # 1 for Al read from file:
     /afs/slac.stanford.edu/u/if/mamunm/psp/gbrv1.5pbe/Al.UPF
     MD5 check sum: 0a6289f5291fc8f409219462bc851e1f
     Pseudo is Ultrasoft + core correction, Zval =  3.0
     Generated by new atomic code, or converted to UPF format
     Using radial grid of  893 points,  3 beta functions with:
                l(1) =   0
                l(2) =   1
                l(3) =   2
     Q(r) pseudized with  8 coefficients,  rinner =    0.900   0.900   0.900
                                                       0.900   0.900

     PseudoPot. # 2 for Pb read from file:
     /afs/slac.stanford.edu/u/if/mamunm/psp/gbrv1.5pbe/Pb.UPF
     MD5 check sum: 3d1c1779aa92214d1e8f3a7db79003e2
     Pseudo is Ultrasoft + core correction, Zval = 14.0
     Generated by new atomic code, or converted to UPF format
     Using radial grid of  899 points,  6 beta functions with:
                l(1) =   0
                l(2) =   0
                l(3) =   1
                l(4) =   1
                l(5) =   2
                l(6) =   2
     Q(r) pseudized with  6 coefficients,  rinner =    1.000   1.000   1.000
                                                       1.000   1.000

     vdW kernel table read from file vdW_kernel_table
     MD5 check sum: 095c7af220d748ca6e76c0b4c6cfb241

     atomic species   valence    mass     pseudopotential
        Al1            3.00    26.98154     Al( 1.00)
        Pb1           14.00   207.20000     Pb( 1.00)

     No symmetry found

   Cartesian axes

     site n.     atom                  positions (alat units)
         1           Al1 tau(   1) = (   0.0000000   0.0000000  10.0000000  )
         2           Al1 tau(   2) = (   4.6125842   2.9547597  10.0000000  )
         3           Pb1 tau(   3) = (   3.2526819   0.0000000  10.0000000  )
         4           Pb1 tau(   4) = (   1.3599023   2.9547597  10.0000000  )
         5           Al1 tau(   5) = (   6.5053638   4.1672490  12.6945268  )
         6           Al1 tau(   6) = (   1.8927795   1.2124892  12.6945268  )
         7           Pb1 tau(   7) = (   3.2526819   4.1672490  12.6945268  )
         8           Pb1 tau(   8) = (   5.1454614   1.2124892  12.6945268  )
         9           Al1 tau(   9) = (   3.2530205   2.0838576  15.0107326  )
        10           Al1 tau(  10) = (   7.8665552   5.0392020  15.0108017  )
        11           Pb1 tau(  11) = (   6.6356191   2.1664042  15.5171761  )
        12           Pb1 tau(  12) = (   4.7423052   5.1220468  15.5173333  )

     number of k points=    20  Fermi-Dirac smearing, width (Ry)=  0.0110
                       cart. coord. in units 2pi/alat
        k(    1) = (   0.0000000   0.0000000   0.0000000), wk =   0.0555556
        k(    2) = (   0.0000000   0.0282031   0.0000000), wk =   0.1111111
        k(    3) = (   0.0000000   0.0564062   0.0000000), wk =   0.1111111
        k(    4) = (   0.0000000  -0.0846092   0.0000000), wk =   0.0555556
        k(    5) = (   0.0256199  -0.0117913   0.0000000), wk =   0.1111111
        k(    6) = (   0.0256199   0.0164118   0.0000000), wk =   0.1111111
        k(    7) = (   0.0256199   0.0446148   0.0000000), wk =   0.1111111
        k(    8) = (   0.0256199  -0.0964006   0.0000000), wk =   0.1111111
        k(    9) = (   0.0256199  -0.0681975   0.0000000), wk =   0.1111111
        k(   10) = (   0.0256199  -0.0399944   0.0000000), wk =   0.1111111
        k(   11) = (   0.0512398  -0.0235827   0.0000000), wk =   0.1111111
        k(   12) = (   0.0512398   0.0046204   0.0000000), wk =   0.1111111
        k(   13) = (   0.0512398   0.0328235   0.0000000), wk =   0.1111111
        k(   14) = (   0.0512398  -0.1081919   0.0000000), wk =   0.1111111
        k(   15) = (   0.0512398  -0.0799888   0.0000000), wk =   0.1111111
        k(   16) = (   0.0512398  -0.0517857   0.0000000), wk =   0.1111111
        k(   17) = (  -0.0768597   0.0353740   0.0000000), wk =   0.0555556
        k(   18) = (  -0.0768597   0.0635771   0.0000000), wk =   0.1111111
        k(   19) = (  -0.0768597   0.0917801   0.0000000), wk =   0.1111111
        k(   20) = (  -0.0768597  -0.0492353   0.0000000), wk =   0.0555556

     Largest allocated arrays     est. size (Mb)     dimensions
     Largest temporary arrays     est. size (Mb)     dimensions

     Initial potential from superposition of free atoms
     Check: negative starting charge=   -0.101581

     starting charge  101.97110, renormalised to  102.00000

[...]

     *
     * You are using vdW-DF for exchange-correlation in this calculation.
     * Please cite the following three references that made this development
     * possible:
     *
     *   M. Dion, H. Rydberg, E. Schroder, D. C. Langreth, and
     *   B. I. Lundqvist, Phys. Rev. Lett. 92, 246401 (2004).
     *
     *   T. Thonhauser, V. R. Cooper, S. Li, A. Puzder, P. Hyldgaard, and
     *   D. C. Langreth, Phys. Rev. B 76, 125112 (2007).
     *
     *   G. Roman-Perez and J. M. Soler, Phys. Rev. Lett. 103, 096102 (2009).
     *
     *
     * If you are using vdW-DF2, please also cite:
     *
     *   K. Lee, E. D. Murray, L. Kong, B. I. Lundqvist, and
     *   D. C. Langreth, Phys. Rev. B 82, 081101(R) (2010).
     *
     *
     * If you are calculating the stress with vdW-DF, please also cite:
     *
     *   R. Sabatini, E. Kucukbenli, B. Kolb, T. Thonhauser, and
     *   S. de Gironcoli, J. Phys.: Condens. Matter 24, 424209 (2012).
     *

     Carrying out vdW-DF run using the following parameters:

     Nqs =      20    Nr_points =    1024   r_max =   100.000
     q_mesh =
               0.00001000     0.04494208     0.09755937     0.15916263
               0.23128650     0.31572767     0.41458969     0.53033537
               0.66584808     0.82450364     1.01025438     1.22772762
               1.48234092     1.78043706     2.12944203     2.53805004
               3.01644009     3.57652955     4.23227104     5.00000000

     Gradients computed in reciprocal space

[...]

     Starting wfc are   78 randomized atomic wfcs +    3 random wfc

     Self-consistent Calculation

[...]

     Threshold (ethr) on eigenvalues was too large:
     Diagonalizing with lowered threshold

     Davidson diagonalization with overlap
     ethr =  3.22E-04,  avg # of iterations =  7.7

[...]

     total energy              =   -1037.07065903 Ry
     Harris-Foulkes estimate   =   -1037.07061806 Ry
     estimated scf accuracy    <       0.00000288 Ry

     iteration # 13     ecut=    36.75 Ry     beta=0.10
     Davidson diagonalization with overlap
     ethr =  2.82E-09,  avg # of iterations =  2.7

[...]

     negative rho (up, down):  1.084E-01 0.000E+00

     Adding external electric field

     Computed dipole along edir(3) :
        Dipole                0.0143 Ry au,          0.0364 Debye
        Dipole field          0.0000 Ry au

        Potential amp.       -0.0026 Ry
        Total length         46.7789 bohr

     End of self-consistent calculation

[...]

          k = 0.0512-0.0518 0.0000 ( 24783 PWs)   bands (ev):

[...]

          k =-0.0769-0.0492 0.0000 ( 24760 PWs)   bands (ev):

   -17.4031 -17.3223 -17.3111 -17.3062 -17.2907 -17.2864 -17.2705 -17.2641
   -17.2356 -17.2340 -17.2147 -17.2140 -17.2010 -17.1828 -17.1817 -17.1748
   -17.1660 -17.1618 -17.1451 -17.1442 -17.1365 -17.1241 -17.0908 -17.0757
   -17.0635 -17.0599 -17.0574 -17.0512 -17.0300 -16.9641  -9.9135  -9.4103
    -8.8710  -8.5173  -7.6144  -6.6339  -6.5512  -5.8979  -5.2793  -4.6873
    -4.4509  -2.5691  -1.5988  -1.3568  -1.2247  -1.1853  -0.8630  -0.6701
    -0.4995   0.2225   0.2679   0.7734   0.9903   1.0638   1.3923   1.4046
     1.4941   1.9015   2.2344   2.3609   2.5420   2.7796   2.9088   2.9998
     3.2179   3.3168   3.5790   3.5802   3.6998   3.8997   4.2634   4.4372
     4.4883   4.6764   4.6882   4.7017   5.1791   5.2182   5.2483   5.2622
     5.3455

     the Fermi energy is     0.1019 ev

!    total energy              =   -1037.07066478 Ry
     Harris-Foulkes estimate   =   -1037.07065928 Ry
     estimated scf accuracy    <       0.00000072 Ry

     The total energy is the sum of the following terms:

     one-electron contribution =   -3925.78849341 Ry
     hartree contribution      =    1998.47988949 Ry
     xc contribution           =    -417.73536886 Ry
     ewald contribution        =    1308.00719006 Ry
     electric field correction =       0.00000039 Ry
     smearing contrib. (-TS)   =      -0.03388245 Ry

     convergence has been achieved in  13 iterations

 BEEF-vdW xc energy contributions
           1 :   -370.560999579309
           2 :    342.545535111179
           3 :   -293.922695836838
           4 :    236.174632368602
           5 :   -180.369073029436
           6 :    133.753130562136
           7 :   -98.6115712557213
           8 :    73.2811898891708
           9 :   -54.2934234068208
          10 :    38.4214981640719
          11 :   -23.8702156409289
          12 :    10.4737250772324
          13 :   0.817249722561940
          14 :   -8.77912999566405
          15 :    12.7469569351155
          16 :   -13.1292888248008
          17 :    11.3646558726776
          18 :   -9.29820444210208
          19 :    8.28925972855291
          20 :   -8.58668238146805
          21 :    9.38402522893722
          22 :   -9.51941274820143
          23 :    8.33126417899621
          24 :   -6.09280929588209
          25 :    3.77880969407295
          26 :   -2.39817806099671
          27 :    2.38312440300723
          28 :   -3.41054706442043
          29 :    4.68534947887764
          30 :   -5.42912635664896
          31 :   -31.0974847355859
          32 :   -22.7298678250145

     Forces acting on atoms (Ry/au):

     negative rho (up, down):  1.084E-01 0.000E+00
     atom    1 type  1   force =     0.00344227    0.00220579    0.00965614
     atom    2 type  1   force =     0.00345194    0.00221108    0.00965335
     atom    3 type  2   force =    -0.00222212   -0.00140495    0.00430086
     atom    4 type  2   force =    -0.00220597   -0.00143069    0.00430351
     atom    5 type  1   force =    -0.00283885   -0.00181771   -0.00071560
     atom    6 type  1   force =    -0.00288815   -0.00185086   -0.00074868
     atom    7 type  2   force =     0.00267713    0.00170972   -0.01347875
     atom    8 type  2   force =     0.00266820    0.00171553   -0.01348635
     atom    9 type  1   force =     0.00008286    0.00005194    0.00135322
     atom   10 type  1   force =    -0.00000718   -0.00000502    0.00138235
     atom   11 type  2   force =    -0.00113113   -0.00061148   -0.00110575
     atom   12 type  2   force =    -0.00102901   -0.00077334   -0.00111430

     Total force =     0.026234     Total SCF correction =     0.001821

     entering subroutine stress ...

     negative rho (up, down):  1.084E-01 0.000E+00
          total   stress  (Ry/bohr**3)                   (kbar)     P=   -4.19
  -0.00003356  -0.00000185  -0.00000392         -4.94     -0.27     -0.58
  -0.00000185  -0.00003186  -0.00000251         -0.27     -4.69     -0.37
  -0.00000392  -0.00000251  -0.00002007         -0.58     -0.37     -2.95

 !ASE

     Writing output data file calc.save

     General routines

     Parallel routines

   This run was terminated on:  21: 2:40  18Dec2018

   JOB DONE.
Job  /afs/slac/g/suncat/bin/suncat-tsmpirun -x LD_LIBRARY_PATH -wdir /scratch/qe529600_QHGde pw.x -in pw.inp

TID   HOST_NAME   COMMAND_LINE            STATUS            TERMINATION_TIME
00000 suncat0044 pw.x -in pw.inp   Done                     12/18/2018 21:02:40
00001 suncat0044 pw.x -in pw.inp   Done                     12/18/2018 21:02:40
00002 suncat0044 pw.x -in pw.inp   Done                     12/18/2018 21:02:40
00003 suncat0044 pw.x -in pw.inp   Done                     12/18/2018 21:02:40
00004 suncat0044 pw.x -in pw.inp   Done                     12/18/2018 21:02:40
00005 suncat0044 pw.x -in pw.inp   Done                     12/18/2018 21:02:40
00006 suncat0044 pw.x -in pw.inp   Done                     12/18/2018 21:02:40
00007 suncat0044 pw.x -in pw.inp   Done                     12/18/2018 21:02:40
00008 suncat0043 pw.x -in pw.inp   Done                     12/18/2018 21:02:40
00009 suncat0043 pw.x -in pw.inp   Done                     12/18/2018 21:02:40
00010 suncat0043 pw.x -in pw.inp   Done                     12/18/2018 21:02:40
00011 suncat0043 pw.x -in pw.inp   Done                     12/18/2018 21:02:40
00012 suncat0043 pw.x -in pw.inp   Done                     12/18/2018 21:02:40
00013 suncat0043 pw.x -in pw.inp   Done                     12/18/2018 21:02:40
00014 suncat0043 pw.x -in pw.inp   Done                     12/18/2018 21:02:40
00015 suncat0043 pw.x -in pw.inp   Done                     12/18/2018 21:02:40
00016 suncat0042 pw.x -in pw.inp   Done                     12/18/2018 21:02:40
00017 suncat0042 pw.x -in pw.inp   Done                     12/18/2018 21:02:40
00018 suncat0042 pw.x -in pw.inp   Done                     12/18/2018 21:02:40
00019 suncat0042 pw.x -in pw.inp   Done                     12/18/2018 21:02:40
00020 suncat0042 pw.x -in pw.inp   Done                     12/18/2018 21:02:40
00021 suncat0042 pw.x -in pw.inp   Done                     12/18/2018 21:02:40
00022 suncat0042 pw.x -in pw.inp   Done                     12/18/2018 21:02:40
00023 suncat0042 pw.x -in pw.inp   Done                     12/18/2018 21:02:40
00024 suncat0041 pw.x -in pw.inp   Done                     12/18/2018 21:02:40
00025 suncat0041 pw.x -in pw.inp   Done                     12/18/2018 21:02:40
00026 suncat0041 pw.x -in pw.inp   Done                     12/18/2018 21:02:40
00027 suncat0041 pw.x -in pw.inp   Done                     12/18/2018 21:02:40
00028 suncat0041 pw.x -in pw.inp   Done                     12/18/2018 21:02:40
00029 suncat0041 pw.x -in pw.inp   Done                     12/18/2018 21:02:40
00030 suncat0041 pw.x -in pw.inp   Done                     12/18/2018 21:02:40
00031 suncat0041 pw.x -in pw.inp   Done                     12/18/2018 21:02:40