     Program PWSCF v.5.1rc2 (svn rev. 11289) starts on 25Dec2018 at  1:47: 4

     Current dimensions of program PWSCF are:
     Max number of different atomic species (ntypx) = 10
     Max number of k-points (npk) =  40000
     Max angular momentum in pseudopotentials (lmaxx) =  3
     Presently stress not available with electric field

     IMPORTANT: XC functional enforced from input :
     Exchange-correlation      = BEEF-VDW ( 1  4 27 13 2)
     Any further DFT definition will be discarded
     Please, verify this is what you really want

     Subspace diagonalization in iterative solution of the eigenvalue problem:
     a serial algorithm will be used

     Found symmetry operation: I + ( -0.5000  0.5000  0.0000)
     This is a supercell, fractional translations are disabled

     bravais-lattice index     =            0
     lattice parameter (alat)  =       1.8897  a.u.
     unit-cell volume          =    7456.7137 (a.u.)^3
     number of atoms/cell      =           12
     number of atomic types    =            2
     number of electrons       =       150.00
     number of Kohn-Sham states=          105
     kinetic-energy cutoff     =      36.7493  Ry
     charge density cutoff     =     367.4932  Ry
     convergence threshold     =      1.0E-06
     mixing beta               =       0.1000
     number of iterations used =           10  plain     mixing
     Exchange-correlation      = BEEF-VDW ( 1  4 27 13 2)
     nstep                     =           50

     celldm(1)=   1.889726  celldm(2)=   0.000000  celldm(3)=   0.000000
     celldm(4)=   0.000000  celldm(5)=   0.000000  celldm(6)=   0.000000

     crystal axes: (cart. coord. in units of alat)
               a(1) = (   6.919319   0.000000   0.000000 )
               a(2) = (   3.055578   6.208093   0.000000 )
               a(3) = (   0.000000   0.000000  25.723454 )

     reciprocal axes: (cart. coord. in units 2 pi/alat)
               b(1) = (  0.144523 -0.071133  0.000000 )
               b(2) = (  0.000000  0.161080  0.000000 )
               b(3) = (  0.000000  0.000000  0.038875 )

     PseudoPot. # 1 for La read from file:
     /afs/slac.stanford.edu/u/if/mamunm/psp/gbrv1.5pbe/La.UPF
     MD5 check sum: 5937b0c7494ba0601a847275249473aa
     Pseudo is Ultrasoft + core correction, Zval = 11.0
     Generated by new atomic code, or converted to UPF format
     Using radial grid of  995 points,  8 beta functions with:
                l(1) =   0
                l(2) =   0
                l(3) =   1
                l(4) =   1
                l(5) =   2
                l(6) =   2
                l(7) =   3
                l(8) =   3
     Q(r) pseudized with  8 coefficients,  rinner =    1.700   1.700   1.700
                                                       1.700   1.700   1.700
                                                       1.700

     PseudoPot. # 2 for Sn read from file:
     /afs/slac.stanford.edu/u/if/mamunm/psp/gbrv1.5pbe/Sn.UPF
     MD5 check sum: 469debedee59599fedebd795477fea03
     Pseudo is Ultrasoft + core correction, Zval = 14.0
     Generated by new atomic code, or converted to UPF format
     Using radial grid of  891 points,  6 beta functions with:
                l(1) =   0
                l(2) =   0
                l(3) =   1
                l(4) =   1
                l(5) =   2
                l(6) =   2
     Q(r) pseudized with  8 coefficients,  rinner =    1.350   1.350   1.350
                                                       1.350   1.350

     vdW kernel table read from file vdW_kernel_table
     MD5 check sum: 095c7af220d748ca6e76c0b4c6cfb241

     atomic species   valence    mass     pseudopotential
        La1           11.00   138.90547     La( 1.00)
        Sn1           14.00   118.71000     Sn( 1.00)

     No symmetry found

   Cartesian axes

     site n.     atom                  positions (alat units)
         1           La1 tau(   1) = (   0.0000000   0.0000000  10.0000000  )
         2           La1 tau(   2) = (   4.9874488   3.1040466  10.0000000  )
         3           Sn1 tau(   3) = (   3.4596596   0.0000000  10.0000000  )
         4           Sn1 tau(   4) = (   8.4471085   3.1040466  10.0000000  )
         5           La1 tau(   5) = (   6.9193193   4.3063879  12.8617268  )
         6           La1 tau(   6) = (   1.9318705   1.2023413  12.8617268  )
         7           Sn1 tau(   7) = (   3.4596596   4.3063879  12.8617268  )
         8           Sn1 tau(   8) = (   5.3915301   1.2023413  12.8617268  )
         9           La1 tau(   9) = (   3.8637409   2.4046827  15.7234536  )
        10           La1 tau(  10) = (   8.8511897   5.5087292  15.7234536  )
        11           Sn1 tau(  11) = (   7.3234006   2.4046827  15.7234536  )
        12           Sn1 tau(  12) = (   5.3915301   5.5087292  15.7234536  )

     number of k points=    20  Fermi-Dirac smearing, width (Ry)=  0.0110
                       cart. coord. in units 2pi/alat
        k(    1) = (   0.0000000   0.0000000   0.0000000), wk =   0.0555556
        k(    2) = (   0.0000000   0.0268467   0.0000000), wk =   0.1111111
        k(    3) = (   0.0000000   0.0536934   0.0000000), wk =   0.1111111
        k(    4) = (   0.0000000  -0.0805400   0.0000000), wk =   0.0555556
        k(    5) = (   0.0240871  -0.0118555   0.0000000), wk =   0.1111111
        k(    6) = (   0.0240871   0.0149912   0.0000000), wk =   0.1111111
        k(    7) = (   0.0240871   0.0418378   0.0000000), wk =   0.1111111
        k(    8) = (   0.0240871  -0.0923955   0.0000000), wk =   0.1111111
        k(    9) = (   0.0240871  -0.0655489   0.0000000), wk =   0.1111111
        k(   10) = (   0.0240871  -0.0387022   0.0000000), wk =   0.1111111
        k(   11) = (   0.0481743  -0.0237110   0.0000000), wk =   0.1111111
        k(   12) = (   0.0481743   0.0031356   0.0000000), wk =   0.1111111
        k(   13) = (   0.0481743   0.0299823   0.0000000), wk =   0.1111111
        k(   14) = (   0.0481743  -0.1042511   0.0000000), wk =   0.1111111
        k(   15) = (   0.0481743  -0.0774044   0.0000000), wk =   0.1111111
        k(   16) = (   0.0481743  -0.0505577   0.0000000), wk =   0.1111111
        k(   17) = (  -0.0722614   0.0355666   0.0000000), wk =   0.0555556
        k(   18) = (  -0.0722614   0.0624132   0.0000000), wk =   0.1111111
        k(   19) = (  -0.0722614   0.0892599   0.0000000), wk =   0.1111111
        k(   20) = (  -0.0722614  -0.0449735   0.0000000), wk =   0.0555556

     Largest allocated arrays     est. size (Mb)     dimensions
     Largest temporary arrays     est. size (Mb)     dimensions

     Initial potential from superposition of free atoms
     Check: negative starting charge=   -0.424881

     starting charge  143.80732, renormalised to  150.00000

     negative rho (up, down):  4.432E-01 0.000E+00

     *
     * You are using vdW-DF for exchange-correlation in this calculation.
     * Please cite the following three references that made this development
     * possible:
     *
     *   M. Dion, H. Rydberg, E. Schroder, D. C. Langreth, and
     *   B. I. Lundqvist, Phys. Rev. Lett. 92, 246401 (2004).
     *
     *   T. Thonhauser, V. R. Cooper, S. Li, A. Puzder, P. Hyldgaard, and
     *   D. C. Langreth, Phys. Rev. B 76, 125112 (2007).
     *
     *   G. Roman-Perez and J. M. Soler, Phys. Rev. Lett. 103, 096102 (2009).
     *
     *
     * If you are using vdW-DF2, please also cite:
     *
     *   K. Lee, E. D. Murray, L. Kong, B. I. Lundqvist, and
     *   D. C. Langreth, Phys. Rev. B 82, 081101(R) (2010).
     *
     *
     * If you are calculating the stress with vdW-DF, please also cite:
     *
     *   R. Sabatini, E. Kucukbenli, B. Kolb, T. Thonhauser, and
     *   S. de Gironcoli, J. Phys.: Condens. Matter 24, 424209 (2012).
     *

     Carrying out vdW-DF run using the following parameters:

     Nqs =      20    Nr_points =    1024   r_max =   100.000
     q_mesh =
               0.00001000     0.04494208     0.09755937     0.15916263
               0.23128650     0.31572767     0.41458969     0.53033537
               0.66584808     0.82450364     1.01025438     1.22772762
               1.48234092     1.78043706     2.12944203     2.53805004
               3.01644009     3.57652955     4.23227104     5.00000000

     Gradients computed in reciprocal space

     Adding external electric field

     Computed dipole along edir(3) :
        Dipole               -0.0000 Ry au,         -0.0000 Debye
        Dipole field         -0.0000 Ry au

        Potential amp.        0.0000 Ry
        Total length         47.3950 bohr

     Starting wfc are  174 randomized atomic wfcs

     Self-consistent Calculation

     iteration #  1     ecut=    36.75 Ry     beta=0.10
     Davidson diagonalization with overlap
     ethr =  1.00E-02,  avg # of iterations =  2.0

[...]

     total energy              =   -1589.30651140 Ry
     Harris-Foulkes estimate   =   -1589.92133208 Ry
     estimated scf accuracy    <       3.66385279 Ry

[...]

     iteration #  5     ecut=    36.75 Ry     beta=0.10
     Davidson diagonalization with overlap
     c_bands:  1 eigenvalues not converged
     ethr =  9.06E-05,  avg # of iterations = 10.6

[...]

     End of self-consistent calculation

          k = 0.0000 0.0000 0.0000 ( 28089 PWs)   bands (ev):

   -31.9800 -31.9776 -31.8984 -31.8967 -31.5689 -31.4860 -19.9982 -19.9910
   -19.9761 -19.9427 -19.9390 -19.9305 -19.9296 -19.9149 -19.8859 -19.8654
   -19.7473 -19.7469 -19.7458 -19.7433 -19.7241 -19.7234 -19.7011 -19.6986
   -19.6869 -19.6850 -19.6649 -19.6646 -19.6642 -19.6611 -19.6603 -19.6584
   -19.6363 -19.6351 -19.6176 -19.6175 -15.9314 -15.9236 -15.8234 -15.7083
   -15.6862 -15.6153 -15.5828 -15.5547 -15.5499 -15.4845 -15.4369 -15.2186
   -15.0837 -15.0761 -15.0651 -15.0586 -14.9593 -14.7236  -6.5988  -5.7398
    -5.4702  -5.2387  -4.5137  -4.3770  -0.8664  -0.5481  -0.3660  -0.1077
    -0.0672   0.0303   0.0807   0.4791   0.5461   0.8866   0.9624   1.0251
     1.4859   1.5865   1.6421   1.6654   1.7493   1.7992   1.8536   2.3048
     2.4617   2.5634   2.6734   2.6799   2.7670   2.7939   2.8449   2.8756
     2.8780   2.8928   2.8941   2.9453   2.9625   2.9673   2.9910   2.9941
     3.0065   3.0225   3.0525   3.0622   3.0804   3.0830   3.0919   3.0971
     3.0995

[...]

          k =-0.0723 0.0356 0.0000 ( 28040 PWs)   bands (ev):

[...]

     the Fermi energy is     1.5820 ev

!    total energy              =   -1588.81329160 Ry
     Harris-Foulkes estimate   =   -1588.81330069 Ry
     estimated scf accuracy    <       0.00000054 Ry

     The total energy is the sum of the following terms:

     one-electron contribution =   -7272.28384099 Ry
     hartree contribution      =    3676.19851237 Ry
     xc contribution           =    -571.57970753 Ry
     ewald contribution        =    2578.92303665 Ry
     electric field correction =       0.00000000 Ry
     smearing contrib. (-TS)   =      -0.07129209 Ry

     convergence has been achieved in  18 iterations

 BEEF-vdW xc energy contributions
           1 :   -504.645911401502
           2 :    463.392751115128
           3 :   -391.767784533469
           4 :    307.077310604280
[...]
     Generated by new atomic code, or converted to UPF format
     Using radial grid of  995 points,  8 beta functions with:
                l(1) =   0
                l(2) =   0
                l(3) =   1
                l(4) =   1
                l(5) =   2
                l(6) =   2
                l(7) =   3
                l(8) =   3
     Q(r) pseudized with  8 coefficients,  rinner =    1.700   1.700   1.700
                                                       1.700   1.700   1.700
                                                       1.700

     PseudoPot. # 2 for Sn read from file:
     /afs/slac.stanford.edu/u/if/mamunm/psp/gbrv1.5pbe/Sn.UPF
     MD5 check sum: 469debedee59599fedebd795477fea03
     Pseudo is Ultrasoft + core correction, Zval = 14.0
     Generated by new atomic code, or converted to UPF format
     Using radial grid of  891 points,  6 beta functions with:
                l(1) =   0
                l(2) =   0
                l(3) =   1
                l(4) =   1
                l(5) =   2
                l(6) =   2
     Q(r) pseudized with  8 coefficients,  rinner =    1.350   1.350   1.350
                                                       1.350   1.350

     vdW kernel table read from file vdW_kernel_table
     MD5 check sum: 095c7af220d748ca6e76c0b4c6cfb241

     atomic species   valence    mass     pseudopotential
        La1           11.00   138.90547     La( 1.00)
        Sn1           14.00   118.71000     Sn( 1.00)

     No symmetry found

   Cartesian axes

     site n.     atom                  positions (alat units)
         1           La1 tau(   1) = (   0.0000000   0.0000000  10.0000000  )
         2           La1 tau(   2) = (   4.9874488   3.1040466  10.0000000  )
         3           Sn1 tau(   3) = (   3.4596596   0.0000000  10.0000000  )
         4           Sn1 tau(   4) = (   8.4471085   3.1040466  10.0000000  )
         5           La1 tau(   5) = (   6.9193193   4.3063879  12.8617268  )
         6           La1 tau(   6) = (   1.9318705   1.2023413  12.8617268  )
         7           Sn1 tau(   7) = (   3.4596596   4.3063879  12.8617268  )
         8           Sn1 tau(   8) = (   5.3915301   1.2023413  12.8617268  )
         9           La1 tau(   9) = (   3.8949795   2.4241278  15.6761845  )
        10           La1 tau(  10) = (   8.8824172   5.5281685  15.6761849  )
        11           Sn1 tau(  11) = (   7.2945894   2.3867417  15.7696190  )
        12           Sn1 tau(  12) = (   5.3627108   5.4908053  15.7696577  )

     number of k points=    20  Fermi-Dirac smearing, width (Ry)=  0.0110
                       cart. coord. in units 2pi/alat
        k(    1) = (   0.0000000   0.0000000   0.0000000), wk =   0.0555556
        k(    2) = (   0.0000000   0.0268467   0.0000000), wk =   0.1111111
        k(    3) = (   0.0000000   0.0536934   0.0000000), wk =   0.1111111
        k(    4) = (   0.0000000  -0.0805400   0.0000000), wk =   0.0555556
        k(    5) = (   0.0240871  -0.0118555   0.0000000), wk =   0.1111111
        k(    6) = (   0.0240871   0.0149912   0.0000000), wk =   0.1111111
        k(    7) = (   0.0240871   0.0418378   0.0000000), wk =   0.1111111
        k(    8) = (   0.0240871  -0.0923955   0.0000000), wk =   0.1111111
        k(    9) = (   0.0240871  -0.0655489   0.0000000), wk =   0.1111111
        k(   10) = (   0.0240871  -0.0387022   0.0000000), wk =   0.1111111
        k(   11) = (   0.0481743  -0.0237110   0.0000000), wk =   0.1111111
        k(   12) = (   0.0481743   0.0031356   0.0000000), wk =   0.1111111
        k(   13) = (   0.0481743   0.0299823   0.0000000), wk =   0.1111111
        k(   14) = (   0.0481743  -0.1042511   0.0000000), wk =   0.1111111
        k(   15) = (   0.0481743  -0.0774044   0.0000000), wk =   0.1111111
        k(   16) = (   0.0481743  -0.0505577   0.0000000), wk =   0.1111111
        k(   17) = (  -0.0722614   0.0355666   0.0000000), wk =   0.0555556
        k(   18) = (  -0.0722614   0.0624132   0.0000000), wk =   0.1111111
        k(   19) = (  -0.0722614   0.0892599   0.0000000), wk =   0.1111111
        k(   20) = (  -0.0722614  -0.0449735   0.0000000), wk =   0.0555556

     Largest allocated arrays     est. size (Mb)     dimensions
     Largest temporary arrays     est. size (Mb)     dimensions

     Initial potential from superposition of free atoms
     Check: negative starting charge=   -0.425540

     starting charge  143.80732, renormalised to  150.00000

[...]

     *
     * You are using vdW-DF for exchange-correlation in this calculation.
     * Please cite the following three references that made this development
     * possible:
     *
     *   M. Dion, H. Rydberg, E. Schroder, D. C. Langreth, and
     *   B. I. Lundqvist, Phys. Rev. Lett. 92, 246401 (2004).
     *
     *   T. Thonhauser, V. R. Cooper, S. Li, A. Puzder, P. Hyldgaard, and
     *   D. C. Langreth, Phys. Rev. B 76, 125112 (2007).
     *
     *   G. Roman-Perez and J. M. Soler, Phys. Rev. Lett. 103, 096102 (2009).
     *
     *
     * If you are using vdW-DF2, please also cite:
     *
     *   K. Lee, E. D. Murray, L. Kong, B. I. Lundqvist, and
     *   D. C. Langreth, Phys. Rev. B 82, 081101(R) (2010).
     *
     *
     * If you are calculating the stress with vdW-DF, please also cite:
     *
     *   R. Sabatini, E. Kucukbenli, B. Kolb, T. Thonhauser, and
     *   S. de Gironcoli, J. Phys.: Condens. Matter 24, 424209 (2012).
     *

     Carrying out vdW-DF run using the following parameters:

     Nqs =      20    Nr_points =    1024   r_max =   100.000
     q_mesh =
               0.00001000     0.04494208     0.09755937     0.15916263
               0.23128650     0.31572767     0.41458969     0.53033537
               0.66584808     0.82450364     1.01025438     1.22772762
               1.48234092     1.78043706     2.12944203     2.53805004
               3.01644009     3.57652955     4.23227104     5.00000000

     Gradients computed in reciprocal space

[...]

     Starting wfc are  174 randomized atomic wfcs

     Self-consistent Calculation

[...]

     iteration # 10     ecut=    36.75 Ry     beta=0.10
     Davidson diagonalization with overlap
     c_bands:  1 eigenvalues not converged
     ethr =  5.03E-06,  avg # of iterations = 14.1

[...]

     total energy              =   -1588.81570236 Ry
     Harris-Foulkes estimate   =   -1588.81570475 Ry
     estimated scf accuracy    <       0.00000533 Ry

     iteration # 18     ecut=    36.75 Ry     beta=0.10
     Davidson diagonalization with overlap
     ethr =  3.55E-09,  avg # of iterations =  4.7

[...]

     negative rho (up, down):  2.726E-01 0.000E+00

     Adding external electric field

     Computed dipole along edir(3) :
        Dipole               -0.0362 Ry au,         -0.0921 Debye
        Dipole field         -0.0001 Ry au

        Potential amp.        0.0058 Ry
        Total length         47.3950 bohr

     End of self-consistent calculation

[...]

          k = 0.0482-0.0506 0.0000 ( 28035 PWs)   bands (ev):

[...]

          k =-0.0723-0.0450 0.0000 ( 28040 PWs)   bands (ev):

   -32.0044 -31.9693 -31.9240 -31.8886 -31.6120 -31.5285 -20.0257 -20.0132
   -19.9994 -19.9693 -19.9652 -19.9582 -19.9553 -19.9394 -19.9083 -19.8884
   -19.7786 -19.7767 -19.7704 -19.7703 -19.7538 -19.7473 -19.7322 -19.7230
   -19.7206 -19.7181 -19.6931 -19.6902 -19.6899 -19.6898 -19.6880 -19.6848
   -19.6623 -19.6610 -19.6434 -19.6431 -15.9575 -15.9306 -15.8729 -15.6941
   -15.6858 -15.6482 -15.6358 -15.5798 -15.5750 -15.4502 -15.4083 -15.2297
   -15.0964 -15.0900 -15.0808 -15.0552 -15.0020 -14.7603  -5.9030  -5.5466
    -5.0947  -4.8970  -4.3764  -3.8247  -1.7894  -1.6601  -1.4512  -1.1337
    -1.1283  -0.9120  -0.7101  -0.5633  -0.3239   0.1077   0.1555   0.5136
     1.1963   1.4880   1.5964   1.6542   1.8504   2.0041   2.3539   2.4668
     2.6112   2.7158   2.7754   2.7983   2.8054   2.8263   2.8264   2.8463
     2.8897   2.9202   2.9313   2.9527   2.9668   2.9850   3.0025   3.0042
     3.0088   3.0106   3.0285   3.0476   3.0714   3.0857   3.1046   3.1156
     3.1555

     the Fermi energy is     1.5576 ev

!    total energy              =   -1588.81569286 Ry
     Harris-Foulkes estimate   =   -1588.81570261 Ry
     estimated scf accuracy    <       0.00000088 Ry

     The total energy is the sum of the following terms:

     one-electron contribution =   -7267.26545766 Ry
     hartree contribution      =    3673.58562585 Ry
     xc contribution           =    -571.58429044 Ry
     ewald contribution        =    2576.51978260 Ry
     electric field correction =       0.00000221 Ry
     smearing contrib. (-TS)   =      -0.07135542 Ry

     convergence has been achieved in  18 iterations

 BEEF-vdW xc energy contributions
           1 :   -504.650277240885
           2 :    463.399005202891
           3 :   -391.776810468606
           4 :    307.088706579809
           5 :   -226.710834219342
           6 :    162.759521777884
           7 :   -119.675177906543
           8 :    95.0061973187325
           9 :   -82.4225031862524
          10 :    75.2787962821426
          11 :   -69.1156727568801
          12 :    62.2769743674337
          13 :   -54.9669660762515
          14 :    47.8082974051376
          15 :   -40.9346276695023
          16 :    34.0109000177904
          17 :   -26.8702100264768
          18 :    20.0835464670070
          19 :   -14.9246292469554
          20 :    12.6836875726151
          21 :   -13.7865932515419
          22 :    17.3277817601272
          23 :   -21.3660065147001
          24 :    23.8412140020971
          25 :   -23.5879747764068
          26 :    20.8606956861972
          27 :   -17.0889437677517
          28 :    14.0359657847794
          29 :   -12.8663969442224
          30 :    13.6359688013249
          31 :   -43.3723289955817
          32 :   -31.3625608914308

     Forces acting on atoms (Ry/au):

     negative rho (up, down):  2.726E-01 0.000E+00
     atom    1 type  1   force =    -0.00720469   -0.00448513    0.00592445
     atom    2 type  1   force =    -0.00720519   -0.00448371    0.00592314
     atom    3 type  2   force =     0.00703551    0.00437733   -0.00518292
     atom    4 type  2   force =     0.00703025    0.00437880   -0.00517760
     atom    5 type  1   force =    -0.00075918   -0.00047160    0.00210873
     atom    6 type  1   force =    -0.00075823   -0.00047316    0.00210860
     atom    7 type  2   force =     0.00060193    0.00037989   -0.00335230
     atom    8 type  2   force =     0.00060361    0.00036759   -0.00335474
     atom    9 type  1   force =    -0.00023763   -0.00014888   -0.00071129
     atom   10 type  1   force =    -0.00024076   -0.00014750   -0.00070958
     atom   11 type  2   force =     0.00056650    0.00035256    0.00121403
     atom   12 type  2   force =     0.00056788    0.00035382    0.00120951

     Total force =     0.021075     Total SCF correction =     0.001374

     entering subroutine stress ...

     negative rho (up, down):  2.726E-01 0.000E+00
          total   stress  (Ry/bohr**3)                   (kbar)     P=   -5.08
  -0.00006461  -0.00002715   0.00000083         -9.50     -3.99      0.12
  -0.00002715  -0.00003789   0.00000051         -3.99     -5.57      0.08
   0.00000083   0.00000051  -0.00000116          0.12      0.08     -0.17

 !ASE

     Writing output data file calc.save

     General routines

     Parallel routines

   This run was terminated on:   4: 4:42  25Dec2018

   JOB DONE.
Job  /afs/slac/g/suncat/bin/suncat-tsmpirun -x LD_LIBRARY_PATH -wdir /scratch/qe109081_YssgO pw.x -in pw.inp

TID   HOST_NAME   COMMAND_LINE            STATUS            TERMINATION_TIME
00000 suncat0092 pw.x -in pw.inp   Done                     12/25/2018 04:04:42
00001 suncat0092 pw.x -in pw.inp   Done                     12/25/2018 04:04:42
00002 suncat0092 pw.x -in pw.inp   Done                     12/25/2018 04:04:42
00003 suncat0092 pw.x -in pw.inp   Done                     12/25/2018 04:04:42
00004 suncat0092 pw.x -in pw.inp   Done                     12/25/2018 04:04:42
00005 suncat0092 pw.x -in pw.inp   Done                     12/25/2018 04:04:42
00006 suncat0092 pw.x -in pw.inp   Done                     12/25/2018 04:04:42
00007 suncat0092 pw.x -in pw.inp   Done                     12/25/2018 04:04:42
00008 suncat0091 pw.x -in pw.inp   Done                     12/25/2018 04:04:42
00009 suncat0091 pw.x -in pw.inp   Done                     12/25/2018 04:04:42
00010 suncat0091 pw.x -in pw.inp   Done                     12/25/2018 04:04:42
00011 suncat0091 pw.x -in pw.inp   Done                     12/25/2018 04:04:42
00012 suncat0091 pw.x -in pw.inp   Done                     12/25/2018 04:04:42
00013 suncat0091 pw.x -in pw.inp   Done                     12/25/2018 04:04:42
00014 suncat0091 pw.x -in pw.inp   Done                     12/25/2018 04:04:42
00015 suncat0091 pw.x -in pw.inp   Done                     12/25/2018 04:04:42
00016 suncat0090 pw.x -in pw.inp   Done                     12/25/2018 04:04:42
00017 suncat0090 pw.x -in pw.inp   Done                     12/25/2018 04:04:42
00018 suncat0090 pw.x -in pw.inp   Done                     12/25/2018 04:04:42
00019 suncat0090 pw.x -in pw.inp   Done                     12/25/2018 04:04:42
00020 suncat0090 pw.x -in pw.inp   Done                     12/25/2018 04:04:42
00021 suncat0090 pw.x -in pw.inp   Done                     12/25/2018 04:04:42
00022 suncat0090 pw.x -in pw.inp   Done                     12/25/2018 04:04:42
00023 suncat0090 pw.x -in pw.inp   Done                     12/25/2018 04:04:42
00024 suncat0089 pw.x -in pw.inp   Done                     12/25/2018 04:04:42
00025 suncat0089 pw.x -in pw.inp   Done                     12/25/2018 04:04:42
00026 suncat0089 pw.x -in pw.inp   Done                     12/25/2018 04:04:42
00027 suncat0089 pw.x -in pw.inp   Done                     12/25/2018 04:04:42
00028 suncat0089 pw.x -in pw.inp   Done                     12/25/2018 04:04:42
00029 suncat0089 pw.x -in pw.inp   Done                     12/25/2018 04:04:42
00030 suncat0089 pw.x -in pw.inp   Done                     12/25/2018 04:04:42
00031 suncat0089 pw.x -in pw.inp   Done                     12/25/2018 04:04:42
00032 suncat0088 pw.x -in pw.inp   Done                     12/25/2018 04:04:42
00033 suncat0088 pw.x -in pw.inp   Done                     12/25/2018 04:04:42
00034 suncat0088 pw.x -in pw.inp   Done                     12/25/2018 04:04:42
00035 suncat0088 pw.x -in pw.inp   Done                     12/25/2018 04:04:42
00036 suncat0088 pw.x -in pw.inp   Done                     12/25/2018 04:04:42
00037 suncat0088 pw.x -in pw.inp   Done                     12/25/2018 04:04:42
00038 suncat0088 pw.x -in pw.inp   Done                     12/25/2018 04:04:42
00039 suncat0088 pw.x -in pw.inp   Done                     12/25/2018 04:04:42
00040 suncat0087 pw.x -in pw.inp   Done                     12/25/2018 04:04:42
00041 suncat0087 pw.x -in pw.inp   Done                     12/25/2018 04:04:42
00042 suncat0087 pw.x -in pw.inp   Done                     12/25/2018 04:04:42
00043 suncat0087 pw.x -in pw.inp   Done                     12/25/2018 04:04:42
00044 suncat0087 pw.x -in pw.inp   Done                     12/25/2018 04:04:42
00045 suncat0087 pw.x -in pw.inp   Done                     12/25/2018 04:04:42
00046 suncat0087 pw.x -in pw.inp   Done                     12/25/2018 04:04:42
00047 suncat0087 pw.x -in pw.inp   Done                     12/25/2018 04:04:42
00048 suncat0156 pw.x -in pw.inp   Done                     12/25/2018 04:04:42
00049 suncat0156 pw.x -in pw.inp   Done                     12/25/2018 04:04:42
00050 suncat0156 pw.x -in pw.inp   Done                     12/25/2018 04:04:42
00051 suncat0156 pw.x -in pw.inp   Done                     12/25/2018 04:04:42
00052 suncat0156 pw.x -in pw.inp   Done                     12/25/2018 04:04:42
00053 suncat0156 pw.x -in pw.inp   Done                     12/25/2018 04:04:42
00054 suncat0156 pw.x -in pw.inp   Done                     12/25/2018 04:04:42
00055 suncat0156 pw.x -in pw.inp   Done                     12/25/2018 04:04:42
00056 suncat0153 pw.x -in pw.inp   Done                     12/25/2018 04:04:42
00057 suncat0153 pw.x -in pw.inp   Done                     12/25/2018 04:04:42
00058 suncat0153 pw.x -in pw.inp   Done                     12/25/2018 04:04:42
00059 suncat0153 pw.x -in pw.inp   Done                     12/25/2018 04:04:42
00060 suncat0153 pw.x -in pw.inp   Done                     12/25/2018 04:04:42
00061 suncat0153 pw.x -in pw.inp   Done                     12/25/2018 04:04:42
00062 suncat0153 pw.x -in pw.inp   Done                     12/25/2018 04:04:42
00063 suncat0153 pw.x -in pw.inp   Done                     12/25/2018 04:04:42