     Program PWSCF v.5.1rc2 (svn rev. 11289) starts on 24Dec2018 at 16: 9:28

     Current dimensions of program PWSCF are:
     Max number of different atomic species (ntypx) = 10
     Max number of k-points (npk) =  40000
     Max angular momentum in pseudopotentials (lmaxx) =  3
     Presently stress not available with electric field

     IMPORTANT: XC functional enforced from input :
     Exchange-correlation      = BEEF-VDW ( 1  4 27 13 2)
     Any further DFT definition will be discarded
     Please, verify this is what you really want

     Subspace diagonalization in iterative solution of the eigenvalue problem:
     a serial algorithm will be used

     Found symmetry operation: I + ( -0.5000  0.5000  0.0000)
     This is a supercell, fractional translations are disabled

     Generating pointlists ...
     new r_m :   0.4125 (alat units)  0.7795 (a.u.) for type    1
     new r_m :   0.4125 (alat units)  0.7795 (a.u.) for type    2

     bravais-lattice index     =            0
     lattice parameter (alat)  =       1.8897  a.u.
     unit-cell volume          =    4685.5241 (a.u.)^3
     number of atoms/cell      =           12
     number of atomic types    =            2
     number of electrons       =       168.00
     number of Kohn-Sham states=          114
     kinetic-energy cutoff     =      36.7493  Ry
     charge density cutoff     =     367.4932  Ry
     convergence threshold     =      1.0E-06
     mixing beta               =       0.1000
     number of iterations used =           10  plain     mixing
     Exchange-correlation      = BEEF-VDW ( 1  4 27 13 2)
     nstep                     =           50

     celldm(1)=   1.889726  celldm(2)=   0.000000  celldm(3)=   0.000000
     celldm(4)=   0.000000  celldm(5)=   0.000000  celldm(6)=   0.000000

     crystal axes: (cart. coord. in units of alat)
               a(1) = (   5.483026   0.000000   0.000000 )
               a(2) = (   1.813472   5.174446   0.000000 )
               a(3) = (   0.000000   0.000000  24.472445 )

     reciprocal axes: (cart. coord. in units 2 pi/alat)
               b(1) = (  0.182381 -0.063919  0.000000 )
               b(2) = (  0.000000  0.193257  0.000000 )
               b(3) = (  0.000000  0.000000  0.040862 )

     PseudoPot. # 1 for Fe read from file:
     /afs/slac.stanford.edu/u/if/mamunm/psp/gbrv1.5pbe/Fe.UPF
     MD5 check sum: a130daea23fe5165f5d574ae7f82ed95
     Pseudo is Ultrasoft + core correction, Zval = 16.0
     Generated by new atomic code, or converted to UPF format
     Using radial grid of  861 points,  6 beta functions with:
                l(1) =   0
                l(2) =   0
                l(3) =   1
                l(4) =   1
                l(5) =   2
                l(6) =   2
     Q(r) pseudized with  8 coefficients,  rinner =    1.000   1.000   1.000
                                                       1.000   1.000

     PseudoPot. # 2 for Zr read from file:
     /afs/slac.stanford.edu/u/if/mamunm/psp/gbrv1.5pbe/Zr.UPF
     MD5 check sum: 5db81b1e868ab7776c4564c113de050b
     Pseudo is Ultrasoft + core correction, Zval = 12.0
     Generated by new atomic code, or converted to UPF format
     Using radial grid of  887 points,  6 beta functions with:
                l(1) =   0
                l(2) =   0
                l(3) =   1
                l(4) =   1
                l(5) =   2
                l(6) =   2
     Q(r) pseudized with  6 coefficients,  rinner =    1.200   1.200   1.200
                                                       1.200   1.200

     vdW kernel table read from file vdW_kernel_table
     MD5 check sum: 095c7af220d748ca6e76c0b4c6cfb241

     atomic species   valence    mass     pseudopotential
        Fe1           16.00    55.84500     Fe( 1.00)
        Zr1           12.00    91.22400     Zr( 1.00)

     Starting magnetic structure
     atomic species   magnetization
        Fe1          0.125
        Zr1          0.167

     No symmetry found

   Cartesian axes

     site n.     atom                  positions (alat units)
         1           Fe1 tau(   1) = (   0.0000000   0.0000000  10.0000000  )
         2           Fe1 tau(   2) = (   3.6482490   2.5872232  10.0000000  )
         3           Zr1 tau(   3) = (   2.7415131   0.0000000  10.0000000  )
         4           Zr1 tau(   4) = (   0.9067359   2.5872232  10.0000000  )
         5           Fe1 tau(   5) = (   5.4830262   3.8883894  12.2362224  )
         6           Fe1 tau(   6) = (   1.8347772   1.3011661  12.2362224  )
         7           Zr1 tau(   7) = (   2.7415131   3.8883894  12.2362224  )
         8           Zr1 tau(   8) = (   4.5762903   1.3011661  12.2362224  )
         9           Fe1 tau(   9) = (   3.6695543   2.6023323  14.4724448  )
        10           Fe1 tau(  10) = (   0.0213053   0.0151090  14.4724448  )
        11           Zr1 tau(  11) = (   0.9280412   2.6023323  14.4724448  )
        12           Zr1 tau(  12) = (   2.7628184   0.0151090  14.4724448  )

     number of k points=    40  Fermi-Dirac smearing, width (Ry)=  0.0110
                       cart. coord. in units 2pi/alat
        k(    1) = (   0.0000000   0.0000000   0.0000000), wk =   0.0277778
        k(    2) = (   0.0000000   0.0322096   0.0000000), wk =   0.0555556
        k(    3) = (   0.0000000   0.0644191   0.0000000), wk =   0.0555556
        k(    4) = (   0.0000000  -0.0966287   0.0000000), wk =   0.0277778
        k(    5) = (   0.0303968  -0.0106531   0.0000000), wk =   0.0555556
        k(    6) = (   0.0303968   0.0215565   0.0000000), wk =   0.0555556
        k(    7) = (   0.0303968   0.0537660   0.0000000), wk =   0.0555556
        k(    8) = (   0.0303968  -0.1072818   0.0000000), wk =   0.0555556
        k(    9) = (   0.0303968  -0.0750722   0.0000000), wk =   0.0555556
        k(   10) = (   0.0303968  -0.0428626   0.0000000), wk =   0.0555556
        k(   11) = (   0.0607937  -0.0213062   0.0000000), wk =   0.0555556
        k(   12) = (   0.0607937   0.0109034   0.0000000), wk =   0.0555556
        k(   13) = (   0.0607937   0.0431130   0.0000000), wk =   0.0555556
        k(   14) = (   0.0607937  -0.1179349   0.0000000), wk =   0.0555556
        k(   15) = (   0.0607937  -0.0857253   0.0000000), wk =   0.0555556
        k(   16) = (   0.0607937  -0.0535157   0.0000000), wk =   0.0555556
        k(   17) = (  -0.0911905   0.0319593   0.0000000), wk =   0.0277778
        k(   18) = (  -0.0911905   0.0641688   0.0000000), wk =   0.0555556
        k(   19) = (  -0.0911905   0.0963784   0.0000000), wk =   0.0555556
        k(   20) = (  -0.0911905  -0.0646694   0.0000000), wk =   0.0277778
        k(   21) = (   0.0000000   0.0000000   0.0000000), wk =   0.0277778
        k(   22) = (   0.0000000   0.0322096   0.0000000), wk =   0.0555556
        k(   23) = (   0.0000000   0.0644191   0.0000000), wk =   0.0555556
        k(   24) = (   0.0000000  -0.0966287   0.0000000), wk =   0.0277778
        k(   25) = (   0.0303968  -0.0106531   0.0000000), wk =   0.0555556
        k(   26) = (   0.0303968   0.0215565   0.0000000), wk =   0.0555556
        k(   27) = (   0.0303968   0.0537660   0.0000000), wk =   0.0555556
        k(   28) = (   0.0303968  -0.1072818   0.0000000), wk =   0.0555556
        k(   29) = (   0.0303968  -0.0750722   0.0000000), wk =   0.0555556
        k(   30) = (   0.0303968  -0.0428626   0.0000000), wk =   0.0555556
        k(   31) = (   0.0607937  -0.0213062   0.0000000), wk =   0.0555556
        k(   32) = (   0.0607937   0.0109034   0.0000000), wk =   0.0555556
        k(   33) = (   0.0607937   0.0431130   0.0000000), wk =   0.0555556
        k(   34) = (   0.0607937  -0.1179349   0.0000000), wk =   0.0555556
        k(   35) = (   0.0607937  -0.0857253   0.0000000), wk =   0.0555556
        k(   36) = (   0.0607937  -0.0535157   0.0000000), wk =   0.0555556
        k(   37) = (  -0.0911905   0.0319593   0.0000000), wk =   0.0277778
        k(   38) = (  -0.0911905   0.0641688   0.0000000), wk =   0.0555556
        k(   39) = (  -0.0911905   0.0963784   0.0000000), wk =   0.0555556
        k(   40) = (  -0.0911905  -0.0646694   0.0000000), wk =   0.0277778

     Largest allocated arrays     est. size (Mb)     dimensions
     Largest temporary arrays     est. size (Mb)     dimensions

     Check: negative/imaginary core charge=   -0.000004    0.000000

     Initial potential from superposition of free atoms
     Check: negative starting charge=(component1):   -0.214557
     Check: negative starting charge=(component2):   -0.153206

     starting charge  161.98707, renormalised to  168.00000

     negative rho (up, down):  2.225E-01 1.589E-01

     *
     * You are using vdW-DF for exchange-correlation in this calculation.
     * Please cite the following three references that made this development
     * possible:
     *
     *   M. Dion, H. Rydberg, E. Schroder, D. C. Langreth, and
     *   B. I. Lundqvist, Phys. Rev. Lett. 92, 246401 (2004).
     *
     *   T. Thonhauser, V. R. Cooper, S. Li, A. Puzder, P. Hyldgaard, and
     *   D. C. Langreth, Phys. Rev. B 76, 125112 (2007).
     *
     *   G. Roman-Perez and J. M. Soler, Phys. Rev. Lett. 103, 096102 (2009).
     *
     *
     * If you are using vdW-DF2, please also cite:
     *
     *   K. Lee, E. D. Murray, L. Kong, B. I. Lundqvist, and
     *   D. C. Langreth, Phys. Rev. B 82, 081101(R) (2010).
     *
     *
     * If you are calculating the stress with vdW-DF, please also cite:
     *
     *   R. Sabatini, E. Kucukbenli, B. Kolb, T. Thonhauser, and
     *   S. de Gironcoli, J. Phys.: Condens. Matter 24, 424209 (2012).
     *

     Carrying out vdW-DF run using the following parameters:

     Nqs =      20    Nr_points =    1024   r_max =   100.000
     q_mesh =
               0.00001000     0.04494208     0.09755937     0.15916263
               0.23128650     0.31572767     0.41458969     0.53033537
               0.66584808     0.82450364     1.01025438     1.22772762
               1.48234092     1.78043706     2.12944203     2.53805004
               3.01644009     3.57652955     4.23227104     5.00000000

     Gradients computed in reciprocal space

     Adding external electric field

     Computed dipole along edir(3) :
        Dipole               -0.0000 Ry au,         -0.0000 Debye
        Dipole field         -0.0000 Ry au

        Potential amp.        0.0000 Ry
        Total length         45.0901 bohr

[...]

     Starting wfc are  156 randomized atomic wfcs

     Self-consistent Calculation

     iteration #  1     ecut=    36.75 Ry     beta=0.10
     Davidson diagonalization with overlap
     ethr =  1.00E-02,  avg # of iterations =  2.1

[...]

     Magnetic moment per site:
     atom:    1    charge:    7.2456    magn:    0.8672    constr:    0.0000
     atom:    2    charge:    7.2456    magn:    0.8672    constr:    0.0000
     atom:    3    charge:    1.1362    magn:    0.1727    constr:    0.0000
     atom:    4    charge:    1.1362    magn:    0.1727    constr:    0.0000
     atom:    5    charge:    7.2481    magn:    0.8599    constr:    0.0000
     atom:    6    charge:    7.2481    magn:    0.8599    constr:    0.0000
[...]
        k(    2) = (   0.0000000   0.0322096   0.0000000), wk =   0.0555556
        k(    3) = (   0.0000000   0.0644191   0.0000000), wk =   0.0555556
        k(    4) = (   0.0000000  -0.0966287   0.0000000), wk =   0.0277778
        k(    5) = (   0.0303968  -0.0106531   0.0000000), wk =   0.0555556
        k(    6) = (   0.0303968   0.0215565   0.0000000), wk =   0.0555556
        k(    7) = (   0.0303968   0.0537660   0.0000000), wk =   0.0555556
        k(    8) = (   0.0303968  -0.1072818   0.0000000), wk =   0.0555556
        k(    9) = (   0.0303968  -0.0750722   0.0000000), wk =   0.0555556
        k(   10) = (   0.0303968  -0.0428626   0.0000000), wk =   0.0555556
        k(   11) = (   0.0607937  -0.0213062   0.0000000), wk =   0.0555556
        k(   12) = (   0.0607937   0.0109034   0.0000000), wk =   0.0555556
        k(   13) = (   0.0607937   0.0431130   0.0000000), wk =   0.0555556
        k(   14) = (   0.0607937  -0.1179349   0.0000000), wk =   0.0555556
        k(   15) = (   0.0607937  -0.0857253   0.0000000), wk =   0.0555556
        k(   16) = (   0.0607937  -0.0535157   0.0000000), wk =   0.0555556
        k(   17) = (  -0.0911905   0.0319593   0.0000000), wk =   0.0277778
        k(   18) = (  -0.0911905   0.0641688   0.0000000), wk =   0.0555556
        k(   19) = (  -0.0911905   0.0963784   0.0000000), wk =   0.0555556
        k(   20) = (  -0.0911905  -0.0646694   0.0000000), wk =   0.0277778
        k(   21) = (   0.0000000   0.0000000   0.0000000), wk =   0.0277778
        k(   22) = (   0.0000000   0.0322096   0.0000000), wk =   0.0555556
        k(   23) = (   0.0000000   0.0644191   0.0000000), wk =   0.0555556
        k(   24) = (   0.0000000  -0.0966287   0.0000000), wk =   0.0277778
        k(   25) = (   0.0303968  -0.0106531   0.0000000), wk =   0.0555556
        k(   26) = (   0.0303968   0.0215565   0.0000000), wk =   0.0555556
        k(   27) = (   0.0303968   0.0537660   0.0000000), wk =   0.0555556
        k(   28) = (   0.0303968  -0.1072818   0.0000000), wk =   0.0555556
        k(   29) = (   0.0303968  -0.0750722   0.0000000), wk =   0.0555556
        k(   30) = (   0.0303968  -0.0428626   0.0000000), wk =   0.0555556
        k(   31) = (   0.0607937  -0.0213062   0.0000000), wk =   0.0555556
        k(   32) = (   0.0607937   0.0109034   0.0000000), wk =   0.0555556
        k(   33) = (   0.0607937   0.0431130   0.0000000), wk =   0.0555556
        k(   34) = (   0.0607937  -0.1179349   0.0000000), wk =   0.0555556
        k(   35) = (   0.0607937  -0.0857253   0.0000000), wk =   0.0555556
        k(   36) = (   0.0607937  -0.0535157   0.0000000), wk =   0.0555556
        k(   37) = (  -0.0911905   0.0319593   0.0000000), wk =   0.0277778
        k(   38) = (  -0.0911905   0.0641688   0.0000000), wk =   0.0555556
        k(   39) = (  -0.0911905   0.0963784   0.0000000), wk =   0.0555556
        k(   40) = (  -0.0911905  -0.0646694   0.0000000), wk =   0.0277778

     Largest allocated arrays     est. size (Mb)     dimensions
     Largest temporary arrays     est. size (Mb)     dimensions

     Check: negative/imaginary core charge=   -0.000004    0.000000

     Initial potential from superposition of free atoms
     Check: negative starting charge=(component1):   -0.214502
     Check: negative starting charge=(component2):   -0.153166

     starting charge  161.98707, renormalised to  168.00000

[...]

     *
     * You are using vdW-DF for exchange-correlation in this calculation.
     * Please cite the following three references that made this development
     * possible:
     *
     *   M. Dion, H. Rydberg, E. Schroder, D. C. Langreth, and
     *   B. I. Lundqvist, Phys. Rev. Lett. 92, 246401 (2004).
     *
     *   T. Thonhauser, V. R. Cooper, S. Li, A. Puzder, P. Hyldgaard, and
     *   D. C. Langreth, Phys. Rev. B 76, 125112 (2007).
     *
     *   G. Roman-Perez and J. M. Soler, Phys. Rev. Lett. 103, 096102 (2009).
     *
     *
     * If you are using vdW-DF2, please also cite:
     *
     *   K. Lee, E. D. Murray, L. Kong, B. I. Lundqvist, and
     *   D. C. Langreth, Phys. Rev. B 82, 081101(R) (2010).
     *
     *
     * If you are calculating the stress with vdW-DF, please also cite:
     *
     *   R. Sabatini, E. Kucukbenli, B. Kolb, T. Thonhauser, and
     *   S. de Gironcoli, J. Phys.: Condens. Matter 24, 424209 (2012).
     *

     Carrying out vdW-DF run using the following parameters:

     Nqs =      20    Nr_points =    1024   r_max =   100.000
     q_mesh =
               0.00001000     0.04494208     0.09755937     0.15916263
               0.23128650     0.31572767     0.41458969     0.53033537
               0.66584808     0.82450364     1.01025438     1.22772762
               1.48234092     1.78043706     2.12944203     2.53805004
               3.01644009     3.57652955     4.23227104     5.00000000

     Gradients computed in reciprocal space

[...]

     Starting wfc are  156 randomized atomic wfcs

     Self-consistent Calculation

[...]

     total energy              =   -2106.57672867 Ry
     Harris-Foulkes estimate   =   -2106.57672721 Ry
     estimated scf accuracy    <       0.00000109 Ry

[...]

     iteration # 41     ecut=    36.75 Ry     beta=0.10
     Davidson diagonalization with overlap
     ethr =  6.50E-10,  avg # of iterations =  3.1

[...]

     negative rho (up, down):  1.928E-01 1.873E-01

[...]

     Adding external electric field

     Computed dipole along edir(3) :
        Dipole                0.0513 Ry au,          0.1303 Debye
        Dipole field          0.0001 Ry au

        Potential amp.       -0.0124 Ry
        Total length         45.0901 bohr

     Magnetic moment per site:
     atom:    1    charge:    7.0820    magn:    0.9082    constr:    0.0000
     atom:    2    charge:    7.0820    magn:    0.9082    constr:    0.0000
     atom:    3    charge:    1.1067    magn:   -0.0204    constr:    0.0000
     atom:    4    charge:    1.1067    magn:   -0.0204    constr:    0.0000
     atom:    5    charge:    7.0701    magn:    0.6275    constr:    0.0000
     atom:    6    charge:    7.0701    magn:    0.6274    constr:    0.0000
     atom:    7    charge:    1.1118    magn:   -0.0171    constr:    0.0000
     atom:    8    charge:    1.1118    magn:   -0.0171    constr:    0.0000
     atom:    9    charge:    7.0833    magn:    0.7936    constr:    0.0000
     atom:   10    charge:    7.0833    magn:    0.7936    constr:    0.0000
     atom:   11    charge:    1.1073    magn:   -0.0190    constr:    0.0000
     atom:   12    charge:    1.1073    magn:   -0.0190    constr:    0.0000

     End of self-consistent calculation

 ------ SPIN UP ------------

[...]

 ------ SPIN DOWN ----------

[...]

          k = 0.0608-0.0535 0.0000 ( 17620 PWs)   bands (ev):

[...]

          k =-0.0912-0.0647 0.0000 ( 17708 PWs)   bands (ev):

   -84.3615 -84.3604 -84.0381 -84.0370 -83.9573 -83.9562 -50.4664 -50.4459
   -50.4440 -50.4418 -50.4209 -50.4146 -50.1766 -50.1694 -50.1395 -50.1157
   -50.1109 -50.1033 -50.0981 -50.0941 -50.0550 -50.0319 -50.0164 -50.0136
   -47.7260 -47.6791 -47.6468 -47.6006 -47.1330 -47.0828 -25.9629 -25.9130
   -25.8867 -25.8041 -25.7866 -25.7809 -25.7205 -25.6955 -25.6694 -25.6128
   -25.4850 -25.4097 -25.3527 -25.1495 -25.1441 -25.1198 -25.0889 -24.9112
    -2.6069  -2.4486  -1.5628  -1.3584  -1.2839  -1.1464  -0.9251  -0.7286
    -0.6956  -0.5085  -0.1892  -0.0635   0.0305   0.1911   0.3083   0.3098
     0.4489   0.4837   0.5109   0.5275   0.7056   0.8249   0.9143   0.9193
     1.0091   1.0415   1.1424   1.1635   1.3027   1.3237   1.3293   1.3341
     1.3371   1.3707   1.5117   1.5746   1.6391   1.7584   1.7694   1.9738
     2.0070   2.1785   2.5462   2.5717   2.6424   2.7653   2.8339   2.8406
     2.9370   3.2549   3.2688   3.2734   3.3602   3.3898   3.4563   3.5326
     3.8363   3.9241   4.1406   4.4171   4.4864   5.0450   5.1104   5.2504
     5.7273   5.9809

     the Fermi energy is     1.5896 ev

!    total energy              =   -2106.57673152 Ry
     Harris-Foulkes estimate   =   -2106.57672941 Ry
     estimated scf accuracy    <       0.00000062 Ry

     The total energy is the sum of the following terms:

     one-electron contribution =  -15620.76359157 Ry
     hartree contribution      =    7809.03180871 Ry
     xc contribution           =    -292.21516480 Ry
     ewald contribution        =    5997.45189604 Ry
     electric field correction =       0.00000705 Ry
     smearing contrib. (-TS)   =      -0.08168695 Ry

     total magnetization       =     5.71 Bohr mag/cell
     absolute magnetization    =    14.53 Bohr mag/cell

     convergence has been achieved in  41 iterations

 BEEF-vdW xc energy contributions
           1 :   -253.733367948406
           2 :    229.756837940012
           3 :   -189.337070036093
           4 :    143.958377957039
           5 :   -104.137607778299
           6 :    75.6774204526787
           7 :   -58.6805211000191
           8 :    49.2104052751114
           9 :   -42.2862075776539
          10 :    34.5108211210448
          11 :   -25.1949041323843
          12 :    15.7841600819469
          13 :   -8.32083690332911
          14 :    3.98924722295379
          15 :   -2.52793862934357
          16 :    2.60954886186153
          17 :   -2.75260251985424
          18 :    2.11996095481499
          19 :  -0.784154904621460
          20 :  -0.587040386904619
          21 :    1.31332798140249
          22 :   -1.16180633833574
          23 :   0.429993982093720
          24 :   0.311474277994080
          25 :  -0.599658888950216
          26 :   0.326944124627119
          27 :   0.259015915226769
          28 :  -0.766125582976542
          29 :   0.916767206454779
          30 :  -0.702381065853956
          31 :   -25.0425557175960
          32 :   -18.1490008556621

     Forces acting on atoms (Ry/au):

     negative rho (up, down):  1.928E-01 1.873E-01
     atom    1 type  1   force =    -0.00000684   -0.00000697    0.01777800
     atom    2 type  1   force =    -0.00000005    0.00000197    0.01778692
     atom    3 type  2   force =     0.00143817    0.00102655   -0.02200219
     atom    4 type  2   force =     0.00144327    0.00101674   -0.02200314
     atom    5 type  1   force =    -0.00012822   -0.00009717    0.00532994
     atom    6 type  1   force =    -0.00013224   -0.00008745    0.00533699
     atom    7 type  2   force =    -0.00086753   -0.00062437   -0.00151201
     atom    8 type  2   force =    -0.00087951   -0.00061457   -0.00151183
     atom    9 type  1   force =    -0.00019348   -0.00013524    0.00032497
     atom   10 type  1   force =    -0.00019136   -0.00013765    0.00033283
     atom   11 type  2   force =    -0.00028333   -0.00011265    0.00007011
     atom   12 type  2   force =    -0.00019888   -0.00022921    0.00006943

     Total force =     0.040881     Total SCF correction =     0.001895

     entering subroutine stress ...

     negative rho (up, down):  1.928E-01 1.873E-01
          total   stress  (Ry/bohr**3)                   (kbar)     P=   -6.68
  -0.00008194  -0.00003425  -0.00000350        -12.05     -5.04     -0.51
  -0.00003425  -0.00005793  -0.00000248         -5.04     -8.52     -0.36
  -0.00000350  -0.00000248   0.00000364         -0.51     -0.36      0.54

 !ASE

     Writing output data file calc.save

     General routines

     Parallel routines

   This run was terminated on:  20:24:13  24Dec2018

   JOB DONE.
Job  /afs/slac/g/suncat/bin/suncat-tsmpirun -x LD_LIBRARY_PATH -wdir /scratch/qe108958_gaHvQ pw.x -in pw.inp

TID   HOST_NAME   COMMAND_LINE            STATUS            TERMINATION_TIME
00000 suncat0081 pw.x -in pw.inp   Done                     12/24/2018 20:24:13
00001 suncat0081 pw.x -in pw.inp   Done                     12/24/2018 20:24:13
00002 suncat0081 pw.x -in pw.inp   Done                     12/24/2018 20:24:13
00003 suncat0081 pw.x -in pw.inp   Done                     12/24/2018 20:24:13
00004 suncat0081 pw.x -in pw.inp   Done                     12/24/2018 20:24:13
00005 suncat0081 pw.x -in pw.inp   Done                     12/24/2018 20:24:13
00006 suncat0081 pw.x -in pw.inp   Done                     12/24/2018 20:24:13
00007 suncat0081 pw.x -in pw.inp   Done                     12/24/2018 20:24:13
00008 suncat0080 pw.x -in pw.inp   Done                     12/24/2018 20:24:13
00009 suncat0080 pw.x -in pw.inp   Done                     12/24/2018 20:24:13
00010 suncat0080 pw.x -in pw.inp   Done                     12/24/2018 20:24:13
00011 suncat0080 pw.x -in pw.inp   Done                     12/24/2018 20:24:13
00012 suncat0080 pw.x -in pw.inp   Done                     12/24/2018 20:24:13
00013 suncat0080 pw.x -in pw.inp   Done                     12/24/2018 20:24:13
00014 suncat0080 pw.x -in pw.inp   Done                     12/24/2018 20:24:13
00015 suncat0080 pw.x -in pw.inp   Done                     12/24/2018 20:24:13
00016 suncat0172 pw.x -in pw.inp   Done                     12/24/2018 20:24:13
00017 suncat0172 pw.x -in pw.inp   Done                     12/24/2018 20:24:13
00018 suncat0172 pw.x -in pw.inp   Done                     12/24/2018 20:24:13
00019 suncat0172 pw.x -in pw.inp   Done                     12/24/2018 20:24:13
00020 suncat0172 pw.x -in pw.inp   Done                     12/24/2018 20:24:13
00021 suncat0172 pw.x -in pw.inp   Done                     12/24/2018 20:24:13
00022 suncat0172 pw.x -in pw.inp   Done                     12/24/2018 20:24:13
00023 suncat0172 pw.x -in pw.inp   Done                     12/24/2018 20:24:13
00024 suncat0171 pw.x -in pw.inp   Done                     12/24/2018 20:24:13
00025 suncat0171 pw.x -in pw.inp   Done                     12/24/2018 20:24:13
00026 suncat0171 pw.x -in pw.inp   Done                     12/24/2018 20:24:13
00027 suncat0171 pw.x -in pw.inp   Done                     12/24/2018 20:24:13
00028 suncat0171 pw.x -in pw.inp   Done                     12/24/2018 20:24:13
00029 suncat0171 pw.x -in pw.inp   Done                     12/24/2018 20:24:13
00030 suncat0171 pw.x -in pw.inp   Done                     12/24/2018 20:24:13
00031 suncat0171 pw.x -in pw.inp   Done                     12/24/2018 20:24:13
00032 suncat0270 pw.x -in pw.inp   Done                     12/24/2018 20:24:13
00033 suncat0270 pw.x -in pw.inp   Done                     12/24/2018 20:24:13
00034 suncat0270 pw.x -in pw.inp   Done                     12/24/2018 20:24:13
00035 suncat0270 pw.x -in pw.inp   Done                     12/24/2018 20:24:13
00036 suncat0270 pw.x -in pw.inp   Done                     12/24/2018 20:24:13
00037 suncat0270 pw.x -in pw.inp   Done                     12/24/2018 20:24:13
00038 suncat0270 pw.x -in pw.inp   Done                     12/24/2018 20:24:13
00039 suncat0270 pw.x -in pw.inp   Done                     12/24/2018 20:24:13
00040 suncat0268 pw.x -in pw.inp   Done                     12/24/2018 20:24:13
00041 suncat0268 pw.x -in pw.inp   Done                     12/24/2018 20:24:13
00042 suncat0268 pw.x -in pw.inp   Done                     12/24/2018 20:24:13
00043 suncat0268 pw.x -in pw.inp   Done                     12/24/2018 20:24:13
00044 suncat0268 pw.x -in pw.inp   Done                     12/24/2018 20:24:13
00045 suncat0268 pw.x -in pw.inp   Done                     12/24/2018 20:24:13
00046 suncat0268 pw.x -in pw.inp   Done                     12/24/2018 20:24:13
00047 suncat0268 pw.x -in pw.inp   Done                     12/24/2018 20:24:13
00048 suncat0207 pw.x -in pw.inp   Done                     12/24/2018 20:24:13
00049 suncat0207 pw.x -in pw.inp   Done                     12/24/2018 20:24:13
00050 suncat0207 pw.x -in pw.inp   Done                     12/24/2018 20:24:13
00051 suncat0207 pw.x -in pw.inp   Done                     12/24/2018 20:24:13
00052 suncat0207 pw.x -in pw.inp   Done                     12/24/2018 20:24:13
00053 suncat0207 pw.x -in pw.inp   Done                     12/24/2018 20:24:13
00054 suncat0207 pw.x -in pw.inp   Done                     12/24/2018 20:24:13
00055 suncat0207 pw.x -in pw.inp   Done                     12/24/2018 20:24:13
00056 suncat0206 pw.x -in pw.inp   Done                     12/24/2018 20:24:13
00057 suncat0206 pw.x -in pw.inp   Done                     12/24/2018 20:24:13
00058 suncat0206 pw.x -in pw.inp   Done                     12/24/2018 20:24:13
00059 suncat0206 pw.x -in pw.inp   Done                     12/24/2018 20:24:13
00060 suncat0206 pw.x -in pw.inp   Done                     12/24/2018 20:24:13
00061 suncat0206 pw.x -in pw.inp   Done                     12/24/2018 20:24:13
00062 suncat0206 pw.x -in pw.inp   Done                     12/24/2018 20:24:13
00063 suncat0206 pw.x -in pw.inp   Done                     12/24/2018 20:24:13