     Program PWSCF v.5.1rc2 (svn rev. 11289) starts on 19Dec2018 at  8: 6:25

     Current dimensions of program PWSCF are:
     Max number of different atomic species (ntypx) = 10
     Max number of k-points (npk) =  40000
     Max angular momentum in pseudopotentials (lmaxx) =  3
     Presently stress not available with electric field

     IMPORTANT: XC functional enforced from input :
     Exchange-correlation      = BEEF-VDW ( 1  4 27 13 2)
     Any further DFT definition will be discarded
     Please, verify this is what you really want

     Subspace diagonalization in iterative solution of the eigenvalue problem:
     a serial algorithm will be used

     Found symmetry operation: I + ( -0.5000 -0.5000  0.0000)
     This is a supercell, fractional translations are disabled

     bravais-lattice index     =            0
     lattice parameter (alat)  =       1.8897  a.u.
     unit-cell volume          =    4526.7551 (a.u.)^3
     number of atoms/cell      =           12
     number of atomic types    =            2
     number of electrons       =       168.00
     number of Kohn-Sham states=          114
     kinetic-energy cutoff     =      36.7493  Ry
     charge density cutoff     =     367.4932  Ry
     convergence threshold     =      1.0E-06
     mixing beta               =       0.1000
     number of iterations used =           10  plain     mixing
     Exchange-correlation      = BEEF-VDW ( 1  4 27 13 2)
     nstep                     =           50

     celldm(1)=   1.889726  celldm(2)=   0.000000  celldm(3)=   0.000000
     celldm(4)=   0.000000  celldm(5)=   0.000000  celldm(6)=   0.000000

     crystal axes: (cart. coord. in units of alat)
               a(1) = (   5.587654   0.000000   0.000000 )
               a(2) = (   2.715147   4.883631   0.000000 )
               a(3) = (   0.000000   0.000000  24.582048 )

     reciprocal axes: (cart. coord. in units 2 pi/alat)
               b(1) = (  0.178966 -0.099500  0.000000 )
               b(2) = (  0.000000  0.204766  0.000000 )
               b(3) = (  0.000000  0.000000  0.040680 )

     PseudoPot. # 1 for Ti read from file:
     /afs/slac.stanford.edu/u/if/mamunm/psp/gbrv1.5pbe/Ti.UPF
     MD5 check sum: 88a00a6731bd790ddea75d31a80cb452
     Pseudo is Ultrasoft + core correction, Zval = 12.0
     Generated by new atomic code, or converted to UPF format
     Using radial grid of  851 points,  6 beta functions with:
                l(1) =   0
                l(2) =   0
                l(3) =   1
                l(4) =   1
                l(5) =   2
                l(6) =   2
     Q(r) pseudized with  6 coefficients,  rinner =    1.000   1.000   1.000
                                                       1.000   1.000

     PseudoPot. # 2 for Pt read from file:
     /afs/slac.stanford.edu/u/if/mamunm/psp/gbrv1.5pbe/Pt.UPF
     MD5 check sum: f09d6de1a584b5a045c4fc126da2d0c4
     Pseudo is Ultrasoft + core correction, Zval = 16.0
     Generated by new atomic code, or converted to UPF format
     Using radial grid of  985 points,  6 beta functions with:
                l(1) =   0
                l(2) =   0
                l(3) =   1
                l(4) =   1
                l(5) =   2
                l(6) =   2
     Q(r) pseudized with  8 coefficients,  rinner =    1.300   1.300   1.300
                                                       1.300   1.300

     vdW kernel table read from file vdW_kernel_table
     MD5 check sum: 095c7af220d748ca6e76c0b4c6cfb241

     atomic species   valence    mass     pseudopotential
        Ti1           12.00    47.86700     Ti( 1.00)
        Pt1           16.00   195.08400     Pt( 1.00)

     No symmetry found

   Cartesian axes

     site n.     atom                  positions (alat units)
         1           Ti1 tau(   1) = (   0.0000000   0.0000000  10.0000000  )
         2           Ti1 tau(   2) = (   4.1514001   2.4418156  10.0000000  )
         3           Pt1 tau(   3) = (   2.7938268   0.0000000  10.0000000  )
         4           Pt1 tau(   4) = (   1.3575733   2.4418156  10.0000000  )
         5           Ti1 tau(   5) = (   5.5876537   3.2866068  12.2910240  )
         6           Ti1 tau(   6) = (   1.4362536   0.8447912  12.2910240  )
         7           Pt1 tau(   7) = (   2.7938268   3.2866068  12.2910240  )
         8           Pt1 tau(   8) = (   4.2300804   0.8447912  12.2910240  )
         9           Ti1 tau(   9) = (   2.8725071   1.6895824  14.5820480  )
        10           Ti1 tau(  10) = (   7.0239073   4.1313979  14.5820480  )
        11           Pt1 tau(  11) = (   5.6663340   1.6895824  14.5820480  )
        12           Pt1 tau(  12) = (   4.2300804   4.1313979  14.5820480  )

     number of k points=    20  Fermi-Dirac smearing, width (Ry)=  0.0110
                       cart. coord. in units 2pi/alat
        k(    1) = (   0.0000000   0.0000000   0.0000000), wk =   0.0555556
        k(    2) = (   0.0000000   0.0341276   0.0000000), wk =   0.1111111
        k(    3) = (   0.0000000   0.0682552   0.0000000), wk =   0.1111111
        k(    4) = (   0.0000000  -0.1023828   0.0000000), wk =   0.0555556
        k(    5) = (   0.0298277  -0.0165833   0.0000000), wk =   0.1111111
        k(    6) = (   0.0298277   0.0175444   0.0000000), wk =   0.1111111
        k(    7) = (   0.0298277   0.0516720   0.0000000), wk =   0.1111111
        k(    8) = (   0.0298277  -0.1189661   0.0000000), wk =   0.1111111
        k(    9) = (   0.0298277  -0.0848385   0.0000000), wk =   0.1111111
        k(   10) = (   0.0298277  -0.0507109   0.0000000), wk =   0.1111111
        k(   11) = (   0.0596553  -0.0331665   0.0000000), wk =   0.1111111
        k(   12) = (   0.0596553   0.0009611   0.0000000), wk =   0.1111111
        k(   13) = (   0.0596553   0.0350887   0.0000000), wk =   0.1111111
        k(   14) = (   0.0596553  -0.1355493   0.0000000), wk =   0.1111111
        k(   15) = (   0.0596553  -0.1014217   0.0000000), wk =   0.1111111
        k(   16) = (   0.0596553  -0.0672941   0.0000000), wk =   0.1111111
        k(   17) = (  -0.0894830   0.0497498   0.0000000), wk =   0.0555556
        k(   18) = (  -0.0894830   0.0838774   0.0000000), wk =   0.1111111
        k(   19) = (  -0.0894830   0.1180050   0.0000000), wk =   0.1111111
        k(   20) = (  -0.0894830  -0.0526331   0.0000000), wk =   0.0555556

     Largest allocated arrays     est. size (Mb)     dimensions
     Largest temporary arrays     est. size (Mb)     dimensions

     Check: negative/imaginary core charge=   -0.000004    0.000000

     Initial potential from superposition of free atoms
     Check: negative starting charge=   -1.109864

     starting charge  158.99967, renormalised to  168.00000

     negative rho (up, down):  1.173E+00 0.000E+00

     *
     * You are using vdW-DF for exchange-correlation in this calculation.
     * Please cite the following three references that made this development
     * possible:
     *
     *   M. Dion, H. Rydberg, E. Schroder, D. C. Langreth, and
     *   B. I. Lundqvist, Phys. Rev. Lett. 92, 246401 (2004).
     *
     *   T. Thonhauser, V. R. Cooper, S. Li, A. Puzder, P. Hyldgaard, and
     *   D. C. Langreth, Phys. Rev. B 76, 125112 (2007).
     *
     *   G. Roman-Perez and J. M. Soler, Phys. Rev. Lett. 103, 096102 (2009).
     *
     *
     * If you are using vdW-DF2, please also cite:
     *
     *   K. Lee, E. D. Murray, L. Kong, B. I. Lundqvist, and
     *   D. C. Langreth, Phys. Rev. B 82, 081101(R) (2010).
     *
     *
     * If you are calculating the stress with vdW-DF, please also cite:
     *
     *   R. Sabatini, E. Kucukbenli, B. Kolb, T. Thonhauser, and
     *   S. de Gironcoli, J. Phys.: Condens. Matter 24, 424209 (2012).
     *

     Carrying out vdW-DF run using the following parameters:

     Nqs =      20    Nr_points =    1024   r_max =   100.000
     q_mesh =
               0.00001000     0.04494208     0.09755937     0.15916263
               0.23128650     0.31572767     0.41458969     0.53033537
               0.66584808     0.82450364     1.01025438     1.22772762
               1.48234092     1.78043706     2.12944203     2.53805004
               3.01644009     3.57652955     4.23227104     5.00000000

     Gradients computed in reciprocal space

     Adding external electric field

     Computed dipole along edir(3) :
        Dipole                0.0000 Ry au,          0.0000 Debye
        Dipole field          0.0000 Ry au

        Potential amp.       -0.0000 Ry
        Total length         45.2920 bohr

     Starting wfc are  132 randomized atomic wfcs

     Self-consistent Calculation

     iteration #  1     ecut=    36.75 Ry     beta=0.10
     Davidson diagonalization with overlap
     ethr =  1.00E-02,  avg # of iterations =  6.3

[...]

     total energy              =   -1980.55409230 Ry
     Harris-Foulkes estimate   =   -2006.66851385 Ry
     estimated scf accuracy    <     146.17252297 Ry

[...]

     End of self-consistent calculation

          k = 0.0000 0.0000 0.0000 ( 17015 PWs)   bands (ev):

   -55.6548 -55.6525 -55.6019 -55.5995 -55.5352 -55.4816 -51.6257 -51.5293
   -51.5122 -51.4560 -51.4381 -51.4361 -51.1049 -51.1044 -51.0832 -51.0812
   -51.0653 -51.0630 -50.9154 -50.9154 -50.9113 -50.9055 -50.8952 -50.8883
   -32.0259 -31.9817 -31.9763 -31.9573 -31.9436 -31.9332 -31.9179 -31.8773
   -31.8486 -31.8397 -31.8368 -31.8026 -31.7858 -31.6030 -31.5597 -31.5263
   -31.5184 -31.4958  -5.9428  -4.3920  -4.0206  -3.7808  -3.4938  -3.4884
    -3.3785  -3.2850  -3.2071  -2.9526  -2.9243  -2.8773  -2.7708  -2.7078
    -2.2821  -2.1237  -1.7697  -1.4397  -1.4121  -1.3491  -1.3482  -1.2327
    -1.0117  -0.9568  -0.8704  -0.8211  -0.7069  -0.4435  -0.4291   0.2129
     0.4651   0.5688   1.0342   1.2884   1.3955   1.4635   1.4714   1.7157
     1.7780   2.0026   2.0624   2.1600   2.1837   2.3350   2.4510   2.5379
     2.8286   2.8325   2.8958   2.9688   3.2821   3.3101   3.3238   3.3739
     3.5706   3.6656   3.7193   3.8294   3.9309   4.1086   4.1608   4.3662
     4.4194   4.5194   4.5402   4.5931   4.7911   5.0401   5.2812   5.2998
     5.4502   5.5286

[...]

          k =-0.0895 0.0497 0.0000 ( 17046 PWs)   bands (ev):

[...]

     the Fermi energy is     1.8063 ev

!    total energy              =   -1994.06056621 Ry
     Harris-Foulkes estimate   =   -1994.06055553 Ry
     estimated scf accuracy    <       0.00000068 Ry

     The total energy is the sum of the following terms:

     one-electron contribution =  -15437.01796258 Ry
     hartree contribution      =    7729.30979662 Ry
     xc contribution           =    -464.18977658 Ry
     ewald contribution        =    6177.93065317 Ry
     electric field correction =       0.00000001 Ry
     smearing contrib. (-TS)   =      -0.09327686 Ry

     convergence has been achieved in  19 iterations

 BEEF-vdW xc energy contributions
           1 :   -409.988792142108
           2 :    378.151169649661
           3 :   -322.488142186210
           4 :    255.546820428070
           5 :   -189.683466344737
           6 :    133.394420392227
           7 :   -90.0405591831538
           8 :    58.7638666493907
           9 :   -36.5284805236604
[...]
00031 suncat2039 pw.x -in pw.inp   Done                     12/19/2018 08:11:39

     Program PWSCF v.5.1rc2 (svn rev. 11289) starts on 19Dec2018 at  8:11:45

[...]

   This run was terminated on:   8:17: 2  19Dec2018

[...]

     Program PWSCF v.5.1rc2 (svn rev. 11289) starts on 19Dec2018 at  8:17: 8

[...]

     Found symmetry operation: I + ( -0.5000 -0.5000  0.0000)
     This is a supercell, fractional translations are disabled

[...]

     Program PWSCF v.5.1rc2 (svn rev. 11289) starts on 19Dec2018 at  8:45: 0

[...]

     Program PWSCF v.5.1rc2 (svn rev. 11289) starts on 19Dec2018 at  8:50:33

     Current dimensions of program PWSCF are:
     Max number of different atomic species (ntypx) = 10
     Max number of k-points (npk) =  40000
     Max angular momentum in pseudopotentials (lmaxx) =  3
     Presently stress not available with electric field

     IMPORTANT: XC functional enforced from input :
     Exchange-correlation      = BEEF-VDW ( 1  4 27 13 2)
     Any further DFT definition will be discarded
     Please, verify this is what you really want

     Subspace diagonalization in iterative solution of the eigenvalue problem:
     a serial algorithm will be used

     bravais-lattice index     =            0
     lattice parameter (alat)  =       1.8897  a.u.
     unit-cell volume          =    4526.7551 (a.u.)^3
     number of atoms/cell      =           12
     number of atomic types    =            2
     number of electrons       =       168.00
     number of Kohn-Sham states=          114
     kinetic-energy cutoff     =      36.7493  Ry
     charge density cutoff     =     367.4932  Ry
     convergence threshold     =      1.0E-06
     mixing beta               =       0.1000
     number of iterations used =           10  plain     mixing
     Exchange-correlation      = BEEF-VDW ( 1  4 27 13 2)
     nstep                     =           50

     celldm(1)=   1.889726  celldm(2)=   0.000000  celldm(3)=   0.000000
     celldm(4)=   0.000000  celldm(5)=   0.000000  celldm(6)=   0.000000

     crystal axes: (cart. coord. in units of alat)
               a(1) = (   5.587654   0.000000   0.000000 )
               a(2) = (   2.715147   4.883631   0.000000 )
               a(3) = (   0.000000   0.000000  24.582048 )

     reciprocal axes: (cart. coord. in units 2 pi/alat)
               b(1) = (  0.178966 -0.099500  0.000000 )
               b(2) = (  0.000000  0.204766  0.000000 )
               b(3) = (  0.000000  0.000000  0.040680 )

     PseudoPot. # 1 for Ti read from file:
     /afs/slac.stanford.edu/u/if/mamunm/psp/gbrv1.5pbe/Ti.UPF
     MD5 check sum: 88a00a6731bd790ddea75d31a80cb452
     Pseudo is Ultrasoft + core correction, Zval = 12.0
     Generated by new atomic code, or converted to UPF format
     Using radial grid of  851 points,  6 beta functions with:
                l(1) =   0
                l(2) =   0
                l(3) =   1
                l(4) =   1
                l(5) =   2
                l(6) =   2
     Q(r) pseudized with  6 coefficients,  rinner =    1.000   1.000   1.000
                                                       1.000   1.000

     PseudoPot. # 2 for Pt read from file:
     /afs/slac.stanford.edu/u/if/mamunm/psp/gbrv1.5pbe/Pt.UPF
     MD5 check sum: f09d6de1a584b5a045c4fc126da2d0c4
     Pseudo is Ultrasoft + core correction, Zval = 16.0
     Generated by new atomic code, or converted to UPF format
     Using radial grid of  985 points,  6 beta functions with:
                l(1) =   0
                l(2) =   0
                l(3) =   1
                l(4) =   1
                l(5) =   2
                l(6) =   2
     Q(r) pseudized with  8 coefficients,  rinner =    1.300   1.300   1.300
                                                       1.300   1.300

     vdW kernel table read from file vdW_kernel_table
     MD5 check sum: 095c7af220d748ca6e76c0b4c6cfb241

     atomic species   valence    mass     pseudopotential
        Ti1           12.00    47.86700     Ti( 1.00)
        Pt1           16.00   195.08400     Pt( 1.00)

     No symmetry found

   Cartesian axes

     site n.     atom                  positions (alat units)
         1           Ti1 tau(   1) = (   0.0000000   0.0000000  10.0000000  )
         2           Ti1 tau(   2) = (   4.1514001   2.4418156  10.0000000  )
         3           Pt1 tau(   3) = (   2.7938268   0.0000000  10.0000000  )
         4           Pt1 tau(   4) = (   1.3575733   2.4418156  10.0000000  )
         5           Ti1 tau(   5) = (   5.5876537   3.2866068  12.2910240  )
         6           Ti1 tau(   6) = (   1.4362536   0.8447912  12.2910240  )
         7           Pt1 tau(   7) = (   2.7938268   3.2866068  12.2910240  )
         8           Pt1 tau(   8) = (   4.2300804   0.8447912  12.2910240  )
         9           Ti1 tau(   9) = (   3.2660340   1.9210500  14.5884086  )
        10           Ti1 tau(  10) = (   7.4174216   4.3628595  14.5884073  )
        11           Pt1 tau(  11) = (   6.0762058   1.9306985  14.5526521  )
        12           Pt1 tau(  12) = (   4.6399826   4.3724649  14.5526525  )

     number of k points=    20  Fermi-Dirac smearing, width (Ry)=  0.0110
                       cart. coord. in units 2pi/alat
        k(    1) = (   0.0000000   0.0000000   0.0000000), wk =   0.0555556
        k(    2) = (   0.0000000   0.0341276   0.0000000), wk =   0.1111111
        k(    3) = (   0.0000000   0.0682552   0.0000000), wk =   0.1111111
        k(    4) = (   0.0000000  -0.1023828   0.0000000), wk =   0.0555556
        k(    5) = (   0.0298277  -0.0165833   0.0000000), wk =   0.1111111
        k(    6) = (   0.0298277   0.0175444   0.0000000), wk =   0.1111111
        k(    7) = (   0.0298277   0.0516720   0.0000000), wk =   0.1111111
        k(    8) = (   0.0298277  -0.1189661   0.0000000), wk =   0.1111111
        k(    9) = (   0.0298277  -0.0848385   0.0000000), wk =   0.1111111
        k(   10) = (   0.0298277  -0.0507109   0.0000000), wk =   0.1111111
        k(   11) = (   0.0596553  -0.0331665   0.0000000), wk =   0.1111111
        k(   12) = (   0.0596553   0.0009611   0.0000000), wk =   0.1111111
        k(   13) = (   0.0596553   0.0350887   0.0000000), wk =   0.1111111
        k(   14) = (   0.0596553  -0.1355493   0.0000000), wk =   0.1111111
        k(   15) = (   0.0596553  -0.1014217   0.0000000), wk =   0.1111111
        k(   16) = (   0.0596553  -0.0672941   0.0000000), wk =   0.1111111
        k(   17) = (  -0.0894830   0.0497498   0.0000000), wk =   0.0555556
        k(   18) = (  -0.0894830   0.0838774   0.0000000), wk =   0.1111111
        k(   19) = (  -0.0894830   0.1180050   0.0000000), wk =   0.1111111
        k(   20) = (  -0.0894830  -0.0526331   0.0000000), wk =   0.0555556

     Largest allocated arrays     est. size (Mb)     dimensions
     Largest temporary arrays     est. size (Mb)     dimensions

     Check: negative/imaginary core charge=   -0.000004    0.000000

     Initial potential from superposition of free atoms
     Check: negative starting charge=   -1.110698

     starting charge  158.99967, renormalised to  168.00000

[...]

     *
     * You are using vdW-DF for exchange-correlation in this calculation.
     * Please cite the following three references that made this development
     * possible:
     *
     *   M. Dion, H. Rydberg, E. Schroder, D. C. Langreth, and
     *   B. I. Lundqvist, Phys. Rev. Lett. 92, 246401 (2004).
     *
     *   T. Thonhauser, V. R. Cooper, S. Li, A. Puzder, P. Hyldgaard, and
     *   D. C. Langreth, Phys. Rev. B 76, 125112 (2007).
     *
     *   G. Roman-Perez and J. M. Soler, Phys. Rev. Lett. 103, 096102 (2009).
     *
     *
     * If you are using vdW-DF2, please also cite:
     *
     *   K. Lee, E. D. Murray, L. Kong, B. I. Lundqvist, and
     *   D. C. Langreth, Phys. Rev. B 82, 081101(R) (2010).
     *
     *
     * If you are calculating the stress with vdW-DF, please also cite:
     *
     *   R. Sabatini, E. Kucukbenli, B. Kolb, T. Thonhauser, and
     *   S. de Gironcoli, J. Phys.: Condens. Matter 24, 424209 (2012).
     *

     Carrying out vdW-DF run using the following parameters:

     Nqs =      20    Nr_points =    1024   r_max =   100.000
     q_mesh =
               0.00001000     0.04494208     0.09755937     0.15916263
               0.23128650     0.31572767     0.41458969     0.53033537
               0.66584808     0.82450364     1.01025438     1.22772762
               1.48234092     1.78043706     2.12944203     2.53805004
               3.01644009     3.57652955     4.23227104     5.00000000

     Gradients computed in reciprocal space

[...]

     Starting wfc are  132 randomized atomic wfcs

     Self-consistent Calculation

[...]

     total energy              =   -1994.07991951 Ry
     Harris-Foulkes estimate   =   -1994.07991616 Ry
     estimated scf accuracy    <       0.00000662 Ry

     iteration # 19     ecut=    36.75 Ry     beta=0.10
     Davidson diagonalization with overlap
     ethr =  3.94E-09,  avg # of iterations =  1.9

[...]

     negative rho (up, down):  1.050E+00 0.000E+00

     Adding external electric field

     Computed dipole along edir(3) :
        Dipole                0.0684 Ry au,          0.1738 Debye
        Dipole field          0.0002 Ry au

        Potential amp.       -0.0172 Ry
        Total length         45.2920 bohr

     End of self-consistent calculation

[...]

          k = 0.0597-0.0673 0.0000 ( 17015 PWs)   bands (ev):

[...]

          k =-0.0895-0.0526 0.0000 ( 17092 PWs)   bands (ev):

   -55.7011 -55.6473 -55.5957 -55.5539 -55.5403 -55.4998 -51.6681 -51.5377
   -51.5219 -51.4793 -51.4743 -51.4591 -51.1887 -51.1196 -51.1044 -51.0245
   -51.0043 -50.9999 -50.9988 -50.9882 -50.9837 -50.8365 -50.8361 -50.8195
   -32.0565 -32.0066 -31.9584 -31.9570 -31.9395 -31.9293 -31.9041 -31.8823
   -31.8761 -31.8375 -31.8331 -31.8007 -31.7516 -31.6808 -31.6365 -31.5200
   -31.5128 -31.4101  -4.8383  -4.1770  -3.7307  -3.3085  -3.1113  -3.0172
    -2.9790  -2.7052  -2.6369  -2.5993  -2.3043  -2.2416  -2.2239  -2.1338
    -2.1015  -1.9105  -1.7728  -1.4830  -1.4364  -1.4311  -1.1741  -1.1564
    -1.0935  -0.8448  -0.8346  -0.7609  -0.5976  -0.3492  -0.2088  -0.0597
    -0.0317   0.0200   0.0705   0.4360   0.4449   0.5359   0.7037   1.0380
     1.0556   1.1050   1.2190   1.3072   1.4042   1.5645   1.5742   1.8222
     1.8473   1.9245   2.2054   2.4376   2.7324   2.7544   2.8439   3.3079
     3.3644   3.3803   3.5419   3.6235   3.6353   3.6496   3.7153   3.8342
     3.8743   4.1006   4.3421   4.5963   4.7408   4.7775   5.8059   6.0262
     6.0914   6.2227

     the Fermi energy is     1.9049 ev

!    total energy              =   -1994.07993182 Ry
     Harris-Foulkes estimate   =   -1994.07992036 Ry
     estimated scf accuracy    <       0.00000072 Ry

     The total energy is the sum of the following terms:

     one-electron contribution =  -15467.36896539 Ry
     hartree contribution      =    7744.43860070 Ry
     xc contribution           =    -464.20829759 Ry
     ewald contribution        =    6193.15230193 Ry
     electric field correction =       0.00001299 Ry
     smearing contrib. (-TS)   =      -0.09358445 Ry

     convergence has been achieved in  19 iterations

 BEEF-vdW xc energy contributions
           1 :   -410.010578022964
           2 :    378.182003799513
           3 :   -322.528664500016
           4 :    255.581870332511
           5 :   -189.682445000590
           6 :    133.325342277179
           7 :   -89.8929319300713
           8 :    58.5623919667861
           9 :   -36.3251326338926
          10 :    19.9312629899194
          11 :   -7.05028140820377
          12 :   -3.49562254969550
          13 :    12.0793785760188
          14 :   -18.7179007012057
          15 :    23.3089973402983
          16 :   -25.6972117307105
          17 :    25.7680420042018
          18 :   -23.6690831231255
          19 :    20.0122510335823
          20 :   -15.8419579324819
          21 :    12.2924177898396
          22 :   -10.1025668257196
          23 :    9.27572238372596
          24 :   -9.11157789350563
          25 :    8.61330405731798
          26 :   -7.04617463039227
          27 :    4.32145269512733
          28 :  -0.998374721350729
          29 :   -2.06486470882254
          30 :    4.17116047444472
          31 :   -35.8929682384389
          32 :   -26.2681745631171

     Forces acting on atoms (Ry/au):

     negative rho (up, down):  1.050E+00 0.000E+00
     atom    1 type  1   force =    -0.00309365   -0.00181986   -0.00649528
     atom    2 type  1   force =    -0.00309514   -0.00182030   -0.00648957
     atom    3 type  2   force =    -0.02103048   -0.01236763    0.00897289
     atom    4 type  2   force =    -0.02102768   -0.01237098    0.00897351
     atom    5 type  1   force =     0.01033415    0.00607821   -0.00654410
     atom    6 type  1   force =     0.01032124    0.00607113   -0.00654516
     atom    7 type  2   force =     0.01336865    0.00786815    0.00413015
     atom    8 type  2   force =     0.01337311    0.00786099    0.00413065
     atom    9 type  1   force =    -0.00009666   -0.00005686    0.00035870
     atom   10 type  1   force =    -0.00008584   -0.00005043    0.00036797
     atom   11 type  2   force =     0.00052554    0.00028781   -0.00043013
     atom   12 type  2   force =     0.00050677    0.00031977   -0.00042965

     Total force =     0.048488     Total SCF correction =     0.004743

     entering subroutine stress ...

     negative rho (up, down):  1.050E+00 0.000E+00
          total   stress  (Ry/bohr**3)                   (kbar)     P=  -14.19
  -0.00015057  -0.00002402   0.00004705        -22.15     -3.53      6.92
  -0.00002402  -0.00012385   0.00002767         -3.53    -18.22      4.07
   0.00004705   0.00002767  -0.00001489          6.92      4.07     -2.19

 !ASE

     Writing output data file calc.save

     General routines

     Parallel routines

   This run was terminated on:   8:55:44  19Dec2018

   JOB DONE.
Job  /afs/slac/g/suncat/bin/suncat-tsmpirun -x LD_LIBRARY_PATH -wdir /scratch/qe530708_q5odt pw.x -in pw.inp

TID   HOST_NAME   COMMAND_LINE            STATUS            TERMINATION_TIME
00000 suncat2040 pw.x -in pw.inp   Done                     12/19/2018 08:55:44
00001 suncat2040 pw.x -in pw.inp   Done                     12/19/2018 08:55:44
00002 suncat2040 pw.x -in pw.inp   Done                     12/19/2018 08:55:44
00003 suncat2040 pw.x -in pw.inp   Done                     12/19/2018 08:55:44
00004 suncat2040 pw.x -in pw.inp   Done                     12/19/2018 08:55:44
00005 suncat2040 pw.x -in pw.inp   Done                     12/19/2018 08:55:44
00006 suncat2040 pw.x -in pw.inp   Done                     12/19/2018 08:55:44
00007 suncat2040 pw.x -in pw.inp   Done                     12/19/2018 08:55:44
00008 suncat2040 pw.x -in pw.inp   Done                     12/19/2018 08:55:44
00009 suncat2040 pw.x -in pw.inp   Done                     12/19/2018 08:55:44
00010 suncat2040 pw.x -in pw.inp   Done                     12/19/2018 08:55:44
00011 suncat2040 pw.x -in pw.inp   Done                     12/19/2018 08:55:44
00012 suncat2040 pw.x -in pw.inp   Done                     12/19/2018 08:55:44
00013 suncat2040 pw.x -in pw.inp   Done                     12/19/2018 08:55:44
00014 suncat2040 pw.x -in pw.inp   Done                     12/19/2018 08:55:44
00015 suncat2040 pw.x -in pw.inp   Done                     12/19/2018 08:55:44
00016 suncat2039 pw.x -in pw.inp   Done                     12/19/2018 08:55:44
00017 suncat2039 pw.x -in pw.inp   Done                     12/19/2018 08:55:44
00018 suncat2039 pw.x -in pw.inp   Done                     12/19/2018 08:55:44
00019 suncat2039 pw.x -in pw.inp   Done                     12/19/2018 08:55:44
00020 suncat2039 pw.x -in pw.inp   Done                     12/19/2018 08:55:44
00021 suncat2039 pw.x -in pw.inp   Done                     12/19/2018 08:55:44
00022 suncat2039 pw.x -in pw.inp   Done                     12/19/2018 08:55:44
00023 suncat2039 pw.x -in pw.inp   Done                     12/19/2018 08:55:44
00024 suncat2039 pw.x -in pw.inp   Done                     12/19/2018 08:55:44
00025 suncat2039 pw.x -in pw.inp   Done                     12/19/2018 08:55:44
00026 suncat2039 pw.x -in pw.inp   Done                     12/19/2018 08:55:44
00027 suncat2039 pw.x -in pw.inp   Done                     12/19/2018 08:55:44
00028 suncat2039 pw.x -in pw.inp   Done                     12/19/2018 08:55:44
00029 suncat2039 pw.x -in pw.inp   Done                     12/19/2018 08:55:44
00030 suncat2039 pw.x -in pw.inp   Done                     12/19/2018 08:55:44
00031 suncat2039 pw.x -in pw.inp   Done                     12/19/2018 08:55:44