     Program PWSCF v.5.1rc2 (svn rev. 11289) starts on 18Dec2018 at 16:49:46

     Current dimensions of program PWSCF are:
     Max number of different atomic species (ntypx) = 10
     Max number of k-points (npk) =  40000
     Max angular momentum in pseudopotentials (lmaxx) =  3
     Presently stress not available with electric field

     IMPORTANT: XC functional enforced from input :
     Exchange-correlation      = BEEF-VDW ( 1  4 27 13 2)
     Any further DFT definition will be discarded
     Please, verify this is what you really want

     Subspace diagonalization in iterative solution of the eigenvalue problem:
     a serial algorithm will be used

     Found symmetry operation: I + (  0.5000  0.0000  0.0000)
     This is a supercell, fractional translations are disabled

     bravais-lattice index     =            0
     lattice parameter (alat)  =       1.8897  a.u.
     unit-cell volume          =    5000.9046 (a.u.)^3
     number of atoms/cell      =           12
     number of atomic types    =            2
     number of electrons       =       132.00
     number of Kohn-Sham states=           96
     kinetic-energy cutoff     =      36.7493  Ry
     charge density cutoff     =     367.4932  Ry
     convergence threshold     =      1.0E-06
     mixing beta               =       0.1000
     number of iterations used =           10  plain     mixing
     Exchange-correlation      = BEEF-VDW ( 1  4 27 13 2)
     nstep                     =           50

     celldm(1)=   1.889726  celldm(2)=   0.000000  celldm(3)=   0.000000
     celldm(4)=   0.000000  celldm(5)=   0.000000  celldm(6)=   0.000000

     crystal axes: (cart. coord. in units of alat)
               a(1) = (   5.817452   0.000000   0.000000 )
               a(2) = (  -2.908726   5.137490   0.000000 )
               a(3) = (   0.000000   0.000000  24.795233 )

     reciprocal axes: (cart. coord. in units 2 pi/alat)
               b(1) = (  0.171897  0.097324  0.000000 )
               b(2) = (  0.000000  0.194648  0.000000 )
               b(3) = (  0.000000  0.000000  0.040330 )

     PseudoPot. # 1 for Al read from file:
     /afs/slac.stanford.edu/u/if/mamunm/psp/gbrv1.5pbe/Al.UPF
     MD5 check sum: 0a6289f5291fc8f409219462bc851e1f
     Pseudo is Ultrasoft + core correction, Zval =  3.0
     Generated by new atomic code, or converted to UPF format
     Using radial grid of  893 points,  3 beta functions with:
                l(1) =   0
                l(2) =   1
                l(3) =   2
     Q(r) pseudized with  8 coefficients,  rinner =    0.900   0.900   0.900
                                                       0.900   0.900

     PseudoPot. # 2 for Ga read from file:
     /afs/slac.stanford.edu/u/if/mamunm/psp/gbrv1.5pbe/Ga.UPF
     MD5 check sum: ccd671392a58a050fbb373893b4fcd66
     Pseudo is Ultrasoft + core correction, Zval = 19.0
     Generated by new atomic code, or converted to UPF format
     Using radial grid of  871 points,  6 beta functions with:
                l(1) =   0
                l(2) =   0
                l(3) =   1
                l(4) =   1
                l(5) =   2
                l(6) =   2
     Q(r) pseudized with  8 coefficients,  rinner =    1.250   1.250   1.250
                                                       1.250   1.250

     vdW kernel table read from file vdW_kernel_table
     MD5 check sum: 095c7af220d748ca6e76c0b4c6cfb241

     atomic species   valence    mass     pseudopotential
        Al1            3.00    26.98154     Al( 1.00)
        Ga1           19.00    69.72300     Ga( 1.00)

     No symmetry found

   Cartesian axes

     site n.     atom                  positions (alat units)
         1           Al1 tau(   1) = (   0.0000000   0.0000000  10.0000000  )
         2           Al1 tau(   2) = (   2.9087259   0.0000000  10.0000000  )
         3           Ga1 tau(   3) = (   1.4543629   2.5687450  10.0000000  )
         4           Ga1 tau(   4) = (  -1.4543629   2.5687450  10.0000000  )
         5           Al1 tau(   5) = (   2.9087259   1.6468521  12.3976164  )
         6           Al1 tau(   6) = (   0.0000000   1.6468521  12.3976164  )
         7           Ga1 tau(   7) = (  -1.4543629   4.2155971  12.3976164  )
         8           Ga1 tau(   8) = (   1.4543629   4.2155971  12.3976164  )
         9           Al1 tau(   9) = (   0.0000000   3.2937042  14.7952328  )
        10           Al1 tau(  10) = (   2.9087259   3.2937042  14.7952328  )
        11           Ga1 tau(  11) = (   4.3630888   0.7249592  14.7952328  )
        12           Ga1 tau(  12) = (   1.4543629   0.7249592  14.7952328  )

     number of k points=    20  Fermi-Dirac smearing, width (Ry)=  0.0110
                       cart. coord. in units 2pi/alat
        k(    1) = (   0.0000000   0.0000000   0.0000000), wk =   0.0555556
        k(    2) = (   0.0000000   0.0324413   0.0000000), wk =   0.1111111
        k(    3) = (   0.0000000   0.0648825   0.0000000), wk =   0.1111111
        k(    4) = (   0.0000000  -0.0973238   0.0000000), wk =   0.0555556
        k(    5) = (   0.0286494   0.0162206   0.0000000), wk =   0.1111111
        k(    6) = (   0.0286494   0.0486619   0.0000000), wk =   0.1111111
        k(    7) = (   0.0286494   0.0811032   0.0000000), wk =   0.1111111
        k(    8) = (   0.0286494  -0.0811032   0.0000000), wk =   0.1111111
        k(    9) = (   0.0286494  -0.0486619   0.0000000), wk =   0.1111111
        k(   10) = (   0.0286494  -0.0162206   0.0000000), wk =   0.1111111
        k(   11) = (   0.0572989   0.0324413   0.0000000), wk =   0.1111111
        k(   12) = (   0.0572989   0.0648825   0.0000000), wk =   0.1111111
        k(   13) = (   0.0572989   0.0973238   0.0000000), wk =   0.1111111
        k(   14) = (   0.0572989  -0.0648825   0.0000000), wk =   0.1111111
        k(   15) = (   0.0572989  -0.0324413   0.0000000), wk =   0.1111111
        k(   16) = (   0.0572989  -0.0000000   0.0000000), wk =   0.1111111
        k(   17) = (  -0.0859483  -0.0486619   0.0000000), wk =   0.0555556
        k(   18) = (  -0.0859483  -0.0162206   0.0000000), wk =   0.1111111
        k(   19) = (  -0.0859483   0.0162206   0.0000000), wk =   0.1111111
        k(   20) = (  -0.0859483  -0.1459857   0.0000000), wk =   0.0555556

     Largest allocated arrays     est. size (Mb)     dimensions
     Largest temporary arrays     est. size (Mb)     dimensions

     Initial potential from superposition of free atoms
     Check: negative starting charge=   -0.000705

     starting charge  125.98520, renormalised to  132.00000

     negative rho (up, down):  7.382E-04 0.000E+00

     *
     * You are using vdW-DF for exchange-correlation in this calculation.
     * Please cite the following three references that made this development
     * possible:
     *
     *   M. Dion, H. Rydberg, E. Schroder, D. C. Langreth, and
     *   B. I. Lundqvist, Phys. Rev. Lett. 92, 246401 (2004).
     *
     *   T. Thonhauser, V. R. Cooper, S. Li, A. Puzder, P. Hyldgaard, and
     *   D. C. Langreth, Phys. Rev. B 76, 125112 (2007).
     *
     *   G. Roman-Perez and J. M. Soler, Phys. Rev. Lett. 103, 096102 (2009).
     *
     *
     * If you are using vdW-DF2, please also cite:
     *
     *   K. Lee, E. D. Murray, L. Kong, B. I. Lundqvist, and
     *   D. C. Langreth, Phys. Rev. B 82, 081101(R) (2010).
     *
     *
     * If you are calculating the stress with vdW-DF, please also cite:
     *
     *   R. Sabatini, E. Kucukbenli, B. Kolb, T. Thonhauser, and
     *   S. de Gironcoli, J. Phys.: Condens. Matter 24, 424209 (2012).
     *

     Carrying out vdW-DF run using the following parameters:

     Nqs =      20    Nr_points =    1024   r_max =   100.000
     q_mesh =
               0.00001000     0.04494208     0.09755937     0.15916263
               0.23128650     0.31572767     0.41458969     0.53033537
               0.66584808     0.82450364     1.01025438     1.22772762
               1.48234092     1.78043706     2.12944203     2.53805004
               3.01644009     3.57652955     4.23227104     5.00000000

     Gradients computed in reciprocal space

     Adding external electric field

     Computed dipole along edir(3) :
        Dipole                0.0000 Ry au,          0.0000 Debye
        Dipole field          0.0000 Ry au

        Potential amp.       -0.0000 Ry
        Total length         45.6848 bohr

     Starting wfc are   96 randomized atomic wfcs

     Self-consistent Calculation

     iteration #  1     ecut=    36.75 Ry     beta=0.10
     Davidson diagonalization with overlap
     ethr =  1.00E-02,  avg # of iterations =  7.6

[...]

     total energy              =   -2537.98000765 Ry
     Harris-Foulkes estimate   =   -2550.93865322 Ry
     estimated scf accuracy    <      71.56864010 Ry

[...]

     iteration # 10     ecut=    36.75 Ry     beta=0.10
     Davidson diagonalization with overlap
     c_bands:  1 eigenvalues not converged
     ethr =  7.68E-07,  avg # of iterations =  5.8

[...]

     End of self-consistent calculation

          k = 0.0000 0.0000 0.0000 ( 18855 PWs)   bands (ev):

   -94.9501 -94.9480 -94.9474 -94.9472 -94.9383 -94.9380 -94.9123 -94.9123
   -94.9121 -94.9121 -94.8952 -94.8952 -94.8931 -94.8931 -94.8870 -94.8869
   -94.8867 -94.8867 -15.4468 -15.3861 -15.3708 -15.3668 -15.3655 -15.3420
   -15.3381 -15.3289 -15.3038 -15.2940 -15.2918 -15.2901 -15.2596 -15.2513
   -15.2455 -15.2374 -15.2288 -15.2287 -15.2220 -15.2182 -15.2069 -15.2042
   -15.1830 -15.1786 -15.1703 -15.1672 -15.1609 -15.1526 -15.1078 -15.0803
   -10.7276  -9.1202  -6.7369  -5.5024  -5.0682  -4.8942  -4.8916  -4.4545
    -4.3571  -3.6385  -3.4628  -3.3856  -3.2386  -3.1297  -3.0239  -2.4656
    -1.2608  -1.1744  -1.1240  -0.8195  -0.5059  -0.1108   0.3859   2.4056
     2.4291   2.4808   2.5177   2.6452   2.7747   2.9703   3.3051   3.9666
     4.3001   5.2581   5.3411   5.4949   5.7095   5.7702   5.7962   5.8111
     6.0096   6.3677   6.4312   6.6485   6.7671   6.7673   7.1951   7.2759

[...]

          k =-0.0859-0.0487 0.0000 ( 18818 PWs)   bands (ev):

[...]

     the Fermi energy is    -0.2510 ev

!    total energy              =   -2540.66660556 Ry
     Harris-Foulkes estimate   =   -2540.66659916 Ry
     estimated scf accuracy    <       0.00000016 Ry

     The total energy is the sum of the following terms:

     one-electron contribution =  -10774.94936552 Ry
     hartree contribution      =    5391.83609530 Ry
     xc contribution           =    -324.69632079 Ry
     ewald contribution        =    3167.17100500 Ry
     electric field correction =       0.00000000 Ry
     smearing contrib. (-TS)   =      -0.02801955 Ry

     convergence has been achieved in  15 iterations

 BEEF-vdW xc energy contributions
           1 :   -288.453550496327
           2 :    260.959955117697
           3 :   -215.230067811890
           4 :    164.975894046896
           5 :   -121.930595007067
           6 :    91.4192050132593
           7 :   -71.9464368160691
           8 :    58.2846971055634
           9 :   -45.6460242088771
          10 :    32.3255928506482
          11 :   -19.6567311727989
          12 :    10.0049554210755
[...]
00030 suncat0062 pw.x -in pw.inp   Done                     12/18/2018 17:02:29
00031 suncat0062 pw.x -in pw.inp   Done                     12/18/2018 17:02:29

     Program PWSCF v.5.1rc2 (svn rev. 11289) starts on 18Dec2018 at 17: 2:35

[...]

   This run was terminated on:  17:15:13  18Dec2018

[...]

     Total force =     0.018158     Total SCF correction =     0.003421
     SCF correction compared to forces is large: reduce conv_thr to get better values

[...]

     Total force =     0.016579     Total SCF correction =     0.001042

[...]

   This run was terminated on:  17:52:34  18Dec2018

[...]

     Program PWSCF v.5.1rc2 (svn rev. 11289) starts on 18Dec2018 at 17:52:39

     Current dimensions of program PWSCF are:
     Max number of different atomic species (ntypx) = 10
     Max number of k-points (npk) =  40000
     Max angular momentum in pseudopotentials (lmaxx) =  3
     Presently stress not available with electric field

     IMPORTANT: XC functional enforced from input :
     Exchange-correlation      = BEEF-VDW ( 1  4 27 13 2)
     Any further DFT definition will be discarded
     Please, verify this is what you really want

     Subspace diagonalization in iterative solution of the eigenvalue problem:
     a serial algorithm will be used

     Found symmetry operation: I + (  0.5000  0.0000  0.0000)
     This is a supercell, fractional translations are disabled

     bravais-lattice index     =            0
     lattice parameter (alat)  =       1.8897  a.u.
     unit-cell volume          =    5000.9046 (a.u.)^3
     number of atoms/cell      =           12
     number of atomic types    =            2
     number of electrons       =       132.00
     number of Kohn-Sham states=           96
     kinetic-energy cutoff     =      36.7493  Ry
     charge density cutoff     =     367.4932  Ry
     convergence threshold     =      1.0E-06
     mixing beta               =       0.1000
     number of iterations used =           10  plain     mixing
     Exchange-correlation      = BEEF-VDW ( 1  4 27 13 2)
     nstep                     =           50

     celldm(1)=   1.889726  celldm(2)=   0.000000  celldm(3)=   0.000000
     celldm(4)=   0.000000  celldm(5)=   0.000000  celldm(6)=   0.000000

     crystal axes: (cart. coord. in units of alat)
               a(1) = (   5.817452   0.000000   0.000000 )
               a(2) = (  -2.908726   5.137490   0.000000 )
               a(3) = (   0.000000   0.000000  24.795233 )

     reciprocal axes: (cart. coord. in units 2 pi/alat)
               b(1) = (  0.171897  0.097324  0.000000 )
               b(2) = (  0.000000  0.194648  0.000000 )
               b(3) = (  0.000000  0.000000  0.040330 )

     PseudoPot. # 1 for Al read from file:
     /afs/slac.stanford.edu/u/if/mamunm/psp/gbrv1.5pbe/Al.UPF
     MD5 check sum: 0a6289f5291fc8f409219462bc851e1f
     Pseudo is Ultrasoft + core correction, Zval =  3.0
     Generated by new atomic code, or converted to UPF format
     Using radial grid of  893 points,  3 beta functions with:
                l(1) =   0
                l(2) =   1
                l(3) =   2
     Q(r) pseudized with  8 coefficients,  rinner =    0.900   0.900   0.900
                                                       0.900   0.900

     PseudoPot. # 2 for Ga read from file:
     /afs/slac.stanford.edu/u/if/mamunm/psp/gbrv1.5pbe/Ga.UPF
     MD5 check sum: ccd671392a58a050fbb373893b4fcd66
     Pseudo is Ultrasoft + core correction, Zval = 19.0
     Generated by new atomic code, or converted to UPF format
     Using radial grid of  871 points,  6 beta functions with:
                l(1) =   0
                l(2) =   0
                l(3) =   1
                l(4) =   1
                l(5) =   2
                l(6) =   2
     Q(r) pseudized with  8 coefficients,  rinner =    1.250   1.250   1.250
                                                       1.250   1.250

     vdW kernel table read from file vdW_kernel_table
     MD5 check sum: 095c7af220d748ca6e76c0b4c6cfb241

     atomic species   valence    mass     pseudopotential
        Al1            3.00    26.98154     Al( 1.00)
        Ga1           19.00    69.72300     Ga( 1.00)

     No symmetry found

   Cartesian axes

     site n.     atom                  positions (alat units)
         1           Al1 tau(   1) = (   0.0000000   0.0000000  10.0000000  )
         2           Al1 tau(   2) = (   2.9087259   0.0000000  10.0000000  )
         3           Ga1 tau(   3) = (   1.4543629   2.5687450  10.0000000  )
         4           Ga1 tau(   4) = (  -1.4543629   2.5687450  10.0000000  )
         5           Al1 tau(   5) = (   2.9087259   1.6468521  12.3976164  )
         6           Al1 tau(   6) = (   0.0000000   1.6468521  12.3976164  )
         7           Ga1 tau(   7) = (  -1.4543629   4.2155971  12.3976164  )
         8           Ga1 tau(   8) = (   1.4543629   4.2155971  12.3976164  )
         9           Al1 tau(   9) = (  -0.0000055   3.3074975  14.6892651  )
        10           Al1 tau(  10) = (   2.9087246   3.3075119  14.6892655  )
        11           Ga1 tau(  11) = (   4.3630857   0.7539392  14.8167617  )
        12           Ga1 tau(  12) = (   1.4543713   0.7539318  14.8167744  )

     number of k points=    20  Fermi-Dirac smearing, width (Ry)=  0.0110
                       cart. coord. in units 2pi/alat
        k(    1) = (   0.0000000   0.0000000   0.0000000), wk =   0.0555556
        k(    2) = (   0.0000000   0.0324413   0.0000000), wk =   0.1111111
        k(    3) = (   0.0000000   0.0648825   0.0000000), wk =   0.1111111
        k(    4) = (   0.0000000  -0.0973238   0.0000000), wk =   0.0555556
        k(    5) = (   0.0286494   0.0162206   0.0000000), wk =   0.1111111
        k(    6) = (   0.0286494   0.0486619   0.0000000), wk =   0.1111111
        k(    7) = (   0.0286494   0.0811032   0.0000000), wk =   0.1111111
        k(    8) = (   0.0286494  -0.0811032   0.0000000), wk =   0.1111111
        k(    9) = (   0.0286494  -0.0486619   0.0000000), wk =   0.1111111
        k(   10) = (   0.0286494  -0.0162206   0.0000000), wk =   0.1111111
        k(   11) = (   0.0572989   0.0324413   0.0000000), wk =   0.1111111
        k(   12) = (   0.0572989   0.0648825   0.0000000), wk =   0.1111111
        k(   13) = (   0.0572989   0.0973238   0.0000000), wk =   0.1111111
        k(   14) = (   0.0572989  -0.0648825   0.0000000), wk =   0.1111111
        k(   15) = (   0.0572989  -0.0324413   0.0000000), wk =   0.1111111
        k(   16) = (   0.0572989  -0.0000000   0.0000000), wk =   0.1111111
        k(   17) = (  -0.0859483  -0.0486619   0.0000000), wk =   0.0555556
        k(   18) = (  -0.0859483  -0.0162206   0.0000000), wk =   0.1111111
        k(   19) = (  -0.0859483   0.0162206   0.0000000), wk =   0.1111111
        k(   20) = (  -0.0859483  -0.1459857   0.0000000), wk =   0.0555556

     Largest allocated arrays     est. size (Mb)     dimensions
     Largest temporary arrays     est. size (Mb)     dimensions

     Initial potential from superposition of free atoms
     Check: negative starting charge=   -0.000711

     starting charge  125.98520, renormalised to  132.00000

[...]

     *
     * You are using vdW-DF for exchange-correlation in this calculation.
     * Please cite the following three references that made this development
     * possible:
     *
     *   M. Dion, H. Rydberg, E. Schroder, D. C. Langreth, and
     *   B. I. Lundqvist, Phys. Rev. Lett. 92, 246401 (2004).
     *
     *   T. Thonhauser, V. R. Cooper, S. Li, A. Puzder, P. Hyldgaard, and
     *   D. C. Langreth, Phys. Rev. B 76, 125112 (2007).
     *
     *   G. Roman-Perez and J. M. Soler, Phys. Rev. Lett. 103, 096102 (2009).
     *
     *
     * If you are using vdW-DF2, please also cite:
     *
     *   K. Lee, E. D. Murray, L. Kong, B. I. Lundqvist, and
     *   D. C. Langreth, Phys. Rev. B 82, 081101(R) (2010).
     *
     *
     * If you are calculating the stress with vdW-DF, please also cite:
     *
     *   R. Sabatini, E. Kucukbenli, B. Kolb, T. Thonhauser, and
     *   S. de Gironcoli, J. Phys.: Condens. Matter 24, 424209 (2012).
     *

     Carrying out vdW-DF run using the following parameters:

     Nqs =      20    Nr_points =    1024   r_max =   100.000
     q_mesh =
               0.00001000     0.04494208     0.09755937     0.15916263
               0.23128650     0.31572767     0.41458969     0.53033537
               0.66584808     0.82450364     1.01025438     1.22772762
               1.48234092     1.78043706     2.12944203     2.53805004
               3.01644009     3.57652955     4.23227104     5.00000000

     Gradients computed in reciprocal space

[...]

     Starting wfc are   96 randomized atomic wfcs

     Self-consistent Calculation

[...]

     total energy              =   -2540.66856805 Ry
     Harris-Foulkes estimate   =   -2540.66856651 Ry
     estimated scf accuracy    <       0.00000212 Ry

     iteration # 14     ecut=    36.75 Ry     beta=0.10
     Davidson diagonalization with overlap
     ethr =  1.61E-09,  avg # of iterations =  2.0

[...]

     negative rho (up, down):  7.265E-04 0.000E+00

     Adding external electric field

     Computed dipole along edir(3) :
        Dipole               -0.0084 Ry au,         -0.0215 Debye
        Dipole field         -0.0000 Ry au

        Potential amp.        0.0019 Ry
        Total length         45.6848 bohr

     End of self-consistent calculation

[...]

          k = 0.0573-0.0000 0.0000 ( 18771 PWs)   bands (ev):

[...]

          k =-0.0859-0.1460 0.0000 ( 18818 PWs)   bands (ev):

   -94.9762 -94.9762 -94.9751 -94.9750 -94.9652 -94.9652 -94.9301 -94.9301
   -94.9292 -94.9292 -94.9130 -94.9130 -94.9094 -94.9094 -94.9058 -94.9058
   -94.9023 -94.9023 -15.3863 -15.3863 -15.3477 -15.3477 -15.3425 -15.3425
   -15.3277 -15.3277 -15.3164 -15.3164 -15.2630 -15.2630 -15.2537 -15.2537
   -15.2527 -15.2527 -15.2484 -15.2484 -15.2455 -15.2455 -15.2440 -15.2440
   -15.2396 -15.2396 -15.2319 -15.2318 -15.2314 -15.2314 -15.1949 -15.1949
    -9.3284  -9.3284  -7.7116  -7.7116  -6.4784  -6.4783  -5.2547  -5.2547
    -4.5568  -4.5568  -2.3090  -2.3090  -1.6015  -1.6015  -0.7927  -0.7927
    -0.4162  -0.4162   0.6370   0.6370   1.1460   1.1460   1.5034   1.5034
     1.7910   1.7911   2.3371   2.3371   3.2269   3.2269   3.5488   3.5488
     3.9472   3.9472   4.0094   4.0094   4.3995   4.3995   4.7735   4.7735
     5.4325   5.4325   5.7207   5.7207   6.2325   6.2325   6.4365   6.4365

     the Fermi energy is    -0.2755 ev

!    total energy              =   -2540.66857577 Ry
     Harris-Foulkes estimate   =   -2540.66856861 Ry
     estimated scf accuracy    <       0.00000085 Ry

     The total energy is the sum of the following terms:

     one-electron contribution =  -10768.92745718 Ry
     hartree contribution      =    5388.74495633 Ry
     xc contribution           =    -324.73434908 Ry
     ewald contribution        =    3164.27621104 Ry
     electric field correction =       0.00000018 Ry
     smearing contrib. (-TS)   =      -0.02793706 Ry

     convergence has been achieved in  14 iterations

 BEEF-vdW xc energy contributions
           1 :   -288.489514951668
           2 :    261.005463380811
           3 :   -215.288815056549
           4 :    165.044923048051
           5 :   -122.005075430309
           6 :    91.4975831845471
           7 :   -72.0305596666504
           8 :    58.3750498912303
           9 :   -45.7376660882692
          10 :    32.4098764216210
          11 :   -19.7277635422471
          12 :    10.0641870617570
          13 :   -4.63913867607062
          14 :    2.63288871621484
          15 :   -1.90891819869881
          16 :   0.529776489963240
          17 :    2.09773104068512
          18 :   -5.14427424074341
          19 :    7.22509664641524
          20 :   -7.50820337419731
          21 :    6.30294157048758
          22 :   -4.79407228717361
          23 :    4.17294560331646
          24 :   -4.80641163292938
          25 :    6.02889364263257
          26 :   -6.69148985824887
          27 :    6.05379462239932
          28 :   -4.35469579420823
          29 :    2.63493499796829
          30 :   -1.95032867073485
          31 :   -22.8813995943787
          32 :   -15.7399865809535

     Forces acting on atoms (Ry/au):

     negative rho (up, down):  7.265E-04 0.000E+00
     atom    1 type  1   force =    -0.00000096    0.00093185    0.00875014
     atom    2 type  1   force =    -0.00000093    0.00093176    0.00875021
     atom    3 type  2   force =    -0.00000168   -0.00165300   -0.00197991
     atom    4 type  2   force =     0.00000216   -0.00165345   -0.00197834
     atom    5 type  1   force =    -0.00000122   -0.00330418   -0.00322345
     atom    6 type  1   force =    -0.00000065   -0.00330445   -0.00322357
     atom    7 type  2   force =    -0.00000004    0.00331780   -0.00439238
     atom    8 type  2   force =     0.00000013    0.00331814   -0.00439358
     atom    9 type  1   force =    -0.00000014    0.00016443    0.00035200
     atom   10 type  1   force =    -0.00000158    0.00016413    0.00035188
     atom   11 type  2   force =     0.00000054    0.00054339    0.00049314
     atom   12 type  2   force =     0.00000436    0.00054359    0.00049387

     Total force =     0.016516     Total SCF correction =     0.003936
     SCF correction compared to forces is large: reduce conv_thr to get better values

     entering subroutine stress ...

     negative rho (up, down):  7.265E-04 0.000E+00
          total   stress  (Ry/bohr**3)                   (kbar)     P=   -6.89
  -0.00005729   0.00000000   0.00000000         -8.43      0.00      0.00
   0.00000000  -0.00007077   0.00000587          0.00    -10.41      0.86
   0.00000000   0.00000587  -0.00001242          0.00      0.86     -1.83

 !ASE

     Writing output data file calc.save

     General routines

     Parallel routines

   This run was terminated on:  18: 4:42  18Dec2018

   JOB DONE.
Job  /afs/slac/g/suncat/bin/suncat-tsmpirun -x LD_LIBRARY_PATH -wdir /scratch/qe529582_ZI9rn pw.x -in pw.inp

TID   HOST_NAME   COMMAND_LINE            STATUS            TERMINATION_TIME
00000 suncat0065 pw.x -in pw.inp   Done                     12/18/2018 18:04:42
00001 suncat0065 pw.x -in pw.inp   Done                     12/18/2018 18:04:42
00002 suncat0065 pw.x -in pw.inp   Done                     12/18/2018 18:04:42
00003 suncat0065 pw.x -in pw.inp   Done                     12/18/2018 18:04:42
00004 suncat0065 pw.x -in pw.inp   Done                     12/18/2018 18:04:42
00005 suncat0065 pw.x -in pw.inp   Done                     12/18/2018 18:04:42
00006 suncat0065 pw.x -in pw.inp   Done                     12/18/2018 18:04:42
00007 suncat0065 pw.x -in pw.inp   Done                     12/18/2018 18:04:42
00008 suncat0064 pw.x -in pw.inp   Done                     12/18/2018 18:04:42
00009 suncat0064 pw.x -in pw.inp   Done                     12/18/2018 18:04:42
00010 suncat0064 pw.x -in pw.inp   Done                     12/18/2018 18:04:42
00011 suncat0064 pw.x -in pw.inp   Done                     12/18/2018 18:04:42
00012 suncat0064 pw.x -in pw.inp   Done                     12/18/2018 18:04:42
00013 suncat0064 pw.x -in pw.inp   Done                     12/18/2018 18:04:42
00014 suncat0064 pw.x -in pw.inp   Done                     12/18/2018 18:04:42
00015 suncat0064 pw.x -in pw.inp   Done                     12/18/2018 18:04:42
00016 suncat0063 pw.x -in pw.inp   Done                     12/18/2018 18:04:42
00017 suncat0063 pw.x -in pw.inp   Done                     12/18/2018 18:04:42
00018 suncat0063 pw.x -in pw.inp   Done                     12/18/2018 18:04:42
00019 suncat0063 pw.x -in pw.inp   Done                     12/18/2018 18:04:42
00020 suncat0063 pw.x -in pw.inp   Done                     12/18/2018 18:04:42
00021 suncat0063 pw.x -in pw.inp   Done                     12/18/2018 18:04:42
00022 suncat0063 pw.x -in pw.inp   Done                     12/18/2018 18:04:42
00023 suncat0063 pw.x -in pw.inp   Done                     12/18/2018 18:04:42
00024 suncat0062 pw.x -in pw.inp   Done                     12/18/2018 18:04:42
00025 suncat0062 pw.x -in pw.inp   Done                     12/18/2018 18:04:42
00026 suncat0062 pw.x -in pw.inp   Done                     12/18/2018 18:04:42
00027 suncat0062 pw.x -in pw.inp   Done                     12/18/2018 18:04:42
00028 suncat0062 pw.x -in pw.inp   Done                     12/18/2018 18:04:42
00029 suncat0062 pw.x -in pw.inp   Done                     12/18/2018 18:04:42
00030 suncat0062 pw.x -in pw.inp   Done                     12/18/2018 18:04:42
00031 suncat0062 pw.x -in pw.inp   Done                     12/18/2018 18:04:42