     Program PWSCF v.5.1rc2 (svn rev. 11289) starts on 19Dec2018 at  6:28:59

     Current dimensions of program PWSCF are:
     Max number of different atomic species (ntypx) = 10
     Max number of k-points (npk) =  40000
     Max angular momentum in pseudopotentials (lmaxx) =  3
     Presently stress not available with electric field

     IMPORTANT: XC functional enforced from input :
     Exchange-correlation      = BEEF-VDW ( 1  4 27 13 2)
     Any further DFT definition will be discarded
     Please, verify this is what you really want

     Subspace diagonalization in iterative solution of the eigenvalue problem:
     a serial algorithm will be used

     Found symmetry operation: I + ( -0.5000  0.0000  0.0000)
     This is a supercell, fractional translations are disabled

     bravais-lattice index     =            0
     lattice parameter (alat)  =       1.8897  a.u.
     unit-cell volume          =    3738.1562 (a.u.)^3
     number of atoms/cell      =           12
     number of atomic types    =            2
     number of electrons       =       198.00
     number of Kohn-Sham states=          129
     kinetic-energy cutoff     =      36.7493  Ry
     charge density cutoff     =     367.4932  Ry
     convergence threshold     =      1.0E-06
     mixing beta               =       0.1000
     number of iterations used =           10  plain     mixing
     Exchange-correlation      = BEEF-VDW ( 1  4 27 13 2)
     nstep                     =           50

     celldm(1)=   1.889726  celldm(2)=   0.000000  celldm(3)=   0.000000
     celldm(4)=   0.000000  celldm(5)=   0.000000  celldm(6)=   0.000000

     crystal axes: (cart. coord. in units of alat)
               a(1) = (   4.847883   0.000000   0.000000 )
               a(2) = (  -2.423941   4.728954   0.000000 )
               a(3) = (   0.000000   0.000000  24.162599 )

     reciprocal axes: (cart. coord. in units 2 pi/alat)
               b(1) = (  0.206276  0.105732  0.000000 )
               b(2) = (  0.000000  0.211463  0.000000 )
               b(3) = (  0.000000  0.000000  0.041386 )

     PseudoPot. # 1 for Cr read from file:
     /afs/slac.stanford.edu/u/if/mamunm/psp/gbrv1.5pbe/Cr.UPF
     MD5 check sum: 0d52af634a40206e4dee301ad30da4bf
     Pseudo is Ultrasoft + core correction, Zval = 14.0
     Generated by new atomic code, or converted to UPF format
     Using radial grid of  857 points,  6 beta functions with:
                l(1) =   0
                l(2) =   0
                l(3) =   1
                l(4) =   1
                l(5) =   2
                l(6) =   2
     Q(r) pseudized with  8 coefficients,  rinner =    0.950   0.950   0.950
                                                       0.950   0.950

     PseudoPot. # 2 for Cu read from file:
     /afs/slac.stanford.edu/u/if/mamunm/psp/gbrv1.5pbe/Cu.UPF
     MD5 check sum: 6e991ff952a84172a2a52a1c1e996048
     Pseudo is Ultrasoft + core correction, Zval = 19.0
     Generated by new atomic code, or converted to UPF format
     Using radial grid of  867 points,  6 beta functions with:
                l(1) =   0
                l(2) =   0
                l(3) =   1
                l(4) =   1
                l(5) =   2
                l(6) =   2
     Q(r) pseudized with  8 coefficients,  rinner =    1.150   1.150   1.150
                                                       1.150   1.150

     vdW kernel table read from file vdW_kernel_table
     MD5 check sum: 095c7af220d748ca6e76c0b4c6cfb241

     atomic species   valence    mass     pseudopotential
        Cr1           14.00    51.99610     Cr( 1.00)
        Cu1           19.00    63.54600     Cu( 1.00)

     No symmetry found

   Cartesian axes

     site n.     atom                  positions (alat units)
         1           Cr1 tau(   1) = (   0.0000000   0.0000000  10.0000000  )
         2           Cr1 tau(   2) = (   2.4239413   0.0000000  10.0000000  )
         3           Cu1 tau(   3) = (   1.2119706   2.3644771  10.0000000  )
         4           Cu1 tau(   4) = (  -1.2119706   2.3644771  10.0000000  )
         5           Cr1 tau(   5) = (   2.4239413   1.2424504  12.0812996  )
         6           Cr1 tau(   6) = (  -0.0000000   1.2424504  12.0812996  )
         7           Cu1 tau(   7) = (  -1.2119706   3.6069275  12.0812996  )
         8           Cu1 tau(   8) = (   1.2119706   3.6069275  12.0812996  )
         9           Cr1 tau(   9) = (  -0.0000000   2.4849008  14.1625993  )
        10           Cr1 tau(  10) = (   2.4239413   2.4849008  14.1625993  )
        11           Cu1 tau(  11) = (   3.6359119   0.1204237  14.1625993  )
        12           Cu1 tau(  12) = (   1.2119706   0.1204237  14.1625993  )

     number of k points=    20  Fermi-Dirac smearing, width (Ry)=  0.0110
                       cart. coord. in units 2pi/alat
        k(    1) = (   0.0000000   0.0000000   0.0000000), wk =   0.0555556
        k(    2) = (   0.0000000   0.0352439   0.0000000), wk =   0.1111111
        k(    3) = (   0.0000000   0.0704877   0.0000000), wk =   0.1111111
        k(    4) = (   0.0000000  -0.1057316   0.0000000), wk =   0.0555556
        k(    5) = (   0.0343793   0.0176219   0.0000000), wk =   0.1111111
        k(    6) = (   0.0343793   0.0528658   0.0000000), wk =   0.1111111
        k(    7) = (   0.0343793   0.0881097   0.0000000), wk =   0.1111111
        k(    8) = (   0.0343793  -0.0881097   0.0000000), wk =   0.1111111
        k(    9) = (   0.0343793  -0.0528658   0.0000000), wk =   0.1111111
        k(   10) = (   0.0343793  -0.0176219   0.0000000), wk =   0.1111111
        k(   11) = (   0.0687585   0.0352439   0.0000000), wk =   0.1111111
        k(   12) = (   0.0687585   0.0704877   0.0000000), wk =   0.1111111
        k(   13) = (   0.0687585   0.1057316   0.0000000), wk =   0.1111111
        k(   14) = (   0.0687585  -0.0704877   0.0000000), wk =   0.1111111
        k(   15) = (   0.0687585  -0.0352439   0.0000000), wk =   0.1111111
        k(   16) = (   0.0687585   0.0000000   0.0000000), wk =   0.1111111
        k(   17) = (  -0.1031378  -0.0528658   0.0000000), wk =   0.0555556
        k(   18) = (  -0.1031378  -0.0176219   0.0000000), wk =   0.1111111
        k(   19) = (  -0.1031378   0.0176219   0.0000000), wk =   0.1111111
        k(   20) = (  -0.1031378  -0.1585974   0.0000000), wk =   0.0555556

     Largest allocated arrays     est. size (Mb)     dimensions
     Largest temporary arrays     est. size (Mb)     dimensions

     Check: negative/imaginary core charge=   -0.000003    0.000000

     Initial potential from superposition of free atoms
     Check: negative starting charge=   -0.006744

     starting charge  185.99990, renormalised to  198.00000

     negative rho (up, down):  7.179E-03 0.000E+00

     *
     * You are using vdW-DF for exchange-correlation in this calculation.
     * Please cite the following three references that made this development
     * possible:
     *
     *   M. Dion, H. Rydberg, E. Schroder, D. C. Langreth, and
     *   B. I. Lundqvist, Phys. Rev. Lett. 92, 246401 (2004).
     *
     *   T. Thonhauser, V. R. Cooper, S. Li, A. Puzder, P. Hyldgaard, and
     *   D. C. Langreth, Phys. Rev. B 76, 125112 (2007).
     *
     *   G. Roman-Perez and J. M. Soler, Phys. Rev. Lett. 103, 096102 (2009).
     *
     *
     * If you are using vdW-DF2, please also cite:
     *
     *   K. Lee, E. D. Murray, L. Kong, B. I. Lundqvist, and
     *   D. C. Langreth, Phys. Rev. B 82, 081101(R) (2010).
     *
     *
     * If you are calculating the stress with vdW-DF, please also cite:
     *
     *   R. Sabatini, E. Kucukbenli, B. Kolb, T. Thonhauser, and
     *   S. de Gironcoli, J. Phys.: Condens. Matter 24, 424209 (2012).
     *

     Carrying out vdW-DF run using the following parameters:

     Nqs =      20    Nr_points =    1024   r_max =   100.000
     q_mesh =
               0.00001000     0.04494208     0.09755937     0.15916263
               0.23128650     0.31572767     0.41458969     0.53033537
               0.66584808     0.82450364     1.01025438     1.22772762
               1.48234092     1.78043706     2.12944203     2.53805004
               3.01644009     3.57652955     4.23227104     5.00000000

     Gradients computed in reciprocal space

     Adding external electric field

     Computed dipole along edir(3) :
        Dipole                0.0000 Ry au,          0.0000 Debye
        Dipole field          0.0000 Ry au

        Potential amp.       -0.0000 Ry
        Total length         44.5192 bohr

     Starting wfc are  138 randomized atomic wfcs

     Self-consistent Calculation

     iteration #  1     ecut=    36.75 Ry     beta=0.10
     Davidson diagonalization with overlap
     ethr =  1.00E-02,  avg # of iterations =  7.1

[...]

     total energy              =   -3445.37602894 Ry
     Harris-Foulkes estimate   =   -3506.50715972 Ry
     estimated scf accuracy    <     337.54528385 Ry

[...]

     End of self-consistent calculation

          k = 0.0000 0.0000 0.0000 ( 14073 PWs)   bands (ev):

  -112.2795-112.2698-111.9675-111.9674-111.9577-111.9576 -71.0751 -70.9691
   -70.9377 -70.9268 -70.8331 -70.8232 -69.7206 -69.6723 -69.6631 -69.6339
   -69.6247 -69.6198 -69.4210 -69.4209 -69.3863 -69.3854 -69.3771 -69.3761
   -69.3200 -69.3199 -69.2861 -69.2832 -69.2771 -69.2741 -42.6959 -42.5755
   -42.4812 -42.4749 -42.4689 -42.3785 -42.3100 -42.2948 -42.2615 -42.2441
   -42.2285 -42.1802 -42.1621 -42.0564 -41.9872 -41.9866 -41.7698 -41.7674
    -7.1048  -5.2193  -4.1775  -3.8538  -3.7910  -3.7427  -3.6525  -3.5985
    -3.4198  -3.3460  -3.2237  -3.2148  -3.1990  -3.1712  -2.8731  -2.7950
    -2.6888  -2.5235  -2.4871  -2.2896  -2.2230  -2.1607  -1.9059  -1.8590
    -1.8030  -1.7815  -1.6845  -1.4965  -1.4900  -1.3274  -1.3032  -1.1968
    -1.1925  -1.1038  -0.9212  -0.9143  -0.6746  -0.5893  -0.5683  -0.4940
    -0.3683  -0.2136   0.1306   0.1386   0.1626   0.4838   0.5182   0.5560
     0.6101   0.9868   1.0705   1.0884   1.3115   1.5696   1.6814   1.7019
     1.7678   1.8395   2.1226   2.1394   2.2069   2.2973   2.3109   2.3571
     2.3601   2.4337   2.7518   2.9356   3.1059   3.9569   4.2026   4.4213
     4.7516   4.8217   5.0587   5.5787   6.3999   6.4528   6.7343   6.8567
     7.3456

[...]

          k =-0.1031-0.0529 0.0000 ( 14082 PWs)   bands (ev):

[...]

     the Fermi energy is     0.7552 ev

!    total energy              =   -3486.87583329 Ry
     Harris-Foulkes estimate   =   -3486.87583442 Ry
     estimated scf accuracy    <       0.00000089 Ry

     The total energy is the sum of the following terms:

     one-electron contribution =  -27978.99983256 Ry
     hartree contribution      =   13990.44297504 Ry
     xc contribution           =    -379.39671328 Ry
     ewald contribution        =   10881.17347927 Ry
     electric field correction =       0.00000005 Ry
     smearing contrib. (-TS)   =      -0.09574181 Ry

     convergence has been achieved in  28 iterations

 BEEF-vdW xc energy contributions
           1 :   -333.500158178586
           2 :    301.719192798500
           3 :   -248.068791006354
           4 :    187.741841221078
           5 :   -134.678658687757
[...]
     SCF correction compared to forces is large: reduce conv_thr to get better values

[...]

   This run was terminated on:   7:41: 5  19Dec2018

[...]

   This run was terminated on:   8: 5:26  19Dec2018

[...]

     Program PWSCF v.5.1rc2 (svn rev. 11289) starts on 19Dec2018 at  8: 5:32

[...]

   This run was terminated on:   8:30:27  19Dec2018

[...]

     Program PWSCF v.5.1rc2 (svn rev. 11289) starts on 19Dec2018 at  8:30:33

     Current dimensions of program PWSCF are:
     Max number of different atomic species (ntypx) = 10
     Max number of k-points (npk) =  40000
     Max angular momentum in pseudopotentials (lmaxx) =  3
     Presently stress not available with electric field

     IMPORTANT: XC functional enforced from input :
     Exchange-correlation      = BEEF-VDW ( 1  4 27 13 2)
     Any further DFT definition will be discarded
     Please, verify this is what you really want

     Subspace diagonalization in iterative solution of the eigenvalue problem:
     a serial algorithm will be used

     bravais-lattice index     =            0
     lattice parameter (alat)  =       1.8897  a.u.
     unit-cell volume          =    3738.1562 (a.u.)^3
     number of atoms/cell      =           12
     number of atomic types    =            2
     number of electrons       =       198.00
     number of Kohn-Sham states=          129
     kinetic-energy cutoff     =      36.7493  Ry
     charge density cutoff     =     367.4932  Ry
     convergence threshold     =      1.0E-06
     mixing beta               =       0.1000
     number of iterations used =           10  plain     mixing
     Exchange-correlation      = BEEF-VDW ( 1  4 27 13 2)
     nstep                     =           50

     celldm(1)=   1.889726  celldm(2)=   0.000000  celldm(3)=   0.000000
     celldm(4)=   0.000000  celldm(5)=   0.000000  celldm(6)=   0.000000

     crystal axes: (cart. coord. in units of alat)
               a(1) = (   4.847883   0.000000   0.000000 )
               a(2) = (  -2.423941   4.728954   0.000000 )
               a(3) = (   0.000000   0.000000  24.162599 )

     reciprocal axes: (cart. coord. in units 2 pi/alat)
               b(1) = (  0.206276  0.105732  0.000000 )
               b(2) = (  0.000000  0.211463  0.000000 )
               b(3) = (  0.000000  0.000000  0.041386 )

     PseudoPot. # 1 for Cr read from file:
     /afs/slac.stanford.edu/u/if/mamunm/psp/gbrv1.5pbe/Cr.UPF
     MD5 check sum: 0d52af634a40206e4dee301ad30da4bf
     Pseudo is Ultrasoft + core correction, Zval = 14.0
     Generated by new atomic code, or converted to UPF format
     Using radial grid of  857 points,  6 beta functions with:
                l(1) =   0
                l(2) =   0
                l(3) =   1
                l(4) =   1
                l(5) =   2
                l(6) =   2
     Q(r) pseudized with  8 coefficients,  rinner =    0.950   0.950   0.950
                                                       0.950   0.950

     PseudoPot. # 2 for Cu read from file:
     /afs/slac.stanford.edu/u/if/mamunm/psp/gbrv1.5pbe/Cu.UPF
     MD5 check sum: 6e991ff952a84172a2a52a1c1e996048
     Pseudo is Ultrasoft + core correction, Zval = 19.0
     Generated by new atomic code, or converted to UPF format
     Using radial grid of  867 points,  6 beta functions with:
                l(1) =   0
                l(2) =   0
                l(3) =   1
                l(4) =   1
                l(5) =   2
                l(6) =   2
     Q(r) pseudized with  8 coefficients,  rinner =    1.150   1.150   1.150
                                                       1.150   1.150

     vdW kernel table read from file vdW_kernel_table
     MD5 check sum: 095c7af220d748ca6e76c0b4c6cfb241

     atomic species   valence    mass     pseudopotential
        Cr1           14.00    51.99610     Cr( 1.00)
        Cu1           19.00    63.54600     Cu( 1.00)

     No symmetry found

   Cartesian axes

     site n.     atom                  positions (alat units)
         1           Cr1 tau(   1) = (   0.0000000   0.0000000  10.0000000  )
         2           Cr1 tau(   2) = (   2.4239413   0.0000000  10.0000000  )
         3           Cu1 tau(   3) = (   1.2119706   2.3644771  10.0000000  )
         4           Cu1 tau(   4) = (  -1.2119706   2.3644771  10.0000000  )
         5           Cr1 tau(   5) = (   2.4239413   1.2424504  12.0812996  )
         6           Cr1 tau(   6) = (  -0.0000000   1.2424504  12.0812996  )
         7           Cu1 tau(   7) = (  -1.2119706   3.6069275  12.0812996  )
         8           Cu1 tau(   8) = (   1.2119706   3.6069275  12.0812996  )
         9           Cr1 tau(   9) = (   0.0000274   2.4181392  14.0291825  )
        10           Cr1 tau(  10) = (   2.4239483   2.4180250  14.0291408  )
        11           Cu1 tau(  11) = (   3.6358702   0.1028756  14.2419793  )
        12           Cu1 tau(  12) = (   1.2121974   0.1028751  14.2419740  )

     number of k points=    20  Fermi-Dirac smearing, width (Ry)=  0.0110
                       cart. coord. in units 2pi/alat
        k(    1) = (   0.0000000   0.0000000   0.0000000), wk =   0.0555556
        k(    2) = (   0.0000000   0.0352439   0.0000000), wk =   0.1111111
        k(    3) = (   0.0000000   0.0704877   0.0000000), wk =   0.1111111
        k(    4) = (   0.0000000  -0.1057316   0.0000000), wk =   0.0555556
        k(    5) = (   0.0343793   0.0176219   0.0000000), wk =   0.1111111
        k(    6) = (   0.0343793   0.0528658   0.0000000), wk =   0.1111111
        k(    7) = (   0.0343793   0.0881097   0.0000000), wk =   0.1111111
        k(    8) = (   0.0343793  -0.0881097   0.0000000), wk =   0.1111111
        k(    9) = (   0.0343793  -0.0528658   0.0000000), wk =   0.1111111
        k(   10) = (   0.0343793  -0.0176219   0.0000000), wk =   0.1111111
        k(   11) = (   0.0687585   0.0352439   0.0000000), wk =   0.1111111
        k(   12) = (   0.0687585   0.0704877   0.0000000), wk =   0.1111111
        k(   13) = (   0.0687585   0.1057316   0.0000000), wk =   0.1111111
        k(   14) = (   0.0687585  -0.0704877   0.0000000), wk =   0.1111111
        k(   15) = (   0.0687585  -0.0352439   0.0000000), wk =   0.1111111
        k(   16) = (   0.0687585   0.0000000   0.0000000), wk =   0.1111111
        k(   17) = (  -0.1031378  -0.0528658   0.0000000), wk =   0.0555556
        k(   18) = (  -0.1031378  -0.0176219   0.0000000), wk =   0.1111111
        k(   19) = (  -0.1031378   0.0176219   0.0000000), wk =   0.1111111
        k(   20) = (  -0.1031378  -0.1585974   0.0000000), wk =   0.0555556

     Largest allocated arrays     est. size (Mb)     dimensions
     Largest temporary arrays     est. size (Mb)     dimensions

     Check: negative/imaginary core charge=   -0.000003    0.000000

     Initial potential from superposition of free atoms
     Check: negative starting charge=   -0.007134

     starting charge  185.99990, renormalised to  198.00000

[...]

     *
     * You are using vdW-DF for exchange-correlation in this calculation.
     * Please cite the following three references that made this development
     * possible:
     *
     *   M. Dion, H. Rydberg, E. Schroder, D. C. Langreth, and
     *   B. I. Lundqvist, Phys. Rev. Lett. 92, 246401 (2004).
     *
     *   T. Thonhauser, V. R. Cooper, S. Li, A. Puzder, P. Hyldgaard, and
     *   D. C. Langreth, Phys. Rev. B 76, 125112 (2007).
     *
     *   G. Roman-Perez and J. M. Soler, Phys. Rev. Lett. 103, 096102 (2009).
     *
     *
     * If you are using vdW-DF2, please also cite:
     *
     *   K. Lee, E. D. Murray, L. Kong, B. I. Lundqvist, and
     *   D. C. Langreth, Phys. Rev. B 82, 081101(R) (2010).
     *
     *
     * If you are calculating the stress with vdW-DF, please also cite:
     *
     *   R. Sabatini, E. Kucukbenli, B. Kolb, T. Thonhauser, and
     *   S. de Gironcoli, J. Phys.: Condens. Matter 24, 424209 (2012).
     *

     Carrying out vdW-DF run using the following parameters:

     Nqs =      20    Nr_points =    1024   r_max =   100.000
     q_mesh =
               0.00001000     0.04494208     0.09755937     0.15916263
               0.23128650     0.31572767     0.41458969     0.53033537
               0.66584808     0.82450364     1.01025438     1.22772762
               1.48234092     1.78043706     2.12944203     2.53805004
               3.01644009     3.57652955     4.23227104     5.00000000

     Gradients computed in reciprocal space

[...]

     Starting wfc are  138 randomized atomic wfcs

     Self-consistent Calculation

[...]

     total energy              =   -3486.88548037 Ry
     Harris-Foulkes estimate   =   -3486.88548093 Ry
     estimated scf accuracy    <       0.00000102 Ry

     iteration # 28     ecut=    36.75 Ry     beta=0.10
     Davidson diagonalization with overlap
     ethr =  5.14E-10,  avg # of iterations =  1.1

[...]

     negative rho (up, down):  6.673E-03 0.000E+00

     Adding external electric field

     Computed dipole along edir(3) :
        Dipole               -0.0260 Ry au,         -0.0660 Debye
        Dipole field         -0.0001 Ry au

        Potential amp.        0.0078 Ry
        Total length         44.5192 bohr

     End of self-consistent calculation

[...]

          k = 0.0688 0.0000 0.0000 ( 14093 PWs)   bands (ev):

[...]

          k =-0.1031-0.1586 0.0000 ( 14082 PWs)   bands (ev):

  -112.3523-112.3523-112.0200-112.0200-111.9023-111.9023 -71.0823 -71.0822
   -70.9391 -70.9391 -70.8906 -70.8905 -69.7500 -69.7499 -69.7487 -69.7487
   -69.7002 -69.7002 -69.4378 -69.4378 -69.4291 -69.4291 -69.3376 -69.3376
   -69.3268 -69.3268 -69.3261 -69.3260 -69.2057 -69.2057 -42.6887 -42.6885
   -42.4016 -42.4015 -42.3869 -42.3869 -42.3247 -42.3247 -42.2570 -42.2569
   -42.2203 -42.2201 -42.1792 -42.1791 -42.1604 -42.1602 -41.9824 -41.9823
    -5.2428  -5.2427  -3.8328  -3.8326  -3.3504  -3.3503  -3.2438  -3.2438
    -3.1322  -3.1321  -2.9705  -2.9705  -2.8744  -2.8744  -2.7036  -2.7034
    -2.4396  -2.4396  -2.3587  -2.3586  -2.2549  -2.2546  -2.2233  -2.2232
    -2.1322  -2.1316  -2.0655  -2.0654  -1.9583  -1.9579  -1.8159  -1.8159
    -1.6998  -1.6997  -1.2641  -1.2640  -0.8385  -0.8384  -0.6709  -0.6709
    -0.4365  -0.4363  -0.0853  -0.0852   0.3531   0.3531   0.3611   0.3611
     0.5054   0.5055   0.6054   0.6054   0.6758   0.6759   0.8781   0.8782
     0.9159   0.9160   1.5944   1.5944   1.7984   1.7985   2.0114   2.0115
     2.7137   2.7138   2.8251   2.8252   3.5359   3.5360   4.6768   4.6770
     5.5094   5.5095   6.6939   6.6939   7.2447   7.2447   7.5525   7.5526
     8.0416

     the Fermi energy is     0.7100 ev

!    total energy              =   -3486.88547874 Ry
     Harris-Foulkes estimate   =   -3486.88548039 Ry
     estimated scf accuracy    <       0.00000051 Ry

     The total energy is the sum of the following terms:

     one-electron contribution =  -28013.14308940 Ry
     hartree contribution      =   14007.28470792 Ry
     xc contribution           =    -379.49289892 Ry
     ewald contribution        =   10898.56014982 Ry
     electric field correction =       0.00000227 Ry
     smearing contrib. (-TS)   =      -0.09435043 Ry

     convergence has been achieved in  28 iterations

 BEEF-vdW xc energy contributions
           1 :   -333.597393352178
           2 :    301.835240097333
           3 :   -248.200750878369
           4 :    187.859615174918
           5 :   -134.741783345700
           6 :    96.4893050931685
           7 :   -73.0927174377956
           8 :    59.2682846887848
           9 :   -48.7063598361516
          10 :    37.6400058074393
          11 :   -26.0146075179234
          12 :    16.1782016198358
          13 :   -10.4275668985264
          14 :    9.13671811901662
          15 :   -10.5217690699123
          16 :    11.9031019396240
          17 :   -11.4190912043446
          18 :    9.01399989317486
          19 :   -6.15039545982324
          20 :    4.58315344795307
          21 :   -5.10255507160281
          22 :    7.07128981129517
          23 :   -8.97465345788572
          24 :    9.50838450659973
          25 :   -8.42204193963505
          26 :    6.57749162309102
          27 :   -5.26198858551254
          28 :    5.28507670679795
          29 :   -6.48070823464400
          30 :    7.90490049648338
          31 :   -28.8189253871308
          32 :   -20.1211993172252

     Forces acting on atoms (Ry/au):

     negative rho (up, down):  6.673E-03 0.000E+00
     atom    1 type  1   force =    -0.00000003    0.00761885    0.02077615
     atom    2 type  1   force =    -0.00000032    0.00761656    0.02077899
     atom    3 type  2   force =    -0.00003146   -0.00954788   -0.01759008
     atom    4 type  2   force =     0.00002872   -0.00954864   -0.01758704
     atom    5 type  1   force =    -0.00000138   -0.00693622   -0.00108172
     atom    6 type  1   force =    -0.00000188   -0.00694109   -0.00106825
     atom    7 type  2   force =     0.00013800    0.01035972   -0.00261268
     atom    8 type  2   force =    -0.00012815    0.01036406   -0.00260951
     atom    9 type  1   force =     0.00000715   -0.00109705    0.00137257
     atom   10 type  1   force =     0.00000434   -0.00104751    0.00138702
     atom   11 type  2   force =     0.00010973   -0.00042053   -0.00088282
     atom   12 type  2   force =    -0.00012472   -0.00042027   -0.00088263

     Total force =     0.045996     Total SCF correction =     0.002236

     entering subroutine stress ...

     negative rho (up, down):  6.673E-03 0.000E+00
          total   stress  (Ry/bohr**3)                   (kbar)     P=  -19.76
  -0.00017156   0.00000001  -0.00000000        -25.24      0.00     -0.00
   0.00000001  -0.00017578   0.00000098          0.00    -25.86      0.14
  -0.00000000   0.00000098  -0.00005571         -0.00      0.14     -8.19

 !ASE

     Writing output data file calc.save

     General routines

     Parallel routines

   This run was terminated on:   8:55: 7  19Dec2018

   JOB DONE.
Job  /afs/slac/g/suncat/bin/suncat-tsmpirun -x LD_LIBRARY_PATH -wdir /scratch/qe529717_2GNcD pw.x -in pw.inp

TID   HOST_NAME   COMMAND_LINE            STATUS            TERMINATION_TIME
00000 suncat0146 pw.x -in pw.inp   Done                     12/19/2018 08:55:07
00001 suncat0146 pw.x -in pw.inp   Done                     12/19/2018 08:55:07
00002 suncat0146 pw.x -in pw.inp   Done                     12/19/2018 08:55:07
00003 suncat0146 pw.x -in pw.inp   Done                     12/19/2018 08:55:07
00004 suncat0146 pw.x -in pw.inp   Done                     12/19/2018 08:55:07
00005 suncat0146 pw.x -in pw.inp   Done                     12/19/2018 08:55:07
00006 suncat0146 pw.x -in pw.inp   Done                     12/19/2018 08:55:07
00007 suncat0146 pw.x -in pw.inp   Done                     12/19/2018 08:55:07
00008 suncat0145 pw.x -in pw.inp   Done                     12/19/2018 08:55:07
00009 suncat0145 pw.x -in pw.inp   Done                     12/19/2018 08:55:07
00010 suncat0145 pw.x -in pw.inp   Done                     12/19/2018 08:55:07
00011 suncat0145 pw.x -in pw.inp   Done                     12/19/2018 08:55:07
00012 suncat0145 pw.x -in pw.inp   Done                     12/19/2018 08:55:07
00013 suncat0145 pw.x -in pw.inp   Done                     12/19/2018 08:55:07
00014 suncat0145 pw.x -in pw.inp   Done                     12/19/2018 08:55:07
00015 suncat0145 pw.x -in pw.inp   Done                     12/19/2018 08:55:07
00016 suncat0144 pw.x -in pw.inp   Done                     12/19/2018 08:55:07
00017 suncat0144 pw.x -in pw.inp   Done                     12/19/2018 08:55:07
00018 suncat0144 pw.x -in pw.inp   Done                     12/19/2018 08:55:07
00019 suncat0144 pw.x -in pw.inp   Done                     12/19/2018 08:55:07
00020 suncat0144 pw.x -in pw.inp   Done                     12/19/2018 08:55:07
00021 suncat0144 pw.x -in pw.inp   Done                     12/19/2018 08:55:07
00022 suncat0144 pw.x -in pw.inp   Done                     12/19/2018 08:55:07
00023 suncat0144 pw.x -in pw.inp   Done                     12/19/2018 08:55:07
00024 suncat0143 pw.x -in pw.inp   Done                     12/19/2018 08:55:07
00025 suncat0143 pw.x -in pw.inp   Done                     12/19/2018 08:55:07
00026 suncat0143 pw.x -in pw.inp   Done                     12/19/2018 08:55:07
00027 suncat0143 pw.x -in pw.inp   Done                     12/19/2018 08:55:07
00028 suncat0143 pw.x -in pw.inp   Done                     12/19/2018 08:55:07
00029 suncat0143 pw.x -in pw.inp   Done                     12/19/2018 08:55:07
00030 suncat0143 pw.x -in pw.inp   Done                     12/19/2018 08:55:07
00031 suncat0143 pw.x -in pw.inp   Done                     12/19/2018 08:55:07