     Program PWSCF v.5.1rc2 (svn rev. 11289) starts on 19Dec2018 at  8:14:56

     Current dimensions of program PWSCF are:
     Max number of different atomic species (ntypx) = 10
     Max number of k-points (npk) =  40000
     Max angular momentum in pseudopotentials (lmaxx) =  3
     Presently stress not available with electric field

     IMPORTANT: XC functional enforced from input :
     Exchange-correlation      = BEEF-VDW ( 1  4 27 13 2)
     Any further DFT definition will be discarded
     Please, verify this is what you really want

     Subspace diagonalization in iterative solution of the eigenvalue problem:
     a serial algorithm will be used

     Found symmetry operation: I + (  0.5000  0.5000  0.0000)
     This is a supercell, fractional translations are disabled

     bravais-lattice index     =            0
     lattice parameter (alat)  =       1.8897  a.u.
     unit-cell volume          =    4456.4339 (a.u.)^3
     number of atoms/cell      =           12
     number of atomic types    =            2
     number of electrons       =       162.00
     number of Kohn-Sham states=          111
     kinetic-energy cutoff     =      36.7493  Ry
     charge density cutoff     =     367.4932  Ry
     convergence threshold     =      1.0E-06
     mixing beta               =       0.1000
     number of iterations used =           10  plain     mixing
     Exchange-correlation      = BEEF-VDW ( 1  4 27 13 2)
     nstep                     =           50

     celldm(1)=   1.889726  celldm(2)=   0.000000  celldm(3)=   0.000000
     celldm(4)=   0.000000  celldm(5)=   0.000000  celldm(6)=   0.000000

     crystal axes: (cart. coord. in units of alat)
               a(1) = (   5.414367   0.000000   0.000000 )
               a(2) = (   2.119659   4.982209   0.000000 )
               a(3) = (   0.000000   0.000000  24.480554 )

     reciprocal axes: (cart. coord. in units 2 pi/alat)
               b(1) = (  0.184694 -0.078577  0.000000 )
               b(2) = (  0.000000  0.200714  0.000000 )
               b(3) = (  0.000000  0.000000  0.040849 )

     PseudoPot. # 1 for Ti read from file:
     /afs/slac.stanford.edu/u/if/mamunm/psp/gbrv1.5pbe/Ti.UPF
     MD5 check sum: 88a00a6731bd790ddea75d31a80cb452
     Pseudo is Ultrasoft + core correction, Zval = 12.0
     Generated by new atomic code, or converted to UPF format
     Using radial grid of  851 points,  6 beta functions with:
                l(1) =   0
                l(2) =   0
                l(3) =   1
                l(4) =   1
                l(5) =   2
                l(6) =   2
     Q(r) pseudized with  6 coefficients,  rinner =    1.000   1.000   1.000
                                                       1.000   1.000

     PseudoPot. # 2 for Rh read from file:
     /afs/slac.stanford.edu/u/if/mamunm/psp/gbrv1.5pbe/Rh.UPF
     MD5 check sum: 761627e959a2e3a1f56b0b5fe687810e
     Pseudo is Ultrasoft + core correction, Zval = 15.0
     Generated by new atomic code, or converted to UPF format
     Using radial grid of  969 points,  7 beta functions with:
                l(1) =   0
                l(2) =   0
                l(3) =   1
                l(4) =   1
                l(5) =   2
                l(6) =   2
                l(7) =   2
     Q(r) pseudized with  8 coefficients,  rinner =    1.200   1.200   1.200
                                                       1.200   1.200

     vdW kernel table read from file vdW_kernel_table
     MD5 check sum: 095c7af220d748ca6e76c0b4c6cfb241

     atomic species   valence    mass     pseudopotential
        Ti1           12.00    47.86700     Ti( 1.00)
        Rh1           15.00   102.90550     Rh( 1.00)

     No symmetry found

   Cartesian axes

     site n.     atom                  positions (alat units)
         1           Ti1 tau(   1) = (   0.0000000   0.0000000  10.0000000  )
         2           Ti1 tau(   2) = (   3.7670130   2.4911047  10.0000000  )
         3           Rh1 tau(   3) = (   2.7071833   0.0000000  10.0000000  )
         4           Rh1 tau(   4) = (   1.0598297   2.4911047  10.0000000  )
         5           Ti1 tau(   5) = (   5.4143666   3.5804904  12.2402770  )
         6           Ti1 tau(   6) = (   1.6473536   1.0893857  12.2402770  )
         7           Rh1 tau(   7) = (   2.7071833   3.5804904  12.2402770  )
         8           Rh1 tau(   8) = (   4.3545369   1.0893857  12.2402770  )
         9           Ti1 tau(   9) = (   3.2947072   2.1787714  14.4805541  )
        10           Ti1 tau(  10) = (   7.0617202   4.6698761  14.4805541  )
        11           Rh1 tau(  11) = (   6.0018905   2.1787714  14.4805541  )
        12           Rh1 tau(  12) = (   4.3545369   4.6698761  14.4805541  )

     number of k points=    20  Fermi-Dirac smearing, width (Ry)=  0.0110
                       cart. coord. in units 2pi/alat
        k(    1) = (   0.0000000   0.0000000   0.0000000), wk =   0.0555556
        k(    2) = (   0.0000000   0.0334524   0.0000000), wk =   0.1111111
        k(    3) = (   0.0000000   0.0669047   0.0000000), wk =   0.1111111
        k(    4) = (   0.0000000  -0.1003571   0.0000000), wk =   0.0555556
        k(    5) = (   0.0307823  -0.0130962   0.0000000), wk =   0.1111111
        k(    6) = (   0.0307823   0.0203562   0.0000000), wk =   0.1111111
        k(    7) = (   0.0307823   0.0538085   0.0000000), wk =   0.1111111
        k(    8) = (   0.0307823  -0.1134533   0.0000000), wk =   0.1111111
        k(    9) = (   0.0307823  -0.0800009   0.0000000), wk =   0.1111111
        k(   10) = (   0.0307823  -0.0465486   0.0000000), wk =   0.1111111
        k(   11) = (   0.0615646  -0.0261924   0.0000000), wk =   0.1111111
        k(   12) = (   0.0615646   0.0072600   0.0000000), wk =   0.1111111
        k(   13) = (   0.0615646   0.0407123   0.0000000), wk =   0.1111111
        k(   14) = (   0.0615646  -0.1265495   0.0000000), wk =   0.1111111
        k(   15) = (   0.0615646  -0.0930971   0.0000000), wk =   0.1111111
        k(   16) = (   0.0615646  -0.0596448   0.0000000), wk =   0.1111111
        k(   17) = (  -0.0923469   0.0392886   0.0000000), wk =   0.0555556
        k(   18) = (  -0.0923469   0.0727410   0.0000000), wk =   0.1111111
        k(   19) = (  -0.0923469   0.1061933   0.0000000), wk =   0.1111111
        k(   20) = (  -0.0923469  -0.0610685   0.0000000), wk =   0.0555556

     Largest allocated arrays     est. size (Mb)     dimensions
     Largest temporary arrays     est. size (Mb)     dimensions

     Check: negative/imaginary core charge=   -0.000004    0.000000

     Initial potential from superposition of free atoms
     Check: negative starting charge=   -0.329820

     starting charge  152.99914, renormalised to  162.00000

     negative rho (up, down):  3.492E-01 0.000E+00

     *
     * You are using vdW-DF for exchange-correlation in this calculation.
     * Please cite the following three references that made this development
     * possible:
     *
     *   M. Dion, H. Rydberg, E. Schroder, D. C. Langreth, and
     *   B. I. Lundqvist, Phys. Rev. Lett. 92, 246401 (2004).
     *
     *   T. Thonhauser, V. R. Cooper, S. Li, A. Puzder, P. Hyldgaard, and
     *   D. C. Langreth, Phys. Rev. B 76, 125112 (2007).
     *
     *   G. Roman-Perez and J. M. Soler, Phys. Rev. Lett. 103, 096102 (2009).
     *
     *
     * If you are using vdW-DF2, please also cite:
     *
     *   K. Lee, E. D. Murray, L. Kong, B. I. Lundqvist, and
     *   D. C. Langreth, Phys. Rev. B 82, 081101(R) (2010).
     *
     *
     * If you are calculating the stress with vdW-DF, please also cite:
     *
     *   R. Sabatini, E. Kucukbenli, B. Kolb, T. Thonhauser, and
     *   S. de Gironcoli, J. Phys.: Condens. Matter 24, 424209 (2012).
     *

     Carrying out vdW-DF run using the following parameters:

     Nqs =      20    Nr_points =    1024   r_max =   100.000
     q_mesh =
               0.00001000     0.04494208     0.09755937     0.15916263
               0.23128650     0.31572767     0.41458969     0.53033537
               0.66584808     0.82450364     1.01025438     1.22772762
               1.48234092     1.78043706     2.12944203     2.53805004
               3.01644009     3.57652955     4.23227104     5.00000000

     Gradients computed in reciprocal space

     Adding external electric field

     Computed dipole along edir(3) :
        Dipole                0.0000 Ry au,          0.0000 Debye
        Dipole field          0.0000 Ry au

        Potential amp.       -0.0000 Ry
        Total length         45.1050 bohr

     Starting wfc are  132 randomized atomic wfcs

     Self-consistent Calculation

     iteration #  1     ecut=    36.75 Ry     beta=0.10
     Davidson diagonalization with overlap
     ethr =  1.00E-02,  avg # of iterations =  3.2

[...]

     total energy              =   -1747.44328092 Ry
     Harris-Foulkes estimate   =   -1758.95608170 Ry
     estimated scf accuracy    <      65.07112441 Ry

[...]

     End of self-consistent calculation

          k = 0.0000 0.0000 0.0000 ( 16755 PWs)   bands (ev):

   -56.2209 -56.2191 -56.1915 -56.1907 -56.1563 -56.1286 -45.4578 -45.3880
   -45.3765 -45.3398 -45.3272 -45.3268 -44.9318 -44.9300 -44.9186 -44.9160
   -44.8858 -44.8842 -44.7558 -44.7555 -44.7310 -44.7305 -44.7197 -44.7182
   -32.5428 -32.5243 -32.5220 -32.4965 -32.4936 -32.4638 -32.4571 -32.4096
   -32.3822 -32.3753 -32.3533 -32.3463 -32.3318 -32.2786 -32.2473 -32.2365
   -32.2065 -32.2029  -4.9003  -3.3680  -3.2037  -3.1702  -3.0458  -2.9990
    -2.8640  -2.7219  -2.6526  -2.6204  -2.3499  -2.2917  -2.1160  -2.1155
    -1.8193  -1.4419  -1.4138  -1.3646  -1.2830  -1.2161  -1.1153  -1.0092
    -0.7170  -0.6830  -0.5326  -0.5318  -0.4392  -0.0728   0.0717   0.2157
     0.3042   0.7171   0.8281   1.0178   1.7020   1.8473   1.8502   1.8640
     1.9044   1.9672   1.9840   2.0824   2.1186   2.1582   2.2822   2.3484
     2.5761   2.6455   2.6618   2.6734   2.8879   3.0891   3.1260   3.2754
     3.3172   3.3363   3.3398   3.4158   3.4319   3.6433   3.6708   3.9549
     3.9826   4.0092   4.1014   4.1119   4.1453   4.5627   4.7619

[...]

          k =-0.0923 0.0393 0.0000 ( 16764 PWs)   bands (ev):

[...]

     the Fermi energy is     1.4602 ev

!    total energy              =   -1753.10220617 Ry
     Harris-Foulkes estimate   =   -1753.10220476 Ry
     estimated scf accuracy    <       0.00000037 Ry

     The total energy is the sum of the following terms:

     one-electron contribution =  -14693.50777772 Ry
     hartree contribution      =    7358.68684817 Ry
     xc contribution           =    -298.47972775 Ry
     ewald contribution        =    5880.28134965 Ry
     electric field correction =       0.00000000 Ry
     smearing contrib. (-TS)   =      -0.08289852 Ry

     convergence has been achieved in  18 iterations

 BEEF-vdW xc energy contributions
           1 :   -258.766279773866
           2 :    235.303320080086
           3 :   -195.572108640645
           4 :    150.538525687571
           5 :   -110.302468794718
           6 :    80.6452156400732
           7 :   -62.1364953320764
           8 :    51.5785839308217
           9 :   -44.5522599167124
[...]
00029 suncat2059 pw.x -in pw.inp   Done                     12/19/2018 08:19:07
00030 suncat2059 pw.x -in pw.inp   Done                     12/19/2018 08:19:07
00031 suncat2059 pw.x -in pw.inp   Done                     12/19/2018 08:19:07

[...]

   This run was terminated on:   8:23:39  19Dec2018

[...]

     Program PWSCF v.5.1rc2 (svn rev. 11289) starts on 19Dec2018 at  8:34: 4

[...]

     Program PWSCF v.5.1rc2 (svn rev. 11289) starts on 19Dec2018 at  8:48:53

     Current dimensions of program PWSCF are:
     Max number of different atomic species (ntypx) = 10
     Max number of k-points (npk) =  40000
     Max angular momentum in pseudopotentials (lmaxx) =  3
     Presently stress not available with electric field

     IMPORTANT: XC functional enforced from input :
     Exchange-correlation      = BEEF-VDW ( 1  4 27 13 2)
     Any further DFT definition will be discarded
     Please, verify this is what you really want

     Subspace diagonalization in iterative solution of the eigenvalue problem:
     a serial algorithm will be used

     Found symmetry operation: I + (  0.5000  0.5000  0.0000)
     This is a supercell, fractional translations are disabled

     bravais-lattice index     =            0
     lattice parameter (alat)  =       1.8897  a.u.
     unit-cell volume          =    4456.4339 (a.u.)^3
     number of atoms/cell      =           12
     number of atomic types    =            2
     number of electrons       =       162.00
     number of Kohn-Sham states=          111
     kinetic-energy cutoff     =      36.7493  Ry
     charge density cutoff     =     367.4932  Ry
     convergence threshold     =      1.0E-06
     mixing beta               =       0.1000
     number of iterations used =           10  plain     mixing
     Exchange-correlation      = BEEF-VDW ( 1  4 27 13 2)
     nstep                     =           50

     celldm(1)=   1.889726  celldm(2)=   0.000000  celldm(3)=   0.000000
     celldm(4)=   0.000000  celldm(5)=   0.000000  celldm(6)=   0.000000

     crystal axes: (cart. coord. in units of alat)
               a(1) = (   5.414367   0.000000   0.000000 )
               a(2) = (   2.119659   4.982209   0.000000 )
               a(3) = (   0.000000   0.000000  24.480554 )

     reciprocal axes: (cart. coord. in units 2 pi/alat)
               b(1) = (  0.184694 -0.078577  0.000000 )
               b(2) = (  0.000000  0.200714  0.000000 )
               b(3) = (  0.000000  0.000000  0.040849 )

     PseudoPot. # 1 for Ti read from file:
     /afs/slac.stanford.edu/u/if/mamunm/psp/gbrv1.5pbe/Ti.UPF
     MD5 check sum: 88a00a6731bd790ddea75d31a80cb452
     Pseudo is Ultrasoft + core correction, Zval = 12.0
     Generated by new atomic code, or converted to UPF format
     Using radial grid of  851 points,  6 beta functions with:
                l(1) =   0
                l(2) =   0
                l(3) =   1
                l(4) =   1
                l(5) =   2
                l(6) =   2
     Q(r) pseudized with  6 coefficients,  rinner =    1.000   1.000   1.000
                                                       1.000   1.000

     PseudoPot. # 2 for Rh read from file:
     /afs/slac.stanford.edu/u/if/mamunm/psp/gbrv1.5pbe/Rh.UPF
     MD5 check sum: 761627e959a2e3a1f56b0b5fe687810e
     Pseudo is Ultrasoft + core correction, Zval = 15.0
     Generated by new atomic code, or converted to UPF format
     Using radial grid of  969 points,  7 beta functions with:
                l(1) =   0
                l(2) =   0
                l(3) =   1
                l(4) =   1
                l(5) =   2
                l(6) =   2
                l(7) =   2
     Q(r) pseudized with  8 coefficients,  rinner =    1.200   1.200   1.200
                                                       1.200   1.200

     vdW kernel table read from file vdW_kernel_table
     MD5 check sum: 095c7af220d748ca6e76c0b4c6cfb241

     atomic species   valence    mass     pseudopotential
        Ti1           12.00    47.86700     Ti( 1.00)
        Rh1           15.00   102.90550     Rh( 1.00)

     No symmetry found

   Cartesian axes

     site n.     atom                  positions (alat units)
         1           Ti1 tau(   1) = (   0.0000000   0.0000000  10.0000000  )
         2           Ti1 tau(   2) = (   3.7670130   2.4911047  10.0000000  )
         3           Rh1 tau(   3) = (   2.7071833   0.0000000  10.0000000  )
         4           Rh1 tau(   4) = (   1.0598297   2.4911047  10.0000000  )
         5           Ti1 tau(   5) = (   5.4143666   3.5804904  12.2402770  )
         6           Ti1 tau(   6) = (   1.6473536   1.0893857  12.2402770  )
         7           Rh1 tau(   7) = (   2.7071833   3.5804904  12.2402770  )
         8           Rh1 tau(   8) = (   4.3545369   1.0893857  12.2402770  )
         9           Ti1 tau(   9) = (   3.5430600   2.3429995  14.4948262  )
        10           Ti1 tau(  10) = (   7.3100875   4.8341251  14.4948321  )
        11           Rh1 tau(  11) = (   6.2608089   2.3499726  14.2941865  )
        12           Rh1 tau(  12) = (   4.6134313   4.8411027  14.2941826  )

     number of k points=    20  Fermi-Dirac smearing, width (Ry)=  0.0110
                       cart. coord. in units 2pi/alat
        k(    1) = (   0.0000000   0.0000000   0.0000000), wk =   0.0555556
        k(    2) = (   0.0000000   0.0334524   0.0000000), wk =   0.1111111
        k(    3) = (   0.0000000   0.0669047   0.0000000), wk =   0.1111111
        k(    4) = (   0.0000000  -0.1003571   0.0000000), wk =   0.0555556
        k(    5) = (   0.0307823  -0.0130962   0.0000000), wk =   0.1111111
        k(    6) = (   0.0307823   0.0203562   0.0000000), wk =   0.1111111
        k(    7) = (   0.0307823   0.0538085   0.0000000), wk =   0.1111111
        k(    8) = (   0.0307823  -0.1134533   0.0000000), wk =   0.1111111
        k(    9) = (   0.0307823  -0.0800009   0.0000000), wk =   0.1111111
        k(   10) = (   0.0307823  -0.0465486   0.0000000), wk =   0.1111111
        k(   11) = (   0.0615646  -0.0261924   0.0000000), wk =   0.1111111
        k(   12) = (   0.0615646   0.0072600   0.0000000), wk =   0.1111111
        k(   13) = (   0.0615646   0.0407123   0.0000000), wk =   0.1111111
        k(   14) = (   0.0615646  -0.1265495   0.0000000), wk =   0.1111111
        k(   15) = (   0.0615646  -0.0930971   0.0000000), wk =   0.1111111
        k(   16) = (   0.0615646  -0.0596448   0.0000000), wk =   0.1111111
        k(   17) = (  -0.0923469   0.0392886   0.0000000), wk =   0.0555556
        k(   18) = (  -0.0923469   0.0727410   0.0000000), wk =   0.1111111
        k(   19) = (  -0.0923469   0.1061933   0.0000000), wk =   0.1111111
        k(   20) = (  -0.0923469  -0.0610685   0.0000000), wk =   0.0555556

     Largest allocated arrays     est. size (Mb)     dimensions
     Largest temporary arrays     est. size (Mb)     dimensions

     Check: negative/imaginary core charge=   -0.000004    0.000000

     Initial potential from superposition of free atoms
     Check: negative starting charge=   -0.330386

     starting charge  152.99914, renormalised to  162.00000

[...]

     *
     * You are using vdW-DF for exchange-correlation in this calculation.
     * Please cite the following three references that made this development
     * possible:
     *
     *   M. Dion, H. Rydberg, E. Schroder, D. C. Langreth, and
     *   B. I. Lundqvist, Phys. Rev. Lett. 92, 246401 (2004).
     *
     *   T. Thonhauser, V. R. Cooper, S. Li, A. Puzder, P. Hyldgaard, and
     *   D. C. Langreth, Phys. Rev. B 76, 125112 (2007).
     *
     *   G. Roman-Perez and J. M. Soler, Phys. Rev. Lett. 103, 096102 (2009).
     *
     *
     * If you are using vdW-DF2, please also cite:
     *
     *   K. Lee, E. D. Murray, L. Kong, B. I. Lundqvist, and
     *   D. C. Langreth, Phys. Rev. B 82, 081101(R) (2010).
     *
     *
     * If you are calculating the stress with vdW-DF, please also cite:
     *
     *   R. Sabatini, E. Kucukbenli, B. Kolb, T. Thonhauser, and
     *   S. de Gironcoli, J. Phys.: Condens. Matter 24, 424209 (2012).
     *

     Carrying out vdW-DF run using the following parameters:

     Nqs =      20    Nr_points =    1024   r_max =   100.000
     q_mesh =
               0.00001000     0.04494208     0.09755937     0.15916263
               0.23128650     0.31572767     0.41458969     0.53033537
               0.66584808     0.82450364     1.01025438     1.22772762
               1.48234092     1.78043706     2.12944203     2.53805004
               3.01644009     3.57652955     4.23227104     5.00000000

     Gradients computed in reciprocal space

[...]

     Starting wfc are  132 randomized atomic wfcs

     Self-consistent Calculation

[...]

     total energy              =   -1753.12779470 Ry
     Harris-Foulkes estimate   =   -1753.12779502 Ry
     estimated scf accuracy    <       0.00000231 Ry

     iteration # 23     ecut=    36.75 Ry     beta=0.10
     Davidson diagonalization with overlap
     ethr =  1.42E-09,  avg # of iterations =  1.1

[...]

     negative rho (up, down):  3.446E-01 0.000E+00

     Adding external electric field

     Computed dipole along edir(3) :
        Dipole                0.0690 Ry au,          0.1753 Debye
        Dipole field          0.0002 Ry au

        Potential amp.       -0.0175 Ry
        Total length         45.1050 bohr

     End of self-consistent calculation

[...]

          k = 0.0616-0.0596 0.0000 ( 16799 PWs)   bands (ev):

[...]

          k =-0.0923-0.0611 0.0000 ( 16826 PWs)   bands (ev):

   -56.1692 -56.1410 -56.1235 -56.0955 -56.0815 -56.0497 -45.3963 -45.3244
   -45.3118 -45.2849 -45.2754 -45.2686 -45.0197 -44.9824 -44.9721 -44.9045
   -44.8954 -44.8917 -44.8253 -44.8155 -44.7870 -44.6606 -44.6350 -44.6238
   -32.4959 -32.4634 -32.4456 -32.4420 -32.4174 -32.3953 -32.3663 -32.3637
   -32.3344 -32.3141 -32.2877 -32.2793 -32.2395 -32.2107 -32.2017 -32.1733
   -32.1348 -32.1045  -3.3882  -3.0214  -2.5858  -2.5010  -2.4031  -2.3852
    -2.2995  -2.2489  -2.0860  -1.8861  -1.8799  -1.7723  -1.7372  -1.6041
    -1.5446  -1.2477  -1.1057  -1.0956  -0.9834  -0.9204  -0.8601  -0.8291
    -0.8290  -0.5681  -0.5118  -0.3545  -0.2988  -0.2614  -0.2471  -0.0127
     0.1037   0.2243   0.4966   0.5549   0.6832   0.7274   0.7548   0.8115
     0.9077   0.9294   1.1503   1.5372   1.5685   1.6229   1.6974   1.7845
     1.7901   1.9687   2.1822   2.3044   2.3442   2.4841   2.5241   2.5478
     2.7237   2.8670   2.9901   3.1598   3.2996   3.3252   3.4823   3.5597
     3.6314   3.8279   3.9571   4.0770   4.6543   4.8814   5.2481

     the Fermi energy is     1.5609 ev

!    total energy              =   -1753.12779513 Ry
     Harris-Foulkes estimate   =   -1753.12779440 Ry
     estimated scf accuracy    <       0.00000027 Ry

     The total energy is the sum of the following terms:

     one-electron contribution =  -14891.52004998 Ry
     hartree contribution      =    7457.90902089 Ry
     xc contribution           =    -298.58062604 Ry
     ewald contribution        =    5979.13880817 Ry
     electric field correction =       0.00001341 Ry
     smearing contrib. (-TS)   =      -0.07496158 Ry

     convergence has been achieved in  23 iterations

 BEEF-vdW xc energy contributions
           1 :   -258.878034482558
           2 :    235.486199185761
           3 :   -195.843692189244
           4 :    150.839685184637
           5 :   -110.523726740492
           6 :    80.6945971514524
           7 :   -62.0043318887963
           8 :    51.3475315742446
           9 :   -44.3434061431055
          10 :    37.5441975273347
          11 :   -29.5107334496069
          12 :    20.6153029616557
          13 :   -12.0829232713235
          14 :    5.01126707308947
          15 :   0.111467455387753
          16 :   -3.36038935737480
          17 :    5.09302743225186
          18 :   -5.73436373294459
          19 :    5.70524823462978
          20 :   -5.40180020205401
          21 :    5.11921912334890
          22 :   -4.93359178136592
          23 :    4.64699809780410
          24 :   -3.89627994912524
          25 :    2.40242164984596
          26 :  -0.210978877548030
          27 :   -2.25693864363171
          28 :    4.40077242016588
          29 :   -5.76779364861494
          30 :    6.29439500733884
          31 :   -26.2529837227096
          32 :   -19.3088102285392

     Forces acting on atoms (Ry/au):

     negative rho (up, down):  3.446E-01 0.000E+00
     atom    1 type  1   force =    -0.01064885   -0.00704216   -0.01094047
     atom    2 type  1   force =    -0.01064946   -0.00704243   -0.01094334
     atom    3 type  2   force =    -0.00367863   -0.00243258    0.03144561
     atom    4 type  2   force =    -0.00367825   -0.00243249    0.03144580
     atom    5 type  1   force =     0.00914305    0.00604599   -0.02341915
     atom    6 type  1   force =     0.00915434    0.00605394   -0.02342219
     atom    7 type  2   force =     0.00559551    0.00371323    0.00088156
     atom    8 type  2   force =     0.00560757    0.00369546    0.00088132
     atom    9 type  1   force =     0.00051279    0.00034102    0.00071541
     atom   10 type  1   force =     0.00050833    0.00033439    0.00070786
     atom   11 type  2   force =    -0.00093786   -0.00061031    0.00132321
     atom   12 type  2   force =    -0.00092854   -0.00062406    0.00132438

     Total force =     0.063397     Total SCF correction =     0.001983

     entering subroutine stress ...

     negative rho (up, down):  3.446E-01 0.000E+00
          total   stress  (Ry/bohr**3)                   (kbar)     P=  -25.92
  -0.00021660  -0.00002353   0.00002607        -31.86     -3.46      3.84
  -0.00002353  -0.00019658   0.00001724         -3.46    -28.92      2.54
   0.00002607   0.00001724  -0.00011545          3.84      2.54    -16.98

 !ASE

     Writing output data file calc.save

     General routines

     Parallel routines

   This run was terminated on:   8:53:53  19Dec2018

   JOB DONE.
Job  /afs/slac/g/suncat/bin/suncat-tsmpirun -x LD_LIBRARY_PATH -wdir /scratch/qe530714_llPMF pw.x -in pw.inp

TID   HOST_NAME   COMMAND_LINE            STATUS            TERMINATION_TIME
00000 suncat2060 pw.x -in pw.inp   Done                     12/19/2018 08:53:53
00001 suncat2060 pw.x -in pw.inp   Done                     12/19/2018 08:53:53
00002 suncat2060 pw.x -in pw.inp   Done                     12/19/2018 08:53:53
00003 suncat2060 pw.x -in pw.inp   Done                     12/19/2018 08:53:53
00004 suncat2060 pw.x -in pw.inp   Done                     12/19/2018 08:53:53
00005 suncat2060 pw.x -in pw.inp   Done                     12/19/2018 08:53:53
00006 suncat2060 pw.x -in pw.inp   Done                     12/19/2018 08:53:53
00007 suncat2060 pw.x -in pw.inp   Done                     12/19/2018 08:53:53
00008 suncat2060 pw.x -in pw.inp   Done                     12/19/2018 08:53:53
00009 suncat2060 pw.x -in pw.inp   Done                     12/19/2018 08:53:53
00010 suncat2060 pw.x -in pw.inp   Done                     12/19/2018 08:53:53
00011 suncat2060 pw.x -in pw.inp   Done                     12/19/2018 08:53:53
00012 suncat2060 pw.x -in pw.inp   Done                     12/19/2018 08:53:53
00013 suncat2060 pw.x -in pw.inp   Done                     12/19/2018 08:53:53
00014 suncat2060 pw.x -in pw.inp   Done                     12/19/2018 08:53:53
00015 suncat2060 pw.x -in pw.inp   Done                     12/19/2018 08:53:53
00016 suncat2059 pw.x -in pw.inp   Done                     12/19/2018 08:53:53
00017 suncat2059 pw.x -in pw.inp   Done                     12/19/2018 08:53:53
00018 suncat2059 pw.x -in pw.inp   Done                     12/19/2018 08:53:53
00019 suncat2059 pw.x -in pw.inp   Done                     12/19/2018 08:53:53
00020 suncat2059 pw.x -in pw.inp   Done                     12/19/2018 08:53:53
00021 suncat2059 pw.x -in pw.inp   Done                     12/19/2018 08:53:53
00022 suncat2059 pw.x -in pw.inp   Done                     12/19/2018 08:53:53
00023 suncat2059 pw.x -in pw.inp   Done                     12/19/2018 08:53:53
00024 suncat2059 pw.x -in pw.inp   Done                     12/19/2018 08:53:53
00025 suncat2059 pw.x -in pw.inp   Done                     12/19/2018 08:53:53
00026 suncat2059 pw.x -in pw.inp   Done                     12/19/2018 08:53:53
00027 suncat2059 pw.x -in pw.inp   Done                     12/19/2018 08:53:53
00028 suncat2059 pw.x -in pw.inp   Done                     12/19/2018 08:53:53
00029 suncat2059 pw.x -in pw.inp   Done                     12/19/2018 08:53:53
00030 suncat2059 pw.x -in pw.inp   Done                     12/19/2018 08:53:53
00031 suncat2059 pw.x -in pw.inp   Done                     12/19/2018 08:53:53