     Program PWSCF v.5.1rc2 (svn rev. 11289) starts on 18Dec2018 at 18:28:14

     Current dimensions of program PWSCF are:
     Max number of different atomic species (ntypx) = 10
     Max number of k-points (npk) =  40000
     Max angular momentum in pseudopotentials (lmaxx) =  3
     Presently stress not available with electric field

     IMPORTANT: XC functional enforced from input :
     Exchange-correlation      = BEEF-VDW ( 1  4 27 13 2)
     Any further DFT definition will be discarded
     Please, verify this is what you really want

     Subspace diagonalization in iterative solution of the eigenvalue problem:
     a serial algorithm will be used

     Found symmetry operation: I + (  0.5000  0.5000  0.0000)
     This is a supercell, fractional translations are disabled

     bravais-lattice index     =            0
     lattice parameter (alat)  =       1.8897  a.u.
     unit-cell volume          =    6603.8191 (a.u.)^3
     number of atoms/cell      =           12
     number of atomic types    =            2
     number of electrons       =       150.00
     number of Kohn-Sham states=          105
     kinetic-energy cutoff     =      36.7493  Ry
     charge density cutoff     =     367.4932  Ry
     convergence threshold     =      1.0E-06
     mixing beta               =       0.1000
     number of iterations used =           10  plain     mixing
     Exchange-correlation      = BEEF-VDW ( 1  4 27 13 2)
     nstep                     =           50

     celldm(1)=   1.889726  celldm(2)=   0.000000  celldm(3)=   0.000000
     celldm(4)=   0.000000  celldm(5)=   0.000000  celldm(6)=   0.000000

     crystal axes: (cart. coord. in units of alat)
               a(1) = (   6.420368   0.000000   0.000000 )
               a(2) = (   2.191737   6.034684   0.000000 )
               a(3) = (   0.000000   0.000000  25.257138 )

     reciprocal axes: (cart. coord. in units 2 pi/alat)
               b(1) = (  0.155754 -0.056568  0.000000 )
               b(2) = (  0.000000  0.165709  0.000000 )
               b(3) = (  0.000000  0.000000  0.039593 )

     PseudoPot. # 1 for Au read from file:
     /afs/slac.stanford.edu/u/if/mamunm/psp/gbrv1.5pbe/Au.UPF
     MD5 check sum: 9d7f43293ad2c663164586bc4b293ffc
     Pseudo is Ultrasoft + core correction, Zval = 11.0
     Generated by new atomic code, or converted to UPF format
     Using radial grid of  985 points,  7 beta functions with:
                l(1) =   0
                l(2) =   0
                l(3) =   1
                l(4) =   1
                l(5) =   2
                l(6) =   2
                l(7) =   3
     Q(r) pseudized with  6 coefficients,  rinner =    1.900   1.900   1.900
                                                       1.900   1.900   1.900
                                                       1.900

     PseudoPot. # 2 for Pb read from file:
     /afs/slac.stanford.edu/u/if/mamunm/psp/gbrv1.5pbe/Pb.UPF
     MD5 check sum: 3d1c1779aa92214d1e8f3a7db79003e2
     Pseudo is Ultrasoft + core correction, Zval = 14.0
     Generated by new atomic code, or converted to UPF format
     Using radial grid of  899 points,  6 beta functions with:
                l(1) =   0
                l(2) =   0
                l(3) =   1
                l(4) =   1
                l(5) =   2
                l(6) =   2
     Q(r) pseudized with  6 coefficients,  rinner =    1.000   1.000   1.000
                                                       1.000   1.000

     vdW kernel table read from file vdW_kernel_table
     MD5 check sum: 095c7af220d748ca6e76c0b4c6cfb241

     atomic species   valence    mass     pseudopotential
        Au1           11.00   196.96657     Au( 1.00)
        Pb1           14.00   207.20000     Pb( 1.00)

     No symmetry found

   Cartesian axes

     site n.     atom                  positions (alat units)
         1           Au1 tau(   1) = (   0.0000000   0.0000000  10.0000000  )
         2           Au1 tau(   2) = (   4.3060526   3.0173419  10.0000000  )
         3           Pb1 tau(   3) = (   3.2101839   0.0000000  10.0000000  )
         4           Pb1 tau(   4) = (   1.0958687   3.0173419  10.0000000  )
         5           Au1 tau(   5) = (   6.4203677   4.4988871  12.6285692  )
         6           Au1 tau(   6) = (   2.1143151   1.4815452  12.6285692  )
         7           Pb1 tau(   7) = (   3.2101839   4.4988871  12.6285692  )
         8           Pb1 tau(   8) = (   5.3244990   1.4815452  12.6285692  )
         9           Au1 tau(   9) = (   4.2286303   2.9630905  15.2571383  )
        10           Au1 tau(  10) = (   8.5346829   5.9804324  15.2571383  )
        11           Pb1 tau(  11) = (   7.4388141   2.9630905  15.2571383  )
        12           Pb1 tau(  12) = (   5.3244990   5.9804324  15.2571383  )

     number of k points=    20  Fermi-Dirac smearing, width (Ry)=  0.0110
                       cart. coord. in units 2pi/alat
        k(    1) = (   0.0000000   0.0000000   0.0000000), wk =   0.0555556
        k(    2) = (   0.0000000   0.0276181   0.0000000), wk =   0.1111111
        k(    3) = (   0.0000000   0.0552363   0.0000000), wk =   0.1111111
        k(    4) = (   0.0000000  -0.0828544   0.0000000), wk =   0.0555556
        k(    5) = (   0.0259591  -0.0094281   0.0000000), wk =   0.1111111
        k(    6) = (   0.0259591   0.0181901   0.0000000), wk =   0.1111111
        k(    7) = (   0.0259591   0.0458082   0.0000000), wk =   0.1111111
        k(    8) = (   0.0259591  -0.0922825   0.0000000), wk =   0.1111111
        k(    9) = (   0.0259591  -0.0646643   0.0000000), wk =   0.1111111
        k(   10) = (   0.0259591  -0.0370462   0.0000000), wk =   0.1111111
        k(   11) = (   0.0519181  -0.0188561   0.0000000), wk =   0.1111111
        k(   12) = (   0.0519181   0.0087620   0.0000000), wk =   0.1111111
        k(   13) = (   0.0519181   0.0363801   0.0000000), wk =   0.1111111
        k(   14) = (   0.0519181  -0.1017105   0.0000000), wk =   0.1111111
        k(   15) = (   0.0519181  -0.0740924   0.0000000), wk =   0.1111111
        k(   16) = (   0.0519181  -0.0464743   0.0000000), wk =   0.1111111
        k(   17) = (  -0.0778772   0.0282842   0.0000000), wk =   0.0555556
        k(   18) = (  -0.0778772   0.0559023   0.0000000), wk =   0.1111111
        k(   19) = (  -0.0778772   0.0835205   0.0000000), wk =   0.1111111
        k(   20) = (  -0.0778772  -0.0545702   0.0000000), wk =   0.0555556

     Largest allocated arrays     est. size (Mb)     dimensions
     Largest temporary arrays     est. size (Mb)     dimensions

     Check: negative/imaginary core charge=   -0.000002    0.000000

     Initial potential from superposition of free atoms
     Check: negative starting charge=   -0.102226

     starting charge  149.98516, renormalised to  150.00000

     negative rho (up, down):  1.022E-01 0.000E+00

     *
     * You are using vdW-DF for exchange-correlation in this calculation.
     * Please cite the following three references that made this development
     * possible:
     *
     *   M. Dion, H. Rydberg, E. Schroder, D. C. Langreth, and
     *   B. I. Lundqvist, Phys. Rev. Lett. 92, 246401 (2004).
     *
     *   T. Thonhauser, V. R. Cooper, S. Li, A. Puzder, P. Hyldgaard, and
     *   D. C. Langreth, Phys. Rev. B 76, 125112 (2007).
     *
     *   G. Roman-Perez and J. M. Soler, Phys. Rev. Lett. 103, 096102 (2009).
     *
     *
     * If you are using vdW-DF2, please also cite:
     *
     *   K. Lee, E. D. Murray, L. Kong, B. I. Lundqvist, and
     *   D. C. Langreth, Phys. Rev. B 82, 081101(R) (2010).
     *
     *
     * If you are calculating the stress with vdW-DF, please also cite:
     *
     *   R. Sabatini, E. Kucukbenli, B. Kolb, T. Thonhauser, and
     *   S. de Gironcoli, J. Phys.: Condens. Matter 24, 424209 (2012).
     *

     Carrying out vdW-DF run using the following parameters:

     Nqs =      20    Nr_points =    1024   r_max =   100.000
     q_mesh =
               0.00001000     0.04494208     0.09755937     0.15916263
               0.23128650     0.31572767     0.41458969     0.53033537
               0.66584808     0.82450364     1.01025438     1.22772762
               1.48234092     1.78043706     2.12944203     2.53805004
               3.01644009     3.57652955     4.23227104     5.00000000

     Gradients computed in reciprocal space

     Adding external electric field

     Computed dipole along edir(3) :
        Dipole               -0.0000 Ry au,         -0.0000 Debye
        Dipole field         -0.0000 Ry au

        Potential amp.        0.0000 Ry
        Total length         46.5358 bohr

     Starting wfc are  108 randomized atomic wfcs

     Self-consistent Calculation

     iteration #  1     ecut=    36.75 Ry     beta=0.10
     Davidson diagonalization with overlap
     ethr =  1.00E-02,  avg # of iterations =  7.7

     Threshold (ethr) on eigenvalues was too large:
     Diagonalizing with lowered threshold

     Davidson diagonalization with overlap
     ethr =  7.78E-05,  avg # of iterations =  8.4

[...]

     total energy              =   -1696.43313472 Ry
     Harris-Foulkes estimate   =   -1696.45020171 Ry
     estimated scf accuracy    <       0.14266214 Ry

[...]

     End of self-consistent calculation

          k = 0.0000 0.0000 0.0000 ( 24891 PWs)   bands (ev):

   -16.9952 -16.9656 -16.9561 -16.9473 -16.9465 -16.9420 -16.9273 -16.9145
   -16.9096 -16.9023 -16.9003 -16.8968 -16.8908 -16.8878 -16.8851 -16.8827
   -16.8825 -16.8808 -16.8801 -16.8754 -16.8753 -16.8590 -16.8552 -16.8506
   -16.8440 -16.8367 -16.8086 -16.7992 -16.7956 -16.7801  -9.8376  -8.7807
    -7.9456  -7.7434  -7.4901  -7.4697  -3.9702  -3.8948  -3.7223  -3.6118
    -3.6044  -3.5897  -3.5491  -3.5104  -3.4545  -3.4050  -3.3566  -3.2725
    -3.2594  -3.1687  -3.1657  -3.0629  -2.9671  -2.9452  -2.9164  -2.8804
    -2.8609  -2.8336  -2.7513  -2.7308  -2.7225  -2.5941  -2.5539  -2.5193
    -2.5012  -2.4109  -1.9616  -1.8298  -1.6905  -1.4470  -1.4305  -1.3539
    -1.1089  -1.0293  -0.5261  -0.3419   0.0801   0.2403   0.3200   1.0259
     1.1002   1.5864   2.3508   2.5484   3.0976   3.6089   3.9145   3.9335
     4.2676   4.3997   4.4124   4.9374   5.1193   5.2901   5.3745   5.7298
     6.2280   6.8142   6.9849   7.2009   7.2202   7.3360   7.4203   7.7712
     7.7738

[...]

          k =-0.0779 0.0283 0.0000 ( 24824 PWs)   bands (ev):

[...]

     the Fermi energy is     0.5150 ev

!    total energy              =   -1696.42191766 Ry
     Harris-Foulkes estimate   =   -1696.42187557 Ry
     estimated scf accuracy    <       0.00000083 Ry

     The total energy is the sum of the following terms:

     one-electron contribution =   -8123.67652050 Ry
     hartree contribution      =    4143.02488897 Ry
     xc contribution           =    -775.58637930 Ry
     ewald contribution        =    3059.85108916 Ry
     electric field correction =       0.00000000 Ry
     smearing contrib. (-TS)   =      -0.03499599 Ry

     convergence has been achieved in  12 iterations

 BEEF-vdW xc energy contributions
           1 :   -692.331659265246
           2 :    642.942601167581
           3 :   -555.523701057692
[...]
00031 suncat0091 pw.x -in pw.inp   Done                     12/18/2018 18:43:57

     Program PWSCF v.5.1rc2 (svn rev. 11289) starts on 18Dec2018 at 18:44: 3

[...]

     Program PWSCF v.5.1rc2 (svn rev. 11289) starts on 18Dec2018 at 19: 0: 4

[...]

     Program PWSCF v.5.1rc2 (svn rev. 11289) starts on 18Dec2018 at 19:15:47

     Current dimensions of program PWSCF are:
     Max number of different atomic species (ntypx) = 10
     Max number of k-points (npk) =  40000
     Max angular momentum in pseudopotentials (lmaxx) =  3
     Presently stress not available with electric field

     IMPORTANT: XC functional enforced from input :
     Exchange-correlation      = BEEF-VDW ( 1  4 27 13 2)
     Any further DFT definition will be discarded
     Please, verify this is what you really want

     Subspace diagonalization in iterative solution of the eigenvalue problem:
     a serial algorithm will be used

     bravais-lattice index     =            0
     lattice parameter (alat)  =       1.8897  a.u.
     unit-cell volume          =    6603.8191 (a.u.)^3
     number of atoms/cell      =           12
     number of atomic types    =            2
     number of electrons       =       150.00
     number of Kohn-Sham states=          105
     kinetic-energy cutoff     =      36.7493  Ry
     charge density cutoff     =     367.4932  Ry
     convergence threshold     =      1.0E-06
     mixing beta               =       0.1000
     number of iterations used =           10  plain     mixing
     Exchange-correlation      = BEEF-VDW ( 1  4 27 13 2)
     nstep                     =           50

     celldm(1)=   1.889726  celldm(2)=   0.000000  celldm(3)=   0.000000
     celldm(4)=   0.000000  celldm(5)=   0.000000  celldm(6)=   0.000000

     crystal axes: (cart. coord. in units of alat)
               a(1) = (   6.420368   0.000000   0.000000 )
               a(2) = (   2.191737   6.034684   0.000000 )
               a(3) = (   0.000000   0.000000  25.257138 )

     reciprocal axes: (cart. coord. in units 2 pi/alat)
               b(1) = (  0.155754 -0.056568  0.000000 )
               b(2) = (  0.000000  0.165709  0.000000 )
               b(3) = (  0.000000  0.000000  0.039593 )

     PseudoPot. # 1 for Au read from file:
     /afs/slac.stanford.edu/u/if/mamunm/psp/gbrv1.5pbe/Au.UPF
     MD5 check sum: 9d7f43293ad2c663164586bc4b293ffc
     Pseudo is Ultrasoft + core correction, Zval = 11.0
     Generated by new atomic code, or converted to UPF format
     Using radial grid of  985 points,  7 beta functions with:
                l(1) =   0
                l(2) =   0
                l(3) =   1
                l(4) =   1
                l(5) =   2
                l(6) =   2
                l(7) =   3
     Q(r) pseudized with  6 coefficients,  rinner =    1.900   1.900   1.900
                                                       1.900   1.900   1.900
                                                       1.900

     PseudoPot. # 2 for Pb read from file:
     /afs/slac.stanford.edu/u/if/mamunm/psp/gbrv1.5pbe/Pb.UPF
     MD5 check sum: 3d1c1779aa92214d1e8f3a7db79003e2
     Pseudo is Ultrasoft + core correction, Zval = 14.0
     Generated by new atomic code, or converted to UPF format
     Using radial grid of  899 points,  6 beta functions with:
                l(1) =   0
                l(2) =   0
                l(3) =   1
                l(4) =   1
                l(5) =   2
                l(6) =   2
     Q(r) pseudized with  6 coefficients,  rinner =    1.000   1.000   1.000
                                                       1.000   1.000

     vdW kernel table read from file vdW_kernel_table
     MD5 check sum: 095c7af220d748ca6e76c0b4c6cfb241

     atomic species   valence    mass     pseudopotential
        Au1           11.00   196.96657     Au( 1.00)
        Pb1           14.00   207.20000     Pb( 1.00)

     No symmetry found

   Cartesian axes

     site n.     atom                  positions (alat units)
         1           Au1 tau(   1) = (   0.0000000   0.0000000  10.0000000  )
         2           Au1 tau(   2) = (   4.3060526   3.0173419  10.0000000  )
         3           Pb1 tau(   3) = (   3.2101839   0.0000000  10.0000000  )
         4           Pb1 tau(   4) = (   1.0958687   3.0173419  10.0000000  )
         5           Au1 tau(   5) = (   6.4203677   4.4988871  12.6285692  )
         6           Au1 tau(   6) = (   2.1143151   1.4815452  12.6285692  )
         7           Pb1 tau(   7) = (   3.2101839   4.4988871  12.6285692  )
         8           Pb1 tau(   8) = (   5.3244990   1.4815452  12.6285692  )
         9           Au1 tau(   9) = (   4.2280083   2.9625646  15.1699950  )
        10           Au1 tau(  10) = (   8.5317689   5.9784229  15.1693042  )
        11           Pb1 tau(  11) = (   7.4584226   2.9783061  15.2581195  )
        12           Pb1 tau(  12) = (   5.3455318   5.9936848  15.2582321  )

     number of k points=    20  Fermi-Dirac smearing, width (Ry)=  0.0110
                       cart. coord. in units 2pi/alat
        k(    1) = (   0.0000000   0.0000000   0.0000000), wk =   0.0555556
        k(    2) = (   0.0000000   0.0276181   0.0000000), wk =   0.1111111
        k(    3) = (   0.0000000   0.0552363   0.0000000), wk =   0.1111111
        k(    4) = (   0.0000000  -0.0828544   0.0000000), wk =   0.0555556
        k(    5) = (   0.0259591  -0.0094281   0.0000000), wk =   0.1111111
        k(    6) = (   0.0259591   0.0181901   0.0000000), wk =   0.1111111
        k(    7) = (   0.0259591   0.0458082   0.0000000), wk =   0.1111111
        k(    8) = (   0.0259591  -0.0922825   0.0000000), wk =   0.1111111
        k(    9) = (   0.0259591  -0.0646643   0.0000000), wk =   0.1111111
        k(   10) = (   0.0259591  -0.0370462   0.0000000), wk =   0.1111111
        k(   11) = (   0.0519181  -0.0188561   0.0000000), wk =   0.1111111
        k(   12) = (   0.0519181   0.0087620   0.0000000), wk =   0.1111111
        k(   13) = (   0.0519181   0.0363801   0.0000000), wk =   0.1111111
        k(   14) = (   0.0519181  -0.1017105   0.0000000), wk =   0.1111111
        k(   15) = (   0.0519181  -0.0740924   0.0000000), wk =   0.1111111
        k(   16) = (   0.0519181  -0.0464743   0.0000000), wk =   0.1111111
        k(   17) = (  -0.0778772   0.0282842   0.0000000), wk =   0.0555556
        k(   18) = (  -0.0778772   0.0559023   0.0000000), wk =   0.1111111
        k(   19) = (  -0.0778772   0.0835205   0.0000000), wk =   0.1111111
        k(   20) = (  -0.0778772  -0.0545702   0.0000000), wk =   0.0555556

     Largest allocated arrays     est. size (Mb)     dimensions
     Largest temporary arrays     est. size (Mb)     dimensions

     Check: negative/imaginary core charge=   -0.000002    0.000000

     Initial potential from superposition of free atoms
     Check: negative starting charge=   -0.102687

     starting charge  149.98516, renormalised to  150.00000

[...]

     *
     * You are using vdW-DF for exchange-correlation in this calculation.
     * Please cite the following three references that made this development
     * possible:
     *
     *   M. Dion, H. Rydberg, E. Schroder, D. C. Langreth, and
     *   B. I. Lundqvist, Phys. Rev. Lett. 92, 246401 (2004).
     *
     *   T. Thonhauser, V. R. Cooper, S. Li, A. Puzder, P. Hyldgaard, and
     *   D. C. Langreth, Phys. Rev. B 76, 125112 (2007).
     *
     *   G. Roman-Perez and J. M. Soler, Phys. Rev. Lett. 103, 096102 (2009).
     *
     *
     * If you are using vdW-DF2, please also cite:
     *
     *   K. Lee, E. D. Murray, L. Kong, B. I. Lundqvist, and
     *   D. C. Langreth, Phys. Rev. B 82, 081101(R) (2010).
     *
     *
     * If you are calculating the stress with vdW-DF, please also cite:
     *
     *   R. Sabatini, E. Kucukbenli, B. Kolb, T. Thonhauser, and
     *   S. de Gironcoli, J. Phys.: Condens. Matter 24, 424209 (2012).
     *

     Carrying out vdW-DF run using the following parameters:

     Nqs =      20    Nr_points =    1024   r_max =   100.000
     q_mesh =
               0.00001000     0.04494208     0.09755937     0.15916263
               0.23128650     0.31572767     0.41458969     0.53033537
               0.66584808     0.82450364     1.01025438     1.22772762
               1.48234092     1.78043706     2.12944203     2.53805004
               3.01644009     3.57652955     4.23227104     5.00000000

     Gradients computed in reciprocal space

[...]

     Starting wfc are  108 randomized atomic wfcs

     Self-consistent Calculation

[...]

     Threshold (ethr) on eigenvalues was too large:
     Diagonalizing with lowered threshold

     Davidson diagonalization with overlap
     ethr =  8.08E-05,  avg # of iterations =  8.6

[...]

     total energy              =   -1696.42248105 Ry
     Harris-Foulkes estimate   =   -1696.42244856 Ry
     estimated scf accuracy    <       0.00000369 Ry

     iteration # 12     ecut=    36.75 Ry     beta=0.10
     Davidson diagonalization with overlap
     ethr =  2.46E-09,  avg # of iterations =  5.2

[...]

     negative rho (up, down):  1.056E-01 0.000E+00

     Adding external electric field

     Computed dipole along edir(3) :
        Dipole                0.0236 Ry au,          0.0601 Debye
        Dipole field          0.0000 Ry au

        Potential amp.       -0.0042 Ry
        Total length         46.5358 bohr

     End of self-consistent calculation

[...]

          k = 0.0519-0.0465 0.0000 ( 24796 PWs)   bands (ev):

[...]

          k =-0.0779-0.0546 0.0000 ( 24846 PWs)   bands (ev):

   -16.9629 -16.9523 -16.9371 -16.9322 -16.9153 -16.9019 -16.8968 -16.8962
   -16.8769 -16.8733 -16.8654 -16.8636 -16.8631 -16.8626 -16.8615 -16.8600
   -16.8563 -16.8555 -16.8531 -16.8511 -16.8446 -16.8426 -16.8317 -16.8211
   -16.8207 -16.8152 -16.8118 -16.7816 -16.7812 -16.7570  -8.7995  -8.6461
    -8.2849  -8.1628  -7.4081  -6.4702  -4.9611  -4.8762  -4.5964  -4.2817
    -4.2133  -3.9301  -3.8691  -3.7369  -3.7352  -3.7149  -3.6107  -3.5574
    -3.5375  -3.4663  -3.4644  -3.4185  -3.2699  -3.2196  -3.2140  -3.1926
    -3.0668  -2.9890  -2.9698  -2.9484  -2.8300  -2.7558  -2.7227  -2.7031
    -2.6712  -2.6394  -2.4760  -2.1838  -2.1211  -1.9800  -1.6953  -0.1148
     0.5020   0.9176   1.3533   1.4567   1.8394   2.5144   2.8117   2.8364
     2.9242   3.4455   3.5967   3.6934   4.0978   4.2214   4.7128   4.8028
     4.8429   4.9771   4.9846   5.1464   5.2992   5.4963   5.4997   5.5250
     5.6825   5.7698   5.8157   5.9527   6.1830   6.3387   6.3532   6.4328
     6.7046

     the Fermi energy is     0.5342 ev

!    total energy              =   -1696.42253207 Ry
     Harris-Foulkes estimate   =   -1696.42248250 Ry
     estimated scf accuracy    <       0.00000068 Ry

     The total energy is the sum of the following terms:

     one-electron contribution =   -8168.10671066 Ry
     hartree contribution      =    4165.28031914 Ry
     xc contribution           =    -775.61256176 Ry
     ewald contribution        =    3082.05165725 Ry
     electric field correction =       0.00000106 Ry
     smearing contrib. (-TS)   =      -0.03523712 Ry

     convergence has been achieved in  12 iterations

 BEEF-vdW xc energy contributions
           1 :   -692.361928166357
           2 :    642.998088410315
           3 :   -555.607813746893
           4 :    448.533926816982
           5 :   -340.917981397591
           6 :    247.216342308287
           7 :   -174.318143311353
           8 :    121.806139038523
           9 :   -84.6828343990093
          10 :    56.9775139168015
          11 :   -34.5544222788434
          12 :    16.0773365875538
          13 :   -2.17990411609742
          14 :   -6.25311864124808
          15 :    9.51127546237501
          16 :   -9.42225137961202
          17 :    8.60480510406126
          18 :   -9.20560270874080
          19 :    11.9148655239281
          20 :   -15.8151345956073
          21 :    19.0857308416888
          22 :   -20.1159469941286
          23 :    18.3878815015531
          24 :   -14.6824541293500
          25 :    10.5683194343933
          26 :   -7.53335546078313
          27 :    6.26539909358178
          28 :   -6.45402180760436
          29 :    7.15164109075829
          30 :   -7.42496306585019
          31 :   -54.9413129542260
          32 :   -40.0349497738454

     Forces acting on atoms (Ry/au):

     negative rho (up, down):  1.056E-01 0.000E+00
     atom    1 type  1   force =     0.00000249    0.00000129    0.00315063
     atom    2 type  1   force =     0.00000828    0.00000778    0.00316595
     atom    3 type  2   force =    -0.00073504   -0.00050505    0.00094849
     atom    4 type  2   force =    -0.00072913   -0.00051841    0.00094878
     atom    5 type  1   force =    -0.00014209   -0.00009853    0.00003475
     atom    6 type  1   force =    -0.00016097   -0.00011793    0.00010870
     atom    7 type  2   force =     0.00059141    0.00039883   -0.00280260
     atom    8 type  2   force =     0.00057594    0.00041746   -0.00280677
     atom    9 type  1   force =     0.00056740    0.00040332    0.00032266
     atom   10 type  1   force =     0.00059563    0.00041725    0.00035864
     atom   11 type  2   force =    -0.00022865   -0.00028135   -0.00170889
     atom   12 type  2   force =    -0.00034527   -0.00012464   -0.00172033

     Total force =     0.006897     Total SCF correction =     0.004509
     SCF correction compared to forces is large: reduce conv_thr to get better values

     entering subroutine stress ...

     negative rho (up, down):  1.056E-01 0.000E+00
          total   stress  (Ry/bohr**3)                   (kbar)     P=   -6.90
  -0.00006837  -0.00000461   0.00000125        -10.06     -0.68      0.18
  -0.00000461  -0.00006502   0.00000088         -0.68     -9.57      0.13
   0.00000125   0.00000088  -0.00000737          0.18      0.13     -1.08

 !ASE

     Writing output data file calc.save

     General routines

     Parallel routines

   This run was terminated on:  19:31:21  18Dec2018

   JOB DONE.
Job  /afs/slac/g/suncat/bin/suncat-tsmpirun -x LD_LIBRARY_PATH -wdir /scratch/qe529635_gd48N pw.x -in pw.inp

TID   HOST_NAME   COMMAND_LINE            STATUS            TERMINATION_TIME
00000 suncat0094 pw.x -in pw.inp   Done                     12/18/2018 19:31:21
00001 suncat0094 pw.x -in pw.inp   Done                     12/18/2018 19:31:21
00002 suncat0094 pw.x -in pw.inp   Done                     12/18/2018 19:31:21
00003 suncat0094 pw.x -in pw.inp   Done                     12/18/2018 19:31:21
00004 suncat0094 pw.x -in pw.inp   Done                     12/18/2018 19:31:21
00005 suncat0094 pw.x -in pw.inp   Done                     12/18/2018 19:31:21
00006 suncat0094 pw.x -in pw.inp   Done                     12/18/2018 19:31:21
00007 suncat0094 pw.x -in pw.inp   Done                     12/18/2018 19:31:21
00008 suncat0093 pw.x -in pw.inp   Done                     12/18/2018 19:31:21
00009 suncat0093 pw.x -in pw.inp   Done                     12/18/2018 19:31:21
00010 suncat0093 pw.x -in pw.inp   Done                     12/18/2018 19:31:21
00011 suncat0093 pw.x -in pw.inp   Done                     12/18/2018 19:31:21
00012 suncat0093 pw.x -in pw.inp   Done                     12/18/2018 19:31:21
00013 suncat0093 pw.x -in pw.inp   Done                     12/18/2018 19:31:21
00014 suncat0093 pw.x -in pw.inp   Done                     12/18/2018 19:31:21
00015 suncat0093 pw.x -in pw.inp   Done                     12/18/2018 19:31:21
00016 suncat0092 pw.x -in pw.inp   Done                     12/18/2018 19:31:21
00017 suncat0092 pw.x -in pw.inp   Done                     12/18/2018 19:31:21
00018 suncat0092 pw.x -in pw.inp   Done                     12/18/2018 19:31:21
00019 suncat0092 pw.x -in pw.inp   Done                     12/18/2018 19:31:21
00020 suncat0092 pw.x -in pw.inp   Done                     12/18/2018 19:31:21
00021 suncat0092 pw.x -in pw.inp   Done                     12/18/2018 19:31:21
00022 suncat0092 pw.x -in pw.inp   Done                     12/18/2018 19:31:21
00023 suncat0092 pw.x -in pw.inp   Done                     12/18/2018 19:31:21
00024 suncat0091 pw.x -in pw.inp   Done                     12/18/2018 19:31:21
00025 suncat0091 pw.x -in pw.inp   Done                     12/18/2018 19:31:21
00026 suncat0091 pw.x -in pw.inp   Done                     12/18/2018 19:31:21
00027 suncat0091 pw.x -in pw.inp   Done                     12/18/2018 19:31:21
00028 suncat0091 pw.x -in pw.inp   Done                     12/18/2018 19:31:21
00029 suncat0091 pw.x -in pw.inp   Done                     12/18/2018 19:31:21
00030 suncat0091 pw.x -in pw.inp   Done                     12/18/2018 19:31:21
00031 suncat0091 pw.x -in pw.inp   Done                     12/18/2018 19:31:21