     Program PWSCF v.5.1rc2 (svn rev. 11289) starts on 24Dec2018 at 23:14:45

     Current dimensions of program PWSCF are:
     Max number of different atomic species (ntypx) = 10
     Max number of k-points (npk) =  40000
     Max angular momentum in pseudopotentials (lmaxx) =  3
     Presently stress not available with electric field

     IMPORTANT: XC functional enforced from input :
     Exchange-correlation      = BEEF-VDW ( 1  4 27 13 2)
     Any further DFT definition will be discarded
     Please, verify this is what you really want

     Subspace diagonalization in iterative solution of the eigenvalue problem:
     a serial algorithm will be used

     Found symmetry operation: I + ( -0.5000  0.0000  0.0000)
     This is a supercell, fractional translations are disabled

     bravais-lattice index     =            0
     lattice parameter (alat)  =       1.8897  a.u.
     unit-cell volume          =    4683.7564 (a.u.)^3
     number of atoms/cell      =           12
     number of atomic types    =            2
     number of electrons       =       156.00
     number of Kohn-Sham states=          108
     kinetic-energy cutoff     =      36.7493  Ry
     charge density cutoff     =     367.4932  Ry
     convergence threshold     =      1.0E-06
     mixing beta               =       0.1000
     number of iterations used =           10  plain     mixing
     Exchange-correlation      = BEEF-VDW ( 1  4 27 13 2)
     nstep                     =           50

     celldm(1)=   1.889726  celldm(2)=   0.000000  celldm(3)=   0.000000
     celldm(4)=   0.000000  celldm(5)=   0.000000  celldm(6)=   0.000000

     crystal axes: (cart. coord. in units of alat)
               a(1) = (   5.643484   0.000000   0.000000 )
               a(2) = (  -2.821742   4.988450   0.000000 )
               a(3) = (   0.000000   0.000000  24.653854 )

     reciprocal axes: (cart. coord. in units 2 pi/alat)
               b(1) = (  0.177196  0.100232  0.000000 )
               b(2) = (  0.000000  0.200463  0.000000 )
               b(3) = (  0.000000  0.000000  0.040562 )

     PseudoPot. # 1 for Ir read from file:
     /afs/slac.stanford.edu/u/if/mamunm/psp/gbrv1.5pbe/Ir.UPF
     MD5 check sum: 8836f839c3459d2b385c504ce6d91f2c
     Pseudo is Ultrasoft + core correction, Zval = 15.0
     Generated by new atomic code, or converted to UPF format
     Using radial grid of  983 points,  7 beta functions with:
                l(1) =   0
                l(2) =   0
                l(3) =   1
                l(4) =   1
                l(5) =   1
                l(6) =   2
                l(7) =   2
     Q(r) pseudized with  8 coefficients,  rinner =    1.400   1.400   1.400
                                                       1.400   1.400

     PseudoPot. # 2 for Au read from file:
     /afs/slac.stanford.edu/u/if/mamunm/psp/gbrv1.5pbe/Au.UPF
     MD5 check sum: 9d7f43293ad2c663164586bc4b293ffc
     Pseudo is Ultrasoft + core correction, Zval = 11.0
     Generated by new atomic code, or converted to UPF format
     Using radial grid of  985 points,  7 beta functions with:
                l(1) =   0
                l(2) =   0
                l(3) =   1
                l(4) =   1
                l(5) =   2
                l(6) =   2
                l(7) =   3
     Q(r) pseudized with  6 coefficients,  rinner =    1.900   1.900   1.900
                                                       1.900   1.900   1.900
                                                       1.900

     vdW kernel table read from file vdW_kernel_table
     MD5 check sum: 095c7af220d748ca6e76c0b4c6cfb241

     atomic species   valence    mass     pseudopotential
        Ir1           15.00   192.21700     Ir( 1.00)
        Au1           11.00   196.96657     Au( 1.00)

     No symmetry found

   Cartesian axes

     site n.     atom                  positions (alat units)
         1           Ir1 tau(   1) = (   0.0000000   0.0000000  10.0000000  )
         2           Ir1 tau(   2) = (   2.8217420   0.0000000  10.0000000  )
         3           Au1 tau(   3) = (   1.4108710   2.4942248  10.0000000  )
         4           Au1 tau(   4) = (  -1.4108710   2.4942248  10.0000000  )
         5           Ir1 tau(   5) = (   2.8217420   1.5961328  12.3269268  )
         6           Ir1 tau(   6) = (  -0.0000000   1.5961328  12.3269268  )
         7           Au1 tau(   7) = (  -1.4108710   4.0903576  12.3269268  )
         8           Au1 tau(   8) = (   1.4108710   4.0903576  12.3269268  )
         9           Ir1 tau(   9) = (  -0.0000000   3.1922656  14.6538535  )
        10           Ir1 tau(  10) = (   2.8217420   3.1922656  14.6538535  )
        11           Au1 tau(  11) = (   4.2326131   0.6980409  14.6538535  )
        12           Au1 tau(  12) = (   1.4108710   0.6980409  14.6538535  )

     number of k points=    20  Fermi-Dirac smearing, width (Ry)=  0.0110
                       cart. coord. in units 2pi/alat
        k(    1) = (   0.0000000   0.0000000   0.0000000), wk =   0.0555556
        k(    2) = (   0.0000000   0.0334105   0.0000000), wk =   0.1111111
        k(    3) = (   0.0000000   0.0668210   0.0000000), wk =   0.1111111
        k(    4) = (   0.0000000  -0.1002315   0.0000000), wk =   0.0555556
        k(    5) = (   0.0295326   0.0167053   0.0000000), wk =   0.1111111
        k(    6) = (   0.0295326   0.0501158   0.0000000), wk =   0.1111111
        k(    7) = (   0.0295326   0.0835263   0.0000000), wk =   0.1111111
        k(    8) = (   0.0295326  -0.0835263   0.0000000), wk =   0.1111111
        k(    9) = (   0.0295326  -0.0501158   0.0000000), wk =   0.1111111
        k(   10) = (   0.0295326  -0.0167053   0.0000000), wk =   0.1111111
        k(   11) = (   0.0590652   0.0334105   0.0000000), wk =   0.1111111
        k(   12) = (   0.0590652   0.0668210   0.0000000), wk =   0.1111111
        k(   13) = (   0.0590652   0.1002315   0.0000000), wk =   0.1111111
        k(   14) = (   0.0590652  -0.0668210   0.0000000), wk =   0.1111111
        k(   15) = (   0.0590652  -0.0334105   0.0000000), wk =   0.1111111
        k(   16) = (   0.0590652   0.0000000   0.0000000), wk =   0.1111111
        k(   17) = (  -0.0885978  -0.0501158   0.0000000), wk =   0.0555556
        k(   18) = (  -0.0885978  -0.0167053   0.0000000), wk =   0.1111111
        k(   19) = (  -0.0885978   0.0167053   0.0000000), wk =   0.1111111
        k(   20) = (  -0.0885978  -0.1503473   0.0000000), wk =   0.0555556

     Largest allocated arrays     est. size (Mb)     dimensions
     Largest temporary arrays     est. size (Mb)     dimensions

     Check: negative/imaginary core charge=   -0.000002    0.000000

     Initial potential from superposition of free atoms
     Check: negative starting charge=   -2.186993

     starting charge  152.99908, renormalised to  156.00000

     negative rho (up, down):  2.230E+00 0.000E+00

     *
     * You are using vdW-DF for exchange-correlation in this calculation.
     * Please cite the following three references that made this development
     * possible:
     *
     *   M. Dion, H. Rydberg, E. Schroder, D. C. Langreth, and
     *   B. I. Lundqvist, Phys. Rev. Lett. 92, 246401 (2004).
     *
     *   T. Thonhauser, V. R. Cooper, S. Li, A. Puzder, P. Hyldgaard, and
     *   D. C. Langreth, Phys. Rev. B 76, 125112 (2007).
     *
     *   G. Roman-Perez and J. M. Soler, Phys. Rev. Lett. 103, 096102 (2009).
     *
     *
     * If you are using vdW-DF2, please also cite:
     *
     *   K. Lee, E. D. Murray, L. Kong, B. I. Lundqvist, and
     *   D. C. Langreth, Phys. Rev. B 82, 081101(R) (2010).
     *
     *
     * If you are calculating the stress with vdW-DF, please also cite:
     *
     *   R. Sabatini, E. Kucukbenli, B. Kolb, T. Thonhauser, and
     *   S. de Gironcoli, J. Phys.: Condens. Matter 24, 424209 (2012).
     *

     Carrying out vdW-DF run using the following parameters:

     Nqs =      20    Nr_points =    1024   r_max =   100.000
     q_mesh =
               0.00001000     0.04494208     0.09755937     0.15916263
               0.23128650     0.31572767     0.41458969     0.53033537
               0.66584808     0.82450364     1.01025438     1.22772762
               1.48234092     1.78043706     2.12944203     2.53805004
               3.01644009     3.57652955     4.23227104     5.00000000

     Gradients computed in reciprocal space

     Adding external electric field

     Computed dipole along edir(3) :
        Dipole                0.0000 Ry au,          0.0000 Debye
        Dipole field          0.0000 Ry au

        Potential amp.       -0.0000 Ry
        Total length         45.4243 bohr

     Starting wfc are  126 randomized atomic wfcs

     Self-consistent Calculation

     iteration #  1     ecut=    36.75 Ry     beta=0.10
     Davidson diagonalization with overlap
     ethr =  1.00E-02,  avg # of iterations =  7.7

[...]

     total energy              =   -1800.03814295 Ry
     Harris-Foulkes estimate   =   -1800.83551819 Ry
     estimated scf accuracy    <       5.17823044 Ry

[...]

     End of self-consistent calculation

          k = 0.0000 0.0000 0.0000 ( 17677 PWs)   bands (ev):

   -47.8868 -47.8862 -47.8611 -47.7403 -47.7393 -47.7000 -47.6745 -47.6189
   -47.5288 -47.5129 -47.5038 -47.4885 -47.4747 -47.4742 -47.3760 -47.3675
   -47.3506 -47.3428  -7.5856  -5.9790  -5.6257  -5.4543  -5.3477  -5.2826
    -5.1438  -5.1329  -4.8859  -4.8434  -4.7670  -4.7441  -4.6720  -4.6054
    -4.2887  -3.7370  -3.4583  -3.4162  -3.3628  -3.1939  -3.1094  -2.9070
    -2.8760  -2.8282  -2.7188  -2.6189  -2.4119  -2.4088  -2.3973  -2.2478
    -2.0060  -1.9654  -1.7359  -1.5433  -1.5116  -1.0831  -1.0727  -0.9997
    -0.9444  -0.7776  -0.7312  -0.4234  -0.2916  -0.0526   0.0556   0.0872
     0.1542   0.1645   0.2464   0.6489   0.7364   0.7596   0.9074   0.9513
     1.1448   1.2339   1.2430   1.4205   1.4649   1.5699   1.5860   1.6895
     1.7634   2.1352   2.1352   2.1453   2.2077   3.4232   3.4823   3.4828
     3.6204   4.0284   4.0372   5.6531   5.9698   5.9789   6.1350   6.2773
     6.2859   6.3576   6.8208   7.0479   7.2216   7.2402   7.4967   7.8649
     7.9436   9.5359   9.9201  10.0366

[...]

          k =-0.0886-0.0501 0.0000 ( 17610 PWs)   bands (ev):

[...]

     the Fermi energy is     1.0575 ev

!    total energy              =   -1799.72101853 Ry
     Harris-Foulkes estimate   =   -1799.72100581 Ry
     estimated scf accuracy    <       0.00000067 Ry

     The total energy is the sum of the following terms:

     one-electron contribution =  -12539.52325899 Ry
     hartree contribution      =    6332.11749756 Ry
     xc contribution           =    -695.57950587 Ry
     ewald contribution        =    5103.36250791 Ry
     electric field correction =       0.00000000 Ry
     smearing contrib. (-TS)   =      -0.09825914 Ry

     convergence has been achieved in  17 iterations

 BEEF-vdW xc energy contributions
           1 :   -619.350033339040
           2 :    576.022689538008
           3 :   -498.430897827005
           4 :    401.601599121442
           5 :   -302.029544518801
           6 :    213.417572077052
           7 :   -143.897087969016
[...]
     Pseudo is Ultrasoft + core correction, Zval = 15.0
     Generated by new atomic code, or converted to UPF format
     Using radial grid of  983 points,  7 beta functions with:
                l(1) =   0
                l(2) =   0
                l(3) =   1
                l(4) =   1
                l(5) =   1
                l(6) =   2
                l(7) =   2
     Q(r) pseudized with  8 coefficients,  rinner =    1.400   1.400   1.400
                                                       1.400   1.400

     PseudoPot. # 2 for Au read from file:
     /afs/slac.stanford.edu/u/if/mamunm/psp/gbrv1.5pbe/Au.UPF
     MD5 check sum: 9d7f43293ad2c663164586bc4b293ffc
     Pseudo is Ultrasoft + core correction, Zval = 11.0
     Generated by new atomic code, or converted to UPF format
     Using radial grid of  985 points,  7 beta functions with:
                l(1) =   0
                l(2) =   0
                l(3) =   1
                l(4) =   1
                l(5) =   2
                l(6) =   2
                l(7) =   3
     Q(r) pseudized with  6 coefficients,  rinner =    1.900   1.900   1.900
                                                       1.900   1.900   1.900
                                                       1.900

     vdW kernel table read from file vdW_kernel_table
     MD5 check sum: 095c7af220d748ca6e76c0b4c6cfb241

     atomic species   valence    mass     pseudopotential
        Ir1           15.00   192.21700     Ir( 1.00)
        Au1           11.00   196.96657     Au( 1.00)

     No symmetry found

   Cartesian axes

     site n.     atom                  positions (alat units)
         1           Ir1 tau(   1) = (   0.0000000   0.0000000  10.0000000  )
         2           Ir1 tau(   2) = (   2.8217420   0.0000000  10.0000000  )
         3           Au1 tau(   3) = (   1.4108710   2.4942248  10.0000000  )
         4           Au1 tau(   4) = (  -1.4108710   2.4942248  10.0000000  )
         5           Ir1 tau(   5) = (   2.8217420   1.5961328  12.3269268  )
         6           Ir1 tau(   6) = (  -0.0000000   1.5961328  12.3269268  )
         7           Au1 tau(   7) = (  -1.4108710   4.0903576  12.3269268  )
         8           Au1 tau(   8) = (   1.4108710   4.0903576  12.3269268  )
         9           Ir1 tau(   9) = (  -0.0000007   2.6741982  14.5735499  )
        10           Ir1 tau(  10) = (   2.8217363   2.6742112  14.5735527  )
        11           Au1 tau(  11) = (   4.2326270   0.2214566  14.9624147  )
        12           Au1 tau(  12) = (   1.4108460   0.2214473  14.9624197  )

     number of k points=    20  Fermi-Dirac smearing, width (Ry)=  0.0110
                       cart. coord. in units 2pi/alat
        k(    1) = (   0.0000000   0.0000000   0.0000000), wk =   0.0555556
        k(    2) = (   0.0000000   0.0334105   0.0000000), wk =   0.1111111
        k(    3) = (   0.0000000   0.0668210   0.0000000), wk =   0.1111111
        k(    4) = (   0.0000000  -0.1002315   0.0000000), wk =   0.0555556
        k(    5) = (   0.0295326   0.0167053   0.0000000), wk =   0.1111111
        k(    6) = (   0.0295326   0.0501158   0.0000000), wk =   0.1111111
        k(    7) = (   0.0295326   0.0835263   0.0000000), wk =   0.1111111
        k(    8) = (   0.0295326  -0.0835263   0.0000000), wk =   0.1111111
        k(    9) = (   0.0295326  -0.0501158   0.0000000), wk =   0.1111111
        k(   10) = (   0.0295326  -0.0167053   0.0000000), wk =   0.1111111
        k(   11) = (   0.0590652   0.0334105   0.0000000), wk =   0.1111111
        k(   12) = (   0.0590652   0.0668210   0.0000000), wk =   0.1111111
        k(   13) = (   0.0590652   0.1002315   0.0000000), wk =   0.1111111
        k(   14) = (   0.0590652  -0.0668210   0.0000000), wk =   0.1111111
        k(   15) = (   0.0590652  -0.0334105   0.0000000), wk =   0.1111111
        k(   16) = (   0.0590652   0.0000000   0.0000000), wk =   0.1111111
        k(   17) = (  -0.0885978  -0.0501158   0.0000000), wk =   0.0555556
        k(   18) = (  -0.0885978  -0.0167053   0.0000000), wk =   0.1111111
        k(   19) = (  -0.0885978   0.0167053   0.0000000), wk =   0.1111111
        k(   20) = (  -0.0885978  -0.1503473   0.0000000), wk =   0.0555556

     Largest allocated arrays     est. size (Mb)     dimensions
     Largest temporary arrays     est. size (Mb)     dimensions

     Check: negative/imaginary core charge=   -0.000002    0.000000

     Initial potential from superposition of free atoms
     Check: negative starting charge=   -2.180375

     starting charge  152.99908, renormalised to  156.00000

[...]

     *
     * You are using vdW-DF for exchange-correlation in this calculation.
     * Please cite the following three references that made this development
     * possible:
     *
     *   M. Dion, H. Rydberg, E. Schroder, D. C. Langreth, and
     *   B. I. Lundqvist, Phys. Rev. Lett. 92, 246401 (2004).
     *
     *   T. Thonhauser, V. R. Cooper, S. Li, A. Puzder, P. Hyldgaard, and
     *   D. C. Langreth, Phys. Rev. B 76, 125112 (2007).
     *
     *   G. Roman-Perez and J. M. Soler, Phys. Rev. Lett. 103, 096102 (2009).
     *
     *
     * If you are using vdW-DF2, please also cite:
     *
     *   K. Lee, E. D. Murray, L. Kong, B. I. Lundqvist, and
     *   D. C. Langreth, Phys. Rev. B 82, 081101(R) (2010).
     *
     *
     * If you are calculating the stress with vdW-DF, please also cite:
     *
     *   R. Sabatini, E. Kucukbenli, B. Kolb, T. Thonhauser, and
     *   S. de Gironcoli, J. Phys.: Condens. Matter 24, 424209 (2012).
     *

     Carrying out vdW-DF run using the following parameters:

     Nqs =      20    Nr_points =    1024   r_max =   100.000
     q_mesh =
               0.00001000     0.04494208     0.09755937     0.15916263
               0.23128650     0.31572767     0.41458969     0.53033537
               0.66584808     0.82450364     1.01025438     1.22772762
               1.48234092     1.78043706     2.12944203     2.53805004
               3.01644009     3.57652955     4.23227104     5.00000000

     Gradients computed in reciprocal space

[...]

     Starting wfc are  126 randomized atomic wfcs

     Self-consistent Calculation

[...]

     total energy              =   -1799.75886036 Ry
     Harris-Foulkes estimate   =   -1799.75885579 Ry
     estimated scf accuracy    <       0.00000217 Ry

     iteration # 17     ecut=    36.75 Ry     beta=0.10
     Davidson diagonalization with overlap
     ethr =  1.39E-09,  avg # of iterations =  2.1

[...]

     negative rho (up, down):  1.978E+00 0.000E+00

     Adding external electric field

     Computed dipole along edir(3) :
        Dipole                0.0516 Ry au,          0.1311 Debye
        Dipole field          0.0001 Ry au

        Potential amp.       -0.0126 Ry
        Total length         45.4243 bohr

     End of self-consistent calculation

[...]

          k = 0.0591 0.0000 0.0000 ( 17636 PWs)   bands (ev):

[...]

          k =-0.0886-0.1503 0.0000 ( 17610 PWs)   bands (ev):

   -48.2122 -48.2122 -47.8086 -47.8086 -47.7386 -47.7385 -47.6954 -47.6953
   -47.6475 -47.6474 -47.5601 -47.5600 -47.5224 -47.5223 -47.4288 -47.4287
   -47.2758 -47.2757  -5.7378  -5.7378  -4.5833  -4.5833  -4.4064  -4.4063
    -4.3320  -4.3320  -4.1059  -4.1059  -3.9075  -3.9075  -3.6722  -3.6722
    -3.5801  -3.5801  -3.3164  -3.3164  -3.1578  -3.1578  -2.9603  -2.9602
    -2.8973  -2.8973  -2.7641  -2.7641  -2.6642  -2.6641  -2.5621  -2.5621
    -2.3566  -2.3565  -2.1851  -2.1851  -2.0002  -2.0002  -1.8065  -1.8065
    -1.2777  -1.2777  -1.1169  -1.1169  -0.7129  -0.7129  -0.5755  -0.5755
    -0.3412  -0.3412  -0.2727  -0.2726  -0.2512  -0.2512  -0.1723  -0.1722
     0.0477   0.0477   0.3682   0.3682   0.7598   0.7599   1.0322   1.0322
     1.2723   1.2723   2.3464   2.3465   2.8119   2.8119   3.5658   3.5658
     5.0724   5.0725   5.4161   5.4161   6.9665   6.9665   7.6281   7.6281
     7.6902   7.6902   7.7842   7.7842   8.4207   8.4207   8.7495   8.7495
     8.8736   8.8736   9.2433   9.2433

     the Fermi energy is     1.1051 ev

!    total energy              =   -1799.75887958 Ry
     Harris-Foulkes estimate   =   -1799.75886037 Ry
     estimated scf accuracy    <       0.00000100 Ry

     The total energy is the sum of the following terms:

     one-electron contribution =  -12383.11769855 Ry
     hartree contribution      =    6254.07076671 Ry
     xc contribution           =    -695.54063374 Ry
     ewald contribution        =    5024.91947334 Ry
     electric field correction =       0.00000714 Ry
     smearing contrib. (-TS)   =      -0.09079449 Ry

     convergence has been achieved in  17 iterations

 BEEF-vdW xc energy contributions
           1 :   -619.299578264076
           2 :    575.875454970232
           3 :   -498.154277464862
           4 :    401.241171201757
           5 :   -301.670734686161
           6 :    213.127649482503
           7 :   -143.683465324468
           8 :    95.1059445509095
           9 :   -64.1372959809504
          10 :    44.9732687874703
          11 :   -31.8789566801090
          12 :    20.9883919998325
          13 :   -10.8492512913103
          14 :    1.84329648947528
          15 :    4.96468598743104
          16 :   -8.91220823653202
          17 :    10.2899798129775
          18 :   -10.2336364242949
          19 :    10.1417912353182
          20 :   -10.9970215377868
          21 :    12.9434648097777
          22 :   -15.3097152533450
          23 :    17.0223106835692
          24 :   -17.1791375191738
          25 :    15.4946454728164
          26 :   -12.4217303566418
          27 :    8.92258186110394
          28 :   -6.03117020182799
          29 :    4.42719398908253
          30 :   -4.21442781413725
          31 :   -50.6895522006174
          32 :   -37.3978972581832

     Forces acting on atoms (Ry/au):

     negative rho (up, down):  1.978E+00 0.000E+00
     atom    1 type  1   force =     0.00000025    0.01918469    0.02056691
     atom    2 type  1   force =     0.00000004    0.01918584    0.02056370
     atom    3 type  2   force =    -0.00000254   -0.00389542   -0.03365418
     atom    4 type  2   force =     0.00000375   -0.00389762   -0.03365525
     atom    5 type  1   force =     0.00000058   -0.01962440   -0.00097149
     atom    6 type  1   force =     0.00000030   -0.01961445   -0.00096882
     atom    7 type  2   force =     0.00001357    0.00415614    0.01437070
     atom    8 type  2   force =    -0.00001796    0.00415464    0.01437815
     atom    9 type  1   force =    -0.00000072   -0.00006249    0.00003656
     atom   10 type  1   force =    -0.00000037   -0.00006648    0.00003800
     atom   11 type  2   force =    -0.00000661    0.00023919   -0.00035170
     atom   12 type  2   force =     0.00000973    0.00024036   -0.00035259

     Total force =     0.071397     Total SCF correction =     0.002805

     entering subroutine stress ...

     negative rho (up, down):  1.978E+00 0.000E+00
          total   stress  (Ry/bohr**3)                   (kbar)     P=  -23.03
  -0.00025749   0.00000000  -0.00000000        -37.88      0.00     -0.00
   0.00000000  -0.00021365  -0.00002926          0.00    -31.43     -4.30
  -0.00000000  -0.00002926   0.00000143         -0.00     -4.30      0.21

 !ASE

     Writing output data file calc.save

     General routines

     Parallel routines

   This run was terminated on:   1:46:45  25Dec2018

   JOB DONE.
Job  /afs/slac/g/suncat/bin/suncat-tsmpirun -x LD_LIBRARY_PATH -wdir /scratch/qe109038_az8A9 pw.x -in pw.inp

TID   HOST_NAME   COMMAND_LINE            STATUS            TERMINATION_TIME
00000 suncat0092 pw.x -in pw.inp   Done                     12/25/2018 01:46:45
00001 suncat0092 pw.x -in pw.inp   Done                     12/25/2018 01:46:45
00002 suncat0092 pw.x -in pw.inp   Done                     12/25/2018 01:46:45
00003 suncat0092 pw.x -in pw.inp   Done                     12/25/2018 01:46:45
00004 suncat0092 pw.x -in pw.inp   Done                     12/25/2018 01:46:45
00005 suncat0092 pw.x -in pw.inp   Done                     12/25/2018 01:46:45
00006 suncat0092 pw.x -in pw.inp   Done                     12/25/2018 01:46:45
00007 suncat0092 pw.x -in pw.inp   Done                     12/25/2018 01:46:45
00008 suncat0091 pw.x -in pw.inp   Done                     12/25/2018 01:46:45
00009 suncat0091 pw.x -in pw.inp   Done                     12/25/2018 01:46:45
00010 suncat0091 pw.x -in pw.inp   Done                     12/25/2018 01:46:45
00011 suncat0091 pw.x -in pw.inp   Done                     12/25/2018 01:46:45
00012 suncat0091 pw.x -in pw.inp   Done                     12/25/2018 01:46:45
00013 suncat0091 pw.x -in pw.inp   Done                     12/25/2018 01:46:45
00014 suncat0091 pw.x -in pw.inp   Done                     12/25/2018 01:46:45
00015 suncat0091 pw.x -in pw.inp   Done                     12/25/2018 01:46:45
00016 suncat0090 pw.x -in pw.inp   Done                     12/25/2018 01:46:45
00017 suncat0090 pw.x -in pw.inp   Done                     12/25/2018 01:46:45
00018 suncat0090 pw.x -in pw.inp   Done                     12/25/2018 01:46:45
00019 suncat0090 pw.x -in pw.inp   Done                     12/25/2018 01:46:45
00020 suncat0090 pw.x -in pw.inp   Done                     12/25/2018 01:46:45
00021 suncat0090 pw.x -in pw.inp   Done                     12/25/2018 01:46:45
00022 suncat0090 pw.x -in pw.inp   Done                     12/25/2018 01:46:45
00023 suncat0090 pw.x -in pw.inp   Done                     12/25/2018 01:46:45
00024 suncat0089 pw.x -in pw.inp   Done                     12/25/2018 01:46:45
00025 suncat0089 pw.x -in pw.inp   Done                     12/25/2018 01:46:45
00026 suncat0089 pw.x -in pw.inp   Done                     12/25/2018 01:46:45
00027 suncat0089 pw.x -in pw.inp   Done                     12/25/2018 01:46:45
00028 suncat0089 pw.x -in pw.inp   Done                     12/25/2018 01:46:45
00029 suncat0089 pw.x -in pw.inp   Done                     12/25/2018 01:46:45
00030 suncat0089 pw.x -in pw.inp   Done                     12/25/2018 01:46:45
00031 suncat0089 pw.x -in pw.inp   Done                     12/25/2018 01:46:45
00032 suncat0088 pw.x -in pw.inp   Done                     12/25/2018 01:46:45
00033 suncat0088 pw.x -in pw.inp   Done                     12/25/2018 01:46:45
00034 suncat0088 pw.x -in pw.inp   Done                     12/25/2018 01:46:45
00035 suncat0088 pw.x -in pw.inp   Done                     12/25/2018 01:46:45
00036 suncat0088 pw.x -in pw.inp   Done                     12/25/2018 01:46:45
00037 suncat0088 pw.x -in pw.inp   Done                     12/25/2018 01:46:45
00038 suncat0088 pw.x -in pw.inp   Done                     12/25/2018 01:46:45
00039 suncat0088 pw.x -in pw.inp   Done                     12/25/2018 01:46:45
00040 suncat0087 pw.x -in pw.inp   Done                     12/25/2018 01:46:45
00041 suncat0087 pw.x -in pw.inp   Done                     12/25/2018 01:46:45
00042 suncat0087 pw.x -in pw.inp   Done                     12/25/2018 01:46:45
00043 suncat0087 pw.x -in pw.inp   Done                     12/25/2018 01:46:45
00044 suncat0087 pw.x -in pw.inp   Done                     12/25/2018 01:46:45
00045 suncat0087 pw.x -in pw.inp   Done                     12/25/2018 01:46:45
00046 suncat0087 pw.x -in pw.inp   Done                     12/25/2018 01:46:45
00047 suncat0087 pw.x -in pw.inp   Done                     12/25/2018 01:46:45
00048 suncat0156 pw.x -in pw.inp   Done                     12/25/2018 01:46:45
00049 suncat0156 pw.x -in pw.inp   Done                     12/25/2018 01:46:45
00050 suncat0156 pw.x -in pw.inp   Done                     12/25/2018 01:46:45
00051 suncat0156 pw.x -in pw.inp   Done                     12/25/2018 01:46:45
00052 suncat0156 pw.x -in pw.inp   Done                     12/25/2018 01:46:45
00053 suncat0156 pw.x -in pw.inp   Done                     12/25/2018 01:46:45
00054 suncat0156 pw.x -in pw.inp   Done                     12/25/2018 01:46:45
00055 suncat0156 pw.x -in pw.inp   Done                     12/25/2018 01:46:45
00056 suncat0153 pw.x -in pw.inp   Done                     12/25/2018 01:46:45
00057 suncat0153 pw.x -in pw.inp   Done                     12/25/2018 01:46:45
00058 suncat0153 pw.x -in pw.inp   Done                     12/25/2018 01:46:45
00059 suncat0153 pw.x -in pw.inp   Done                     12/25/2018 01:46:45
00060 suncat0153 pw.x -in pw.inp   Done                     12/25/2018 01:46:45
00061 suncat0153 pw.x -in pw.inp   Done                     12/25/2018 01:46:45
00062 suncat0153 pw.x -in pw.inp   Done                     12/25/2018 01:46:45
00063 suncat0153 pw.x -in pw.inp   Done                     12/25/2018 01:46:45