     Program PWSCF v.5.1rc2 (svn rev. 11289) starts on 19Dec2018 at  5:47:40

     Current dimensions of program PWSCF are:
     Max number of different atomic species (ntypx) = 10
     Max number of k-points (npk) =  40000
     Max angular momentum in pseudopotentials (lmaxx) =  3
     Presently stress not available with electric field

     IMPORTANT: XC functional enforced from input :
     Exchange-correlation      = BEEF-VDW ( 1  4 27 13 2)
     Any further DFT definition will be discarded
     Please, verify this is what you really want

     Subspace diagonalization in iterative solution of the eigenvalue problem:
     a serial algorithm will be used

     Found symmetry operation: I + ( -0.5000 -0.5000  0.0000)
     This is a supercell, fractional translations are disabled

     bravais-lattice index     =            0
     lattice parameter (alat)  =       1.8897  a.u.
     unit-cell volume          =    5317.9505 (a.u.)^3
     number of atoms/cell      =           12
     number of atomic types    =            2
     number of electrons       =       186.00
     number of Kohn-Sham states=          123
     kinetic-energy cutoff     =      36.7493  Ry
     charge density cutoff     =     367.4932  Ry
     convergence threshold     =      1.0E-06
     mixing beta               =       0.1000
     number of iterations used =           10  plain     mixing
     Exchange-correlation      = BEEF-VDW ( 1  4 27 13 2)
     nstep                     =           50

     celldm(1)=   1.889726  celldm(2)=   0.000000  celldm(3)=   0.000000
     celldm(4)=   0.000000  celldm(5)=   0.000000  celldm(6)=   0.000000

     crystal axes: (cart. coord. in units of alat)
               a(1) = (   5.811491   0.000000   0.000000 )
               a(2) = (   1.934499   5.480068   0.000000 )
               a(3) = (   0.000000   0.000000  24.744244 )

     reciprocal axes: (cart. coord. in units 2 pi/alat)
               b(1) = (  0.172073 -0.060743  0.000000 )
               b(2) = (  0.000000  0.182479  0.000000 )
               b(3) = (  0.000000  0.000000  0.040413 )

     PseudoPot. # 1 for Sc read from file:
     /afs/slac.stanford.edu/u/if/mamunm/psp/gbrv1.5pbe/Sc.UPF
     MD5 check sum: db30a2753ba66ef00f23801d899b7e7f
     Pseudo is Ultrasoft + core correction, Zval = 11.0
     Generated by new atomic code, or converted to UPF format
     Using radial grid of  849 points,  6 beta functions with:
                l(1) =   0
                l(2) =   0
                l(3) =   1
                l(4) =   1
                l(5) =   2
                l(6) =   2
     Q(r) pseudized with  6 coefficients,  rinner =    1.200   1.200   1.200
                                                       1.200   1.200

     PseudoPot. # 2 for Zn read from file:
     /afs/slac.stanford.edu/u/if/mamunm/psp/gbrv1.5pbe/Zn.UPF
     MD5 check sum: df62231357ef9e81f77b2b3087fa5675
     Pseudo is Ultrasoft, Zval = 20.0
     Generated by new atomic code, or converted to UPF format
     Using radial grid of  943 points,  6 beta functions with:
                l(1) =   0
                l(2) =   0
                l(3) =   1
                l(4) =   1
                l(5) =   2
                l(6) =   2
     Q(r) pseudized with  8 coefficients,  rinner =    1.100   1.100   1.100
                                                       1.100   1.100

     vdW kernel table read from file vdW_kernel_table
     MD5 check sum: 095c7af220d748ca6e76c0b4c6cfb241

     atomic species   valence    mass     pseudopotential
        Sc1           11.00    44.95591     Sc( 1.00)
        Zn1           20.00    65.38000     Zn( 1.00)

     No symmetry found

   Cartesian axes

     site n.     atom                  positions (alat units)
         1           Sc1 tau(   1) = (   0.0000000   0.0000000  10.0000000  )
         2           Sc1 tau(   2) = (   3.8729949   2.7400339  10.0000000  )
         3           Zn1 tau(   3) = (   2.9057455   0.0000000  10.0000000  )
         4           Zn1 tau(   4) = (   0.9672494   2.7400339  10.0000000  )
         5           Sc1 tau(   5) = (   5.8114910   4.1114648  12.3721220  )
         6           Sc1 tau(   6) = (   1.9384961   1.3714310  12.3721220  )
         7           Zn1 tau(   7) = (   2.9057455   4.1114648  12.3721220  )
         8           Zn1 tau(   8) = (   4.8442417   1.3714310  12.3721220  )
         9           Sc1 tau(   9) = (   3.8769923   2.7428619  14.7442440  )
        10           Sc1 tau(  10) = (   0.0039974   0.0028280  14.7442440  )
        11           Zn1 tau(  11) = (   0.9712468   2.7428619  14.7442440  )
        12           Zn1 tau(  12) = (   2.9097429   0.0028280  14.7442440  )

     number of k points=    20  Fermi-Dirac smearing, width (Ry)=  0.0110
                       cart. coord. in units 2pi/alat
        k(    1) = (   0.0000000   0.0000000   0.0000000), wk =   0.0555556
        k(    2) = (   0.0000000   0.0304132   0.0000000), wk =   0.1111111
        k(    3) = (   0.0000000   0.0608265   0.0000000), wk =   0.1111111
        k(    4) = (   0.0000000  -0.0912397   0.0000000), wk =   0.0555556
        k(    5) = (   0.0286788  -0.0101238   0.0000000), wk =   0.1111111
        k(    6) = (   0.0286788   0.0202894   0.0000000), wk =   0.1111111
        k(    7) = (   0.0286788   0.0507027   0.0000000), wk =   0.1111111
        k(    8) = (   0.0286788  -0.1013636   0.0000000), wk =   0.1111111
        k(    9) = (   0.0286788  -0.0709503   0.0000000), wk =   0.1111111
        k(   10) = (   0.0286788  -0.0405371   0.0000000), wk =   0.1111111
        k(   11) = (   0.0573576  -0.0202476   0.0000000), wk =   0.1111111
        k(   12) = (   0.0573576   0.0101656   0.0000000), wk =   0.1111111
        k(   13) = (   0.0573576   0.0405789   0.0000000), wk =   0.1111111
        k(   14) = (   0.0573576  -0.1114874   0.0000000), wk =   0.1111111
        k(   15) = (   0.0573576  -0.0810741   0.0000000), wk =   0.1111111
        k(   16) = (   0.0573576  -0.0506609   0.0000000), wk =   0.1111111
        k(   17) = (  -0.0860364   0.0303714   0.0000000), wk =   0.0555556
        k(   18) = (  -0.0860364   0.0607847   0.0000000), wk =   0.1111111
        k(   19) = (  -0.0860364   0.0911979   0.0000000), wk =   0.1111111
        k(   20) = (  -0.0860364  -0.0608683   0.0000000), wk =   0.0555556

     Largest allocated arrays     est. size (Mb)     dimensions
     Largest temporary arrays     est. size (Mb)     dimensions

     Initial potential from superposition of free atoms
     Check: negative starting charge=   -0.000663

     starting charge  185.98474, renormalised to  186.00000

     negative rho (up, down):  6.626E-04 0.000E+00

     *
     * You are using vdW-DF for exchange-correlation in this calculation.
     * Please cite the following three references that made this development
     * possible:
     *
     *   M. Dion, H. Rydberg, E. Schroder, D. C. Langreth, and
     *   B. I. Lundqvist, Phys. Rev. Lett. 92, 246401 (2004).
     *
     *   T. Thonhauser, V. R. Cooper, S. Li, A. Puzder, P. Hyldgaard, and
     *   D. C. Langreth, Phys. Rev. B 76, 125112 (2007).
     *
     *   G. Roman-Perez and J. M. Soler, Phys. Rev. Lett. 103, 096102 (2009).
     *
     *
     * If you are using vdW-DF2, please also cite:
     *
     *   K. Lee, E. D. Murray, L. Kong, B. I. Lundqvist, and
     *   D. C. Langreth, Phys. Rev. B 82, 081101(R) (2010).
     *
     *
     * If you are calculating the stress with vdW-DF, please also cite:
     *
     *   R. Sabatini, E. Kucukbenli, B. Kolb, T. Thonhauser, and
     *   S. de Gironcoli, J. Phys.: Condens. Matter 24, 424209 (2012).
     *

     Carrying out vdW-DF run using the following parameters:

     Nqs =      20    Nr_points =    1024   r_max =   100.000
     q_mesh =
               0.00001000     0.04494208     0.09755937     0.15916263
               0.23128650     0.31572767     0.41458969     0.53033537
               0.66584808     0.82450364     1.01025438     1.22772762
               1.48234092     1.78043706     2.12944203     2.53805004
               3.01644009     3.57652955     4.23227104     5.00000000

     Gradients computed in reciprocal space

     Adding external electric field

     Computed dipole along edir(3) :
        Dipole               -0.0000 Ry au,         -0.0000 Debye
        Dipole field         -0.0000 Ry au

        Potential amp.        0.0000 Ry
        Total length         45.5908 bohr

     Starting wfc are  156 randomized atomic wfcs

     Self-consistent Calculation

     iteration #  1     ecut=    36.75 Ry     beta=0.10
     Davidson diagonalization with overlap
     ethr =  1.00E-02,  avg # of iterations =  2.0

[...]

     total energy              =   -3345.52766984 Ry
     Harris-Foulkes estimate   =   -3345.90135202 Ry
     estimated scf accuracy    <       2.14997097 Ry

[...]

     End of self-consistent calculation

          k = 0.0000 0.0000 0.0000 ( 20051 PWs)   bands (ev):

  -125.7717-125.7717-125.7714-125.7714-125.7691-125.7690 -79.9467 -79.9465
   -79.9455 -79.9454 -79.9452 -79.9451 -79.9384 -79.9382 -79.9379 -79.9379
   -79.9364 -79.9360 -79.9354 -79.9350 -79.9335 -79.9325 -79.9289 -79.9288
   -49.7789 -49.7784 -49.7652 -49.7649 -49.5163 -49.5027 -28.4529 -28.4480
   -28.4409 -28.4297 -28.3591 -28.3521 -28.3515 -28.3503 -28.3495 -28.3357
   -28.1985 -28.1980 -28.1801 -28.1167 -28.0909 -28.0907 -28.0759 -28.0199
    -6.8339  -6.8312  -6.8304  -6.8237  -6.8022  -6.7777  -6.7710  -6.7630
    -6.7224  -6.7219  -6.7057  -6.6897  -6.6823  -6.6807  -6.6779  -6.6741
    -6.6703  -6.6662  -6.6659  -6.6440  -6.6384  -6.6363  -6.6258  -6.5988
    -6.5672  -6.5540  -6.5129  -6.4862  -6.4858  -6.4538  -6.4494  -5.0390
    -3.4530  -3.1735  -2.8833  -2.7608  -0.9412  -0.7659  -0.3851  -0.0305
     0.0055   0.0409   0.2175   0.3061   0.3578   0.5065   0.9807   0.9987
     1.0070   1.1729   1.2375   1.2563   1.3134   1.3557   1.7573   1.9150
     1.9293   2.1914   2.2553   2.3076   2.3394   2.4311   2.4679   2.6486
     2.6638   2.6843   2.8430   3.0207   3.2584   3.3722   3.6770   3.7735
     4.0258   4.0291   4.0791

[...]

          k =-0.0860 0.0304 0.0000 ( 19988 PWs)   bands (ev):

[...]

     the Fermi energy is     0.4682 ev

!    total energy              =   -3345.68697995 Ry
     Harris-Foulkes estimate   =   -3345.68698259 Ry
     estimated scf accuracy    <       0.00000087 Ry

     The total energy is the sum of the following terms:

     one-electron contribution =  -18314.83085254 Ry
     hartree contribution      =    9138.66394565 Ry
     xc contribution           =    -343.55472925 Ry
     ewald contribution        =    6174.10915613 Ry
     electric field correction =       0.00000000 Ry
     smearing contrib. (-TS)   =      -0.07449994 Ry

     convergence has been achieved in  15 iterations

 BEEF-vdW xc energy contributions
           1 :   -301.919932680511
           2 :    271.835919033800
           3 :   -222.296525155231
           4 :    168.838583497738
           5 :   -124.353700625478
           6 :    94.1973100612346
           7 :   -76.1480706966580
           8 :    64.1615691129787
           9 :   -52.9653893780499
[...]
00029 suncat2059 pw.x -in pw.inp   Done                     12/19/2018 05:52:10
00030 suncat2059 pw.x -in pw.inp   Done                     12/19/2018 05:52:10
00031 suncat2059 pw.x -in pw.inp   Done                     12/19/2018 05:52:10

[...]

   This run was terminated on:   5:56:50  19Dec2018

[...]

     Program PWSCF v.5.1rc2 (svn rev. 11289) starts on 19Dec2018 at  5:56:56

     Current dimensions of program PWSCF are:
     Max number of different atomic species (ntypx) = 10
     Max number of k-points (npk) =  40000
     Max angular momentum in pseudopotentials (lmaxx) =  3
     Presently stress not available with electric field

     IMPORTANT: XC functional enforced from input :
     Exchange-correlation      = BEEF-VDW ( 1  4 27 13 2)
     Any further DFT definition will be discarded
     Please, verify this is what you really want

     Subspace diagonalization in iterative solution of the eigenvalue problem:
     a serial algorithm will be used

     Found symmetry operation: I + ( -0.5000 -0.5000  0.0000)
     This is a supercell, fractional translations are disabled

     bravais-lattice index     =            0
     lattice parameter (alat)  =       1.8897  a.u.
     unit-cell volume          =    5317.9505 (a.u.)^3
     number of atoms/cell      =           12
     number of atomic types    =            2
     number of electrons       =       186.00
     number of Kohn-Sham states=          123
     kinetic-energy cutoff     =      36.7493  Ry
     charge density cutoff     =     367.4932  Ry
     convergence threshold     =      1.0E-06
     mixing beta               =       0.1000
     number of iterations used =           10  plain     mixing
     Exchange-correlation      = BEEF-VDW ( 1  4 27 13 2)
     nstep                     =           50

     celldm(1)=   1.889726  celldm(2)=   0.000000  celldm(3)=   0.000000
     celldm(4)=   0.000000  celldm(5)=   0.000000  celldm(6)=   0.000000

     crystal axes: (cart. coord. in units of alat)
               a(1) = (   5.811491   0.000000   0.000000 )
               a(2) = (   1.934499   5.480068   0.000000 )
               a(3) = (   0.000000   0.000000  24.744244 )

     reciprocal axes: (cart. coord. in units 2 pi/alat)
               b(1) = (  0.172073 -0.060743  0.000000 )
               b(2) = (  0.000000  0.182479  0.000000 )
               b(3) = (  0.000000  0.000000  0.040413 )

     PseudoPot. # 1 for Sc read from file:
     /afs/slac.stanford.edu/u/if/mamunm/psp/gbrv1.5pbe/Sc.UPF
     MD5 check sum: db30a2753ba66ef00f23801d899b7e7f
     Pseudo is Ultrasoft + core correction, Zval = 11.0
     Generated by new atomic code, or converted to UPF format
     Using radial grid of  849 points,  6 beta functions with:
                l(1) =   0
                l(2) =   0
                l(3) =   1
                l(4) =   1
                l(5) =   2
                l(6) =   2
     Q(r) pseudized with  6 coefficients,  rinner =    1.200   1.200   1.200
                                                       1.200   1.200

     PseudoPot. # 2 for Zn read from file:
     /afs/slac.stanford.edu/u/if/mamunm/psp/gbrv1.5pbe/Zn.UPF
     MD5 check sum: df62231357ef9e81f77b2b3087fa5675
     Pseudo is Ultrasoft, Zval = 20.0
     Generated by new atomic code, or converted to UPF format
     Using radial grid of  943 points,  6 beta functions with:
                l(1) =   0
                l(2) =   0
                l(3) =   1
                l(4) =   1
                l(5) =   2
                l(6) =   2
     Q(r) pseudized with  8 coefficients,  rinner =    1.100   1.100   1.100
                                                       1.100   1.100

     vdW kernel table read from file vdW_kernel_table
     MD5 check sum: 095c7af220d748ca6e76c0b4c6cfb241

     atomic species   valence    mass     pseudopotential
        Sc1           11.00    44.95591     Sc( 1.00)
        Zn1           20.00    65.38000     Zn( 1.00)

     No symmetry found

   Cartesian axes

     site n.     atom                  positions (alat units)
         1           Sc1 tau(   1) = (   0.0000000   0.0000000  10.0000000  )
         2           Sc1 tau(   2) = (   3.8729949   2.7400339  10.0000000  )
         3           Zn1 tau(   3) = (   2.9057455   0.0000000  10.0000000  )
         4           Zn1 tau(   4) = (   0.9672494   2.7400339  10.0000000  )
         5           Sc1 tau(   5) = (   5.8114910   4.1114648  12.3721220  )
         6           Sc1 tau(   6) = (   1.9384961   1.3714310  12.3721220  )
         7           Zn1 tau(   7) = (   2.9057455   4.1114648  12.3721220  )
         8           Zn1 tau(   8) = (   4.8442417   1.3714310  12.3721220  )
         9           Sc1 tau(   9) = (   3.8761792   2.7422806  14.7156059  )
        10           Sc1 tau(  10) = (   0.0031762   0.0022405  14.7155928  )
        11           Zn1 tau(  11) = (   0.9710925   2.7427637  14.7169976  )
        12           Zn1 tau(  12) = (   2.9095600   0.0027076  14.7169700  )

     number of k points=    20  Fermi-Dirac smearing, width (Ry)=  0.0110
                       cart. coord. in units 2pi/alat
        k(    1) = (   0.0000000   0.0000000   0.0000000), wk =   0.0555556
        k(    2) = (   0.0000000   0.0304132   0.0000000), wk =   0.1111111
        k(    3) = (   0.0000000   0.0608265   0.0000000), wk =   0.1111111
        k(    4) = (   0.0000000  -0.0912397   0.0000000), wk =   0.0555556
        k(    5) = (   0.0286788  -0.0101238   0.0000000), wk =   0.1111111
        k(    6) = (   0.0286788   0.0202894   0.0000000), wk =   0.1111111
        k(    7) = (   0.0286788   0.0507027   0.0000000), wk =   0.1111111
        k(    8) = (   0.0286788  -0.1013636   0.0000000), wk =   0.1111111
        k(    9) = (   0.0286788  -0.0709503   0.0000000), wk =   0.1111111
        k(   10) = (   0.0286788  -0.0405371   0.0000000), wk =   0.1111111
        k(   11) = (   0.0573576  -0.0202476   0.0000000), wk =   0.1111111
        k(   12) = (   0.0573576   0.0101656   0.0000000), wk =   0.1111111
        k(   13) = (   0.0573576   0.0405789   0.0000000), wk =   0.1111111
        k(   14) = (   0.0573576  -0.1114874   0.0000000), wk =   0.1111111
        k(   15) = (   0.0573576  -0.0810741   0.0000000), wk =   0.1111111
        k(   16) = (   0.0573576  -0.0506609   0.0000000), wk =   0.1111111
        k(   17) = (  -0.0860364   0.0303714   0.0000000), wk =   0.0555556
        k(   18) = (  -0.0860364   0.0607847   0.0000000), wk =   0.1111111
        k(   19) = (  -0.0860364   0.0911979   0.0000000), wk =   0.1111111
        k(   20) = (  -0.0860364  -0.0608683   0.0000000), wk =   0.0555556

     Largest allocated arrays     est. size (Mb)     dimensions
     Largest temporary arrays     est. size (Mb)     dimensions

     Initial potential from superposition of free atoms
     Check: negative starting charge=   -0.000678

     starting charge  185.98474, renormalised to  186.00000

[...]

     *
     * You are using vdW-DF for exchange-correlation in this calculation.
     * Please cite the following three references that made this development
     * possible:
     *
     *   M. Dion, H. Rydberg, E. Schroder, D. C. Langreth, and
     *   B. I. Lundqvist, Phys. Rev. Lett. 92, 246401 (2004).
     *
     *   T. Thonhauser, V. R. Cooper, S. Li, A. Puzder, P. Hyldgaard, and
     *   D. C. Langreth, Phys. Rev. B 76, 125112 (2007).
     *
     *   G. Roman-Perez and J. M. Soler, Phys. Rev. Lett. 103, 096102 (2009).
     *
     *
     * If you are using vdW-DF2, please also cite:
     *
     *   K. Lee, E. D. Murray, L. Kong, B. I. Lundqvist, and
     *   D. C. Langreth, Phys. Rev. B 82, 081101(R) (2010).
     *
     *
     * If you are calculating the stress with vdW-DF, please also cite:
     *
     *   R. Sabatini, E. Kucukbenli, B. Kolb, T. Thonhauser, and
     *   S. de Gironcoli, J. Phys.: Condens. Matter 24, 424209 (2012).
     *

     Carrying out vdW-DF run using the following parameters:

     Nqs =      20    Nr_points =    1024   r_max =   100.000
     q_mesh =
               0.00001000     0.04494208     0.09755937     0.15916263
               0.23128650     0.31572767     0.41458969     0.53033537
               0.66584808     0.82450364     1.01025438     1.22772762
               1.48234092     1.78043706     2.12944203     2.53805004
               3.01644009     3.57652955     4.23227104     5.00000000

     Gradients computed in reciprocal space

[...]

     Starting wfc are  156 randomized atomic wfcs

     Self-consistent Calculation

[...]

     total energy              =   -3345.68719708 Ry
     Harris-Foulkes estimate   =   -3345.68719702 Ry
     estimated scf accuracy    <       0.00000306 Ry

     iteration # 15     ecut=    36.75 Ry     beta=0.10
     Davidson diagonalization with overlap
     ethr =  1.65E-09,  avg # of iterations =  2.3

[...]

     negative rho (up, down):  9.280E-04 0.000E+00

     Adding external electric field

     Computed dipole along edir(3) :
        Dipole                0.0020 Ry au,          0.0052 Debye
        Dipole field          0.0000 Ry au

        Potential amp.       -0.0004 Ry
        Total length         45.5908 bohr

     End of self-consistent calculation

[...]

          k = 0.0574-0.0507 0.0000 ( 20019 PWs)   bands (ev):

[...]

          k =-0.0860-0.0609 0.0000 ( 19978 PWs)   bands (ev):

  -125.7853-125.7853-125.7746-125.7746-125.7691-125.7690 -79.9579 -79.9577
   -79.9533 -79.9532 -79.9508 -79.9506 -79.9490 -79.9482 -79.9423 -79.9421
   -79.9389 -79.9381 -79.9358 -79.9358 -79.9353 -79.9352 -79.9337 -79.9329
   -49.7743 -49.7622 -49.7613 -49.7492 -49.5000 -49.4859 -28.4520 -28.4340
   -28.4310 -28.4182 -28.3634 -28.3494 -28.3446 -28.3406 -28.3355 -28.3224
   -28.1938 -28.1846 -28.1658 -28.0923 -28.0841 -28.0785 -28.0587 -28.0061
    -6.7856  -6.7726  -6.7688  -6.7656  -6.7568  -6.7497  -6.7470  -6.7229
    -6.7172  -6.6963  -6.6819  -6.6718  -6.6697  -6.6686  -6.6627  -6.6518
    -6.6480  -6.6465  -6.6442  -6.6359  -6.6285  -6.6243  -6.6087  -6.5923
    -6.5782  -6.5763  -6.5506  -6.5210  -6.4815  -6.4416  -4.8665  -4.8105
    -3.7998  -3.7351  -2.8427  -2.6147  -2.5024  -1.4218  -1.1693  -0.9436
    -0.8918  -0.8735  -0.7637  -0.0289   0.0654   0.3014   0.6775   0.7269
     0.9893   1.1242   1.4910   1.5028   1.5699   1.7805   1.7873   1.8029
     1.8193   1.9164   2.0813   2.1059   2.1691   2.6430   2.7119   2.9177
     2.9985   3.0376   3.0721   3.1566   3.7316   3.9339   4.0406   4.0876
     4.1477   4.3298   4.3944

     the Fermi energy is     0.4698 ev

!    total energy              =   -3345.68719700 Ry
     Harris-Foulkes estimate   =   -3345.68719742 Ry
     estimated scf accuracy    <       0.00000063 Ry

     The total energy is the sum of the following terms:

     one-electron contribution =  -18377.50490560 Ry
     hartree contribution      =    9169.98183871 Ry
     xc contribution           =    -343.57935177 Ry
     ewald contribution        =    6205.48940558 Ry
     electric field correction =       0.00000001 Ry
     smearing contrib. (-TS)   =      -0.07418394 Ry

     convergence has been achieved in  15 iterations

 BEEF-vdW xc energy contributions
           1 :   -301.945432965327
           2 :    271.872413672908
           3 :   -222.342024294123
           4 :    168.878039444160
           5 :   -124.372075242334
           6 :    94.1929279812067
           7 :   -76.1346993103234
           8 :    64.1573373485502
           9 :   -52.9780482355402
          10 :    40.7715472267228
          11 :   -28.9572037985257
          12 :    19.9811244123839
          13 :   -15.0269124242854
          14 :    13.1971418488198
          15 :   -12.3839721040197
          16 :    10.8341561892754
          17 :   -8.16231644219602
          18 :    5.23166180846044
          19 :   -3.23067003216261
          20 :    2.73411815660182
          21 :   -3.37407802237237
          22 :    4.21051064777589
          23 :   -4.42020284567946
          24 :    3.79426774310184
          25 :   -2.76375297303878
          26 :    2.02078658408186
          27 :   -2.03192988360331
          28 :    2.74767041053656
          29 :   -3.66162524605204
          30 :    4.15865336234560
          31 :   -26.1676886315462
          32 :   -18.1218672670456

     Forces acting on atoms (Ry/au):

     negative rho (up, down):  9.280E-04 0.000E+00
     atom    1 type  1   force =     0.00006458    0.00004404    0.00242951
     atom    2 type  1   force =     0.00006351    0.00004640    0.00242845
     atom    3 type  2   force =     0.00000451    0.00000299    0.00322653
     atom    4 type  2   force =     0.00001171    0.00000891    0.00322827
     atom    5 type  1   force =    -0.00002134   -0.00001637   -0.00254669
     atom    6 type  1   force =    -0.00002377   -0.00001447   -0.00254624
     atom    7 type  2   force =    -0.00000535    0.00000015   -0.00240816
     atom    8 type  2   force =     0.00000248   -0.00000253   -0.00240184
     atom    9 type  1   force =     0.00004440    0.00003077    0.00039315
     atom   10 type  1   force =     0.00004331    0.00003429    0.00039399
     atom   11 type  2   force =    -0.00009510   -0.00007013   -0.00110210
     atom   12 type  2   force =    -0.00008894   -0.00006405   -0.00109488

     Total force =     0.007742     Total SCF correction =     0.003946
     SCF correction compared to forces is large: reduce conv_thr to get better values

     entering subroutine stress ...

     negative rho (up, down):  9.280E-04 0.000E+00
          total   stress  (Ry/bohr**3)                   (kbar)     P=   -7.02
  -0.00005986  -0.00000548  -0.00000018         -8.81     -0.81     -0.03
  -0.00000548  -0.00005599  -0.00000013         -0.81     -8.24     -0.02
  -0.00000018  -0.00000013  -0.00002739         -0.03     -0.02     -4.03

 !ASE

     Writing output data file calc.save

     General routines

     Parallel routines

   This run was terminated on:   6: 1:31  19Dec2018

   JOB DONE.
Job  /afs/slac/g/suncat/bin/suncat-tsmpirun -x LD_LIBRARY_PATH -wdir /scratch/qe530596_Cy5QW pw.x -in pw.inp

TID   HOST_NAME   COMMAND_LINE            STATUS            TERMINATION_TIME
00000 suncat2060 pw.x -in pw.inp   Done                     12/19/2018 06:01:31
00001 suncat2060 pw.x -in pw.inp   Done                     12/19/2018 06:01:31
00002 suncat2060 pw.x -in pw.inp   Done                     12/19/2018 06:01:31
00003 suncat2060 pw.x -in pw.inp   Done                     12/19/2018 06:01:31
00004 suncat2060 pw.x -in pw.inp   Done                     12/19/2018 06:01:31
00005 suncat2060 pw.x -in pw.inp   Done                     12/19/2018 06:01:31
00006 suncat2060 pw.x -in pw.inp   Done                     12/19/2018 06:01:31
00007 suncat2060 pw.x -in pw.inp   Done                     12/19/2018 06:01:31
00008 suncat2060 pw.x -in pw.inp   Done                     12/19/2018 06:01:31
00009 suncat2060 pw.x -in pw.inp   Done                     12/19/2018 06:01:31
00010 suncat2060 pw.x -in pw.inp   Done                     12/19/2018 06:01:31
00011 suncat2060 pw.x -in pw.inp   Done                     12/19/2018 06:01:31
00012 suncat2060 pw.x -in pw.inp   Done                     12/19/2018 06:01:31
00013 suncat2060 pw.x -in pw.inp   Done                     12/19/2018 06:01:31
00014 suncat2060 pw.x -in pw.inp   Done                     12/19/2018 06:01:31
00015 suncat2060 pw.x -in pw.inp   Done                     12/19/2018 06:01:31
00016 suncat2059 pw.x -in pw.inp   Done                     12/19/2018 06:01:31
00017 suncat2059 pw.x -in pw.inp   Done                     12/19/2018 06:01:31
00018 suncat2059 pw.x -in pw.inp   Done                     12/19/2018 06:01:31
00019 suncat2059 pw.x -in pw.inp   Done                     12/19/2018 06:01:31
00020 suncat2059 pw.x -in pw.inp   Done                     12/19/2018 06:01:31
00021 suncat2059 pw.x -in pw.inp   Done                     12/19/2018 06:01:31
00022 suncat2059 pw.x -in pw.inp   Done                     12/19/2018 06:01:31
00023 suncat2059 pw.x -in pw.inp   Done                     12/19/2018 06:01:31
00024 suncat2059 pw.x -in pw.inp   Done                     12/19/2018 06:01:31
00025 suncat2059 pw.x -in pw.inp   Done                     12/19/2018 06:01:31
00026 suncat2059 pw.x -in pw.inp   Done                     12/19/2018 06:01:31
00027 suncat2059 pw.x -in pw.inp   Done                     12/19/2018 06:01:31
00028 suncat2059 pw.x -in pw.inp   Done                     12/19/2018 06:01:31
00029 suncat2059 pw.x -in pw.inp   Done                     12/19/2018 06:01:31
00030 suncat2059 pw.x -in pw.inp   Done                     12/19/2018 06:01:31
00031 suncat2059 pw.x -in pw.inp   Done                     12/19/2018 06:01:31