     Program PWSCF v.5.1rc2 (svn rev. 11289) starts on 18Dec2018 at 16:49:45

     Current dimensions of program PWSCF are:
     Max number of different atomic species (ntypx) = 10
     Max number of k-points (npk) =  40000
     Max angular momentum in pseudopotentials (lmaxx) =  3
     Presently stress not available with electric field

     IMPORTANT: XC functional enforced from input :
     Exchange-correlation      = BEEF-VDW ( 1  4 27 13 2)
     Any further DFT definition will be discarded
     Please, verify this is what you really want

     Subspace diagonalization in iterative solution of the eigenvalue problem:
     a serial algorithm will be used

     Found symmetry operation: I + ( -0.5000 -0.5000  0.0000)
     This is a supercell, fractional translations are disabled

     bravais-lattice index     =            0
     lattice parameter (alat)  =       1.8897  a.u.
     unit-cell volume          =    4109.8795 (a.u.)^3
     number of atoms/cell      =           12
     number of atomic types    =            2
     number of electrons       =       132.00
     number of Kohn-Sham states=           96
     kinetic-energy cutoff     =      36.7493  Ry
     charge density cutoff     =     367.4932  Ry
     convergence threshold     =      1.0E-06
     mixing beta               =       0.1000
     number of iterations used =           10  plain     mixing
     Exchange-correlation      = BEEF-VDW ( 1  4 27 13 2)
     nstep                     =           50

     celldm(1)=   1.889726  celldm(2)=   0.000000  celldm(3)=   0.000000
     celldm(4)=   0.000000  celldm(5)=   0.000000  celldm(6)=   0.000000

     crystal axes: (cart. coord. in units of alat)
               a(1) = (   5.263595   0.000000   0.000000 )
               a(2) = (   2.267492   4.750149   0.000000 )
               a(3) = (   0.000000   0.000000  24.358065 )

     reciprocal axes: (cart. coord. in units 2 pi/alat)
               b(1) = (  0.189984 -0.090689  0.000000 )
               b(2) = (  0.000000  0.210520  0.000000 )
               b(3) = (  0.000000  0.000000  0.041054 )

     PseudoPot. # 1 for Al read from file:
     /afs/slac.stanford.edu/u/if/mamunm/psp/gbrv1.5pbe/Al.UPF
     MD5 check sum: 0a6289f5291fc8f409219462bc851e1f
     Pseudo is Ultrasoft + core correction, Zval =  3.0
     Generated by new atomic code, or converted to UPF format
     Using radial grid of  893 points,  3 beta functions with:
                l(1) =   0
                l(2) =   1
                l(3) =   2
     Q(r) pseudized with  8 coefficients,  rinner =    0.900   0.900   0.900
                                                       0.900   0.900

     PseudoPot. # 2 for Cu read from file:
     /afs/slac.stanford.edu/u/if/mamunm/psp/gbrv1.5pbe/Cu.UPF
     MD5 check sum: 6e991ff952a84172a2a52a1c1e996048
     Pseudo is Ultrasoft + core correction, Zval = 19.0
     Generated by new atomic code, or converted to UPF format
     Using radial grid of  867 points,  6 beta functions with:
                l(1) =   0
                l(2) =   0
                l(3) =   1
                l(4) =   1
                l(5) =   2
                l(6) =   2
     Q(r) pseudized with  8 coefficients,  rinner =    1.150   1.150   1.150
                                                       1.150   1.150

     vdW kernel table read from file vdW_kernel_table
     MD5 check sum: 095c7af220d748ca6e76c0b4c6cfb241

     atomic species   valence    mass     pseudopotential
        Al1            3.00    26.98154     Al( 1.00)
        Cu1           19.00    63.54600     Cu( 1.00)

     No symmetry found

   Cartesian axes

     site n.     atom                  positions (alat units)
         1           Al1 tau(   1) = (   0.0000000   0.0000000  10.0000000  )
         2           Al1 tau(   2) = (   3.7655436   2.3750745  10.0000000  )
         3           Cu1 tau(   3) = (   2.6317976   0.0000000  10.0000000  )
         4           Cu1 tau(   4) = (   1.1337460   2.3750745  10.0000000  )
         5           Al1 tau(   5) = (   5.2635952   3.3199538  12.1790323  )
         6           Al1 tau(   6) = (   1.4980516   0.9448793  12.1790323  )
         7           Cu1 tau(   7) = (   2.6317976   3.3199538  12.1790323  )
         8           Cu1 tau(   8) = (   4.1298493   0.9448793  12.1790323  )
         9           Al1 tau(   9) = (   2.9961033   1.8897586  14.3580646  )
        10           Al1 tau(  10) = (   6.7616469   4.2648331  14.3580646  )
        11           Cu1 tau(  11) = (   5.6279009   1.8897586  14.3580646  )
        12           Cu1 tau(  12) = (   4.1298493   4.2648331  14.3580646  )

     number of k points=    20  Fermi-Dirac smearing, width (Ry)=  0.0110
                       cart. coord. in units 2pi/alat
        k(    1) = (   0.0000000   0.0000000   0.0000000), wk =   0.0555556
        k(    2) = (   0.0000000   0.0350866   0.0000000), wk =   0.1111111
        k(    3) = (   0.0000000   0.0701732   0.0000000), wk =   0.1111111
        k(    4) = (   0.0000000  -0.1052599   0.0000000), wk =   0.0555556
        k(    5) = (   0.0316640  -0.0151149   0.0000000), wk =   0.1111111
        k(    6) = (   0.0316640   0.0199717   0.0000000), wk =   0.1111111
        k(    7) = (   0.0316640   0.0550584   0.0000000), wk =   0.1111111
        k(    8) = (   0.0316640  -0.1203747   0.0000000), wk =   0.1111111
        k(    9) = (   0.0316640  -0.0852881   0.0000000), wk =   0.1111111
        k(   10) = (   0.0316640  -0.0502015   0.0000000), wk =   0.1111111
        k(   11) = (   0.0633281  -0.0302298   0.0000000), wk =   0.1111111
        k(   12) = (   0.0633281   0.0048569   0.0000000), wk =   0.1111111
        k(   13) = (   0.0633281   0.0399435   0.0000000), wk =   0.1111111
        k(   14) = (   0.0633281  -0.1354896   0.0000000), wk =   0.1111111
        k(   15) = (   0.0633281  -0.1004030   0.0000000), wk =   0.1111111
        k(   16) = (   0.0633281  -0.0653164   0.0000000), wk =   0.1111111
        k(   17) = (  -0.0949921   0.0453446   0.0000000), wk =   0.0555556
        k(   18) = (  -0.0949921   0.0804313   0.0000000), wk =   0.1111111
        k(   19) = (  -0.0949921   0.1155179   0.0000000), wk =   0.1111111
        k(   20) = (  -0.0949921  -0.0599152   0.0000000), wk =   0.0555556

     Largest allocated arrays     est. size (Mb)     dimensions
     Largest temporary arrays     est. size (Mb)     dimensions

     Initial potential from superposition of free atoms
     Check: negative starting charge=   -0.000147

     starting charge  125.98520, renormalised to  132.00000

     negative rho (up, down):  1.536E-04 0.000E+00

     *
     * You are using vdW-DF for exchange-correlation in this calculation.
     * Please cite the following three references that made this development
     * possible:
     *
     *   M. Dion, H. Rydberg, E. Schroder, D. C. Langreth, and
     *   B. I. Lundqvist, Phys. Rev. Lett. 92, 246401 (2004).
     *
     *   T. Thonhauser, V. R. Cooper, S. Li, A. Puzder, P. Hyldgaard, and
     *   D. C. Langreth, Phys. Rev. B 76, 125112 (2007).
     *
     *   G. Roman-Perez and J. M. Soler, Phys. Rev. Lett. 103, 096102 (2009).
     *
     *
     * If you are using vdW-DF2, please also cite:
     *
     *   K. Lee, E. D. Murray, L. Kong, B. I. Lundqvist, and
     *   D. C. Langreth, Phys. Rev. B 82, 081101(R) (2010).
     *
     *
     * If you are calculating the stress with vdW-DF, please also cite:
     *
     *   R. Sabatini, E. Kucukbenli, B. Kolb, T. Thonhauser, and
     *   S. de Gironcoli, J. Phys.: Condens. Matter 24, 424209 (2012).
     *

     Carrying out vdW-DF run using the following parameters:

     Nqs =      20    Nr_points =    1024   r_max =   100.000
     q_mesh =
               0.00001000     0.04494208     0.09755937     0.15916263
               0.23128650     0.31572767     0.41458969     0.53033537
               0.66584808     0.82450364     1.01025438     1.22772762
               1.48234092     1.78043706     2.12944203     2.53805004
               3.01644009     3.57652955     4.23227104     5.00000000

     Gradients computed in reciprocal space

     Adding external electric field

     Computed dipole along edir(3) :
        Dipole               -0.0000 Ry au,         -0.0000 Debye
        Dipole field         -0.0000 Ry au

        Potential amp.        0.0000 Ry
        Total length         44.8793 bohr

     Starting wfc are  102 randomized atomic wfcs

     Self-consistent Calculation

     iteration #  1     ecut=    36.75 Ry     beta=0.10
     Davidson diagonalization with overlap
     ethr =  1.00E-02,  avg # of iterations =  7.2

[...]

     total energy              =   -2466.31776200 Ry
     Harris-Foulkes estimate   =   -2476.22139152 Ry
     estimated scf accuracy    <      55.32083781 Ry

[...]

     End of self-consistent calculation

          k = 0.0000 0.0000 0.0000 ( 15527 PWs)   bands (ev):

  -113.8481-113.8470-113.3650-113.3650-113.3639-113.3638 -71.2771 -71.2757
   -71.2194 -71.2055 -71.2041 -71.2018 -70.8241 -70.8240 -70.8226 -70.8226
   -70.7577 -70.7576 -70.7402 -70.7401 -70.6843 -70.6842 -70.6829 -70.6828
   -10.4777  -8.5293  -6.3962  -5.9346  -5.2831  -5.2096  -4.8549  -4.8131
    -4.6488  -4.5355  -4.3437  -4.2699  -4.2626  -4.1054  -4.0791  -4.0768
    -3.9759  -3.7496  -3.7071  -3.6699  -3.6570  -3.6320  -3.5253  -3.4574
    -3.4384  -3.3613  -3.3146  -3.2392  -3.2256  -3.0870  -3.0426  -2.9549
    -2.8972  -2.7806  -2.6998  -2.6469  -2.2842  -2.0328  -2.0055  -1.9980
    -1.7055  -1.4274  -0.4599   0.1503   0.2143   0.2152   1.3476   1.9830
     2.0398   2.1594   2.2219   2.3152   3.2675   3.3490   4.0569   4.2759
     4.7387   4.8952   4.9386   5.0901   5.1730   5.2210   6.2178   6.6347
     6.7988   7.1668   7.4965   8.3364   8.3666   8.4528   8.6981   8.7547

[...]

          k =-0.0950 0.0453 0.0000 ( 15474 PWs)   bands (ev):

[...]

     the Fermi energy is    -0.2393 ev

!    total energy              =   -2470.97287944 Ry
     Harris-Foulkes estimate   =   -2470.97286474 Ry
     estimated scf accuracy    <       0.00000037 Ry

     The total energy is the sum of the following terms:

     one-electron contribution =  -12540.60894465 Ry
     hartree contribution      =    6274.97910558 Ry
     xc contribution           =    -266.50292354 Ry
     ewald contribution        =    4061.18004362 Ry
     electric field correction =       0.00000000 Ry
     smearing contrib. (-TS)   =      -0.02016045 Ry

     convergence has been achieved in  15 iterations

 BEEF-vdW xc energy contributions
           1 :   -234.536602744895
           2 :    211.711103770642
           3 :   -173.470096551160
           4 :    130.864596053045
           5 :   -93.5302381368577
           6 :    66.1733327483693
           7 :   -48.1540446989805
           8 :    35.7561588569235
           9 :   -25.3166087517827
          10 :    15.2736947365172
          11 :   -6.27598482008969
          12 :  -0.155330879388771
          13 :    3.17791439601680
          14 :   -3.35881169170207
          15 :    2.31208914758545
          16 :   -1.70274784713339
          17 :    2.34564213181997
          18 :   -3.92317222015470
[...]
00028 suncat0054 pw.x -in pw.inp   Done                     12/18/2018 17:00:22
00029 suncat0054 pw.x -in pw.inp   Done                     12/18/2018 17:00:22
00030 suncat0054 pw.x -in pw.inp   Done                     12/18/2018 17:00:22
00031 suncat0054 pw.x -in pw.inp   Done                     12/18/2018 17:00:22

     Program PWSCF v.5.1rc2 (svn rev. 11289) starts on 18Dec2018 at 17: 0:28

[...]

   This run was terminated on:  17:11: 6  18Dec2018

[...]

   This run was terminated on:  17:21:48  18Dec2018

[...]

     Total force =     0.024579     Total SCF correction =     0.003315
     SCF correction compared to forces is large: reduce conv_thr to get better values

[...]

     Program PWSCF v.5.1rc2 (svn rev. 11289) starts on 18Dec2018 at 17:32:36

     Current dimensions of program PWSCF are:
     Max number of different atomic species (ntypx) = 10
     Max number of k-points (npk) =  40000
     Max angular momentum in pseudopotentials (lmaxx) =  3
     Presently stress not available with electric field

     IMPORTANT: XC functional enforced from input :
     Exchange-correlation      = BEEF-VDW ( 1  4 27 13 2)
     Any further DFT definition will be discarded
     Please, verify this is what you really want

     Subspace diagonalization in iterative solution of the eigenvalue problem:
     a serial algorithm will be used

     Found symmetry operation: I + ( -0.5000 -0.5000  0.0000)
     This is a supercell, fractional translations are disabled

     bravais-lattice index     =            0
     lattice parameter (alat)  =       1.8897  a.u.
     unit-cell volume          =    4109.8795 (a.u.)^3
     number of atoms/cell      =           12
     number of atomic types    =            2
     number of electrons       =       132.00
     number of Kohn-Sham states=           96
     kinetic-energy cutoff     =      36.7493  Ry
     charge density cutoff     =     367.4932  Ry
     convergence threshold     =      1.0E-06
     mixing beta               =       0.1000
     number of iterations used =           10  plain     mixing
     Exchange-correlation      = BEEF-VDW ( 1  4 27 13 2)
     nstep                     =           50

     celldm(1)=   1.889726  celldm(2)=   0.000000  celldm(3)=   0.000000
     celldm(4)=   0.000000  celldm(5)=   0.000000  celldm(6)=   0.000000

     crystal axes: (cart. coord. in units of alat)
               a(1) = (   5.263595   0.000000   0.000000 )
               a(2) = (   2.267492   4.750149   0.000000 )
               a(3) = (   0.000000   0.000000  24.358065 )

     reciprocal axes: (cart. coord. in units 2 pi/alat)
               b(1) = (  0.189984 -0.090689  0.000000 )
               b(2) = (  0.000000  0.210520  0.000000 )
               b(3) = (  0.000000  0.000000  0.041054 )

     PseudoPot. # 1 for Al read from file:
     /afs/slac.stanford.edu/u/if/mamunm/psp/gbrv1.5pbe/Al.UPF
     MD5 check sum: 0a6289f5291fc8f409219462bc851e1f
     Pseudo is Ultrasoft + core correction, Zval =  3.0
     Generated by new atomic code, or converted to UPF format
     Using radial grid of  893 points,  3 beta functions with:
                l(1) =   0
                l(2) =   1
                l(3) =   2
     Q(r) pseudized with  8 coefficients,  rinner =    0.900   0.900   0.900
                                                       0.900   0.900

     PseudoPot. # 2 for Cu read from file:
     /afs/slac.stanford.edu/u/if/mamunm/psp/gbrv1.5pbe/Cu.UPF
     MD5 check sum: 6e991ff952a84172a2a52a1c1e996048
     Pseudo is Ultrasoft + core correction, Zval = 19.0
     Generated by new atomic code, or converted to UPF format
     Using radial grid of  867 points,  6 beta functions with:
                l(1) =   0
                l(2) =   0
                l(3) =   1
                l(4) =   1
                l(5) =   2
                l(6) =   2
     Q(r) pseudized with  8 coefficients,  rinner =    1.150   1.150   1.150
                                                       1.150   1.150

     vdW kernel table read from file vdW_kernel_table
     MD5 check sum: 095c7af220d748ca6e76c0b4c6cfb241

     atomic species   valence    mass     pseudopotential
        Al1            3.00    26.98154     Al( 1.00)
        Cu1           19.00    63.54600     Cu( 1.00)

     No symmetry found

   Cartesian axes

     site n.     atom                  positions (alat units)
         1           Al1 tau(   1) = (   0.0000000   0.0000000  10.0000000  )
         2           Al1 tau(   2) = (   3.7655436   2.3750745  10.0000000  )
         3           Cu1 tau(   3) = (   2.6317976   0.0000000  10.0000000  )
         4           Cu1 tau(   4) = (   1.1337460   2.3750745  10.0000000  )
         5           Al1 tau(   5) = (   5.2635952   3.3199538  12.1790323  )
         6           Al1 tau(   6) = (   1.4980516   0.9448793  12.1790323  )
         7           Cu1 tau(   7) = (   2.6317976   3.3199538  12.1790323  )
         8           Cu1 tau(   8) = (   4.1298493   0.9448793  12.1790323  )
         9           Al1 tau(   9) = (   3.0122877   1.8999568  14.4754926  )
        10           Al1 tau(  10) = (   6.7778362   4.2750472  14.4754912  )
        11           Cu1 tau(  11) = (   5.6335396   1.8933228  14.3756835  )
        12           Cu1 tau(  12) = (   4.1354777   4.2683657  14.3756870  )

     number of k points=    20  Fermi-Dirac smearing, width (Ry)=  0.0110
                       cart. coord. in units 2pi/alat
        k(    1) = (   0.0000000   0.0000000   0.0000000), wk =   0.0555556
        k(    2) = (   0.0000000   0.0350866   0.0000000), wk =   0.1111111
        k(    3) = (   0.0000000   0.0701732   0.0000000), wk =   0.1111111
        k(    4) = (   0.0000000  -0.1052599   0.0000000), wk =   0.0555556
        k(    5) = (   0.0316640  -0.0151149   0.0000000), wk =   0.1111111
        k(    6) = (   0.0316640   0.0199717   0.0000000), wk =   0.1111111
        k(    7) = (   0.0316640   0.0550584   0.0000000), wk =   0.1111111
        k(    8) = (   0.0316640  -0.1203747   0.0000000), wk =   0.1111111
        k(    9) = (   0.0316640  -0.0852881   0.0000000), wk =   0.1111111
        k(   10) = (   0.0316640  -0.0502015   0.0000000), wk =   0.1111111
        k(   11) = (   0.0633281  -0.0302298   0.0000000), wk =   0.1111111
        k(   12) = (   0.0633281   0.0048569   0.0000000), wk =   0.1111111
        k(   13) = (   0.0633281   0.0399435   0.0000000), wk =   0.1111111
        k(   14) = (   0.0633281  -0.1354896   0.0000000), wk =   0.1111111
        k(   15) = (   0.0633281  -0.1004030   0.0000000), wk =   0.1111111
        k(   16) = (   0.0633281  -0.0653164   0.0000000), wk =   0.1111111
        k(   17) = (  -0.0949921   0.0453446   0.0000000), wk =   0.0555556
        k(   18) = (  -0.0949921   0.0804313   0.0000000), wk =   0.1111111
        k(   19) = (  -0.0949921   0.1155179   0.0000000), wk =   0.1111111
        k(   20) = (  -0.0949921  -0.0599152   0.0000000), wk =   0.0555556

     Largest allocated arrays     est. size (Mb)     dimensions
     Largest temporary arrays     est. size (Mb)     dimensions

     Initial potential from superposition of free atoms
     Check: negative starting charge=   -0.000144

     starting charge  125.98520, renormalised to  132.00000

[...]

     *
     * You are using vdW-DF for exchange-correlation in this calculation.
     * Please cite the following three references that made this development
     * possible:
     *
     *   M. Dion, H. Rydberg, E. Schroder, D. C. Langreth, and
     *   B. I. Lundqvist, Phys. Rev. Lett. 92, 246401 (2004).
     *
     *   T. Thonhauser, V. R. Cooper, S. Li, A. Puzder, P. Hyldgaard, and
     *   D. C. Langreth, Phys. Rev. B 76, 125112 (2007).
     *
     *   G. Roman-Perez and J. M. Soler, Phys. Rev. Lett. 103, 096102 (2009).
     *
     *
     * If you are using vdW-DF2, please also cite:
     *
     *   K. Lee, E. D. Murray, L. Kong, B. I. Lundqvist, and
     *   D. C. Langreth, Phys. Rev. B 82, 081101(R) (2010).
     *
     *
     * If you are calculating the stress with vdW-DF, please also cite:
     *
     *   R. Sabatini, E. Kucukbenli, B. Kolb, T. Thonhauser, and
     *   S. de Gironcoli, J. Phys.: Condens. Matter 24, 424209 (2012).
     *

     Carrying out vdW-DF run using the following parameters:

     Nqs =      20    Nr_points =    1024   r_max =   100.000
     q_mesh =
               0.00001000     0.04494208     0.09755937     0.15916263
               0.23128650     0.31572767     0.41458969     0.53033537
               0.66584808     0.82450364     1.01025438     1.22772762
               1.48234092     1.78043706     2.12944203     2.53805004
               3.01644009     3.57652955     4.23227104     5.00000000

     Gradients computed in reciprocal space

[...]

     Starting wfc are  102 randomized atomic wfcs

     Self-consistent Calculation

[...]

     total energy              =   -2470.97594328 Ry
     Harris-Foulkes estimate   =   -2470.97594066 Ry
     estimated scf accuracy    <       0.00000181 Ry

     iteration # 16     ecut=    36.75 Ry     beta=0.10
     Davidson diagonalization with overlap
     ethr =  1.37E-09,  avg # of iterations =  2.0

[...]

     negative rho (up, down):  8.448E-04 0.000E+00

     Adding external electric field

     Computed dipole along edir(3) :
        Dipole                0.0185 Ry au,          0.0469 Debye
        Dipole field          0.0001 Ry au

        Potential amp.       -0.0051 Ry
        Total length         44.8793 bohr

     End of self-consistent calculation

[...]

          k = 0.0633-0.0653 0.0000 ( 15472 PWs)   bands (ev):

[...]

          k =-0.0950-0.0599 0.0000 ( 15438 PWs)   bands (ev):

  -113.7425-113.7414-113.3328-113.3317-113.3283-113.3272 -71.1749 -71.1734
   -71.1138 -71.0982 -71.0968 -71.0963 -70.7919 -70.7905 -70.7875 -70.7860
   -70.7258 -70.7218 -70.7083 -70.7044 -70.6506 -70.6492 -70.6472 -70.6457
    -8.6399  -8.4093  -6.7912  -6.4512  -6.1250  -5.9840  -5.2667  -4.9415
    -4.7651  -4.6848  -4.6557  -4.4717  -4.2469  -4.1859  -4.1186  -4.0527
    -4.0105  -3.9260  -3.7650  -3.7280  -3.6243  -3.6225  -3.5640  -3.5572
    -3.5105  -3.3898  -3.3760  -3.2659  -3.2201  -3.2037  -3.1849  -3.1770
    -3.0391  -3.0000  -2.8806  -2.6131  -2.2127  -2.1495  -2.0375  -1.8176
    -0.4241  -0.0799  -0.0447   0.3596   2.0855   2.5740   2.5843   2.6352
     3.1979   3.2443   3.3377   3.7438   4.2815   4.3586   4.6763   4.8373
     4.9345   5.2349   5.5169   5.7939   5.8417   6.3158   6.4213   6.5071
     6.7182   6.7622   6.8372   7.0140   7.1842   7.3775   7.6348   7.7422

     the Fermi energy is    -0.2111 ev

!    total energy              =   -2470.97595593 Ry
     Harris-Foulkes estimate   =   -2470.97594375 Ry
     estimated scf accuracy    <       0.00000043 Ry

     The total energy is the sum of the following terms:

     one-electron contribution =  -12494.09441089 Ry
     hartree contribution      =    6251.94853270 Ry
     xc contribution           =    -266.43939117 Ry
     ewald contribution        =    4037.62902821 Ry
     electric field correction =       0.00000104 Ry
     smearing contrib. (-TS)   =      -0.01971583 Ry

     convergence has been achieved in  16 iterations

 BEEF-vdW xc energy contributions
           1 :   -234.473104801961
           2 :    211.622649177283
           3 :   -173.352565311645
           4 :    130.737394621707
           5 :   -93.4187342519877
           6 :    66.0866528523223
           7 :   -48.0771830019932
           8 :    35.6623223348429
           9 :   -25.1882333721330
          10 :    15.1149701489145
          11 :   -6.10871688144528
          12 :  -0.307170334386257
          13 :    3.30309997417044
          14 :   -3.46465012696302
          15 :    2.41974374543645
          16 :   -1.83550256769257
          17 :    2.51488685803565
          18 :   -4.11879445445467
          19 :    5.58830526528817
          20 :   -5.94267220697634
          21 :    4.94718156137179
          22 :   -3.25275697187925
          23 :    1.93883664868349
          24 :   -1.77449754943336
          25 :    2.70150430504225
          26 :   -3.89870376810899
          27 :    4.38053166982854
          28 :   -3.70220116570903
          29 :    2.26433556912150
          30 :   -1.00281472884438
          31 :   -20.1653108876622
          32 :   -13.9464308516096

     Forces acting on atoms (Ry/au):

     negative rho (up, down):  8.448E-04 0.000E+00
     atom    1 type  1   force =    -0.00399133   -0.00251732   -0.01298266
     atom    2 type  1   force =    -0.00399131   -0.00251730   -0.01298262
     atom    3 type  2   force =     0.00250414    0.00158052   -0.00171423
     atom    4 type  2   force =     0.00250435    0.00157914   -0.00171547
     atom    5 type  1   force =     0.00240696    0.00151846    0.00577171
     atom    6 type  1   force =     0.00240694    0.00151787    0.00577254
     atom    7 type  2   force =    -0.00116607   -0.00073588    0.00793338
     atom    8 type  2   force =    -0.00116556   -0.00073513    0.00793351
     atom    9 type  1   force =     0.00060518    0.00038264   -0.00013140
     atom   10 type  1   force =     0.00060528    0.00038126   -0.00013145
     atom   11 type  2   force =    -0.00035952   -0.00022846    0.00112278
     atom   12 type  2   force =    -0.00035905   -0.00022581    0.00112391

     Total force =     0.024930     Total SCF correction =     0.001841

     entering subroutine stress ...

     negative rho (up, down):  8.448E-04 0.000E+00
          total   stress  (Ry/bohr**3)                   (kbar)     P=  -25.69
  -0.00025339  -0.00000787   0.00000508        -37.28     -1.16      0.75
  -0.00000787  -0.00024588   0.00000321         -1.16    -36.17      0.47
   0.00000508   0.00000321  -0.00002468          0.75      0.47     -3.63

 !ASE

     Writing output data file calc.save

     General routines

     Parallel routines

   This run was terminated on:  17:43:51  18Dec2018

   JOB DONE.
Job  /afs/slac/g/suncat/bin/suncat-tsmpirun -x LD_LIBRARY_PATH -wdir /scratch/qe529579_fURMV pw.x -in pw.inp

TID   HOST_NAME   COMMAND_LINE            STATUS            TERMINATION_TIME
00000 suncat0057 pw.x -in pw.inp   Done                     12/18/2018 17:43:51
00001 suncat0057 pw.x -in pw.inp   Done                     12/18/2018 17:43:51
00002 suncat0057 pw.x -in pw.inp   Done                     12/18/2018 17:43:51
00003 suncat0057 pw.x -in pw.inp   Done                     12/18/2018 17:43:51
00004 suncat0057 pw.x -in pw.inp   Done                     12/18/2018 17:43:51
00005 suncat0057 pw.x -in pw.inp   Done                     12/18/2018 17:43:51
00006 suncat0057 pw.x -in pw.inp   Done                     12/18/2018 17:43:51
00007 suncat0057 pw.x -in pw.inp   Done                     12/18/2018 17:43:51
00008 suncat0056 pw.x -in pw.inp   Done                     12/18/2018 17:43:51
00009 suncat0056 pw.x -in pw.inp   Done                     12/18/2018 17:43:51
00010 suncat0056 pw.x -in pw.inp   Done                     12/18/2018 17:43:51
00011 suncat0056 pw.x -in pw.inp   Done                     12/18/2018 17:43:51
00012 suncat0056 pw.x -in pw.inp   Done                     12/18/2018 17:43:51
00013 suncat0056 pw.x -in pw.inp   Done                     12/18/2018 17:43:51
00014 suncat0056 pw.x -in pw.inp   Done                     12/18/2018 17:43:51
00015 suncat0056 pw.x -in pw.inp   Done                     12/18/2018 17:43:51
00016 suncat0055 pw.x -in pw.inp   Done                     12/18/2018 17:43:51
00017 suncat0055 pw.x -in pw.inp   Done                     12/18/2018 17:43:51
00018 suncat0055 pw.x -in pw.inp   Done                     12/18/2018 17:43:51
00019 suncat0055 pw.x -in pw.inp   Done                     12/18/2018 17:43:51
00020 suncat0055 pw.x -in pw.inp   Done                     12/18/2018 17:43:51
00021 suncat0055 pw.x -in pw.inp   Done                     12/18/2018 17:43:51
00022 suncat0055 pw.x -in pw.inp   Done                     12/18/2018 17:43:51
00023 suncat0055 pw.x -in pw.inp   Done                     12/18/2018 17:43:51
00024 suncat0054 pw.x -in pw.inp   Done                     12/18/2018 17:43:51
00025 suncat0054 pw.x -in pw.inp   Done                     12/18/2018 17:43:51
00026 suncat0054 pw.x -in pw.inp   Done                     12/18/2018 17:43:51
00027 suncat0054 pw.x -in pw.inp   Done                     12/18/2018 17:43:51
00028 suncat0054 pw.x -in pw.inp   Done                     12/18/2018 17:43:51
00029 suncat0054 pw.x -in pw.inp   Done                     12/18/2018 17:43:51
00030 suncat0054 pw.x -in pw.inp   Done                     12/18/2018 17:43:51
00031 suncat0054 pw.x -in pw.inp   Done                     12/18/2018 17:43:51