     Program PWSCF v.5.1rc2 (svn rev. 11289) starts on 24Dec2018 at 23:18:34

     Current dimensions of program PWSCF are:
     Max number of different atomic species (ntypx) = 10
     Max number of k-points (npk) =  40000
     Max angular momentum in pseudopotentials (lmaxx) =  3
     Presently stress not available with electric field

     IMPORTANT: XC functional enforced from input :
     Exchange-correlation      = BEEF-VDW ( 1  4 27 13 2)
     Any further DFT definition will be discarded
     Please, verify this is what you really want

     Subspace diagonalization in iterative solution of the eigenvalue problem:
     a serial algorithm will be used

     Found symmetry operation: I + ( -0.5000 -0.5000  0.0000)
     This is a supercell, fractional translations are disabled

     bravais-lattice index     =            0
     lattice parameter (alat)  =       1.8897  a.u.
     unit-cell volume          =    5457.0004 (a.u.)^3
     number of atoms/cell      =           12
     number of atomic types    =            2
     number of electrons       =       174.00
     number of Kohn-Sham states=          117
     kinetic-energy cutoff     =      36.7493  Ry
     charge density cutoff     =     367.4932  Ry
     convergence threshold     =      1.0E-06
     mixing beta               =       0.1000
     number of iterations used =           10  plain     mixing
     Exchange-correlation      = BEEF-VDW ( 1  4 27 13 2)
     nstep                     =           50

     celldm(1)=   1.889726  celldm(2)=   0.000000  celldm(3)=   0.000000
     celldm(4)=   0.000000  celldm(5)=   0.000000  celldm(6)=   0.000000

     crystal axes: (cart. coord. in units of alat)
               a(1) = (   5.954750   0.000000   0.000000 )
               a(2) = (   2.406690   5.446732   0.000000 )
               a(3) = (   0.000000   0.000000  24.932042 )

     reciprocal axes: (cart. coord. in units 2 pi/alat)
               b(1) = (  0.167933 -0.074203  0.000000 )
               b(2) = (  0.000000  0.183596  0.000000 )
               b(3) = (  0.000000  0.000000  0.040109 )

     PseudoPot. # 1 for Ir read from file:
     /afs/slac.stanford.edu/u/if/mamunm/psp/gbrv1.5pbe/Ir.UPF
     MD5 check sum: 8836f839c3459d2b385c504ce6d91f2c
     Pseudo is Ultrasoft + core correction, Zval = 15.0
     Generated by new atomic code, or converted to UPF format
     Using radial grid of  983 points,  7 beta functions with:
                l(1) =   0
                l(2) =   0
                l(3) =   1
                l(4) =   1
                l(5) =   1
                l(6) =   2
                l(7) =   2
     Q(r) pseudized with  8 coefficients,  rinner =    1.400   1.400   1.400
                                                       1.400   1.400

     PseudoPot. # 2 for Pb read from file:
     /afs/slac.stanford.edu/u/if/mamunm/psp/gbrv1.5pbe/Pb.UPF
     MD5 check sum: 3d1c1779aa92214d1e8f3a7db79003e2
     Pseudo is Ultrasoft + core correction, Zval = 14.0
     Generated by new atomic code, or converted to UPF format
     Using radial grid of  899 points,  6 beta functions with:
                l(1) =   0
                l(2) =   0
                l(3) =   1
                l(4) =   1
                l(5) =   2
                l(6) =   2
     Q(r) pseudized with  6 coefficients,  rinner =    1.000   1.000   1.000
                                                       1.000   1.000

     vdW kernel table read from file vdW_kernel_table
     MD5 check sum: 095c7af220d748ca6e76c0b4c6cfb241

     atomic species   valence    mass     pseudopotential
        Ir1           15.00   192.21700     Ir( 1.00)
        Pb1           14.00   207.20000     Pb( 1.00)

     No symmetry found

   Cartesian axes

     site n.     atom                  positions (alat units)
         1           Ir1 tau(   1) = (   0.0000000   0.0000000  10.0000000  )
         2           Ir1 tau(   2) = (   4.1807201   2.7233660  10.0000000  )
         3           Pb1 tau(   3) = (   2.9773750   0.0000000  10.0000000  )
         4           Pb1 tau(   4) = (   1.2033451   2.7233660  10.0000000  )
         5           Ir1 tau(   5) = (   5.9547499   3.8789881  12.4660210  )
         6           Ir1 tau(   6) = (   1.7740298   1.1556221  12.4660210  )
         7           Pb1 tau(   7) = (   2.9773750   3.8789881  12.4660210  )
         8           Pb1 tau(   8) = (   4.7514048   1.1556221  12.4660210  )
         9           Ir1 tau(   9) = (   3.5480597   2.3112442  14.9320421  )
        10           Ir1 tau(  10) = (   7.7287798   5.0346102  14.9320421  )
        11           Pb1 tau(  11) = (   6.5254347   2.3112442  14.9320421  )
        12           Pb1 tau(  12) = (   4.7514048   5.0346102  14.9320421  )

     number of k points=    20  Fermi-Dirac smearing, width (Ry)=  0.0110
                       cart. coord. in units 2pi/alat
        k(    1) = (   0.0000000   0.0000000   0.0000000), wk =   0.0555556
        k(    2) = (   0.0000000   0.0305994   0.0000000), wk =   0.1111111
        k(    3) = (   0.0000000   0.0611988   0.0000000), wk =   0.1111111
        k(    4) = (   0.0000000  -0.0917982   0.0000000), wk =   0.0555556
        k(    5) = (   0.0279889  -0.0123671   0.0000000), wk =   0.1111111
        k(    6) = (   0.0279889   0.0182322   0.0000000), wk =   0.1111111
        k(    7) = (   0.0279889   0.0488316   0.0000000), wk =   0.1111111
        k(    8) = (   0.0279889  -0.1041653   0.0000000), wk =   0.1111111
        k(    9) = (   0.0279889  -0.0735659   0.0000000), wk =   0.1111111
        k(   10) = (   0.0279889  -0.0429665   0.0000000), wk =   0.1111111
        k(   11) = (   0.0559777  -0.0247343   0.0000000), wk =   0.1111111
        k(   12) = (   0.0559777   0.0058651   0.0000000), wk =   0.1111111
        k(   13) = (   0.0559777   0.0364645   0.0000000), wk =   0.1111111
        k(   14) = (   0.0559777  -0.1165325   0.0000000), wk =   0.1111111
        k(   15) = (   0.0559777  -0.0859331   0.0000000), wk =   0.1111111
        k(   16) = (   0.0559777  -0.0553337   0.0000000), wk =   0.1111111
        k(   17) = (  -0.0839666   0.0371014   0.0000000), wk =   0.0555556
        k(   18) = (  -0.0839666   0.0677008   0.0000000), wk =   0.1111111
        k(   19) = (  -0.0839666   0.0983002   0.0000000), wk =   0.1111111
        k(   20) = (  -0.0839666  -0.0546967   0.0000000), wk =   0.0555556

     Largest allocated arrays     est. size (Mb)     dimensions
     Largest temporary arrays     est. size (Mb)     dimensions

     Initial potential from superposition of free atoms
     Check: negative starting charge=   -2.274452

     starting charge  170.98570, renormalised to  174.00000

     negative rho (up, down):  2.315E+00 0.000E+00

     *
     * You are using vdW-DF for exchange-correlation in this calculation.
     * Please cite the following three references that made this development
     * possible:
     *
     *   M. Dion, H. Rydberg, E. Schroder, D. C. Langreth, and
     *   B. I. Lundqvist, Phys. Rev. Lett. 92, 246401 (2004).
     *
     *   T. Thonhauser, V. R. Cooper, S. Li, A. Puzder, P. Hyldgaard, and
     *   D. C. Langreth, Phys. Rev. B 76, 125112 (2007).
     *
     *   G. Roman-Perez and J. M. Soler, Phys. Rev. Lett. 103, 096102 (2009).
     *
     *
     * If you are using vdW-DF2, please also cite:
     *
     *   K. Lee, E. D. Murray, L. Kong, B. I. Lundqvist, and
     *   D. C. Langreth, Phys. Rev. B 82, 081101(R) (2010).
     *
     *
     * If you are calculating the stress with vdW-DF, please also cite:
     *
     *   R. Sabatini, E. Kucukbenli, B. Kolb, T. Thonhauser, and
     *   S. de Gironcoli, J. Phys.: Condens. Matter 24, 424209 (2012).
     *

     Carrying out vdW-DF run using the following parameters:

     Nqs =      20    Nr_points =    1024   r_max =   100.000
     q_mesh =
               0.00001000     0.04494208     0.09755937     0.15916263
               0.23128650     0.31572767     0.41458969     0.53033537
               0.66584808     0.82450364     1.01025438     1.22772762
               1.48234092     1.78043706     2.12944203     2.53805004
               3.01644009     3.57652955     4.23227104     5.00000000

     Gradients computed in reciprocal space

     Adding external electric field

     Computed dipole along edir(3) :
        Dipole               -0.0000 Ry au,         -0.0000 Debye
        Dipole field         -0.0000 Ry au

        Potential amp.        0.0000 Ry
        Total length         45.9369 bohr

     Starting wfc are  126 randomized atomic wfcs

     Self-consistent Calculation

     iteration #  1     ecut=    36.75 Ry     beta=0.10
     Davidson diagonalization with overlap
     ethr =  1.00E-02,  avg # of iterations =  7.9

[...]

     total energy              =   -2095.84843459 Ry
     Harris-Foulkes estimate   =   -2096.35530972 Ry
     estimated scf accuracy    <       3.34987448 Ry

[...]

     End of self-consistent calculation

          k = 0.0000 0.0000 0.0000 ( 20483 PWs)   bands (ev):

   -46.9285 -46.8731 -46.8547 -46.8500 -46.7980 -46.7932 -46.6344 -46.6342
   -46.6218 -46.6208 -46.6173 -46.6163 -46.5799 -46.5799 -46.4102 -46.4094
   -46.4053 -46.4049 -15.8601 -15.7492 -15.7307 -15.7241 -15.6407 -15.6254
   -15.6253 -15.6012 -15.5944 -15.5719 -15.5658 -15.5421 -15.5360 -15.5115
   -15.4605 -15.4489 -15.4340 -15.4328 -15.4196 -15.4179 -15.4168 -15.4047
   -15.3985 -15.3917 -15.3707 -15.3623 -15.2985 -15.2721 -15.2611 -15.2153
    -9.8019  -8.3919  -7.1816  -6.7204  -6.0513  -5.7574  -2.4325  -2.4193
    -2.1467  -1.9352  -1.4120  -1.3757  -1.3567  -1.2345  -1.0257  -0.9610
    -0.9038  -0.6295  -0.4668  -0.2769   0.0177   0.1901   0.2314   0.2603
     0.3218   0.3503   0.4265   0.4285   0.4939   0.6207   0.6597   0.6891
     0.7428   0.8103   0.8259   0.8563   0.9487   1.1302   1.2991   1.3580
     1.3930   1.7309   1.9616   2.0544   2.0927   2.5278   2.6653   3.3593
     3.5302   3.5843   4.1982   4.5415   4.7434   5.4899   5.5939   5.8846
     6.0065   6.0921   6.5047   6.7614   6.8762   7.8122   7.9880   8.2335
     8.2490   8.3658   8.9581   9.2523   9.3404

[...]

          k =-0.0840 0.0371 0.0000 ( 20542 PWs)   bands (ev):

[...]

     the Fermi energy is     1.6149 ev

!    total energy              =   -2095.62007113 Ry
     Harris-Foulkes estimate   =   -2095.62006530 Ry
     estimated scf accuracy    <       0.00000068 Ry

     The total energy is the sum of the following terms:

     one-electron contribution =  -13406.97540049 Ry
     hartree contribution      =    6756.45069075 Ry
     xc contribution           =    -704.19389700 Ry
     ewald contribution        =    5259.15634065 Ry
     electric field correction =       0.00000000 Ry
     smearing contrib. (-TS)   =      -0.05780504 Ry

     convergence has been achieved in  16 iterations

 BEEF-vdW xc energy contributions
           1 :   -626.036197698846
           2 :    581.882292514071
           3 :   -503.584789702893
           4 :    407.524325477684
           5 :   -311.101252396109
           6 :    227.799262950192
           7 :   -164.258981768999
           8 :    120.070538657624
           9 :   -89.9655536537778
[...]
     /afs/slac.stanford.edu/u/if/mamunm/psp/gbrv1.5pbe/Ir.UPF
     MD5 check sum: 8836f839c3459d2b385c504ce6d91f2c
     Pseudo is Ultrasoft + core correction, Zval = 15.0
     Generated by new atomic code, or converted to UPF format
     Using radial grid of  983 points,  7 beta functions with:
                l(1) =   0
                l(2) =   0
                l(3) =   1
                l(4) =   1
                l(5) =   1
                l(6) =   2
                l(7) =   2
     Q(r) pseudized with  8 coefficients,  rinner =    1.400   1.400   1.400
                                                       1.400   1.400

     PseudoPot. # 2 for Pb read from file:
     /afs/slac.stanford.edu/u/if/mamunm/psp/gbrv1.5pbe/Pb.UPF
     MD5 check sum: 3d1c1779aa92214d1e8f3a7db79003e2
     Pseudo is Ultrasoft + core correction, Zval = 14.0
     Generated by new atomic code, or converted to UPF format
     Using radial grid of  899 points,  6 beta functions with:
                l(1) =   0
                l(2) =   0
                l(3) =   1
                l(4) =   1
                l(5) =   2
                l(6) =   2
     Q(r) pseudized with  6 coefficients,  rinner =    1.000   1.000   1.000
                                                       1.000   1.000

     vdW kernel table read from file vdW_kernel_table
     MD5 check sum: 095c7af220d748ca6e76c0b4c6cfb241

     atomic species   valence    mass     pseudopotential
        Ir1           15.00   192.21700     Ir( 1.00)
        Pb1           14.00   207.20000     Pb( 1.00)

     No symmetry found

   Cartesian axes

     site n.     atom                  positions (alat units)
         1           Ir1 tau(   1) = (   0.0000000   0.0000000  10.0000000  )
         2           Ir1 tau(   2) = (   4.1807201   2.7233660  10.0000000  )
         3           Pb1 tau(   3) = (   2.9773750   0.0000000  10.0000000  )
         4           Pb1 tau(   4) = (   1.2033451   2.7233660  10.0000000  )
         5           Ir1 tau(   5) = (   5.9547499   3.8789881  12.4660210  )
         6           Ir1 tau(   6) = (   1.7740298   1.1556221  12.4660210  )
         7           Pb1 tau(   7) = (   2.9773750   3.8789881  12.4660210  )
         8           Pb1 tau(   8) = (   4.7514048   1.1556221  12.4660210  )
         9           Ir1 tau(   9) = (   3.5112673   2.2872779  14.6515468  )
        10           Ir1 tau(  10) = (   7.6919771   5.0106438  14.6515430  )
        11           Pb1 tau(  11) = (   6.5842014   2.3494929  15.1683282  )
        12           Pb1 tau(  12) = (   4.8101665   5.0728377  15.1683747  )

     number of k points=    20  Fermi-Dirac smearing, width (Ry)=  0.0110
                       cart. coord. in units 2pi/alat
        k(    1) = (   0.0000000   0.0000000   0.0000000), wk =   0.0555556
        k(    2) = (   0.0000000   0.0305994   0.0000000), wk =   0.1111111
        k(    3) = (   0.0000000   0.0611988   0.0000000), wk =   0.1111111
        k(    4) = (   0.0000000  -0.0917982   0.0000000), wk =   0.0555556
        k(    5) = (   0.0279889  -0.0123671   0.0000000), wk =   0.1111111
        k(    6) = (   0.0279889   0.0182322   0.0000000), wk =   0.1111111
        k(    7) = (   0.0279889   0.0488316   0.0000000), wk =   0.1111111
        k(    8) = (   0.0279889  -0.1041653   0.0000000), wk =   0.1111111
        k(    9) = (   0.0279889  -0.0735659   0.0000000), wk =   0.1111111
        k(   10) = (   0.0279889  -0.0429665   0.0000000), wk =   0.1111111
        k(   11) = (   0.0559777  -0.0247343   0.0000000), wk =   0.1111111
        k(   12) = (   0.0559777   0.0058651   0.0000000), wk =   0.1111111
        k(   13) = (   0.0559777   0.0364645   0.0000000), wk =   0.1111111
        k(   14) = (   0.0559777  -0.1165325   0.0000000), wk =   0.1111111
        k(   15) = (   0.0559777  -0.0859331   0.0000000), wk =   0.1111111
        k(   16) = (   0.0559777  -0.0553337   0.0000000), wk =   0.1111111
        k(   17) = (  -0.0839666   0.0371014   0.0000000), wk =   0.0555556
        k(   18) = (  -0.0839666   0.0677008   0.0000000), wk =   0.1111111
        k(   19) = (  -0.0839666   0.0983002   0.0000000), wk =   0.1111111
        k(   20) = (  -0.0839666  -0.0546967   0.0000000), wk =   0.0555556

     Largest allocated arrays     est. size (Mb)     dimensions
     Largest temporary arrays     est. size (Mb)     dimensions

     Initial potential from superposition of free atoms
     Check: negative starting charge=   -2.270259

     starting charge  170.98570, renormalised to  174.00000

[...]

     *
     * You are using vdW-DF for exchange-correlation in this calculation.
     * Please cite the following three references that made this development
     * possible:
     *
     *   M. Dion, H. Rydberg, E. Schroder, D. C. Langreth, and
     *   B. I. Lundqvist, Phys. Rev. Lett. 92, 246401 (2004).
     *
     *   T. Thonhauser, V. R. Cooper, S. Li, A. Puzder, P. Hyldgaard, and
     *   D. C. Langreth, Phys. Rev. B 76, 125112 (2007).
     *
     *   G. Roman-Perez and J. M. Soler, Phys. Rev. Lett. 103, 096102 (2009).
     *
     *
     * If you are using vdW-DF2, please also cite:
     *
     *   K. Lee, E. D. Murray, L. Kong, B. I. Lundqvist, and
     *   D. C. Langreth, Phys. Rev. B 82, 081101(R) (2010).
     *
     *
     * If you are calculating the stress with vdW-DF, please also cite:
     *
     *   R. Sabatini, E. Kucukbenli, B. Kolb, T. Thonhauser, and
     *   S. de Gironcoli, J. Phys.: Condens. Matter 24, 424209 (2012).
     *

     Carrying out vdW-DF run using the following parameters:

     Nqs =      20    Nr_points =    1024   r_max =   100.000
     q_mesh =
               0.00001000     0.04494208     0.09755937     0.15916263
               0.23128650     0.31572767     0.41458969     0.53033537
               0.66584808     0.82450364     1.01025438     1.22772762
               1.48234092     1.78043706     2.12944203     2.53805004
               3.01644009     3.57652955     4.23227104     5.00000000

     Gradients computed in reciprocal space

[...]

     Starting wfc are  126 randomized atomic wfcs

     Self-consistent Calculation

[...]

     total energy              =   -2095.66363304 Ry
     Harris-Foulkes estimate   =   -2095.66361287 Ry
     estimated scf accuracy    <       0.00000137 Ry

     iteration # 17     ecut=    36.75 Ry     beta=0.10
     Davidson diagonalization with overlap
     ethr =  7.89E-10,  avg # of iterations =  4.0

[...]

     negative rho (up, down):  2.116E+00 0.000E+00

     Adding external electric field

     Computed dipole along edir(3) :
        Dipole                0.1773 Ry au,          0.4506 Debye
        Dipole field          0.0004 Ry au

        Potential amp.       -0.0375 Ry
        Total length         45.9369 bohr

     End of self-consistent calculation

[...]

          k = 0.0560-0.0553 0.0000 ( 20534 PWs)   bands (ev):

[...]

          k =-0.0840-0.0547 0.0000 ( 20582 PWs)   bands (ev):

   -46.6434 -46.6327 -46.6276 -46.5885 -46.5695 -46.5499 -46.5395 -46.5344
   -46.5342 -46.5141 -46.4465 -46.4422 -46.4420 -46.4222 -46.4172 -46.3878
   -46.2291 -46.2244 -15.6521 -15.5881 -15.5215 -15.5058 -15.4525 -15.4313
   -15.4173 -15.3666 -15.3585 -15.3576 -15.3472 -15.3384 -15.3108 -15.3025
   -15.2776 -15.2745 -15.2702 -15.2689 -15.2544 -15.2421 -15.2048 -15.1911
   -15.1901 -15.1764 -15.1748 -15.1581 -15.1271 -15.1058 -15.0846 -15.0124
    -8.4141  -7.8464  -7.3106  -6.6754  -5.5944  -4.5733  -4.0995  -4.0297
    -3.4519  -2.5373  -2.4118  -2.3469  -2.3413  -1.5754  -1.4080  -1.1513
    -0.9955  -0.9320  -0.8419  -0.7564  -0.6320  -0.4832  -0.0028   0.0452
     0.1827   0.2586   0.3486   0.5388   0.6865   0.7793   0.9023   0.9082
     1.0021   1.0989   1.1368   1.1463   1.3046   1.7790   1.9056   2.4227
     2.5729   2.6009   3.1151   3.1880   3.6376   4.1208   5.0046   5.3722
     5.4098   5.7295   6.1450   6.1781   6.5321   6.5652   6.6600   6.9326
     6.9722   7.1890   7.2299   7.3332   7.6119   7.8426   7.9775   8.1940
     8.2152   8.2848   8.4175   8.4310   8.6010

     the Fermi energy is     1.8276 ev

!    total energy              =   -2095.66365046 Ry
     Harris-Foulkes estimate   =   -2095.66363197 Ry
     estimated scf accuracy    <       0.00000075 Ry

     The total energy is the sum of the following terms:

     one-electron contribution =  -13451.86567648 Ry
     hartree contribution      =    6779.93257803 Ry
     xc contribution           =    -704.22536409 Ry
     ewald contribution        =    5280.54698041 Ry
     electric field correction =       0.00007239 Ry
     smearing contrib. (-TS)   =      -0.05224072 Ry

     convergence has been achieved in  17 iterations

 BEEF-vdW xc energy contributions
           1 :   -626.072026184762
           2 :    581.937707458944
           3 :   -503.668022506233
           4 :    407.626420542711
           5 :   -311.196032548949
           6 :    227.850447122074
           7 :   -164.234583944653
           8 :    119.959534725343
           9 :   -89.7886623410591
          10 :    67.0110922703209
          11 :   -46.4935629958493
          12 :    26.2562826005820
          13 :   -7.24945385470949
          14 :   -8.15855673731198
          15 :    17.9984432145324
          16 :   -21.9096309987489
          17 :    21.2929563768690
          18 :   -18.5422131596594
          19 :    15.8989729009534
          20 :   -14.5688416126097
          21 :    14.4971902222212
          22 :   -14.8014161846206
          23 :    14.5150738621815
          24 :   -13.2013852802419
          25 :    11.1391267487126
          26 :   -9.06240596227497
          27 :    7.67444610730718
          28 :   -7.24536889045316
          29 :    7.51003317923301
          30 :   -7.88658445588214
          31 :   -51.5553816029668
          32 :   -38.1649224008476

     Forces acting on atoms (Ry/au):

     negative rho (up, down):  2.116E+00 0.000E+00
     atom    1 type  1   force =     0.00803128    0.00523215    0.04912533
     atom    2 type  1   force =     0.00803332    0.00523408    0.04912415
     atom    3 type  2   force =    -0.01367513   -0.00891970   -0.03108596
     atom    4 type  2   force =    -0.01369482   -0.00890925   -0.03108331
     atom    5 type  1   force =    -0.00762876   -0.00496923    0.00974392
     atom    6 type  1   force =    -0.00762762   -0.00496823    0.00974347
     atom    7 type  2   force =     0.01486920    0.00968960   -0.02826007
     atom    8 type  2   force =     0.01486173    0.00968298   -0.02826299
     atom    9 type  1   force =    -0.00092760   -0.00060648    0.00026758
     atom   10 type  1   force =    -0.00092678   -0.00060280    0.00026849
     atom   11 type  2   force =    -0.00065554   -0.00043174    0.00021655
     atom   12 type  2   force =    -0.00065929   -0.00043137    0.00020282

     Total force =     0.100314     Total SCF correction =     0.003190

     entering subroutine stress ...

     negative rho (up, down):  2.116E+00 0.000E+00
          total   stress  (Ry/bohr**3)                   (kbar)     P=  -17.81
  -0.00017292  -0.00003354   0.00000624        -25.44     -4.93      0.92
  -0.00003354  -0.00014329   0.00000407         -4.93    -21.08      0.60
   0.00000624   0.00000407  -0.00004696          0.92      0.60     -6.91

 !ASE

     Writing output data file calc.save

     General routines

     Parallel routines

   This run was terminated on:   1:25:38  25Dec2018

   JOB DONE.
Job  /afs/slac/g/suncat/bin/suncat-tsmpirun -x LD_LIBRARY_PATH -wdir /scratch/qe109043_JgfbC pw.x -in pw.inp

TID   HOST_NAME   COMMAND_LINE            STATUS            TERMINATION_TIME
00000 suncat0050 pw.x -in pw.inp   Done                     12/25/2018 01:25:38
00001 suncat0050 pw.x -in pw.inp   Done                     12/25/2018 01:25:38
00002 suncat0050 pw.x -in pw.inp   Done                     12/25/2018 01:25:38
00003 suncat0050 pw.x -in pw.inp   Done                     12/25/2018 01:25:38
00004 suncat0050 pw.x -in pw.inp   Done                     12/25/2018 01:25:38
00005 suncat0050 pw.x -in pw.inp   Done                     12/25/2018 01:25:38
00006 suncat0050 pw.x -in pw.inp   Done                     12/25/2018 01:25:38
00007 suncat0050 pw.x -in pw.inp   Done                     12/25/2018 01:25:38
00008 suncat0049 pw.x -in pw.inp   Done                     12/25/2018 01:25:38
00009 suncat0049 pw.x -in pw.inp   Done                     12/25/2018 01:25:38
00010 suncat0049 pw.x -in pw.inp   Done                     12/25/2018 01:25:38
00011 suncat0049 pw.x -in pw.inp   Done                     12/25/2018 01:25:38
00012 suncat0049 pw.x -in pw.inp   Done                     12/25/2018 01:25:38
00013 suncat0049 pw.x -in pw.inp   Done                     12/25/2018 01:25:38
00014 suncat0049 pw.x -in pw.inp   Done                     12/25/2018 01:25:38
00015 suncat0049 pw.x -in pw.inp   Done                     12/25/2018 01:25:38
00016 suncat0031 pw.x -in pw.inp   Done                     12/25/2018 01:25:38
00017 suncat0031 pw.x -in pw.inp   Done                     12/25/2018 01:25:38
00018 suncat0031 pw.x -in pw.inp   Done                     12/25/2018 01:25:38
00019 suncat0031 pw.x -in pw.inp   Done                     12/25/2018 01:25:38
00020 suncat0031 pw.x -in pw.inp   Done                     12/25/2018 01:25:38
00021 suncat0031 pw.x -in pw.inp   Done                     12/25/2018 01:25:38
00022 suncat0031 pw.x -in pw.inp   Done                     12/25/2018 01:25:38
00023 suncat0031 pw.x -in pw.inp   Done                     12/25/2018 01:25:38
00024 suncat0030 pw.x -in pw.inp   Done                     12/25/2018 01:25:38
00025 suncat0030 pw.x -in pw.inp   Done                     12/25/2018 01:25:38
00026 suncat0030 pw.x -in pw.inp   Done                     12/25/2018 01:25:38
00027 suncat0030 pw.x -in pw.inp   Done                     12/25/2018 01:25:38
00028 suncat0030 pw.x -in pw.inp   Done                     12/25/2018 01:25:38
00029 suncat0030 pw.x -in pw.inp   Done                     12/25/2018 01:25:38
00030 suncat0030 pw.x -in pw.inp   Done                     12/25/2018 01:25:38
00031 suncat0030 pw.x -in pw.inp   Done                     12/25/2018 01:25:38
00032 suncat0280 pw.x -in pw.inp   Done                     12/25/2018 01:25:38
00033 suncat0280 pw.x -in pw.inp   Done                     12/25/2018 01:25:38
00034 suncat0280 pw.x -in pw.inp   Done                     12/25/2018 01:25:38
00035 suncat0280 pw.x -in pw.inp   Done                     12/25/2018 01:25:38
00036 suncat0280 pw.x -in pw.inp   Done                     12/25/2018 01:25:38
00037 suncat0280 pw.x -in pw.inp   Done                     12/25/2018 01:25:38
00038 suncat0280 pw.x -in pw.inp   Done                     12/25/2018 01:25:38
00039 suncat0280 pw.x -in pw.inp   Done                     12/25/2018 01:25:38
00040 suncat0279 pw.x -in pw.inp   Done                     12/25/2018 01:25:38
00041 suncat0279 pw.x -in pw.inp   Done                     12/25/2018 01:25:38
00042 suncat0279 pw.x -in pw.inp   Done                     12/25/2018 01:25:38
00043 suncat0279 pw.x -in pw.inp   Done                     12/25/2018 01:25:38
00044 suncat0279 pw.x -in pw.inp   Done                     12/25/2018 01:25:38
00045 suncat0279 pw.x -in pw.inp   Done                     12/25/2018 01:25:38
00046 suncat0279 pw.x -in pw.inp   Done                     12/25/2018 01:25:38
00047 suncat0279 pw.x -in pw.inp   Done                     12/25/2018 01:25:38
00048 suncat0278 pw.x -in pw.inp   Done                     12/25/2018 01:25:38
00049 suncat0278 pw.x -in pw.inp   Done                     12/25/2018 01:25:38
00050 suncat0278 pw.x -in pw.inp   Done                     12/25/2018 01:25:38
00051 suncat0278 pw.x -in pw.inp   Done                     12/25/2018 01:25:38
00052 suncat0278 pw.x -in pw.inp   Done                     12/25/2018 01:25:38
00053 suncat0278 pw.x -in pw.inp   Done                     12/25/2018 01:25:38
00054 suncat0278 pw.x -in pw.inp   Done                     12/25/2018 01:25:38
00055 suncat0278 pw.x -in pw.inp   Done                     12/25/2018 01:25:38
00056 suncat0099 pw.x -in pw.inp   Done                     12/25/2018 01:25:38
00057 suncat0099 pw.x -in pw.inp   Done                     12/25/2018 01:25:38
00058 suncat0099 pw.x -in pw.inp   Done                     12/25/2018 01:25:38
00059 suncat0099 pw.x -in pw.inp   Done                     12/25/2018 01:25:38
00060 suncat0099 pw.x -in pw.inp   Done                     12/25/2018 01:25:38
00061 suncat0099 pw.x -in pw.inp   Done                     12/25/2018 01:25:38
00062 suncat0099 pw.x -in pw.inp   Done                     12/25/2018 01:25:38
00063 suncat0099 pw.x -in pw.inp   Done                     12/25/2018 01:25:38