     Program PWSCF v.5.1rc2 (svn rev. 11289) starts on 19Dec2018 at  8:36:15

     Current dimensions of program PWSCF are:
     Max number of different atomic species (ntypx) = 10
     Max number of k-points (npk) =  40000
     Max angular momentum in pseudopotentials (lmaxx) =  3
     Presently stress not available with electric field

     IMPORTANT: XC functional enforced from input :
     Exchange-correlation      = BEEF-VDW ( 1  4 27 13 2)
     Any further DFT definition will be discarded
     Please, verify this is what you really want

     Subspace diagonalization in iterative solution of the eigenvalue problem:
     a serial algorithm will be used

     Found symmetry operation: I + ( -0.5000 -0.5000  0.0000)
     This is a supercell, fractional translations are disabled

     bravais-lattice index     =            0
     lattice parameter (alat)  =       1.8897  a.u.
     unit-cell volume          =    5484.3731 (a.u.)^3
     number of atoms/cell      =           12
     number of atomic types    =            2
     number of electrons       =       144.00
     number of Kohn-Sham states=          102
     kinetic-energy cutoff     =      36.7493  Ry
     charge density cutoff     =     367.4932  Ry
     convergence threshold     =      1.0E-06
     mixing beta               =       0.1000
     number of iterations used =           10  plain     mixing
     Exchange-correlation      = BEEF-VDW ( 1  4 27 13 2)
     nstep                     =           50

     celldm(1)=   1.889726  celldm(2)=   0.000000  celldm(3)=   0.000000
     celldm(4)=   0.000000  celldm(5)=   0.000000  celldm(6)=   0.000000

     crystal axes: (cart. coord. in units of alat)
               a(1) = (   6.079439   0.000000   0.000000 )
               a(2) = (   2.892025   5.347501   0.000000 )
               a(3) = (   0.000000   0.000000  24.998622 )

     reciprocal axes: (cart. coord. in units 2 pi/alat)
               b(1) = (  0.164489 -0.088959  0.000000 )
               b(2) = (  0.000000  0.187003  0.000000 )
               b(3) = (  0.000000  0.000000  0.040002 )

     PseudoPot. # 1 for Ti read from file:
     /afs/slac.stanford.edu/u/if/mamunm/psp/gbrv1.5pbe/Ti.UPF
     MD5 check sum: 88a00a6731bd790ddea75d31a80cb452
     Pseudo is Ultrasoft + core correction, Zval = 12.0
     Generated by new atomic code, or converted to UPF format
     Using radial grid of  851 points,  6 beta functions with:
                l(1) =   0
                l(2) =   0
                l(3) =   1
                l(4) =   1
                l(5) =   2
                l(6) =   2
     Q(r) pseudized with  6 coefficients,  rinner =    1.000   1.000   1.000
                                                       1.000   1.000

     PseudoPot. # 2 for Zr read from file:
     /afs/slac.stanford.edu/u/if/mamunm/psp/gbrv1.5pbe/Zr.UPF
     MD5 check sum: 5db81b1e868ab7776c4564c113de050b
     Pseudo is Ultrasoft + core correction, Zval = 12.0
     Generated by new atomic code, or converted to UPF format
     Using radial grid of  887 points,  6 beta functions with:
                l(1) =   0
                l(2) =   0
                l(3) =   1
                l(4) =   1
                l(5) =   2
                l(6) =   2
     Q(r) pseudized with  6 coefficients,  rinner =    1.200   1.200   1.200
                                                       1.200   1.200

     vdW kernel table read from file vdW_kernel_table
     MD5 check sum: 095c7af220d748ca6e76c0b4c6cfb241

     atomic species   valence    mass     pseudopotential
        Ti1           12.00    47.86700     Ti( 1.00)
        Zr1           12.00    91.22400     Zr( 1.00)

     No symmetry found

   Cartesian axes

     site n.     atom                  positions (alat units)
         1           Ti1 tau(   1) = (   0.0000000   0.0000000  10.0000000  )
         2           Ti1 tau(   2) = (   4.4857318   2.6737503  10.0000000  )
         3           Zr1 tau(   3) = (   3.0397193   0.0000000  10.0000000  )
         4           Zr1 tau(   4) = (   1.4460126   2.6737503  10.0000000  )
         5           Ti1 tau(   5) = (   6.0794385   3.6236898  12.4993111  )
         6           Ti1 tau(   6) = (   1.5937067   0.9499395  12.4993111  )
         7           Zr1 tau(   7) = (   3.0397193   3.6236898  12.4993111  )
         8           Zr1 tau(   8) = (   4.6334259   0.9499395  12.4993111  )
         9           Ti1 tau(   9) = (   3.1874133   1.8998789  14.9986221  )
        10           Ti1 tau(  10) = (   7.6731452   4.5736293  14.9986221  )
        11           Zr1 tau(  11) = (   6.2271326   1.8998789  14.9986221  )
        12           Zr1 tau(  12) = (   4.6334259   4.5736293  14.9986221  )

     number of k points=    20  Fermi-Dirac smearing, width (Ry)=  0.0110
                       cart. coord. in units 2pi/alat
        k(    1) = (   0.0000000   0.0000000   0.0000000), wk =   0.0555556
        k(    2) = (   0.0000000   0.0311672   0.0000000), wk =   0.1111111
        k(    3) = (   0.0000000   0.0623344   0.0000000), wk =   0.1111111
        k(    4) = (   0.0000000  -0.0935016   0.0000000), wk =   0.0555556
        k(    5) = (   0.0274148  -0.0148264   0.0000000), wk =   0.1111111
        k(    6) = (   0.0274148   0.0163408   0.0000000), wk =   0.1111111
        k(    7) = (   0.0274148   0.0475080   0.0000000), wk =   0.1111111
        k(    8) = (   0.0274148  -0.1083281   0.0000000), wk =   0.1111111
        k(    9) = (   0.0274148  -0.0771608   0.0000000), wk =   0.1111111
        k(   10) = (   0.0274148  -0.0459936   0.0000000), wk =   0.1111111
        k(   11) = (   0.0548296  -0.0296529   0.0000000), wk =   0.1111111
        k(   12) = (   0.0548296   0.0015144   0.0000000), wk =   0.1111111
        k(   13) = (   0.0548296   0.0326816   0.0000000), wk =   0.1111111
        k(   14) = (   0.0548296  -0.1231545   0.0000000), wk =   0.1111111
        k(   15) = (   0.0548296  -0.0919873   0.0000000), wk =   0.1111111
        k(   16) = (   0.0548296  -0.0608201   0.0000000), wk =   0.1111111
        k(   17) = (  -0.0822444   0.0444793   0.0000000), wk =   0.0555556
        k(   18) = (  -0.0822444   0.0756465   0.0000000), wk =   0.1111111
        k(   19) = (  -0.0822444   0.1068137   0.0000000), wk =   0.1111111
        k(   20) = (  -0.0822444  -0.0490223   0.0000000), wk =   0.0555556

     Largest allocated arrays     est. size (Mb)     dimensions
     Largest temporary arrays     est. size (Mb)     dimensions

     Check: negative/imaginary core charge=   -0.000004    0.000000

     Initial potential from superposition of free atoms
     Check: negative starting charge=   -0.375489

     starting charge  137.98684, renormalised to  144.00000

     negative rho (up, down):  3.919E-01 0.000E+00

     *
     * You are using vdW-DF for exchange-correlation in this calculation.
     * Please cite the following three references that made this development
     * possible:
     *
     *   M. Dion, H. Rydberg, E. Schroder, D. C. Langreth, and
     *   B. I. Lundqvist, Phys. Rev. Lett. 92, 246401 (2004).
     *
     *   T. Thonhauser, V. R. Cooper, S. Li, A. Puzder, P. Hyldgaard, and
     *   D. C. Langreth, Phys. Rev. B 76, 125112 (2007).
     *
     *   G. Roman-Perez and J. M. Soler, Phys. Rev. Lett. 103, 096102 (2009).
     *
     *
     * If you are using vdW-DF2, please also cite:
     *
     *   K. Lee, E. D. Murray, L. Kong, B. I. Lundqvist, and
     *   D. C. Langreth, Phys. Rev. B 82, 081101(R) (2010).
     *
     *
     * If you are calculating the stress with vdW-DF, please also cite:
     *
     *   R. Sabatini, E. Kucukbenli, B. Kolb, T. Thonhauser, and
     *   S. de Gironcoli, J. Phys.: Condens. Matter 24, 424209 (2012).
     *

     Carrying out vdW-DF run using the following parameters:

     Nqs =      20    Nr_points =    1024   r_max =   100.000
     q_mesh =
               0.00001000     0.04494208     0.09755937     0.15916263
               0.23128650     0.31572767     0.41458969     0.53033537
               0.66584808     0.82450364     1.01025438     1.22772762
               1.48234092     1.78043706     2.12944203     2.53805004
               3.01644009     3.57652955     4.23227104     5.00000000

     Gradients computed in reciprocal space

     Adding external electric field

     Computed dipole along edir(3) :
        Dipole                0.0000 Ry au,          0.0000 Debye
        Dipole field          0.0000 Ry au

        Potential amp.       -0.0000 Ry
        Total length         46.0595 bohr

     Starting wfc are  138 randomized atomic wfcs

     Self-consistent Calculation

     iteration #  1     ecut=    36.75 Ry     beta=0.10
     Davidson diagonalization with overlap
     ethr =  1.00E-02,  avg # of iterations =  2.5

[...]

     total energy              =   -1316.88344421 Ry
     Harris-Foulkes estimate   =   -1319.47630095 Ry
     estimated scf accuracy    <      14.62067654 Ry

[...]

     End of self-consistent calculation

          k = 0.0000 0.0000 0.0000 ( 20551 PWs)   bands (ev):

   -56.0632 -56.0630 -56.0458 -56.0456 -55.8975 -55.8801 -47.9451 -47.9439
   -47.8821 -47.8808 -47.6163 -47.5526 -32.3453 -32.3427 -32.3424 -32.3262
   -32.3212 -32.3082 -32.2875 -32.2753 -32.2632 -32.2516 -32.1663 -32.1613
   -32.1608 -32.1290 -32.1081 -32.1042 -32.0887 -31.9826 -26.1998 -26.1969
   -26.0613 -25.9886 -25.9729 -25.9152 -25.9051 -25.9030 -25.9004 -25.8533
   -25.8405 -25.6058 -25.5760 -25.5756 -25.5359 -25.5094 -25.4465 -25.2745
    -4.0545  -2.8674  -1.8934  -1.6488  -1.5024  -1.2874  -1.1838  -1.0348
    -0.9949  -0.9078  -0.7814  -0.6348  -0.5441  -0.4891  -0.4189   0.0231
     0.1673   0.3604   0.9877   1.0869   1.1311   1.2531   1.4325   1.5511
     1.5820   1.6380   1.6589   1.6970   1.8650   1.9303   1.9321   1.9400
     2.0355   2.0373   2.1265   2.2854   2.3009   2.3193   2.4361   2.5498
     2.7074   2.7120   2.8731   2.9823   3.0166   3.0919   3.3322   3.5658
     3.7424   3.8564   3.9328   4.0125   4.1780   4.2842

[...]

          k =-0.0822 0.0445 0.0000 ( 20594 PWs)   bands (ev):

[...]

     the Fermi energy is     1.0944 ev

!    total energy              =   -1317.64329301 Ry
     Harris-Foulkes estimate   =   -1317.64329250 Ry
     estimated scf accuracy    <       0.00000058 Ry

     The total energy is the sum of the following terms:

     one-electron contribution =   -9306.00330011 Ry
     hartree contribution      =    4640.77759509 Ry
     xc contribution           =    -222.56151396 Ry
     ewald contribution        =    3570.28155101 Ry
     electric field correction =       0.00000001 Ry
     smearing contrib. (-TS)   =      -0.13762504 Ry

     convergence has been achieved in  22 iterations

 BEEF-vdW xc energy contributions
           1 :   -191.026129468674
           2 :    171.834278094506
           3 :   -139.950545638151
           4 :    104.998874979385
           5 :   -75.2260110002098
           6 :    54.3898621560919
           7 :   -41.4686526618930
           8 :    32.7550345679171
           9 :   -24.6813143600432
          10 :    15.6709586879683
          11 :   -6.29511851773529
          12 :   -1.86068925710748
[...]
00028 suncat2065 pw.x -in pw.inp   Done                     12/19/2018 08:53:24
00029 suncat2065 pw.x -in pw.inp   Done                     12/19/2018 08:53:24
00030 suncat2065 pw.x -in pw.inp   Done                     12/19/2018 08:53:24
00031 suncat2065 pw.x -in pw.inp   Done                     12/19/2018 08:53:24

[...]

   This run was terminated on:   9:11: 8  19Dec2018

[...]

   This run was terminated on:   9:28:25  19Dec2018

[...]

     Program PWSCF v.5.1rc2 (svn rev. 11289) starts on 19Dec2018 at  9:46:15

[...]

   This run was terminated on:  10: 4: 4  19Dec2018

[...]

     Program PWSCF v.5.1rc2 (svn rev. 11289) starts on 19Dec2018 at 10: 4:10

     Current dimensions of program PWSCF are:
     Max number of different atomic species (ntypx) = 10
     Max number of k-points (npk) =  40000
     Max angular momentum in pseudopotentials (lmaxx) =  3
     Presently stress not available with electric field

     IMPORTANT: XC functional enforced from input :
     Exchange-correlation      = BEEF-VDW ( 1  4 27 13 2)
     Any further DFT definition will be discarded
     Please, verify this is what you really want

     Subspace diagonalization in iterative solution of the eigenvalue problem:
     a serial algorithm will be used

     bravais-lattice index     =            0
     lattice parameter (alat)  =       1.8897  a.u.
     unit-cell volume          =    5484.3731 (a.u.)^3
     number of atoms/cell      =           12
     number of atomic types    =            2
     number of electrons       =       144.00
     number of Kohn-Sham states=          102
     kinetic-energy cutoff     =      36.7493  Ry
     charge density cutoff     =     367.4932  Ry
     convergence threshold     =      1.0E-06
     mixing beta               =       0.1000
     number of iterations used =           10  plain     mixing
     Exchange-correlation      = BEEF-VDW ( 1  4 27 13 2)
     nstep                     =           50

     celldm(1)=   1.889726  celldm(2)=   0.000000  celldm(3)=   0.000000
     celldm(4)=   0.000000  celldm(5)=   0.000000  celldm(6)=   0.000000

     crystal axes: (cart. coord. in units of alat)
               a(1) = (   6.079439   0.000000   0.000000 )
               a(2) = (   2.892025   5.347501   0.000000 )
               a(3) = (   0.000000   0.000000  24.998622 )

     reciprocal axes: (cart. coord. in units 2 pi/alat)
               b(1) = (  0.164489 -0.088959  0.000000 )
               b(2) = (  0.000000  0.187003  0.000000 )
               b(3) = (  0.000000  0.000000  0.040002 )

     PseudoPot. # 1 for Ti read from file:
     /afs/slac.stanford.edu/u/if/mamunm/psp/gbrv1.5pbe/Ti.UPF
     MD5 check sum: 88a00a6731bd790ddea75d31a80cb452
     Pseudo is Ultrasoft + core correction, Zval = 12.0
     Generated by new atomic code, or converted to UPF format
     Using radial grid of  851 points,  6 beta functions with:
                l(1) =   0
                l(2) =   0
                l(3) =   1
                l(4) =   1
                l(5) =   2
                l(6) =   2
     Q(r) pseudized with  6 coefficients,  rinner =    1.000   1.000   1.000
                                                       1.000   1.000

     PseudoPot. # 2 for Zr read from file:
     /afs/slac.stanford.edu/u/if/mamunm/psp/gbrv1.5pbe/Zr.UPF
     MD5 check sum: 5db81b1e868ab7776c4564c113de050b
     Pseudo is Ultrasoft + core correction, Zval = 12.0
     Generated by new atomic code, or converted to UPF format
     Using radial grid of  887 points,  6 beta functions with:
                l(1) =   0
                l(2) =   0
                l(3) =   1
                l(4) =   1
                l(5) =   2
                l(6) =   2
     Q(r) pseudized with  6 coefficients,  rinner =    1.200   1.200   1.200
                                                       1.200   1.200

     vdW kernel table read from file vdW_kernel_table
     MD5 check sum: 095c7af220d748ca6e76c0b4c6cfb241

     atomic species   valence    mass     pseudopotential
        Ti1           12.00    47.86700     Ti( 1.00)
        Zr1           12.00    91.22400     Zr( 1.00)

     No symmetry found

   Cartesian axes

     site n.     atom                  positions (alat units)
         1           Ti1 tau(   1) = (   0.0000000   0.0000000  10.0000000  )
         2           Ti1 tau(   2) = (   4.4857318   2.6737503  10.0000000  )
         3           Zr1 tau(   3) = (   3.0397193   0.0000000  10.0000000  )
         4           Zr1 tau(   4) = (   1.4460126   2.6737503  10.0000000  )
         5           Ti1 tau(   5) = (   6.0794385   3.6236898  12.4993111  )
         6           Ti1 tau(   6) = (   1.5937067   0.9499395  12.4993111  )
         7           Zr1 tau(   7) = (   3.0397193   3.6236898  12.4993111  )
         8           Zr1 tau(   8) = (   4.6334259   0.9499395  12.4993111  )
         9           Ti1 tau(   9) = (   3.1267557   1.8637227  14.8227456  )
        10           Ti1 tau(  10) = (   7.6125163   4.5374940  14.8227474  )
        11           Zr1 tau(  11) = (   6.2878268   1.9361113  14.9229633  )
        12           Zr1 tau(  12) = (   4.6941634   4.6097801  14.9229643  )

     number of k points=    20  Fermi-Dirac smearing, width (Ry)=  0.0110
                       cart. coord. in units 2pi/alat
        k(    1) = (   0.0000000   0.0000000   0.0000000), wk =   0.0555556
        k(    2) = (   0.0000000   0.0311672   0.0000000), wk =   0.1111111
        k(    3) = (   0.0000000   0.0623344   0.0000000), wk =   0.1111111
        k(    4) = (   0.0000000  -0.0935016   0.0000000), wk =   0.0555556
        k(    5) = (   0.0274148  -0.0148264   0.0000000), wk =   0.1111111
        k(    6) = (   0.0274148   0.0163408   0.0000000), wk =   0.1111111
        k(    7) = (   0.0274148   0.0475080   0.0000000), wk =   0.1111111
        k(    8) = (   0.0274148  -0.1083281   0.0000000), wk =   0.1111111
        k(    9) = (   0.0274148  -0.0771608   0.0000000), wk =   0.1111111
        k(   10) = (   0.0274148  -0.0459936   0.0000000), wk =   0.1111111
        k(   11) = (   0.0548296  -0.0296529   0.0000000), wk =   0.1111111
        k(   12) = (   0.0548296   0.0015144   0.0000000), wk =   0.1111111
        k(   13) = (   0.0548296   0.0326816   0.0000000), wk =   0.1111111
        k(   14) = (   0.0548296  -0.1231545   0.0000000), wk =   0.1111111
        k(   15) = (   0.0548296  -0.0919873   0.0000000), wk =   0.1111111
        k(   16) = (   0.0548296  -0.0608201   0.0000000), wk =   0.1111111
        k(   17) = (  -0.0822444   0.0444793   0.0000000), wk =   0.0555556
        k(   18) = (  -0.0822444   0.0756465   0.0000000), wk =   0.1111111
        k(   19) = (  -0.0822444   0.1068137   0.0000000), wk =   0.1111111
        k(   20) = (  -0.0822444  -0.0490223   0.0000000), wk =   0.0555556

     Largest allocated arrays     est. size (Mb)     dimensions
     Largest temporary arrays     est. size (Mb)     dimensions

     Check: negative/imaginary core charge=   -0.000004    0.000000

     Initial potential from superposition of free atoms
     Check: negative starting charge=   -0.376733

     starting charge  137.98684, renormalised to  144.00000

[...]

     *
     * You are using vdW-DF for exchange-correlation in this calculation.
     * Please cite the following three references that made this development
     * possible:
     *
     *   M. Dion, H. Rydberg, E. Schroder, D. C. Langreth, and
     *   B. I. Lundqvist, Phys. Rev. Lett. 92, 246401 (2004).
     *
     *   T. Thonhauser, V. R. Cooper, S. Li, A. Puzder, P. Hyldgaard, and
     *   D. C. Langreth, Phys. Rev. B 76, 125112 (2007).
     *
     *   G. Roman-Perez and J. M. Soler, Phys. Rev. Lett. 103, 096102 (2009).
     *
     *
     * If you are using vdW-DF2, please also cite:
     *
     *   K. Lee, E. D. Murray, L. Kong, B. I. Lundqvist, and
     *   D. C. Langreth, Phys. Rev. B 82, 081101(R) (2010).
     *
     *
     * If you are calculating the stress with vdW-DF, please also cite:
     *
     *   R. Sabatini, E. Kucukbenli, B. Kolb, T. Thonhauser, and
     *   S. de Gironcoli, J. Phys.: Condens. Matter 24, 424209 (2012).
     *

     Carrying out vdW-DF run using the following parameters:

     Nqs =      20    Nr_points =    1024   r_max =   100.000
     q_mesh =
               0.00001000     0.04494208     0.09755937     0.15916263
               0.23128650     0.31572767     0.41458969     0.53033537
               0.66584808     0.82450364     1.01025438     1.22772762
               1.48234092     1.78043706     2.12944203     2.53805004
               3.01644009     3.57652955     4.23227104     5.00000000

     Gradients computed in reciprocal space

[...]

     Starting wfc are  138 randomized atomic wfcs

     Self-consistent Calculation

[...]

     total energy              =   -1317.65409089 Ry
     Harris-Foulkes estimate   =   -1317.65409042 Ry
     estimated scf accuracy    <       0.00000259 Ry

     iteration # 23     ecut=    36.75 Ry     beta=0.10
     Davidson diagonalization with overlap
     ethr =  1.80E-09,  avg # of iterations =  2.1

[...]

     negative rho (up, down):  3.802E-01 0.000E+00

     Adding external electric field

     Computed dipole along edir(3) :
        Dipole                0.0206 Ry au,          0.0524 Debye
        Dipole field          0.0000 Ry au

        Potential amp.       -0.0043 Ry
        Total length         46.0595 bohr

     End of self-consistent calculation

[...]

          k = 0.0548-0.0608 0.0000 ( 20640 PWs)   bands (ev):

[...]

          k =-0.0822-0.0490 0.0000 ( 20684 PWs)   bands (ev):

   -56.0488 -56.0315 -55.9626 -55.9449 -55.8332 -55.8158 -47.9318 -47.9124
   -47.8682 -47.8485 -47.5539 -47.4891 -32.3280 -32.3187 -32.2996 -32.2663
   -32.2543 -32.2465 -32.2443 -32.2255 -32.1955 -32.1767 -32.1489 -32.1033
   -32.0708 -32.0684 -32.0487 -32.0249 -32.0074 -31.9216 -26.1995 -26.1829
   -26.0586 -25.9758 -25.9461 -25.9289 -25.9067 -25.8790 -25.8568 -25.8485
   -25.8313 -25.5657 -25.5637 -25.5509 -25.4951 -25.4633 -25.3981 -25.2177
    -2.5713  -2.4841  -1.6343  -1.3488  -0.9062  -0.9001  -0.8697  -0.6882
    -0.5852  -0.2681  -0.2364   0.0022   0.1221   0.2030   0.2659   0.4242
     0.4359   0.4437   0.5866   0.6003   0.7425   0.7791   0.9332   0.9488
     0.9712   1.0005   1.0148   1.1107   1.2249   1.3176   1.4876   1.5265
     1.6406   1.7505   1.8452   2.1070   2.1143   2.1461   2.1695   2.1786
     2.4112   2.5333   2.6608   2.6859   2.7965   2.8714   2.9778   3.1885
     3.2093   3.2317   3.2848   3.6331   3.6433   3.9821

     the Fermi energy is     1.1000 ev

!    total energy              =   -1317.65409202 Ry
     Harris-Foulkes estimate   =   -1317.65409130 Ry
     estimated scf accuracy    <       0.00000049 Ry

     The total energy is the sum of the following terms:

     one-electron contribution =   -9472.99367980 Ry
     hartree contribution      =    4724.49926337 Ry
     xc contribution           =    -222.74014654 Ry
     ewald contribution        =    3653.71037813 Ry
     electric field correction =       0.00000097 Ry
     smearing contrib. (-TS)   =      -0.12990815 Ry

     convergence has been achieved in  23 iterations

 BEEF-vdW xc energy contributions
           1 :   -191.207193342365
           2 :    172.073396043349
           3 :   -140.241739631813
           4 :    105.264464851943
           5 :   -75.3721234666290
           6 :    54.3787041756365
           7 :   -41.3501995619213
           8 :    32.6350163636897
           9 :   -24.6510679454066
          10 :    15.7492582619217
          11 :   -6.42007794971306
          12 :   -1.78609301695718
          13 :    7.62167141139577
          14 :   -10.9146543646847
          15 :    12.4492614269023
          16 :   -13.2701108909378
          17 :    13.9908763427665
          18 :   -14.5582295163864
          19 :    14.5222786188542
          20 :   -13.5215343892942
          21 :    11.5961071565604
          22 :   -9.14665807988297
          23 :    6.64386612395523
          24 :   -4.35722158108177
          25 :    2.29335264996314
          26 :  -0.335771114212747
          27 :   -1.57591913739662
          28 :    3.37380604483099
          29 :   -4.92251377524315
          30 :    6.12296147325176
          31 :   -21.1654144050105
          32 :   -15.4581518941723

     Forces acting on atoms (Ry/au):

     negative rho (up, down):  3.802E-01 0.000E+00
     atom    1 type  1   force =     0.00738256    0.00440003    0.01483817
     atom    2 type  1   force =     0.00738161    0.00440026    0.01484158
     atom    3 type  2   force =    -0.00881570   -0.00525212    0.00504154
     atom    4 type  2   force =    -0.00881388   -0.00525632    0.00504147
     atom    5 type  1   force =     0.00018295    0.00010943   -0.00896065
     atom    6 type  1   force =     0.00017121    0.00010150   -0.00895903
     atom    7 type  2   force =     0.00267178    0.00154825   -0.01064863
     atom    8 type  2   force =     0.00263352    0.00161436   -0.01064775
     atom    9 type  1   force =     0.00003017    0.00001799    0.00007921
     atom   10 type  1   force =     0.00002725    0.00001610    0.00008785
     atom   11 type  2   force =    -0.00141828   -0.00086233   -0.00035724
     atom   12 type  2   force =    -0.00143319   -0.00083716   -0.00035651

     Total force =     0.035523     Total SCF correction =     0.001239

     entering subroutine stress ...

     negative rho (up, down):  3.802E-01 0.000E+00
          total   stress  (Ry/bohr**3)                   (kbar)     P=   -6.30
  -0.00004861  -0.00000410   0.00000028         -7.15     -0.60      0.04
  -0.00000410  -0.00004418   0.00000017         -0.60     -6.50      0.02
   0.00000028   0.00000017  -0.00003562          0.04      0.02     -5.24

 !ASE

     Writing output data file calc.save

     General routines

     Parallel routines

   This run was terminated on:  10:22: 5  19Dec2018

   JOB DONE.
Job  /afs/slac/g/suncat/bin/suncat-tsmpirun -x LD_LIBRARY_PATH -wdir /scratch/qe530737_jIQw0 pw.x -in pw.inp

TID   HOST_NAME   COMMAND_LINE            STATUS            TERMINATION_TIME
00000 suncat2066 pw.x -in pw.inp   Done                     12/19/2018 10:22:05
00001 suncat2066 pw.x -in pw.inp   Done                     12/19/2018 10:22:05
00002 suncat2066 pw.x -in pw.inp   Done                     12/19/2018 10:22:05
00003 suncat2066 pw.x -in pw.inp   Done                     12/19/2018 10:22:05
00004 suncat2066 pw.x -in pw.inp   Done                     12/19/2018 10:22:05
00005 suncat2066 pw.x -in pw.inp   Done                     12/19/2018 10:22:05
00006 suncat2066 pw.x -in pw.inp   Done                     12/19/2018 10:22:05
00007 suncat2066 pw.x -in pw.inp   Done                     12/19/2018 10:22:05
00008 suncat2066 pw.x -in pw.inp   Done                     12/19/2018 10:22:05
00009 suncat2066 pw.x -in pw.inp   Done                     12/19/2018 10:22:05
00010 suncat2066 pw.x -in pw.inp   Done                     12/19/2018 10:22:05
00011 suncat2066 pw.x -in pw.inp   Done                     12/19/2018 10:22:05
00012 suncat2066 pw.x -in pw.inp   Done                     12/19/2018 10:22:05
00013 suncat2066 pw.x -in pw.inp   Done                     12/19/2018 10:22:05
00014 suncat2066 pw.x -in pw.inp   Done                     12/19/2018 10:22:05
00015 suncat2066 pw.x -in pw.inp   Done                     12/19/2018 10:22:05
00016 suncat2065 pw.x -in pw.inp   Done                     12/19/2018 10:22:05
00017 suncat2065 pw.x -in pw.inp   Done                     12/19/2018 10:22:05
00018 suncat2065 pw.x -in pw.inp   Done                     12/19/2018 10:22:05
00019 suncat2065 pw.x -in pw.inp   Done                     12/19/2018 10:22:05
00020 suncat2065 pw.x -in pw.inp   Done                     12/19/2018 10:22:05
00021 suncat2065 pw.x -in pw.inp   Done                     12/19/2018 10:22:05
00022 suncat2065 pw.x -in pw.inp   Done                     12/19/2018 10:22:05
00023 suncat2065 pw.x -in pw.inp   Done                     12/19/2018 10:22:05
00024 suncat2065 pw.x -in pw.inp   Done                     12/19/2018 10:22:05
00025 suncat2065 pw.x -in pw.inp   Done                     12/19/2018 10:22:05
00026 suncat2065 pw.x -in pw.inp   Done                     12/19/2018 10:22:05
00027 suncat2065 pw.x -in pw.inp   Done                     12/19/2018 10:22:05
00028 suncat2065 pw.x -in pw.inp   Done                     12/19/2018 10:22:05
00029 suncat2065 pw.x -in pw.inp   Done                     12/19/2018 10:22:05
00030 suncat2065 pw.x -in pw.inp   Done                     12/19/2018 10:22:05
00031 suncat2065 pw.x -in pw.inp   Done                     12/19/2018 10:22:05