     Program PWSCF v.5.1rc2 (svn rev. 11289) starts on 19Dec2018 at  7:10: 8

     Current dimensions of program PWSCF are:
     Max number of different atomic species (ntypx) = 10
     Max number of k-points (npk) =  40000
     Max angular momentum in pseudopotentials (lmaxx) =  3
     Presently stress not available with electric field

     IMPORTANT: XC functional enforced from input :
     Exchange-correlation      = BEEF-VDW ( 1  4 27 13 2)
     Any further DFT definition will be discarded
     Please, verify this is what you really want

     Subspace diagonalization in iterative solution of the eigenvalue problem:
     a serial algorithm will be used

     Found symmetry operation: I + ( -0.5000 -0.5000  0.0000)
     This is a supercell, fractional translations are disabled

     Generating pointlists ...
     new r_m :   0.4125 (alat units)  0.7795 (a.u.) for type    1
     new r_m :   0.4125 (alat units)  0.7795 (a.u.) for type    2

     bravais-lattice index     =            0
     lattice parameter (alat)  =       1.8897  a.u.
     unit-cell volume          =    4868.1680 (a.u.)^3
     number of atoms/cell      =           12
     number of atomic types    =            2
     number of electrons       =       168.00
     number of Kohn-Sham states=          114
     kinetic-energy cutoff     =      36.7493  Ry
     charge density cutoff     =     367.4932  Ry
     convergence threshold     =      1.0E-06
     mixing beta               =       0.1000
     number of iterations used =           10  plain     mixing
     Exchange-correlation      = BEEF-VDW ( 1  4 27 13 2)
     nstep                     =           50

     celldm(1)=   1.889726  celldm(2)=   0.000000  celldm(3)=   0.000000
     celldm(4)=   0.000000  celldm(5)=   0.000000  celldm(6)=   0.000000

     crystal axes: (cart. coord. in units of alat)
               a(1) = (   5.769048   0.000000   0.000000 )
               a(2) = (   2.779804   5.055156   0.000000 )
               a(3) = (   0.000000   0.000000  24.736046 )

     reciprocal axes: (cart. coord. in units 2 pi/alat)
               b(1) = (  0.173339 -0.095318  0.000000 )
               b(2) = (  0.000000  0.197818  0.000000 )
               b(3) = (  0.000000  0.000000  0.040427 )

     PseudoPot. # 1 for Fe read from file:
     /afs/slac.stanford.edu/u/if/mamunm/psp/gbrv1.5pbe/Fe.UPF
     MD5 check sum: a130daea23fe5165f5d574ae7f82ed95
     Pseudo is Ultrasoft + core correction, Zval = 16.0
     Generated by new atomic code, or converted to UPF format
     Using radial grid of  861 points,  6 beta functions with:
                l(1) =   0
                l(2) =   0
                l(3) =   1
                l(4) =   1
                l(5) =   2
                l(6) =   2
     Q(r) pseudized with  8 coefficients,  rinner =    1.000   1.000   1.000
                                                       1.000   1.000

     PseudoPot. # 2 for Hg read from file:
     /afs/slac.stanford.edu/u/if/mamunm/psp/gbrv1.5pbe/Hg.UPF
     MD5 check sum: 8f42caffe07f7fd9c0a564347f8c5498
     Pseudo is Ultrasoft + core correction, Zval = 12.0
     Generated by new atomic code, or converted to UPF format
     Using radial grid of  985 points,  6 beta functions with:
                l(1) =   0
                l(2) =   0
                l(3) =   1
                l(4) =   1
                l(5) =   2
                l(6) =   2
     Q(r) pseudized with  8 coefficients,  rinner =    2.000   2.000   2.000
                                                       2.000   2.000

     vdW kernel table read from file vdW_kernel_table
     MD5 check sum: 095c7af220d748ca6e76c0b4c6cfb241

     atomic species   valence    mass     pseudopotential
        Fe1           16.00    55.84500     Fe( 1.00)
        Hg1           12.00   200.59200     Hg( 1.00)

     Starting magnetic structure
     atomic species   magnetization
        Fe1          0.125
        Hg1          0.167

     No symmetry found

   Cartesian axes

     site n.     atom                  positions (alat units)
         1           Fe1 tau(   1) = (   0.0000000   0.0000000  10.0000000  )
         2           Fe1 tau(   2) = (   4.2744257   2.5275779  10.0000000  )
         3           Hg1 tau(   3) = (   2.8845238   0.0000000  10.0000000  )
         4           Hg1 tau(   4) = (   1.3899019   2.5275779  10.0000000  )
         5           Fe1 tau(   5) = (   5.7690476   3.4113863  12.3680230  )
         6           Fe1 tau(   6) = (   1.4946219   0.8838084  12.3680230  )
         7           Hg1 tau(   7) = (   2.8845238   3.4113863  12.3680230  )
         8           Hg1 tau(   8) = (   4.3791457   0.8838084  12.3680230  )
         9           Fe1 tau(   9) = (   2.9892438   1.7676168  14.7360460  )
        10           Fe1 tau(  10) = (   7.2636695   4.2951948  14.7360460  )
        11           Hg1 tau(  11) = (   5.8737676   1.7676168  14.7360460  )
        12           Hg1 tau(  12) = (   4.3791457   4.2951948  14.7360460  )

     number of k points=    40  Fermi-Dirac smearing, width (Ry)=  0.0110
                       cart. coord. in units 2pi/alat
        k(    1) = (   0.0000000   0.0000000   0.0000000), wk =   0.0277778
        k(    2) = (   0.0000000   0.0329696   0.0000000), wk =   0.0555556
        k(    3) = (   0.0000000   0.0659393   0.0000000), wk =   0.0555556
        k(    4) = (   0.0000000  -0.0989089   0.0000000), wk =   0.0277778
        k(    5) = (   0.0288898  -0.0158864   0.0000000), wk =   0.0555556
        k(    6) = (   0.0288898   0.0170833   0.0000000), wk =   0.0555556
        k(    7) = (   0.0288898   0.0500529   0.0000000), wk =   0.0555556
        k(    8) = (   0.0288898  -0.1147953   0.0000000), wk =   0.0555556
        k(    9) = (   0.0288898  -0.0818256   0.0000000), wk =   0.0555556
        k(   10) = (   0.0288898  -0.0488560   0.0000000), wk =   0.0555556
        k(   11) = (   0.0577796  -0.0317727   0.0000000), wk =   0.0555556
        k(   12) = (   0.0577796   0.0011969   0.0000000), wk =   0.0555556
        k(   13) = (   0.0577796   0.0341666   0.0000000), wk =   0.0555556
        k(   14) = (   0.0577796  -0.1306816   0.0000000), wk =   0.0555556
        k(   15) = (   0.0577796  -0.0977120   0.0000000), wk =   0.0555556
        k(   16) = (   0.0577796  -0.0647423   0.0000000), wk =   0.0555556
        k(   17) = (  -0.0866694   0.0476591   0.0000000), wk =   0.0277778
        k(   18) = (  -0.0866694   0.0806287   0.0000000), wk =   0.0555556
        k(   19) = (  -0.0866694   0.1135983   0.0000000), wk =   0.0555556
        k(   20) = (  -0.0866694  -0.0512499   0.0000000), wk =   0.0277778
        k(   21) = (   0.0000000   0.0000000   0.0000000), wk =   0.0277778
        k(   22) = (   0.0000000   0.0329696   0.0000000), wk =   0.0555556
        k(   23) = (   0.0000000   0.0659393   0.0000000), wk =   0.0555556
        k(   24) = (   0.0000000  -0.0989089   0.0000000), wk =   0.0277778
        k(   25) = (   0.0288898  -0.0158864   0.0000000), wk =   0.0555556
        k(   26) = (   0.0288898   0.0170833   0.0000000), wk =   0.0555556
        k(   27) = (   0.0288898   0.0500529   0.0000000), wk =   0.0555556
        k(   28) = (   0.0288898  -0.1147953   0.0000000), wk =   0.0555556
        k(   29) = (   0.0288898  -0.0818256   0.0000000), wk =   0.0555556
        k(   30) = (   0.0288898  -0.0488560   0.0000000), wk =   0.0555556
        k(   31) = (   0.0577796  -0.0317727   0.0000000), wk =   0.0555556
        k(   32) = (   0.0577796   0.0011969   0.0000000), wk =   0.0555556
        k(   33) = (   0.0577796   0.0341666   0.0000000), wk =   0.0555556
        k(   34) = (   0.0577796  -0.1306816   0.0000000), wk =   0.0555556
        k(   35) = (   0.0577796  -0.0977120   0.0000000), wk =   0.0555556
        k(   36) = (   0.0577796  -0.0647423   0.0000000), wk =   0.0555556
        k(   37) = (  -0.0866694   0.0476591   0.0000000), wk =   0.0277778
        k(   38) = (  -0.0866694   0.0806287   0.0000000), wk =   0.0555556
        k(   39) = (  -0.0866694   0.1135983   0.0000000), wk =   0.0555556
        k(   40) = (  -0.0866694  -0.0512499   0.0000000), wk =   0.0277778

     Largest allocated arrays     est. size (Mb)     dimensions
     Largest temporary arrays     est. size (Mb)     dimensions

     Check: negative/imaginary core charge=   -0.000003    0.000000

     Initial potential from superposition of free atoms
     Check: negative starting charge=(component1):   -0.000102

     starting charge  161.99962, renormalised to  168.00000

     negative rho (up, down):  1.062E-04 8.187E-05

     *
     * You are using vdW-DF for exchange-correlation in this calculation.
     * Please cite the following three references that made this development
     * possible:
     *
     *   M. Dion, H. Rydberg, E. Schroder, D. C. Langreth, and
     *   B. I. Lundqvist, Phys. Rev. Lett. 92, 246401 (2004).
     *
     *   T. Thonhauser, V. R. Cooper, S. Li, A. Puzder, P. Hyldgaard, and
     *   D. C. Langreth, Phys. Rev. B 76, 125112 (2007).
     *
     *   G. Roman-Perez and J. M. Soler, Phys. Rev. Lett. 103, 096102 (2009).
     *
     *
     * If you are using vdW-DF2, please also cite:
     *
     *   K. Lee, E. D. Murray, L. Kong, B. I. Lundqvist, and
     *   D. C. Langreth, Phys. Rev. B 82, 081101(R) (2010).
     *
     *
     * If you are calculating the stress with vdW-DF, please also cite:
     *
     *   R. Sabatini, E. Kucukbenli, B. Kolb, T. Thonhauser, and
     *   S. de Gironcoli, J. Phys.: Condens. Matter 24, 424209 (2012).
     *

     Carrying out vdW-DF run using the following parameters:

     Nqs =      20    Nr_points =    1024   r_max =   100.000
     q_mesh =
               0.00001000     0.04494208     0.09755937     0.15916263
               0.23128650     0.31572767     0.41458969     0.53033537
               0.66584808     0.82450364     1.01025438     1.22772762
               1.48234092     1.78043706     2.12944203     2.53805004
               3.01644009     3.57652955     4.23227104     5.00000000

     Gradients computed in reciprocal space

     Adding external electric field

     Computed dipole along edir(3) :
        Dipole               -0.0000 Ry au,         -0.0000 Debye
        Dipole field         -0.0000 Ry au

        Potential amp.        0.0000 Ry
        Total length         45.5757 bohr

[...]

     Starting wfc are  132 randomized atomic wfcs

     Self-consistent Calculation

     iteration #  1     ecut=    36.75 Ry     beta=0.10
     Davidson diagonalization with overlap
     ethr =  1.00E-02,  avg # of iterations =  8.4

[...]

     Magnetic moment per site:
     atom:    1    charge:    7.2744    magn:    0.8743    constr:    0.0000
     atom:    2    charge:    7.2744    magn:    0.8743    constr:    0.0000
     atom:    3    charge:    1.9691    magn:    0.3117    constr:    0.0000
     atom:    4    charge:    1.9691    magn:    0.3117    constr:    0.0000
     atom:    5    charge:    7.2429    magn:    0.9011    constr:    0.0000
     atom:    6    charge:    7.2429    magn:    0.9011    constr:    0.0000
     atom:    7    charge:    1.9707    magn:    0.3115    constr:    0.0000
[...]
     Using radial grid of  861 points,  6 beta functions with:
                l(1) =   0
                l(2) =   0
                l(3) =   1
                l(4) =   1
                l(5) =   2
                l(6) =   2
     Q(r) pseudized with  8 coefficients,  rinner =    1.000   1.000   1.000
                                                       1.000   1.000

     PseudoPot. # 2 for Hg read from file:
     /afs/slac.stanford.edu/u/if/mamunm/psp/gbrv1.5pbe/Hg.UPF
     MD5 check sum: 8f42caffe07f7fd9c0a564347f8c5498
     Pseudo is Ultrasoft + core correction, Zval = 12.0
     Generated by new atomic code, or converted to UPF format
     Using radial grid of  985 points,  6 beta functions with:
                l(1) =   0
                l(2) =   0
                l(3) =   1
                l(4) =   1
                l(5) =   2
                l(6) =   2
     Q(r) pseudized with  8 coefficients,  rinner =    2.000   2.000   2.000
                                                       2.000   2.000

     vdW kernel table read from file vdW_kernel_table
     MD5 check sum: 095c7af220d748ca6e76c0b4c6cfb241

     atomic species   valence    mass     pseudopotential
        Fe1           16.00    55.84500     Fe( 1.00)
        Hg1           12.00   200.59200     Hg( 1.00)

     Starting magnetic structure
     atomic species   magnetization
        Fe1          0.125
        Hg1          0.167

     No symmetry found

   Cartesian axes

     site n.     atom                  positions (alat units)
         1           Fe1 tau(   1) = (   0.0000000   0.0000000  10.0000000  )
         2           Fe1 tau(   2) = (   4.2744257   2.5275779  10.0000000  )
         3           Hg1 tau(   3) = (   2.8845238   0.0000000  10.0000000  )
         4           Hg1 tau(   4) = (   1.3899019   2.5275779  10.0000000  )
         5           Fe1 tau(   5) = (   5.7690476   3.4113863  12.3680230  )
         6           Fe1 tau(   6) = (   1.4946219   0.8838084  12.3680230  )
         7           Hg1 tau(   7) = (   2.8845238   3.4113863  12.3680230  )
         8           Hg1 tau(   8) = (   4.3791457   0.8838084  12.3680230  )
         9           Fe1 tau(   9) = (   2.5485612   1.5070168  14.4977192  )
        10           Fe1 tau(  10) = (   6.8229179   4.0345836  14.4976515  )
        11           Hg1 tau(  11) = (   5.5144456   1.5551288  15.2426841  )
        12           Hg1 tau(  12) = (   4.0198026   4.0827208  15.2426845  )

     number of k points=    40  Fermi-Dirac smearing, width (Ry)=  0.0110
                       cart. coord. in units 2pi/alat
        k(    1) = (   0.0000000   0.0000000   0.0000000), wk =   0.0277778
        k(    2) = (   0.0000000   0.0329696   0.0000000), wk =   0.0555556
        k(    3) = (   0.0000000   0.0659393   0.0000000), wk =   0.0555556
        k(    4) = (   0.0000000  -0.0989089   0.0000000), wk =   0.0277778
        k(    5) = (   0.0288898  -0.0158864   0.0000000), wk =   0.0555556
        k(    6) = (   0.0288898   0.0170833   0.0000000), wk =   0.0555556
        k(    7) = (   0.0288898   0.0500529   0.0000000), wk =   0.0555556
        k(    8) = (   0.0288898  -0.1147953   0.0000000), wk =   0.0555556
        k(    9) = (   0.0288898  -0.0818256   0.0000000), wk =   0.0555556
        k(   10) = (   0.0288898  -0.0488560   0.0000000), wk =   0.0555556
        k(   11) = (   0.0577796  -0.0317727   0.0000000), wk =   0.0555556
        k(   12) = (   0.0577796   0.0011969   0.0000000), wk =   0.0555556
        k(   13) = (   0.0577796   0.0341666   0.0000000), wk =   0.0555556
        k(   14) = (   0.0577796  -0.1306816   0.0000000), wk =   0.0555556
        k(   15) = (   0.0577796  -0.0977120   0.0000000), wk =   0.0555556
        k(   16) = (   0.0577796  -0.0647423   0.0000000), wk =   0.0555556
        k(   17) = (  -0.0866694   0.0476591   0.0000000), wk =   0.0277778
        k(   18) = (  -0.0866694   0.0806287   0.0000000), wk =   0.0555556
        k(   19) = (  -0.0866694   0.1135983   0.0000000), wk =   0.0555556
        k(   20) = (  -0.0866694  -0.0512499   0.0000000), wk =   0.0277778
        k(   21) = (   0.0000000   0.0000000   0.0000000), wk =   0.0277778
        k(   22) = (   0.0000000   0.0329696   0.0000000), wk =   0.0555556
        k(   23) = (   0.0000000   0.0659393   0.0000000), wk =   0.0555556
        k(   24) = (   0.0000000  -0.0989089   0.0000000), wk =   0.0277778
        k(   25) = (   0.0288898  -0.0158864   0.0000000), wk =   0.0555556
        k(   26) = (   0.0288898   0.0170833   0.0000000), wk =   0.0555556
        k(   27) = (   0.0288898   0.0500529   0.0000000), wk =   0.0555556
        k(   28) = (   0.0288898  -0.1147953   0.0000000), wk =   0.0555556
        k(   29) = (   0.0288898  -0.0818256   0.0000000), wk =   0.0555556
        k(   30) = (   0.0288898  -0.0488560   0.0000000), wk =   0.0555556
        k(   31) = (   0.0577796  -0.0317727   0.0000000), wk =   0.0555556
        k(   32) = (   0.0577796   0.0011969   0.0000000), wk =   0.0555556
        k(   33) = (   0.0577796   0.0341666   0.0000000), wk =   0.0555556
        k(   34) = (   0.0577796  -0.1306816   0.0000000), wk =   0.0555556
        k(   35) = (   0.0577796  -0.0977120   0.0000000), wk =   0.0555556
        k(   36) = (   0.0577796  -0.0647423   0.0000000), wk =   0.0555556
        k(   37) = (  -0.0866694   0.0476591   0.0000000), wk =   0.0277778
        k(   38) = (  -0.0866694   0.0806287   0.0000000), wk =   0.0555556
        k(   39) = (  -0.0866694   0.1135983   0.0000000), wk =   0.0555556
        k(   40) = (  -0.0866694  -0.0512499   0.0000000), wk =   0.0277778

     Largest allocated arrays     est. size (Mb)     dimensions
     Largest temporary arrays     est. size (Mb)     dimensions

     Check: negative/imaginary core charge=   -0.000003    0.000000

     Initial potential from superposition of free atoms

     starting charge  161.99962, renormalised to  168.00000

[...]

     *
     * You are using vdW-DF for exchange-correlation in this calculation.
     * Please cite the following three references that made this development
     * possible:
     *
     *   M. Dion, H. Rydberg, E. Schroder, D. C. Langreth, and
     *   B. I. Lundqvist, Phys. Rev. Lett. 92, 246401 (2004).
     *
     *   T. Thonhauser, V. R. Cooper, S. Li, A. Puzder, P. Hyldgaard, and
     *   D. C. Langreth, Phys. Rev. B 76, 125112 (2007).
     *
     *   G. Roman-Perez and J. M. Soler, Phys. Rev. Lett. 103, 096102 (2009).
     *
     *
     * If you are using vdW-DF2, please also cite:
     *
     *   K. Lee, E. D. Murray, L. Kong, B. I. Lundqvist, and
     *   D. C. Langreth, Phys. Rev. B 82, 081101(R) (2010).
     *
     *
     * If you are calculating the stress with vdW-DF, please also cite:
     *
     *   R. Sabatini, E. Kucukbenli, B. Kolb, T. Thonhauser, and
     *   S. de Gironcoli, J. Phys.: Condens. Matter 24, 424209 (2012).
     *

     Carrying out vdW-DF run using the following parameters:

     Nqs =      20    Nr_points =    1024   r_max =   100.000
     q_mesh =
               0.00001000     0.04494208     0.09755937     0.15916263
               0.23128650     0.31572767     0.41458969     0.53033537
               0.66584808     0.82450364     1.01025438     1.22772762
               1.48234092     1.78043706     2.12944203     2.53805004
               3.01644009     3.57652955     4.23227104     5.00000000

     Gradients computed in reciprocal space

[...]

     Starting wfc are  132 randomized atomic wfcs

     Self-consistent Calculation

[...]

     total energy              =   -2162.22368015 Ry
     Harris-Foulkes estimate   =   -2162.22367877 Ry
     estimated scf accuracy    <       0.00000122 Ry

[...]

     iteration # 35     ecut=    36.75 Ry     beta=0.10
     Davidson diagonalization with overlap
     ethr =  7.26E-10,  avg # of iterations =  1.8

[...]

     negative rho (up, down):  1.818E-04 9.662E-04

[...]

     Adding external electric field

     Computed dipole along edir(3) :
        Dipole               -0.0241 Ry au,         -0.0612 Debye
        Dipole field         -0.0001 Ry au

        Potential amp.        0.0057 Ry
        Total length         45.5757 bohr

     Magnetic moment per site:
     atom:    1    charge:    7.1051    magn:    1.3713    constr:    0.0000
     atom:    2    charge:    7.1049    magn:    1.3714    constr:    0.0000
     atom:    3    charge:    1.9914    magn:    0.0016    constr:    0.0000
     atom:    4    charge:    1.9914    magn:    0.0016    constr:    0.0000
     atom:    5    charge:    7.1014    magn:    1.3351    constr:    0.0000
     atom:    6    charge:    7.1013    magn:    1.3352    constr:    0.0000
     atom:    7    charge:    1.9977    magn:    0.0008    constr:    0.0000
     atom:    8    charge:    1.9977    magn:    0.0008    constr:    0.0000
     atom:    9    charge:    7.1029    magn:    1.3609    constr:    0.0000
     atom:   10    charge:    7.1030    magn:    1.3608    constr:    0.0000
     atom:   11    charge:    1.9856    magn:   -0.0011    constr:    0.0000
     atom:   12    charge:    1.9856    magn:   -0.0011    constr:    0.0000

     End of self-consistent calculation

 ------ SPIN UP ------------

[...]

 ------ SPIN DOWN ----------

[...]

          k = 0.0578-0.0647 0.0000 ( 18308 PWs)   bands (ev):

[...]

          k =-0.0867-0.0512 0.0000 ( 18228 PWs)   bands (ev):

   -84.6716 -84.6682 -84.6079 -84.6044 -84.5737 -84.5703 -50.8562 -50.8520
   -50.7801 -50.7761 -50.7757 -50.7715 -50.7609 -50.7566 -50.7544 -50.7389
   -50.7346 -50.7270 -50.7073 -50.6796 -50.6753 -50.6288 -50.6031 -50.5996
    -8.0414  -7.6908  -7.5663  -7.4160  -7.4072  -7.3194  -7.1041  -7.0919
    -7.0623  -6.9303  -6.8205  -6.7265  -6.6819  -6.5332  -6.5067  -6.4484
    -6.2753  -6.2605  -6.2393  -6.2076  -6.1328  -6.1150  -5.9715  -5.9191
    -5.8872  -5.8587  -5.7959  -5.6140  -5.5910  -5.4810  -5.4174  -5.1680
    -3.9562  -3.3993  -2.3774  -2.3526  -1.7258  -1.4460  -1.2854  -0.6944
    -0.5797  -0.3411  -0.2881  -0.2073  -0.1456  -0.0197   0.0473   0.1844
     0.2292   0.2487   0.5104   0.5783   0.7616   0.8797   1.2817   1.2859
     1.3683   1.4046   1.4349   1.5070   1.6482   1.7098   1.7461   1.7802
     1.7899   1.9725   2.0937   2.2463   2.5057   2.5643   2.7169   2.7841
     3.4220   3.4237   5.0228   5.0952   5.4086   5.5601   6.0700   6.0826
     6.1765   6.1954   6.4712   6.5720   6.6069   6.8287   7.0985   7.3812
     7.4836   7.4902

     the Fermi energy is     0.8021 ev

!    total energy              =   -2162.22368651 Ry
     Harris-Foulkes estimate   =   -2162.22368034 Ry
     estimated scf accuracy    <       0.00000091 Ry

     The total energy is the sum of the following terms:

     one-electron contribution =  -14649.18584660 Ry
     hartree contribution      =    7368.82589587 Ry
     xc contribution           =    -424.42400697 Ry
     ewald contribution        =    5542.63677093 Ry
     electric field correction =       0.00000150 Ry
     smearing contrib. (-TS)   =      -0.07650124 Ry

     total magnetization       =    16.92 Bohr mag/cell
     absolute magnetization    =    18.98 Bohr mag/cell

     convergence has been achieved in  35 iterations

 BEEF-vdW xc energy contributions
           1 :   -371.887136008155
           2 :    339.591193406678
           3 :   -284.633064088903
           4 :    221.697449584176
           5 :   -164.361222397307
           6 :    120.580691689018
           7 :   -91.5822969304544
           8 :    73.7700532672070
           9 :   -61.9528744469779
          10 :    52.0258988120615
          11 :   -42.1119121737364
          12 :    32.2241914767018
          13 :   -23.2368284233295
          14 :    15.9530067419694
          15 :   -10.6728209445596
          16 :    7.19075573990938
          17 :   -4.99764458975903
          18 :    3.50545361551525
          19 :   -2.24600678150659
          20 :   0.997877577947293
          21 :   0.199696867825878
          22 :   -1.17324434178056
          23 :    1.80037492201774
          24 :   -2.13219222136922
          25 :    2.35794616542364
          26 :   -2.65737806976898
          27 :    3.06516257192459
          28 :   -3.46533113209790
          29 :    3.70295504569805
          30 :   -3.71382359328169
          31 :   -33.7187444991344
          32 :   -24.3723048424221

     Forces acting on atoms (Ry/au):

     negative rho (up, down):  1.818E-04 9.662E-04
     atom    1 type  1   force =     0.00967328    0.00572024    0.01723033
     atom    2 type  1   force =     0.00964551    0.00570339    0.01721099
     atom    3 type  2   force =    -0.00928192   -0.00545816   -0.03466636
     atom    4 type  2   force =    -0.00925548   -0.00550341   -0.03466609
     atom    5 type  1   force =    -0.01112637   -0.00657893    0.00432734
     atom    6 type  1   force =    -0.01108637   -0.00655599    0.00437060
     atom    7 type  2   force =     0.01126983    0.00662047    0.01602917
     atom    8 type  2   force =     0.01123230    0.00668550    0.01602858
     atom    9 type  1   force =    -0.00046638   -0.00027636   -0.00117393
     atom   10 type  1   force =    -0.00043517   -0.00025654   -0.00113759
     atom   11 type  2   force =    -0.00007916   -0.00005882   -0.00177670
     atom   12 type  2   force =    -0.00009007   -0.00004138   -0.00177634

     Total force =     0.068675     Total SCF correction =     0.003792

     entering subroutine stress ...

     negative rho (up, down):  1.818E-04 9.662E-04
          total   stress  (Ry/bohr**3)                   (kbar)     P=   -8.53
  -0.00010228  -0.00000544  -0.00000164        -15.05     -0.80     -0.24
  -0.00000544  -0.00009630  -0.00000097         -0.80    -14.17     -0.14
  -0.00000164  -0.00000097   0.00002471         -0.24     -0.14      3.64

 !ASE

     Writing output data file calc.save

     General routines

     Parallel routines

   This run was terminated on:  15:23:32  19Dec2018

   JOB DONE.
Job  /afs/slac/g/suncat/bin/suncat-tsmpirun -x LD_LIBRARY_PATH -wdir /scratch/qe529921_JEi17 pw.x -in pw.inp

TID   HOST_NAME   COMMAND_LINE            STATUS            TERMINATION_TIME
00000 suncat1052 pw.x -in pw.inp   Done                     12/19/2018 15:23:32
00001 suncat1052 pw.x -in pw.inp   Done                     12/19/2018 15:23:32
00002 suncat1052 pw.x -in pw.inp   Done                     12/19/2018 15:23:32
00003 suncat1052 pw.x -in pw.inp   Done                     12/19/2018 15:23:32
00004 suncat1052 pw.x -in pw.inp   Done                     12/19/2018 15:23:32
00005 suncat1052 pw.x -in pw.inp   Done                     12/19/2018 15:23:32
00006 suncat1052 pw.x -in pw.inp   Done                     12/19/2018 15:23:32
00007 suncat1052 pw.x -in pw.inp   Done                     12/19/2018 15:23:32
00008 suncat1048 pw.x -in pw.inp   Done                     12/19/2018 15:23:32
00009 suncat1048 pw.x -in pw.inp   Done                     12/19/2018 15:23:32
00010 suncat1048 pw.x -in pw.inp   Done                     12/19/2018 15:23:32
00011 suncat1048 pw.x -in pw.inp   Done                     12/19/2018 15:23:32
00012 suncat1048 pw.x -in pw.inp   Done                     12/19/2018 15:23:32
00013 suncat1048 pw.x -in pw.inp   Done                     12/19/2018 15:23:32
00014 suncat1048 pw.x -in pw.inp   Done                     12/19/2018 15:23:32
00015 suncat1048 pw.x -in pw.inp   Done                     12/19/2018 15:23:32
00016 suncat1048 pw.x -in pw.inp   Done                     12/19/2018 15:23:32
00017 suncat1048 pw.x -in pw.inp   Done                     12/19/2018 15:23:32
00018 suncat1048 pw.x -in pw.inp   Done                     12/19/2018 15:23:32
00019 suncat1048 pw.x -in pw.inp   Done                     12/19/2018 15:23:32
00020 suncat1043 pw.x -in pw.inp   Done                     12/19/2018 15:23:32
00021 suncat1043 pw.x -in pw.inp   Done                     12/19/2018 15:23:32
00022 suncat1043 pw.x -in pw.inp   Done                     12/19/2018 15:23:32
00023 suncat1043 pw.x -in pw.inp   Done                     12/19/2018 15:23:32
00024 suncat1043 pw.x -in pw.inp   Done                     12/19/2018 15:23:32
00025 suncat1043 pw.x -in pw.inp   Done                     12/19/2018 15:23:32
00026 suncat1043 pw.x -in pw.inp   Done                     12/19/2018 15:23:32
00027 suncat1043 pw.x -in pw.inp   Done                     12/19/2018 15:23:32
00028 suncat1043 pw.x -in pw.inp   Done                     12/19/2018 15:23:32
00029 suncat1043 pw.x -in pw.inp   Done                     12/19/2018 15:23:32
00030 suncat1043 pw.x -in pw.inp   Done                     12/19/2018 15:23:32
00031 suncat1043 pw.x -in pw.inp   Done                     12/19/2018 15:23:32