     Program PWSCF v.5.1rc2 (svn rev. 11289) starts on 23Dec2018 at 22: 2:11

     Current dimensions of program PWSCF are:
     Max number of different atomic species (ntypx) = 10
     Max number of k-points (npk) =  40000
     Max angular momentum in pseudopotentials (lmaxx) =  3
     Presently stress not available with electric field

     IMPORTANT: XC functional enforced from input :
     Exchange-correlation      = BEEF-VDW ( 1  4 27 13 2)
     Any further DFT definition will be discarded
     Please, verify this is what you really want

     Subspace diagonalization in iterative solution of the eigenvalue problem:
     a serial algorithm will be used

     Found symmetry operation: I + ( -0.5000  0.0000  0.0000)
     This is a supercell, fractional translations are disabled

     bravais-lattice index     =            0
     lattice parameter (alat)  =       1.8897  a.u.
     unit-cell volume          =    5919.6089 (a.u.)^3
     number of atoms/cell      =           12
     number of atomic types    =            2
     number of electrons       =       186.00
     number of Kohn-Sham states=          123
     kinetic-energy cutoff     =      36.7493  Ry
     charge density cutoff     =     367.4932  Ry
     convergence threshold     =      1.0E-06
     mixing beta               =       0.1000
     number of iterations used =           10  plain     mixing
     Exchange-correlation      = BEEF-VDW ( 1  4 27 13 2)
     nstep                     =           50

     celldm(1)=   1.889726  celldm(2)=   0.000000  celldm(3)=   0.000000
     celldm(4)=   0.000000  celldm(5)=   0.000000  celldm(6)=   0.000000

     crystal axes: (cart. coord. in units of alat)
               a(1) = (   6.300396   0.000000   0.000000 )
               a(2) = (  -3.150198   5.529756   0.000000 )
               a(3) = (   0.000000   0.000000  25.178080 )

     reciprocal axes: (cart. coord. in units 2 pi/alat)
               b(1) = (  0.158720  0.090420  0.000000 )
               b(2) = (  0.000000  0.180840  0.000000 )
               b(3) = (  0.000000  0.000000  0.039717 )

     PseudoPot. # 1 for Ga read from file:
     /afs/slac.stanford.edu/u/if/mamunm/psp/gbrv1.5pbe/Ga.UPF
     MD5 check sum: ccd671392a58a050fbb373893b4fcd66
     Pseudo is Ultrasoft + core correction, Zval = 19.0
     Generated by new atomic code, or converted to UPF format
     Using radial grid of  871 points,  6 beta functions with:
                l(1) =   0
                l(2) =   0
                l(3) =   1
                l(4) =   1
                l(5) =   2
                l(6) =   2
     Q(r) pseudized with  8 coefficients,  rinner =    1.250   1.250   1.250
                                                       1.250   1.250

     PseudoPot. # 2 for Cd read from file:
     /afs/slac.stanford.edu/u/if/mamunm/psp/gbrv1.5pbe/Cd.UPF
     MD5 check sum: 17164a7926edb8e0dc231208abae86a6
     Pseudo is Ultrasoft + core correction, Zval = 12.0
     Generated by new atomic code, or converted to UPF format
     Using radial grid of  889 points,  6 beta functions with:
                l(1) =   0
                l(2) =   0
                l(3) =   1
                l(4) =   1
                l(5) =   2
                l(6) =   2
     Q(r) pseudized with  6 coefficients,  rinner =    1.000   1.000   1.000
                                                       1.000   1.000

     vdW kernel table read from file vdW_kernel_table
     MD5 check sum: 095c7af220d748ca6e76c0b4c6cfb241

     atomic species   valence    mass     pseudopotential
        Ga1           19.00    69.72300     Ga( 1.00)
        Cd1           12.00   112.41400     Cd( 1.00)

     No symmetry found

   Cartesian axes

     site n.     atom                  positions (alat units)
         1           Ga1 tau(   1) = (   0.0000000   0.0000000  10.0000000  )
         2           Ga1 tau(   2) = (   3.1501979   0.0000000  10.0000000  )
         3           Cd1 tau(   3) = (   1.5750990   2.7648780  10.0000000  )
         4           Cd1 tau(   4) = (  -1.5750990   2.7648780  10.0000000  )
         5           Ga1 tau(   5) = (   3.1501979   1.7946085  12.5890399  )
         6           Ga1 tau(   6) = (   0.0000000   1.7946085  12.5890399  )
         7           Cd1 tau(   7) = (  -1.5750990   4.5594865  12.5890399  )
         8           Cd1 tau(   8) = (   1.5750990   4.5594865  12.5890399  )
         9           Ga1 tau(   9) = (  -0.0000000   3.5892170  15.1780797  )
        10           Ga1 tau(  10) = (   3.1501979   3.5892170  15.1780797  )
        11           Cd1 tau(  11) = (   4.7252969   0.8243389  15.1780797  )
        12           Cd1 tau(  12) = (   1.5750990   0.8243389  15.1780797  )

     number of k points=    20  Fermi-Dirac smearing, width (Ry)=  0.0110
                       cart. coord. in units 2pi/alat
        k(    1) = (   0.0000000   0.0000000   0.0000000), wk =   0.0555556
        k(    2) = (   0.0000000   0.0301400   0.0000000), wk =   0.1111111
        k(    3) = (   0.0000000   0.0602799   0.0000000), wk =   0.1111111
        k(    4) = (   0.0000000  -0.0904199   0.0000000), wk =   0.0555556
        k(    5) = (   0.0264534   0.0150700   0.0000000), wk =   0.1111111
        k(    6) = (   0.0264534   0.0452100   0.0000000), wk =   0.1111111
        k(    7) = (   0.0264534   0.0753499   0.0000000), wk =   0.1111111
        k(    8) = (   0.0264534  -0.0753499   0.0000000), wk =   0.1111111
        k(    9) = (   0.0264534  -0.0452100   0.0000000), wk =   0.1111111
        k(   10) = (   0.0264534  -0.0150700   0.0000000), wk =   0.1111111
        k(   11) = (   0.0529067   0.0301400   0.0000000), wk =   0.1111111
        k(   12) = (   0.0529067   0.0602799   0.0000000), wk =   0.1111111
        k(   13) = (   0.0529067   0.0904199   0.0000000), wk =   0.1111111
        k(   14) = (   0.0529067  -0.0602799   0.0000000), wk =   0.1111111
        k(   15) = (   0.0529067  -0.0301400   0.0000000), wk =   0.1111111
        k(   16) = (   0.0529067   0.0000000   0.0000000), wk =   0.1111111
        k(   17) = (  -0.0793601  -0.0452100   0.0000000), wk =   0.0555556
        k(   18) = (  -0.0793601  -0.0150700   0.0000000), wk =   0.1111111
        k(   19) = (  -0.0793601   0.0150700   0.0000000), wk =   0.1111111
        k(   20) = (  -0.0793601  -0.1356299   0.0000000), wk =   0.0555556

     Largest allocated arrays     est. size (Mb)     dimensions
     Largest temporary arrays     est. size (Mb)     dimensions

     Initial potential from superposition of free atoms
     Check: negative starting charge=   -0.132708

     starting charge  176.99975, renormalised to  186.00000

     negative rho (up, down):  1.395E-01 0.000E+00

     *
     * You are using vdW-DF for exchange-correlation in this calculation.
     * Please cite the following three references that made this development
     * possible:
     *
     *   M. Dion, H. Rydberg, E. Schroder, D. C. Langreth, and
     *   B. I. Lundqvist, Phys. Rev. Lett. 92, 246401 (2004).
     *
     *   T. Thonhauser, V. R. Cooper, S. Li, A. Puzder, P. Hyldgaard, and
     *   D. C. Langreth, Phys. Rev. B 76, 125112 (2007).
     *
     *   G. Roman-Perez and J. M. Soler, Phys. Rev. Lett. 103, 096102 (2009).
     *
     *
     * If you are using vdW-DF2, please also cite:
     *
     *   K. Lee, E. D. Murray, L. Kong, B. I. Lundqvist, and
     *   D. C. Langreth, Phys. Rev. B 82, 081101(R) (2010).
     *
     *
     * If you are calculating the stress with vdW-DF, please also cite:
     *
     *   R. Sabatini, E. Kucukbenli, B. Kolb, T. Thonhauser, and
     *   S. de Gironcoli, J. Phys.: Condens. Matter 24, 424209 (2012).
     *

     Carrying out vdW-DF run using the following parameters:

     Nqs =      20    Nr_points =    1024   r_max =   100.000
     q_mesh =
               0.00001000     0.04494208     0.09755937     0.15916263
               0.23128650     0.31572767     0.41458969     0.53033537
               0.66584808     0.82450364     1.01025438     1.22772762
               1.48234092     1.78043706     2.12944203     2.53805004
               3.01644009     3.57652955     4.23227104     5.00000000

     Gradients computed in reciprocal space

     Adding external electric field

     Computed dipole along edir(3) :
        Dipole               -0.0000 Ry au,         -0.0000 Debye
        Dipole field         -0.0000 Ry au

        Potential amp.        0.0000 Ry
        Total length         46.3902 bohr

     Starting wfc are  126 randomized atomic wfcs

     Self-consistent Calculation

     iteration #  1     ecut=    36.75 Ry     beta=0.10
     Davidson diagonalization with overlap
     ethr =  1.00E-02,  avg # of iterations =  7.9

[...]

     total energy              =   -3194.06269702 Ry
     Harris-Foulkes estimate   =   -3206.59499614 Ry
     estimated scf accuracy    <      69.71056378 Ry

[...]

     End of self-consistent calculation

          k = 0.0000 0.0000 0.0000 ( 22289 PWs)   bands (ev):

   -94.7314 -94.7313 -94.7313 -94.7313 -94.7174 -94.7173 -94.7173 -94.7172
   -94.7148 -94.7148 -94.7137 -94.7136 -94.7126 -94.7125 -94.7033 -94.7021
   -94.6997 -94.6996 -15.1242 -15.1075 -15.0933 -15.0865 -15.0771 -15.0767
   -15.0754 -15.0730 -15.0704 -15.0671 -15.0658 -15.0624 -15.0529 -15.0470
   -15.0454 -15.0396 -15.0323 -15.0227 -15.0202 -15.0173 -15.0121 -15.0114
   -15.0109 -15.0070 -15.0061 -14.9986 -14.9820 -14.9760 -14.9686 -14.9362
    -9.2345  -9.1555  -9.1513  -9.1402  -9.0947  -9.0772  -9.0236  -8.9631
    -8.9589  -8.8735  -8.8724  -8.8698  -8.8336  -8.7535  -8.7285  -8.7111
    -8.6659  -8.6518  -8.6384  -8.5817  -8.5716  -8.5638  -8.5495  -8.5231
    -8.4927  -8.4906  -8.4890  -8.4328  -8.4266  -8.3473  -8.2052  -7.2530
    -5.2757  -4.3409  -3.9880  -3.0239  -2.9232  -2.9229  -2.6615  -2.3579
    -1.8483  -1.5854  -1.5758  -1.5655  -1.3619  -0.6870  -0.1892   0.1062
     0.1488   0.2671   0.8927   1.3724   1.6841   3.1766   3.1965   3.2518
     3.5558   3.7417   3.9742   4.4668   4.5493   4.6137   4.8408   5.2754
     5.8949   5.9005   6.1667   6.3281   6.4430   6.5759   6.6252   7.0965
     7.2343   7.2398   7.3346

[...]

          k =-0.0794-0.0452 0.0000 ( 22262 PWs)   bands (ev):

[...]

     the Fermi energy is     0.1071 ev

!    total energy              =   -3196.00712912 Ry
     Harris-Foulkes estimate   =   -3196.00712709 Ry
     estimated scf accuracy    <       0.00000098 Ry

     The total energy is the sum of the following terms:

     one-electron contribution =  -16119.79928880 Ry
     hartree contribution      =    8106.91379754 Ry
     xc contribution           =    -542.78042517 Ry
     ewald contribution        =    5359.68737858 Ry
     electric field correction =       0.00000000 Ry
     smearing contrib. (-TS)   =      -0.02859127 Ry

     convergence has been achieved in  14 iterations

 BEEF-vdW xc energy contributions
           1 :   -480.967383331871
           2 :    437.964906809630
           3 :   -365.723809558841
           4 :    285.164095445097
           5 :   -215.112714669266
           6 :    165.303963263007
           7 :   -134.776752745911
           8 :    115.621562277089
           9 :   -99.2085749603343
[...]
          13 :   -36.4032309028818
          14 :    32.4898447245407
          15 :   -31.5933360056277
          16 :    30.2055587169609
          17 :   -26.5698440614806
          18 :    21.4546333730381
          19 :   -17.0709818550473
          20 :    15.1643709038336
          21 :   -15.7434871949881
          22 :    17.2532642716106
          23 :   -17.8661297840773
          24 :    16.8056897588013
          25 :   -14.7363522929832
          26 :    13.0535624235042
          27 :   -12.7353622498638
          28 :    13.6554963959595
          29 :   -14.8102307256710
          30 :    15.1776096206011
          31 :   -38.8807486235215
          32 :   -27.3135354258397

     Forces acting on atoms (Ry/au):

     negative rho (up, down):  1.362E-01 0.000E+00
     atom    1 type  1   force =    -0.00000414   -0.00113427    0.00054882
     atom    2 type  1   force =    -0.00000205   -0.00114238    0.00057728
     atom    3 type  2   force =    -0.00000041   -0.00069341   -0.00589661
     atom    4 type  2   force =    -0.00000245   -0.00069237   -0.00589742
     atom    5 type  1   force =    -0.00001054   -0.00007920   -0.00000117
     atom    6 type  1   force =     0.00000754   -0.00004801   -0.00001717
     atom    7 type  2   force =     0.00001145    0.00001790    0.00004968
     atom    8 type  2   force =    -0.00000891    0.00001621    0.00004520
     atom    9 type  1   force =     0.00000571    0.00118831   -0.00060274
     atom   10 type  1   force =    -0.00000393    0.00114886   -0.00059292
     atom   11 type  2   force =    -0.00000364    0.00070849    0.00589428
     atom   12 type  2   force =     0.00001138    0.00070989    0.00589278

     Total force =     0.012152     Total SCF correction =     0.001227
     SCF correction compared to forces is large: reduce conv_thr to get better values

     entering subroutine stress ...

     negative rho (up, down):  1.362E-01 0.000E+00
          total   stress  (Ry/bohr**3)                   (kbar)     P=   -6.55
  -0.00006902   0.00000000   0.00000000        -10.15      0.00      0.00
   0.00000000  -0.00006050   0.00000534          0.00     -8.90      0.79
   0.00000000   0.00000534  -0.00000400          0.00      0.79     -0.59

 !ASE

     Writing output data file calc.save

     General routines

     Parallel routines

   This run was terminated on:   0:44:32  24Dec2018

   JOB DONE.
Job  /afs/slac/g/suncat/bin/suncat-tsmpirun -x LD_LIBRARY_PATH -wdir /scratch/qe947886_VqsCT pw.x -in pw.inp

TID   HOST_NAME   COMMAND_LINE            STATUS            TERMINATION_TIME
00000 suncat0098 pw.x -in pw.inp   Done                     12/24/2018 00:44:32

     Program PWSCF v.5.1rc2 (svn rev. 11289) starts on 24Dec2018 at  0:44:36

[...]

   This run was terminated on:   6: 0:54  24Dec2018

[...]

     Program PWSCF v.5.1rc2 (svn rev. 11289) starts on 24Dec2018 at  6: 0:58

[...]

     Program PWSCF v.5.1rc2 (svn rev. 11289) starts on 24Dec2018 at  8:49:48

     Current dimensions of program PWSCF are:
     Max number of different atomic species (ntypx) = 10
     Max number of k-points (npk) =  40000
     Max angular momentum in pseudopotentials (lmaxx) =  3
     Presently stress not available with electric field

     IMPORTANT: XC functional enforced from input :
     Exchange-correlation      = BEEF-VDW ( 1  4 27 13 2)
     Any further DFT definition will be discarded
     Please, verify this is what you really want

     Subspace diagonalization in iterative solution of the eigenvalue problem:
     a serial algorithm will be used

     bravais-lattice index     =            0
     lattice parameter (alat)  =       1.8897  a.u.
     unit-cell volume          =    5919.6089 (a.u.)^3
     number of atoms/cell      =           12
     number of atomic types    =            2
     number of electrons       =       186.00
     number of Kohn-Sham states=          123
     kinetic-energy cutoff     =      36.7493  Ry
     charge density cutoff     =     367.4932  Ry
     convergence threshold     =      1.0E-06
     mixing beta               =       0.1000
     number of iterations used =           10  plain     mixing
     Exchange-correlation      = BEEF-VDW ( 1  4 27 13 2)
     nstep                     =           50

     celldm(1)=   1.889726  celldm(2)=   0.000000  celldm(3)=   0.000000
     celldm(4)=   0.000000  celldm(5)=   0.000000  celldm(6)=   0.000000

     crystal axes: (cart. coord. in units of alat)
               a(1) = (   6.300396   0.000000   0.000000 )
               a(2) = (  -3.150198   5.529756   0.000000 )
               a(3) = (   0.000000   0.000000  25.178080 )

     reciprocal axes: (cart. coord. in units 2 pi/alat)
               b(1) = (  0.158720  0.090420  0.000000 )
               b(2) = (  0.000000  0.180840  0.000000 )
               b(3) = (  0.000000  0.000000  0.039717 )

     PseudoPot. # 1 for Ga read from file:
     /afs/slac.stanford.edu/u/if/mamunm/psp/gbrv1.5pbe/Ga.UPF
     MD5 check sum: ccd671392a58a050fbb373893b4fcd66
     Pseudo is Ultrasoft + core correction, Zval = 19.0
     Generated by new atomic code, or converted to UPF format
     Using radial grid of  871 points,  6 beta functions with:
                l(1) =   0
                l(2) =   0
                l(3) =   1
                l(4) =   1
                l(5) =   2
                l(6) =   2
     Q(r) pseudized with  8 coefficients,  rinner =    1.250   1.250   1.250
                                                       1.250   1.250

     PseudoPot. # 2 for Cd read from file:
     /afs/slac.stanford.edu/u/if/mamunm/psp/gbrv1.5pbe/Cd.UPF
     MD5 check sum: 17164a7926edb8e0dc231208abae86a6
     Pseudo is Ultrasoft + core correction, Zval = 12.0
     Generated by new atomic code, or converted to UPF format
     Using radial grid of  889 points,  6 beta functions with:
                l(1) =   0
                l(2) =   0
                l(3) =   1
                l(4) =   1
                l(5) =   2
                l(6) =   2
     Q(r) pseudized with  6 coefficients,  rinner =    1.000   1.000   1.000
                                                       1.000   1.000

     vdW kernel table read from file vdW_kernel_table
     MD5 check sum: 095c7af220d748ca6e76c0b4c6cfb241

     atomic species   valence    mass     pseudopotential
        Ga1           19.00    69.72300     Ga( 1.00)
        Cd1           12.00   112.41400     Cd( 1.00)

     No symmetry found

   Cartesian axes

     site n.     atom                  positions (alat units)
         1           Ga1 tau(   1) = (   0.0000000   0.0000000  10.0000000  )
         2           Ga1 tau(   2) = (   3.1501979   0.0000000  10.0000000  )
         3           Cd1 tau(   3) = (   1.5750990   2.7648780  10.0000000  )
         4           Cd1 tau(   4) = (  -1.5750990   2.7648780  10.0000000  )
         5           Ga1 tau(   5) = (   3.1501979   1.7946085  12.5890399  )
         6           Ga1 tau(   6) = (   0.0000000   1.7946085  12.5890399  )
         7           Cd1 tau(   7) = (  -1.5750990   4.5594865  12.5890399  )
         8           Cd1 tau(   8) = (   1.5750990   4.5594865  12.5890399  )
         9           Ga1 tau(   9) = (   0.0001477   3.6199568  15.1624877  )
        10           Ga1 tau(  10) = (   3.1500963   3.6189363  15.1627417  )
        11           Cd1 tau(  11) = (   4.7252027   0.8426666  15.3305563  )
        12           Cd1 tau(  12) = (   1.5753934   0.8427028  15.3305175  )

     number of k points=    20  Fermi-Dirac smearing, width (Ry)=  0.0110
                       cart. coord. in units 2pi/alat
        k(    1) = (   0.0000000   0.0000000   0.0000000), wk =   0.0555556
        k(    2) = (   0.0000000   0.0301400   0.0000000), wk =   0.1111111
        k(    3) = (   0.0000000   0.0602799   0.0000000), wk =   0.1111111
        k(    4) = (   0.0000000  -0.0904199   0.0000000), wk =   0.0555556
        k(    5) = (   0.0264534   0.0150700   0.0000000), wk =   0.1111111
        k(    6) = (   0.0264534   0.0452100   0.0000000), wk =   0.1111111
        k(    7) = (   0.0264534   0.0753499   0.0000000), wk =   0.1111111
        k(    8) = (   0.0264534  -0.0753499   0.0000000), wk =   0.1111111
        k(    9) = (   0.0264534  -0.0452100   0.0000000), wk =   0.1111111
        k(   10) = (   0.0264534  -0.0150700   0.0000000), wk =   0.1111111
        k(   11) = (   0.0529067   0.0301400   0.0000000), wk =   0.1111111
        k(   12) = (   0.0529067   0.0602799   0.0000000), wk =   0.1111111
        k(   13) = (   0.0529067   0.0904199   0.0000000), wk =   0.1111111
        k(   14) = (   0.0529067  -0.0602799   0.0000000), wk =   0.1111111
        k(   15) = (   0.0529067  -0.0301400   0.0000000), wk =   0.1111111
        k(   16) = (   0.0529067   0.0000000   0.0000000), wk =   0.1111111
        k(   17) = (  -0.0793601  -0.0452100   0.0000000), wk =   0.0555556
        k(   18) = (  -0.0793601  -0.0150700   0.0000000), wk =   0.1111111
        k(   19) = (  -0.0793601   0.0150700   0.0000000), wk =   0.1111111
        k(   20) = (  -0.0793601  -0.1356299   0.0000000), wk =   0.0555556

     Largest allocated arrays     est. size (Mb)     dimensions
     Largest temporary arrays     est. size (Mb)     dimensions

     Initial potential from superposition of free atoms
     Check: negative starting charge=   -0.132161

     starting charge  176.99975, renormalised to  186.00000

[...]

     *
     * You are using vdW-DF for exchange-correlation in this calculation.
     * Please cite the following three references that made this development
     * possible:
     *
     *   M. Dion, H. Rydberg, E. Schroder, D. C. Langreth, and
     *   B. I. Lundqvist, Phys. Rev. Lett. 92, 246401 (2004).
     *
     *   T. Thonhauser, V. R. Cooper, S. Li, A. Puzder, P. Hyldgaard, and
     *   D. C. Langreth, Phys. Rev. B 76, 125112 (2007).
     *
     *   G. Roman-Perez and J. M. Soler, Phys. Rev. Lett. 103, 096102 (2009).
     *
     *
     * If you are using vdW-DF2, please also cite:
     *
     *   K. Lee, E. D. Murray, L. Kong, B. I. Lundqvist, and
     *   D. C. Langreth, Phys. Rev. B 82, 081101(R) (2010).
     *
     *
     * If you are calculating the stress with vdW-DF, please also cite:
     *
     *   R. Sabatini, E. Kucukbenli, B. Kolb, T. Thonhauser, and
     *   S. de Gironcoli, J. Phys.: Condens. Matter 24, 424209 (2012).
     *

     Carrying out vdW-DF run using the following parameters:

     Nqs =      20    Nr_points =    1024   r_max =   100.000
     q_mesh =
               0.00001000     0.04494208     0.09755937     0.15916263
               0.23128650     0.31572767     0.41458969     0.53033537
               0.66584808     0.82450364     1.01025438     1.22772762
               1.48234092     1.78043706     2.12944203     2.53805004
               3.01644009     3.57652955     4.23227104     5.00000000

     Gradients computed in reciprocal space

[...]

     Starting wfc are  126 randomized atomic wfcs

     Self-consistent Calculation

[...]

     total energy              =   -3196.00883447 Ry
     Harris-Foulkes estimate   =   -3196.00883419 Ry
     estimated scf accuracy    <       0.00000152 Ry

     iteration # 15     ecut=    36.75 Ry     beta=0.10
     Davidson diagonalization with overlap
     ethr =  8.15E-10,  avg # of iterations =  3.5

[...]

     negative rho (up, down):  1.356E-01 0.000E+00

     Adding external electric field

     Computed dipole along edir(3) :
        Dipole                0.0079 Ry au,          0.0200 Debye
        Dipole field          0.0000 Ry au

        Potential amp.       -0.0015 Ry
        Total length         46.3902 bohr

     End of self-consistent calculation

[...]

          k = 0.0529 0.0000 0.0000 ( 22287 PWs)   bands (ev):

[...]

          k =-0.0794-0.1356 0.0000 ( 22262 PWs)   bands (ev):

   -94.7217 -94.7215 -94.7177 -94.7175 -94.7071 -94.7071 -94.7061 -94.7061
   -94.7042 -94.7040 -94.7025 -94.7023 -94.6978 -94.6977 -94.6864 -94.6864
   -94.6850 -94.6849 -15.0734 -15.0734 -15.0532 -15.0531 -15.0400 -15.0400
   -15.0386 -15.0386 -15.0330 -15.0330 -15.0308 -15.0307 -15.0294 -15.0294
   -15.0270 -15.0269 -15.0254 -15.0254 -15.0243 -15.0243 -15.0196 -15.0196
   -15.0149 -15.0149 -15.0047 -15.0045 -14.9924 -14.9924 -14.9725 -14.9724
    -8.9747  -8.9747  -8.9494  -8.9494  -8.8906  -8.8904  -8.8674  -8.8674
    -8.7823  -8.7822  -8.7221  -8.7220  -8.6970  -8.6970  -8.6831  -8.6831
    -8.6776  -8.6775  -8.6619  -8.6615  -8.6518  -8.6516  -8.6358  -8.6357
    -8.5816  -8.5816  -8.5687  -8.5686  -8.4904  -8.4904  -7.2847  -7.2845
    -6.0551  -6.0550  -4.8152  -4.8147  -3.6076  -3.6069  -2.6556  -2.6551
    -1.2086  -1.2082  -0.0206  -0.0202   0.6968   0.6971   1.0369   1.0373
     1.8616   1.8619   2.0348   2.0350   2.6729   2.6732   3.1391   3.1400
     3.4100   3.4104   4.1069   4.1076   4.4245   4.4246   4.7359   4.7361
     4.9450   4.9454   5.0937   5.0938   5.6854   5.6859   5.7410   5.7416
     6.0659   6.0659   6.6576

     the Fermi energy is     0.1187 ev

!    total energy              =   -3196.00883820 Ry
     Harris-Foulkes estimate   =   -3196.00883487 Ry
     estimated scf accuracy    <       0.00000028 Ry

     The total energy is the sum of the following terms:

     one-electron contribution =  -16017.54928940 Ry
     hartree contribution      =    8055.90975972 Ry
     xc contribution           =    -542.74777043 Ry
     ewald contribution        =    5308.40726952 Ry
     electric field correction =       0.00000013 Ry
     smearing contrib. (-TS)   =      -0.02880774 Ry

     convergence has been achieved in  15 iterations

 BEEF-vdW xc energy contributions
           1 :   -480.930248989282
           2 :    437.896096215897
           3 :   -365.619211883640
           4 :    285.052162698508
           5 :   -215.033134704077
           6 :    165.277915209826
           7 :   -134.792161233490
           8 :    115.643697314443
           9 :   -99.2063609121948
          10 :    81.0606092833319
          11 :   -62.1294296706512
          12 :    46.2389752449902
          13 :   -36.4075600520373
          14 :    32.5125215491336
          15 :   -31.6094310823044
          16 :    30.1977379124309
          17 :   -26.5423015260119
          18 :    21.4289692013160
          19 :   -17.0678183301352
          20 :    15.1859705027999
          21 :   -15.7719644467252
          22 :    17.2663882105164
          23 :   -17.8576841799389
          24 :    16.7926611197911
          25 :   -14.7458300422308
          26 :    13.0988276269217
          27 :   -12.7994336197602
          28 :    13.6951793952154
          29 :   -14.7793288221359
          30 :    15.0549655361844
          31 :   -38.8770378736838
          32 :   -27.3018902283378

     Forces acting on atoms (Ry/au):

     negative rho (up, down):  1.356E-01 0.000E+00
     atom    1 type  1   force =    -0.00000027   -0.00147687    0.00054784
     atom    2 type  1   force =    -0.00000045   -0.00146959    0.00057414
     atom    3 type  2   force =     0.00000028   -0.00055487   -0.00569456
     atom    4 type  2   force =    -0.00000082   -0.00055452   -0.00569318
     atom    5 type  1   force =     0.00000248   -0.00149346    0.00300567
     atom    6 type  1   force =    -0.00000094   -0.00146206    0.00301969
     atom    7 type  2   force =    -0.00000163    0.00277319    0.00235558
     atom    8 type  2   force =    -0.00000018    0.00277413    0.00234413
     atom    9 type  1   force =    -0.00000649    0.00039481   -0.00041172
     atom   10 type  1   force =     0.00000683    0.00049239   -0.00040547
     atom   11 type  2   force =     0.00004852    0.00029435    0.00017344
     atom   12 type  2   force =    -0.00004733    0.00028249    0.00018444

     Total force =     0.010970     Total SCF correction =     0.001607
     SCF correction compared to forces is large: reduce conv_thr to get better values

     entering subroutine stress ...

     negative rho (up, down):  1.356E-01 0.000E+00
          total   stress  (Ry/bohr**3)                   (kbar)     P=   -6.85
  -0.00006843  -0.00000000  -0.00000000        -10.07     -0.00     -0.00
  -0.00000000  -0.00006130   0.00000354         -0.00     -9.02      0.52
  -0.00000000   0.00000354  -0.00000991         -0.00      0.52     -1.46

 !ASE

     Writing output data file calc.save

     General routines

     Parallel routines

   This run was terminated on:  11:37:23  24Dec2018

   JOB DONE.
Job  /afs/slac/g/suncat/bin/suncat-tsmpirun -x LD_LIBRARY_PATH -wdir /scratch/qe947886_VqsCT pw.x -in pw.inp

TID   HOST_NAME   COMMAND_LINE            STATUS            TERMINATION_TIME
00000 suncat0098 pw.x -in pw.inp   Done                     12/24/2018 11:37:23