     Program PWSCF v.5.1rc2 (svn rev. 11289) starts on 29Dec2018 at 22:40:44

     Current dimensions of program PWSCF are:
     Max number of different atomic species (ntypx) = 10
     Max number of k-points (npk) =  40000
     Max angular momentum in pseudopotentials (lmaxx) =  3
     Presently stress not available with electric field

     IMPORTANT: XC functional enforced from input :
     Exchange-correlation      = BEEF-VDW ( 1  4 27 13 2)
     Any further DFT definition will be discarded
     Please, verify this is what you really want

     Subspace diagonalization in iterative solution of the eigenvalue problem:
     a serial algorithm will be used

     Found symmetry operation: I + ( -0.5000 -0.5000  0.0000)
     This is a supercell, fractional translations are disabled

     bravais-lattice index     =            0
     lattice parameter (alat)  =       1.8897  a.u.
     unit-cell volume          =    4495.6429 (a.u.)^3
     number of atoms/cell      =           12
     number of atomic types    =            2
     number of electrons       =       162.00
     number of Kohn-Sham states=          111
     kinetic-energy cutoff     =      36.7493  Ry
     charge density cutoff     =     367.4932  Ry
     convergence threshold     =      1.0E-06
     mixing beta               =       0.1000
     number of iterations used =           10  plain     mixing
     Exchange-correlation      = BEEF-VDW ( 1  4 27 13 2)
     nstep                     =           50

     celldm(1)=   1.889726  celldm(2)=   0.000000  celldm(3)=   0.000000
     celldm(4)=   0.000000  celldm(5)=   0.000000  celldm(6)=   0.000000

     crystal axes: (cart. coord. in units of alat)
               a(1) = (   5.381968   0.000000   0.000000 )
               a(2) = (   1.793994   5.074166   0.000000 )
               a(3) = (   0.000000   0.000000  24.394360 )

     reciprocal axes: (cart. coord. in units 2 pi/alat)
               b(1) = (  0.185806 -0.065692  0.000000 )
               b(2) = (  0.000000  0.197077  0.000000 )
               b(3) = (  0.000000  0.000000  0.040993 )

     PseudoPot. # 1 for Ti read from file:
     /afs/slac.stanford.edu/u/if/mamunm/psp/gbrv1.5pbe/Ti.UPF
     MD5 check sum: 88a00a6731bd790ddea75d31a80cb452
     Pseudo is Ultrasoft + core correction, Zval = 12.0
     Generated by new atomic code, or converted to UPF format
     Using radial grid of  851 points,  6 beta functions with:
                l(1) =   0
                l(2) =   0
                l(3) =   1
                l(4) =   1
                l(5) =   2
                l(6) =   2
     Q(r) pseudized with  6 coefficients,  rinner =    1.000   1.000   1.000
                                                       1.000   1.000

     PseudoPot. # 2 for Tc read from file:
     /afs/slac.stanford.edu/u/if/mamunm/psp/gbrv1.5pbe/Tc.UPF
     MD5 check sum: 9eb49e5b028550b2339a02317eb7b844
     Pseudo is Ultrasoft + core correction, Zval = 15.0
     Generated by new atomic code, or converted to UPF format
     Using radial grid of  965 points,  6 beta functions with:
                l(1) =   0
                l(2) =   0
                l(3) =   1
                l(4) =   1
                l(5) =   2
                l(6) =   2
     Q(r) pseudized with  8 coefficients,  rinner =    1.300   1.300   1.300
                                                       1.300   1.300

     vdW kernel table read from file vdW_kernel_table
     MD5 check sum: 095c7af220d748ca6e76c0b4c6cfb241

     atomic species   valence    mass     pseudopotential
        Ti1           12.00    47.86700     Ti( 1.00)
        Tc1           15.00    97.90721     Tc( 1.00)

     No symmetry found

   Cartesian axes

     site n.     atom                  positions (alat units)
         1           Ti1 tau(   1) = (   0.0000000   0.0000000  10.0000000  )
         2           Ti1 tau(   2) = (   3.5879808   2.5370831  10.0000000  )
         3           Tc1 tau(   3) = (   2.6909839   0.0000000  10.0000000  )
         4           Tc1 tau(   4) = (   0.8969970   2.5370831  10.0000000  )
         5           Ti1 tau(   5) = (   5.3819677   3.8056222  12.1971798  )
         6           Ti1 tau(   6) = (   1.7939869   1.2685391  12.1971798  )
         7           Tc1 tau(   7) = (   2.6909839   3.8056222  12.1971798  )
         8           Tc1 tau(   8) = (   4.4849708   1.2685391  12.1971798  )
         9           Ti1 tau(   9) = (   3.5879738   2.5370782  14.3943597  )
        10           Ti1 tau(  10) = (   7.1759547   5.0741613  14.3943597  )
        11           Tc1 tau(  11) = (   6.2789577   2.5370782  14.3943597  )
        12           Tc1 tau(  12) = (   4.4849708   5.0741613  14.3943597  )

     number of k points=    20  Fermi-Dirac smearing, width (Ry)=  0.0110
                       cart. coord. in units 2pi/alat
        k(    1) = (   0.0000000   0.0000000   0.0000000), wk =   0.0555556
        k(    2) = (   0.0000000   0.0328461   0.0000000), wk =   0.1111111
        k(    3) = (   0.0000000   0.0656922   0.0000000), wk =   0.1111111
        k(    4) = (   0.0000000  -0.0985384   0.0000000), wk =   0.0555556
        k(    5) = (   0.0309676  -0.0109487   0.0000000), wk =   0.1111111
        k(    6) = (   0.0309676   0.0218974   0.0000000), wk =   0.1111111
        k(    7) = (   0.0309676   0.0547435   0.0000000), wk =   0.1111111
        k(    8) = (   0.0309676  -0.1094871   0.0000000), wk =   0.1111111
        k(    9) = (   0.0309676  -0.0766410   0.0000000), wk =   0.1111111
        k(   10) = (   0.0309676  -0.0437949   0.0000000), wk =   0.1111111
        k(   11) = (   0.0619352  -0.0218975   0.0000000), wk =   0.1111111
        k(   12) = (   0.0619352   0.0109486   0.0000000), wk =   0.1111111
        k(   13) = (   0.0619352   0.0437948   0.0000000), wk =   0.1111111
        k(   14) = (   0.0619352  -0.1204358   0.0000000), wk =   0.1111111
        k(   15) = (   0.0619352  -0.0875897   0.0000000), wk =   0.1111111
        k(   16) = (   0.0619352  -0.0547436   0.0000000), wk =   0.1111111
        k(   17) = (  -0.0929028   0.0328462   0.0000000), wk =   0.0555556
        k(   18) = (  -0.0929028   0.0656923   0.0000000), wk =   0.1111111
        k(   19) = (  -0.0929028   0.0985384   0.0000000), wk =   0.1111111
        k(   20) = (  -0.0929028  -0.0656922   0.0000000), wk =   0.0555556

     Largest allocated arrays     est. size (Mb)     dimensions
     Largest temporary arrays     est. size (Mb)     dimensions

     Check: negative/imaginary core charge=   -0.000016    0.000000

     Initial potential from superposition of free atoms
     Check: negative starting charge=   -0.768556

     starting charge  149.99957, renormalised to  162.00000

     negative rho (up, down):  8.300E-01 0.000E+00

     *
     * You are using vdW-DF for exchange-correlation in this calculation.
     * Please cite the following three references that made this development
     * possible:
     *
     *   M. Dion, H. Rydberg, E. Schroder, D. C. Langreth, and
     *   B. I. Lundqvist, Phys. Rev. Lett. 92, 246401 (2004).
     *
     *   T. Thonhauser, V. R. Cooper, S. Li, A. Puzder, P. Hyldgaard, and
     *   D. C. Langreth, Phys. Rev. B 76, 125112 (2007).
     *
     *   G. Roman-Perez and J. M. Soler, Phys. Rev. Lett. 103, 096102 (2009).
     *
     *
     * If you are using vdW-DF2, please also cite:
     *
     *   K. Lee, E. D. Murray, L. Kong, B. I. Lundqvist, and
     *   D. C. Langreth, Phys. Rev. B 82, 081101(R) (2010).
     *
     *
     * If you are calculating the stress with vdW-DF, please also cite:
     *
     *   R. Sabatini, E. Kucukbenli, B. Kolb, T. Thonhauser, and
     *   S. de Gironcoli, J. Phys.: Condens. Matter 24, 424209 (2012).
     *

     Carrying out vdW-DF run using the following parameters:

     Nqs =      20    Nr_points =    1024   r_max =   100.000
     q_mesh =
               0.00001000     0.04494208     0.09755937     0.15916263
               0.23128650     0.31572767     0.41458969     0.53033537
               0.66584808     0.82450364     1.01025438     1.22772762
               1.48234092     1.78043706     2.12944203     2.53805004
               3.01644009     3.57652955     4.23227104     5.00000000

     Gradients computed in reciprocal space

     Adding external electric field

     Computed dipole along edir(3) :
        Dipole                0.0000 Ry au,          0.0000 Debye
        Dipole field          0.0000 Ry au

        Potential amp.       -0.0000 Ry
        Total length         44.9462 bohr

     Starting wfc are  138 randomized atomic wfcs

     Self-consistent Calculation

     iteration #  1     ecut=    36.75 Ry     beta=0.10
     Davidson diagonalization with overlap
     ethr =  1.00E-02,  avg # of iterations =  4.8

[...]

     total energy              =   -1772.36914496 Ry
     Harris-Foulkes estimate   =   -1776.80631545 Ry
     estimated scf accuracy    <      26.29652545 Ry

[...]

     iteration #  7     ecut=    36.75 Ry     beta=0.10
     Davidson diagonalization with overlap
     c_bands:  2 eigenvalues not converged
     ethr =  4.15E-05,  avg # of iterations =  7.0

[...]

     End of self-consistent calculation

          k = 0.0000 0.0000 0.0000 ( 16939 PWs)   bands (ev):

   -65.0453 -65.0296 -64.8148 -64.8144 -64.8001 -64.7999 -55.4660 -55.4654
   -55.4488 -55.4485 -55.1892 -55.1727 -37.1699 -37.1258 -37.1243 -37.1145
   -37.1100 -36.9624 -36.9558 -36.9457 -36.8843 -36.8776 -36.8669 -36.8627
   -36.8452 -36.8450 -36.8384 -36.8100 -36.7463 -36.7460 -31.7770 -31.7603
   -31.7590 -31.7500 -31.7118 -31.6957 -31.6058 -31.6043 -31.5951 -31.5926
   -31.5498 -31.5452 -31.4560 -31.3917 -31.3842 -31.3835 -31.3765 -31.2989
    -4.2128  -2.7500  -2.3607  -2.2066  -2.1381  -2.0953  -1.9684  -1.9314
    -1.8494  -1.7451  -1.4594  -1.3442  -0.7917  -0.5371  -0.5345  -0.4356
    -0.4184  -0.3831  -0.3594  -0.2938  -0.1289   0.0284   0.2601   0.5772
     0.6057   0.8395   0.9284   1.3523   1.6094   1.6633   1.6708   1.7265
     1.9568   2.4964   2.6206   2.7369   3.0108   3.1770   3.4269   3.4353
     3.4650   3.5261   3.5359   3.5545   3.5615   3.6691   3.7463   3.7805
     3.8341   3.8726   3.8864   3.9135   3.9747   4.0075   4.0438   4.2063
     4.3148   4.4005   4.5969   4.6216   4.8517   4.9892   5.1241

[...]

          k =-0.0929 0.0328 0.0000 ( 16954 PWs)   bands (ev):

[...]

     the Fermi energy is     1.5735 ev

!    total energy              =   -1771.29078241 Ry
     Harris-Foulkes estimate   =   -1771.29077702 Ry
     estimated scf accuracy    <       0.00000083 Ry

     The total energy is the sum of the following terms:

     one-electron contribution =  -14591.45207872 Ry
     hartree contribution      =    7288.30107308 Ry
     xc contribution           =    -311.21762187 Ry
     ewald contribution        =    5843.16014914 Ry
     electric field correction =       0.00000006 Ry
     smearing contrib. (-TS)   =      -0.08230409 Ry

     convergence has been achieved in  20 iterations

 BEEF-vdW xc energy contributions
           1 :   -270.921091893333
           2 :    246.654038680507
           3 :   -204.806542437461
           4 :    155.645654307240
[...]
     /afs/slac.stanford.edu/u/if/mamunm/psp/gbrv1.5pbe/Ti.UPF
     MD5 check sum: 88a00a6731bd790ddea75d31a80cb452
     Pseudo is Ultrasoft + core correction, Zval = 12.0
     Generated by new atomic code, or converted to UPF format
     Using radial grid of  851 points,  6 beta functions with:
                l(1) =   0
                l(2) =   0
                l(3) =   1
                l(4) =   1
                l(5) =   2
                l(6) =   2
     Q(r) pseudized with  6 coefficients,  rinner =    1.000   1.000   1.000
                                                       1.000   1.000

     PseudoPot. # 2 for Tc read from file:
     /afs/slac.stanford.edu/u/if/mamunm/psp/gbrv1.5pbe/Tc.UPF
     MD5 check sum: 9eb49e5b028550b2339a02317eb7b844
     Pseudo is Ultrasoft + core correction, Zval = 15.0
     Generated by new atomic code, or converted to UPF format
     Using radial grid of  965 points,  6 beta functions with:
                l(1) =   0
                l(2) =   0
                l(3) =   1
                l(4) =   1
                l(5) =   2
                l(6) =   2
     Q(r) pseudized with  8 coefficients,  rinner =    1.300   1.300   1.300
                                                       1.300   1.300

     vdW kernel table read from file vdW_kernel_table
     MD5 check sum: 095c7af220d748ca6e76c0b4c6cfb241

     atomic species   valence    mass     pseudopotential
        Ti1           12.00    47.86700     Ti( 1.00)
        Tc1           15.00    97.90721     Tc( 1.00)

     No symmetry found

   Cartesian axes

     site n.     atom                  positions (alat units)
         1           Ti1 tau(   1) = (   0.0000000   0.0000000  10.0000000  )
         2           Ti1 tau(   2) = (   3.5879808   2.5370831  10.0000000  )
         3           Tc1 tau(   3) = (   2.6909839   0.0000000  10.0000000  )
         4           Tc1 tau(   4) = (   0.8969970   2.5370831  10.0000000  )
         5           Ti1 tau(   5) = (   5.3819677   3.8056222  12.1971798  )
         6           Ti1 tau(   6) = (   1.7939869   1.2685391  12.1971798  )
         7           Tc1 tau(   7) = (   2.6909839   3.8056222  12.1971798  )
         8           Tc1 tau(   8) = (   4.4849708   1.2685391  12.1971798  )
         9           Ti1 tau(   9) = (   3.5879754   2.5370810  14.3207484  )
        10           Ti1 tau(  10) = (   7.1759596   5.0741632  14.3207444  )
        11           Tc1 tau(  11) = (   6.2789603   2.5370818  14.3558585  )
        12           Tc1 tau(  12) = (   4.4849697   5.0741558  14.3558648  )

     number of k points=    20  Fermi-Dirac smearing, width (Ry)=  0.0110
                       cart. coord. in units 2pi/alat
        k(    1) = (   0.0000000   0.0000000   0.0000000), wk =   0.0555556
        k(    2) = (   0.0000000   0.0328461   0.0000000), wk =   0.1111111
        k(    3) = (   0.0000000   0.0656922   0.0000000), wk =   0.1111111
        k(    4) = (   0.0000000  -0.0985384   0.0000000), wk =   0.0555556
        k(    5) = (   0.0309676  -0.0109487   0.0000000), wk =   0.1111111
        k(    6) = (   0.0309676   0.0218974   0.0000000), wk =   0.1111111
        k(    7) = (   0.0309676   0.0547435   0.0000000), wk =   0.1111111
        k(    8) = (   0.0309676  -0.1094871   0.0000000), wk =   0.1111111
        k(    9) = (   0.0309676  -0.0766410   0.0000000), wk =   0.1111111
        k(   10) = (   0.0309676  -0.0437949   0.0000000), wk =   0.1111111
        k(   11) = (   0.0619352  -0.0218975   0.0000000), wk =   0.1111111
        k(   12) = (   0.0619352   0.0109486   0.0000000), wk =   0.1111111
        k(   13) = (   0.0619352   0.0437948   0.0000000), wk =   0.1111111
        k(   14) = (   0.0619352  -0.1204358   0.0000000), wk =   0.1111111
        k(   15) = (   0.0619352  -0.0875897   0.0000000), wk =   0.1111111
        k(   16) = (   0.0619352  -0.0547436   0.0000000), wk =   0.1111111
        k(   17) = (  -0.0929028   0.0328462   0.0000000), wk =   0.0555556
        k(   18) = (  -0.0929028   0.0656923   0.0000000), wk =   0.1111111
        k(   19) = (  -0.0929028   0.0985384   0.0000000), wk =   0.1111111
        k(   20) = (  -0.0929028  -0.0656922   0.0000000), wk =   0.0555556

     Largest allocated arrays     est. size (Mb)     dimensions
     Largest temporary arrays     est. size (Mb)     dimensions

     Check: negative/imaginary core charge=   -0.000016    0.000000

     Initial potential from superposition of free atoms
     Check: negative starting charge=   -0.764641

     starting charge  149.99957, renormalised to  162.00000

[...]

     *
     * You are using vdW-DF for exchange-correlation in this calculation.
     * Please cite the following three references that made this development
     * possible:
     *
     *   M. Dion, H. Rydberg, E. Schroder, D. C. Langreth, and
     *   B. I. Lundqvist, Phys. Rev. Lett. 92, 246401 (2004).
     *
     *   T. Thonhauser, V. R. Cooper, S. Li, A. Puzder, P. Hyldgaard, and
     *   D. C. Langreth, Phys. Rev. B 76, 125112 (2007).
     *
     *   G. Roman-Perez and J. M. Soler, Phys. Rev. Lett. 103, 096102 (2009).
     *
     *
     * If you are using vdW-DF2, please also cite:
     *
     *   K. Lee, E. D. Murray, L. Kong, B. I. Lundqvist, and
     *   D. C. Langreth, Phys. Rev. B 82, 081101(R) (2010).
     *
     *
     * If you are calculating the stress with vdW-DF, please also cite:
     *
     *   R. Sabatini, E. Kucukbenli, B. Kolb, T. Thonhauser, and
     *   S. de Gironcoli, J. Phys.: Condens. Matter 24, 424209 (2012).
     *

     Carrying out vdW-DF run using the following parameters:

     Nqs =      20    Nr_points =    1024   r_max =   100.000
     q_mesh =
               0.00001000     0.04494208     0.09755937     0.15916263
               0.23128650     0.31572767     0.41458969     0.53033537
               0.66584808     0.82450364     1.01025438     1.22772762
               1.48234092     1.78043706     2.12944203     2.53805004
               3.01644009     3.57652955     4.23227104     5.00000000

     Gradients computed in reciprocal space

[...]

     Starting wfc are  138 randomized atomic wfcs

     Self-consistent Calculation

[...]

     total energy              =   -1771.29318530 Ry
     Harris-Foulkes estimate   =   -1771.29318371 Ry
     estimated scf accuracy    <       0.00000205 Ry

     iteration # 20     ecut=    36.75 Ry     beta=0.10
     Davidson diagonalization with overlap
     ethr =  1.26E-09,  avg # of iterations =  1.8

[...]

     negative rho (up, down):  7.901E-01 0.000E+00

     Adding external electric field

     Computed dipole along edir(3) :
        Dipole                0.0063 Ry au,          0.0159 Debye
        Dipole field          0.0000 Ry au

        Potential amp.       -0.0016 Ry
        Total length         44.9462 bohr

     End of self-consistent calculation

[...]

          k = 0.0619-0.0547 0.0000 ( 16901 PWs)   bands (ev):

[...]

          k =-0.0929-0.0657 0.0000 ( 16924 PWs)   bands (ev):

   -65.0486 -65.0343 -64.8115 -64.8041 -64.7969 -64.7893 -55.4766 -55.4586
   -55.4214 -55.4036 -55.1633 -55.1438 -37.1669 -37.1356 -37.1135 -37.1116
   -37.0869 -36.9704 -36.9305 -36.9187 -36.8930 -36.8725 -36.8534 -36.8456
   -36.8328 -36.8169 -36.8127 -36.8001 -36.7386 -36.7354 -31.7950 -31.7737
   -31.7489 -31.7206 -31.7064 -31.6966 -31.6632 -31.6437 -31.6206 -31.6035
   -31.5651 -31.5180 -31.4603 -31.4053 -31.3853 -31.3496 -31.3477 -31.2811
    -2.5038  -2.2009  -1.6166  -1.5792  -1.4168  -1.2941  -1.2078  -1.1582
    -0.9355  -0.8399  -0.7235  -0.6768  -0.6657  -0.3368  -0.3097  -0.2955
     0.0020   0.0929   0.1224   0.3227   0.3911   0.3913   0.5156   0.6919
     0.7103   0.8436   1.0676   1.0743   1.1453   1.1971   1.2803   1.3170
     1.4201   1.4921   1.5500   1.5920   1.6742   1.6987   1.8211   1.8929
     2.2227   2.3597   2.5580   2.7299   2.7509   2.9067   2.9354   3.0398
     3.0883   3.1154   3.2937   3.3171   3.4987   3.5635   3.6508   3.6691
     3.7473   4.0439   4.2239   4.4848   4.6723   4.7427   4.7686

     the Fermi energy is     1.5719 ev

!    total energy              =   -1771.29319146 Ry
     Harris-Foulkes estimate   =   -1771.29318536 Ry
     estimated scf accuracy    <       0.00000026 Ry

     The total energy is the sum of the following terms:

     one-electron contribution =  -14702.72472138 Ry
     hartree contribution      =    7343.97467421 Ry
     xc contribution           =    -311.32742793 Ry
     ewald contribution        =    5898.86546471 Ry
     electric field correction =       0.00000011 Ry
     smearing contrib. (-TS)   =      -0.08118119 Ry

     convergence has been achieved in  20 iterations

 BEEF-vdW xc energy contributions
           1 :   -271.032666335053
           2 :    246.801924256009
           3 :   -204.995262314063
           4 :    155.841642740261
           5 :   -109.111465175633
           6 :    70.9132711120791
           7 :   -42.7609433270882
           8 :    22.7265492622811
           9 :   -7.65651269709031
          10 :   -4.90138960516998
          11 :    15.8021724146405
          12 :   -24.5446610981109
          13 :    30.1313243665334
          14 :   -31.9335071243662
          15 :    30.0922076433606
          16 :   -25.4176166992946
          17 :    19.0170133324334
          18 :   -11.9824050470655
          19 :    5.26209473121895
          20 :   0.340665706801246
          21 :   -4.20420740194936
          22 :    6.00431257484541
          23 :   -5.83527476253903
          24 :    4.20096892170790
          25 :   -1.83555431275789
          26 :  -0.575251621425934
          27 :    2.61255011119340
          28 :   -4.16437257671885
          29 :    5.27573650111776
          30 :   -5.93096408315586
          31 :   -26.7816459815194
          32 :   -19.4204159182237

     Forces acting on atoms (Ry/au):

     negative rho (up, down):  7.901E-01 0.000E+00
     atom    1 type  1   force =    -0.00000025    0.00000007    0.01178930
     atom    2 type  1   force =     0.00000043    0.00000013    0.01178965
     atom    3 type  2   force =    -0.00000100    0.00000092    0.00689865
     atom    4 type  2   force =     0.00000208   -0.00000007    0.00689629
     atom    5 type  1   force =    -0.00000158    0.00000105   -0.00799423
     atom    6 type  1   force =     0.00000158   -0.00000114   -0.00799328
     atom    7 type  2   force =    -0.00000169    0.00000039   -0.01102841
     atom    8 type  2   force =     0.00000172   -0.00000048   -0.01102703
     atom    9 type  1   force =    -0.00000039   -0.00000075    0.00127634
     atom   10 type  1   force =    -0.00000054   -0.00000029    0.00127740
     atom   11 type  2   force =    -0.00000097   -0.00000066   -0.00094239
     atom   12 type  2   force =     0.00000061    0.00000083   -0.00094229

     Total force =     0.027371     Total SCF correction =     0.001425

     entering subroutine stress ...

     negative rho (up, down):  7.901E-01 0.000E+00
          total   stress  (Ry/bohr**3)                   (kbar)     P=  -19.59
  -0.00018700  -0.00002487   0.00000000        -27.51     -3.66      0.00
  -0.00002487  -0.00016941   0.00000000         -3.66    -24.92      0.00
   0.00000000   0.00000000  -0.00004309          0.00      0.00     -6.34

 !ASE

     Writing output data file calc.save

     General routines

     Parallel routines

   This run was terminated on:  23:35:22  29Dec2018

   JOB DONE.
Job  /afs/slac/g/suncat/bin/suncat-tsmpirun -x LD_LIBRARY_PATH -wdir /scratch/qe387738_cRp84 pw.x -in pw.inp

TID   HOST_NAME   COMMAND_LINE            STATUS            TERMINATION_TIME
00000 suncat0083 pw.x -in pw.inp   Done                     12/29/2018 23:35:22
00001 suncat0083 pw.x -in pw.inp   Done                     12/29/2018 23:35:22
00002 suncat0083 pw.x -in pw.inp   Done                     12/29/2018 23:35:22
00003 suncat0083 pw.x -in pw.inp   Done                     12/29/2018 23:35:22
00004 suncat0083 pw.x -in pw.inp   Done                     12/29/2018 23:35:22
00005 suncat0083 pw.x -in pw.inp   Done                     12/29/2018 23:35:22
00006 suncat0083 pw.x -in pw.inp   Done                     12/29/2018 23:35:22
00007 suncat0083 pw.x -in pw.inp   Done                     12/29/2018 23:35:22
00008 suncat0066 pw.x -in pw.inp   Done                     12/29/2018 23:35:22
00009 suncat0066 pw.x -in pw.inp   Done                     12/29/2018 23:35:22
00010 suncat0066 pw.x -in pw.inp   Done                     12/29/2018 23:35:22
00011 suncat0066 pw.x -in pw.inp   Done                     12/29/2018 23:35:22
00012 suncat0066 pw.x -in pw.inp   Done                     12/29/2018 23:35:22
00013 suncat0066 pw.x -in pw.inp   Done                     12/29/2018 23:35:22
00014 suncat0066 pw.x -in pw.inp   Done                     12/29/2018 23:35:22
00015 suncat0066 pw.x -in pw.inp   Done                     12/29/2018 23:35:22
00016 suncat0061 pw.x -in pw.inp   Done                     12/29/2018 23:35:22
00017 suncat0061 pw.x -in pw.inp   Done                     12/29/2018 23:35:22
00018 suncat0061 pw.x -in pw.inp   Done                     12/29/2018 23:35:22
00019 suncat0061 pw.x -in pw.inp   Done                     12/29/2018 23:35:22
00020 suncat0061 pw.x -in pw.inp   Done                     12/29/2018 23:35:22
00021 suncat0061 pw.x -in pw.inp   Done                     12/29/2018 23:35:22
00022 suncat0061 pw.x -in pw.inp   Done                     12/29/2018 23:35:22
00023 suncat0061 pw.x -in pw.inp   Done                     12/29/2018 23:35:22
00024 suncat0057 pw.x -in pw.inp   Done                     12/29/2018 23:35:22
00025 suncat0057 pw.x -in pw.inp   Done                     12/29/2018 23:35:22
00026 suncat0057 pw.x -in pw.inp   Done                     12/29/2018 23:35:22
00027 suncat0057 pw.x -in pw.inp   Done                     12/29/2018 23:35:22
00028 suncat0057 pw.x -in pw.inp   Done                     12/29/2018 23:35:22
00029 suncat0057 pw.x -in pw.inp   Done                     12/29/2018 23:35:22
00030 suncat0057 pw.x -in pw.inp   Done                     12/29/2018 23:35:22
00031 suncat0057 pw.x -in pw.inp   Done                     12/29/2018 23:35:22
00032 suncat0106 pw.x -in pw.inp   Done                     12/29/2018 23:35:22
00033 suncat0106 pw.x -in pw.inp   Done                     12/29/2018 23:35:22
00034 suncat0106 pw.x -in pw.inp   Done                     12/29/2018 23:35:22
00035 suncat0106 pw.x -in pw.inp   Done                     12/29/2018 23:35:22
00036 suncat0106 pw.x -in pw.inp   Done                     12/29/2018 23:35:22
00037 suncat0106 pw.x -in pw.inp   Done                     12/29/2018 23:35:22
00038 suncat0106 pw.x -in pw.inp   Done                     12/29/2018 23:35:22
00039 suncat0106 pw.x -in pw.inp   Done                     12/29/2018 23:35:22
00040 suncat0105 pw.x -in pw.inp   Done                     12/29/2018 23:35:22
00041 suncat0105 pw.x -in pw.inp   Done                     12/29/2018 23:35:22
00042 suncat0105 pw.x -in pw.inp   Done                     12/29/2018 23:35:22
00043 suncat0105 pw.x -in pw.inp   Done                     12/29/2018 23:35:22
00044 suncat0105 pw.x -in pw.inp   Done                     12/29/2018 23:35:22
00045 suncat0105 pw.x -in pw.inp   Done                     12/29/2018 23:35:22
00046 suncat0105 pw.x -in pw.inp   Done                     12/29/2018 23:35:22
00047 suncat0105 pw.x -in pw.inp   Done                     12/29/2018 23:35:22
00048 suncat0277 pw.x -in pw.inp   Done                     12/29/2018 23:35:22
00049 suncat0277 pw.x -in pw.inp   Done                     12/29/2018 23:35:22
00050 suncat0277 pw.x -in pw.inp   Done                     12/29/2018 23:35:22
00051 suncat0277 pw.x -in pw.inp   Done                     12/29/2018 23:35:22
00052 suncat0277 pw.x -in pw.inp   Done                     12/29/2018 23:35:22
00053 suncat0277 pw.x -in pw.inp   Done                     12/29/2018 23:35:22
00054 suncat0277 pw.x -in pw.inp   Done                     12/29/2018 23:35:22
00055 suncat0277 pw.x -in pw.inp   Done                     12/29/2018 23:35:22
00056 suncat0276 pw.x -in pw.inp   Done                     12/29/2018 23:35:22
00057 suncat0276 pw.x -in pw.inp   Done                     12/29/2018 23:35:22
00058 suncat0276 pw.x -in pw.inp   Done                     12/29/2018 23:35:22
00059 suncat0276 pw.x -in pw.inp   Done                     12/29/2018 23:35:22
00060 suncat0276 pw.x -in pw.inp   Done                     12/29/2018 23:35:22
00061 suncat0276 pw.x -in pw.inp   Done                     12/29/2018 23:35:22
00062 suncat0276 pw.x -in pw.inp   Done                     12/29/2018 23:35:22
00063 suncat0276 pw.x -in pw.inp   Done                     12/29/2018 23:35:22