     Program PWSCF v.5.1rc2 (svn rev. 11289) starts on 18Dec2018 at 16:49:51

     Current dimensions of program PWSCF are:
     Max number of different atomic species (ntypx) = 10
     Max number of k-points (npk) =  40000
     Max angular momentum in pseudopotentials (lmaxx) =  3
     Presently stress not available with electric field

     IMPORTANT: XC functional enforced from input :
     Exchange-correlation      = BEEF-VDW ( 1  4 27 13 2)
     Any further DFT definition will be discarded
     Please, verify this is what you really want

     Subspace diagonalization in iterative solution of the eigenvalue problem:
     a serial algorithm will be used

     Found symmetry operation: I + ( -0.5000 -0.5000  0.0000)
     This is a supercell, fractional translations are disabled

     bravais-lattice index     =            0
     lattice parameter (alat)  =       1.8897  a.u.
     unit-cell volume          =    6853.0298 (a.u.)^3
     number of atoms/cell      =           12
     number of atomic types    =            2
     number of electrons       =        84.00
     number of Kohn-Sham states=           72
     kinetic-energy cutoff     =      36.7493  Ry
     charge density cutoff     =     367.4932  Ry
     convergence threshold     =      1.0E-06
     mixing beta               =       0.1000
     number of iterations used =           10  plain     mixing
     Exchange-correlation      = BEEF-VDW ( 1  4 27 13 2)
     nstep                     =           50

     celldm(1)=   1.889726  celldm(2)=   0.000000  celldm(3)=   0.000000
     celldm(4)=   0.000000  celldm(5)=   0.000000  celldm(6)=   0.000000

     crystal axes: (cart. coord. in units of alat)
               a(1) = (   6.557051   0.000000   0.000000 )
               a(2) = (   2.416568   6.095500   0.000000 )
               a(3) = (   0.000000   0.000000  25.407861 )

     reciprocal axes: (cart. coord. in units 2 pi/alat)
               b(1) = (  0.152508 -0.060462  0.000000 )
               b(2) = (  0.000000  0.164055  0.000000 )
               b(3) = (  0.000000  0.000000  0.039358 )

     PseudoPot. # 1 for Al read from file:
     /afs/slac.stanford.edu/u/if/mamunm/psp/gbrv1.5pbe/Al.UPF
     MD5 check sum: 0a6289f5291fc8f409219462bc851e1f
     Pseudo is Ultrasoft + core correction, Zval =  3.0
     Generated by new atomic code, or converted to UPF format
     Using radial grid of  893 points,  3 beta functions with:
                l(1) =   0
                l(2) =   1
                l(3) =   2
     Q(r) pseudized with  8 coefficients,  rinner =    0.900   0.900   0.900
                                                       0.900   0.900

     PseudoPot. # 2 for La read from file:
     /afs/slac.stanford.edu/u/if/mamunm/psp/gbrv1.5pbe/La.UPF
     MD5 check sum: 5937b0c7494ba0601a847275249473aa
     Pseudo is Ultrasoft + core correction, Zval = 11.0
     Generated by new atomic code, or converted to UPF format
     Using radial grid of  995 points,  8 beta functions with:
                l(1) =   0
                l(2) =   0
                l(3) =   1
                l(4) =   1
                l(5) =   2
                l(6) =   2
                l(7) =   3
                l(8) =   3
     Q(r) pseudized with  8 coefficients,  rinner =    1.700   1.700   1.700
                                                       1.700   1.700   1.700
                                                       1.700

     vdW kernel table read from file vdW_kernel_table
     MD5 check sum: 095c7af220d748ca6e76c0b4c6cfb241

     atomic species   valence    mass     pseudopotential
        Al1            3.00    26.98154     Al( 1.00)
        La1           11.00   138.90547     La( 1.00)

     No symmetry found

   Cartesian axes

     site n.     atom                  positions (alat units)
         1           Al1 tau(   1) = (   0.0000000   0.0000000  10.0000000  )
         2           Al1 tau(   2) = (   4.4868099   3.0477500  10.0000000  )
         3           La1 tau(   3) = (   3.2785257   0.0000000  10.0000000  )
         4           La1 tau(   4) = (   1.2082842   3.0477500  10.0000000  )
         5           Al1 tau(   5) = (   6.5570514   4.4540004  12.7039304  )
         6           Al1 tau(   6) = (   2.0702414   1.4062504  12.7039304  )
         7           La1 tau(   7) = (   3.2785257   4.4540004  12.7039304  )
         8           La1 tau(   8) = (   5.3487671   1.4062504  12.7039304  )
         9           Al1 tau(   9) = (   4.1404829   2.8125008  15.4078608  )
        10           Al1 tau(  10) = (   8.6272928   5.8602508  15.4078608  )
        11           La1 tau(  11) = (   7.4190085   2.8125008  15.4078608  )
        12           La1 tau(  12) = (   5.3487671   5.8602508  15.4078608  )

     number of k points=    20  Fermi-Dirac smearing, width (Ry)=  0.0110
                       cart. coord. in units 2pi/alat
        k(    1) = (   0.0000000   0.0000000   0.0000000), wk =   0.0555556
        k(    2) = (   0.0000000   0.0273426   0.0000000), wk =   0.1111111
        k(    3) = (   0.0000000   0.0546852   0.0000000), wk =   0.1111111
        k(    4) = (   0.0000000  -0.0820277   0.0000000), wk =   0.0555556
        k(    5) = (   0.0254179  -0.0100770   0.0000000), wk =   0.1111111
        k(    6) = (   0.0254179   0.0172656   0.0000000), wk =   0.1111111
        k(    7) = (   0.0254179   0.0446082   0.0000000), wk =   0.1111111
        k(    8) = (   0.0254179  -0.0921047   0.0000000), wk =   0.1111111
        k(    9) = (   0.0254179  -0.0647621   0.0000000), wk =   0.1111111
        k(   10) = (   0.0254179  -0.0374195   0.0000000), wk =   0.1111111
        k(   11) = (   0.0508359  -0.0201539   0.0000000), wk =   0.1111111
        k(   12) = (   0.0508359   0.0071886   0.0000000), wk =   0.1111111
        k(   13) = (   0.0508359   0.0345312   0.0000000), wk =   0.1111111
        k(   14) = (   0.0508359  -0.1021817   0.0000000), wk =   0.1111111
        k(   15) = (   0.0508359  -0.0748391   0.0000000), wk =   0.1111111
        k(   16) = (   0.0508359  -0.0474965   0.0000000), wk =   0.1111111
        k(   17) = (  -0.0762538   0.0302309   0.0000000), wk =   0.0555556
        k(   18) = (  -0.0762538   0.0575735   0.0000000), wk =   0.1111111
        k(   19) = (  -0.0762538   0.0849161   0.0000000), wk =   0.1111111
        k(   20) = (  -0.0762538  -0.0517968   0.0000000), wk =   0.0555556

     Largest allocated arrays     est. size (Mb)     dimensions
     Largest temporary arrays     est. size (Mb)     dimensions

     Initial potential from superposition of free atoms
     Check: negative starting charge=   -0.421200

     starting charge   83.79280, renormalised to   84.00000

     negative rho (up, down):  4.222E-01 0.000E+00

     *
     * You are using vdW-DF for exchange-correlation in this calculation.
     * Please cite the following three references that made this development
     * possible:
     *
     *   M. Dion, H. Rydberg, E. Schroder, D. C. Langreth, and
     *   B. I. Lundqvist, Phys. Rev. Lett. 92, 246401 (2004).
     *
     *   T. Thonhauser, V. R. Cooper, S. Li, A. Puzder, P. Hyldgaard, and
     *   D. C. Langreth, Phys. Rev. B 76, 125112 (2007).
     *
     *   G. Roman-Perez and J. M. Soler, Phys. Rev. Lett. 103, 096102 (2009).
     *
     *
     * If you are using vdW-DF2, please also cite:
     *
     *   K. Lee, E. D. Murray, L. Kong, B. I. Lundqvist, and
     *   D. C. Langreth, Phys. Rev. B 82, 081101(R) (2010).
     *
     *
     * If you are calculating the stress with vdW-DF, please also cite:
     *
     *   R. Sabatini, E. Kucukbenli, B. Kolb, T. Thonhauser, and
     *   S. de Gironcoli, J. Phys.: Condens. Matter 24, 424209 (2012).
     *

     Carrying out vdW-DF run using the following parameters:

     Nqs =      20    Nr_points =    1024   r_max =   100.000
     q_mesh =
               0.00001000     0.04494208     0.09755937     0.15916263
               0.23128650     0.31572767     0.41458969     0.53033537
               0.66584808     0.82450364     1.01025438     1.22772762
               1.48234092     1.78043706     2.12944203     2.53805004
               3.01644009     3.57652955     4.23227104     5.00000000

     Gradients computed in reciprocal space

     Adding external electric field

     Computed dipole along edir(3) :
        Dipole               -0.0000 Ry au,         -0.0000 Debye
        Dipole field         -0.0000 Ry au

        Potential amp.        0.0000 Ry
        Total length         46.8136 bohr

     Starting wfc are  144 randomized atomic wfcs

     Self-consistent Calculation

     iteration #  1     ecut=    36.75 Ry     beta=0.10
     Davidson diagonalization with overlap
     ethr =  1.00E-02,  avg # of iterations =  2.0

[...]

     total energy              =    -665.27748585 Ry
     Harris-Foulkes estimate   =    -665.92656055 Ry
     estimated scf accuracy    <       3.66131096 Ry

[...]

     iteration #  9     ecut=    36.75 Ry     beta=0.10
     Davidson diagonalization with overlap
     c_bands:  1 eigenvalues not converged
     c_bands:  2 eigenvalues not converged
     c_bands:  1 eigenvalues not converged
     ethr =  1.59E-05,  avg # of iterations =  9.8

[...]

     End of self-consistent calculation

          k = 0.0000 0.0000 0.0000 ( 25723 PWs)   bands (ev):

   -32.5072 -32.5036 -32.4281 -32.4279 -32.0644 -31.9884 -16.4733 -16.4712
   -16.3227 -16.2438 -16.2173 -16.1627 -16.1531 -16.1047 -16.1038 -16.0904
   -16.0092 -15.7006 -15.6483 -15.6417 -15.6288 -15.5504 -15.4863 -15.2830
    -5.4195  -4.4640  -4.1173  -3.9325  -3.6379  -3.3733  -0.5500  -0.5338
    -0.4562  -0.4354  -0.3964   0.0338   0.1865   0.2644   0.3134   0.3404
     0.7269   1.0213   1.1263   1.2048   1.2088   1.2469   1.3303   1.4274
     1.5580   1.5984   2.0309   2.1175   2.2159   2.2317   2.2532   2.2648
     2.2670   2.2684   2.2753   2.3163   2.3543   2.3797   2.3974   2.4044
     2.4462   2.4539   2.4802   2.5014   2.5154   2.5167   2.5218   2.5251

[...]

          k =-0.0763 0.0302 0.0000 ( 25740 PWs)   bands (ev):

[...]

     the Fermi energy is     0.7671 ev

!    total energy              =    -665.48749765 Ry
     Harris-Foulkes estimate   =    -665.48751392 Ry
     estimated scf accuracy    <       0.00000064 Ry

     The total energy is the sum of the following terms:

     one-electron contribution =   -2406.81547745 Ry
     hartree contribution      =    1210.98495324 Ry
     xc contribution           =    -330.64703025 Ry
     ewald contribution        =     861.06614664 Ry
     electric field correction =       0.00000000 Ry
     smearing contrib. (-TS)   =      -0.07608983 Ry

     convergence has been achieved in  17 iterations

 BEEF-vdW xc energy contributions
           1 :   -291.303976286725
           2 :    266.614841796887
           3 :   -223.654025665099
           4 :    172.413114848188
           5 :   -122.687158767528
           6 :    81.3343653659779
           7 :   -51.4042983114061
           8 :    32.7543003747854
           9 :   -23.2781895144824
          10 :    20.0205533732563
          11 :   -19.9007093132690
          12 :    20.1528438250633
          13 :   -18.7151107768522
[...]

[...]

   This run was terminated on:  18: 9:49  18Dec2018

[...]

   This run was terminated on:  19:59: 7  18Dec2018

[...]

   This run was terminated on:  20:20: 7  18Dec2018

[...]

     Program PWSCF v.5.1rc2 (svn rev. 11289) starts on 18Dec2018 at 20:42: 4

[...]

   This run was terminated on:  21: 3:12  18Dec2018

[...]

     Program PWSCF v.5.1rc2 (svn rev. 11289) starts on 18Dec2018 at 21: 3:18

[...]

     Program PWSCF v.5.1rc2 (svn rev. 11289) starts on 18Dec2018 at 21:42:43

[...]

     Total force =     0.028947     Total SCF correction =     0.002024

[...]

   This run was terminated on:  22: 4: 1  18Dec2018

[...]

     Program PWSCF v.5.1rc2 (svn rev. 11289) starts on 18Dec2018 at 22: 4: 7

     Current dimensions of program PWSCF are:
     Max number of different atomic species (ntypx) = 10
     Max number of k-points (npk) =  40000
     Max angular momentum in pseudopotentials (lmaxx) =  3
     Presently stress not available with electric field

     IMPORTANT: XC functional enforced from input :
     Exchange-correlation      = BEEF-VDW ( 1  4 27 13 2)
     Any further DFT definition will be discarded
     Please, verify this is what you really want

     Subspace diagonalization in iterative solution of the eigenvalue problem:
     a serial algorithm will be used

     bravais-lattice index     =            0
     lattice parameter (alat)  =       1.8897  a.u.
     unit-cell volume          =    6853.0298 (a.u.)^3
     number of atoms/cell      =           12
     number of atomic types    =            2
     number of electrons       =        84.00
     number of Kohn-Sham states=           72
     kinetic-energy cutoff     =      36.7493  Ry
     charge density cutoff     =     367.4932  Ry
     convergence threshold     =      1.0E-06
     mixing beta               =       0.1000
     number of iterations used =           10  plain     mixing
     Exchange-correlation      = BEEF-VDW ( 1  4 27 13 2)
     nstep                     =           50

     celldm(1)=   1.889726  celldm(2)=   0.000000  celldm(3)=   0.000000
     celldm(4)=   0.000000  celldm(5)=   0.000000  celldm(6)=   0.000000

     crystal axes: (cart. coord. in units of alat)
               a(1) = (   6.557051   0.000000   0.000000 )
               a(2) = (   2.416568   6.095500   0.000000 )
               a(3) = (   0.000000   0.000000  25.407861 )

     reciprocal axes: (cart. coord. in units 2 pi/alat)
               b(1) = (  0.152508 -0.060462  0.000000 )
               b(2) = (  0.000000  0.164055  0.000000 )
               b(3) = (  0.000000  0.000000  0.039358 )

     PseudoPot. # 1 for Al read from file:
     /afs/slac.stanford.edu/u/if/mamunm/psp/gbrv1.5pbe/Al.UPF
     MD5 check sum: 0a6289f5291fc8f409219462bc851e1f
     Pseudo is Ultrasoft + core correction, Zval =  3.0
     Generated by new atomic code, or converted to UPF format
     Using radial grid of  893 points,  3 beta functions with:
                l(1) =   0
                l(2) =   1
                l(3) =   2
     Q(r) pseudized with  8 coefficients,  rinner =    0.900   0.900   0.900
                                                       0.900   0.900

     PseudoPot. # 2 for La read from file:
     /afs/slac.stanford.edu/u/if/mamunm/psp/gbrv1.5pbe/La.UPF
     MD5 check sum: 5937b0c7494ba0601a847275249473aa
     Pseudo is Ultrasoft + core correction, Zval = 11.0
     Generated by new atomic code, or converted to UPF format
     Using radial grid of  995 points,  8 beta functions with:
                l(1) =   0
                l(2) =   0
                l(3) =   1
                l(4) =   1
                l(5) =   2
                l(6) =   2
                l(7) =   3
                l(8) =   3
     Q(r) pseudized with  8 coefficients,  rinner =    1.700   1.700   1.700
                                                       1.700   1.700   1.700
                                                       1.700

     vdW kernel table read from file vdW_kernel_table
     MD5 check sum: 095c7af220d748ca6e76c0b4c6cfb241

     atomic species   valence    mass     pseudopotential
        Al1            3.00    26.98154     Al( 1.00)
        La1           11.00   138.90547     La( 1.00)

     No symmetry found

   Cartesian axes

     site n.     atom                  positions (alat units)
         1           Al1 tau(   1) = (   0.0000000   0.0000000  10.0000000  )
         2           Al1 tau(   2) = (   4.4868099   3.0477500  10.0000000  )
         3           La1 tau(   3) = (   3.2785257   0.0000000  10.0000000  )
         4           La1 tau(   4) = (   1.2082842   3.0477500  10.0000000  )
         5           Al1 tau(   5) = (   6.5570514   4.4540004  12.7039304  )
         6           Al1 tau(   6) = (   2.0702414   1.4062504  12.7039304  )
         7           La1 tau(   7) = (   3.2785257   4.4540004  12.7039304  )
         8           La1 tau(   8) = (   5.3487671   1.4062504  12.7039304  )
         9           Al1 tau(   9) = (   3.5316566   2.3990389  15.1710480  )
        10           Al1 tau(  10) = (   8.0197980   5.4475690  15.1712534  )
        11           La1 tau(  11) = (   6.9163552   2.4698404  15.3654531  )
        12           La1 tau(  12) = (   4.8450689   5.5193223  15.3653882  )

     number of k points=    20  Fermi-Dirac smearing, width (Ry)=  0.0110
                       cart. coord. in units 2pi/alat
        k(    1) = (   0.0000000   0.0000000   0.0000000), wk =   0.0555556
        k(    2) = (   0.0000000   0.0273426   0.0000000), wk =   0.1111111
        k(    3) = (   0.0000000   0.0546852   0.0000000), wk =   0.1111111
        k(    4) = (   0.0000000  -0.0820277   0.0000000), wk =   0.0555556
        k(    5) = (   0.0254179  -0.0100770   0.0000000), wk =   0.1111111
        k(    6) = (   0.0254179   0.0172656   0.0000000), wk =   0.1111111
        k(    7) = (   0.0254179   0.0446082   0.0000000), wk =   0.1111111
        k(    8) = (   0.0254179  -0.0921047   0.0000000), wk =   0.1111111
        k(    9) = (   0.0254179  -0.0647621   0.0000000), wk =   0.1111111
        k(   10) = (   0.0254179  -0.0374195   0.0000000), wk =   0.1111111
        k(   11) = (   0.0508359  -0.0201539   0.0000000), wk =   0.1111111
        k(   12) = (   0.0508359   0.0071886   0.0000000), wk =   0.1111111
        k(   13) = (   0.0508359   0.0345312   0.0000000), wk =   0.1111111
        k(   14) = (   0.0508359  -0.1021817   0.0000000), wk =   0.1111111
        k(   15) = (   0.0508359  -0.0748391   0.0000000), wk =   0.1111111
        k(   16) = (   0.0508359  -0.0474965   0.0000000), wk =   0.1111111
        k(   17) = (  -0.0762538   0.0302309   0.0000000), wk =   0.0555556
        k(   18) = (  -0.0762538   0.0575735   0.0000000), wk =   0.1111111
        k(   19) = (  -0.0762538   0.0849161   0.0000000), wk =   0.1111111
        k(   20) = (  -0.0762538  -0.0517968   0.0000000), wk =   0.0555556

     Largest allocated arrays     est. size (Mb)     dimensions
     Largest temporary arrays     est. size (Mb)     dimensions

     Initial potential from superposition of free atoms
     Check: negative starting charge=   -0.420038

     starting charge   83.79280, renormalised to   84.00000

[...]

     *
     * You are using vdW-DF for exchange-correlation in this calculation.
     * Please cite the following three references that made this development
     * possible:
     *
     *   M. Dion, H. Rydberg, E. Schroder, D. C. Langreth, and
     *   B. I. Lundqvist, Phys. Rev. Lett. 92, 246401 (2004).
     *
     *   T. Thonhauser, V. R. Cooper, S. Li, A. Puzder, P. Hyldgaard, and
     *   D. C. Langreth, Phys. Rev. B 76, 125112 (2007).
     *
     *   G. Roman-Perez and J. M. Soler, Phys. Rev. Lett. 103, 096102 (2009).
     *
     *
     * If you are using vdW-DF2, please also cite:
     *
     *   K. Lee, E. D. Murray, L. Kong, B. I. Lundqvist, and
     *   D. C. Langreth, Phys. Rev. B 82, 081101(R) (2010).
     *
     *
     * If you are calculating the stress with vdW-DF, please also cite:
     *
     *   R. Sabatini, E. Kucukbenli, B. Kolb, T. Thonhauser, and
     *   S. de Gironcoli, J. Phys.: Condens. Matter 24, 424209 (2012).
     *

     Carrying out vdW-DF run using the following parameters:

     Nqs =      20    Nr_points =    1024   r_max =   100.000
     q_mesh =
               0.00001000     0.04494208     0.09755937     0.15916263
               0.23128650     0.31572767     0.41458969     0.53033537
               0.66584808     0.82450364     1.01025438     1.22772762
               1.48234092     1.78043706     2.12944203     2.53805004
               3.01644009     3.57652955     4.23227104     5.00000000

     Gradients computed in reciprocal space

[...]

     Starting wfc are  144 randomized atomic wfcs

     Self-consistent Calculation

[...]

     iteration # 12     ecut=    36.75 Ry     beta=0.10
     Davidson diagonalization with overlap
     c_bands:  1 eigenvalues not converged
     c_bands:  1 eigenvalues not converged
     ethr =  7.72E-07,  avg # of iterations =  7.4

[...]

     total energy              =    -665.50108603 Ry
     Harris-Foulkes estimate   =    -665.50108933 Ry
     estimated scf accuracy    <       0.00000160 Ry

     iteration # 19     ecut=    36.75 Ry     beta=0.10
     Davidson diagonalization with overlap
     ethr =  1.91E-09,  avg # of iterations =  3.6

[...]

     negative rho (up, down):  2.789E-01 0.000E+00

     Adding external electric field

     Computed dipole along edir(3) :
        Dipole                0.0605 Ry au,          0.1537 Debye
        Dipole field          0.0001 Ry au

        Potential amp.       -0.0104 Ry
        Total length         46.8136 bohr

     End of self-consistent calculation

[...]

          k = 0.0508-0.0475 0.0000 ( 25774 PWs)   bands (ev):

[...]

          k =-0.0763-0.0518 0.0000 ( 25814 PWs)   bands (ev):

   -32.5205 -32.4524 -32.4469 -32.3785 -31.9240 -31.8443 -16.6215 -16.4873
   -16.4658 -16.4295 -16.2104 -16.1596 -16.1061 -16.0581 -15.9866 -15.9856
   -15.9540 -15.6368 -15.5888 -15.5380 -15.4395 -15.3556 -15.2743 -15.1300
    -4.3718  -3.9003  -3.5274  -3.2114  -3.0874  -1.9139  -1.8137  -1.8057
    -1.4495  -1.3089  -1.3007  -0.9198  -0.7986  -0.7390  -0.5623   0.1962
     0.2838   0.3142   0.8525   1.1660   1.4201   1.5234   1.5349   1.8812
     1.9245   1.9679   2.1057   2.1482   2.1727   2.1900   2.2161   2.2384
     2.2659   2.2799   2.3272   2.3552   2.4180   2.4221   2.4478   2.4513
     2.4542   2.4677   2.4768   2.5190   2.5231   2.5561   2.5611   2.5635

     the Fermi energy is     0.7840 ev

!    total energy              =    -665.50107502 Ry
     Harris-Foulkes estimate   =    -665.50108639 Ry
     estimated scf accuracy    <       0.00000088 Ry

     The total energy is the sum of the following terms:

     one-electron contribution =   -2438.98666796 Ry
     hartree contribution      =    1227.31073895 Ry
     xc contribution           =    -330.79212332 Ry
     ewald contribution        =     877.03244207 Ry
     electric field correction =       0.00000670 Ry
     smearing contrib. (-TS)   =      -0.06547146 Ry

     convergence has been achieved in  19 iterations

 BEEF-vdW xc energy contributions
           1 :   -291.444687635747
           2 :    266.793408075874
           3 :   -223.881273383023
           4 :    172.663307552856
           5 :   -122.908810354776
           6 :    81.4778042519695
           7 :   -51.4572023170434
           8 :    32.7617369203214
           9 :   -23.3217552809755
          10 :    20.1628218329078
          11 :   -20.1381551633629
          12 :    20.4166532334659
          13 :   -18.9174408412263
          14 :    14.7006610543206
          15 :   -8.11524104971511
          16 :   0.514632250365651
          17 :    6.38005909020666
          18 :   -11.1517143597944
          19 :    13.0919028885673
          20 :   -12.2684547727720
          21 :    9.37853317765473
          22 :   -5.52787516592480
          23 :    1.96909110886088
          24 :   0.226237335222777
          25 :  -0.521577907415804
          26 :  -0.867088831353328
          27 :    3.06513162049373
          28 :   -4.96060434704560
          29 :    5.74083702140126
          30 :   -5.23791891865829
          31 :   -26.1131155696086
          32 :   -18.7663914157991

     Forces acting on atoms (Ry/au):

     negative rho (up, down):  2.789E-01 0.000E+00
     atom    1 type  1   force =     0.00359824    0.00244360   -0.00286619
     atom    2 type  1   force =     0.00358723    0.00243743   -0.00286393
     atom    3 type  2   force =    -0.00283886   -0.00192535   -0.00733938
     atom    4 type  2   force =    -0.00283315   -0.00192719   -0.00733719
     atom    5 type  1   force =     0.00369311    0.00250447    0.01693392
     atom    6 type  1   force =     0.00363098    0.00247130    0.01688267
     atom    7 type  2   force =    -0.00418185   -0.00282377   -0.00712310
     atom    8 type  2   force =    -0.00416822   -0.00284498   -0.00712280
     atom    9 type  1   force =    -0.00053321   -0.00036208   -0.00007635
     atom   10 type  1   force =    -0.00089480   -0.00061546   -0.00002933
     atom   11 type  2   force =     0.00034017    0.00052289    0.00047130
     atom   12 type  2   force =     0.00060037    0.00011915    0.00047037

     Total force =     0.030847     Total SCF correction =     0.003386
     SCF correction compared to forces is large: reduce conv_thr to get better values

     entering subroutine stress ...

     negative rho (up, down):  2.789E-01 0.000E+00
          total   stress  (Ry/bohr**3)                   (kbar)     P=   -0.99
  -0.00001724   0.00000052  -0.00000143         -2.54      0.08     -0.21
   0.00000052  -0.00001766  -0.00000097          0.08     -2.60     -0.14
  -0.00000143  -0.00000097   0.00001470         -0.21     -0.14      2.16

 !ASE

     Writing output data file calc.save

     General routines

     Parallel routines

   This run was terminated on:  22:24:51  18Dec2018

   JOB DONE.
Job  /afs/slac/g/suncat/bin/suncat-tsmpirun -x LD_LIBRARY_PATH -wdir /scratch/qe529590_7d1y1 pw.x -in pw.inp

TID   HOST_NAME   COMMAND_LINE            STATUS            TERMINATION_TIME
00000 suncat0086 pw.x -in pw.inp   Done                     12/18/2018 22:24:51
00001 suncat0086 pw.x -in pw.inp   Done                     12/18/2018 22:24:51
00002 suncat0086 pw.x -in pw.inp   Done                     12/18/2018 22:24:51
00003 suncat0086 pw.x -in pw.inp   Done                     12/18/2018 22:24:51
00004 suncat0086 pw.x -in pw.inp   Done                     12/18/2018 22:24:51
00005 suncat0086 pw.x -in pw.inp   Done                     12/18/2018 22:24:51
00006 suncat0086 pw.x -in pw.inp   Done                     12/18/2018 22:24:51
00007 suncat0086 pw.x -in pw.inp   Done                     12/18/2018 22:24:51
00008 suncat0085 pw.x -in pw.inp   Done                     12/18/2018 22:24:51
00009 suncat0085 pw.x -in pw.inp   Done                     12/18/2018 22:24:51
00010 suncat0085 pw.x -in pw.inp   Done                     12/18/2018 22:24:51
00011 suncat0085 pw.x -in pw.inp   Done                     12/18/2018 22:24:51
00012 suncat0085 pw.x -in pw.inp   Done                     12/18/2018 22:24:51
00013 suncat0085 pw.x -in pw.inp   Done                     12/18/2018 22:24:51
00014 suncat0085 pw.x -in pw.inp   Done                     12/18/2018 22:24:51
00015 suncat0085 pw.x -in pw.inp   Done                     12/18/2018 22:24:51
00016 suncat0084 pw.x -in pw.inp   Done                     12/18/2018 22:24:51
00017 suncat0084 pw.x -in pw.inp   Done                     12/18/2018 22:24:51
00018 suncat0084 pw.x -in pw.inp   Done                     12/18/2018 22:24:51
00019 suncat0084 pw.x -in pw.inp   Done                     12/18/2018 22:24:51
00020 suncat0084 pw.x -in pw.inp   Done                     12/18/2018 22:24:51
00021 suncat0084 pw.x -in pw.inp   Done                     12/18/2018 22:24:51
00022 suncat0084 pw.x -in pw.inp   Done                     12/18/2018 22:24:51
00023 suncat0084 pw.x -in pw.inp   Done                     12/18/2018 22:24:51
00024 suncat0083 pw.x -in pw.inp   Done                     12/18/2018 22:24:51
00025 suncat0083 pw.x -in pw.inp   Done                     12/18/2018 22:24:51
00026 suncat0083 pw.x -in pw.inp   Done                     12/18/2018 22:24:51
00027 suncat0083 pw.x -in pw.inp   Done                     12/18/2018 22:24:51
00028 suncat0083 pw.x -in pw.inp   Done                     12/18/2018 22:24:51
00029 suncat0083 pw.x -in pw.inp   Done                     12/18/2018 22:24:51
00030 suncat0083 pw.x -in pw.inp   Done                     12/18/2018 22:24:51
00031 suncat0083 pw.x -in pw.inp   Done                     12/18/2018 22:24:51