     Program PWSCF v.5.1rc2 (svn rev. 11289) starts on 25Dec2018 at  6:35:56

     Current dimensions of program PWSCF are:
     Max number of different atomic species (ntypx) = 10
     Max number of k-points (npk) =  40000
     Max angular momentum in pseudopotentials (lmaxx) =  3
     Presently stress not available with electric field

     IMPORTANT: XC functional enforced from input :
     Exchange-correlation      = BEEF-VDW ( 1  4 27 13 2)
     Any further DFT definition will be discarded
     Please, verify this is what you really want

     Subspace diagonalization in iterative solution of the eigenvalue problem:
     a serial algorithm will be used

     Found symmetry operation: I + ( -0.5000 -0.5000  0.0000)
     This is a supercell, fractional translations are disabled

     bravais-lattice index     =            0
     lattice parameter (alat)  =       1.8897  a.u.
     unit-cell volume          =    5279.5860 (a.u.)^3
     number of atoms/cell      =           12
     number of atomic types    =            2
     number of electrons       =       192.00
     number of Kohn-Sham states=          126
     kinetic-energy cutoff     =      36.7493  Ry
     charge density cutoff     =     367.4932  Ry
     convergence threshold     =      1.0E-06
     mixing beta               =       0.1000
     number of iterations used =           10  plain     mixing
     Exchange-correlation      = BEEF-VDW ( 1  4 27 13 2)
     nstep                     =           50

     celldm(1)=   1.889726  celldm(2)=   0.000000  celldm(3)=   0.000000
     celldm(4)=   0.000000  celldm(5)=   0.000000  celldm(6)=   0.000000

     crystal axes: (cart. coord. in units of alat)
               a(1) = (   5.792678   0.000000   0.000000 )
               a(2) = (   1.930811   5.461418   0.000000 )
               a(3) = (   0.000000   0.000000  24.729677 )

     reciprocal axes: (cart. coord. in units 2 pi/alat)
               b(1) = (  0.172632 -0.061032  0.000000 )
               b(2) = (  0.000000  0.183103  0.000000 )
               b(3) = (  0.000000  0.000000  0.040437 )

     PseudoPot. # 1 for Zn read from file:
     /afs/slac.stanford.edu/u/if/mamunm/psp/gbrv1.5pbe/Zn.UPF
     MD5 check sum: df62231357ef9e81f77b2b3087fa5675
     Pseudo is Ultrasoft, Zval = 20.0
     Generated by new atomic code, or converted to UPF format
     Using radial grid of  943 points,  6 beta functions with:
                l(1) =   0
                l(2) =   0
                l(3) =   1
                l(4) =   1
                l(5) =   2
                l(6) =   2
     Q(r) pseudized with  8 coefficients,  rinner =    1.100   1.100   1.100
                                                       1.100   1.100

     PseudoPot. # 2 for Zr read from file:
     /afs/slac.stanford.edu/u/if/mamunm/psp/gbrv1.5pbe/Zr.UPF
     MD5 check sum: 5db81b1e868ab7776c4564c113de050b
     Pseudo is Ultrasoft + core correction, Zval = 12.0
     Generated by new atomic code, or converted to UPF format
     Using radial grid of  887 points,  6 beta functions with:
                l(1) =   0
                l(2) =   0
                l(3) =   1
                l(4) =   1
                l(5) =   2
                l(6) =   2
     Q(r) pseudized with  6 coefficients,  rinner =    1.200   1.200   1.200
                                                       1.200   1.200

     vdW kernel table read from file vdW_kernel_table
     MD5 check sum: 095c7af220d748ca6e76c0b4c6cfb241

     atomic species   valence    mass     pseudopotential
        Zn1           20.00    65.38000     Zn( 1.00)
        Zr1           12.00    91.22400     Zr( 1.00)

     No symmetry found

   Cartesian axes

     site n.     atom                  positions (alat units)
         1           Zn1 tau(   1) = (   0.0000000   0.0000000  10.0000000  )
         2           Zn1 tau(   2) = (   3.8617446   2.7307091  10.0000000  )
         3           Zr1 tau(   3) = (   2.8963391   0.0000000  10.0000000  )
         4           Zr1 tau(   4) = (   0.9654055   2.7307091  10.0000000  )
         5           Zn1 tau(   5) = (   5.7926781   4.0961069  12.3648384  )
         6           Zn1 tau(   6) = (   1.9309335   1.3653978  12.3648384  )
         7           Zr1 tau(   7) = (   2.8963391   4.0961069  12.3648384  )
         8           Zr1 tau(   8) = (   4.8272726   1.3653978  12.3648384  )
         9           Zn1 tau(   9) = (   3.8618670   2.7307957  14.7296769  )
        10           Zn1 tau(  10) = (   0.0001224   0.0000866  14.7296769  )
        11           Zr1 tau(  11) = (   0.9655280   2.7307957  14.7296769  )
        12           Zr1 tau(  12) = (   2.8964615   0.0000866  14.7296769  )

     number of k points=    20  Fermi-Dirac smearing, width (Ry)=  0.0110
                       cart. coord. in units 2pi/alat
        k(    1) = (   0.0000000   0.0000000   0.0000000), wk =   0.0555556
        k(    2) = (   0.0000000   0.0305171   0.0000000), wk =   0.1111111
        k(    3) = (   0.0000000   0.0610342   0.0000000), wk =   0.1111111
        k(    4) = (   0.0000000  -0.0915513   0.0000000), wk =   0.0555556
        k(    5) = (   0.0287720  -0.0101719   0.0000000), wk =   0.1111111
        k(    6) = (   0.0287720   0.0203452   0.0000000), wk =   0.1111111
        k(    7) = (   0.0287720   0.0508623   0.0000000), wk =   0.1111111
        k(    8) = (   0.0287720  -0.1017233   0.0000000), wk =   0.1111111
        k(    9) = (   0.0287720  -0.0712061   0.0000000), wk =   0.1111111
        k(   10) = (   0.0287720  -0.0406890   0.0000000), wk =   0.1111111
        k(   11) = (   0.0575439  -0.0203439   0.0000000), wk =   0.1111111
        k(   12) = (   0.0575439   0.0101732   0.0000000), wk =   0.1111111
        k(   13) = (   0.0575439   0.0406903   0.0000000), wk =   0.1111111
        k(   14) = (   0.0575439  -0.1118952   0.0000000), wk =   0.1111111
        k(   15) = (   0.0575439  -0.0813781   0.0000000), wk =   0.1111111
        k(   16) = (   0.0575439  -0.0508610   0.0000000), wk =   0.1111111
        k(   17) = (  -0.0863159   0.0305158   0.0000000), wk =   0.0555556
        k(   18) = (  -0.0863159   0.0610329   0.0000000), wk =   0.1111111
        k(   19) = (  -0.0863159   0.0915500   0.0000000), wk =   0.1111111
        k(   20) = (  -0.0863159  -0.0610355   0.0000000), wk =   0.0555556

     Largest allocated arrays     est. size (Mb)     dimensions
     Largest temporary arrays     est. size (Mb)     dimensions

     Initial potential from superposition of free atoms
     Check: negative starting charge=   -0.369536

     starting charge  191.98626, renormalised to  192.00000

     negative rho (up, down):  3.696E-01 0.000E+00

     *
     * You are using vdW-DF for exchange-correlation in this calculation.
     * Please cite the following three references that made this development
     * possible:
     *
     *   M. Dion, H. Rydberg, E. Schroder, D. C. Langreth, and
     *   B. I. Lundqvist, Phys. Rev. Lett. 92, 246401 (2004).
     *
     *   T. Thonhauser, V. R. Cooper, S. Li, A. Puzder, P. Hyldgaard, and
     *   D. C. Langreth, Phys. Rev. B 76, 125112 (2007).
     *
     *   G. Roman-Perez and J. M. Soler, Phys. Rev. Lett. 103, 096102 (2009).
     *
     *
     * If you are using vdW-DF2, please also cite:
     *
     *   K. Lee, E. D. Murray, L. Kong, B. I. Lundqvist, and
     *   D. C. Langreth, Phys. Rev. B 82, 081101(R) (2010).
     *
     *
     * If you are calculating the stress with vdW-DF, please also cite:
     *
     *   R. Sabatini, E. Kucukbenli, B. Kolb, T. Thonhauser, and
     *   S. de Gironcoli, J. Phys.: Condens. Matter 24, 424209 (2012).
     *

     Carrying out vdW-DF run using the following parameters:

     Nqs =      20    Nr_points =    1024   r_max =   100.000
     q_mesh =
               0.00001000     0.04494208     0.09755937     0.15916263
               0.23128650     0.31572767     0.41458969     0.53033537
               0.66584808     0.82450364     1.01025438     1.22772762
               1.48234092     1.78043706     2.12944203     2.53805004
               3.01644009     3.57652955     4.23227104     5.00000000

     Gradients computed in reciprocal space

     Adding external electric field

     Computed dipole along edir(3) :
        Dipole               -0.0000 Ry au,         -0.0000 Debye
        Dipole field         -0.0000 Ry au

        Potential amp.        0.0000 Ry
        Total length         45.5640 bohr

     Starting wfc are  156 randomized atomic wfcs

     Self-consistent Calculation

     iteration #  1     ecut=    36.75 Ry     beta=0.10
     Davidson diagonalization with overlap
     ethr =  1.00E-02,  avg # of iterations =  2.3

[...]

     total energy              =   -3375.04814169 Ry
     Harris-Foulkes estimate   =   -3375.44249079 Ry
     estimated scf accuracy    <       2.27977987 Ry

[...]

     End of self-consistent calculation

          k = 0.0000 0.0000 0.0000 ( 19919 PWs)   bands (ev):

  -125.1549-125.1549-125.0721-125.0720-125.0720-125.0720 -79.3301 -79.3299
   -79.3192 -79.3182 -79.3171 -79.3170 -79.2522 -79.2520 -79.2520 -79.2518
   -79.2375 -79.2374 -79.2374 -79.2373 -79.2345 -79.2344 -79.2335 -79.2335
   -48.4426 -48.4416 -48.4155 -48.4154 -48.0326 -48.0059 -26.5162 -26.5015
   -26.4951 -26.4614 -26.4447 -26.4432 -26.4258 -26.4050 -26.3990 -26.3698
   -26.2031 -26.1220 -26.1204 -25.9937 -25.9770 -25.9578 -25.9211 -25.8606
    -6.2558  -6.2450  -6.2331  -6.2139  -6.2066  -6.1500  -6.1387  -6.1340
    -6.1294  -6.1136  -6.1113  -6.0914  -6.0895  -6.0836  -6.0545  -6.0410
    -6.0308  -6.0251  -6.0209  -5.9898  -5.9881  -5.9686  -5.9660  -5.9524
    -5.8923  -5.8902  -5.8756  -5.8271  -5.8164  -5.8159  -5.7657  -4.4442
    -3.2266  -3.0847  -2.7715  -2.5839  -0.3891  -0.2592  -0.1915   0.1294
     0.2172   0.3465   0.3547   0.6397   1.1077   1.1531   1.1682   1.5077
     1.5094   1.5142   1.5413   1.5926   1.7935   2.1100   2.1353   2.5945
     2.6223   2.8479   2.9450   3.0002   3.0492   3.1791   3.2533   3.5863
     3.6210   3.6754   3.9143   4.2037   4.4707   4.5408   4.5865   4.5919
     5.2781   5.4322   5.4498   5.8098   5.9346   6.1197

[...]

          k =-0.0863 0.0305 0.0000 ( 19872 PWs)   bands (ev):

[...]

     the Fermi energy is     1.1401 ev

!    total energy              =   -3375.17112969 Ry
     Harris-Foulkes estimate   =   -3375.17112974 Ry
     estimated scf accuracy    <       0.00000070 Ry

     The total energy is the sum of the following terms:

     one-electron contribution =  -19305.32714750 Ry
     hartree contribution      =    9640.44266425 Ry
     xc contribution           =    -370.68296464 Ry
     ewald contribution        =    6660.46867539 Ry
     electric field correction =       0.00000000 Ry
     smearing contrib. (-TS)   =      -0.07235719 Ry

     convergence has been achieved in  15 iterations

 BEEF-vdW xc energy contributions
           1 :   -325.935984138745
           2 :    295.462569207670
           3 :   -244.147548149832
           4 :    186.605140075452
           5 :   -135.983653975702
           6 :    99.1535940672103
           7 :   -75.6549916670059
           8 :    60.2462149212891
[...]
     Pseudo is Ultrasoft, Zval = 20.0
     Generated by new atomic code, or converted to UPF format
     Using radial grid of  943 points,  6 beta functions with:
                l(1) =   0
                l(2) =   0
                l(3) =   1
                l(4) =   1
                l(5) =   2
                l(6) =   2
     Q(r) pseudized with  8 coefficients,  rinner =    1.100   1.100   1.100
                                                       1.100   1.100

     PseudoPot. # 2 for Zr read from file:
     /afs/slac.stanford.edu/u/if/mamunm/psp/gbrv1.5pbe/Zr.UPF
     MD5 check sum: 5db81b1e868ab7776c4564c113de050b
     Pseudo is Ultrasoft + core correction, Zval = 12.0
     Generated by new atomic code, or converted to UPF format
     Using radial grid of  887 points,  6 beta functions with:
                l(1) =   0
                l(2) =   0
                l(3) =   1
                l(4) =   1
                l(5) =   2
                l(6) =   2
     Q(r) pseudized with  6 coefficients,  rinner =    1.200   1.200   1.200
                                                       1.200   1.200

     vdW kernel table read from file vdW_kernel_table
     MD5 check sum: 095c7af220d748ca6e76c0b4c6cfb241

     atomic species   valence    mass     pseudopotential
        Zn1           20.00    65.38000     Zn( 1.00)
        Zr1           12.00    91.22400     Zr( 1.00)

     No symmetry found

   Cartesian axes

     site n.     atom                  positions (alat units)
         1           Zn1 tau(   1) = (   0.0000000   0.0000000  10.0000000  )
         2           Zn1 tau(   2) = (   3.8617446   2.7307091  10.0000000  )
         3           Zr1 tau(   3) = (   2.8963391   0.0000000  10.0000000  )
         4           Zr1 tau(   4) = (   0.9654055   2.7307091  10.0000000  )
         5           Zn1 tau(   5) = (   5.7926781   4.0961069  12.3648384  )
         6           Zn1 tau(   6) = (   1.9309335   1.3653978  12.3648384  )
         7           Zr1 tau(   7) = (   2.8963391   4.0961069  12.3648384  )
         8           Zr1 tau(   8) = (   4.8272726   1.3653978  12.3648384  )
         9           Zn1 tau(   9) = (   3.8618809   2.7307433  14.8796211  )
        10           Zn1 tau(  10) = (   0.0000411   0.0000857  14.8796247  )
        11           Zr1 tau(  11) = (   0.9655011   2.7307647  14.6330817  )
        12           Zr1 tau(  12) = (   2.8963827   0.0000478  14.6330853  )

     number of k points=    20  Fermi-Dirac smearing, width (Ry)=  0.0110
                       cart. coord. in units 2pi/alat
        k(    1) = (   0.0000000   0.0000000   0.0000000), wk =   0.0555556
        k(    2) = (   0.0000000   0.0305171   0.0000000), wk =   0.1111111
        k(    3) = (   0.0000000   0.0610342   0.0000000), wk =   0.1111111
        k(    4) = (   0.0000000  -0.0915513   0.0000000), wk =   0.0555556
        k(    5) = (   0.0287720  -0.0101719   0.0000000), wk =   0.1111111
        k(    6) = (   0.0287720   0.0203452   0.0000000), wk =   0.1111111
        k(    7) = (   0.0287720   0.0508623   0.0000000), wk =   0.1111111
        k(    8) = (   0.0287720  -0.1017233   0.0000000), wk =   0.1111111
        k(    9) = (   0.0287720  -0.0712061   0.0000000), wk =   0.1111111
        k(   10) = (   0.0287720  -0.0406890   0.0000000), wk =   0.1111111
        k(   11) = (   0.0575439  -0.0203439   0.0000000), wk =   0.1111111
        k(   12) = (   0.0575439   0.0101732   0.0000000), wk =   0.1111111
        k(   13) = (   0.0575439   0.0406903   0.0000000), wk =   0.1111111
        k(   14) = (   0.0575439  -0.1118952   0.0000000), wk =   0.1111111
        k(   15) = (   0.0575439  -0.0813781   0.0000000), wk =   0.1111111
        k(   16) = (   0.0575439  -0.0508610   0.0000000), wk =   0.1111111
        k(   17) = (  -0.0863159   0.0305158   0.0000000), wk =   0.0555556
        k(   18) = (  -0.0863159   0.0610329   0.0000000), wk =   0.1111111
        k(   19) = (  -0.0863159   0.0915500   0.0000000), wk =   0.1111111
        k(   20) = (  -0.0863159  -0.0610355   0.0000000), wk =   0.0555556

     Largest allocated arrays     est. size (Mb)     dimensions
     Largest temporary arrays     est. size (Mb)     dimensions

     Initial potential from superposition of free atoms
     Check: negative starting charge=   -0.369323

     starting charge  191.98626, renormalised to  192.00000

[...]

     *
     * You are using vdW-DF for exchange-correlation in this calculation.
     * Please cite the following three references that made this development
     * possible:
     *
     *   M. Dion, H. Rydberg, E. Schroder, D. C. Langreth, and
     *   B. I. Lundqvist, Phys. Rev. Lett. 92, 246401 (2004).
     *
     *   T. Thonhauser, V. R. Cooper, S. Li, A. Puzder, P. Hyldgaard, and
     *   D. C. Langreth, Phys. Rev. B 76, 125112 (2007).
     *
     *   G. Roman-Perez and J. M. Soler, Phys. Rev. Lett. 103, 096102 (2009).
     *
     *
     * If you are using vdW-DF2, please also cite:
     *
     *   K. Lee, E. D. Murray, L. Kong, B. I. Lundqvist, and
     *   D. C. Langreth, Phys. Rev. B 82, 081101(R) (2010).
     *
     *
     * If you are calculating the stress with vdW-DF, please also cite:
     *
     *   R. Sabatini, E. Kucukbenli, B. Kolb, T. Thonhauser, and
     *   S. de Gironcoli, J. Phys.: Condens. Matter 24, 424209 (2012).
     *

     Carrying out vdW-DF run using the following parameters:

     Nqs =      20    Nr_points =    1024   r_max =   100.000
     q_mesh =
               0.00001000     0.04494208     0.09755937     0.15916263
               0.23128650     0.31572767     0.41458969     0.53033537
               0.66584808     0.82450364     1.01025438     1.22772762
               1.48234092     1.78043706     2.12944203     2.53805004
               3.01644009     3.57652955     4.23227104     5.00000000

     Gradients computed in reciprocal space

[...]

     Starting wfc are  156 randomized atomic wfcs

     Self-consistent Calculation

[...]

     total energy              =   -3375.17732726 Ry
     Harris-Foulkes estimate   =   -3375.17732682 Ry
     estimated scf accuracy    <       0.00000218 Ry

     iteration # 15     ecut=    36.75 Ry     beta=0.10
     Davidson diagonalization with overlap
     ethr =  1.14E-09,  avg # of iterations =  2.8

[...]

     negative rho (up, down):  3.767E-01 0.000E+00

     Adding external electric field

     Computed dipole along edir(3) :
        Dipole               -0.0637 Ry au,         -0.1619 Debye
        Dipole field         -0.0002 Ry au

        Potential amp.        0.0138 Ry
        Total length         45.5640 bohr

     End of self-consistent calculation

[...]

          k = 0.0575-0.0509 0.0000 ( 19877 PWs)   bands (ev):

[...]

          k =-0.0863-0.0610 0.0000 ( 19778 PWs)   bands (ev):

  -125.2395-125.2394-125.1355-125.1355-125.0741-125.0740 -79.4092 -79.4088
   -79.4049 -79.4048 -79.4039 -79.4029 -79.3149 -79.3146 -79.3012 -79.3011
   -79.2978 -79.2969 -79.2578 -79.2574 -79.2416 -79.2407 -79.2358 -79.2358
   -48.5111 -48.4857 -48.3978 -48.3727 -48.0969 -48.0685 -26.5957 -26.5480
   -26.5160 -26.5039 -26.4774 -26.4468 -26.4313 -26.4307 -26.4048 -26.3525
   -26.2615 -26.1875 -26.0977 -26.0429 -26.0058 -26.0037 -25.9935 -25.9278
    -6.2856  -6.2391  -6.1890  -6.1878  -6.1861  -6.1799  -6.1713  -6.1273
    -6.1255  -6.0861  -6.0800  -6.0741  -6.0639  -6.0515  -6.0392  -6.0357
    -6.0257  -6.0205  -5.9910  -5.9852  -5.9757  -5.9717  -5.9640  -5.9615
    -5.9535  -5.9348  -5.8740  -5.8696  -5.8687  -5.8084  -4.2049  -4.1952
    -3.0801  -3.0147  -2.4322  -2.3116  -2.2120  -1.2981  -1.1422  -1.0957
    -0.8419  -0.7305  -0.5708  -0.0738  -0.0446   0.4920   0.5141   0.5891
     0.8636   1.2094   1.6637   1.7539   1.8376   2.0476   2.1846   2.2146
     2.3608   2.5242   2.6488   2.7662   2.8099   3.5342   3.6421   3.6713
     4.0809   4.1593   4.2475   4.3576   4.8056   5.0170   5.3296   5.6852
     5.8246   5.9138   5.9758   6.1107   6.1787   6.2838

     the Fermi energy is     1.0701 ev

!    total energy              =   -3375.17732763 Ry
     Harris-Foulkes estimate   =   -3375.17732799 Ry
     estimated scf accuracy    <       0.00000096 Ry

     The total energy is the sum of the following terms:

     one-electron contribution =  -19163.27173837 Ry
     hartree contribution      =    9569.11933131 Ry
     xc contribution           =    -370.69785603 Ry
     ewald contribution        =    6589.74492715 Ry
     electric field correction =       0.00000965 Ry
     smearing contrib. (-TS)   =      -0.07200135 Ry

     convergence has been achieved in  15 iterations

 BEEF-vdW xc energy contributions
           1 :   -325.948614052562
           2 :    295.465037926693
           3 :   -244.133924490887
           4 :    186.576125930926
           5 :   -135.946095665814
           6 :    99.1158908269990
           7 :   -75.6190566710894
           8 :    60.2048334602089
           9 :   -47.0353602409552
          10 :    33.0282396897991
          11 :   -18.7443795780767
          12 :    6.84949762104384
          13 :   0.417502471150613
          14 :   -2.98234118289201
          15 :    2.88297245248202
          16 :   -2.76253159600441
          17 :    4.15357031369916
          18 :   -6.75196180184651
          19 :    9.02746295831565
          20 :   -9.56818728729041
          21 :    8.14197354193760
          22 :   -5.78706194433261
          23 :    3.98933789763242
          24 :   -3.62795792831730
          25 :    4.45517435516325
          26 :   -5.42081567475225
          27 :    5.51997969742223
          28 :   -4.50866689884185
          29 :    2.99631354614780
          30 :   -1.92112106277108
          31 :   -28.7917493484105
          32 :   -20.3431793110556

     Forces acting on atoms (Ry/au):

     negative rho (up, down):  3.767E-01 0.000E+00
     atom    1 type  1   force =    -0.00000477    0.00000371   -0.00827358
     atom    2 type  1   force =     0.00000398   -0.00000462   -0.00827351
     atom    3 type  2   force =     0.00000050    0.00000074    0.01534612
     atom    4 type  2   force =     0.00000299    0.00000140    0.01534661
     atom    5 type  1   force =    -0.00000064    0.00000222   -0.01105918
     atom    6 type  1   force =     0.00000128   -0.00000113   -0.01106252
     atom    7 type  2   force =    -0.00000158   -0.00000096    0.00590719
     atom    8 type  2   force =    -0.00000122   -0.00000118    0.00590530
     atom    9 type  1   force =    -0.00000184   -0.00000469   -0.00025986
     atom   10 type  1   force =    -0.00000414    0.00000194   -0.00026035
     atom   11 type  2   force =     0.00000558    0.00000303   -0.00165793
     atom   12 type  2   force =    -0.00000014   -0.00000047   -0.00165830

     Total force =     0.030463     Total SCF correction =     0.005764
     SCF correction compared to forces is large: reduce conv_thr to get better values

     entering subroutine stress ...

     negative rho (up, down):  3.767E-01 0.000E+00
          total   stress  (Ry/bohr**3)                   (kbar)     P=  -10.70
  -0.00009354  -0.00000362  -0.00000000        -13.76     -0.53     -0.00
  -0.00000362  -0.00009098  -0.00000000         -0.53    -13.38     -0.00
  -0.00000000  -0.00000000  -0.00003371         -0.00     -0.00     -4.96

 !ASE

     Writing output data file calc.save

     General routines

     Parallel routines

   This run was terminated on:   7:56:10  25Dec2018

   JOB DONE.
Job  /afs/slac/g/suncat/bin/suncat-tsmpirun -x LD_LIBRARY_PATH -wdir /scratch/qe109258_vu8UI pw.x -in pw.inp

TID   HOST_NAME   COMMAND_LINE            STATUS            TERMINATION_TIME
00000 suncat0190 pw.x -in pw.inp   Done                     12/25/2018 07:56:10
00001 suncat0190 pw.x -in pw.inp   Done                     12/25/2018 07:56:10
00002 suncat0190 pw.x -in pw.inp   Done                     12/25/2018 07:56:10
00003 suncat0190 pw.x -in pw.inp   Done                     12/25/2018 07:56:10
00004 suncat0190 pw.x -in pw.inp   Done                     12/25/2018 07:56:10
00005 suncat0190 pw.x -in pw.inp   Done                     12/25/2018 07:56:10
00006 suncat0190 pw.x -in pw.inp   Done                     12/25/2018 07:56:10
00007 suncat0190 pw.x -in pw.inp   Done                     12/25/2018 07:56:10
00008 suncat0009 pw.x -in pw.inp   Done                     12/25/2018 07:56:10
00009 suncat0009 pw.x -in pw.inp   Done                     12/25/2018 07:56:10
00010 suncat0009 pw.x -in pw.inp   Done                     12/25/2018 07:56:10
00011 suncat0009 pw.x -in pw.inp   Done                     12/25/2018 07:56:10
00012 suncat0009 pw.x -in pw.inp   Done                     12/25/2018 07:56:10
00013 suncat0009 pw.x -in pw.inp   Done                     12/25/2018 07:56:10
00014 suncat0009 pw.x -in pw.inp   Done                     12/25/2018 07:56:10
00015 suncat0009 pw.x -in pw.inp   Done                     12/25/2018 07:56:10
00016 suncat0114 pw.x -in pw.inp   Done                     12/25/2018 07:56:10
00017 suncat0114 pw.x -in pw.inp   Done                     12/25/2018 07:56:10
00018 suncat0114 pw.x -in pw.inp   Done                     12/25/2018 07:56:10
00019 suncat0114 pw.x -in pw.inp   Done                     12/25/2018 07:56:10
00020 suncat0114 pw.x -in pw.inp   Done                     12/25/2018 07:56:10
00021 suncat0114 pw.x -in pw.inp   Done                     12/25/2018 07:56:10
00022 suncat0114 pw.x -in pw.inp   Done                     12/25/2018 07:56:10
00023 suncat0114 pw.x -in pw.inp   Done                     12/25/2018 07:56:10
00024 suncat0113 pw.x -in pw.inp   Done                     12/25/2018 07:56:10
00025 suncat0113 pw.x -in pw.inp   Done                     12/25/2018 07:56:10
00026 suncat0113 pw.x -in pw.inp   Done                     12/25/2018 07:56:10
00027 suncat0113 pw.x -in pw.inp   Done                     12/25/2018 07:56:10
00028 suncat0113 pw.x -in pw.inp   Done                     12/25/2018 07:56:10
00029 suncat0113 pw.x -in pw.inp   Done                     12/25/2018 07:56:10
00030 suncat0113 pw.x -in pw.inp   Done                     12/25/2018 07:56:10
00031 suncat0113 pw.x -in pw.inp   Done                     12/25/2018 07:56:10
00032 suncat0230 pw.x -in pw.inp   Done                     12/25/2018 07:56:10
00033 suncat0230 pw.x -in pw.inp   Done                     12/25/2018 07:56:10
00034 suncat0230 pw.x -in pw.inp   Done                     12/25/2018 07:56:10
00035 suncat0230 pw.x -in pw.inp   Done                     12/25/2018 07:56:10
00036 suncat0230 pw.x -in pw.inp   Done                     12/25/2018 07:56:10
00037 suncat0230 pw.x -in pw.inp   Done                     12/25/2018 07:56:10
00038 suncat0230 pw.x -in pw.inp   Done                     12/25/2018 07:56:10
00039 suncat0230 pw.x -in pw.inp   Done                     12/25/2018 07:56:10
00040 suncat0229 pw.x -in pw.inp   Done                     12/25/2018 07:56:10
00041 suncat0229 pw.x -in pw.inp   Done                     12/25/2018 07:56:10
00042 suncat0229 pw.x -in pw.inp   Done                     12/25/2018 07:56:10
00043 suncat0229 pw.x -in pw.inp   Done                     12/25/2018 07:56:10
00044 suncat0229 pw.x -in pw.inp   Done                     12/25/2018 07:56:10
00045 suncat0229 pw.x -in pw.inp   Done                     12/25/2018 07:56:10
00046 suncat0229 pw.x -in pw.inp   Done                     12/25/2018 07:56:10
00047 suncat0229 pw.x -in pw.inp   Done                     12/25/2018 07:56:10
00048 suncat0205 pw.x -in pw.inp   Done                     12/25/2018 07:56:10
00049 suncat0205 pw.x -in pw.inp   Done                     12/25/2018 07:56:10
00050 suncat0205 pw.x -in pw.inp   Done                     12/25/2018 07:56:10
00051 suncat0205 pw.x -in pw.inp   Done                     12/25/2018 07:56:10
00052 suncat0205 pw.x -in pw.inp   Done                     12/25/2018 07:56:10
00053 suncat0205 pw.x -in pw.inp   Done                     12/25/2018 07:56:10
00054 suncat0205 pw.x -in pw.inp   Done                     12/25/2018 07:56:10
00055 suncat0205 pw.x -in pw.inp   Done                     12/25/2018 07:56:10
00056 suncat0204 pw.x -in pw.inp   Done                     12/25/2018 07:56:10
00057 suncat0204 pw.x -in pw.inp   Done                     12/25/2018 07:56:10
00058 suncat0204 pw.x -in pw.inp   Done                     12/25/2018 07:56:10
00059 suncat0204 pw.x -in pw.inp   Done                     12/25/2018 07:56:10
00060 suncat0204 pw.x -in pw.inp   Done                     12/25/2018 07:56:10
00061 suncat0204 pw.x -in pw.inp   Done                     12/25/2018 07:56:10
00062 suncat0204 pw.x -in pw.inp   Done                     12/25/2018 07:56:10
00063 suncat0204 pw.x -in pw.inp   Done                     12/25/2018 07:56:10