     Program PWSCF v.5.1rc2 (svn rev. 11289) starts on 18Dec2018 at 20: 3:17

     Current dimensions of program PWSCF are:
     Max number of different atomic species (ntypx) = 10
     Max number of k-points (npk) =  40000
     Max angular momentum in pseudopotentials (lmaxx) =  3
     Presently stress not available with electric field

     IMPORTANT: XC functional enforced from input :
     Exchange-correlation      = BEEF-VDW ( 1  4 27 13 2)
     Any further DFT definition will be discarded
     Please, verify this is what you really want

     Subspace diagonalization in iterative solution of the eigenvalue problem:
     a serial algorithm will be used

     Found symmetry operation: I + ( -0.5000  0.5000  0.0000)
     This is a supercell, fractional translations are disabled

     bravais-lattice index     =            0
     lattice parameter (alat)  =       1.8897  a.u.
     unit-cell volume          =    4705.3650 (a.u.)^3
     number of atoms/cell      =           12
     number of atomic types    =            2
     number of electrons       =       174.00
     number of Kohn-Sham states=          117
     kinetic-energy cutoff     =      36.7493  Ry
     charge density cutoff     =     367.4932  Ry
     convergence threshold     =      1.0E-06
     mixing beta               =       0.1000
     number of iterations used =           10  plain     mixing
     Exchange-correlation      = BEEF-VDW ( 1  4 27 13 2)
     nstep                     =           50

     celldm(1)=   1.889726  celldm(2)=   0.000000  celldm(3)=   0.000000
     celldm(4)=   0.000000  celldm(5)=   0.000000  celldm(6)=   0.000000

     crystal axes: (cart. coord. in units of alat)
               a(1) = (   5.549690   0.000000   0.000000 )
               a(2) = (   2.167400   5.108956   0.000000 )
               a(3) = (   0.000000   0.000000  24.592112 )

     reciprocal axes: (cart. coord. in units 2 pi/alat)
               b(1) = (  0.180190 -0.076443  0.000000 )
               b(2) = (  0.000000  0.195735  0.000000 )
               b(3) = (  0.000000  0.000000  0.040663 )

     PseudoPot. # 1 for Nb read from file:
     /afs/slac.stanford.edu/u/if/mamunm/psp/gbrv1.5pbe/Nb.UPF
     MD5 check sum: 573aab8a2fa660278ed4a62cd769473f
     Pseudo is Ultrasoft + core correction, Zval = 13.0
     Generated by new atomic code, or converted to UPF format
     Using radial grid of  887 points,  6 beta functions with:
                l(1) =   0
                l(2) =   0
                l(3) =   1
                l(4) =   1
                l(5) =   2
                l(6) =   2
     Q(r) pseudized with  6 coefficients,  rinner =    1.000   1.000   1.000
                                                       1.000   1.000

     PseudoPot. # 2 for Os read from file:
     /afs/slac.stanford.edu/u/if/mamunm/psp/gbrv1.5pbe/Os.UPF
     MD5 check sum: a3fb40a04f0c37c25c34bbc47164c9a8
     Pseudo is Ultrasoft + core correction, Zval = 16.0
     Generated by new atomic code, or converted to UPF format
     Using radial grid of  983 points,  8 beta functions with:
                l(1) =   0
                l(2) =   0
                l(3) =   1
                l(4) =   1
                l(5) =   2
                l(6) =   2
                l(7) =   3
                l(8) =   3
     Q(r) pseudized with  8 coefficients,  rinner =    1.150   1.150   1.150
                                                       1.150   1.150   1.150
                                                       1.150

     vdW kernel table read from file vdW_kernel_table
     MD5 check sum: 095c7af220d748ca6e76c0b4c6cfb241

     atomic species   valence    mass     pseudopotential
        Nb1           13.00    92.90637     Nb( 1.00)
        Os1           16.00   190.23000     Os( 1.00)

     No symmetry found

   Cartesian axes

     site n.     atom                  positions (alat units)
         1           Nb1 tau(   1) = (   0.0000000   0.0000000  10.0000000  )
         2           Nb1 tau(   2) = (   3.8585449   2.5544781  10.0000000  )
         3           Os1 tau(   3) = (   2.7748449   0.0000000  10.0000000  )
         4           Os1 tau(   4) = (   1.0837001   2.5544781  10.0000000  )
         5           Nb1 tau(   5) = (   5.5496897   3.6740691  12.2960562  )
         6           Nb1 tau(   6) = (   1.6911448   1.1195910  12.2960562  )
         7           Os1 tau(   7) = (   2.7748449   3.6740691  12.2960562  )
         8           Os1 tau(   8) = (   4.4659897   1.1195910  12.2960562  )
         9           Nb1 tau(   9) = (   3.3822896   2.2391821  14.5921124  )
        10           Nb1 tau(  10) = (   7.2408345   4.7936602  14.5921124  )
        11           Os1 tau(  11) = (   6.1571345   2.2391821  14.5921124  )
        12           Os1 tau(  12) = (   4.4659897   4.7936602  14.5921124  )

     number of k points=    20  Fermi-Dirac smearing, width (Ry)=  0.0110
                       cart. coord. in units 2pi/alat
        k(    1) = (   0.0000000   0.0000000   0.0000000), wk =   0.0555556
        k(    2) = (   0.0000000   0.0326225   0.0000000), wk =   0.1111111
        k(    3) = (   0.0000000   0.0652449   0.0000000), wk =   0.1111111
        k(    4) = (   0.0000000  -0.0978674   0.0000000), wk =   0.0555556
        k(    5) = (   0.0300317  -0.0127405   0.0000000), wk =   0.1111111
        k(    6) = (   0.0300317   0.0198819   0.0000000), wk =   0.1111111
        k(    7) = (   0.0300317   0.0525044   0.0000000), wk =   0.1111111
        k(    8) = (   0.0300317  -0.1106079   0.0000000), wk =   0.1111111
        k(    9) = (   0.0300317  -0.0779854   0.0000000), wk =   0.1111111
        k(   10) = (   0.0300317  -0.0453630   0.0000000), wk =   0.1111111
        k(   11) = (   0.0600634  -0.0254810   0.0000000), wk =   0.1111111
        k(   12) = (   0.0600634   0.0071414   0.0000000), wk =   0.1111111
        k(   13) = (   0.0600634   0.0397639   0.0000000), wk =   0.1111111
        k(   14) = (   0.0600634  -0.1233484   0.0000000), wk =   0.1111111
        k(   15) = (   0.0600634  -0.0907259   0.0000000), wk =   0.1111111
        k(   16) = (   0.0600634  -0.0581035   0.0000000), wk =   0.1111111
        k(   17) = (  -0.0900951   0.0382215   0.0000000), wk =   0.0555556
        k(   18) = (  -0.0900951   0.0708440   0.0000000), wk =   0.1111111
        k(   19) = (  -0.0900951   0.1034664   0.0000000), wk =   0.1111111
        k(   20) = (  -0.0900951  -0.0596458   0.0000000), wk =   0.0555556

     Largest allocated arrays     est. size (Mb)     dimensions
     Largest temporary arrays     est. size (Mb)     dimensions

     Initial potential from superposition of free atoms
     Check: negative starting charge=   -0.763366

     starting charge  170.98338, renormalised to  174.00000

     negative rho (up, down):  7.768E-01 0.000E+00

     *
     * You are using vdW-DF for exchange-correlation in this calculation.
     * Please cite the following three references that made this development
     * possible:
     *
     *   M. Dion, H. Rydberg, E. Schroder, D. C. Langreth, and
     *   B. I. Lundqvist, Phys. Rev. Lett. 92, 246401 (2004).
     *
     *   T. Thonhauser, V. R. Cooper, S. Li, A. Puzder, P. Hyldgaard, and
     *   D. C. Langreth, Phys. Rev. B 76, 125112 (2007).
     *
     *   G. Roman-Perez and J. M. Soler, Phys. Rev. Lett. 103, 096102 (2009).
     *
     *
     * If you are using vdW-DF2, please also cite:
     *
     *   K. Lee, E. D. Murray, L. Kong, B. I. Lundqvist, and
     *   D. C. Langreth, Phys. Rev. B 82, 081101(R) (2010).
     *
     *
     * If you are calculating the stress with vdW-DF, please also cite:
     *
     *   R. Sabatini, E. Kucukbenli, B. Kolb, T. Thonhauser, and
     *   S. de Gironcoli, J. Phys.: Condens. Matter 24, 424209 (2012).
     *

     Carrying out vdW-DF run using the following parameters:

     Nqs =      20    Nr_points =    1024   r_max =   100.000
     q_mesh =
               0.00001000     0.04494208     0.09755937     0.15916263
               0.23128650     0.31572767     0.41458969     0.53033537
               0.66584808     0.82450364     1.01025438     1.22772762
               1.48234092     1.78043706     2.12944203     2.53805004
               3.01644009     3.57652955     4.23227104     5.00000000

     Gradients computed in reciprocal space

     Adding external electric field

     Computed dipole along edir(3) :
        Dipole               -0.0000 Ry au,         -0.0000 Debye
        Dipole field         -0.0000 Ry au

        Potential amp.        0.0000 Ry
        Total length         45.3105 bohr

     Starting wfc are  156 randomized atomic wfcs

     Self-consistent Calculation

     iteration #  1     ecut=    36.75 Ry     beta=0.10
     Davidson diagonalization with overlap
     ethr =  1.00E-02,  avg # of iterations =  2.0

[...]

     total energy              =   -1909.97772590 Ry
     Harris-Foulkes estimate   =   -1911.35186971 Ry
     estimated scf accuracy    <       8.04719983 Ry

[...]

     End of self-consistent calculation

          k = 0.0000 0.0000 0.0000 ( 17651 PWs)   bands (ev):

   -84.1770 -84.1713 -83.6194 -83.6192 -83.6138 -83.6136 -53.2105 -53.1602
   -53.1560 -53.1478 -53.1106 -53.1068 -43.5967 -43.4581 -43.4427 -43.4391
   -43.4390 -43.4252 -42.9759 -42.9727 -42.9551 -42.9514 -42.9382 -42.9338
   -42.8653 -42.8615 -42.8505 -42.8493 -42.8197 -42.8194 -29.4444 -29.3741
   -29.3412 -29.2963 -29.2834 -29.2681 -29.2284 -29.2161 -29.1722 -29.1236
   -29.0977 -29.0909 -29.0513 -29.0107 -28.9766 -28.9542 -28.8344 -28.8295
    -5.1433  -3.4271  -3.3358  -3.0873  -2.8348  -2.7074  -2.6433  -2.4692
    -2.3239  -2.2944  -1.8990  -1.7228  -1.5842  -1.5713  -1.5479  -0.6251
    -0.5585  -0.4981  -0.4917  -0.4463  -0.4121  -0.0105   0.3436   0.4039
     0.5423   0.5883   0.7940   1.3116   1.4565   1.6413   1.7682   1.8976
     1.9711   2.4786   2.7450   2.7600   2.7687   3.0278   3.0757   3.1596
     3.1665   3.4107   3.4347   3.6043   3.9863   4.0327   4.1814   4.2359
     4.3041   4.3321   4.3456   4.4052   4.4845   4.8029   4.8392   4.9411
     5.0603   5.1348   5.1972   5.3786   5.8879   5.9211   6.1416   6.2616
     6.4137   6.4141   6.5492   6.7748   6.8491

[...]

          k =-0.0901 0.0382 0.0000 ( 17738 PWs)   bands (ev):

[...]

     the Fermi energy is     2.4369 ev

!    total energy              =   -1909.99278755 Ry
     Harris-Foulkes estimate   =   -1909.99278392 Ry
     estimated scf accuracy    <       0.00000038 Ry

     The total energy is the sum of the following terms:

     one-electron contribution =  -15781.87474797 Ry
     hartree contribution      =    7877.20500680 Ry
     xc contribution           =    -346.21282384 Ry
     ewald contribution        =    6340.95959538 Ry
     electric field correction =       0.00000000 Ry
     smearing contrib. (-TS)   =      -0.06981793 Ry

     convergence has been achieved in  16 iterations

 BEEF-vdW xc energy contributions
           1 :   -301.250309238693
           2 :    277.435607722499
           3 :   -235.887168250135
           4 :    186.374729424133
           5 :   -138.986678290128
           6 :    101.127776202485
           7 :   -75.9118154116516
[...]
00031 suncat2031 pw.x -in pw.inp   Done                     12/18/2018 20:16:19

     Program PWSCF v.5.1rc2 (svn rev. 11289) starts on 18Dec2018 at 20:16:25

[...]

     Program PWSCF v.5.1rc2 (svn rev. 11289) starts on 18Dec2018 at 21:12:37

[...]

   This run was terminated on:  21:25:56  18Dec2018

[...]

     Program PWSCF v.5.1rc2 (svn rev. 11289) starts on 18Dec2018 at 21:26: 2

     Current dimensions of program PWSCF are:
     Max number of different atomic species (ntypx) = 10
     Max number of k-points (npk) =  40000
     Max angular momentum in pseudopotentials (lmaxx) =  3
     Presently stress not available with electric field

     IMPORTANT: XC functional enforced from input :
     Exchange-correlation      = BEEF-VDW ( 1  4 27 13 2)
     Any further DFT definition will be discarded
     Please, verify this is what you really want

     Subspace diagonalization in iterative solution of the eigenvalue problem:
     a serial algorithm will be used

     Found symmetry operation: I + ( -0.5000  0.5000  0.0000)
     This is a supercell, fractional translations are disabled

     bravais-lattice index     =            0
     lattice parameter (alat)  =       1.8897  a.u.
     unit-cell volume          =    4705.3650 (a.u.)^3
     number of atoms/cell      =           12
     number of atomic types    =            2
     number of electrons       =       174.00
     number of Kohn-Sham states=          117
     kinetic-energy cutoff     =      36.7493  Ry
     charge density cutoff     =     367.4932  Ry
     convergence threshold     =      1.0E-06
     mixing beta               =       0.1000
     number of iterations used =           10  plain     mixing
     Exchange-correlation      = BEEF-VDW ( 1  4 27 13 2)
     nstep                     =           50

     celldm(1)=   1.889726  celldm(2)=   0.000000  celldm(3)=   0.000000
     celldm(4)=   0.000000  celldm(5)=   0.000000  celldm(6)=   0.000000

     crystal axes: (cart. coord. in units of alat)
               a(1) = (   5.549690   0.000000   0.000000 )
               a(2) = (   2.167400   5.108956   0.000000 )
               a(3) = (   0.000000   0.000000  24.592112 )

     reciprocal axes: (cart. coord. in units 2 pi/alat)
               b(1) = (  0.180190 -0.076443  0.000000 )
               b(2) = (  0.000000  0.195735  0.000000 )
               b(3) = (  0.000000  0.000000  0.040663 )

     PseudoPot. # 1 for Nb read from file:
     /afs/slac.stanford.edu/u/if/mamunm/psp/gbrv1.5pbe/Nb.UPF
     MD5 check sum: 573aab8a2fa660278ed4a62cd769473f
     Pseudo is Ultrasoft + core correction, Zval = 13.0
     Generated by new atomic code, or converted to UPF format
     Using radial grid of  887 points,  6 beta functions with:
                l(1) =   0
                l(2) =   0
                l(3) =   1
                l(4) =   1
                l(5) =   2
                l(6) =   2
     Q(r) pseudized with  6 coefficients,  rinner =    1.000   1.000   1.000
                                                       1.000   1.000

     PseudoPot. # 2 for Os read from file:
     /afs/slac.stanford.edu/u/if/mamunm/psp/gbrv1.5pbe/Os.UPF
     MD5 check sum: a3fb40a04f0c37c25c34bbc47164c9a8
     Pseudo is Ultrasoft + core correction, Zval = 16.0
     Generated by new atomic code, or converted to UPF format
     Using radial grid of  983 points,  8 beta functions with:
                l(1) =   0
                l(2) =   0
                l(3) =   1
                l(4) =   1
                l(5) =   2
                l(6) =   2
                l(7) =   3
                l(8) =   3
     Q(r) pseudized with  8 coefficients,  rinner =    1.150   1.150   1.150
                                                       1.150   1.150   1.150
                                                       1.150

     vdW kernel table read from file vdW_kernel_table
     MD5 check sum: 095c7af220d748ca6e76c0b4c6cfb241

     atomic species   valence    mass     pseudopotential
        Nb1           13.00    92.90637     Nb( 1.00)
        Os1           16.00   190.23000     Os( 1.00)

     No symmetry found

   Cartesian axes

     site n.     atom                  positions (alat units)
         1           Nb1 tau(   1) = (   0.0000000   0.0000000  10.0000000  )
         2           Nb1 tau(   2) = (   3.8585449   2.5544781  10.0000000  )
         3           Os1 tau(   3) = (   2.7748449   0.0000000  10.0000000  )
         4           Os1 tau(   4) = (   1.0837001   2.5544781  10.0000000  )
         5           Nb1 tau(   5) = (   5.5496897   3.6740691  12.2960562  )
         6           Nb1 tau(   6) = (   1.6911448   1.1195910  12.2960562  )
         7           Os1 tau(   7) = (   2.7748449   3.6740691  12.2960562  )
         8           Os1 tau(   8) = (   4.4659897   1.1195910  12.2960562  )
         9           Nb1 tau(   9) = (   3.6452338   2.4132636  14.6022911  )
        10           Nb1 tau(  10) = (   7.5037855   4.9677350  14.6022933  )
        11           Os1 tau(  11) = (   6.4288809   2.4190709  14.3925150  )
        12           Os1 tau(  12) = (   4.7377430   4.9735825  14.3925215  )

     number of k points=    20  Fermi-Dirac smearing, width (Ry)=  0.0110
                       cart. coord. in units 2pi/alat
        k(    1) = (   0.0000000   0.0000000   0.0000000), wk =   0.0555556
        k(    2) = (   0.0000000   0.0326225   0.0000000), wk =   0.1111111
        k(    3) = (   0.0000000   0.0652449   0.0000000), wk =   0.1111111
        k(    4) = (   0.0000000  -0.0978674   0.0000000), wk =   0.0555556
        k(    5) = (   0.0300317  -0.0127405   0.0000000), wk =   0.1111111
        k(    6) = (   0.0300317   0.0198819   0.0000000), wk =   0.1111111
        k(    7) = (   0.0300317   0.0525044   0.0000000), wk =   0.1111111
        k(    8) = (   0.0300317  -0.1106079   0.0000000), wk =   0.1111111
        k(    9) = (   0.0300317  -0.0779854   0.0000000), wk =   0.1111111
        k(   10) = (   0.0300317  -0.0453630   0.0000000), wk =   0.1111111
        k(   11) = (   0.0600634  -0.0254810   0.0000000), wk =   0.1111111
        k(   12) = (   0.0600634   0.0071414   0.0000000), wk =   0.1111111
        k(   13) = (   0.0600634   0.0397639   0.0000000), wk =   0.1111111
        k(   14) = (   0.0600634  -0.1233484   0.0000000), wk =   0.1111111
        k(   15) = (   0.0600634  -0.0907259   0.0000000), wk =   0.1111111
        k(   16) = (   0.0600634  -0.0581035   0.0000000), wk =   0.1111111
        k(   17) = (  -0.0900951   0.0382215   0.0000000), wk =   0.0555556
        k(   18) = (  -0.0900951   0.0708440   0.0000000), wk =   0.1111111
        k(   19) = (  -0.0900951   0.1034664   0.0000000), wk =   0.1111111
        k(   20) = (  -0.0900951  -0.0596458   0.0000000), wk =   0.0555556

     Largest allocated arrays     est. size (Mb)     dimensions
     Largest temporary arrays     est. size (Mb)     dimensions

     Initial potential from superposition of free atoms
     Check: negative starting charge=   -0.760003

     starting charge  170.98338, renormalised to  174.00000

[...]

     *
     * You are using vdW-DF for exchange-correlation in this calculation.
     * Please cite the following three references that made this development
     * possible:
     *
     *   M. Dion, H. Rydberg, E. Schroder, D. C. Langreth, and
     *   B. I. Lundqvist, Phys. Rev. Lett. 92, 246401 (2004).
     *
     *   T. Thonhauser, V. R. Cooper, S. Li, A. Puzder, P. Hyldgaard, and
     *   D. C. Langreth, Phys. Rev. B 76, 125112 (2007).
     *
     *   G. Roman-Perez and J. M. Soler, Phys. Rev. Lett. 103, 096102 (2009).
     *
     *
     * If you are using vdW-DF2, please also cite:
     *
     *   K. Lee, E. D. Murray, L. Kong, B. I. Lundqvist, and
     *   D. C. Langreth, Phys. Rev. B 82, 081101(R) (2010).
     *
     *
     * If you are calculating the stress with vdW-DF, please also cite:
     *
     *   R. Sabatini, E. Kucukbenli, B. Kolb, T. Thonhauser, and
     *   S. de Gironcoli, J. Phys.: Condens. Matter 24, 424209 (2012).
     *

     Carrying out vdW-DF run using the following parameters:

     Nqs =      20    Nr_points =    1024   r_max =   100.000
     q_mesh =
               0.00001000     0.04494208     0.09755937     0.15916263
               0.23128650     0.31572767     0.41458969     0.53033537
               0.66584808     0.82450364     1.01025438     1.22772762
               1.48234092     1.78043706     2.12944203     2.53805004
               3.01644009     3.57652955     4.23227104     5.00000000

     Gradients computed in reciprocal space

[...]

     Starting wfc are  156 randomized atomic wfcs

     Self-consistent Calculation

[...]

     total energy              =   -1910.03596131 Ry
     Harris-Foulkes estimate   =   -1910.03596044 Ry
     estimated scf accuracy    <       0.00000124 Ry

     iteration # 17     ecut=    36.75 Ry     beta=0.10
     Davidson diagonalization with overlap
     ethr =  7.13E-10,  avg # of iterations =  2.0

[...]

     negative rho (up, down):  7.587E-01 0.000E+00

     Adding external electric field

     Computed dipole along edir(3) :
        Dipole                0.1069 Ry au,          0.2716 Debye
        Dipole field          0.0003 Ry au

        Potential amp.       -0.0259 Ry
        Total length         45.3105 bohr

     End of self-consistent calculation

[...]

          k = 0.0601-0.0581 0.0000 ( 17711 PWs)   bands (ev):

[...]

          k =-0.0901-0.0596 0.0000 ( 17724 PWs)   bands (ev):

   -84.0969 -84.0913 -83.6230 -83.6173 -83.4777 -83.4722 -53.1177 -53.0971
   -53.0769 -53.0440 -53.0237 -52.9753 -43.5132 -43.3670 -43.3613 -43.3573
   -43.3561 -43.3442 -43.0149 -42.9249 -42.9154 -42.8988 -42.8898 -42.8628
   -42.8356 -42.8038 -42.7949 -42.7143 -42.7019 -42.6864 -29.3880 -29.3178
   -29.2347 -29.2258 -29.2165 -29.1890 -29.1721 -29.1572 -29.0988 -29.0547
   -29.0433 -29.0056 -28.9806 -28.9232 -28.9004 -28.8962 -28.7647 -28.6995
    -3.4186  -3.0449  -2.2185  -2.1932  -1.8395  -1.7065  -1.5104  -1.4580
    -1.3868  -1.2637  -1.1383  -0.9015  -0.8950  -0.6785  -0.6320  -0.5403
    -0.5223  -0.1155  -0.0456   0.1046   0.3338   0.3696   0.4163   0.5348
     0.6616   0.8267   0.8697   0.9327   1.0422   1.1444   1.1635   1.2606
     1.3438   1.3592   1.4324   1.4639   1.6278   1.7270   2.0757   2.1981
     2.2516   2.2796   2.3406   2.4790   2.7240   2.7581   3.0485   3.1732
     3.5358   3.5650   3.7978   3.7988   3.8250   4.0302   4.1601   4.1871
     4.1931   4.5126   4.9944   5.0534   5.1189   5.1741   5.4054   5.6403
     6.2042   6.2400   6.2666   6.5827   7.2427

     the Fermi energy is     2.5658 ev

!    total energy              =   -1910.03596436 Ry
     Harris-Foulkes estimate   =   -1910.03596118 Ry
     estimated scf accuracy    <       0.00000023 Ry

     The total energy is the sum of the following terms:

     one-electron contribution =  -16016.70201038 Ry
     hartree contribution      =    7995.08730297 Ry
     xc contribution           =    -346.41610502 Ry
     ewald contribution        =    6458.05096538 Ry
     electric field correction =       0.00003050 Ry
     smearing contrib. (-TS)   =      -0.05614781 Ry

     convergence has been achieved in  17 iterations

 BEEF-vdW xc energy contributions
           1 :   -301.456082051744
           2 :    277.721517285285
           3 :   -236.291792707837
           4 :    186.867199748038
           5 :   -139.468950511468
           6 :    101.475951686873
           7 :   -76.0415129437897
           8 :    62.1314282536244
           9 :   -55.8831042788077
          10 :    52.5822447570272
          11 :   -48.4901713455704
          12 :    41.8900136920709
          13 :   -33.1226973391702
          14 :    23.8056885932361
          15 :   -15.7458752441442
          16 :    10.0646438588004
          17 :   -6.85487975859439
          18 :    5.37671957190395
          19 :   -4.57776184546168
          20 :    3.62712772323846
          21 :   -2.22472218814579
          22 :   0.588966294612703
          23 :   0.798680890339540
          24 :   -1.52072786812977
          25 :    1.44523366506468
          26 :  -0.758798597432076
          27 :  -0.165447639349679
          28 :   0.962977215799413
          29 :   -1.43093886607909
          30 :    1.57330657332380
          31 :   -30.5287983862590
          32 :   -23.2103286478236

     Forces acting on atoms (Ry/au):

     negative rho (up, down):  7.587E-01 0.000E+00
     atom    1 type  1   force =    -0.01846254   -0.01222211   -0.02074217
     atom    2 type  1   force =    -0.01846239   -0.01222372   -0.02074148
     atom    3 type  2   force =     0.00351299    0.00232931    0.05069817
     atom    4 type  2   force =     0.00351466    0.00232351    0.05069839
     atom    5 type  1   force =     0.01022409    0.00676912   -0.03228039
     atom    6 type  1   force =     0.01022516    0.00676854   -0.03228489
     atom    7 type  2   force =     0.00418950    0.00277075    0.00169116
     atom    8 type  2   force =     0.00418637    0.00277473    0.00169084
     atom    9 type  1   force =     0.00009743    0.00006112    0.00094518
     atom   10 type  1   force =     0.00009298    0.00006466    0.00094480
     atom   11 type  2   force =     0.00043842    0.00029545   -0.00030850
     atom   12 type  2   force =     0.00044332    0.00028863   -0.00031110

     Total force =     0.097267     Total SCF correction =     0.001551

     entering subroutine stress ...

     negative rho (up, down):  7.587E-01 0.000E+00
          total   stress  (Ry/bohr**3)                   (kbar)     P=  -23.71
  -0.00022914  -0.00004258   0.00002841        -33.71     -6.26      4.18
  -0.00004258  -0.00019301   0.00001881         -6.26    -28.39      2.77
   0.00002841   0.00001881  -0.00006146          4.18      2.77     -9.04

 !ASE

     Writing output data file calc.save

     General routines

     Parallel routines

   This run was terminated on:  21:40: 6  18Dec2018

   JOB DONE.
Job  /afs/slac/g/suncat/bin/suncat-tsmpirun -x LD_LIBRARY_PATH -wdir /scratch/qe530300_lCe72 pw.x -in pw.inp

TID   HOST_NAME   COMMAND_LINE            STATUS            TERMINATION_TIME
00000 suncat2032 pw.x -in pw.inp   Done                     12/18/2018 21:40:06
00001 suncat2032 pw.x -in pw.inp   Done                     12/18/2018 21:40:06
00002 suncat2032 pw.x -in pw.inp   Done                     12/18/2018 21:40:06
00003 suncat2032 pw.x -in pw.inp   Done                     12/18/2018 21:40:06
00004 suncat2032 pw.x -in pw.inp   Done                     12/18/2018 21:40:06
00005 suncat2032 pw.x -in pw.inp   Done                     12/18/2018 21:40:06
00006 suncat2032 pw.x -in pw.inp   Done                     12/18/2018 21:40:06
00007 suncat2032 pw.x -in pw.inp   Done                     12/18/2018 21:40:06
00008 suncat2032 pw.x -in pw.inp   Done                     12/18/2018 21:40:06
00009 suncat2032 pw.x -in pw.inp   Done                     12/18/2018 21:40:06
00010 suncat2032 pw.x -in pw.inp   Done                     12/18/2018 21:40:06
00011 suncat2032 pw.x -in pw.inp   Done                     12/18/2018 21:40:06
00012 suncat2032 pw.x -in pw.inp   Done                     12/18/2018 21:40:06
00013 suncat2032 pw.x -in pw.inp   Done                     12/18/2018 21:40:06
00014 suncat2032 pw.x -in pw.inp   Done                     12/18/2018 21:40:06
00015 suncat2032 pw.x -in pw.inp   Done                     12/18/2018 21:40:06
00016 suncat2031 pw.x -in pw.inp   Done                     12/18/2018 21:40:06
00017 suncat2031 pw.x -in pw.inp   Done                     12/18/2018 21:40:06
00018 suncat2031 pw.x -in pw.inp   Done                     12/18/2018 21:40:06
00019 suncat2031 pw.x -in pw.inp   Done                     12/18/2018 21:40:06
00020 suncat2031 pw.x -in pw.inp   Done                     12/18/2018 21:40:06
00021 suncat2031 pw.x -in pw.inp   Done                     12/18/2018 21:40:06
00022 suncat2031 pw.x -in pw.inp   Done                     12/18/2018 21:40:06
00023 suncat2031 pw.x -in pw.inp   Done                     12/18/2018 21:40:06
00024 suncat2031 pw.x -in pw.inp   Done                     12/18/2018 21:40:06
00025 suncat2031 pw.x -in pw.inp   Done                     12/18/2018 21:40:06
00026 suncat2031 pw.x -in pw.inp   Done                     12/18/2018 21:40:06
00027 suncat2031 pw.x -in pw.inp   Done                     12/18/2018 21:40:06
00028 suncat2031 pw.x -in pw.inp   Done                     12/18/2018 21:40:06
00029 suncat2031 pw.x -in pw.inp   Done                     12/18/2018 21:40:06
00030 suncat2031 pw.x -in pw.inp   Done                     12/18/2018 21:40:06
00031 suncat2031 pw.x -in pw.inp   Done                     12/18/2018 21:40:06