     Program PWSCF v.5.1rc2 (svn rev. 11289) starts on 18Dec2018 at 20:29:47

     Current dimensions of program PWSCF are:
     Max number of different atomic species (ntypx) = 10
     Max number of k-points (npk) =  40000
     Max angular momentum in pseudopotentials (lmaxx) =  3
     Presently stress not available with electric field

     IMPORTANT: XC functional enforced from input :
     Exchange-correlation      = BEEF-VDW ( 1  4 27 13 2)
     Any further DFT definition will be discarded
     Please, verify this is what you really want

     Subspace diagonalization in iterative solution of the eigenvalue problem:
     a serial algorithm will be used

     Found symmetry operation: I + (  0.5000  0.0000  0.0000)
     This is a supercell, fractional translations are disabled

     bravais-lattice index     =            0
     lattice parameter (alat)  =       1.8897  a.u.
     unit-cell volume          =    5216.8894 (a.u.)^3
     number of atoms/cell      =           12
     number of atomic types    =            2
     number of electrons       =       156.00
     number of Kohn-Sham states=          108
     kinetic-energy cutoff     =      36.7493  Ry
     charge density cutoff     =     367.4932  Ry
     convergence threshold     =      1.0E-06
     mixing beta               =       0.1000
     number of iterations used =           10  plain     mixing
     Exchange-correlation      = BEEF-VDW ( 1  4 27 13 2)
     nstep                     =           50

     celldm(1)=   1.889726  celldm(2)=   0.000000  celldm(3)=   0.000000
     celldm(4)=   0.000000  celldm(5)=   0.000000  celldm(6)=   0.000000

     crystal axes: (cart. coord. in units of alat)
               a(1) = (   5.511200   0.000000   0.000000 )
               a(2) = (  -2.755600   5.653327   0.000000 )
               a(3) = (   0.000000   0.000000  24.812171 )

     reciprocal axes: (cart. coord. in units 2 pi/alat)
               b(1) = (  0.181449  0.088443  0.000000 )
               b(2) = (  0.000000  0.176887  0.000000 )
               b(3) = (  0.000000  0.000000  0.040303 )

     PseudoPot. # 1 for Nb read from file:
     /afs/slac.stanford.edu/u/if/mamunm/psp/gbrv1.5pbe/Nb.UPF
     MD5 check sum: 573aab8a2fa660278ed4a62cd769473f
     Pseudo is Ultrasoft + core correction, Zval = 13.0
     Generated by new atomic code, or converted to UPF format
     Using radial grid of  887 points,  6 beta functions with:
                l(1) =   0
                l(2) =   0
                l(3) =   1
                l(4) =   1
                l(5) =   2
                l(6) =   2
     Q(r) pseudized with  6 coefficients,  rinner =    1.000   1.000   1.000
                                                       1.000   1.000

     PseudoPot. # 2 for Ta read from file:
     /afs/slac.stanford.edu/u/if/mamunm/psp/gbrv1.5pbe/Ta.UPF
     MD5 check sum: f8bbe9446314a3b8ea5d9f3e3836c939
     Pseudo is Ultrasoft + core correction, Zval = 13.0
     Generated by new atomic code, or converted to UPF format
     Using radial grid of  921 points,  7 beta functions with:
                l(1) =   0
                l(2) =   0
                l(3) =   1
                l(4) =   1
                l(5) =   2
                l(6) =   2
                l(7) =   3
     Q(r) pseudized with  6 coefficients,  rinner =    1.300   1.300   1.300
                                                       1.300   1.300   1.300
                                                       1.300

     vdW kernel table read from file vdW_kernel_table
     MD5 check sum: 095c7af220d748ca6e76c0b4c6cfb241

     atomic species   valence    mass     pseudopotential
        Nb1           13.00    92.90637     Nb( 1.00)
        Ta1           13.00   180.94788     Ta( 1.00)

     No symmetry found

   Cartesian axes

     site n.     atom                  positions (alat units)
         1           Nb1 tau(   1) = (   0.0000000   0.0000000  10.0000000  )
         2           Nb1 tau(   2) = (   2.7555999   0.0000000  10.0000000  )
         3           Ta1 tau(   3) = (   1.3778000   2.8266634  10.0000000  )
         4           Ta1 tau(   4) = (  -1.3778000   2.8266634  10.0000000  )
         5           Nb1 tau(   5) = (   2.7555999   1.3431615  12.4060857  )
         6           Nb1 tau(   6) = (   0.0000000   1.3431615  12.4060857  )
         7           Ta1 tau(   7) = (  -1.3778000   4.1698249  12.4060857  )
         8           Ta1 tau(   8) = (   1.3778000   4.1698249  12.4060857  )
         9           Nb1 tau(   9) = (   0.0000000   2.6863230  14.8121713  )
        10           Nb1 tau(  10) = (   2.7555999   2.6863230  14.8121713  )
        11           Ta1 tau(  11) = (   1.3778000   5.5129864  14.8121713  )
        12           Ta1 tau(  12) = (  -1.3778000   5.5129864  14.8121713  )

     number of k points=    20  Fermi-Dirac smearing, width (Ry)=  0.0110
                       cart. coord. in units 2pi/alat
        k(    1) = (   0.0000000   0.0000000   0.0000000), wk =   0.0555556
        k(    2) = (   0.0000000   0.0294812   0.0000000), wk =   0.1111111
        k(    3) = (   0.0000000   0.0589623   0.0000000), wk =   0.1111111
        k(    4) = (   0.0000000  -0.0884435   0.0000000), wk =   0.0555556
        k(    5) = (   0.0302414   0.0147406   0.0000000), wk =   0.1111111
        k(    6) = (   0.0302414   0.0442217   0.0000000), wk =   0.1111111
        k(    7) = (   0.0302414   0.0737029   0.0000000), wk =   0.1111111
        k(    8) = (   0.0302414  -0.0737029   0.0000000), wk =   0.1111111
        k(    9) = (   0.0302414  -0.0442217   0.0000000), wk =   0.1111111
        k(   10) = (   0.0302414  -0.0147406   0.0000000), wk =   0.1111111
        k(   11) = (   0.0604829   0.0294812   0.0000000), wk =   0.1111111
        k(   12) = (   0.0604829   0.0589623   0.0000000), wk =   0.1111111
        k(   13) = (   0.0604829   0.0884435   0.0000000), wk =   0.1111111
        k(   14) = (   0.0604829  -0.0589623   0.0000000), wk =   0.1111111
        k(   15) = (   0.0604829  -0.0294812   0.0000000), wk =   0.1111111
        k(   16) = (   0.0604829   0.0000000   0.0000000), wk =   0.1111111
        k(   17) = (  -0.0907243  -0.0442217   0.0000000), wk =   0.0555556
        k(   18) = (  -0.0907243  -0.0147406   0.0000000), wk =   0.1111111
        k(   19) = (  -0.0907243   0.0147406   0.0000000), wk =   0.1111111
        k(   20) = (  -0.0907243  -0.1326652   0.0000000), wk =   0.0555556

     Largest allocated arrays     est. size (Mb)     dimensions
     Largest temporary arrays     est. size (Mb)     dimensions

     Initial potential from superposition of free atoms
     Check: negative starting charge=   -0.570169

     starting charge  155.97693, renormalised to  156.00000

     negative rho (up, down):  5.703E-01 0.000E+00

     *
     * You are using vdW-DF for exchange-correlation in this calculation.
     * Please cite the following three references that made this development
     * possible:
     *
     *   M. Dion, H. Rydberg, E. Schroder, D. C. Langreth, and
     *   B. I. Lundqvist, Phys. Rev. Lett. 92, 246401 (2004).
     *
     *   T. Thonhauser, V. R. Cooper, S. Li, A. Puzder, P. Hyldgaard, and
     *   D. C. Langreth, Phys. Rev. B 76, 125112 (2007).
     *
     *   G. Roman-Perez and J. M. Soler, Phys. Rev. Lett. 103, 096102 (2009).
     *
     *
     * If you are using vdW-DF2, please also cite:
     *
     *   K. Lee, E. D. Murray, L. Kong, B. I. Lundqvist, and
     *   D. C. Langreth, Phys. Rev. B 82, 081101(R) (2010).
     *
     *
     * If you are calculating the stress with vdW-DF, please also cite:
     *
     *   R. Sabatini, E. Kucukbenli, B. Kolb, T. Thonhauser, and
     *   S. de Gironcoli, J. Phys.: Condens. Matter 24, 424209 (2012).
     *

     Carrying out vdW-DF run using the following parameters:

     Nqs =      20    Nr_points =    1024   r_max =   100.000
     q_mesh =
               0.00001000     0.04494208     0.09755937     0.15916263
               0.23128650     0.31572767     0.41458969     0.53033537
               0.66584808     0.82450364     1.01025438     1.22772762
               1.48234092     1.78043706     2.12944203     2.53805004
               3.01644009     3.57652955     4.23227104     5.00000000

     Gradients computed in reciprocal space

     Adding external electric field

     Computed dipole along edir(3) :
        Dipole               -0.0000 Ry au,         -0.0000 Debye
        Dipole field         -0.0000 Ry au

        Potential amp.        0.0000 Ry
        Total length         45.7160 bohr

     Starting wfc are  156 randomized atomic wfcs

     Self-consistent Calculation

     iteration #  1     ecut=    36.75 Ry     beta=0.10
     Davidson diagonalization with overlap
     ethr =  1.00E-02,  avg # of iterations =  2.0

[...]

     total energy              =   -1569.76039090 Ry
     Harris-Foulkes estimate   =   -1570.82625092 Ry
     estimated scf accuracy    <       6.15513723 Ry

[...]

     iteration #  8     ecut=    36.75 Ry     beta=0.10
     Davidson diagonalization with overlap
     c_bands:  1 eigenvalues not converged
     ethr =  1.35E-05,  avg # of iterations =  8.5

[...]

     End of self-consistent calculation

          k = 0.0000 0.0000 0.0000 ( 19617 PWs)   bands (ev):

   -66.4083 -66.4057 -66.3331 -66.3306 -66.1400 -66.0638 -53.2262 -53.2100
   -53.0743 -53.0591 -53.0328 -52.8814 -33.1855 -33.1650 -33.1007 -33.0116
   -32.9604 -32.8701 -32.7815 -32.7512 -32.7443 -32.6466 -32.6126 -32.5274
   -32.3902 -32.2696 -32.1625 -32.1256 -32.1182 -31.9620 -29.7396 -29.7169
   -29.6073 -29.6034 -29.4562 -29.3104 -29.1902 -29.1686 -29.1634 -29.0639
   -29.0341 -29.0248 -28.8947 -28.7368 -28.6161 -28.5539 -28.5400 -28.4345
    -4.6731  -3.2275  -2.4425  -1.9487  -1.8056  -1.7981  -1.7898  -1.5249
    -1.4204  -1.0762  -1.0507  -0.8401  -0.8233  -0.8219  -0.7312   0.0296
     0.0451   0.3365   0.3706   0.6593   0.7471   1.0479   1.2261   1.2989
     1.3013   1.3358   1.7750   2.1355   2.3058   2.3207   2.3466   2.6575
     2.6609   2.6981   3.0991   3.1922   3.4631   3.6558   3.6877   3.7550
     3.7793   3.8798   3.9647   4.1083   4.1485   4.3084   4.3998   4.5373
     4.5992   4.6641   4.9110   5.1273   5.4549   5.6995   5.8342   5.9052
     5.9120   6.0427   6.0755   6.1947

[...]

          k =-0.0907-0.0442 0.0000 ( 19670 PWs)   bands (ev):

[...]

     the Fermi energy is     1.8179 ev

!    total energy              =   -1570.22078353 Ry
     Harris-Foulkes estimate   =   -1570.22078321 Ry
     estimated scf accuracy    <       0.00000079 Ry

     The total energy is the sum of the following terms:

     one-electron contribution =  -11331.29002974 Ry
     hartree contribution      =    5652.43908379 Ry
     xc contribution           =    -375.58287380 Ry
     ewald contribution        =    4484.30656522 Ry
     electric field correction =       0.00000001 Ry
     smearing contrib. (-TS)   =      -0.09352901 Ry

     convergence has been achieved in  16 iterations

 BEEF-vdW xc energy contributions
           1 :   -328.169760649589
           2 :    301.707768531466
           3 :   -255.768706435481
           4 :    201.430081428729
[...]
00031 suncat2021 pw.x -in pw.inp   Done                     12/18/2018 20:43:54

[...]

     Total force =     0.034867     Total SCF correction =     0.004712
     SCF correction compared to forces is large: reduce conv_thr to get better values

[...]

     Program PWSCF v.5.1rc2 (svn rev. 11289) starts on 18Dec2018 at 21:40:58

     Current dimensions of program PWSCF are:
     Max number of different atomic species (ntypx) = 10
     Max number of k-points (npk) =  40000
     Max angular momentum in pseudopotentials (lmaxx) =  3
     Presently stress not available with electric field

     IMPORTANT: XC functional enforced from input :
     Exchange-correlation      = BEEF-VDW ( 1  4 27 13 2)
     Any further DFT definition will be discarded
     Please, verify this is what you really want

     Subspace diagonalization in iterative solution of the eigenvalue problem:
     a serial algorithm will be used

     Found symmetry operation: I + (  0.5000  0.0000  0.0000)
     This is a supercell, fractional translations are disabled

     bravais-lattice index     =            0
     lattice parameter (alat)  =       1.8897  a.u.
     unit-cell volume          =    5216.8894 (a.u.)^3
     number of atoms/cell      =           12
     number of atomic types    =            2
     number of electrons       =       156.00
     number of Kohn-Sham states=          108
     kinetic-energy cutoff     =      36.7493  Ry
     charge density cutoff     =     367.4932  Ry
     convergence threshold     =      1.0E-06
     mixing beta               =       0.1000
     number of iterations used =           10  plain     mixing
     Exchange-correlation      = BEEF-VDW ( 1  4 27 13 2)
     nstep                     =           50

     celldm(1)=   1.889726  celldm(2)=   0.000000  celldm(3)=   0.000000
     celldm(4)=   0.000000  celldm(5)=   0.000000  celldm(6)=   0.000000

     crystal axes: (cart. coord. in units of alat)
               a(1) = (   5.511200   0.000000   0.000000 )
               a(2) = (  -2.755600   5.653327   0.000000 )
               a(3) = (   0.000000   0.000000  24.812171 )

     reciprocal axes: (cart. coord. in units 2 pi/alat)
               b(1) = (  0.181449  0.088443  0.000000 )
               b(2) = (  0.000000  0.176887  0.000000 )
               b(3) = (  0.000000  0.000000  0.040303 )

     PseudoPot. # 1 for Nb read from file:
     /afs/slac.stanford.edu/u/if/mamunm/psp/gbrv1.5pbe/Nb.UPF
     MD5 check sum: 573aab8a2fa660278ed4a62cd769473f
     Pseudo is Ultrasoft + core correction, Zval = 13.0
     Generated by new atomic code, or converted to UPF format
     Using radial grid of  887 points,  6 beta functions with:
                l(1) =   0
                l(2) =   0
                l(3) =   1
                l(4) =   1
                l(5) =   2
                l(6) =   2
     Q(r) pseudized with  6 coefficients,  rinner =    1.000   1.000   1.000
                                                       1.000   1.000

     PseudoPot. # 2 for Ta read from file:
     /afs/slac.stanford.edu/u/if/mamunm/psp/gbrv1.5pbe/Ta.UPF
     MD5 check sum: f8bbe9446314a3b8ea5d9f3e3836c939
     Pseudo is Ultrasoft + core correction, Zval = 13.0
     Generated by new atomic code, or converted to UPF format
     Using radial grid of  921 points,  7 beta functions with:
                l(1) =   0
                l(2) =   0
                l(3) =   1
                l(4) =   1
                l(5) =   2
                l(6) =   2
                l(7) =   3
     Q(r) pseudized with  6 coefficients,  rinner =    1.300   1.300   1.300
                                                       1.300   1.300   1.300
                                                       1.300

     vdW kernel table read from file vdW_kernel_table
     MD5 check sum: 095c7af220d748ca6e76c0b4c6cfb241

     atomic species   valence    mass     pseudopotential
        Nb1           13.00    92.90637     Nb( 1.00)
        Ta1           13.00   180.94788     Ta( 1.00)

     No symmetry found

   Cartesian axes

     site n.     atom                  positions (alat units)
         1           Nb1 tau(   1) = (   0.0000000   0.0000000  10.0000000  )
         2           Nb1 tau(   2) = (   2.7555999   0.0000000  10.0000000  )
         3           Ta1 tau(   3) = (   1.3778000   2.8266634  10.0000000  )
         4           Ta1 tau(   4) = (  -1.3778000   2.8266634  10.0000000  )
         5           Nb1 tau(   5) = (   2.7555999   1.3431615  12.4060857  )
         6           Nb1 tau(   6) = (   0.0000000   1.3431615  12.4060857  )
         7           Ta1 tau(   7) = (  -1.3778000   4.1698249  12.4060857  )
         8           Ta1 tau(   8) = (   1.3778000   4.1698249  12.4060857  )
         9           Nb1 tau(   9) = (   0.0001725   2.7365131  14.7266520  )
        10           Nb1 tau(  10) = (   2.7557762   2.7365086  14.7266573  )
        11           Ta1 tau(  11) = (   1.3778480   5.5733130  14.7550042  )
        12           Ta1 tau(  12) = (  -1.3777539   5.5733016  14.7549896  )

     number of k points=    20  Fermi-Dirac smearing, width (Ry)=  0.0110
                       cart. coord. in units 2pi/alat
        k(    1) = (   0.0000000   0.0000000   0.0000000), wk =   0.0555556
        k(    2) = (   0.0000000   0.0294812   0.0000000), wk =   0.1111111
        k(    3) = (   0.0000000   0.0589623   0.0000000), wk =   0.1111111
        k(    4) = (   0.0000000  -0.0884435   0.0000000), wk =   0.0555556
        k(    5) = (   0.0302414   0.0147406   0.0000000), wk =   0.1111111
        k(    6) = (   0.0302414   0.0442217   0.0000000), wk =   0.1111111
        k(    7) = (   0.0302414   0.0737029   0.0000000), wk =   0.1111111
        k(    8) = (   0.0302414  -0.0737029   0.0000000), wk =   0.1111111
        k(    9) = (   0.0302414  -0.0442217   0.0000000), wk =   0.1111111
        k(   10) = (   0.0302414  -0.0147406   0.0000000), wk =   0.1111111
        k(   11) = (   0.0604829   0.0294812   0.0000000), wk =   0.1111111
        k(   12) = (   0.0604829   0.0589623   0.0000000), wk =   0.1111111
        k(   13) = (   0.0604829   0.0884435   0.0000000), wk =   0.1111111
        k(   14) = (   0.0604829  -0.0589623   0.0000000), wk =   0.1111111
        k(   15) = (   0.0604829  -0.0294812   0.0000000), wk =   0.1111111
        k(   16) = (   0.0604829   0.0000000   0.0000000), wk =   0.1111111
        k(   17) = (  -0.0907243  -0.0442217   0.0000000), wk =   0.0555556
        k(   18) = (  -0.0907243  -0.0147406   0.0000000), wk =   0.1111111
        k(   19) = (  -0.0907243   0.0147406   0.0000000), wk =   0.1111111
        k(   20) = (  -0.0907243  -0.1326652   0.0000000), wk =   0.0555556

     Largest allocated arrays     est. size (Mb)     dimensions
     Largest temporary arrays     est. size (Mb)     dimensions

     Initial potential from superposition of free atoms
     Check: negative starting charge=   -0.569474

     starting charge  155.97693, renormalised to  156.00000

[...]

     *
     * You are using vdW-DF for exchange-correlation in this calculation.
     * Please cite the following three references that made this development
     * possible:
     *
     *   M. Dion, H. Rydberg, E. Schroder, D. C. Langreth, and
     *   B. I. Lundqvist, Phys. Rev. Lett. 92, 246401 (2004).
     *
     *   T. Thonhauser, V. R. Cooper, S. Li, A. Puzder, P. Hyldgaard, and
     *   D. C. Langreth, Phys. Rev. B 76, 125112 (2007).
     *
     *   G. Roman-Perez and J. M. Soler, Phys. Rev. Lett. 103, 096102 (2009).
     *
     *
     * If you are using vdW-DF2, please also cite:
     *
     *   K. Lee, E. D. Murray, L. Kong, B. I. Lundqvist, and
     *   D. C. Langreth, Phys. Rev. B 82, 081101(R) (2010).
     *
     *
     * If you are calculating the stress with vdW-DF, please also cite:
     *
     *   R. Sabatini, E. Kucukbenli, B. Kolb, T. Thonhauser, and
     *   S. de Gironcoli, J. Phys.: Condens. Matter 24, 424209 (2012).
     *

     Carrying out vdW-DF run using the following parameters:

     Nqs =      20    Nr_points =    1024   r_max =   100.000
     q_mesh =
               0.00001000     0.04494208     0.09755937     0.15916263
               0.23128650     0.31572767     0.41458969     0.53033537
               0.66584808     0.82450364     1.01025438     1.22772762
               1.48234092     1.78043706     2.12944203     2.53805004
               3.01644009     3.57652955     4.23227104     5.00000000

     Gradients computed in reciprocal space

[...]

     Starting wfc are  156 randomized atomic wfcs

     Self-consistent Calculation

[...]

     iteration #  7     ecut=    36.75 Ry     beta=0.10
     Davidson diagonalization with overlap
     c_bands:  1 eigenvalues not converged
     ethr =  4.70E-05,  avg # of iterations =  5.3

[...]

     total energy              =   -1570.22557713 Ry
     Harris-Foulkes estimate   =   -1570.22557784 Ry
     estimated scf accuracy    <       0.00000793 Ry

     iteration # 16     ecut=    36.75 Ry     beta=0.10
     Davidson diagonalization with overlap
     ethr =  3.53E-09,  avg # of iterations =  2.0

[...]

     negative rho (up, down):  5.950E-01 0.000E+00

     Adding external electric field

     Computed dipole along edir(3) :
        Dipole                0.0121 Ry au,          0.0308 Debye
        Dipole field          0.0000 Ry au

        Potential amp.       -0.0027 Ry
        Total length         45.7160 bohr

     End of self-consistent calculation

[...]

          k = 0.0605 0.0000 0.0000 ( 19650 PWs)   bands (ev):

[...]

          k =-0.0907-0.1327 0.0000 ( 19670 PWs)   bands (ev):

   -66.3589 -66.3589 -66.3491 -66.3491 -66.0694 -66.0694 -53.1372 -53.1372
   -53.1060 -53.1060 -52.9249 -52.9249 -33.0266 -33.0266 -32.8039 -32.8039
   -32.6989 -32.6989 -32.6643 -32.6642 -32.6602 -32.6602 -32.6460 -32.6460
   -32.4820 -32.4820 -32.4305 -32.4304 -32.1873 -32.1873 -29.5547 -29.5547
   -29.2218 -29.2218 -29.1617 -29.1617 -29.1302 -29.1302 -29.1189 -29.1189
   -29.0851 -29.0851 -29.0133 -29.0133 -28.9351 -28.9351 -28.6264 -28.6264
    -2.8457  -2.8457  -1.6217  -1.6217  -1.1111  -1.1111  -0.7606  -0.7606
    -0.6119  -0.6119  -0.1784  -0.1784   0.1863   0.1863   0.2900   0.2900
     0.5049   0.5049   0.7493   0.7493   0.9177   0.9177   1.2805   1.2806
     1.3461   1.3461   1.5547   1.5547   1.6858   1.6858   1.7646   1.7646
     2.0614   2.0614   2.1690   2.1690   2.3140   2.3140   3.0755   3.0755
     3.4452   3.4452   3.5718   3.5718   3.6445   3.6445   3.8811   3.8811
     4.0899   4.0899   4.1238   4.1238   4.2458   4.2458   4.5840   4.5840
     4.9307   4.9307   5.4895   5.4895

     the Fermi energy is     1.8248 ev

!    total energy              =   -1570.22557807 Ry
     Harris-Foulkes estimate   =   -1570.22557791 Ry
     estimated scf accuracy    <       0.00000094 Ry

     The total energy is the sum of the following terms:

     one-electron contribution =  -11447.37680602 Ry
     hartree contribution      =    5710.60318045 Ry
     xc contribution           =    -375.72023328 Ry
     ewald contribution        =    4542.36099200 Ry
     electric field correction =       0.00000035 Ry
     smearing contrib. (-TS)   =      -0.09271158 Ry

     convergence has been achieved in  16 iterations

 BEEF-vdW xc energy contributions
           1 :   -328.307383125430
           2 :    301.890024596966
           3 :   -256.005747113064
           4 :    201.685885965479
           5 :   -149.952026579860
           6 :    108.296277447779
           7 :   -79.1219391397003
           8 :    60.4183350324383
           9 :   -47.9566842549227
          10 :    37.7260176203143
          11 :   -27.5162239157389
          12 :    17.1739899905205
          13 :   -7.80564412724760
          14 :   0.606043871732311
          15 :    3.99359043508019
          16 :   -6.51620829566906
          17 :    8.02886397985014
          18 :   -9.49366847926422
          19 :    11.2807722085349
          20 :   -13.0935487538578
          21 :    14.2841283332154
          22 :   -14.3309380026433
          23 :    13.1803837321815
          24 :   -11.2759737121627
          25 :    9.29459097863247
          26 :   -7.78196841187196
          27 :    6.90706491112223
          28 :   -6.46050408601241
          29 :    6.05889955431888
          30 :   -5.40778469469103
          31 :   -31.7903444984629
          32 :   -23.7566328659602

     Forces acting on atoms (Ry/au):

     negative rho (up, down):  5.950E-01 0.000E+00
     atom    1 type  1   force =     0.00000049   -0.00446488    0.01565589
     atom    2 type  1   force =    -0.00000005   -0.00446512    0.01565565
     atom    3 type  2   force =    -0.00000013   -0.00486432    0.01093298
     atom    4 type  2   force =     0.00000177   -0.00486289    0.01093435
     atom    5 type  1   force =    -0.00000483    0.00300577   -0.01378352
     atom    6 type  1   force =    -0.00000569    0.00300603   -0.01378418
     atom    7 type  2   force =    -0.00000308    0.00550686   -0.01223867
     atom    8 type  2   force =    -0.00000394    0.00551076   -0.01223222
     atom    9 type  1   force =    -0.00000117    0.00095584    0.00049269
     atom   10 type  1   force =    -0.00000037    0.00095687    0.00049267
     atom   11 type  2   force =     0.00000771   -0.00014297   -0.00106367
     atom   12 type  2   force =     0.00000928   -0.00014194   -0.00106196

     Total force =     0.039740     Total SCF correction =     0.003049

     entering subroutine stress ...

     negative rho (up, down):  5.950E-01 0.000E+00
          total   stress  (Ry/bohr**3)                   (kbar)     P=  -24.29
  -0.00016578   0.00000002   0.00000003        -24.39      0.00      0.00
   0.00000002  -0.00025837   0.00001782          0.00    -38.01      2.62
   0.00000003   0.00001782  -0.00007118          0.00      2.62    -10.47

 !ASE

     Writing output data file calc.save

     General routines

     Parallel routines

   This run was terminated on:  21:54:54  18Dec2018

   JOB DONE.
Job  /afs/slac/g/suncat/bin/suncat-tsmpirun -x LD_LIBRARY_PATH -wdir /scratch/qe530319_aiaGn pw.x -in pw.inp

TID   HOST_NAME   COMMAND_LINE            STATUS            TERMINATION_TIME
00000 suncat2022 pw.x -in pw.inp   Done                     12/18/2018 21:54:54
00001 suncat2022 pw.x -in pw.inp   Done                     12/18/2018 21:54:54
00002 suncat2022 pw.x -in pw.inp   Done                     12/18/2018 21:54:54
00003 suncat2022 pw.x -in pw.inp   Done                     12/18/2018 21:54:54
00004 suncat2022 pw.x -in pw.inp   Done                     12/18/2018 21:54:54
00005 suncat2022 pw.x -in pw.inp   Done                     12/18/2018 21:54:54
00006 suncat2022 pw.x -in pw.inp   Done                     12/18/2018 21:54:54
00007 suncat2022 pw.x -in pw.inp   Done                     12/18/2018 21:54:54
00008 suncat2022 pw.x -in pw.inp   Done                     12/18/2018 21:54:54
00009 suncat2022 pw.x -in pw.inp   Done                     12/18/2018 21:54:54
00010 suncat2022 pw.x -in pw.inp   Done                     12/18/2018 21:54:54
00011 suncat2022 pw.x -in pw.inp   Done                     12/18/2018 21:54:54
00012 suncat2022 pw.x -in pw.inp   Done                     12/18/2018 21:54:54
00013 suncat2022 pw.x -in pw.inp   Done                     12/18/2018 21:54:54
00014 suncat2022 pw.x -in pw.inp   Done                     12/18/2018 21:54:54
00015 suncat2022 pw.x -in pw.inp   Done                     12/18/2018 21:54:54
00016 suncat2021 pw.x -in pw.inp   Done                     12/18/2018 21:54:54
00017 suncat2021 pw.x -in pw.inp   Done                     12/18/2018 21:54:54
00018 suncat2021 pw.x -in pw.inp   Done                     12/18/2018 21:54:54
00019 suncat2021 pw.x -in pw.inp   Done                     12/18/2018 21:54:54
00020 suncat2021 pw.x -in pw.inp   Done                     12/18/2018 21:54:54
00021 suncat2021 pw.x -in pw.inp   Done                     12/18/2018 21:54:54
00022 suncat2021 pw.x -in pw.inp   Done                     12/18/2018 21:54:54
00023 suncat2021 pw.x -in pw.inp   Done                     12/18/2018 21:54:54
00024 suncat2021 pw.x -in pw.inp   Done                     12/18/2018 21:54:54
00025 suncat2021 pw.x -in pw.inp   Done                     12/18/2018 21:54:54
00026 suncat2021 pw.x -in pw.inp   Done                     12/18/2018 21:54:54
00027 suncat2021 pw.x -in pw.inp   Done                     12/18/2018 21:54:54
00028 suncat2021 pw.x -in pw.inp   Done                     12/18/2018 21:54:54
00029 suncat2021 pw.x -in pw.inp   Done                     12/18/2018 21:54:54
00030 suncat2021 pw.x -in pw.inp   Done                     12/18/2018 21:54:54
00031 suncat2021 pw.x -in pw.inp   Done                     12/18/2018 21:54:54