     Program PWSCF v.5.1rc2 (svn rev. 11289) starts on 19Dec2018 at  6:17:34

     Current dimensions of program PWSCF are:
     Max number of different atomic species (ntypx) = 10
     Max number of k-points (npk) =  40000
     Max angular momentum in pseudopotentials (lmaxx) =  3
     Presently stress not available with electric field

     IMPORTANT: XC functional enforced from input :
     Exchange-correlation      = BEEF-VDW ( 1  4 27 13 2)
     Any further DFT definition will be discarded
     Please, verify this is what you really want

     Subspace diagonalization in iterative solution of the eigenvalue problem:
     a serial algorithm will be used

     Found symmetry operation: I + ( -0.5000  0.0000  0.0000)
     This is a supercell, fractional translations are disabled

     Generating pointlists ...
     new r_m :   0.4125 (alat units)  0.7795 (a.u.) for type    1
     new r_m :   0.4125 (alat units)  0.7795 (a.u.) for type    2

     bravais-lattice index     =            0
     lattice parameter (alat)  =       1.8897  a.u.
     unit-cell volume          =    3826.8672 (a.u.)^3
     number of atoms/cell      =           12
     number of atomic types    =            2
     number of electrons       =       222.00
     number of Kohn-Sham states=          141
     kinetic-energy cutoff     =      36.7493  Ry
     charge density cutoff     =     367.4932  Ry
     convergence threshold     =      1.0E-06
     mixing beta               =       0.1000
     number of iterations used =           10  plain     mixing
     Exchange-correlation      = BEEF-VDW ( 1  4 27 13 2)
     nstep                     =           50

     celldm(1)=   1.889726  celldm(2)=   0.000000  celldm(3)=   0.000000
     celldm(4)=   0.000000  celldm(5)=   0.000000  celldm(6)=   0.000000

     crystal axes: (cart. coord. in units of alat)
               a(1) = (   5.159064   0.000000   0.000000 )
               a(2) = (  -2.579532   4.534122   0.000000 )
               a(3) = (   0.000000   0.000000  24.242794 )

     reciprocal axes: (cart. coord. in units 2 pi/alat)
               b(1) = (  0.193834  0.110275  0.000000 )
               b(2) = (  0.000000  0.220550  0.000000 )
               b(3) = (  0.000000  0.000000  0.041249 )

     PseudoPot. # 1 for Co read from file:
     /afs/slac.stanford.edu/u/if/mamunm/psp/gbrv1.5pbe/Co.UPF
     MD5 check sum: 5f91765df6ddd3222702df6e7b74a16d
     Pseudo is Ultrasoft + core correction, Zval = 17.0
     Generated by new atomic code, or converted to UPF format
     Using radial grid of  863 points,  6 beta functions with:
                l(1) =   0
                l(2) =   0
                l(3) =   1
                l(4) =   1
                l(5) =   2
                l(6) =   2
     Q(r) pseudized with  8 coefficients,  rinner =    1.200   1.200   1.200
                                                       1.200   1.200

     PseudoPot. # 2 for Zn read from file:
     /afs/slac.stanford.edu/u/if/mamunm/psp/gbrv1.5pbe/Zn.UPF
     MD5 check sum: df62231357ef9e81f77b2b3087fa5675
     Pseudo is Ultrasoft, Zval = 20.0
     Generated by new atomic code, or converted to UPF format
     Using radial grid of  943 points,  6 beta functions with:
                l(1) =   0
                l(2) =   0
                l(3) =   1
                l(4) =   1
                l(5) =   2
                l(6) =   2
     Q(r) pseudized with  8 coefficients,  rinner =    1.100   1.100   1.100
                                                       1.100   1.100

     vdW kernel table read from file vdW_kernel_table
     MD5 check sum: 095c7af220d748ca6e76c0b4c6cfb241

     atomic species   valence    mass     pseudopotential
        Co1           17.00    58.93319     Co( 1.00)
        Zn1           20.00    65.38000     Zn( 1.00)

     Starting magnetic structure
     atomic species   magnetization
        Co1          0.118
        Zn1          0.100

     No symmetry found

   Cartesian axes

     site n.     atom                  positions (alat units)
         1           Co1 tau(   1) = (   0.0000000   0.0000000  10.0000000  )
         2           Co1 tau(   2) = (   2.5795320   0.0000000  10.0000000  )
         3           Zn1 tau(   3) = (   1.2897660   2.2670611  10.0000000  )
         4           Zn1 tau(   4) = (  -1.2897660   2.2670611  10.0000000  )
         5           Co1 tau(   5) = (   2.5795320   1.4675355  12.1213969  )
         6           Co1 tau(   6) = (  -0.0000000   1.4675355  12.1213969  )
         7           Zn1 tau(   7) = (  -1.2897660   3.7345966  12.1213969  )
         8           Zn1 tau(   8) = (   1.2897660   3.7345966  12.1213969  )
         9           Co1 tau(   9) = (  -0.0000000   2.9350710  14.2427938  )
        10           Co1 tau(  10) = (   2.5795320   2.9350710  14.2427938  )
        11           Zn1 tau(  11) = (   3.8692980   0.6680100  14.2427938  )
        12           Zn1 tau(  12) = (   1.2897660   0.6680100  14.2427938  )

     number of k points=    40  Fermi-Dirac smearing, width (Ry)=  0.0110
                       cart. coord. in units 2pi/alat
        k(    1) = (   0.0000000   0.0000000   0.0000000), wk =   0.0277778
        k(    2) = (   0.0000000   0.0367583   0.0000000), wk =   0.0555556
        k(    3) = (   0.0000000   0.0735166   0.0000000), wk =   0.0555556
        k(    4) = (   0.0000000  -0.1102749   0.0000000), wk =   0.0277778
        k(    5) = (   0.0323056   0.0183792   0.0000000), wk =   0.0555556
        k(    6) = (   0.0323056   0.0551375   0.0000000), wk =   0.0555556
        k(    7) = (   0.0323056   0.0918958   0.0000000), wk =   0.0555556
        k(    8) = (   0.0323056  -0.0918958   0.0000000), wk =   0.0555556
        k(    9) = (   0.0323056  -0.0551375   0.0000000), wk =   0.0555556
        k(   10) = (   0.0323056  -0.0183792   0.0000000), wk =   0.0555556
        k(   11) = (   0.0646112   0.0367583   0.0000000), wk =   0.0555556
        k(   12) = (   0.0646112   0.0735166   0.0000000), wk =   0.0555556
        k(   13) = (   0.0646112   0.1102749   0.0000000), wk =   0.0555556
        k(   14) = (   0.0646112  -0.0735166   0.0000000), wk =   0.0555556
        k(   15) = (   0.0646112  -0.0367583   0.0000000), wk =   0.0555556
        k(   16) = (   0.0646112   0.0000000   0.0000000), wk =   0.0555556
        k(   17) = (  -0.0969168  -0.0551375   0.0000000), wk =   0.0277778
        k(   18) = (  -0.0969168  -0.0183792   0.0000000), wk =   0.0555556
        k(   19) = (  -0.0969168   0.0183792   0.0000000), wk =   0.0555556
        k(   20) = (  -0.0969168  -0.1654124   0.0000000), wk =   0.0277778
        k(   21) = (   0.0000000   0.0000000   0.0000000), wk =   0.0277778
        k(   22) = (   0.0000000   0.0367583   0.0000000), wk =   0.0555556
        k(   23) = (   0.0000000   0.0735166   0.0000000), wk =   0.0555556
        k(   24) = (   0.0000000  -0.1102749   0.0000000), wk =   0.0277778
        k(   25) = (   0.0323056   0.0183792   0.0000000), wk =   0.0555556
        k(   26) = (   0.0323056   0.0551375   0.0000000), wk =   0.0555556
        k(   27) = (   0.0323056   0.0918958   0.0000000), wk =   0.0555556
        k(   28) = (   0.0323056  -0.0918958   0.0000000), wk =   0.0555556
        k(   29) = (   0.0323056  -0.0551375   0.0000000), wk =   0.0555556
        k(   30) = (   0.0323056  -0.0183792   0.0000000), wk =   0.0555556
        k(   31) = (   0.0646112   0.0367583   0.0000000), wk =   0.0555556
        k(   32) = (   0.0646112   0.0735166   0.0000000), wk =   0.0555556
        k(   33) = (   0.0646112   0.1102749   0.0000000), wk =   0.0555556
        k(   34) = (   0.0646112  -0.0735166   0.0000000), wk =   0.0555556
        k(   35) = (   0.0646112  -0.0367583   0.0000000), wk =   0.0555556
        k(   36) = (   0.0646112   0.0000000   0.0000000), wk =   0.0555556
        k(   37) = (  -0.0969168  -0.0551375   0.0000000), wk =   0.0277778
        k(   38) = (  -0.0969168  -0.0183792   0.0000000), wk =   0.0555556
        k(   39) = (  -0.0969168   0.0183792   0.0000000), wk =   0.0555556
        k(   40) = (  -0.0969168  -0.1654124   0.0000000), wk =   0.0277778

     Largest allocated arrays     est. size (Mb)     dimensions
     Largest temporary arrays     est. size (Mb)     dimensions

     Check: negative/imaginary core charge=   -0.000004    0.000000

     Initial potential from superposition of free atoms
     Check: negative starting charge=(component1):   -0.000359
     Check: negative starting charge=(component2):   -0.000292

     starting charge  215.99911, renormalised to  222.00000

     negative rho (up, down):  3.692E-04 3.003E-04

     *
     * You are using vdW-DF for exchange-correlation in this calculation.
     * Please cite the following three references that made this development
     * possible:
     *
     *   M. Dion, H. Rydberg, E. Schroder, D. C. Langreth, and
     *   B. I. Lundqvist, Phys. Rev. Lett. 92, 246401 (2004).
     *
     *   T. Thonhauser, V. R. Cooper, S. Li, A. Puzder, P. Hyldgaard, and
     *   D. C. Langreth, Phys. Rev. B 76, 125112 (2007).
     *
     *   G. Roman-Perez and J. M. Soler, Phys. Rev. Lett. 103, 096102 (2009).
     *
     *
     * If you are using vdW-DF2, please also cite:
     *
     *   K. Lee, E. D. Murray, L. Kong, B. I. Lundqvist, and
     *   D. C. Langreth, Phys. Rev. B 82, 081101(R) (2010).
     *
     *
     * If you are calculating the stress with vdW-DF, please also cite:
     *
     *   R. Sabatini, E. Kucukbenli, B. Kolb, T. Thonhauser, and
     *   S. de Gironcoli, J. Phys.: Condens. Matter 24, 424209 (2012).
     *

     Carrying out vdW-DF run using the following parameters:

     Nqs =      20    Nr_points =    1024   r_max =   100.000
     q_mesh =
               0.00001000     0.04494208     0.09755937     0.15916263
               0.23128650     0.31572767     0.41458969     0.53033537
               0.66584808     0.82450364     1.01025438     1.22772762
               1.48234092     1.78043706     2.12944203     2.53805004
               3.01644009     3.57652955     4.23227104     5.00000000

     Gradients computed in reciprocal space

     Adding external electric field

     Computed dipole along edir(3) :
        Dipole               -0.0000 Ry au,         -0.0000 Debye
        Dipole field         -0.0000 Ry au

        Potential amp.        0.0000 Ry
        Total length         44.6669 bohr

[...]

     Starting wfc are  156 randomized atomic wfcs

     Self-consistent Calculation

     iteration #  1     ecut=    36.75 Ry     beta=0.10
     Davidson diagonalization with overlap
     ethr =  1.00E-02,  avg # of iterations =  7.0

[...]

     Magnetic moment per site:
     atom:    1    charge:    8.4961    magn:    0.9388    constr:    0.0000
     atom:    2    charge:    8.4961    magn:    0.9388    constr:    0.0000
     atom:    3    charge:   11.7013    magn:    1.2114    constr:    0.0000
     atom:    4    charge:   11.7013    magn:    1.2114    constr:    0.0000
     atom:    5    charge:    8.4930    magn:    0.9449    constr:    0.0000
     atom:    6    charge:    8.4930    magn:    0.9449    constr:    0.0000
[...]

     PseudoPot. # 2 for Zn read from file:
     /afs/slac.stanford.edu/u/if/mamunm/psp/gbrv1.5pbe/Zn.UPF
     MD5 check sum: df62231357ef9e81f77b2b3087fa5675
     Pseudo is Ultrasoft, Zval = 20.0
     Generated by new atomic code, or converted to UPF format
     Using radial grid of  943 points,  6 beta functions with:
                l(1) =   0
                l(2) =   0
                l(3) =   1
                l(4) =   1
                l(5) =   2
                l(6) =   2
     Q(r) pseudized with  8 coefficients,  rinner =    1.100   1.100   1.100
                                                       1.100   1.100

     vdW kernel table read from file vdW_kernel_table
     MD5 check sum: 095c7af220d748ca6e76c0b4c6cfb241

     atomic species   valence    mass     pseudopotential
        Co1           17.00    58.93319     Co( 1.00)
        Zn1           20.00    65.38000     Zn( 1.00)

     Starting magnetic structure
     atomic species   magnetization
        Co1          0.118
        Zn1          0.100

     No symmetry found

   Cartesian axes

     site n.     atom                  positions (alat units)
         1           Co1 tau(   1) = (   0.0000000   0.0000000  10.0000000  )
         2           Co1 tau(   2) = (   2.5795320   0.0000000  10.0000000  )
         3           Zn1 tau(   3) = (   1.2897660   2.2670611  10.0000000  )
         4           Zn1 tau(   4) = (  -1.2897660   2.2670611  10.0000000  )
         5           Co1 tau(   5) = (   2.5795320   1.4675355  12.1213969  )
         6           Co1 tau(   6) = (  -0.0000000   1.4675355  12.1213969  )
         7           Zn1 tau(   7) = (  -1.2897660   3.7345966  12.1213969  )
         8           Zn1 tau(   8) = (   1.2897660   3.7345966  12.1213969  )
         9           Co1 tau(   9) = (  -0.0002635   2.7446808  14.1072412  )
        10           Co1 tau(  10) = (   2.5792684   2.7447877  14.1075905  )
        11           Zn1 tau(  11) = (   3.8692241   0.5168807  14.4437857  )
        12           Zn1 tau(  12) = (   1.2894205   0.5168780  14.4437859  )

     number of k points=    40  Fermi-Dirac smearing, width (Ry)=  0.0110
                       cart. coord. in units 2pi/alat
        k(    1) = (   0.0000000   0.0000000   0.0000000), wk =   0.0277778
        k(    2) = (   0.0000000   0.0367583   0.0000000), wk =   0.0555556
        k(    3) = (   0.0000000   0.0735166   0.0000000), wk =   0.0555556
        k(    4) = (   0.0000000  -0.1102749   0.0000000), wk =   0.0277778
        k(    5) = (   0.0323056   0.0183792   0.0000000), wk =   0.0555556
        k(    6) = (   0.0323056   0.0551375   0.0000000), wk =   0.0555556
        k(    7) = (   0.0323056   0.0918958   0.0000000), wk =   0.0555556
        k(    8) = (   0.0323056  -0.0918958   0.0000000), wk =   0.0555556
        k(    9) = (   0.0323056  -0.0551375   0.0000000), wk =   0.0555556
        k(   10) = (   0.0323056  -0.0183792   0.0000000), wk =   0.0555556
        k(   11) = (   0.0646112   0.0367583   0.0000000), wk =   0.0555556
        k(   12) = (   0.0646112   0.0735166   0.0000000), wk =   0.0555556
        k(   13) = (   0.0646112   0.1102749   0.0000000), wk =   0.0555556
        k(   14) = (   0.0646112  -0.0735166   0.0000000), wk =   0.0555556
        k(   15) = (   0.0646112  -0.0367583   0.0000000), wk =   0.0555556
        k(   16) = (   0.0646112   0.0000000   0.0000000), wk =   0.0555556
        k(   17) = (  -0.0969168  -0.0551375   0.0000000), wk =   0.0277778
        k(   18) = (  -0.0969168  -0.0183792   0.0000000), wk =   0.0555556
        k(   19) = (  -0.0969168   0.0183792   0.0000000), wk =   0.0555556
        k(   20) = (  -0.0969168  -0.1654124   0.0000000), wk =   0.0277778
        k(   21) = (   0.0000000   0.0000000   0.0000000), wk =   0.0277778
        k(   22) = (   0.0000000   0.0367583   0.0000000), wk =   0.0555556
        k(   23) = (   0.0000000   0.0735166   0.0000000), wk =   0.0555556
        k(   24) = (   0.0000000  -0.1102749   0.0000000), wk =   0.0277778
        k(   25) = (   0.0323056   0.0183792   0.0000000), wk =   0.0555556
        k(   26) = (   0.0323056   0.0551375   0.0000000), wk =   0.0555556
        k(   27) = (   0.0323056   0.0918958   0.0000000), wk =   0.0555556
        k(   28) = (   0.0323056  -0.0918958   0.0000000), wk =   0.0555556
        k(   29) = (   0.0323056  -0.0551375   0.0000000), wk =   0.0555556
        k(   30) = (   0.0323056  -0.0183792   0.0000000), wk =   0.0555556
        k(   31) = (   0.0646112   0.0367583   0.0000000), wk =   0.0555556
        k(   32) = (   0.0646112   0.0735166   0.0000000), wk =   0.0555556
        k(   33) = (   0.0646112   0.1102749   0.0000000), wk =   0.0555556
        k(   34) = (   0.0646112  -0.0735166   0.0000000), wk =   0.0555556
        k(   35) = (   0.0646112  -0.0367583   0.0000000), wk =   0.0555556
        k(   36) = (   0.0646112   0.0000000   0.0000000), wk =   0.0555556
        k(   37) = (  -0.0969168  -0.0551375   0.0000000), wk =   0.0277778
        k(   38) = (  -0.0969168  -0.0183792   0.0000000), wk =   0.0555556
        k(   39) = (  -0.0969168   0.0183792   0.0000000), wk =   0.0555556
        k(   40) = (  -0.0969168  -0.1654124   0.0000000), wk =   0.0277778

     Largest allocated arrays     est. size (Mb)     dimensions
     Largest temporary arrays     est. size (Mb)     dimensions

     Check: negative/imaginary core charge=   -0.000004    0.000000

     Initial potential from superposition of free atoms
     Check: negative starting charge=(component1):   -0.000352
     Check: negative starting charge=(component2):   -0.000286

     starting charge  215.99911, renormalised to  222.00000

[...]

     *
     * You are using vdW-DF for exchange-correlation in this calculation.
     * Please cite the following three references that made this development
     * possible:
     *
     *   M. Dion, H. Rydberg, E. Schroder, D. C. Langreth, and
     *   B. I. Lundqvist, Phys. Rev. Lett. 92, 246401 (2004).
     *
     *   T. Thonhauser, V. R. Cooper, S. Li, A. Puzder, P. Hyldgaard, and
     *   D. C. Langreth, Phys. Rev. B 76, 125112 (2007).
     *
     *   G. Roman-Perez and J. M. Soler, Phys. Rev. Lett. 103, 096102 (2009).
     *
     *
     * If you are using vdW-DF2, please also cite:
     *
     *   K. Lee, E. D. Murray, L. Kong, B. I. Lundqvist, and
     *   D. C. Langreth, Phys. Rev. B 82, 081101(R) (2010).
     *
     *
     * If you are calculating the stress with vdW-DF, please also cite:
     *
     *   R. Sabatini, E. Kucukbenli, B. Kolb, T. Thonhauser, and
     *   S. de Gironcoli, J. Phys.: Condens. Matter 24, 424209 (2012).
     *

     Carrying out vdW-DF run using the following parameters:

     Nqs =      20    Nr_points =    1024   r_max =   100.000
     q_mesh =
               0.00001000     0.04494208     0.09755937     0.15916263
               0.23128650     0.31572767     0.41458969     0.53033537
               0.66584808     0.82450364     1.01025438     1.22772762
               1.48234092     1.78043706     2.12944203     2.53805004
               3.01644009     3.57652955     4.23227104     5.00000000

     Gradients computed in reciprocal space

[...]

     Starting wfc are  156 randomized atomic wfcs

     Self-consistent Calculation

[...]

     total energy              =   -4573.74739561 Ry
     Harris-Foulkes estimate   =   -4573.74739504 Ry
     estimated scf accuracy    <       0.00000534 Ry

[...]

     iteration # 29     ecut=    36.75 Ry     beta=0.10
     Davidson diagonalization with overlap
     ethr =  1.16E-09,  avg # of iterations =  2.0

[...]

     negative rho (up, down):  5.545E-04 5.052E-04

[...]

     Adding external electric field

     Computed dipole along edir(3) :
        Dipole                0.0147 Ry au,          0.0373 Debye
        Dipole field          0.0000 Ry au

        Potential amp.       -0.0043 Ry
        Total length         44.6669 bohr

     Magnetic moment per site:
     atom:    1    charge:    8.2918    magn:    0.8249    constr:    0.0000
     atom:    2    charge:    8.2918    magn:    0.8249    constr:    0.0000
     atom:    3    charge:   11.6808    magn:    0.0034    constr:    0.0000
     atom:    4    charge:   11.6808    magn:    0.0034    constr:    0.0000
     atom:    5    charge:    8.2913    magn:    0.7970    constr:    0.0000
     atom:    6    charge:    8.2913    magn:    0.7971    constr:    0.0000
     atom:    7    charge:   11.6832    magn:    0.0006    constr:    0.0000
     atom:    8    charge:   11.6832    magn:    0.0006    constr:    0.0000
     atom:    9    charge:    8.2924    magn:    0.8306    constr:    0.0000
     atom:   10    charge:    8.2925    magn:    0.8307    constr:    0.0000
     atom:   11    charge:   11.6862    magn:    0.0022    constr:    0.0000
     atom:   12    charge:   11.6862    magn:    0.0022    constr:    0.0000

     End of self-consistent calculation

 ------ SPIN UP ------------

[...]

 ------ SPIN DOWN ----------

[...]

          k = 0.0646 0.0000 0.0000 ( 14421 PWs)   bands (ev):

[...]

          k =-0.0969-0.1654 0.0000 ( 14346 PWs)   bands (ev):

  -125.7195-125.7195-125.5372-125.5372-125.4729-125.4729 -93.3057 -93.3057
   -93.1465 -93.1463 -93.0702 -93.0701 -79.9124 -79.9124 -79.9092 -79.9092
   -79.8634 -79.8634 -79.7265 -79.7265 -79.7238 -79.7238 -79.6862 -79.6862
   -79.6648 -79.6648 -79.6596 -79.6596 -79.6224 -79.6224 -56.7293 -56.7292
   -56.6400 -56.6400 -56.6359 -56.6358 -56.5165 -56.5163 -56.4988 -56.4986
   -56.4653 -56.4651 -56.4537 -56.4537 -56.4412 -56.4411 -56.3802 -56.3801
    -7.1402  -7.1402  -6.9660  -6.9660  -6.8930  -6.8929  -6.8698  -6.8697
    -6.7741  -6.7741  -6.6822  -6.6822  -6.5572  -6.5572  -6.5220  -6.5219
    -6.4727  -6.4723  -6.4580  -6.4579  -6.4312  -6.4311  -6.4089  -6.4088
    -6.3384  -6.3384  -6.3171  -6.3170  -6.2941  -6.2940  -6.0642  -6.0641
    -4.6105  -4.6102  -3.1217  -3.1216  -2.0462  -2.0460  -1.2911  -1.2909
    -0.8492  -0.8489  -0.7043  -0.7041  -0.3997  -0.3996  -0.3304  -0.3302
    -0.1811  -0.1810  -0.0619  -0.0619  -0.0022  -0.0020   0.2285   0.2287
     0.3269   0.3269   0.5153   0.5153   0.8249   0.8251   0.9796   0.9798
     1.3465   1.3466   1.4656   1.4656   2.0249   2.0249   3.0709   3.0712
     3.8633   3.8636   5.7891   5.7893   6.5337   6.5337   6.6079   6.6080
     6.9453   6.9454   7.1051   7.1052   7.2218   7.2218   7.9454   7.9455
     8.2189   8.2190   8.5091   8.5096   8.8737

     the Fermi energy is     0.6996 ev

!    total energy              =   -4573.74739762 Ry
     Harris-Foulkes estimate   =   -4573.74739598 Ry
     estimated scf accuracy    <       0.00000096 Ry

     The total energy is the sum of the following terms:

     one-electron contribution =  -34557.37590472 Ry
     hartree contribution      =   17274.07149154 Ry
     xc contribution           =    -463.30199022 Ry
     ewald contribution        =   13172.92828049 Ry
     electric field correction =       0.00000071 Ry
     smearing contrib. (-TS)   =      -0.06927541 Ry

     total magnetization       =     8.45 Bohr mag/cell
     absolute magnetization    =    10.23 Bohr mag/cell

     convergence has been achieved in  29 iterations

 BEEF-vdW xc energy contributions
           1 :   -410.165737698205
           2 :    371.903200634454
           3 :   -307.253676565617
           4 :    234.308983238341
           5 :   -169.450935097407
           6 :    121.325541720389
           7 :   -89.4819108183382
           8 :    67.5905567875174
           9 :   -48.7455007170850
          10 :    29.5755375830561
          11 :   -11.1439790829842
          12 :   -3.17979887923264
          13 :    10.8963094082148
          14 :   -12.3601157860550
          15 :    10.4738596972796
          16 :   -8.68394781256387
          17 :    8.87787581165031
          18 :   -10.6176845124181
          19 :    12.0218689641375
          20 :   -11.4679001531801
          21 :    8.83222448973243
          22 :   -5.48626835307437
          23 :    3.21287507463114
          24 :   -2.94533998271362
          25 :    4.22902062588417
          26 :   -5.70148943167561
          27 :    6.13047320970486
          28 :   -5.22899700666733
          29 :    3.70851606806389
          30 :   -2.63641633962402
          31 :   -32.9719421880975
          32 :   -22.6768098431484

     Forces acting on atoms (Ry/au):

     negative rho (up, down):  5.545E-04 5.052E-04
     atom    1 type  1   force =    -0.00000094    0.00921408    0.02224460
     atom    2 type  1   force =    -0.00000115    0.00920826    0.02223241
     atom    3 type  2   force =    -0.00002307   -0.00458631   -0.02404224
     atom    4 type  2   force =     0.00002012   -0.00458616   -0.02404212
     atom    5 type  1   force =     0.00002195   -0.01291955    0.00197393
     atom    6 type  1   force =     0.00002199   -0.01295419    0.00190120
     atom    7 type  2   force =    -0.00005464    0.00812281    0.00012042
     atom    8 type  2   force =     0.00001377    0.00812273    0.00012057
     atom    9 type  1   force =    -0.00000999   -0.00039397   -0.00007597
     atom   10 type  1   force =    -0.00001013   -0.00043273   -0.00013552
     atom   11 type  2   force =    -0.00002658    0.00060222   -0.00014876
     atom   12 type  2   force =     0.00004867    0.00060279   -0.00014851

     Total force =     0.053219     Total SCF correction =     0.003196

     entering subroutine stress ...

     negative rho (up, down):  5.545E-04 5.052E-04
          total   stress  (Ry/bohr**3)                   (kbar)     P=  -16.70
  -0.00013934  -0.00000001   0.00000002        -20.50     -0.00      0.00
  -0.00000001  -0.00015425  -0.00000956         -0.00    -22.69     -1.41
   0.00000002  -0.00000956  -0.00004708          0.00     -1.41     -6.93

 !ASE

     Writing output data file calc.save

     General routines

     Parallel routines

   This run was terminated on:  15:33:32  19Dec2018

   JOB DONE.
Job  /afs/slac/g/suncat/bin/suncat-tsmpirun -x LD_LIBRARY_PATH -wdir /scratch/qe529710_Shtuc pw.x -in pw.inp

TID   HOST_NAME   COMMAND_LINE            STATUS            TERMINATION_TIME
00000 suncat0214 pw.x -in pw.inp   Done                     12/19/2018 15:33:32
00001 suncat0214 pw.x -in pw.inp   Done                     12/19/2018 15:33:32
00002 suncat0214 pw.x -in pw.inp   Done                     12/19/2018 15:33:32
00003 suncat0214 pw.x -in pw.inp   Done                     12/19/2018 15:33:32
00004 suncat0214 pw.x -in pw.inp   Done                     12/19/2018 15:33:32
00005 suncat0214 pw.x -in pw.inp   Done                     12/19/2018 15:33:32
00006 suncat0214 pw.x -in pw.inp   Done                     12/19/2018 15:33:32
00007 suncat0214 pw.x -in pw.inp   Done                     12/19/2018 15:33:32
00008 suncat0213 pw.x -in pw.inp   Done                     12/19/2018 15:33:32
00009 suncat0213 pw.x -in pw.inp   Done                     12/19/2018 15:33:32
00010 suncat0213 pw.x -in pw.inp   Done                     12/19/2018 15:33:32
00011 suncat0213 pw.x -in pw.inp   Done                     12/19/2018 15:33:32
00012 suncat0213 pw.x -in pw.inp   Done                     12/19/2018 15:33:32
00013 suncat0213 pw.x -in pw.inp   Done                     12/19/2018 15:33:32
00014 suncat0213 pw.x -in pw.inp   Done                     12/19/2018 15:33:32
00015 suncat0213 pw.x -in pw.inp   Done                     12/19/2018 15:33:32
00016 suncat0209 pw.x -in pw.inp   Done                     12/19/2018 15:33:32
00017 suncat0209 pw.x -in pw.inp   Done                     12/19/2018 15:33:32
00018 suncat0209 pw.x -in pw.inp   Done                     12/19/2018 15:33:32
00019 suncat0209 pw.x -in pw.inp   Done                     12/19/2018 15:33:32
00020 suncat0209 pw.x -in pw.inp   Done                     12/19/2018 15:33:32
00021 suncat0209 pw.x -in pw.inp   Done                     12/19/2018 15:33:32
00022 suncat0209 pw.x -in pw.inp   Done                     12/19/2018 15:33:32
00023 suncat0209 pw.x -in pw.inp   Done                     12/19/2018 15:33:32
00024 suncat0203 pw.x -in pw.inp   Done                     12/19/2018 15:33:32
00025 suncat0203 pw.x -in pw.inp   Done                     12/19/2018 15:33:32
00026 suncat0203 pw.x -in pw.inp   Done                     12/19/2018 15:33:32
00027 suncat0203 pw.x -in pw.inp   Done                     12/19/2018 15:33:32
00028 suncat0203 pw.x -in pw.inp   Done                     12/19/2018 15:33:32
00029 suncat0203 pw.x -in pw.inp   Done                     12/19/2018 15:33:32
00030 suncat0203 pw.x -in pw.inp   Done                     12/19/2018 15:33:32
00031 suncat0203 pw.x -in pw.inp   Done                     12/19/2018 15:33:32