     Program PWSCF v.5.1rc2 (svn rev. 11289) starts on 18Dec2018 at 17:26:17

     Current dimensions of program PWSCF are:
     Max number of different atomic species (ntypx) = 10
     Max number of k-points (npk) =  40000
     Max angular momentum in pseudopotentials (lmaxx) =  3
     Presently stress not available with electric field

     IMPORTANT: XC functional enforced from input :
     Exchange-correlation      = BEEF-VDW ( 1  4 27 13 2)
     Any further DFT definition will be discarded
     Please, verify this is what you really want

     Subspace diagonalization in iterative solution of the eigenvalue problem:
     a serial algorithm will be used

     Found symmetry operation: I + ( -0.5000 -0.5000  0.0000)
     This is a supercell, fractional translations are disabled

     Generating pointlists ...
     new r_m :   0.4125 (alat units)  0.7795 (a.u.) for type    1
     new r_m :   0.4125 (alat units)  0.7795 (a.u.) for type    2

     bravais-lattice index     =            0
     lattice parameter (alat)  =       1.8897  a.u.
     unit-cell volume          =    3867.3758 (a.u.)^3
     number of atoms/cell      =           12
     number of atomic types    =            2
     number of electrons       =       126.00
     number of Kohn-Sham states=           93
     kinetic-energy cutoff     =      36.7493  Ry
     charge density cutoff     =     367.4932  Ry
     convergence threshold     =      1.0E-06
     mixing beta               =       0.1000
     number of iterations used =           10  plain     mixing
     Exchange-correlation      = BEEF-VDW ( 1  4 27 13 2)
     nstep                     =           50

     celldm(1)=   1.889726  celldm(2)=   0.000000  celldm(3)=   0.000000
     celldm(4)=   0.000000  celldm(5)=   0.000000  celldm(6)=   0.000000

     crystal axes: (cart. coord. in units of alat)
               a(1) = (   5.018258   0.000000   0.000000 )
               a(2) = (   1.645471   4.740816   0.000000 )
               a(3) = (   0.000000   0.000000  24.088720 )

     reciprocal axes: (cart. coord. in units 2 pi/alat)
               b(1) = (  0.199272 -0.069165  0.000000 )
               b(2) = (  0.000000  0.210934  0.000000 )
               b(3) = (  0.000000  0.000000  0.041513 )

     PseudoPot. # 1 for Al read from file:
     /afs/slac.stanford.edu/u/if/mamunm/psp/gbrv1.5pbe/Al.UPF
     MD5 check sum: 0a6289f5291fc8f409219462bc851e1f
     Pseudo is Ultrasoft + core correction, Zval =  3.0
     Generated by new atomic code, or converted to UPF format
     Using radial grid of  893 points,  3 beta functions with:
                l(1) =   0
                l(2) =   1
                l(3) =   2
     Q(r) pseudized with  8 coefficients,  rinner =    0.900   0.900   0.900
                                                       0.900   0.900

     PseudoPot. # 2 for Ni read from file:
     /afs/slac.stanford.edu/u/if/mamunm/psp/gbrv1.5pbe/Ni.UPF
     MD5 check sum: 1ee80287db30b12d2bc1f57a5b5d6409
     Pseudo is Ultrasoft + core correction, Zval = 18.0
     Generated by new atomic code, or converted to UPF format
     Using radial grid of  865 points,  6 beta functions with:
                l(1) =   0
                l(2) =   0
                l(3) =   1
                l(4) =   1
                l(5) =   2
                l(6) =   2
     Q(r) pseudized with 10 coefficients,  rinner =    0.980   0.980   0.980
                                                       0.980   0.980

     vdW kernel table read from file vdW_kernel_table
     MD5 check sum: 095c7af220d748ca6e76c0b4c6cfb241

     atomic species   valence    mass     pseudopotential
        Al1            3.00    26.98154     Al( 1.00)
        Ni1           18.00    58.69340     Ni( 1.00)

     Starting magnetic structure
     atomic species   magnetization
        Al1          0.667
        Ni1          0.111

     No symmetry found

   Cartesian axes

     site n.     atom                  positions (alat units)
         1           Al1 tau(   1) = (   0.0000000   0.0000000  10.0000000  )
         2           Al1 tau(   2) = (   3.3318646   2.3704079  10.0000000  )
         3           Ni1 tau(   3) = (   2.5091289   0.0000000  10.0000000  )
         4           Ni1 tau(   4) = (   0.8227357   2.3704079  10.0000000  )
         5           Al1 tau(   5) = (   5.0182577   3.5701684  12.0443601  )
         6           Al1 tau(   6) = (   1.6863931   1.1997605  12.0443601  )
         7           Ni1 tau(   7) = (   2.5091289   3.5701684  12.0443601  )
         8           Ni1 tau(   8) = (   4.1955220   1.1997605  12.0443601  )
         9           Al1 tau(   9) = (   3.3727863   2.3995210  14.0887202  )
        10           Al1 tau(  10) = (   0.0409217   0.0291131  14.0887202  )
        11           Ni1 tau(  11) = (   0.8636574   2.3995210  14.0887202  )
        12           Ni1 tau(  12) = (   2.5500505   0.0291131  14.0887202  )

     number of k points=    40  Fermi-Dirac smearing, width (Ry)=  0.0110
                       cart. coord. in units 2pi/alat
        k(    1) = (   0.0000000   0.0000000   0.0000000), wk =   0.0277778
        k(    2) = (   0.0000000   0.0351557   0.0000000), wk =   0.0555556
        k(    3) = (   0.0000000   0.0703114   0.0000000), wk =   0.0555556
        k(    4) = (   0.0000000  -0.1054671   0.0000000), wk =   0.0277778
        k(    5) = (   0.0332121  -0.0115274   0.0000000), wk =   0.0555556
        k(    6) = (   0.0332121   0.0236282   0.0000000), wk =   0.0555556
        k(    7) = (   0.0332121   0.0587839   0.0000000), wk =   0.0555556
        k(    8) = (   0.0332121  -0.1169945   0.0000000), wk =   0.0555556
        k(    9) = (   0.0332121  -0.0818388   0.0000000), wk =   0.0555556
        k(   10) = (   0.0332121  -0.0466831   0.0000000), wk =   0.0555556
        k(   11) = (   0.0664241  -0.0230549   0.0000000), wk =   0.0555556
        k(   12) = (   0.0664241   0.0121008   0.0000000), wk =   0.0555556
        k(   13) = (   0.0664241   0.0472565   0.0000000), wk =   0.0555556
        k(   14) = (   0.0664241  -0.1285220   0.0000000), wk =   0.0555556
        k(   15) = (   0.0664241  -0.0933663   0.0000000), wk =   0.0555556
        k(   16) = (   0.0664241  -0.0582106   0.0000000), wk =   0.0555556
        k(   17) = (  -0.0996362   0.0345823   0.0000000), wk =   0.0277778
        k(   18) = (  -0.0996362   0.0697380   0.0000000), wk =   0.0555556
        k(   19) = (  -0.0996362   0.1048937   0.0000000), wk =   0.0555556
        k(   20) = (  -0.0996362  -0.0708847   0.0000000), wk =   0.0277778
        k(   21) = (   0.0000000   0.0000000   0.0000000), wk =   0.0277778
        k(   22) = (   0.0000000   0.0351557   0.0000000), wk =   0.0555556
        k(   23) = (   0.0000000   0.0703114   0.0000000), wk =   0.0555556
        k(   24) = (   0.0000000  -0.1054671   0.0000000), wk =   0.0277778
        k(   25) = (   0.0332121  -0.0115274   0.0000000), wk =   0.0555556
        k(   26) = (   0.0332121   0.0236282   0.0000000), wk =   0.0555556
        k(   27) = (   0.0332121   0.0587839   0.0000000), wk =   0.0555556
        k(   28) = (   0.0332121  -0.1169945   0.0000000), wk =   0.0555556
        k(   29) = (   0.0332121  -0.0818388   0.0000000), wk =   0.0555556
        k(   30) = (   0.0332121  -0.0466831   0.0000000), wk =   0.0555556
        k(   31) = (   0.0664241  -0.0230549   0.0000000), wk =   0.0555556
        k(   32) = (   0.0664241   0.0121008   0.0000000), wk =   0.0555556
        k(   33) = (   0.0664241   0.0472565   0.0000000), wk =   0.0555556
        k(   34) = (   0.0664241  -0.1285220   0.0000000), wk =   0.0555556
        k(   35) = (   0.0664241  -0.0933663   0.0000000), wk =   0.0555556
        k(   36) = (   0.0664241  -0.0582106   0.0000000), wk =   0.0555556
        k(   37) = (  -0.0996362   0.0345823   0.0000000), wk =   0.0277778
        k(   38) = (  -0.0996362   0.0697380   0.0000000), wk =   0.0555556
        k(   39) = (  -0.0996362   0.1048937   0.0000000), wk =   0.0555556
        k(   40) = (  -0.0996362  -0.0708847   0.0000000), wk =   0.0277778

     Largest allocated arrays     est. size (Mb)     dimensions
     Largest temporary arrays     est. size (Mb)     dimensions

     Initial potential from superposition of free atoms
     Check: negative starting charge=(component1):   -0.000263
     Check: negative starting charge=(component2):   -0.000200

     starting charge  113.98521, renormalised to  126.00000

     negative rho (up, down):  2.910E-04 2.207E-04

     *
     * You are using vdW-DF for exchange-correlation in this calculation.
     * Please cite the following three references that made this development
     * possible:
     *
     *   M. Dion, H. Rydberg, E. Schroder, D. C. Langreth, and
     *   B. I. Lundqvist, Phys. Rev. Lett. 92, 246401 (2004).
     *
     *   T. Thonhauser, V. R. Cooper, S. Li, A. Puzder, P. Hyldgaard, and
     *   D. C. Langreth, Phys. Rev. B 76, 125112 (2007).
     *
     *   G. Roman-Perez and J. M. Soler, Phys. Rev. Lett. 103, 096102 (2009).
     *
     *
     * If you are using vdW-DF2, please also cite:
     *
     *   K. Lee, E. D. Murray, L. Kong, B. I. Lundqvist, and
     *   D. C. Langreth, Phys. Rev. B 82, 081101(R) (2010).
     *
     *
     * If you are calculating the stress with vdW-DF, please also cite:
     *
     *   R. Sabatini, E. Kucukbenli, B. Kolb, T. Thonhauser, and
     *   S. de Gironcoli, J. Phys.: Condens. Matter 24, 424209 (2012).
     *

     Carrying out vdW-DF run using the following parameters:

     Nqs =      20    Nr_points =    1024   r_max =   100.000
     q_mesh =
               0.00001000     0.04494208     0.09755937     0.15916263
               0.23128650     0.31572767     0.41458969     0.53033537
               0.66584808     0.82450364     1.01025438     1.22772762
               1.48234092     1.78043706     2.12944203     2.53805004
               3.01644009     3.57652955     4.23227104     5.00000000

     Gradients computed in reciprocal space

     Adding external electric field

     Computed dipole along edir(3) :
        Dipole               -0.0000 Ry au,         -0.0000 Debye
        Dipole field         -0.0000 Ry au

        Potential amp.        0.0000 Ry
        Total length         44.3831 bohr

[...]

     Starting wfc are  102 randomized atomic wfcs

     Self-consistent Calculation

     iteration #  1     ecut=    36.75 Ry     beta=0.10
     Davidson diagonalization with overlap
     ethr =  1.00E-02,  avg # of iterations =  8.2

[...]

     Magnetic moment per site:
     atom:    1    charge:    0.1057    magn:    0.0559    constr:    0.0000
     atom:    2    charge:    0.1057    magn:    0.0559    constr:    0.0000
     atom:    3    charge:    9.8052    magn:    1.0468    constr:    0.0000
     atom:    4    charge:    9.8052    magn:    1.0468    constr:    0.0000
     atom:    5    charge:    0.1088    magn:    0.0574    constr:    0.0000
     atom:    6    charge:    0.1088    magn:    0.0574    constr:    0.0000
     atom:    7    charge:    9.8183    magn:    1.0512    constr:    0.0000
     atom:    8    charge:    9.8183    magn:    1.0512    constr:    0.0000
[...]
     /afs/slac.stanford.edu/u/if/mamunm/psp/gbrv1.5pbe/Al.UPF
     MD5 check sum: 0a6289f5291fc8f409219462bc851e1f
     Pseudo is Ultrasoft + core correction, Zval =  3.0
     Generated by new atomic code, or converted to UPF format
     Using radial grid of  893 points,  3 beta functions with:
                l(1) =   0
                l(2) =   1
                l(3) =   2
     Q(r) pseudized with  8 coefficients,  rinner =    0.900   0.900   0.900
                                                       0.900   0.900

     PseudoPot. # 2 for Ni read from file:
     /afs/slac.stanford.edu/u/if/mamunm/psp/gbrv1.5pbe/Ni.UPF
     MD5 check sum: 1ee80287db30b12d2bc1f57a5b5d6409
     Pseudo is Ultrasoft + core correction, Zval = 18.0
     Generated by new atomic code, or converted to UPF format
     Using radial grid of  865 points,  6 beta functions with:
                l(1) =   0
                l(2) =   0
                l(3) =   1
                l(4) =   1
                l(5) =   2
                l(6) =   2
     Q(r) pseudized with 10 coefficients,  rinner =    0.980   0.980   0.980
                                                       0.980   0.980

     vdW kernel table read from file vdW_kernel_table
     MD5 check sum: 095c7af220d748ca6e76c0b4c6cfb241

     atomic species   valence    mass     pseudopotential
        Al1            3.00    26.98154     Al( 1.00)
        Ni1           18.00    58.69340     Ni( 1.00)

     Starting magnetic structure
     atomic species   magnetization
        Al1          0.667
        Ni1          0.111

     No symmetry found

   Cartesian axes

     site n.     atom                  positions (alat units)
         1           Al1 tau(   1) = (   0.0000000   0.0000000  10.0000000  )
         2           Al1 tau(   2) = (   3.3318646   2.3704079  10.0000000  )
         3           Ni1 tau(   3) = (   2.5091289   0.0000000  10.0000000  )
         4           Ni1 tau(   4) = (   0.8227357   2.3704079  10.0000000  )
         5           Al1 tau(   5) = (   5.0182577   3.5701684  12.0443601  )
         6           Al1 tau(   6) = (   1.6863931   1.1997605  12.0443601  )
         7           Ni1 tau(   7) = (   2.5091289   3.5701684  12.0443601  )
         8           Ni1 tau(   8) = (   4.1955220   1.1997605  12.0443601  )
         9           Al1 tau(   9) = (   3.3690189   2.3968417  14.1705475  )
        10           Al1 tau(  10) = (   0.0371552   0.0264325  14.1705476  )
        11           Ni1 tau(  11) = (   0.8613539   2.3978813  13.9888416  )
        12           Ni1 tau(  12) = (   2.5477596   0.0274840  13.9890166  )

     number of k points=    40  Fermi-Dirac smearing, width (Ry)=  0.0110
                       cart. coord. in units 2pi/alat
        k(    1) = (   0.0000000   0.0000000   0.0000000), wk =   0.0277778
        k(    2) = (   0.0000000   0.0351557   0.0000000), wk =   0.0555556
        k(    3) = (   0.0000000   0.0703114   0.0000000), wk =   0.0555556
        k(    4) = (   0.0000000  -0.1054671   0.0000000), wk =   0.0277778
        k(    5) = (   0.0332121  -0.0115274   0.0000000), wk =   0.0555556
        k(    6) = (   0.0332121   0.0236282   0.0000000), wk =   0.0555556
        k(    7) = (   0.0332121   0.0587839   0.0000000), wk =   0.0555556
        k(    8) = (   0.0332121  -0.1169945   0.0000000), wk =   0.0555556
        k(    9) = (   0.0332121  -0.0818388   0.0000000), wk =   0.0555556
        k(   10) = (   0.0332121  -0.0466831   0.0000000), wk =   0.0555556
        k(   11) = (   0.0664241  -0.0230549   0.0000000), wk =   0.0555556
        k(   12) = (   0.0664241   0.0121008   0.0000000), wk =   0.0555556
        k(   13) = (   0.0664241   0.0472565   0.0000000), wk =   0.0555556
        k(   14) = (   0.0664241  -0.1285220   0.0000000), wk =   0.0555556
        k(   15) = (   0.0664241  -0.0933663   0.0000000), wk =   0.0555556
        k(   16) = (   0.0664241  -0.0582106   0.0000000), wk =   0.0555556
        k(   17) = (  -0.0996362   0.0345823   0.0000000), wk =   0.0277778
        k(   18) = (  -0.0996362   0.0697380   0.0000000), wk =   0.0555556
        k(   19) = (  -0.0996362   0.1048937   0.0000000), wk =   0.0555556
        k(   20) = (  -0.0996362  -0.0708847   0.0000000), wk =   0.0277778
        k(   21) = (   0.0000000   0.0000000   0.0000000), wk =   0.0277778
        k(   22) = (   0.0000000   0.0351557   0.0000000), wk =   0.0555556
        k(   23) = (   0.0000000   0.0703114   0.0000000), wk =   0.0555556
        k(   24) = (   0.0000000  -0.1054671   0.0000000), wk =   0.0277778
        k(   25) = (   0.0332121  -0.0115274   0.0000000), wk =   0.0555556
        k(   26) = (   0.0332121   0.0236282   0.0000000), wk =   0.0555556
        k(   27) = (   0.0332121   0.0587839   0.0000000), wk =   0.0555556
        k(   28) = (   0.0332121  -0.1169945   0.0000000), wk =   0.0555556
        k(   29) = (   0.0332121  -0.0818388   0.0000000), wk =   0.0555556
        k(   30) = (   0.0332121  -0.0466831   0.0000000), wk =   0.0555556
        k(   31) = (   0.0664241  -0.0230549   0.0000000), wk =   0.0555556
        k(   32) = (   0.0664241   0.0121008   0.0000000), wk =   0.0555556
        k(   33) = (   0.0664241   0.0472565   0.0000000), wk =   0.0555556
        k(   34) = (   0.0664241  -0.1285220   0.0000000), wk =   0.0555556
        k(   35) = (   0.0664241  -0.0933663   0.0000000), wk =   0.0555556
        k(   36) = (   0.0664241  -0.0582106   0.0000000), wk =   0.0555556
        k(   37) = (  -0.0996362   0.0345823   0.0000000), wk =   0.0277778
        k(   38) = (  -0.0996362   0.0697380   0.0000000), wk =   0.0555556
        k(   39) = (  -0.0996362   0.1048937   0.0000000), wk =   0.0555556
        k(   40) = (  -0.0996362  -0.0708847   0.0000000), wk =   0.0277778

     Largest allocated arrays     est. size (Mb)     dimensions
     Largest temporary arrays     est. size (Mb)     dimensions

     Initial potential from superposition of free atoms
     Check: negative starting charge=(component1):   -0.000266
     Check: negative starting charge=(component2):   -0.000202

     starting charge  113.98521, renormalised to  126.00000

[...]

     *
     * You are using vdW-DF for exchange-correlation in this calculation.
     * Please cite the following three references that made this development
     * possible:
     *
     *   M. Dion, H. Rydberg, E. Schroder, D. C. Langreth, and
     *   B. I. Lundqvist, Phys. Rev. Lett. 92, 246401 (2004).
     *
     *   T. Thonhauser, V. R. Cooper, S. Li, A. Puzder, P. Hyldgaard, and
     *   D. C. Langreth, Phys. Rev. B 76, 125112 (2007).
     *
     *   G. Roman-Perez and J. M. Soler, Phys. Rev. Lett. 103, 096102 (2009).
     *
     *
     * If you are using vdW-DF2, please also cite:
     *
     *   K. Lee, E. D. Murray, L. Kong, B. I. Lundqvist, and
     *   D. C. Langreth, Phys. Rev. B 82, 081101(R) (2010).
     *
     *
     * If you are calculating the stress with vdW-DF, please also cite:
     *
     *   R. Sabatini, E. Kucukbenli, B. Kolb, T. Thonhauser, and
     *   S. de Gironcoli, J. Phys.: Condens. Matter 24, 424209 (2012).
     *

     Carrying out vdW-DF run using the following parameters:

     Nqs =      20    Nr_points =    1024   r_max =   100.000
     q_mesh =
               0.00001000     0.04494208     0.09755937     0.15916263
               0.23128650     0.31572767     0.41458969     0.53033537
               0.66584808     0.82450364     1.01025438     1.22772762
               1.48234092     1.78043706     2.12944203     2.53805004
               3.01644009     3.57652955     4.23227104     5.00000000

     Gradients computed in reciprocal space

[...]

     Starting wfc are  102 randomized atomic wfcs

     Self-consistent Calculation

[...]

     total energy              =   -2108.18170202 Ry
     Harris-Foulkes estimate   =   -2108.18169942 Ry
     estimated scf accuracy    <       0.00000102 Ry

[...]

     iteration # 28     ecut=    36.75 Ry     beta=0.10
     Davidson diagonalization with overlap
     ethr =  8.08E-10,  avg # of iterations =  1.4

[...]

     negative rho (up, down):  6.668E-04 6.668E-04

[...]

     Adding external electric field

     Computed dipole along edir(3) :
        Dipole                0.0330 Ry au,          0.0838 Debye
        Dipole field          0.0001 Ry au

        Potential amp.       -0.0095 Ry
        Total length         44.3831 bohr

     Magnetic moment per site:
     atom:    1    charge:    0.0786    magn:   -0.0000    constr:    0.0000
     atom:    2    charge:    0.0786    magn:   -0.0000    constr:    0.0000
     atom:    3    charge:    9.3476    magn:    0.0009    constr:    0.0000
     atom:    4    charge:    9.3476    magn:    0.0009    constr:    0.0000
     atom:    5    charge:    0.0799    magn:   -0.0000    constr:    0.0000
     atom:    6    charge:    0.0799    magn:   -0.0000    constr:    0.0000
     atom:    7    charge:    9.3516    magn:   -0.0004    constr:    0.0000
     atom:    8    charge:    9.3515    magn:   -0.0004    constr:    0.0000
     atom:    9    charge:    0.0776    magn:   -0.0000    constr:    0.0000
     atom:   10    charge:    0.0776    magn:   -0.0000    constr:    0.0000
     atom:   11    charge:    9.3466    magn:   -0.0002    constr:    0.0000
     atom:   12    charge:    9.3467    magn:   -0.0002    constr:    0.0000

     End of self-consistent calculation

 ------ SPIN UP ------------

[...]

 ------ SPIN DOWN ----------

[...]

          k = 0.0664-0.0582 0.0000 ( 14525 PWs)   bands (ev):

[...]

          k =-0.0996-0.0709 0.0000 ( 14548 PWs)   bands (ev):

  -103.7172-103.7160-103.4833-103.4822-103.4011-103.3999 -64.1323 -64.1123
   -64.1039 -64.1018 -64.1010 -64.0993 -63.9627 -63.9612 -63.8994 -63.8978
   -63.8819 -63.8622 -63.8057 -63.7862 -63.7846 -63.7829 -63.6789 -63.6771
    -8.2122  -8.2025  -6.4556  -6.4210  -6.1390  -5.9075  -5.1005  -4.3413
    -4.1416  -3.9508  -3.8767  -3.4081  -3.0222  -2.8198  -2.6641  -2.6531
    -2.6399  -2.6330  -2.4690  -2.3796  -2.2868  -2.2510  -2.2368  -2.1989
    -2.0969  -1.9757  -1.8653  -1.7323  -1.6845  -1.6503  -1.6251  -1.5662
    -1.4148  -1.3218  -1.2356  -1.1926  -0.7427  -0.7089  -0.4845  -0.1754
     0.1908   0.9424   1.2337   1.5444   2.9846   3.0439   3.5429   3.8078
     4.3849   4.5213   5.1083   5.3547   5.6021   5.6513   5.7659   5.9630
     6.0081   6.4262   6.5084   6.5347   7.0985   7.1544   7.2633   7.3196
     7.4706   7.7711   7.8195   8.0196   8.1624

     the Fermi energy is    -0.2928 ev

!    total energy              =   -2108.18171311 Ry
     Harris-Foulkes estimate   =   -2108.18170240 Ry
     estimated scf accuracy    <       0.00000052 Ry

     The total energy is the sum of the following terms:

     one-electron contribution =  -11873.56927823 Ry
     hartree contribution      =    5942.19754383 Ry
     xc contribution           =    -247.75619660 Ry
     ewald contribution        =    4070.98406583 Ry
     electric field correction =       0.00000354 Ry
     smearing contrib. (-TS)   =      -0.03785147 Ry

     total magnetization       =    -0.01 Bohr mag/cell
     absolute magnetization    =     0.01 Bohr mag/cell

     convergence has been achieved in  28 iterations

 BEEF-vdW xc energy contributions
           1 :   -216.738824672510
           2 :    195.570885144702
           3 :   -160.315849961575
           4 :    121.594404458528
           5 :   -88.7687645157375
           6 :    66.4826594805156
           7 :   -54.0647269191485
           8 :    47.5225361247310
           9 :   -42.5459477454466
          10 :    36.7168878477661
          11 :   -30.0026276967746
          12 :    23.7782848648561
          13 :   -19.3809828354998
          14 :    17.1511888815054
          15 :   -16.3699703317955
          16 :    15.8661433681390
          17 :   -14.7677869084214
          18 :    12.9236490612988
          19 :   -10.8273205565042
          20 :    9.17521532830582
          21 :   -8.37600402508522
          22 :    8.30172170860470
          23 :   -8.40911944688798
          24 :    8.12072187414816
          25 :   -7.20958555899080
          26 :    5.93016320469661
          27 :   -4.81888548667342
          28 :    4.30367440855173
          29 :   -4.40007913439266
          30 :    4.70459021993111
          31 :   -19.4235775085124
          32 :   -13.7068555205529

     Forces acting on atoms (Ry/au):

     negative rho (up, down):  6.668E-04 6.668E-04
     atom    1 type  1   force =     0.00081765    0.00057999   -0.01568042
     atom    2 type  1   force =     0.00081609    0.00058220   -0.01568041
     atom    3 type  2   force =     0.00052696    0.00037512    0.02071873
     atom    4 type  2   force =     0.00049723    0.00035323    0.02074427
     atom    5 type  1   force =    -0.00047658   -0.00032442   -0.01201735
     atom    6 type  1   force =    -0.00046271   -0.00034395   -0.01201751
     atom    7 type  2   force =     0.00016183    0.00011485    0.00535960
     atom    8 type  2   force =     0.00016953    0.00012110    0.00536115
     atom    9 type  1   force =    -0.00013355   -0.00009261    0.00064614
     atom   10 type  1   force =    -0.00013135   -0.00009596    0.00064612
     atom   11 type  2   force =    -0.00090618   -0.00064433    0.00098697
     atom   12 type  2   force =    -0.00087893   -0.00062521    0.00093270

     Total force =     0.041308     Total SCF correction =     0.002189

     entering subroutine stress ...

     negative rho (up, down):  6.668E-04 6.668E-04
          total   stress  (Ry/bohr**3)                   (kbar)     P=  -46.28
  -0.00035781   0.00002075  -0.00000466        -52.64      3.05     -0.69
   0.00002075  -0.00037222  -0.00000331          3.05    -54.76     -0.49
  -0.00000466  -0.00000331  -0.00021386         -0.69     -0.49    -31.46

 !ASE

     Writing output data file calc.save

     General routines

     Parallel routines

   This run was terminated on:  18:56:23  18Dec2018

   JOB DONE.
Job  /afs/slac/g/suncat/bin/suncat-tsmpirun -x LD_LIBRARY_PATH -wdir /scratch/qe529596_2KdLT pw.x -in pw.inp

TID   HOST_NAME   COMMAND_LINE            STATUS            TERMINATION_TIME
00000 suncat0082 pw.x -in pw.inp   Done                     12/18/2018 18:56:23
00001 suncat0082 pw.x -in pw.inp   Done                     12/18/2018 18:56:23
00002 suncat0082 pw.x -in pw.inp   Done                     12/18/2018 18:56:23
00003 suncat0082 pw.x -in pw.inp   Done                     12/18/2018 18:56:23
00004 suncat0082 pw.x -in pw.inp   Done                     12/18/2018 18:56:23
00005 suncat0082 pw.x -in pw.inp   Done                     12/18/2018 18:56:23
00006 suncat0082 pw.x -in pw.inp   Done                     12/18/2018 18:56:23
00007 suncat0082 pw.x -in pw.inp   Done                     12/18/2018 18:56:23
00008 suncat0081 pw.x -in pw.inp   Done                     12/18/2018 18:56:23
00009 suncat0081 pw.x -in pw.inp   Done                     12/18/2018 18:56:23
00010 suncat0081 pw.x -in pw.inp   Done                     12/18/2018 18:56:23
00011 suncat0081 pw.x -in pw.inp   Done                     12/18/2018 18:56:23
00012 suncat0081 pw.x -in pw.inp   Done                     12/18/2018 18:56:23
00013 suncat0081 pw.x -in pw.inp   Done                     12/18/2018 18:56:23
00014 suncat0081 pw.x -in pw.inp   Done                     12/18/2018 18:56:23
00015 suncat0081 pw.x -in pw.inp   Done                     12/18/2018 18:56:23
00016 suncat0080 pw.x -in pw.inp   Done                     12/18/2018 18:56:23
00017 suncat0080 pw.x -in pw.inp   Done                     12/18/2018 18:56:23
00018 suncat0080 pw.x -in pw.inp   Done                     12/18/2018 18:56:23
00019 suncat0080 pw.x -in pw.inp   Done                     12/18/2018 18:56:23
00020 suncat0080 pw.x -in pw.inp   Done                     12/18/2018 18:56:23
00021 suncat0080 pw.x -in pw.inp   Done                     12/18/2018 18:56:23
00022 suncat0080 pw.x -in pw.inp   Done                     12/18/2018 18:56:23
00023 suncat0080 pw.x -in pw.inp   Done                     12/18/2018 18:56:23
00024 suncat0079 pw.x -in pw.inp   Done                     12/18/2018 18:56:23
00025 suncat0079 pw.x -in pw.inp   Done                     12/18/2018 18:56:23
00026 suncat0079 pw.x -in pw.inp   Done                     12/18/2018 18:56:23
00027 suncat0079 pw.x -in pw.inp   Done                     12/18/2018 18:56:23
00028 suncat0079 pw.x -in pw.inp   Done                     12/18/2018 18:56:23
00029 suncat0079 pw.x -in pw.inp   Done                     12/18/2018 18:56:23
00030 suncat0079 pw.x -in pw.inp   Done                     12/18/2018 18:56:23
00031 suncat0079 pw.x -in pw.inp   Done                     12/18/2018 18:56:23