     Program PWSCF v.5.1rc2 (svn rev. 11289) starts on 29Dec2018 at 16:33:48

     Current dimensions of program PWSCF are:
     Max number of different atomic species (ntypx) = 10
     Max number of k-points (npk) =  40000
     Max angular momentum in pseudopotentials (lmaxx) =  3
     Presently stress not available with electric field

     IMPORTANT: XC functional enforced from input :
     Exchange-correlation      = BEEF-VDW ( 1  4 27 13 2)
     Any further DFT definition will be discarded
     Please, verify this is what you really want

     Subspace diagonalization in iterative solution of the eigenvalue problem:
     a serial algorithm will be used

     Found symmetry operation: I + ( -0.5000  0.0000  0.0000)
     This is a supercell, fractional translations are disabled

     bravais-lattice index     =            0
     lattice parameter (alat)  =       1.8897  a.u.
     unit-cell volume          =    4658.7188 (a.u.)^3
     number of atoms/cell      =           12
     number of atomic types    =            2
     number of electrons       =       156.00
     number of Kohn-Sham states=          108
     kinetic-energy cutoff     =      36.7493  Ry
     charge density cutoff     =     367.4932  Ry
     convergence threshold     =      1.0E-06
     mixing beta               =       0.1000
     number of iterations used =           10  plain     mixing
     Exchange-correlation      = BEEF-VDW ( 1  4 27 13 2)
     nstep                     =           50

     celldm(1)=   1.889726  celldm(2)=   0.000000  celldm(3)=   0.000000
     celldm(4)=   0.000000  celldm(5)=   0.000000  celldm(6)=   0.000000

     crystal axes: (cart. coord. in units of alat)
               a(1) = (   5.433433   0.000000   0.000000 )
               a(2) = (  -2.716717   5.160761   0.000000 )
               a(3) = (   0.000000   0.000000  24.619646 )

     reciprocal axes: (cart. coord. in units 2 pi/alat)
               b(1) = (  0.184046  0.096885  0.000000 )
               b(2) = (  0.000000  0.193770  0.000000 )
               b(3) = (  0.000000  0.000000  0.040618 )

     PseudoPot. # 1 for Tc read from file:
     /afs/slac.stanford.edu/u/if/mamunm/psp/gbrv1.5pbe/Tc.UPF
     MD5 check sum: 9eb49e5b028550b2339a02317eb7b844
     Pseudo is Ultrasoft + core correction, Zval = 15.0
     Generated by new atomic code, or converted to UPF format
     Using radial grid of  965 points,  6 beta functions with:
                l(1) =   0
                l(2) =   0
                l(3) =   1
                l(4) =   1
                l(5) =   2
                l(6) =   2
     Q(r) pseudized with  8 coefficients,  rinner =    1.300   1.300   1.300
                                                       1.300   1.300

     PseudoPot. # 2 for Au read from file:
     /afs/slac.stanford.edu/u/if/mamunm/psp/gbrv1.5pbe/Au.UPF
     MD5 check sum: 9d7f43293ad2c663164586bc4b293ffc
     Pseudo is Ultrasoft + core correction, Zval = 11.0
     Generated by new atomic code, or converted to UPF format
     Using radial grid of  985 points,  7 beta functions with:
                l(1) =   0
                l(2) =   0
                l(3) =   1
                l(4) =   1
                l(5) =   2
                l(6) =   2
                l(7) =   3
     Q(r) pseudized with  6 coefficients,  rinner =    1.900   1.900   1.900
                                                       1.900   1.900   1.900
                                                       1.900

     vdW kernel table read from file vdW_kernel_table
     MD5 check sum: 095c7af220d748ca6e76c0b4c6cfb241

     atomic species   valence    mass     pseudopotential
        Tc1           15.00    97.90721     Tc( 1.00)
        Au1           11.00   196.96657     Au( 1.00)

     No symmetry found

   Cartesian axes

     site n.     atom                  positions (alat units)
         1           Tc1 tau(   1) = (   0.0000000   0.0000000  10.0000000  )
         2           Tc1 tau(   2) = (   2.7167165   0.0000000  10.0000000  )
         3           Au1 tau(   3) = (   1.3583583   2.5803806  10.0000000  )
         4           Au1 tau(   4) = (  -1.3583583   2.5803806  10.0000000  )
         5           Tc1 tau(   5) = (   2.7167165   1.4301279  12.3098231  )
         6           Tc1 tau(   6) = (   0.0000000   1.4301279  12.3098231  )
         7           Au1 tau(   7) = (  -1.3583583   4.0105085  12.3098231  )
         8           Au1 tau(   8) = (   1.3583583   4.0105085  12.3098231  )
         9           Tc1 tau(   9) = (   0.0000000   2.8602559  14.6196462  )
        10           Tc1 tau(  10) = (   2.7167165   2.8602559  14.6196462  )
        11           Au1 tau(  11) = (   4.0750748   0.2798753  14.6196462  )
        12           Au1 tau(  12) = (   1.3583583   0.2798753  14.6196462  )

     number of k points=    20  Fermi-Dirac smearing, width (Ry)=  0.0110
                       cart. coord. in units 2pi/alat
        k(    1) = (   0.0000000   0.0000000   0.0000000), wk =   0.0555556
        k(    2) = (   0.0000000   0.0322950   0.0000000), wk =   0.1111111
        k(    3) = (   0.0000000   0.0645900   0.0000000), wk =   0.1111111
        k(    4) = (   0.0000000  -0.0968849   0.0000000), wk =   0.0555556
        k(    5) = (   0.0306743   0.0161475   0.0000000), wk =   0.1111111
        k(    6) = (   0.0306743   0.0484425   0.0000000), wk =   0.1111111
        k(    7) = (   0.0306743   0.0807374   0.0000000), wk =   0.1111111
        k(    8) = (   0.0306743  -0.0807374   0.0000000), wk =   0.1111111
        k(    9) = (   0.0306743  -0.0484425   0.0000000), wk =   0.1111111
        k(   10) = (   0.0306743  -0.0161475   0.0000000), wk =   0.1111111
        k(   11) = (   0.0613486   0.0322950   0.0000000), wk =   0.1111111
        k(   12) = (   0.0613486   0.0645900   0.0000000), wk =   0.1111111
        k(   13) = (   0.0613486   0.0968849   0.0000000), wk =   0.1111111
        k(   14) = (   0.0613486  -0.0645900   0.0000000), wk =   0.1111111
        k(   15) = (   0.0613486  -0.0322950   0.0000000), wk =   0.1111111
        k(   16) = (   0.0613486   0.0000000   0.0000000), wk =   0.1111111
        k(   17) = (  -0.0920229  -0.0484425   0.0000000), wk =   0.0555556
        k(   18) = (  -0.0920229  -0.0161475   0.0000000), wk =   0.1111111
        k(   19) = (  -0.0920229   0.0161475   0.0000000), wk =   0.1111111
        k(   20) = (  -0.0920229  -0.1453274   0.0000000), wk =   0.0555556

     Largest allocated arrays     est. size (Mb)     dimensions
     Largest temporary arrays     est. size (Mb)     dimensions

     Check: negative/imaginary core charge=   -0.000011    0.000000

     Initial potential from superposition of free atoms
     Check: negative starting charge=   -0.764864

     starting charge  149.99910, renormalised to  156.00000

     negative rho (up, down):  7.955E-01 0.000E+00

     *
     * You are using vdW-DF for exchange-correlation in this calculation.
     * Please cite the following three references that made this development
     * possible:
     *
     *   M. Dion, H. Rydberg, E. Schroder, D. C. Langreth, and
     *   B. I. Lundqvist, Phys. Rev. Lett. 92, 246401 (2004).
     *
     *   T. Thonhauser, V. R. Cooper, S. Li, A. Puzder, P. Hyldgaard, and
     *   D. C. Langreth, Phys. Rev. B 76, 125112 (2007).
     *
     *   G. Roman-Perez and J. M. Soler, Phys. Rev. Lett. 103, 096102 (2009).
     *
     *
     * If you are using vdW-DF2, please also cite:
     *
     *   K. Lee, E. D. Murray, L. Kong, B. I. Lundqvist, and
     *   D. C. Langreth, Phys. Rev. B 82, 081101(R) (2010).
     *
     *
     * If you are calculating the stress with vdW-DF, please also cite:
     *
     *   R. Sabatini, E. Kucukbenli, B. Kolb, T. Thonhauser, and
     *   S. de Gironcoli, J. Phys.: Condens. Matter 24, 424209 (2012).
     *

     Carrying out vdW-DF run using the following parameters:

     Nqs =      20    Nr_points =    1024   r_max =   100.000
     q_mesh =
               0.00001000     0.04494208     0.09755937     0.15916263
               0.23128650     0.31572767     0.41458969     0.53033537
               0.66584808     0.82450364     1.01025438     1.22772762
               1.48234092     1.78043706     2.12944203     2.53805004
               3.01644009     3.57652955     4.23227104     5.00000000

     Gradients computed in reciprocal space

     Adding external electric field

     Computed dipole along edir(3) :
        Dipole                0.0000 Ry au,          0.0000 Debye
        Dipole field          0.0000 Ry au

        Potential amp.       -0.0000 Ry
        Total length         45.3613 bohr

     Starting wfc are  132 randomized atomic wfcs

     Self-consistent Calculation

     iteration #  1     ecut=    36.75 Ry     beta=0.10
     Davidson diagonalization with overlap
     ethr =  1.00E-02,  avg # of iterations =  7.7

[...]

     total energy              =   -1751.27521765 Ry
     Harris-Foulkes estimate   =   -1753.83475528 Ry
     estimated scf accuracy    <      14.98712343 Ry

[...]

     End of self-consistent calculation

          k = 0.0000 0.0000 0.0000 ( 17551 PWs)   bands (ev):

   -66.0255 -65.9519 -65.6228 -65.6211 -65.5487 -65.5470 -38.2524 -38.1456
   -38.0679 -38.0353 -37.9618 -37.9538 -37.9503 -37.6451 -37.6422 -37.5912
   -37.5720 -37.5695 -37.5555 -37.4832 -37.4568 -37.3914 -37.2937 -37.2921
    -6.9547  -5.5724  -5.5000  -5.3687  -5.1139  -5.0618  -4.9088  -4.8493
    -4.7363  -4.5470  -4.5413  -4.4757  -4.2720  -4.2495  -3.8234  -3.8103
    -3.6476  -3.4908  -3.2822  -3.0100  -2.8657  -2.8360  -2.5421  -2.5093
    -2.3692  -2.2653  -2.1827  -1.8907  -1.8775  -1.7800  -1.5040  -1.4440
    -1.4029  -1.1909  -0.7141  -0.6946  -0.6494  -0.5339  -0.5148  -0.3427
    -0.0979   0.1893   0.3225   0.6570   0.7292   0.7816   0.7958   0.8332
     1.0808   1.1090   1.4808   1.7113   1.7482   1.8958   2.1411   2.1524
     2.2937   2.3085   2.3722   2.4621   2.6447   2.6527   2.6610   2.8693
     2.9797   2.9931   3.3557   3.5980   3.8096   4.3146   4.5686   4.9112
     5.0257   5.3399   5.6402   5.9120   6.4380   6.6454   6.7605   6.8045
     7.0951   7.5407   7.6994   8.5478

[...]

          k =-0.0920-0.0484 0.0000 ( 17560 PWs)   bands (ev):

[...]

     the Fermi energy is     1.3096 ev

!    total energy              =   -1751.52939681 Ry
     Harris-Foulkes estimate   =   -1751.52939475 Ry
     estimated scf accuracy    <       0.00000046 Ry

     The total energy is the sum of the following terms:

     one-electron contribution =  -12718.58233887 Ry
     hartree contribution      =    6404.38298734 Ry
     xc contribution           =    -582.24724678 Ry
     ewald contribution        =    5144.99833023 Ry
     electric field correction =       0.00000000 Ry
     smearing contrib. (-TS)   =      -0.08112873 Ry

     convergence has been achieved in  20 iterations

 BEEF-vdW xc energy contributions
           1 :   -517.107128341492
           2 :    479.125842166082
           3 :   -411.177889302303
           4 :    326.420615221049
           5 :   -239.172375246127
           6 :    161.112706989457
           7 :   -99.0117203051452
           8 :    54.3604070037764
[...]
     MD5 check sum: 9eb49e5b028550b2339a02317eb7b844
     Pseudo is Ultrasoft + core correction, Zval = 15.0
     Generated by new atomic code, or converted to UPF format
     Using radial grid of  965 points,  6 beta functions with:
                l(1) =   0
                l(2) =   0
                l(3) =   1
                l(4) =   1
                l(5) =   2
                l(6) =   2
     Q(r) pseudized with  8 coefficients,  rinner =    1.300   1.300   1.300
                                                       1.300   1.300

     PseudoPot. # 2 for Au read from file:
     /afs/slac.stanford.edu/u/if/mamunm/psp/gbrv1.5pbe/Au.UPF
     MD5 check sum: 9d7f43293ad2c663164586bc4b293ffc
     Pseudo is Ultrasoft + core correction, Zval = 11.0
     Generated by new atomic code, or converted to UPF format
     Using radial grid of  985 points,  7 beta functions with:
                l(1) =   0
                l(2) =   0
                l(3) =   1
                l(4) =   1
                l(5) =   2
                l(6) =   2
                l(7) =   3
     Q(r) pseudized with  6 coefficients,  rinner =    1.900   1.900   1.900
                                                       1.900   1.900   1.900
                                                       1.900

     vdW kernel table read from file vdW_kernel_table
     MD5 check sum: 095c7af220d748ca6e76c0b4c6cfb241

     atomic species   valence    mass     pseudopotential
        Tc1           15.00    97.90721     Tc( 1.00)
        Au1           11.00   196.96657     Au( 1.00)

     No symmetry found

   Cartesian axes

     site n.     atom                  positions (alat units)
         1           Tc1 tau(   1) = (   0.0000000   0.0000000  10.0000000  )
         2           Tc1 tau(   2) = (   2.7167165   0.0000000  10.0000000  )
         3           Au1 tau(   3) = (   1.3583583   2.5803806  10.0000000  )
         4           Au1 tau(   4) = (  -1.3583583   2.5803806  10.0000000  )
         5           Tc1 tau(   5) = (   2.7167165   1.4301279  12.3098231  )
         6           Tc1 tau(   6) = (   0.0000000   1.4301279  12.3098231  )
         7           Au1 tau(   7) = (  -1.3583583   4.0105085  12.3098231  )
         8           Au1 tau(   8) = (   1.3583583   4.0105085  12.3098231  )
         9           Tc1 tau(   9) = (   0.0005920   0.5580683  14.3703651  )
        10           Tc1 tau(  10) = (   2.7172486   0.5587898  14.3709568  )
        11           Au1 tau(  11) = (   1.3604038   3.0315064  14.9759424  )
        12           Au1 tau(  12) = (  -1.3587885   3.0315019  14.9760019  )

     number of k points=    20  Fermi-Dirac smearing, width (Ry)=  0.0110
                       cart. coord. in units 2pi/alat
        k(    1) = (   0.0000000   0.0000000   0.0000000), wk =   0.0555556
        k(    2) = (   0.0000000   0.0322950   0.0000000), wk =   0.1111111
        k(    3) = (   0.0000000   0.0645900   0.0000000), wk =   0.1111111
        k(    4) = (   0.0000000  -0.0968849   0.0000000), wk =   0.0555556
        k(    5) = (   0.0306743   0.0161475   0.0000000), wk =   0.1111111
        k(    6) = (   0.0306743   0.0484425   0.0000000), wk =   0.1111111
        k(    7) = (   0.0306743   0.0807374   0.0000000), wk =   0.1111111
        k(    8) = (   0.0306743  -0.0807374   0.0000000), wk =   0.1111111
        k(    9) = (   0.0306743  -0.0484425   0.0000000), wk =   0.1111111
        k(   10) = (   0.0306743  -0.0161475   0.0000000), wk =   0.1111111
        k(   11) = (   0.0613486   0.0322950   0.0000000), wk =   0.1111111
        k(   12) = (   0.0613486   0.0645900   0.0000000), wk =   0.1111111
        k(   13) = (   0.0613486   0.0968849   0.0000000), wk =   0.1111111
        k(   14) = (   0.0613486  -0.0645900   0.0000000), wk =   0.1111111
        k(   15) = (   0.0613486  -0.0322950   0.0000000), wk =   0.1111111
        k(   16) = (   0.0613486   0.0000000   0.0000000), wk =   0.1111111
        k(   17) = (  -0.0920229  -0.0484425   0.0000000), wk =   0.0555556
        k(   18) = (  -0.0920229  -0.0161475   0.0000000), wk =   0.1111111
        k(   19) = (  -0.0920229   0.0161475   0.0000000), wk =   0.1111111
        k(   20) = (  -0.0920229  -0.1453274   0.0000000), wk =   0.0555556

     Largest allocated arrays     est. size (Mb)     dimensions
     Largest temporary arrays     est. size (Mb)     dimensions

     Check: negative/imaginary core charge=   -0.000011    0.000000

     Initial potential from superposition of free atoms
     Check: negative starting charge=   -0.760374

     starting charge  149.99910, renormalised to  156.00000

[...]

     *
     * You are using vdW-DF for exchange-correlation in this calculation.
     * Please cite the following three references that made this development
     * possible:
     *
     *   M. Dion, H. Rydberg, E. Schroder, D. C. Langreth, and
     *   B. I. Lundqvist, Phys. Rev. Lett. 92, 246401 (2004).
     *
     *   T. Thonhauser, V. R. Cooper, S. Li, A. Puzder, P. Hyldgaard, and
     *   D. C. Langreth, Phys. Rev. B 76, 125112 (2007).
     *
     *   G. Roman-Perez and J. M. Soler, Phys. Rev. Lett. 103, 096102 (2009).
     *
     *
     * If you are using vdW-DF2, please also cite:
     *
     *   K. Lee, E. D. Murray, L. Kong, B. I. Lundqvist, and
     *   D. C. Langreth, Phys. Rev. B 82, 081101(R) (2010).
     *
     *
     * If you are calculating the stress with vdW-DF, please also cite:
     *
     *   R. Sabatini, E. Kucukbenli, B. Kolb, T. Thonhauser, and
     *   S. de Gironcoli, J. Phys.: Condens. Matter 24, 424209 (2012).
     *

     Carrying out vdW-DF run using the following parameters:

     Nqs =      20    Nr_points =    1024   r_max =   100.000
     q_mesh =
               0.00001000     0.04494208     0.09755937     0.15916263
               0.23128650     0.31572767     0.41458969     0.53033537
               0.66584808     0.82450364     1.01025438     1.22772762
               1.48234092     1.78043706     2.12944203     2.53805004
               3.01644009     3.57652955     4.23227104     5.00000000

     Gradients computed in reciprocal space

[...]

     Starting wfc are  132 randomized atomic wfcs

     Self-consistent Calculation

[...]

     total energy              =   -1751.64113916 Ry
     Harris-Foulkes estimate   =   -1751.64114117 Ry
     estimated scf accuracy    <       0.00000240 Ry

     iteration # 21     ecut=    36.75 Ry     beta=0.10
     Davidson diagonalization with overlap
     ethr =  1.54E-09,  avg # of iterations =  2.0

[...]

     negative rho (up, down):  7.886E-01 0.000E+00

     Adding external electric field

     Computed dipole along edir(3) :
        Dipole               -0.0476 Ry au,         -0.1210 Debye
        Dipole field         -0.0001 Ry au

        Potential amp.        0.0117 Ry
        Total length         45.3613 bohr

     End of self-consistent calculation

[...]

          k = 0.0613 0.0000 0.0000 ( 17536 PWs)   bands (ev):

[...]

          k =-0.0920-0.1453 0.0000 ( 17560 PWs)   bands (ev):

   -66.0262 -66.0260 -65.6504 -65.6504 -65.5748 -65.5748 -38.8316 -38.8305
   -38.0382 -38.0380 -37.9072 -37.9071 -37.7106 -37.7106 -37.6545 -37.6544
   -37.6157 -37.6156 -37.5703 -37.5702 -37.4798 -37.4797 -37.1167 -37.1165
    -5.1525  -5.1522  -4.3516  -4.3511  -4.2023  -4.2013  -4.0649  -4.0647
    -3.8327  -3.8326  -3.7930  -3.7924  -3.6264  -3.6256  -3.2303  -3.2297
    -3.1706  -3.1679  -2.9944  -2.9943  -2.8757  -2.8736  -2.7337  -2.7293
    -2.5969  -2.5935  -2.5577  -2.5546  -2.5142  -2.5124  -2.1150  -2.1077
    -1.8789  -1.8775  -1.4068  -1.4066  -1.1929  -1.1927  -0.8600  -0.8595
    -0.6772  -0.6769  -0.2432  -0.2430   0.1321   0.1341   0.2933   0.2938
     0.5005   0.5010   0.6769   0.6791   0.8219   0.8236   1.0475   1.0478
     1.1783   1.1786   2.1047   2.1052   2.2731   2.2739   2.7075   2.7081
     3.2241   3.2251   3.5909   3.5914   4.3536   4.3545   5.3863   5.3879
     6.0940   6.0949   6.8998   6.9000   7.4255   7.4256   7.4553   7.4556
     8.5170   8.5177   8.5654   8.5663

     the Fermi energy is     1.2799 ev

!    total energy              =   -1751.64114058 Ry
     Harris-Foulkes estimate   =   -1751.64114007 Ry
     estimated scf accuracy    <       0.00000057 Ry

     The total energy is the sum of the following terms:

     one-electron contribution =  -12698.25652510 Ry
     hartree contribution      =    6394.41070368 Ry
     xc contribution           =    -582.51259911 Ry
     ewald contribution        =    5134.78611850 Ry
     electric field correction =       0.00000612 Ry
     smearing contrib. (-TS)   =      -0.06884466 Ry

     convergence has been achieved in  21 iterations

 BEEF-vdW xc energy contributions
           1 :   -517.355004515626
           2 :    479.317994034494
           3 :   -411.298390590533
           4 :    326.484469649911
           5 :   -239.178525781360
           6 :    161.011378404104
           7 :   -98.7135660344084
           8 :    53.7870356118672
           9 :   -23.8382528858225
          10 :    4.70165959165149
          11 :    7.54742762055128
          12 :   -15.4231862193792
          13 :    19.8808715198513
          14 :   -20.9553209425725
          15 :    18.6387890245048
          16 :   -13.5245848929135
          17 :    6.93058821093678
          18 :  -0.549248701681336
          19 :   -4.13752842971803
          20 :    6.34477768611839
          21 :   -6.15250975805714
          22 :    4.29907996564293
          23 :   -1.74648558567435
          24 :  -0.759800757101402
          25 :    2.92801627581298
          26 :   -4.88382862620438
          27 :    6.92231785332137
          28 :   -9.21417953154366
          29 :    11.6192083331986
          30 :   -13.6943867963535
          31 :   -43.5933510416660
          32 :   -31.8544443138524

     Forces acting on atoms (Ry/au):

     negative rho (up, down):  7.886E-01 0.000E+00
     atom    1 type  1   force =     0.00001571    0.02064207    0.03210939
     atom    2 type  1   force =     0.00001663    0.02065167    0.03213204
     atom    3 type  2   force =     0.00000728   -0.01986999   -0.04865212
     atom    4 type  2   force =     0.00000422   -0.01986957   -0.04865043
     atom    5 type  1   force =     0.00001672   -0.01988665    0.00205198
     atom    6 type  1   force =     0.00001511   -0.01983073    0.00198064
     atom    7 type  2   force =     0.00004215    0.01856419    0.01560722
     atom    8 type  2   force =    -0.00005178    0.01856787    0.01560365
     atom    9 type  1   force =    -0.00002552    0.00088669   -0.00150275
     atom   10 type  1   force =    -0.00001444    0.00069419   -0.00178122
     atom   11 type  2   force =    -0.00102411   -0.00027141    0.00055468
     atom   12 type  2   force =     0.00099805   -0.00027833    0.00054690

     Total force =     0.102090     Total SCF correction =     0.003279

     entering subroutine stress ...

     negative rho (up, down):  7.886E-01 0.000E+00
          total   stress  (Ry/bohr**3)                   (kbar)     P=  -12.45
  -0.00006965  -0.00000003  -0.00000005        -10.25     -0.00     -0.01
  -0.00000003  -0.00020662  -0.00000084         -0.00    -30.39     -0.12
  -0.00000005  -0.00000084   0.00002227         -0.01     -0.12      3.28

 !ASE

     Writing output data file calc.save

     General routines

     Parallel routines

   This run was terminated on:   1:19:23  30Dec2018

   JOB DONE.
Job  /afs/slac/g/suncat/bin/suncat-tsmpirun -x LD_LIBRARY_PATH -wdir /scratch/qe387709_3fBsK pw.x -in pw.inp

TID   HOST_NAME   COMMAND_LINE            STATUS            TERMINATION_TIME
00000 suncat0024 pw.x -in pw.inp   Done                     12/30/2018 01:19:23
00001 suncat0024 pw.x -in pw.inp   Done                     12/30/2018 01:19:23
00002 suncat0024 pw.x -in pw.inp   Done                     12/30/2018 01:19:23
00003 suncat0024 pw.x -in pw.inp   Done                     12/30/2018 01:19:23
00004 suncat0024 pw.x -in pw.inp   Done                     12/30/2018 01:19:23
00005 suncat0024 pw.x -in pw.inp   Done                     12/30/2018 01:19:23
00006 suncat0024 pw.x -in pw.inp   Done                     12/30/2018 01:19:23
00007 suncat0024 pw.x -in pw.inp   Done                     12/30/2018 01:19:23
00008 suncat0023 pw.x -in pw.inp   Done                     12/30/2018 01:19:23
00009 suncat0023 pw.x -in pw.inp   Done                     12/30/2018 01:19:23
00010 suncat0023 pw.x -in pw.inp   Done                     12/30/2018 01:19:23
00011 suncat0023 pw.x -in pw.inp   Done                     12/30/2018 01:19:23
00012 suncat0023 pw.x -in pw.inp   Done                     12/30/2018 01:19:23
00013 suncat0023 pw.x -in pw.inp   Done                     12/30/2018 01:19:23
00014 suncat0023 pw.x -in pw.inp   Done                     12/30/2018 01:19:23
00015 suncat0023 pw.x -in pw.inp   Done                     12/30/2018 01:19:23
00016 suncat0190 pw.x -in pw.inp   Done                     12/30/2018 01:19:23
00017 suncat0190 pw.x -in pw.inp   Done                     12/30/2018 01:19:23
00018 suncat0190 pw.x -in pw.inp   Done                     12/30/2018 01:19:23
00019 suncat0190 pw.x -in pw.inp   Done                     12/30/2018 01:19:23
00020 suncat0190 pw.x -in pw.inp   Done                     12/30/2018 01:19:23
00021 suncat0190 pw.x -in pw.inp   Done                     12/30/2018 01:19:23
00022 suncat0190 pw.x -in pw.inp   Done                     12/30/2018 01:19:23
00023 suncat0190 pw.x -in pw.inp   Done                     12/30/2018 01:19:23
00024 suncat0009 pw.x -in pw.inp   Done                     12/30/2018 01:19:23
00025 suncat0009 pw.x -in pw.inp   Done                     12/30/2018 01:19:23
00026 suncat0009 pw.x -in pw.inp   Done                     12/30/2018 01:19:23
00027 suncat0009 pw.x -in pw.inp   Done                     12/30/2018 01:19:23
00028 suncat0009 pw.x -in pw.inp   Done                     12/30/2018 01:19:23
00029 suncat0009 pw.x -in pw.inp   Done                     12/30/2018 01:19:23
00030 suncat0009 pw.x -in pw.inp   Done                     12/30/2018 01:19:23
00031 suncat0009 pw.x -in pw.inp   Done                     12/30/2018 01:19:23
00032 suncat0185 pw.x -in pw.inp   Done                     12/30/2018 01:19:23
00033 suncat0185 pw.x -in pw.inp   Done                     12/30/2018 01:19:23
00034 suncat0185 pw.x -in pw.inp   Done                     12/30/2018 01:19:23
00035 suncat0185 pw.x -in pw.inp   Done                     12/30/2018 01:19:23
00036 suncat0185 pw.x -in pw.inp   Done                     12/30/2018 01:19:23
00037 suncat0185 pw.x -in pw.inp   Done                     12/30/2018 01:19:23
00038 suncat0185 pw.x -in pw.inp   Done                     12/30/2018 01:19:23
00039 suncat0185 pw.x -in pw.inp   Done                     12/30/2018 01:19:23
00040 suncat0183 pw.x -in pw.inp   Done                     12/30/2018 01:19:23
00041 suncat0183 pw.x -in pw.inp   Done                     12/30/2018 01:19:23
00042 suncat0183 pw.x -in pw.inp   Done                     12/30/2018 01:19:23
00043 suncat0183 pw.x -in pw.inp   Done                     12/30/2018 01:19:23
00044 suncat0183 pw.x -in pw.inp   Done                     12/30/2018 01:19:23
00045 suncat0183 pw.x -in pw.inp   Done                     12/30/2018 01:19:23
00046 suncat0183 pw.x -in pw.inp   Done                     12/30/2018 01:19:23
00047 suncat0183 pw.x -in pw.inp   Done                     12/30/2018 01:19:23
00048 suncat0182 pw.x -in pw.inp   Done                     12/30/2018 01:19:23
00049 suncat0182 pw.x -in pw.inp   Done                     12/30/2018 01:19:23
00050 suncat0182 pw.x -in pw.inp   Done                     12/30/2018 01:19:23
00051 suncat0182 pw.x -in pw.inp   Done                     12/30/2018 01:19:23
00052 suncat0182 pw.x -in pw.inp   Done                     12/30/2018 01:19:23
00053 suncat0182 pw.x -in pw.inp   Done                     12/30/2018 01:19:23
00054 suncat0182 pw.x -in pw.inp   Done                     12/30/2018 01:19:23
00055 suncat0182 pw.x -in pw.inp   Done                     12/30/2018 01:19:23
00056 suncat0181 pw.x -in pw.inp   Done                     12/30/2018 01:19:23
00057 suncat0181 pw.x -in pw.inp   Done                     12/30/2018 01:19:23
00058 suncat0181 pw.x -in pw.inp   Done                     12/30/2018 01:19:23
00059 suncat0181 pw.x -in pw.inp   Done                     12/30/2018 01:19:23
00060 suncat0181 pw.x -in pw.inp   Done                     12/30/2018 01:19:23
00061 suncat0181 pw.x -in pw.inp   Done                     12/30/2018 01:19:23
00062 suncat0181 pw.x -in pw.inp   Done                     12/30/2018 01:19:23
00063 suncat0181 pw.x -in pw.inp   Done                     12/30/2018 01:19:23