     Program PWSCF v.5.1rc2 (svn rev. 11289) starts on 19Dec2018 at  6:33: 8

     Current dimensions of program PWSCF are:
     Max number of different atomic species (ntypx) = 10
     Max number of k-points (npk) =  40000
     Max angular momentum in pseudopotentials (lmaxx) =  3
     Presently stress not available with electric field

     IMPORTANT: XC functional enforced from input :
     Exchange-correlation      = BEEF-VDW ( 1  4 27 13 2)
     Any further DFT definition will be discarded
     Please, verify this is what you really want

     Subspace diagonalization in iterative solution of the eigenvalue problem:
     a serial algorithm will be used

     Found symmetry operation: I + ( -0.5000  0.0000  0.0000)
     This is a supercell, fractional translations are disabled

     bravais-lattice index     =            0
     lattice parameter (alat)  =       1.8897  a.u.
     unit-cell volume          =    4034.5557 (a.u.)^3
     number of atoms/cell      =           12
     number of atomic types    =            2
     number of electrons       =       198.00
     number of Kohn-Sham states=          129
     kinetic-energy cutoff     =      36.7493  Ry
     charge density cutoff     =     367.4932  Ry
     convergence threshold     =      1.0E-06
     mixing beta               =       0.1000
     number of iterations used =           10  plain     mixing
     Exchange-correlation      = BEEF-VDW ( 1  4 27 13 2)
     nstep                     =           50

     celldm(1)=   1.889726  celldm(2)=   0.000000  celldm(3)=   0.000000
     celldm(4)=   0.000000  celldm(5)=   0.000000  celldm(6)=   0.000000

     crystal axes: (cart. coord. in units of alat)
               a(1) = (   5.235731   0.000000   0.000000 )
               a(2) = (  -2.617865   4.690536   0.000000 )
               a(3) = (   0.000000   0.000000  24.344414 )

     reciprocal axes: (cart. coord. in units 2 pi/alat)
               b(1) = (  0.190995  0.106598  0.000000 )
               b(2) = (  0.000000  0.213195  0.000000 )
               b(3) = (  0.000000  0.000000  0.041077 )

     PseudoPot. # 1 for Cr read from file:
     /afs/slac.stanford.edu/u/if/mamunm/psp/gbrv1.5pbe/Cr.UPF
     MD5 check sum: 0d52af634a40206e4dee301ad30da4bf
     Pseudo is Ultrasoft + core correction, Zval = 14.0
     Generated by new atomic code, or converted to UPF format
     Using radial grid of  857 points,  6 beta functions with:
                l(1) =   0
                l(2) =   0
                l(3) =   1
                l(4) =   1
                l(5) =   2
                l(6) =   2
     Q(r) pseudized with  8 coefficients,  rinner =    0.950   0.950   0.950
                                                       0.950   0.950

     PseudoPot. # 2 for Ga read from file:
     /afs/slac.stanford.edu/u/if/mamunm/psp/gbrv1.5pbe/Ga.UPF
     MD5 check sum: ccd671392a58a050fbb373893b4fcd66
     Pseudo is Ultrasoft + core correction, Zval = 19.0
     Generated by new atomic code, or converted to UPF format
     Using radial grid of  871 points,  6 beta functions with:
                l(1) =   0
                l(2) =   0
                l(3) =   1
                l(4) =   1
                l(5) =   2
                l(6) =   2
     Q(r) pseudized with  8 coefficients,  rinner =    1.250   1.250   1.250
                                                       1.250   1.250

     vdW kernel table read from file vdW_kernel_table
     MD5 check sum: 095c7af220d748ca6e76c0b4c6cfb241

     atomic species   valence    mass     pseudopotential
        Cr1           14.00    51.99610     Cr( 1.00)
        Ga1           19.00    69.72300     Ga( 1.00)

     No symmetry found

   Cartesian axes

     site n.     atom                  positions (alat units)
         1           Cr1 tau(   1) = (   0.0000000   0.0000000  10.0000000  )
         2           Cr1 tau(   2) = (   2.6178654   0.0000000  10.0000000  )
         3           Ga1 tau(   3) = (   1.3089327   2.3452680  10.0000000  )
         4           Ga1 tau(   4) = (  -1.3089327   2.3452680  10.0000000  )
         5           Cr1 tau(   5) = (   2.6178654   1.4610738  12.1722069  )
         6           Cr1 tau(   6) = (   0.0000000   1.4610738  12.1722069  )
         7           Ga1 tau(   7) = (  -1.3089327   3.8063419  12.1722069  )
         8           Ga1 tau(   8) = (   1.3089327   3.8063419  12.1722069  )
         9           Cr1 tau(   9) = (   0.0000000   2.9221477  14.3444138  )
        10           Cr1 tau(  10) = (   2.6178654   2.9221477  14.3444138  )
        11           Ga1 tau(  11) = (   3.9267982   0.5768797  14.3444138  )
        12           Ga1 tau(  12) = (   1.3089327   0.5768797  14.3444138  )

     number of k points=    20  Fermi-Dirac smearing, width (Ry)=  0.0110
                       cart. coord. in units 2pi/alat
        k(    1) = (   0.0000000   0.0000000   0.0000000), wk =   0.0555556
        k(    2) = (   0.0000000   0.0355325   0.0000000), wk =   0.1111111
        k(    3) = (   0.0000000   0.0710651   0.0000000), wk =   0.1111111
        k(    4) = (   0.0000000  -0.1065976   0.0000000), wk =   0.0555556
        k(    5) = (   0.0318326   0.0177663   0.0000000), wk =   0.1111111
        k(    6) = (   0.0318326   0.0532988   0.0000000), wk =   0.1111111
        k(    7) = (   0.0318326   0.0888314   0.0000000), wk =   0.1111111
        k(    8) = (   0.0318326  -0.0888314   0.0000000), wk =   0.1111111
        k(    9) = (   0.0318326  -0.0532988   0.0000000), wk =   0.1111111
        k(   10) = (   0.0318326  -0.0177663   0.0000000), wk =   0.1111111
        k(   11) = (   0.0636651   0.0355325   0.0000000), wk =   0.1111111
        k(   12) = (   0.0636651   0.0710651   0.0000000), wk =   0.1111111
        k(   13) = (   0.0636651   0.1065976   0.0000000), wk =   0.1111111
        k(   14) = (   0.0636651  -0.0710651   0.0000000), wk =   0.1111111
        k(   15) = (   0.0636651  -0.0355325   0.0000000), wk =   0.1111111
        k(   16) = (   0.0636651   0.0000000   0.0000000), wk =   0.1111111
        k(   17) = (  -0.0954977  -0.0532988   0.0000000), wk =   0.0555556
        k(   18) = (  -0.0954977  -0.0177663   0.0000000), wk =   0.1111111
        k(   19) = (  -0.0954977   0.0177663   0.0000000), wk =   0.1111111
        k(   20) = (  -0.0954977  -0.1598964   0.0000000), wk =   0.0555556

     Largest allocated arrays     est. size (Mb)     dimensions
     Largest temporary arrays     est. size (Mb)     dimensions

     Check: negative/imaginary core charge=   -0.000003    0.000000

     Initial potential from superposition of free atoms
     Check: negative starting charge=   -0.007438

     starting charge  185.99990, renormalised to  198.00000

     negative rho (up, down):  7.918E-03 0.000E+00

     *
     * You are using vdW-DF for exchange-correlation in this calculation.
     * Please cite the following three references that made this development
     * possible:
     *
     *   M. Dion, H. Rydberg, E. Schroder, D. C. Langreth, and
     *   B. I. Lundqvist, Phys. Rev. Lett. 92, 246401 (2004).
     *
     *   T. Thonhauser, V. R. Cooper, S. Li, A. Puzder, P. Hyldgaard, and
     *   D. C. Langreth, Phys. Rev. B 76, 125112 (2007).
     *
     *   G. Roman-Perez and J. M. Soler, Phys. Rev. Lett. 103, 096102 (2009).
     *
     *
     * If you are using vdW-DF2, please also cite:
     *
     *   K. Lee, E. D. Murray, L. Kong, B. I. Lundqvist, and
     *   D. C. Langreth, Phys. Rev. B 82, 081101(R) (2010).
     *
     *
     * If you are calculating the stress with vdW-DF, please also cite:
     *
     *   R. Sabatini, E. Kucukbenli, B. Kolb, T. Thonhauser, and
     *   S. de Gironcoli, J. Phys.: Condens. Matter 24, 424209 (2012).
     *

     Carrying out vdW-DF run using the following parameters:

     Nqs =      20    Nr_points =    1024   r_max =   100.000
     q_mesh =
               0.00001000     0.04494208     0.09755937     0.15916263
               0.23128650     0.31572767     0.41458969     0.53033537
               0.66584808     0.82450364     1.01025438     1.22772762
               1.48234092     1.78043706     2.12944203     2.53805004
               3.01644009     3.57652955     4.23227104     5.00000000

     Gradients computed in reciprocal space

     Adding external electric field

     Computed dipole along edir(3) :
        Dipole                0.0000 Ry au,          0.0000 Debye
        Dipole field          0.0000 Ry au

        Potential amp.       -0.0000 Ry
        Total length         44.8542 bohr

     Starting wfc are  132 randomized atomic wfcs

     Self-consistent Calculation

     iteration #  1     ecut=    36.75 Ry     beta=0.10
     Davidson diagonalization with overlap
     ethr =  1.00E-02,  avg # of iterations =  7.3

[...]

     total energy              =   -3488.77223931 Ry
     Harris-Foulkes estimate   =   -3584.20565105 Ry
     estimated scf accuracy    <     526.93046240 Ry

[...]

     iteration # 18     ecut=    36.75 Ry     beta=0.10
     Davidson diagonalization with overlap
     c_bands:  1 eigenvalues not converged
     ethr =  1.29E-06,  avg # of iterations =  5.7

[...]

     End of self-consistent calculation

          k = 0.0000 0.0000 0.0000 ( 15221 PWs)   bands (ev):

   -93.6611 -93.6542 -93.6533 -93.6477 -93.5957 -93.5948 -93.3557 -93.3553
   -93.3548 -93.3544 -93.3521 -93.3518 -93.3388 -93.3384 -93.2808 -93.2806
   -93.2799 -93.2797 -70.7997 -70.7555 -70.6176 -70.6162 -70.5741 -70.5727
   -42.2749 -42.2005 -42.1577 -42.0851 -42.0590 -42.0575 -42.0444 -41.9701
   -41.9664 -41.9306 -41.9266 -41.9172 -41.9171 -41.8786 -41.8588 -41.8242
   -41.7060 -41.7053 -14.3635 -14.2321 -14.1600 -14.1119 -14.0853 -14.0725
   -14.0221 -14.0163 -13.9875 -13.9232 -13.8701 -13.8500 -13.8298 -13.8214
   -13.8116 -13.8056 -13.6997 -13.6851 -13.6679 -13.6641 -13.6495 -13.6361
   -13.6263 -13.5870 -13.5753 -13.5743 -13.5449 -13.5443 -13.4583 -13.4287
    -9.6131  -7.7095  -5.6969  -4.7265  -3.4464  -2.8917  -2.7301  -2.1014
    -1.9799  -1.9383  -1.5084  -1.2804  -1.1881  -0.8516  -0.4442  -0.4206
    -0.4119  -0.2719  -0.1856  -0.0468   0.3773   0.5155   0.6000   0.6304
     0.9505   1.0419   1.0589   1.0833   1.3172   1.3698   1.4676   1.5313
     1.6355   1.7450   1.7494   1.7627   1.9767   2.0259   2.0900   2.2093
     2.4333   2.7740   3.0507   3.1197   3.4546   3.8051   4.3455   4.5182
     4.8974   5.2944   5.3052   5.4791   6.3443   6.3704   6.9520   7.1904
     7.2812

[...]

          k =-0.0955-0.0533 0.0000 ( 15172 PWs)   bands (ev):

[...]

     the Fermi energy is     1.0502 ev

!    total energy              =   -3556.97094469 Ry
     Harris-Foulkes estimate   =   -3556.97095069 Ry
     estimated scf accuracy    <       0.00000062 Ry

     The total energy is the sum of the following terms:

     one-electron contribution =  -26028.64860025 Ry
     hartree contribution      =   13015.83705319 Ry
     xc contribution           =    -438.61780741 Ry
     ewald contribution        =    9894.55308919 Ry
     electric field correction =       0.00000002 Ry
     smearing contrib. (-TS)   =      -0.09467942 Ry

     convergence has been achieved in  27 iterations

[...]

[...]

     Program PWSCF v.5.1rc2 (svn rev. 11289) starts on 19Dec2018 at  7:19:42

[...]

   This run was terminated on:   8: 8:32  19Dec2018

[...]

     Program PWSCF v.5.1rc2 (svn rev. 11289) starts on 19Dec2018 at  8: 8:38

[...]

   This run was terminated on:   9:23: 2  19Dec2018

[...]

     Program PWSCF v.5.1rc2 (svn rev. 11289) starts on 19Dec2018 at 10:55: 1

[...]

     Program PWSCF v.5.1rc2 (svn rev. 11289) starts on 19Dec2018 at 11:15:54

     Current dimensions of program PWSCF are:
     Max number of different atomic species (ntypx) = 10
     Max number of k-points (npk) =  40000
     Max angular momentum in pseudopotentials (lmaxx) =  3
     Presently stress not available with electric field

     IMPORTANT: XC functional enforced from input :
     Exchange-correlation      = BEEF-VDW ( 1  4 27 13 2)
     Any further DFT definition will be discarded
     Please, verify this is what you really want

     Subspace diagonalization in iterative solution of the eigenvalue problem:
     a serial algorithm will be used

     bravais-lattice index     =            0
     lattice parameter (alat)  =       1.8897  a.u.
     unit-cell volume          =    4034.5557 (a.u.)^3
     number of atoms/cell      =           12
     number of atomic types    =            2
     number of electrons       =       198.00
     number of Kohn-Sham states=          129
     kinetic-energy cutoff     =      36.7493  Ry
     charge density cutoff     =     367.4932  Ry
     convergence threshold     =      1.0E-06
     mixing beta               =       0.1000
     number of iterations used =           10  plain     mixing
     Exchange-correlation      = BEEF-VDW ( 1  4 27 13 2)
     nstep                     =           50

     celldm(1)=   1.889726  celldm(2)=   0.000000  celldm(3)=   0.000000
     celldm(4)=   0.000000  celldm(5)=   0.000000  celldm(6)=   0.000000

     crystal axes: (cart. coord. in units of alat)
               a(1) = (   5.235731   0.000000   0.000000 )
               a(2) = (  -2.617865   4.690536   0.000000 )
               a(3) = (   0.000000   0.000000  24.344414 )

     reciprocal axes: (cart. coord. in units 2 pi/alat)
               b(1) = (  0.190995  0.106598  0.000000 )
               b(2) = (  0.000000  0.213195  0.000000 )
               b(3) = (  0.000000  0.000000  0.041077 )

     PseudoPot. # 1 for Cr read from file:
     /afs/slac.stanford.edu/u/if/mamunm/psp/gbrv1.5pbe/Cr.UPF
     MD5 check sum: 0d52af634a40206e4dee301ad30da4bf
     Pseudo is Ultrasoft + core correction, Zval = 14.0
     Generated by new atomic code, or converted to UPF format
     Using radial grid of  857 points,  6 beta functions with:
                l(1) =   0
                l(2) =   0
                l(3) =   1
                l(4) =   1
                l(5) =   2
                l(6) =   2
     Q(r) pseudized with  8 coefficients,  rinner =    0.950   0.950   0.950
                                                       0.950   0.950

     PseudoPot. # 2 for Ga read from file:
     /afs/slac.stanford.edu/u/if/mamunm/psp/gbrv1.5pbe/Ga.UPF
     MD5 check sum: ccd671392a58a050fbb373893b4fcd66
     Pseudo is Ultrasoft + core correction, Zval = 19.0
     Generated by new atomic code, or converted to UPF format
     Using radial grid of  871 points,  6 beta functions with:
                l(1) =   0
                l(2) =   0
                l(3) =   1
                l(4) =   1
                l(5) =   2
                l(6) =   2
     Q(r) pseudized with  8 coefficients,  rinner =    1.250   1.250   1.250
                                                       1.250   1.250

     vdW kernel table read from file vdW_kernel_table
     MD5 check sum: 095c7af220d748ca6e76c0b4c6cfb241

     atomic species   valence    mass     pseudopotential
        Cr1           14.00    51.99610     Cr( 1.00)
        Ga1           19.00    69.72300     Ga( 1.00)

     No symmetry found

   Cartesian axes

     site n.     atom                  positions (alat units)
         1           Cr1 tau(   1) = (   0.0000000   0.0000000  10.0000000  )
         2           Cr1 tau(   2) = (   2.6178654   0.0000000  10.0000000  )
         3           Ga1 tau(   3) = (   1.3089327   2.3452680  10.0000000  )
         4           Ga1 tau(   4) = (  -1.3089327   2.3452680  10.0000000  )
         5           Cr1 tau(   5) = (   2.6178654   1.4610738  12.1722069  )
         6           Cr1 tau(   6) = (   0.0000000   1.4610738  12.1722069  )
         7           Ga1 tau(   7) = (  -1.3089327   3.8063419  12.1722069  )
         8           Ga1 tau(   8) = (   1.3089327   3.8063419  12.1722069  )
         9           Cr1 tau(   9) = (   0.0000004   2.5724929  14.1030717  )
        10           Cr1 tau(  10) = (   2.6178594   2.5726830  14.1029241  )
        11           Ga1 tau(  11) = (   3.9272524   0.3059797  14.6002597  )
        12           Ga1 tau(  12) = (   1.3084665   0.3059829  14.6002568  )

     number of k points=    20  Fermi-Dirac smearing, width (Ry)=  0.0110
                       cart. coord. in units 2pi/alat
        k(    1) = (   0.0000000   0.0000000   0.0000000), wk =   0.0555556
        k(    2) = (   0.0000000   0.0355325   0.0000000), wk =   0.1111111
        k(    3) = (   0.0000000   0.0710651   0.0000000), wk =   0.1111111
        k(    4) = (   0.0000000  -0.1065976   0.0000000), wk =   0.0555556
        k(    5) = (   0.0318326   0.0177663   0.0000000), wk =   0.1111111
        k(    6) = (   0.0318326   0.0532988   0.0000000), wk =   0.1111111
        k(    7) = (   0.0318326   0.0888314   0.0000000), wk =   0.1111111
        k(    8) = (   0.0318326  -0.0888314   0.0000000), wk =   0.1111111
        k(    9) = (   0.0318326  -0.0532988   0.0000000), wk =   0.1111111
        k(   10) = (   0.0318326  -0.0177663   0.0000000), wk =   0.1111111
        k(   11) = (   0.0636651   0.0355325   0.0000000), wk =   0.1111111
        k(   12) = (   0.0636651   0.0710651   0.0000000), wk =   0.1111111
        k(   13) = (   0.0636651   0.1065976   0.0000000), wk =   0.1111111
        k(   14) = (   0.0636651  -0.0710651   0.0000000), wk =   0.1111111
        k(   15) = (   0.0636651  -0.0355325   0.0000000), wk =   0.1111111
        k(   16) = (   0.0636651   0.0000000   0.0000000), wk =   0.1111111
        k(   17) = (  -0.0954977  -0.0532988   0.0000000), wk =   0.0555556
        k(   18) = (  -0.0954977  -0.0177663   0.0000000), wk =   0.1111111
        k(   19) = (  -0.0954977   0.0177663   0.0000000), wk =   0.1111111
        k(   20) = (  -0.0954977  -0.1598964   0.0000000), wk =   0.0555556

     Largest allocated arrays     est. size (Mb)     dimensions
     Largest temporary arrays     est. size (Mb)     dimensions

     Check: negative/imaginary core charge=   -0.000003    0.000000

     Initial potential from superposition of free atoms
     Check: negative starting charge=   -0.007706

     starting charge  185.99990, renormalised to  198.00000

[...]

     *
     * You are using vdW-DF for exchange-correlation in this calculation.
     * Please cite the following three references that made this development
     * possible:
     *
     *   M. Dion, H. Rydberg, E. Schroder, D. C. Langreth, and
     *   B. I. Lundqvist, Phys. Rev. Lett. 92, 246401 (2004).
     *
     *   T. Thonhauser, V. R. Cooper, S. Li, A. Puzder, P. Hyldgaard, and
     *   D. C. Langreth, Phys. Rev. B 76, 125112 (2007).
     *
     *   G. Roman-Perez and J. M. Soler, Phys. Rev. Lett. 103, 096102 (2009).
     *
     *
     * If you are using vdW-DF2, please also cite:
     *
     *   K. Lee, E. D. Murray, L. Kong, B. I. Lundqvist, and
     *   D. C. Langreth, Phys. Rev. B 82, 081101(R) (2010).
     *
     *
     * If you are calculating the stress with vdW-DF, please also cite:
     *
     *   R. Sabatini, E. Kucukbenli, B. Kolb, T. Thonhauser, and
     *   S. de Gironcoli, J. Phys.: Condens. Matter 24, 424209 (2012).
     *

     Carrying out vdW-DF run using the following parameters:

     Nqs =      20    Nr_points =    1024   r_max =   100.000
     q_mesh =
               0.00001000     0.04494208     0.09755937     0.15916263
               0.23128650     0.31572767     0.41458969     0.53033537
               0.66584808     0.82450364     1.01025438     1.22772762
               1.48234092     1.78043706     2.12944203     2.53805004
               3.01644009     3.57652955     4.23227104     5.00000000

     Gradients computed in reciprocal space

[...]

     Starting wfc are  132 randomized atomic wfcs

     Self-consistent Calculation

[...]

     total energy              =   -3557.02507553 Ry
     Harris-Foulkes estimate   =   -3557.02507799 Ry
     estimated scf accuracy    <       0.00000135 Ry

     iteration # 28     ecut=    36.75 Ry     beta=0.10
     Davidson diagonalization with overlap
     ethr =  6.80E-10,  avg # of iterations =  2.5

[...]

     negative rho (up, down):  6.811E-03 0.000E+00

     Adding external electric field

     Computed dipole along edir(3) :
        Dipole                0.0296 Ry au,          0.0753 Debye
        Dipole field          0.0001 Ry au

        Potential amp.       -0.0083 Ry
        Total length         44.8542 bohr

     End of self-consistent calculation

[...]

          k = 0.0637 0.0000 0.0000 ( 15151 PWs)   bands (ev):

[...]

          k =-0.0955-0.1599 0.0000 ( 15172 PWs)   bands (ev):

   -93.6111 -93.6111 -93.6094 -93.6094 -93.5502 -93.5502 -93.4136 -93.4136
   -93.3818 -93.3817 -93.3167 -93.3167 -93.3139 -93.3139 -93.3031 -93.3031
   -93.2370 -93.2370 -70.7332 -70.7331 -70.5338 -70.5337 -70.5260 -70.5259
   -42.3704 -42.3703 -42.0468 -42.0467 -42.0050 -42.0050 -41.8953 -41.8952
   -41.8768 -41.8767 -41.8400 -41.8400 -41.8306 -41.8306 -41.8042 -41.8040
   -41.6066 -41.6064 -14.1016 -14.1016 -14.0285 -14.0285 -13.9908 -13.9908
   -13.9767 -13.9766 -13.9623 -13.9623 -13.7709 -13.7699 -13.7444 -13.7438
   -13.6990 -13.6984 -13.6930 -13.6928 -13.6809 -13.6807 -13.6673 -13.6672
   -13.6622 -13.6622 -13.6388 -13.6388 -13.6096 -13.6096 -13.5852 -13.5852
    -7.7869  -7.7863  -6.1224  -6.1203  -4.5836  -4.5821  -2.5195  -2.5194
    -1.5089  -1.5086  -1.0317  -1.0310  -0.6962  -0.6961  -0.5179  -0.5179
    -0.3263  -0.3260  -0.1038  -0.1036   0.4431   0.4437   0.5571   0.5571
     0.7985   0.7985   1.0404   1.0405   1.1343   1.1343   1.4035   1.4036
     1.6943   1.6943   2.0255   2.0257   2.2156   2.2158   2.5480   2.5485
     3.0668   3.0673   3.7298   3.7301   5.1323   5.1326   5.4067   5.4077
     6.1021   6.1026   6.3585   6.3589   6.5684   6.5691   6.9717   6.9725
     7.0896

     the Fermi energy is     1.0990 ev

!    total energy              =   -3557.02507081 Ry
     Harris-Foulkes estimate   =   -3557.02507546 Ry
     estimated scf accuracy    <       0.00000031 Ry

     The total energy is the sum of the following terms:

     one-electron contribution =  -25848.24979838 Ry
     hartree contribution      =   12925.82188255 Ry
     xc contribution           =    -438.67001421 Ry
     ewald contribution        =    9804.15756147 Ry
     electric field correction =       0.00000273 Ry
     smearing contrib. (-TS)   =      -0.08470498 Ry

     convergence has been achieved in  28 iterations

 BEEF-vdW xc energy contributions
           1 :   -388.430469390872
           2 :    352.213828576699
           3 :   -291.460691608808
           4 :    223.899844048504
           5 :   -165.431700395313
           6 :    124.187650861076
           7 :   -99.2269769134131
           8 :    83.7871970343304
           9 :   -70.5877593360755
          10 :    55.9410591209290
          11 :   -40.6596446346174
          12 :    27.9630746414648
          13 :   -20.3439467316549
          14 :    17.6165444093773
          15 :   -17.2158617727106
          16 :    16.1530542929610
          17 :   -13.0219111154000
          18 :    8.64746876547508
          19 :   -5.09755804485440
          20 :    3.94807829364981
          21 :   -5.11563178593281
          22 :    7.02522029180216
          23 :   -7.85368074414527
          24 :    6.84375606598979
          25 :   -4.73195087110560
          26 :    3.05856583265370
          27 :   -2.95848772595161
          28 :    4.35221152965346
          29 :   -6.08903156113854
          30 :    6.85676910448535
          31 :   -31.6015481664405
          32 :   -22.0546980490135

     Forces acting on atoms (Ry/au):

     negative rho (up, down):  6.811E-03 0.000E+00
     atom    1 type  1   force =     0.00000004    0.00796524    0.03825755
     atom    2 type  1   force =     0.00000005    0.00796392    0.03827259
     atom    3 type  2   force =     0.00002714   -0.00292918   -0.04327746
     atom    4 type  2   force =    -0.00002642   -0.00293031   -0.04328418
     atom    5 type  1   force =     0.00000012   -0.01617298    0.00818390
     atom    6 type  1   force =    -0.00000005   -0.01618011    0.00819458
     atom    7 type  2   force =     0.00000498    0.01101567   -0.00287163
     atom    8 type  2   force =    -0.00000484    0.01101563   -0.00287174
     atom    9 type  1   force =    -0.00000104   -0.00017912   -0.00011540
     atom   10 type  1   force =     0.00000062   -0.00034882   -0.00004664
     atom   11 type  2   force =    -0.00024659    0.00038999   -0.00022194
     atom   12 type  2   force =     0.00024598    0.00039007   -0.00021962

     Total force =     0.087956     Total SCF correction =     0.002401

     entering subroutine stress ...

     negative rho (up, down):  6.811E-03 0.000E+00
          total   stress  (Ry/bohr**3)                   (kbar)     P=  -16.68
  -0.00012165  -0.00000000   0.00000000        -17.89     -0.00      0.00
  -0.00000000  -0.00021802  -0.00000868         -0.00    -32.07     -1.28
   0.00000000  -0.00000868  -0.00000041          0.00     -1.28     -0.06

 !ASE

     Writing output data file calc.save

     General routines

     Parallel routines

   This run was terminated on:  11:37:51  19Dec2018

   JOB DONE.
Job  /afs/slac/g/suncat/bin/suncat-tsmpirun -x LD_LIBRARY_PATH -wdir /scratch/qe529723_DCyyG pw.x -in pw.inp

TID   HOST_NAME   COMMAND_LINE            STATUS            TERMINATION_TIME
00000 suncat0028 pw.x -in pw.inp   Done                     12/19/2018 11:37:51
00001 suncat0028 pw.x -in pw.inp   Done                     12/19/2018 11:37:51
00002 suncat0028 pw.x -in pw.inp   Done                     12/19/2018 11:37:51
00003 suncat0028 pw.x -in pw.inp   Done                     12/19/2018 11:37:51
00004 suncat0028 pw.x -in pw.inp   Done                     12/19/2018 11:37:51
00005 suncat0028 pw.x -in pw.inp   Done                     12/19/2018 11:37:51
00006 suncat0028 pw.x -in pw.inp   Done                     12/19/2018 11:37:51
00007 suncat0028 pw.x -in pw.inp   Done                     12/19/2018 11:37:51
00008 suncat0027 pw.x -in pw.inp   Done                     12/19/2018 11:37:51
00009 suncat0027 pw.x -in pw.inp   Done                     12/19/2018 11:37:51
00010 suncat0027 pw.x -in pw.inp   Done                     12/19/2018 11:37:51
00011 suncat0027 pw.x -in pw.inp   Done                     12/19/2018 11:37:51
00012 suncat0027 pw.x -in pw.inp   Done                     12/19/2018 11:37:51
00013 suncat0027 pw.x -in pw.inp   Done                     12/19/2018 11:37:51
00014 suncat0027 pw.x -in pw.inp   Done                     12/19/2018 11:37:51
00015 suncat0027 pw.x -in pw.inp   Done                     12/19/2018 11:37:51
00016 suncat0026 pw.x -in pw.inp   Done                     12/19/2018 11:37:51
00017 suncat0026 pw.x -in pw.inp   Done                     12/19/2018 11:37:51
00018 suncat0026 pw.x -in pw.inp   Done                     12/19/2018 11:37:51
00019 suncat0026 pw.x -in pw.inp   Done                     12/19/2018 11:37:51
00020 suncat0026 pw.x -in pw.inp   Done                     12/19/2018 11:37:51
00021 suncat0026 pw.x -in pw.inp   Done                     12/19/2018 11:37:51
00022 suncat0026 pw.x -in pw.inp   Done                     12/19/2018 11:37:51
00023 suncat0026 pw.x -in pw.inp   Done                     12/19/2018 11:37:51
00024 suncat0025 pw.x -in pw.inp   Done                     12/19/2018 11:37:51
00025 suncat0025 pw.x -in pw.inp   Done                     12/19/2018 11:37:51
00026 suncat0025 pw.x -in pw.inp   Done                     12/19/2018 11:37:51
00027 suncat0025 pw.x -in pw.inp   Done                     12/19/2018 11:37:51
00028 suncat0025 pw.x -in pw.inp   Done                     12/19/2018 11:37:51
00029 suncat0025 pw.x -in pw.inp   Done                     12/19/2018 11:37:51
00030 suncat0025 pw.x -in pw.inp   Done                     12/19/2018 11:37:51
00031 suncat0025 pw.x -in pw.inp   Done                     12/19/2018 11:37:51