     Program PWSCF v.5.1rc2 (svn rev. 11289) starts on 25Dec2018 at  0:48:16

     Current dimensions of program PWSCF are:
     Max number of different atomic species (ntypx) = 10
     Max number of k-points (npk) =  40000
     Max angular momentum in pseudopotentials (lmaxx) =  3
     Presently stress not available with electric field

     IMPORTANT: XC functional enforced from input :
     Exchange-correlation      = BEEF-VDW ( 1  4 27 13 2)
     Any further DFT definition will be discarded
     Please, verify this is what you really want

     Subspace diagonalization in iterative solution of the eigenvalue problem:
     a serial algorithm will be used

     Found symmetry operation: I + ( -0.5000  0.0000  0.0000)
     This is a supercell, fractional translations are disabled

     bravais-lattice index     =            0
     lattice parameter (alat)  =       1.8897  a.u.
     unit-cell volume          =    6465.2291 (a.u.)^3
     number of atoms/cell      =           12
     number of atomic types    =            2
     number of electrons       =       144.00
     number of Kohn-Sham states=          102
     kinetic-energy cutoff     =      36.7493  Ry
     charge density cutoff     =     367.4932  Ry
     convergence threshold     =      1.0E-06
     mixing beta               =       0.1000
     number of iterations used =           10  plain     mixing
     Exchange-correlation      = BEEF-VDW ( 1  4 27 13 2)
     nstep                     =           50

     celldm(1)=   1.889726  celldm(2)=   0.000000  celldm(3)=   0.000000
     celldm(4)=   0.000000  celldm(5)=   0.000000  celldm(6)=   0.000000

     crystal axes: (cart. coord. in units of alat)
               a(1) = (   6.227483   0.000000   0.000000 )
               a(2) = (  -3.113741   6.069763   0.000000 )
               a(3) = (   0.000000   0.000000  25.345629 )

     reciprocal axes: (cart. coord. in units 2 pi/alat)
               b(1) = (  0.160579  0.082376  0.000000 )
               b(2) = (  0.000000  0.164751  0.000000 )
               b(3) = (  0.000000  0.000000  0.039455 )

     PseudoPot. # 1 for La read from file:
     /afs/slac.stanford.edu/u/if/mamunm/psp/gbrv1.5pbe/La.UPF
     MD5 check sum: 5937b0c7494ba0601a847275249473aa
     Pseudo is Ultrasoft + core correction, Zval = 11.0
     Generated by new atomic code, or converted to UPF format
     Using radial grid of  995 points,  8 beta functions with:
                l(1) =   0
                l(2) =   0
                l(3) =   1
                l(4) =   1
                l(5) =   2
                l(6) =   2
                l(7) =   3
                l(8) =   3
     Q(r) pseudized with  8 coefficients,  rinner =    1.700   1.700   1.700
                                                       1.700   1.700   1.700
                                                       1.700

     PseudoPot. # 2 for Nb read from file:
     /afs/slac.stanford.edu/u/if/mamunm/psp/gbrv1.5pbe/Nb.UPF
     MD5 check sum: 573aab8a2fa660278ed4a62cd769473f
     Pseudo is Ultrasoft + core correction, Zval = 13.0
     Generated by new atomic code, or converted to UPF format
     Using radial grid of  887 points,  6 beta functions with:
                l(1) =   0
                l(2) =   0
                l(3) =   1
                l(4) =   1
                l(5) =   2
                l(6) =   2
     Q(r) pseudized with  6 coefficients,  rinner =    1.000   1.000   1.000
                                                       1.000   1.000

     vdW kernel table read from file vdW_kernel_table
     MD5 check sum: 095c7af220d748ca6e76c0b4c6cfb241

     atomic species   valence    mass     pseudopotential
        La1           11.00   138.90547     La( 1.00)
        Nb1           13.00    92.90637     Nb( 1.00)

     No symmetry found

   Cartesian axes

     site n.     atom                  positions (alat units)
         1           La1 tau(   1) = (   0.0000000   0.0000000  10.0000000  )
         2           La1 tau(   2) = (   3.1137413   0.0000000  10.0000000  )
         3           Nb1 tau(   3) = (   1.5568706   3.0348814  10.0000000  )
         4           Nb1 tau(   4) = (   4.6706119   3.0348814  10.0000000  )
         5           La1 tau(   5) = (   3.1137413   1.5973252  12.6728145  )
         6           La1 tau(   6) = (   0.0000000   1.5973252  12.6728145  )
         7           Nb1 tau(   7) = (  -1.5568706   4.6322066  12.6728145  )
         8           Nb1 tau(   8) = (   1.5568706   4.6322066  12.6728145  )
         9           La1 tau(   9) = (   0.0000000   3.1946503  15.3456289  )
        10           La1 tau(  10) = (   3.1137413   3.1946503  15.3456289  )
        11           Nb1 tau(  11) = (   4.6706119   0.1597689  15.3456289  )
        12           Nb1 tau(  12) = (   1.5568706   0.1597689  15.3456289  )

     number of k points=    20  Fermi-Dirac smearing, width (Ry)=  0.0110
                       cart. coord. in units 2pi/alat
        k(    1) = (   0.0000000   0.0000000   0.0000000), wk =   0.0555556
        k(    2) = (   0.0000000   0.0274585   0.0000000), wk =   0.1111111
        k(    3) = (   0.0000000   0.0549170   0.0000000), wk =   0.1111111
        k(    4) = (   0.0000000  -0.0823755   0.0000000), wk =   0.0555556
        k(    5) = (   0.0267631   0.0137293   0.0000000), wk =   0.1111111
        k(    6) = (   0.0267631   0.0411878   0.0000000), wk =   0.1111111
        k(    7) = (   0.0267631   0.0686463   0.0000000), wk =   0.1111111
        k(    8) = (   0.0267631  -0.0686463   0.0000000), wk =   0.1111111
        k(    9) = (   0.0267631  -0.0411878   0.0000000), wk =   0.1111111
        k(   10) = (   0.0267631  -0.0137293   0.0000000), wk =   0.1111111
        k(   11) = (   0.0535262   0.0274585   0.0000000), wk =   0.1111111
        k(   12) = (   0.0535262   0.0549170   0.0000000), wk =   0.1111111
        k(   13) = (   0.0535262   0.0823755   0.0000000), wk =   0.1111111
        k(   14) = (   0.0535262  -0.0549170   0.0000000), wk =   0.1111111
        k(   15) = (   0.0535262  -0.0274585   0.0000000), wk =   0.1111111
        k(   16) = (   0.0535262   0.0000000   0.0000000), wk =   0.1111111
        k(   17) = (  -0.0802893  -0.0411878   0.0000000), wk =   0.0555556
        k(   18) = (  -0.0802893  -0.0137293   0.0000000), wk =   0.1111111
        k(   19) = (  -0.0802893   0.0137293   0.0000000), wk =   0.1111111
        k(   20) = (  -0.0802893  -0.1235633   0.0000000), wk =   0.0555556

     Largest allocated arrays     est. size (Mb)     dimensions
     Largest temporary arrays     est. size (Mb)     dimensions

     Initial potential from superposition of free atoms
     Check: negative starting charge=   -0.414895

     starting charge  143.79119, renormalised to  144.00000

     negative rho (up, down):  4.155E-01 0.000E+00

     *
     * You are using vdW-DF for exchange-correlation in this calculation.
     * Please cite the following three references that made this development
     * possible:
     *
     *   M. Dion, H. Rydberg, E. Schroder, D. C. Langreth, and
     *   B. I. Lundqvist, Phys. Rev. Lett. 92, 246401 (2004).
     *
     *   T. Thonhauser, V. R. Cooper, S. Li, A. Puzder, P. Hyldgaard, and
     *   D. C. Langreth, Phys. Rev. B 76, 125112 (2007).
     *
     *   G. Roman-Perez and J. M. Soler, Phys. Rev. Lett. 103, 096102 (2009).
     *
     *
     * If you are using vdW-DF2, please also cite:
     *
     *   K. Lee, E. D. Murray, L. Kong, B. I. Lundqvist, and
     *   D. C. Langreth, Phys. Rev. B 82, 081101(R) (2010).
     *
     *
     * If you are calculating the stress with vdW-DF, please also cite:
     *
     *   R. Sabatini, E. Kucukbenli, B. Kolb, T. Thonhauser, and
     *   S. de Gironcoli, J. Phys.: Condens. Matter 24, 424209 (2012).
     *

     Carrying out vdW-DF run using the following parameters:

     Nqs =      20    Nr_points =    1024   r_max =   100.000
     q_mesh =
               0.00001000     0.04494208     0.09755937     0.15916263
               0.23128650     0.31572767     0.41458969     0.53033537
               0.66584808     0.82450364     1.01025438     1.22772762
               1.48234092     1.78043706     2.12944203     2.53805004
               3.01644009     3.57652955     4.23227104     5.00000000

     Gradients computed in reciprocal space

     Adding external electric field

     Computed dipole along edir(3) :
        Dipole               -0.0000 Ry au,         -0.0000 Debye
        Dipole field         -0.0000 Ry au

        Potential amp.        0.0000 Ry
        Total length         46.6989 bohr

     Starting wfc are  198 randomized atomic wfcs

     Self-consistent Calculation

     iteration #  1     ecut=    36.75 Ry     beta=0.10
     Davidson diagonalization with overlap
     ethr =  1.00E-02,  avg # of iterations =  2.0

[...]

     total energy              =   -1329.80095130 Ry
     Harris-Foulkes estimate   =   -1337.17746105 Ry
     estimated scf accuracy    <      40.45134235 Ry

[...]

     iteration # 13     ecut=    36.75 Ry     beta=0.10
     Davidson diagonalization with overlap
     c_bands:  1 eigenvalues not converged
     c_bands:  1 eigenvalues not converged
     ethr =  5.06E-06,  avg # of iterations =  8.1

[...]

     End of self-consistent calculation

          k = 0.0000 0.0000 0.0000 ( 24441 PWs)   bands (ev):

   -53.1311 -53.1287 -53.0948 -53.0925 -53.0597 -53.0234 -30.9585 -30.9143
   -30.5195 -30.4757 -30.4591 -30.0193 -29.2823 -29.2733 -29.2684 -29.2382
   -29.2261 -29.1788 -29.1416 -29.1348 -29.1224 -29.0891 -29.0815 -29.0362
   -28.9940 -28.9621 -28.9258 -28.8809 -28.8757 -28.8465 -15.9533 -15.8995
   -15.5049 -15.4628 -15.0368 -14.6705 -14.4641 -14.4304 -14.2422 -14.0405
   -13.9961 -13.9820 -13.5358 -13.4523 -13.0936 -13.0839 -13.0654 -12.6381
    -1.9142  -0.9801  -0.8819  -0.8596  -0.7089  -0.1898  -0.1243   0.0467
     0.1529   0.2343   0.3419   0.3594   0.4157   0.4204   0.5574   1.0037
     1.1644   1.1647   1.3167   1.7185   1.8098   1.9800   2.2939   2.4108
     2.4546   2.6187   2.6295   2.8242   2.8471   2.8977   3.1907   3.3325
     3.4042   3.4234   3.5016   3.5579   3.5631   3.6095   3.6570   3.6949
     3.7370   3.7559   3.8829   3.8901   3.9490   3.9580   4.0142   4.0191
     4.0482   4.0767   4.0807   4.1277   4.1477   4.1591

[...]

          k =-0.0803-0.0412 0.0000 ( 24320 PWs)   bands (ev):

[...]

     the Fermi energy is     2.0519 ev

!    total energy              =   -1334.79396298 Ry
     Harris-Foulkes estimate   =   -1334.79396264 Ry
     estimated scf accuracy    <       0.00000070 Ry

     The total energy is the sum of the following terms:

     one-electron contribution =   -7610.76595908 Ry
     hartree contribution      =    3809.03903014 Ry
     xc contribution           =    -419.02646681 Ry
     ewald contribution        =    2886.07017244 Ry
     electric field correction =       0.00000000 Ry
     smearing contrib. (-TS)   =      -0.11073967 Ry

     convergence has been achieved in  22 iterations

 BEEF-vdW xc energy contributions
           1 :   -368.177464846137
           2 :    337.909371951328
           3 :   -284.740805220110
           4 :    220.615758862210
[...]
     Generated by new atomic code, or converted to UPF format
     Using radial grid of  995 points,  8 beta functions with:
                l(1) =   0
                l(2) =   0
                l(3) =   1
                l(4) =   1
                l(5) =   2
                l(6) =   2
                l(7) =   3
                l(8) =   3
     Q(r) pseudized with  8 coefficients,  rinner =    1.700   1.700   1.700
                                                       1.700   1.700   1.700
                                                       1.700

     PseudoPot. # 2 for Nb read from file:
     /afs/slac.stanford.edu/u/if/mamunm/psp/gbrv1.5pbe/Nb.UPF
     MD5 check sum: 573aab8a2fa660278ed4a62cd769473f
     Pseudo is Ultrasoft + core correction, Zval = 13.0
     Generated by new atomic code, or converted to UPF format
     Using radial grid of  887 points,  6 beta functions with:
                l(1) =   0
                l(2) =   0
                l(3) =   1
                l(4) =   1
                l(5) =   2
                l(6) =   2
     Q(r) pseudized with  6 coefficients,  rinner =    1.000   1.000   1.000
                                                       1.000   1.000

     vdW kernel table read from file vdW_kernel_table
     MD5 check sum: 095c7af220d748ca6e76c0b4c6cfb241

     atomic species   valence    mass     pseudopotential
        La1           11.00   138.90547     La( 1.00)
        Nb1           13.00    92.90637     Nb( 1.00)

     No symmetry found

   Cartesian axes

     site n.     atom                  positions (alat units)
         1           La1 tau(   1) = (   0.0000000   0.0000000  10.0000000  )
         2           La1 tau(   2) = (   3.1137413   0.0000000  10.0000000  )
         3           Nb1 tau(   3) = (   1.5568706   3.0348814  10.0000000  )
         4           Nb1 tau(   4) = (   4.6706119   3.0348814  10.0000000  )
         5           La1 tau(   5) = (   3.1137413   1.5973252  12.6728145  )
         6           La1 tau(   6) = (   0.0000000   1.5973252  12.6728145  )
         7           Nb1 tau(   7) = (  -1.5568706   4.6322066  12.6728145  )
         8           Nb1 tau(   8) = (   1.5568706   4.6322066  12.6728145  )
         9           La1 tau(   9) = (   0.0001014   3.2976251  15.5980344  )
        10           La1 tau(  10) = (   3.1138449   3.2976352  15.5980446  )
        11           Nb1 tau(  11) = (   1.5563845   5.9944858  14.9759285  )
        12           Nb1 tau(  12) = (  -1.5573933   5.9944868  14.9759226  )

     number of k points=    20  Fermi-Dirac smearing, width (Ry)=  0.0110
                       cart. coord. in units 2pi/alat
        k(    1) = (   0.0000000   0.0000000   0.0000000), wk =   0.0555556
        k(    2) = (   0.0000000   0.0274585   0.0000000), wk =   0.1111111
        k(    3) = (   0.0000000   0.0549170   0.0000000), wk =   0.1111111
        k(    4) = (   0.0000000  -0.0823755   0.0000000), wk =   0.0555556
        k(    5) = (   0.0267631   0.0137293   0.0000000), wk =   0.1111111
        k(    6) = (   0.0267631   0.0411878   0.0000000), wk =   0.1111111
        k(    7) = (   0.0267631   0.0686463   0.0000000), wk =   0.1111111
        k(    8) = (   0.0267631  -0.0686463   0.0000000), wk =   0.1111111
        k(    9) = (   0.0267631  -0.0411878   0.0000000), wk =   0.1111111
        k(   10) = (   0.0267631  -0.0137293   0.0000000), wk =   0.1111111
        k(   11) = (   0.0535262   0.0274585   0.0000000), wk =   0.1111111
        k(   12) = (   0.0535262   0.0549170   0.0000000), wk =   0.1111111
        k(   13) = (   0.0535262   0.0823755   0.0000000), wk =   0.1111111
        k(   14) = (   0.0535262  -0.0549170   0.0000000), wk =   0.1111111
        k(   15) = (   0.0535262  -0.0274585   0.0000000), wk =   0.1111111
        k(   16) = (   0.0535262   0.0000000   0.0000000), wk =   0.1111111
        k(   17) = (  -0.0802893  -0.0411878   0.0000000), wk =   0.0555556
        k(   18) = (  -0.0802893  -0.0137293   0.0000000), wk =   0.1111111
        k(   19) = (  -0.0802893   0.0137293   0.0000000), wk =   0.1111111
        k(   20) = (  -0.0802893  -0.1235633   0.0000000), wk =   0.0555556

     Largest allocated arrays     est. size (Mb)     dimensions
     Largest temporary arrays     est. size (Mb)     dimensions

     Initial potential from superposition of free atoms
     Check: negative starting charge=   -0.415650

     starting charge  143.79119, renormalised to  144.00000

[...]

     *
     * You are using vdW-DF for exchange-correlation in this calculation.
     * Please cite the following three references that made this development
     * possible:
     *
     *   M. Dion, H. Rydberg, E. Schroder, D. C. Langreth, and
     *   B. I. Lundqvist, Phys. Rev. Lett. 92, 246401 (2004).
     *
     *   T. Thonhauser, V. R. Cooper, S. Li, A. Puzder, P. Hyldgaard, and
     *   D. C. Langreth, Phys. Rev. B 76, 125112 (2007).
     *
     *   G. Roman-Perez and J. M. Soler, Phys. Rev. Lett. 103, 096102 (2009).
     *
     *
     * If you are using vdW-DF2, please also cite:
     *
     *   K. Lee, E. D. Murray, L. Kong, B. I. Lundqvist, and
     *   D. C. Langreth, Phys. Rev. B 82, 081101(R) (2010).
     *
     *
     * If you are calculating the stress with vdW-DF, please also cite:
     *
     *   R. Sabatini, E. Kucukbenli, B. Kolb, T. Thonhauser, and
     *   S. de Gironcoli, J. Phys.: Condens. Matter 24, 424209 (2012).
     *

     Carrying out vdW-DF run using the following parameters:

     Nqs =      20    Nr_points =    1024   r_max =   100.000
     q_mesh =
               0.00001000     0.04494208     0.09755937     0.15916263
               0.23128650     0.31572767     0.41458969     0.53033537
               0.66584808     0.82450364     1.01025438     1.22772762
               1.48234092     1.78043706     2.12944203     2.53805004
               3.01644009     3.57652955     4.23227104     5.00000000

     Gradients computed in reciprocal space

[...]

     Starting wfc are  198 randomized atomic wfcs

     Self-consistent Calculation

[...]

     iteration # 11     ecut=    36.75 Ry     beta=0.10
     Davidson diagonalization with overlap
     c_bands:  1 eigenvalues not converged
     ethr =  6.42E-06,  avg # of iterations =  7.4

[...]

     total energy              =   -1334.86663710 Ry
     Harris-Foulkes estimate   =   -1334.86663666 Ry
     estimated scf accuracy    <       0.00000105 Ry

     iteration # 21     ecut=    36.75 Ry     beta=0.10
     Davidson diagonalization with overlap
     ethr =  7.27E-10,  avg # of iterations =  3.8

[...]

     negative rho (up, down):  2.391E-01 0.000E+00

     Adding external electric field

     Computed dipole along edir(3) :
        Dipole                0.2323 Ry au,          0.5905 Debye
        Dipole field          0.0005 Ry au

        Potential amp.       -0.0422 Ry
        Total length         46.6989 bohr

     End of self-consistent calculation

[...]

          k = 0.0535 0.0000 0.0000 ( 24341 PWs)   bands (ev):

[...]

          k =-0.0803-0.1236 0.0000 ( 24320 PWs)   bands (ev):

   -52.9417 -52.9416 -52.7340 -52.7340 -52.6290 -52.6290 -30.6748 -30.6747
   -30.5495 -30.5495 -30.0742 -30.0742 -29.1185 -29.1185 -28.9729 -28.9729
   -28.9207 -28.9207 -28.9046 -28.9046 -28.7670 -28.7670 -28.7357 -28.7357
   -28.6753 -28.6753 -28.6484 -28.6483 -28.3235 -28.3235 -14.9121 -14.9121
   -14.5587 -14.5586 -14.4728 -14.4728 -14.3400 -14.3400 -14.2337 -14.2337
   -14.0761 -14.0761 -14.0363 -14.0362 -13.6414 -13.6414 -13.2510 -13.2509
    -0.3752  -0.3751   0.3346   0.3346   0.5324   0.5324   0.7650   0.7650
     0.9300   0.9300   1.1144   1.1144   1.3380   1.3380   1.4490   1.4490
     1.6520   1.6520   1.7917   1.7917   1.9772   1.9772   2.0728   2.0728
     2.1889   2.1889   2.4274   2.4274   2.5946   2.5946   2.7479   2.7480
     2.8319   2.8319   3.2426   3.2426   3.3874   3.3874   3.6019   3.6019
     3.7663   3.7663   3.9024   3.9024   3.9308   3.9308   4.0316   4.0316
     4.1836   4.1836   4.2467   4.2468   4.3400   4.3400

     the Fermi energy is     2.2339 ev

!    total energy              =   -1334.86663884 Ry
     Harris-Foulkes estimate   =   -1334.86663814 Ry
     estimated scf accuracy    <       0.00000059 Ry

     The total energy is the sum of the following terms:

     one-electron contribution =   -7702.81981812 Ry
     hartree contribution      =    3856.14974305 Ry
     xc contribution           =    -419.18103361 Ry
     ewald contribution        =    2931.08796991 Ry
     electric field correction =       0.00010489 Ry
     smearing contrib. (-TS)   =      -0.10360495 Ry

     convergence has been achieved in  21 iterations

 BEEF-vdW xc energy contributions
           1 :   -368.335967915615
           2 :    338.109057014692
           3 :   -284.991204846670
           4 :    220.874589947606
           5 :   -158.216914402831
           6 :    106.468390364336
           7 :   -70.1583690419419
           8 :    48.8946249397137
           9 :   -38.8495236633278
          10 :    34.8803825240058
          11 :   -32.4416573810308
          12 :    28.6798226774957
          13 :   -22.5929530394667
          14 :    14.5349369925896
          15 :   -5.53489447919884
          16 :   -3.23841135611349
          17 :    10.7591089370317
          18 :   -16.2569164105662
          19 :    19.2719948769820
          20 :   -19.7260433076231
          21 :    17.9873373400093
          22 :   -14.8573770325297
          23 :    11.4025427397594
          24 :   -8.64483660672295
          25 :    7.22004898639995
          26 :   -7.16638390206629
          27 :    7.95209178573805
          28 :   -8.74398474174279
          29 :    8.79599322658731
          30 :   -7.78310360615711
          31 :   -34.1773086337585
          32 :   -24.9968319515303

     Forces acting on atoms (Ry/au):

     negative rho (up, down):  2.391E-01 0.000E+00
     atom    1 type  1   force =     0.00000456   -0.01124808   -0.02484764
     atom    2 type  1   force =    -0.00000019   -0.01124682   -0.02484807
     atom    3 type  2   force =     0.00001325    0.02072193    0.04387866
     atom    4 type  2   force =     0.00001261    0.02072361    0.04387909
     atom    5 type  1   force =    -0.00001763    0.01013376   -0.00901148
     atom    6 type  1   force =    -0.00001936    0.01013582   -0.00901340
     atom    7 type  2   force =     0.00003296   -0.01830845   -0.00920363
     atom    8 type  2   force =     0.00003464   -0.01830844   -0.00920389
     atom    9 type  1   force =    -0.00003624   -0.00045687   -0.00035003
     atom   10 type  1   force =    -0.00003412   -0.00045813   -0.00034797
     atom   11 type  2   force =     0.00000532   -0.00084323   -0.00046510
     atom   12 type  2   force =     0.00000418   -0.00084510   -0.00046654

     Total force =     0.086068     Total SCF correction =     0.001460

     entering subroutine stress ...

     negative rho (up, down):  2.391E-01 0.000E+00
          total   stress  (Ry/bohr**3)                   (kbar)     P=   -6.96
  -0.00002689  -0.00000000  -0.00000003         -3.96     -0.00     -0.00
  -0.00000000  -0.00008308  -0.00001661         -0.00    -12.22     -2.44
  -0.00000003  -0.00001661  -0.00003201         -0.00     -2.44     -4.71

 !ASE

     Writing output data file calc.save

     General routines

     Parallel routines

   This run was terminated on:   4: 0:29  25Dec2018

   JOB DONE.
Job  /afs/slac/g/suncat/bin/suncat-tsmpirun -x LD_LIBRARY_PATH -wdir /scratch/qe109064_qy9g6 pw.x -in pw.inp

TID   HOST_NAME   COMMAND_LINE            STATUS            TERMINATION_TIME
00000 suncat0137 pw.x -in pw.inp   Done                     12/25/2018 04:00:29
00001 suncat0137 pw.x -in pw.inp   Done                     12/25/2018 04:00:29
00002 suncat0137 pw.x -in pw.inp   Done                     12/25/2018 04:00:29
00003 suncat0137 pw.x -in pw.inp   Done                     12/25/2018 04:00:29
00004 suncat0137 pw.x -in pw.inp   Done                     12/25/2018 04:00:29
00005 suncat0137 pw.x -in pw.inp   Done                     12/25/2018 04:00:29
00006 suncat0137 pw.x -in pw.inp   Done                     12/25/2018 04:00:29
00007 suncat0137 pw.x -in pw.inp   Done                     12/25/2018 04:00:29
00008 suncat0136 pw.x -in pw.inp   Done                     12/25/2018 04:00:29
00009 suncat0136 pw.x -in pw.inp   Done                     12/25/2018 04:00:29
00010 suncat0136 pw.x -in pw.inp   Done                     12/25/2018 04:00:29
00011 suncat0136 pw.x -in pw.inp   Done                     12/25/2018 04:00:29
00012 suncat0136 pw.x -in pw.inp   Done                     12/25/2018 04:00:29
00013 suncat0136 pw.x -in pw.inp   Done                     12/25/2018 04:00:29
00014 suncat0136 pw.x -in pw.inp   Done                     12/25/2018 04:00:29
00015 suncat0136 pw.x -in pw.inp   Done                     12/25/2018 04:00:29
00016 suncat0135 pw.x -in pw.inp   Done                     12/25/2018 04:00:29
00017 suncat0135 pw.x -in pw.inp   Done                     12/25/2018 04:00:29
00018 suncat0135 pw.x -in pw.inp   Done                     12/25/2018 04:00:29
00019 suncat0135 pw.x -in pw.inp   Done                     12/25/2018 04:00:29
00020 suncat0135 pw.x -in pw.inp   Done                     12/25/2018 04:00:29
00021 suncat0135 pw.x -in pw.inp   Done                     12/25/2018 04:00:29
00022 suncat0135 pw.x -in pw.inp   Done                     12/25/2018 04:00:29
00023 suncat0135 pw.x -in pw.inp   Done                     12/25/2018 04:00:29
00024 suncat0134 pw.x -in pw.inp   Done                     12/25/2018 04:00:29
00025 suncat0134 pw.x -in pw.inp   Done                     12/25/2018 04:00:29
00026 suncat0134 pw.x -in pw.inp   Done                     12/25/2018 04:00:29
00027 suncat0134 pw.x -in pw.inp   Done                     12/25/2018 04:00:29
00028 suncat0134 pw.x -in pw.inp   Done                     12/25/2018 04:00:29
00029 suncat0134 pw.x -in pw.inp   Done                     12/25/2018 04:00:29
00030 suncat0134 pw.x -in pw.inp   Done                     12/25/2018 04:00:29
00031 suncat0134 pw.x -in pw.inp   Done                     12/25/2018 04:00:29
00032 suncat0220 pw.x -in pw.inp   Done                     12/25/2018 04:00:29
00033 suncat0220 pw.x -in pw.inp   Done                     12/25/2018 04:00:29
00034 suncat0220 pw.x -in pw.inp   Done                     12/25/2018 04:00:29
00035 suncat0220 pw.x -in pw.inp   Done                     12/25/2018 04:00:29
00036 suncat0220 pw.x -in pw.inp   Done                     12/25/2018 04:00:29
00037 suncat0220 pw.x -in pw.inp   Done                     12/25/2018 04:00:29
00038 suncat0220 pw.x -in pw.inp   Done                     12/25/2018 04:00:29
00039 suncat0220 pw.x -in pw.inp   Done                     12/25/2018 04:00:29
00040 suncat0219 pw.x -in pw.inp   Done                     12/25/2018 04:00:29
00041 suncat0219 pw.x -in pw.inp   Done                     12/25/2018 04:00:29
00042 suncat0219 pw.x -in pw.inp   Done                     12/25/2018 04:00:29
00043 suncat0219 pw.x -in pw.inp   Done                     12/25/2018 04:00:29
00044 suncat0219 pw.x -in pw.inp   Done                     12/25/2018 04:00:29
00045 suncat0219 pw.x -in pw.inp   Done                     12/25/2018 04:00:29
00046 suncat0219 pw.x -in pw.inp   Done                     12/25/2018 04:00:29
00047 suncat0219 pw.x -in pw.inp   Done                     12/25/2018 04:00:29
00048 suncat0201 pw.x -in pw.inp   Done                     12/25/2018 04:00:29
00049 suncat0201 pw.x -in pw.inp   Done                     12/25/2018 04:00:29
00050 suncat0201 pw.x -in pw.inp   Done                     12/25/2018 04:00:29
00051 suncat0201 pw.x -in pw.inp   Done                     12/25/2018 04:00:29
00052 suncat0201 pw.x -in pw.inp   Done                     12/25/2018 04:00:29
00053 suncat0201 pw.x -in pw.inp   Done                     12/25/2018 04:00:29
00054 suncat0201 pw.x -in pw.inp   Done                     12/25/2018 04:00:29
00055 suncat0201 pw.x -in pw.inp   Done                     12/25/2018 04:00:29
00056 suncat0200 pw.x -in pw.inp   Done                     12/25/2018 04:00:29
00057 suncat0200 pw.x -in pw.inp   Done                     12/25/2018 04:00:29
00058 suncat0200 pw.x -in pw.inp   Done                     12/25/2018 04:00:29
00059 suncat0200 pw.x -in pw.inp   Done                     12/25/2018 04:00:29
00060 suncat0200 pw.x -in pw.inp   Done                     12/25/2018 04:00:29
00061 suncat0200 pw.x -in pw.inp   Done                     12/25/2018 04:00:29
00062 suncat0200 pw.x -in pw.inp   Done                     12/25/2018 04:00:29
00063 suncat0200 pw.x -in pw.inp   Done                     12/25/2018 04:00:29