     Program PWSCF v.5.1rc2 (svn rev. 11289) starts on 24Dec2018 at 23: 0:55

     Current dimensions of program PWSCF are:
     Max number of different atomic species (ntypx) = 10
     Max number of k-points (npk) =  40000
     Max angular momentum in pseudopotentials (lmaxx) =  3
     Presently stress not available with electric field

     IMPORTANT: XC functional enforced from input :
     Exchange-correlation      = BEEF-VDW ( 1  4 27 13 2)
     Any further DFT definition will be discarded
     Please, verify this is what you really want

     Subspace diagonalization in iterative solution of the eigenvalue problem:
     a serial algorithm will be used

     Found symmetry operation: I + ( -0.5000  0.0000  0.0000)
     This is a supercell, fractional translations are disabled

     bravais-lattice index     =            0
     lattice parameter (alat)  =       1.8897  a.u.
     unit-cell volume          =    7107.3272 (a.u.)^3
     number of atoms/cell      =           12
     number of atomic types    =            2
     number of electrons       =       162.00
     number of Kohn-Sham states=          111
     kinetic-energy cutoff     =      36.7493  Ry
     charge density cutoff     =     367.4932  Ry
     convergence threshold     =      1.0E-06
     mixing beta               =       0.1000
     number of iterations used =           10  plain     mixing
     Exchange-correlation      = BEEF-VDW ( 1  4 27 13 2)
     nstep                     =           50

     celldm(1)=   1.889726  celldm(2)=   0.000000  celldm(3)=   0.000000
     celldm(4)=   0.000000  celldm(5)=   0.000000  celldm(6)=   0.000000

     crystal axes: (cart. coord. in units of alat)
               a(1) = (   6.653123   0.000000   0.000000 )
               a(2) = (  -3.326561   6.181783   0.000000 )
               a(3) = (   0.000000   0.000000  25.607692 )

     reciprocal axes: (cart. coord. in units 2 pi/alat)
               b(1) = (  0.150305  0.080883  0.000000 )
               b(2) = (  0.000000  0.161766  0.000000 )
               b(3) = (  0.000000  0.000000  0.039051 )

     PseudoPot. # 1 for In read from file:
     /afs/slac.stanford.edu/u/if/mamunm/psp/gbrv1.5pbe/In.UPF
     MD5 check sum: 90777abd96fbb83f2e67db2a40c566b9
     Pseudo is Ultrasoft + core correction, Zval = 13.0
     Generated by new atomic code, or converted to UPF format
     Using radial grid of  889 points,  6 beta functions with:
                l(1) =   0
                l(2) =   0
                l(3) =   1
                l(4) =   1
                l(5) =   2
                l(6) =   2
     Q(r) pseudized with  6 coefficients,  rinner =    1.400   1.400   1.400
                                                       1.400   1.400

     PseudoPot. # 2 for Sn read from file:
     /afs/slac.stanford.edu/u/if/mamunm/psp/gbrv1.5pbe/Sn.UPF
     MD5 check sum: 469debedee59599fedebd795477fea03
     Pseudo is Ultrasoft + core correction, Zval = 14.0
     Generated by new atomic code, or converted to UPF format
     Using radial grid of  891 points,  6 beta functions with:
                l(1) =   0
                l(2) =   0
                l(3) =   1
                l(4) =   1
                l(5) =   2
                l(6) =   2
     Q(r) pseudized with  8 coefficients,  rinner =    1.350   1.350   1.350
                                                       1.350   1.350

     vdW kernel table read from file vdW_kernel_table
     MD5 check sum: 095c7af220d748ca6e76c0b4c6cfb241

     atomic species   valence    mass     pseudopotential
        In1           13.00   114.81800     In( 1.00)
        Sn1           14.00   118.71000     Sn( 1.00)

     No symmetry found

   Cartesian axes

     site n.     atom                  positions (alat units)
         1           In1 tau(   1) = (   0.0000000   0.0000000  10.0000000  )
         2           In1 tau(   2) = (   3.3265613   0.0000000  10.0000000  )
         3           Sn1 tau(   3) = (   1.6632806   3.0908914  10.0000000  )
         4           Sn1 tau(   4) = (  -1.6632806   3.0908914  10.0000000  )
         5           In1 tau(   5) = (   3.3265613   1.7901001  12.8038459  )
         6           In1 tau(   6) = (   0.0000000   1.7901001  12.8038459  )
         7           Sn1 tau(   7) = (  -1.6632806   4.8809915  12.8038459  )
         8           Sn1 tau(   8) = (   1.6632806   4.8809915  12.8038459  )
         9           In1 tau(   9) = (   0.0000000   3.5802001  15.6076918  )
        10           In1 tau(  10) = (   3.3265613   3.5802001  15.6076918  )
        11           Sn1 tau(  11) = (   4.9898419   0.4893087  15.6076918  )
        12           Sn1 tau(  12) = (   1.6632806   0.4893087  15.6076918  )

     number of k points=    20  Fermi-Dirac smearing, width (Ry)=  0.0110
                       cart. coord. in units 2pi/alat
        k(    1) = (   0.0000000   0.0000000   0.0000000), wk =   0.0555556
        k(    2) = (   0.0000000   0.0269609   0.0000000), wk =   0.1111111
        k(    3) = (   0.0000000   0.0539219   0.0000000), wk =   0.1111111
        k(    4) = (   0.0000000  -0.0808828   0.0000000), wk =   0.0555556
        k(    5) = (   0.0250509   0.0134805   0.0000000), wk =   0.1111111
        k(    6) = (   0.0250509   0.0404414   0.0000000), wk =   0.1111111
        k(    7) = (   0.0250509   0.0674023   0.0000000), wk =   0.1111111
        k(    8) = (   0.0250509  -0.0674023   0.0000000), wk =   0.1111111
        k(    9) = (   0.0250509  -0.0404414   0.0000000), wk =   0.1111111
        k(   10) = (   0.0250509  -0.0134805   0.0000000), wk =   0.1111111
        k(   11) = (   0.0501018   0.0269609   0.0000000), wk =   0.1111111
        k(   12) = (   0.0501018   0.0539219   0.0000000), wk =   0.1111111
        k(   13) = (   0.0501018   0.0808828   0.0000000), wk =   0.1111111
        k(   14) = (   0.0501018  -0.0539219   0.0000000), wk =   0.1111111
        k(   15) = (   0.0501018  -0.0269609   0.0000000), wk =   0.1111111
        k(   16) = (   0.0501018   0.0000000   0.0000000), wk =   0.1111111
        k(   17) = (  -0.0751527  -0.0404414   0.0000000), wk =   0.0555556
        k(   18) = (  -0.0751527  -0.0134805   0.0000000), wk =   0.1111111
        k(   19) = (  -0.0751527   0.0134805   0.0000000), wk =   0.1111111
        k(   20) = (  -0.0751527  -0.1213242   0.0000000), wk =   0.0555556

     Largest allocated arrays     est. size (Mb)     dimensions
     Largest temporary arrays     est. size (Mb)     dimensions

     Initial potential from superposition of free atoms
     Check: negative starting charge=   -0.001216

     starting charge  146.99973, renormalised to  162.00000

     negative rho (up, down):  1.340E-03 0.000E+00

     *
     * You are using vdW-DF for exchange-correlation in this calculation.
     * Please cite the following three references that made this development
     * possible:
     *
     *   M. Dion, H. Rydberg, E. Schroder, D. C. Langreth, and
     *   B. I. Lundqvist, Phys. Rev. Lett. 92, 246401 (2004).
     *
     *   T. Thonhauser, V. R. Cooper, S. Li, A. Puzder, P. Hyldgaard, and
     *   D. C. Langreth, Phys. Rev. B 76, 125112 (2007).
     *
     *   G. Roman-Perez and J. M. Soler, Phys. Rev. Lett. 103, 096102 (2009).
     *
     *
     * If you are using vdW-DF2, please also cite:
     *
     *   K. Lee, E. D. Murray, L. Kong, B. I. Lundqvist, and
     *   D. C. Langreth, Phys. Rev. B 82, 081101(R) (2010).
     *
     *
     * If you are calculating the stress with vdW-DF, please also cite:
     *
     *   R. Sabatini, E. Kucukbenli, B. Kolb, T. Thonhauser, and
     *   S. de Gironcoli, J. Phys.: Condens. Matter 24, 424209 (2012).
     *

     Carrying out vdW-DF run using the following parameters:

     Nqs =      20    Nr_points =    1024   r_max =   100.000
     q_mesh =
               0.00001000     0.04494208     0.09755937     0.15916263
               0.23128650     0.31572767     0.41458969     0.53033537
               0.66584808     0.82450364     1.01025438     1.22772762
               1.48234092     1.78043706     2.12944203     2.53805004
               3.01644009     3.57652955     4.23227104     5.00000000

     Gradients computed in reciprocal space

     Adding external electric field

     Computed dipole along edir(3) :
        Dipole               -0.0000 Ry au,         -0.0000 Debye
        Dipole field         -0.0000 Ry au

        Potential amp.        0.0000 Ry
        Total length         47.1817 bohr

     Starting wfc are  108 randomized atomic wfcs +    3 random wfc

     Self-consistent Calculation

     iteration #  1     ecut=    36.75 Ry     beta=0.10
     Davidson diagonalization with overlap
     ethr =  1.00E-02,  avg # of iterations = 10.9

[...]

     total energy              =   -1777.51400200 Ry
     Harris-Foulkes estimate   =   -1783.15242411 Ry
     estimated scf accuracy    <      33.35732192 Ry

[...]

     End of self-consistent calculation

          k = 0.0000 0.0000 0.0000 ( 26759 PWs)   bands (ev):

   -21.6037 -21.6014 -21.5589 -21.5584 -21.5555 -21.5479 -21.5439 -21.5428
   -21.5418 -21.5393 -21.5393 -21.5392 -21.5373 -21.5369 -21.5079 -21.5076
   -21.4904 -21.4889 -21.4637 -21.4545 -21.4452 -21.4249 -21.3879 -21.3839
   -21.3804 -21.3721 -21.3717 -21.3687 -21.3378 -21.2957 -14.6237 -14.5829
   -14.5556 -14.5290 -14.5091 -14.4947 -14.4919 -14.4909 -14.4820 -14.4754
   -14.4645 -14.4522 -14.4460 -14.4392 -14.4287 -14.4253 -14.4237 -14.3967
   -14.3775 -14.3774 -14.3661 -14.3601 -14.3537 -14.3481 -14.3474 -14.3374
   -14.3226 -14.2960 -14.2829 -14.2288  -9.1485  -8.0889  -6.6670  -5.9170
    -5.3504  -4.7743  -4.7048  -4.4055  -4.1195  -3.9688  -3.6883  -2.6801
    -2.6716  -2.5706  -2.3968  -2.1689  -1.5834  -1.2281  -1.1586  -1.1000
    -1.0920  -1.0319   0.4249   1.6543   1.7847   1.8743   2.2522   2.4786
     2.9497   3.0363   3.0387   3.6691   3.7268   3.9184   4.0187   4.3057
     4.3293   4.4427   4.5812   4.9269   5.1618   5.2713   5.4369   5.8557
     5.9039   6.0017   6.0293   6.1508   6.2040   6.3151   6.5188

[...]

          k =-0.0752-0.0404 0.0000 ( 26766 PWs)   bands (ev):

[...]

     the Fermi energy is     0.4015 ev

!    total energy              =   -1772.80550446 Ry
     Harris-Foulkes estimate   =   -1772.80550050 Ry
     estimated scf accuracy    <       0.00000091 Ry

     The total energy is the sum of the following terms:

     one-electron contribution =   -9115.95473389 Ry
     hartree contribution      =    4627.82752491 Ry
     xc contribution           =    -501.28603550 Ry
     ewald contribution        =    3216.64689123 Ry
     electric field correction =       0.00000000 Ry
     smearing contrib. (-TS)   =      -0.03915122 Ry

     convergence has been achieved in  17 iterations

 BEEF-vdW xc energy contributions
           1 :   -439.873049025338
           2 :    402.179353144110
           3 :   -338.466019070088
           4 :    266.704170560630
           5 :   -203.589978277231
           6 :    158.506656464257
           7 :   -131.572159283070
           8 :    116.095961701825
           9 :   -103.625148965645
          10 :    88.6646578679523
          11 :   -70.7360084209023
[...]
     MD5 check sum: 90777abd96fbb83f2e67db2a40c566b9
     Pseudo is Ultrasoft + core correction, Zval = 13.0
     Generated by new atomic code, or converted to UPF format
     Using radial grid of  889 points,  6 beta functions with:
                l(1) =   0
                l(2) =   0
                l(3) =   1
                l(4) =   1
                l(5) =   2
                l(6) =   2
     Q(r) pseudized with  6 coefficients,  rinner =    1.400   1.400   1.400
                                                       1.400   1.400

     PseudoPot. # 2 for Sn read from file:
     /afs/slac.stanford.edu/u/if/mamunm/psp/gbrv1.5pbe/Sn.UPF
     MD5 check sum: 469debedee59599fedebd795477fea03
     Pseudo is Ultrasoft + core correction, Zval = 14.0
     Generated by new atomic code, or converted to UPF format
     Using radial grid of  891 points,  6 beta functions with:
                l(1) =   0
                l(2) =   0
                l(3) =   1
                l(4) =   1
                l(5) =   2
                l(6) =   2
     Q(r) pseudized with  8 coefficients,  rinner =    1.350   1.350   1.350
                                                       1.350   1.350

     vdW kernel table read from file vdW_kernel_table
     MD5 check sum: 095c7af220d748ca6e76c0b4c6cfb241

     atomic species   valence    mass     pseudopotential
        In1           13.00   114.81800     In( 1.00)
        Sn1           14.00   118.71000     Sn( 1.00)

     No symmetry found

   Cartesian axes

     site n.     atom                  positions (alat units)
         1           In1 tau(   1) = (   0.0000000   0.0000000  10.0000000  )
         2           In1 tau(   2) = (   3.3265613   0.0000000  10.0000000  )
         3           Sn1 tau(   3) = (   1.6632806   3.0908914  10.0000000  )
         4           Sn1 tau(   4) = (  -1.6632806   3.0908914  10.0000000  )
         5           In1 tau(   5) = (   3.3265613   1.7901001  12.8038459  )
         6           In1 tau(   6) = (   0.0000000   1.7901001  12.8038459  )
         7           Sn1 tau(   7) = (  -1.6632806   4.8809915  12.8038459  )
         8           Sn1 tau(   8) = (   1.6632806   4.8809915  12.8038459  )
         9           In1 tau(   9) = (  -0.0000340   3.6134319  15.6058547  )
        10           In1 tau(  10) = (   3.3265177   3.6134354  15.6058444  )
        11           Sn1 tau(  11) = (   4.9898313   0.4797855  15.4132497  )
        12           Sn1 tau(  12) = (   1.6632763   0.4797825  15.4132575  )

     number of k points=    20  Fermi-Dirac smearing, width (Ry)=  0.0110
                       cart. coord. in units 2pi/alat
        k(    1) = (   0.0000000   0.0000000   0.0000000), wk =   0.0555556
        k(    2) = (   0.0000000   0.0269609   0.0000000), wk =   0.1111111
        k(    3) = (   0.0000000   0.0539219   0.0000000), wk =   0.1111111
        k(    4) = (   0.0000000  -0.0808828   0.0000000), wk =   0.0555556
        k(    5) = (   0.0250509   0.0134805   0.0000000), wk =   0.1111111
        k(    6) = (   0.0250509   0.0404414   0.0000000), wk =   0.1111111
        k(    7) = (   0.0250509   0.0674023   0.0000000), wk =   0.1111111
        k(    8) = (   0.0250509  -0.0674023   0.0000000), wk =   0.1111111
        k(    9) = (   0.0250509  -0.0404414   0.0000000), wk =   0.1111111
        k(   10) = (   0.0250509  -0.0134805   0.0000000), wk =   0.1111111
        k(   11) = (   0.0501018   0.0269609   0.0000000), wk =   0.1111111
        k(   12) = (   0.0501018   0.0539219   0.0000000), wk =   0.1111111
        k(   13) = (   0.0501018   0.0808828   0.0000000), wk =   0.1111111
        k(   14) = (   0.0501018  -0.0539219   0.0000000), wk =   0.1111111
        k(   15) = (   0.0501018  -0.0269609   0.0000000), wk =   0.1111111
        k(   16) = (   0.0501018   0.0000000   0.0000000), wk =   0.1111111
        k(   17) = (  -0.0751527  -0.0404414   0.0000000), wk =   0.0555556
        k(   18) = (  -0.0751527  -0.0134805   0.0000000), wk =   0.1111111
        k(   19) = (  -0.0751527   0.0134805   0.0000000), wk =   0.1111111
        k(   20) = (  -0.0751527  -0.1213242   0.0000000), wk =   0.0555556

     Largest allocated arrays     est. size (Mb)     dimensions
     Largest temporary arrays     est. size (Mb)     dimensions

     Initial potential from superposition of free atoms
     Check: negative starting charge=   -0.001223

     starting charge  146.99973, renormalised to  162.00000

[...]

     *
     * You are using vdW-DF for exchange-correlation in this calculation.
     * Please cite the following three references that made this development
     * possible:
     *
     *   M. Dion, H. Rydberg, E. Schroder, D. C. Langreth, and
     *   B. I. Lundqvist, Phys. Rev. Lett. 92, 246401 (2004).
     *
     *   T. Thonhauser, V. R. Cooper, S. Li, A. Puzder, P. Hyldgaard, and
     *   D. C. Langreth, Phys. Rev. B 76, 125112 (2007).
     *
     *   G. Roman-Perez and J. M. Soler, Phys. Rev. Lett. 103, 096102 (2009).
     *
     *
     * If you are using vdW-DF2, please also cite:
     *
     *   K. Lee, E. D. Murray, L. Kong, B. I. Lundqvist, and
     *   D. C. Langreth, Phys. Rev. B 82, 081101(R) (2010).
     *
     *
     * If you are calculating the stress with vdW-DF, please also cite:
     *
     *   R. Sabatini, E. Kucukbenli, B. Kolb, T. Thonhauser, and
     *   S. de Gironcoli, J. Phys.: Condens. Matter 24, 424209 (2012).
     *

     Carrying out vdW-DF run using the following parameters:

     Nqs =      20    Nr_points =    1024   r_max =   100.000
     q_mesh =
               0.00001000     0.04494208     0.09755937     0.15916263
               0.23128650     0.31572767     0.41458969     0.53033537
               0.66584808     0.82450364     1.01025438     1.22772762
               1.48234092     1.78043706     2.12944203     2.53805004
               3.01644009     3.57652955     4.23227104     5.00000000

     Gradients computed in reciprocal space

[...]

     Starting wfc are  108 randomized atomic wfcs +    3 random wfc

     Self-consistent Calculation

[...]

     total energy              =   -1772.80940666 Ry
     Harris-Foulkes estimate   =   -1772.80940506 Ry
     estimated scf accuracy    <       0.00000310 Ry

     iteration # 16     ecut=    36.75 Ry     beta=0.10
     Davidson diagonalization with overlap
     ethr =  1.91E-09,  avg # of iterations =  2.1

[...]

     negative rho (up, down):  9.177E-04 0.000E+00

     Adding external electric field

     Computed dipole along edir(3) :
        Dipole               -0.0049 Ry au,         -0.0124 Debye
        Dipole field         -0.0000 Ry au

        Potential amp.        0.0008 Ry
        Total length         47.1817 bohr

     End of self-consistent calculation

[...]

          k = 0.0501 0.0000 0.0000 ( 26712 PWs)   bands (ev):

[...]

          k =-0.0752-0.1213 0.0000 ( 26766 PWs)   bands (ev):

   -21.5675 -21.5675 -21.5654 -21.5654 -21.5532 -21.5532 -21.5420 -21.5420
   -21.5346 -21.5346 -21.5019 -21.5019 -21.4886 -21.4886 -21.4843 -21.4843
   -21.4796 -21.4796 -21.4665 -21.4665 -21.3958 -21.3958 -21.3935 -21.3935
   -21.3691 -21.3691 -21.3538 -21.3538 -21.3317 -21.3317 -14.5336 -14.5336
   -14.4672 -14.4672 -14.4620 -14.4620 -14.4416 -14.4416 -14.4314 -14.4314
   -14.4296 -14.4296 -14.4253 -14.4253 -14.4225 -14.4225 -14.4169 -14.4169
   -14.4138 -14.4138 -14.4083 -14.4083 -14.4041 -14.4041 -14.3735 -14.3735
   -14.3721 -14.3721 -14.3218 -14.3218  -8.1903  -8.1903  -7.1554  -7.1554
    -6.0304  -6.0304  -5.1394  -5.1394  -4.2065  -4.2065  -3.2756  -3.2756
    -1.2368  -1.2368  -0.7760  -0.7760  -0.5696  -0.5696   0.2013   0.2013
     0.5278   0.5278   1.2232   1.2232   1.4775   1.4775   1.8053   1.8053
     2.1483   2.1483   2.6352   2.6352   3.3265   3.3266   3.4735   3.4735
     3.9918   3.9918   4.4253   4.4253   4.6543   4.6544   4.7403   4.7403
     5.0042   5.0042   5.4050   5.4050   5.5915   5.5917   5.6918

     the Fermi energy is     0.4095 ev

!    total energy              =   -1772.80941376 Ry
     Harris-Foulkes estimate   =   -1772.80940712 Ry
     estimated scf accuracy    <       0.00000064 Ry

     The total energy is the sum of the following terms:

     one-electron contribution =   -9243.48368675 Ry
     hartree contribution      =    4691.66598910 Ry
     xc contribution           =    -501.36518718 Ry
     ewald contribution        =    3280.41192286 Ry
     electric field correction =       0.00000004 Ry
     smearing contrib. (-TS)   =      -0.03845182 Ry

     convergence has been achieved in  16 iterations

 BEEF-vdW xc energy contributions
           1 :   -439.955078333272
           2 :    402.302407430540
           3 :   -338.640895836137
           4 :    266.898472990141
           5 :   -203.745068171751
           6 :    158.574594712308
           7 :   -131.546011432257
           8 :    116.014140001258
           9 :   -103.547750807863
          10 :    88.6376086374211
          11 :   -70.7658717047590
          12 :    53.2537763516788
          13 :   -40.1715828058548
          14 :    33.4504240905890
          15 :   -31.8534093987479
          16 :    32.0776894215340
          17 :   -30.9538666541781
          18 :    27.2252472044368
          19 :   -21.8999470222939
          20 :    17.1843926245615
          21 :   -14.8699960312421
          22 :    15.2405351328117
          23 :   -17.0881266103844
          24 :    18.6475319987902
          25 :   -18.7268469977423
          26 :    17.3061018996912
          27 :   -15.3293975941173
          28 :    13.9552553989216
          29 :   -13.8163459406922
          30 :    14.7314805244406
          31 :   -39.0857589778851
          32 :   -28.3558481506560

     Forces acting on atoms (Ry/au):

     negative rho (up, down):  9.177E-04 0.000E+00
     atom    1 type  1   force =     0.00000296   -0.00249586   -0.00012629
     atom    2 type  1   force =     0.00000362   -0.00249576   -0.00012652
     atom    3 type  2   force =     0.00000201    0.00177365    0.01126656
     atom    4 type  2   force =    -0.00000108    0.00177327    0.01126273
     atom    5 type  1   force =    -0.00000065    0.00206523   -0.00512888
     atom    6 type  1   force =    -0.00000041    0.00206531   -0.00512854
     atom    7 type  2   force =    -0.00000162   -0.00298314   -0.00618895
     atom    8 type  2   force =    -0.00000179   -0.00298265   -0.00618868
     atom    9 type  1   force =    -0.00000162    0.00089931    0.00023999
     atom   10 type  1   force =    -0.00000017    0.00089944    0.00024010
     atom   11 type  2   force =     0.00000076    0.00074106   -0.00006042
     atom   12 type  2   force =    -0.00000202    0.00074015   -0.00006112

     Total force =     0.020759     Total SCF correction =     0.004629
     SCF correction compared to forces is large: reduce conv_thr to get better values

     entering subroutine stress ...

     negative rho (up, down):  9.177E-04 0.000E+00
          total   stress  (Ry/bohr**3)                   (kbar)     P=   -4.15
  -0.00001969   0.00000001   0.00000000         -2.90      0.00      0.00
   0.00000001  -0.00003959   0.00000460          0.00     -5.82      0.68
   0.00000000   0.00000460  -0.00002541          0.00      0.68     -3.74

 !ASE

     Writing output data file calc.save

     General routines

     Parallel routines

   This run was terminated on:   1:19:33  25Dec2018

   JOB DONE.
Job  /afs/slac/g/suncat/bin/suncat-tsmpirun -x LD_LIBRARY_PATH -wdir /scratch/qe109029_Oxo78 pw.x -in pw.inp

TID   HOST_NAME   COMMAND_LINE            STATUS            TERMINATION_TIME
00000 suncat0108 pw.x -in pw.inp   Done                     12/25/2018 01:19:33
00001 suncat0108 pw.x -in pw.inp   Done                     12/25/2018 01:19:33
00002 suncat0108 pw.x -in pw.inp   Done                     12/25/2018 01:19:33
00003 suncat0108 pw.x -in pw.inp   Done                     12/25/2018 01:19:33
00004 suncat0108 pw.x -in pw.inp   Done                     12/25/2018 01:19:33
00005 suncat0108 pw.x -in pw.inp   Done                     12/25/2018 01:19:33
00006 suncat0108 pw.x -in pw.inp   Done                     12/25/2018 01:19:33
00007 suncat0108 pw.x -in pw.inp   Done                     12/25/2018 01:19:33
00008 suncat0107 pw.x -in pw.inp   Done                     12/25/2018 01:19:33
00009 suncat0107 pw.x -in pw.inp   Done                     12/25/2018 01:19:33
00010 suncat0107 pw.x -in pw.inp   Done                     12/25/2018 01:19:33
00011 suncat0107 pw.x -in pw.inp   Done                     12/25/2018 01:19:33
00012 suncat0107 pw.x -in pw.inp   Done                     12/25/2018 01:19:33
00013 suncat0107 pw.x -in pw.inp   Done                     12/25/2018 01:19:33
00014 suncat0107 pw.x -in pw.inp   Done                     12/25/2018 01:19:33
00015 suncat0107 pw.x -in pw.inp   Done                     12/25/2018 01:19:33
00016 suncat0106 pw.x -in pw.inp   Done                     12/25/2018 01:19:33
00017 suncat0106 pw.x -in pw.inp   Done                     12/25/2018 01:19:33
00018 suncat0106 pw.x -in pw.inp   Done                     12/25/2018 01:19:33
00019 suncat0106 pw.x -in pw.inp   Done                     12/25/2018 01:19:33
00020 suncat0106 pw.x -in pw.inp   Done                     12/25/2018 01:19:33
00021 suncat0106 pw.x -in pw.inp   Done                     12/25/2018 01:19:33
00022 suncat0106 pw.x -in pw.inp   Done                     12/25/2018 01:19:33
00023 suncat0106 pw.x -in pw.inp   Done                     12/25/2018 01:19:33
00024 suncat0105 pw.x -in pw.inp   Done                     12/25/2018 01:19:33
00025 suncat0105 pw.x -in pw.inp   Done                     12/25/2018 01:19:33
00026 suncat0105 pw.x -in pw.inp   Done                     12/25/2018 01:19:33
00027 suncat0105 pw.x -in pw.inp   Done                     12/25/2018 01:19:33
00028 suncat0105 pw.x -in pw.inp   Done                     12/25/2018 01:19:33
00029 suncat0105 pw.x -in pw.inp   Done                     12/25/2018 01:19:33
00030 suncat0105 pw.x -in pw.inp   Done                     12/25/2018 01:19:33
00031 suncat0105 pw.x -in pw.inp   Done                     12/25/2018 01:19:33
00032 suncat0238 pw.x -in pw.inp   Done                     12/25/2018 01:19:33
00033 suncat0238 pw.x -in pw.inp   Done                     12/25/2018 01:19:33
00034 suncat0238 pw.x -in pw.inp   Done                     12/25/2018 01:19:33
00035 suncat0238 pw.x -in pw.inp   Done                     12/25/2018 01:19:33
00036 suncat0238 pw.x -in pw.inp   Done                     12/25/2018 01:19:33
00037 suncat0238 pw.x -in pw.inp   Done                     12/25/2018 01:19:33
00038 suncat0238 pw.x -in pw.inp   Done                     12/25/2018 01:19:33
00039 suncat0238 pw.x -in pw.inp   Done                     12/25/2018 01:19:33
00040 suncat0237 pw.x -in pw.inp   Done                     12/25/2018 01:19:33
00041 suncat0237 pw.x -in pw.inp   Done                     12/25/2018 01:19:33
00042 suncat0237 pw.x -in pw.inp   Done                     12/25/2018 01:19:33
00043 suncat0237 pw.x -in pw.inp   Done                     12/25/2018 01:19:33
00044 suncat0237 pw.x -in pw.inp   Done                     12/25/2018 01:19:33
00045 suncat0237 pw.x -in pw.inp   Done                     12/25/2018 01:19:33
00046 suncat0237 pw.x -in pw.inp   Done                     12/25/2018 01:19:33
00047 suncat0237 pw.x -in pw.inp   Done                     12/25/2018 01:19:33
00048 suncat0236 pw.x -in pw.inp   Done                     12/25/2018 01:19:33
00049 suncat0236 pw.x -in pw.inp   Done                     12/25/2018 01:19:33
00050 suncat0236 pw.x -in pw.inp   Done                     12/25/2018 01:19:33
00051 suncat0236 pw.x -in pw.inp   Done                     12/25/2018 01:19:33
00052 suncat0236 pw.x -in pw.inp   Done                     12/25/2018 01:19:33
00053 suncat0236 pw.x -in pw.inp   Done                     12/25/2018 01:19:33
00054 suncat0236 pw.x -in pw.inp   Done                     12/25/2018 01:19:33
00055 suncat0236 pw.x -in pw.inp   Done                     12/25/2018 01:19:33
00056 suncat0235 pw.x -in pw.inp   Done                     12/25/2018 01:19:33
00057 suncat0235 pw.x -in pw.inp   Done                     12/25/2018 01:19:33
00058 suncat0235 pw.x -in pw.inp   Done                     12/25/2018 01:19:33
00059 suncat0235 pw.x -in pw.inp   Done                     12/25/2018 01:19:33
00060 suncat0235 pw.x -in pw.inp   Done                     12/25/2018 01:19:33
00061 suncat0235 pw.x -in pw.inp   Done                     12/25/2018 01:19:33
00062 suncat0235 pw.x -in pw.inp   Done                     12/25/2018 01:19:33
00063 suncat0235 pw.x -in pw.inp   Done                     12/25/2018 01:19:33