     Program PWSCF v.5.1rc2 (svn rev. 11289) starts on 19Dec2018 at  6:54: 3

     Current dimensions of program PWSCF are:
     Max number of different atomic species (ntypx) = 10
     Max number of k-points (npk) =  40000
     Max angular momentum in pseudopotentials (lmaxx) =  3
     Presently stress not available with electric field

     IMPORTANT: XC functional enforced from input :
     Exchange-correlation      = BEEF-VDW ( 1  4 27 13 2)
     Any further DFT definition will be discarded
     Please, verify this is what you really want

     Subspace diagonalization in iterative solution of the eigenvalue problem:
     a serial algorithm will be used

     Found symmetry operation: I + (  0.5000 -0.5000  0.0000)
     This is a supercell, fractional translations are disabled

     bravais-lattice index     =            0
     lattice parameter (alat)  =       1.8897  a.u.
     unit-cell volume          =    4004.0847 (a.u.)^3
     number of atoms/cell      =           12
     number of atomic types    =            2
     number of electrons       =       180.00
     number of Kohn-Sham states=          120
     kinetic-energy cutoff     =      36.7493  Ry
     charge density cutoff     =     367.4932  Ry
     convergence threshold     =      1.0E-06
     mixing beta               =       0.1000
     number of iterations used =           10  plain     mixing
     Exchange-correlation      = BEEF-VDW ( 1  4 27 13 2)
     nstep                     =           50

     celldm(1)=   1.889726  celldm(2)=   0.000000  celldm(3)=   0.000000
     celldm(4)=   0.000000  celldm(5)=   0.000000  celldm(6)=   0.000000

     crystal axes: (cart. coord. in units of alat)
               a(1) = (   5.278842   0.000000   0.000000 )
               a(2) = (   2.554501   4.619599   0.000000 )
               a(3) = (   0.000000   0.000000  24.331213 )

     reciprocal axes: (cart. coord. in units 2 pi/alat)
               b(1) = (  0.189436 -0.104752  0.000000 )
               b(2) = (  0.000000  0.216469  0.000000 )
               b(3) = (  0.000000  0.000000  0.041099 )

     PseudoPot. # 1 for Cr read from file:
     /afs/slac.stanford.edu/u/if/mamunm/psp/gbrv1.5pbe/Cr.UPF
     MD5 check sum: 0d52af634a40206e4dee301ad30da4bf
     Pseudo is Ultrasoft + core correction, Zval = 14.0
     Generated by new atomic code, or converted to UPF format
     Using radial grid of  857 points,  6 beta functions with:
                l(1) =   0
                l(2) =   0
                l(3) =   1
                l(4) =   1
                l(5) =   2
                l(6) =   2
     Q(r) pseudized with  8 coefficients,  rinner =    0.950   0.950   0.950
                                                       0.950   0.950

     PseudoPot. # 2 for Os read from file:
     /afs/slac.stanford.edu/u/if/mamunm/psp/gbrv1.5pbe/Os.UPF
     MD5 check sum: a3fb40a04f0c37c25c34bbc47164c9a8
     Pseudo is Ultrasoft + core correction, Zval = 16.0
     Generated by new atomic code, or converted to UPF format
     Using radial grid of  983 points,  8 beta functions with:
                l(1) =   0
                l(2) =   0
                l(3) =   1
                l(4) =   1
                l(5) =   2
                l(6) =   2
                l(7) =   3
                l(8) =   3
     Q(r) pseudized with  8 coefficients,  rinner =    1.150   1.150   1.150
                                                       1.150   1.150   1.150
                                                       1.150

     vdW kernel table read from file vdW_kernel_table
     MD5 check sum: 095c7af220d748ca6e76c0b4c6cfb241

     atomic species   valence    mass     pseudopotential
        Cr1           14.00    51.99610     Cr( 1.00)
        Os1           16.00   190.23000     Os( 1.00)

     No symmetry found

   Cartesian axes

     site n.     atom                  positions (alat units)
         1           Cr1 tau(   1) = (   0.0000000   0.0000000  10.0000000  )
         2           Cr1 tau(   2) = (   3.9166712   2.3097995  10.0000000  )
         3           Os1 tau(   3) = (   2.6394208   0.0000000  10.0000000  )
         4           Os1 tau(   4) = (   1.2772504   2.3097995  10.0000000  )
         5           Cr1 tau(   5) = (   5.2788416   3.1131195  12.1656063  )
         6           Cr1 tau(   6) = (   1.3621704   0.8033200  12.1656063  )
         7           Os1 tau(   7) = (   2.6394208   3.1131195  12.1656063  )
         8           Os1 tau(   8) = (   4.0015912   0.8033200  12.1656063  )
         9           Cr1 tau(   9) = (   2.7243408   1.6066401  14.3312125  )
        10           Cr1 tau(  10) = (   6.6410120   3.9164395  14.3312125  )
        11           Os1 tau(  11) = (   5.3637616   1.6066401  14.3312125  )
        12           Os1 tau(  12) = (   4.0015912   3.9164395  14.3312125  )

     number of k points=    20  Fermi-Dirac smearing, width (Ry)=  0.0110
                       cart. coord. in units 2pi/alat
        k(    1) = (   0.0000000   0.0000000   0.0000000), wk =   0.0555556
        k(    2) = (   0.0000000   0.0360782   0.0000000), wk =   0.1111111
        k(    3) = (   0.0000000   0.0721563   0.0000000), wk =   0.1111111
        k(    4) = (   0.0000000  -0.1082345   0.0000000), wk =   0.0555556
        k(    5) = (   0.0315726  -0.0174587   0.0000000), wk =   0.1111111
        k(    6) = (   0.0315726   0.0186195   0.0000000), wk =   0.1111111
        k(    7) = (   0.0315726   0.0546976   0.0000000), wk =   0.1111111
        k(    8) = (   0.0315726  -0.1256932   0.0000000), wk =   0.1111111
        k(    9) = (   0.0315726  -0.0896150   0.0000000), wk =   0.1111111
        k(   10) = (   0.0315726  -0.0535369   0.0000000), wk =   0.1111111
        k(   11) = (   0.0631452  -0.0349174   0.0000000), wk =   0.1111111
        k(   12) = (   0.0631452   0.0011608   0.0000000), wk =   0.1111111
        k(   13) = (   0.0631452   0.0372389   0.0000000), wk =   0.1111111
        k(   14) = (   0.0631452  -0.1431519   0.0000000), wk =   0.1111111
        k(   15) = (   0.0631452  -0.1070737   0.0000000), wk =   0.1111111
        k(   16) = (   0.0631452  -0.0709956   0.0000000), wk =   0.1111111
        k(   17) = (  -0.0947178   0.0523761   0.0000000), wk =   0.0555556
        k(   18) = (  -0.0947178   0.0884543   0.0000000), wk =   0.1111111
        k(   19) = (  -0.0947178   0.1245324   0.0000000), wk =   0.1111111
        k(   20) = (  -0.0947178  -0.0558584   0.0000000), wk =   0.0555556

     Largest allocated arrays     est. size (Mb)     dimensions
     Largest temporary arrays     est. size (Mb)     dimensions

     Check: negative/imaginary core charge=   -0.000002    0.000000

     Initial potential from superposition of free atoms
     Check: negative starting charge=   -0.756377

     starting charge  170.99969, renormalised to  180.00000

     negative rho (up, down):  7.962E-01 0.000E+00

     *
     * You are using vdW-DF for exchange-correlation in this calculation.
     * Please cite the following three references that made this development
     * possible:
     *
     *   M. Dion, H. Rydberg, E. Schroder, D. C. Langreth, and
     *   B. I. Lundqvist, Phys. Rev. Lett. 92, 246401 (2004).
     *
     *   T. Thonhauser, V. R. Cooper, S. Li, A. Puzder, P. Hyldgaard, and
     *   D. C. Langreth, Phys. Rev. B 76, 125112 (2007).
     *
     *   G. Roman-Perez and J. M. Soler, Phys. Rev. Lett. 103, 096102 (2009).
     *
     *
     * If you are using vdW-DF2, please also cite:
     *
     *   K. Lee, E. D. Murray, L. Kong, B. I. Lundqvist, and
     *   D. C. Langreth, Phys. Rev. B 82, 081101(R) (2010).
     *
     *
     * If you are calculating the stress with vdW-DF, please also cite:
     *
     *   R. Sabatini, E. Kucukbenli, B. Kolb, T. Thonhauser, and
     *   S. de Gironcoli, J. Phys.: Condens. Matter 24, 424209 (2012).
     *

     Carrying out vdW-DF run using the following parameters:

     Nqs =      20    Nr_points =    1024   r_max =   100.000
     q_mesh =
               0.00001000     0.04494208     0.09755937     0.15916263
               0.23128650     0.31572767     0.41458969     0.53033537
               0.66584808     0.82450364     1.01025438     1.22772762
               1.48234092     1.78043706     2.12944203     2.53805004
               3.01644009     3.57652955     4.23227104     5.00000000

     Gradients computed in reciprocal space

     Adding external electric field

     Computed dipole along edir(3) :
        Dipole                0.0000 Ry au,          0.0000 Debye
        Dipole field          0.0000 Ry au

        Potential amp.       -0.0000 Ry
        Total length         44.8298 bohr

     Starting wfc are  138 randomized atomic wfcs

     Self-consistent Calculation

     iteration #  1     ecut=    36.75 Ry     beta=0.10
     Davidson diagonalization with overlap
     ethr =  1.00E-02,  avg # of iterations =  6.8

[...]

     total energy              =   -2257.46353431 Ry
     Harris-Foulkes estimate   =   -2258.75163571 Ry
     estimated scf accuracy    <       8.25986412 Ry

[...]

     End of self-consistent calculation

          k = 0.0000 0.0000 0.0000 ( 15133 PWs)   bands (ev):

   -84.5835 -84.5469 -84.2548 -84.2543 -84.2185 -84.2180 -69.8468 -69.8138
   -69.7400 -69.7385 -69.7077 -69.7064 -44.1840 -44.0555 -43.9756 -43.8660
   -43.8508 -43.8451 -43.7874 -43.5844 -43.5628 -43.5322 -43.5190 -43.5109
   -43.4705 -43.4501 -43.4309 -43.3971 -43.2367 -43.2365 -41.2575 -41.1756
   -41.1629 -41.1543 -41.1408 -41.1357 -41.1262 -41.0412 -41.0361 -41.0311
   -41.0257 -41.0026 -40.9557 -40.9545 -40.9294 -40.9228 -40.7813 -40.7795
    -6.2826  -4.4512  -3.8430  -3.7935  -3.3277  -3.2605  -3.0433  -3.0423
    -2.8414  -2.5934  -2.5351  -2.4469  -2.3230  -2.2575  -1.7324  -1.5861
    -1.0762  -0.5750  -0.4025  -0.2379  -0.1006  -0.0777   0.2717   0.3030
     0.3879   0.7056   0.7497   0.9065   1.0041   1.1424   1.3821   1.4499
     1.4547   1.4874   1.5563   1.5798   2.1727   2.2942   2.3153   2.3405
     2.4869   2.5404   2.5812   2.5989   2.9409   3.1349   3.2097   3.4569
     3.6159   3.6555   3.6894   3.8104   3.8427   3.8456   3.8922   3.9396
     4.0536   4.0632   4.0840   4.3405   4.4362   4.5199   4.6872   4.7882
     4.8446   5.0196   5.1266   5.8428   6.2065   6.2306   6.3505   6.3783

[...]

          k =-0.0947 0.0524 0.0000 ( 15056 PWs)   bands (ev):

[...]

     the Fermi energy is     2.0788 ev

!    total energy              =   -2256.19572295 Ry
     Harris-Foulkes estimate   =   -2256.19572285 Ry
     estimated scf accuracy    <       0.00000089 Ry

     The total energy is the sum of the following terms:

     one-electron contribution =  -20275.82101319 Ry
     hartree contribution      =   10123.92256419 Ry
     xc contribution           =    -371.54162357 Ry
     ewald contribution        =    8267.34398310 Ry
     electric field correction =       0.00000000 Ry
     smearing contrib. (-TS)   =      -0.09963348 Ry

     convergence has been achieved in  24 iterations

 BEEF-vdW xc energy contributions
           1 :   -324.133869615750
           2 :    297.192822266006
           3 :   -250.764773895274
           4 :    196.630278483513
[...]
     Program PWSCF v.5.1rc2 (svn rev. 11289) starts on 19Dec2018 at  7:31: 9

[...]

   This run was terminated on:   8: 7:53  19Dec2018

[...]

     Program PWSCF v.5.1rc2 (svn rev. 11289) starts on 19Dec2018 at  8: 7:59

[...]

     Program PWSCF v.5.1rc2 (svn rev. 11289) starts on 19Dec2018 at  8:43:25

[...]

   This run was terminated on:   9: 2:25  19Dec2018

[...]

     Program PWSCF v.5.1rc2 (svn rev. 11289) starts on 19Dec2018 at  9: 2:31

     Current dimensions of program PWSCF are:
     Max number of different atomic species (ntypx) = 10
     Max number of k-points (npk) =  40000
     Max angular momentum in pseudopotentials (lmaxx) =  3
     Presently stress not available with electric field

     IMPORTANT: XC functional enforced from input :
     Exchange-correlation      = BEEF-VDW ( 1  4 27 13 2)
     Any further DFT definition will be discarded
     Please, verify this is what you really want

     Subspace diagonalization in iterative solution of the eigenvalue problem:
     a serial algorithm will be used

     bravais-lattice index     =            0
     lattice parameter (alat)  =       1.8897  a.u.
     unit-cell volume          =    4004.0847 (a.u.)^3
     number of atoms/cell      =           12
     number of atomic types    =            2
     number of electrons       =       180.00
     number of Kohn-Sham states=          120
     kinetic-energy cutoff     =      36.7493  Ry
     charge density cutoff     =     367.4932  Ry
     convergence threshold     =      1.0E-06
     mixing beta               =       0.1000
     number of iterations used =           10  plain     mixing
     Exchange-correlation      = BEEF-VDW ( 1  4 27 13 2)
     nstep                     =           50

     celldm(1)=   1.889726  celldm(2)=   0.000000  celldm(3)=   0.000000
     celldm(4)=   0.000000  celldm(5)=   0.000000  celldm(6)=   0.000000

     crystal axes: (cart. coord. in units of alat)
               a(1) = (   5.278842   0.000000   0.000000 )
               a(2) = (   2.554501   4.619599   0.000000 )
               a(3) = (   0.000000   0.000000  24.331213 )

     reciprocal axes: (cart. coord. in units 2 pi/alat)
               b(1) = (  0.189436 -0.104752  0.000000 )
               b(2) = (  0.000000  0.216469  0.000000 )
               b(3) = (  0.000000  0.000000  0.041099 )

     PseudoPot. # 1 for Cr read from file:
     /afs/slac.stanford.edu/u/if/mamunm/psp/gbrv1.5pbe/Cr.UPF
     MD5 check sum: 0d52af634a40206e4dee301ad30da4bf
     Pseudo is Ultrasoft + core correction, Zval = 14.0
     Generated by new atomic code, or converted to UPF format
     Using radial grid of  857 points,  6 beta functions with:
                l(1) =   0
                l(2) =   0
                l(3) =   1
                l(4) =   1
                l(5) =   2
                l(6) =   2
     Q(r) pseudized with  8 coefficients,  rinner =    0.950   0.950   0.950
                                                       0.950   0.950

     PseudoPot. # 2 for Os read from file:
     /afs/slac.stanford.edu/u/if/mamunm/psp/gbrv1.5pbe/Os.UPF
     MD5 check sum: a3fb40a04f0c37c25c34bbc47164c9a8
     Pseudo is Ultrasoft + core correction, Zval = 16.0
     Generated by new atomic code, or converted to UPF format
     Using radial grid of  983 points,  8 beta functions with:
                l(1) =   0
                l(2) =   0
                l(3) =   1
                l(4) =   1
                l(5) =   2
                l(6) =   2
                l(7) =   3
                l(8) =   3
     Q(r) pseudized with  8 coefficients,  rinner =    1.150   1.150   1.150
                                                       1.150   1.150   1.150
                                                       1.150

     vdW kernel table read from file vdW_kernel_table
     MD5 check sum: 095c7af220d748ca6e76c0b4c6cfb241

     atomic species   valence    mass     pseudopotential
        Cr1           14.00    51.99610     Cr( 1.00)
        Os1           16.00   190.23000     Os( 1.00)

     No symmetry found

   Cartesian axes

     site n.     atom                  positions (alat units)
         1           Cr1 tau(   1) = (   0.0000000   0.0000000  10.0000000  )
         2           Cr1 tau(   2) = (   3.9166712   2.3097995  10.0000000  )
         3           Os1 tau(   3) = (   2.6394208   0.0000000  10.0000000  )
         4           Os1 tau(   4) = (   1.2772504   2.3097995  10.0000000  )
         5           Cr1 tau(   5) = (   5.2788416   3.1131195  12.1656063  )
         6           Cr1 tau(   6) = (   1.3621704   0.8033200  12.1656063  )
         7           Os1 tau(   7) = (   2.6394208   3.1131195  12.1656063  )
         8           Os1 tau(   8) = (   4.0015912   0.8033200  12.1656063  )
         9           Cr1 tau(   9) = (   2.6764073   1.5783740  14.2073047  )
        10           Cr1 tau(  10) = (   6.5927453   3.8879714  14.2073359  )
        11           Os1 tau(  11) = (   5.3327078   1.5888993  14.2625128  )
        12           Os1 tau(  12) = (   3.9710402   3.8978509  14.2625128  )

     number of k points=    20  Fermi-Dirac smearing, width (Ry)=  0.0110
                       cart. coord. in units 2pi/alat
        k(    1) = (   0.0000000   0.0000000   0.0000000), wk =   0.0555556
        k(    2) = (   0.0000000   0.0360782   0.0000000), wk =   0.1111111
        k(    3) = (   0.0000000   0.0721563   0.0000000), wk =   0.1111111
        k(    4) = (   0.0000000  -0.1082345   0.0000000), wk =   0.0555556
        k(    5) = (   0.0315726  -0.0174587   0.0000000), wk =   0.1111111
        k(    6) = (   0.0315726   0.0186195   0.0000000), wk =   0.1111111
        k(    7) = (   0.0315726   0.0546976   0.0000000), wk =   0.1111111
        k(    8) = (   0.0315726  -0.1256932   0.0000000), wk =   0.1111111
        k(    9) = (   0.0315726  -0.0896150   0.0000000), wk =   0.1111111
        k(   10) = (   0.0315726  -0.0535369   0.0000000), wk =   0.1111111
        k(   11) = (   0.0631452  -0.0349174   0.0000000), wk =   0.1111111
        k(   12) = (   0.0631452   0.0011608   0.0000000), wk =   0.1111111
        k(   13) = (   0.0631452   0.0372389   0.0000000), wk =   0.1111111
        k(   14) = (   0.0631452  -0.1431519   0.0000000), wk =   0.1111111
        k(   15) = (   0.0631452  -0.1070737   0.0000000), wk =   0.1111111
        k(   16) = (   0.0631452  -0.0709956   0.0000000), wk =   0.1111111
        k(   17) = (  -0.0947178   0.0523761   0.0000000), wk =   0.0555556
        k(   18) = (  -0.0947178   0.0884543   0.0000000), wk =   0.1111111
        k(   19) = (  -0.0947178   0.1245324   0.0000000), wk =   0.1111111
        k(   20) = (  -0.0947178  -0.0558584   0.0000000), wk =   0.0555556

     Largest allocated arrays     est. size (Mb)     dimensions
     Largest temporary arrays     est. size (Mb)     dimensions

     Check: negative/imaginary core charge=   -0.000002    0.000000

     Initial potential from superposition of free atoms
     Check: negative starting charge=   -0.758592

     starting charge  170.99969, renormalised to  180.00000

[...]

     *
     * You are using vdW-DF for exchange-correlation in this calculation.
     * Please cite the following three references that made this development
     * possible:
     *
     *   M. Dion, H. Rydberg, E. Schroder, D. C. Langreth, and
     *   B. I. Lundqvist, Phys. Rev. Lett. 92, 246401 (2004).
     *
     *   T. Thonhauser, V. R. Cooper, S. Li, A. Puzder, P. Hyldgaard, and
     *   D. C. Langreth, Phys. Rev. B 76, 125112 (2007).
     *
     *   G. Roman-Perez and J. M. Soler, Phys. Rev. Lett. 103, 096102 (2009).
     *
     *
     * If you are using vdW-DF2, please also cite:
     *
     *   K. Lee, E. D. Murray, L. Kong, B. I. Lundqvist, and
     *   D. C. Langreth, Phys. Rev. B 82, 081101(R) (2010).
     *
     *
     * If you are calculating the stress with vdW-DF, please also cite:
     *
     *   R. Sabatini, E. Kucukbenli, B. Kolb, T. Thonhauser, and
     *   S. de Gironcoli, J. Phys.: Condens. Matter 24, 424209 (2012).
     *

     Carrying out vdW-DF run using the following parameters:

     Nqs =      20    Nr_points =    1024   r_max =   100.000
     q_mesh =
               0.00001000     0.04494208     0.09755937     0.15916263
               0.23128650     0.31572767     0.41458969     0.53033537
               0.66584808     0.82450364     1.01025438     1.22772762
               1.48234092     1.78043706     2.12944203     2.53805004
               3.01644009     3.57652955     4.23227104     5.00000000

     Gradients computed in reciprocal space

[...]

     Starting wfc are  138 randomized atomic wfcs

     Self-consistent Calculation

[...]

     total energy              =   -2256.20645078 Ry
     Harris-Foulkes estimate   =   -2256.20645012 Ry
     estimated scf accuracy    <       0.00000212 Ry

     iteration # 22     ecut=    36.75 Ry     beta=0.10
     Davidson diagonalization with overlap
     ethr =  1.18E-09,  avg # of iterations =  2.0

[...]

     negative rho (up, down):  7.675E-01 0.000E+00

     Adding external electric field

     Computed dipole along edir(3) :
        Dipole                0.0193 Ry au,          0.0491 Debye
        Dipole field          0.0001 Ry au

        Potential amp.       -0.0054 Ry
        Total length         44.8298 bohr

     End of self-consistent calculation

[...]

          k = 0.0631-0.0710 0.0000 ( 15080 PWs)   bands (ev):

[...]

          k =-0.0947-0.0559 0.0000 ( 15078 PWs)   bands (ev):

   -84.5926 -84.5559 -84.2484 -84.2302 -84.2121 -84.1939 -69.8246 -69.7912
   -69.7553 -69.7227 -69.6682 -69.6354 -44.1964 -44.0785 -44.0072 -43.8692
   -43.8321 -43.8187 -43.7954 -43.5876 -43.5831 -43.5177 -43.4855 -43.4751
   -43.4266 -43.4211 -43.4088 -43.3624 -43.2296 -43.2215 -41.2715 -41.2186
   -41.1861 -41.1522 -41.1335 -41.1117 -41.0939 -41.0707 -41.0320 -41.0089
   -41.0046 -40.9977 -40.9897 -40.9648 -40.8797 -40.8549 -40.7935 -40.7349
    -5.0277  -4.1773  -3.4571  -3.2874  -2.7831  -2.6734  -2.5571  -2.4003
    -2.3255  -2.1362  -1.6743  -1.6127  -1.4997  -1.4759  -1.4085  -1.3501
    -1.2891  -0.8016  -0.5293  -0.3069  -0.1621  -0.0391  -0.0212   0.0967
     0.2878   0.3032   0.4406   0.7366   0.8144   0.8317   0.9421   0.9755
     1.0909   1.1302   1.1618   1.1825   1.2052   1.2355   1.3403   1.4355
     1.4730   1.7546   2.0844   2.1517   2.2600   2.3569   2.3718   2.4996
     2.6429   2.6512   2.7429   2.8262   2.9397   3.0280   3.0637   3.1966
     3.2050   3.3102   3.6933   3.8010   4.0225   4.1972   4.2854   4.9162
     4.9169   5.1880   5.4630   6.2148   6.9922   7.1292   7.3669   7.3855

     the Fermi energy is     2.0897 ev

!    total energy              =   -2256.20645116 Ry
     Harris-Foulkes estimate   =   -2256.20645073 Ry
     estimated scf accuracy    <       0.00000096 Ry

     The total energy is the sum of the following terms:

     one-electron contribution =  -20546.98234016 Ry
     hartree contribution      =   10259.58604547 Ry
     xc contribution           =    -371.76505243 Ry
     ewald contribution        =    8403.05029942 Ry
     electric field correction =       0.00000117 Ry
     smearing contrib. (-TS)   =      -0.09540463 Ry

     convergence has been achieved in  22 iterations

 BEEF-vdW xc energy contributions
           1 :   -324.361483755655
           2 :    297.498620233032
           3 :   -251.168754725479
           4 :    197.074266530422
           5 :   -146.830326598534
           6 :    108.272271123945
           7 :   -83.8432222315408
           8 :    71.2790682102982
           9 :   -65.8197700373840
          10 :    62.6921022025017
          11 :   -58.8091797287005
          12 :    53.2289743971942
          13 :   -46.5829397128431
          14 :    40.0668585137917
          15 :   -34.6092937750323
          16 :    30.5401705263498
          17 :   -27.7191412935674
          18 :    25.8393121704891
          19 :   -24.6299519546923
          20 :    23.8581503736234
          21 :   -23.2351176035846
          22 :    22.3955489025707
          23 :   -21.0284906290721
          24 :    19.0761785218616
          25 :   -16.8351420237960
          26 :    14.8450315252270
          27 :   -13.6033902453767
          28 :    13.2716689310575
          29 :   -13.5600955950953
          30 :    13.8736256110542
          31 :   -31.1736459621859
          32 :   -23.2722966965704

     Forces acting on atoms (Ry/au):

     negative rho (up, down):  7.675E-01 0.000E+00
     atom    1 type  1   force =     0.00392786    0.00231641    0.02072496
     atom    2 type  1   force =     0.00392358    0.00231380    0.02073827
     atom    3 type  2   force =    -0.00275872   -0.00160262    0.01370721
     atom    4 type  2   force =    -0.00273732   -0.00163856    0.01370708
     atom    5 type  1   force =     0.00229997    0.00135635   -0.00993136
     atom    6 type  1   force =     0.00229215    0.00135174   -0.00993142
     atom    7 type  2   force =    -0.00366491   -0.00209499   -0.02420820
     atom    8 type  2   force =    -0.00360613   -0.00219342   -0.02420895
     atom    9 type  1   force =    -0.00143060   -0.00084464    0.00003763
     atom   10 type  1   force =    -0.00112908   -0.00066490    0.00001158
     atom   11 type  2   force =     0.00164519    0.00050479   -0.00032339
     atom   12 type  2   force =     0.00123801    0.00119603   -0.00032341

     Total force =     0.052222     Total SCF correction =     0.002890

     entering subroutine stress ...

     negative rho (up, down):  7.675E-01 0.000E+00
          total   stress  (Ry/bohr**3)                   (kbar)     P=  -23.97
  -0.00019731   0.00001445  -0.00000253        -29.03      2.13     -0.37
   0.00001445  -0.00021329  -0.00000149          2.13    -31.38     -0.22
  -0.00000253  -0.00000149  -0.00007822         -0.37     -0.22    -11.51

 !ASE

     Writing output data file calc.save

     General routines

     Parallel routines

   This run was terminated on:   9:20:17  19Dec2018

   JOB DONE.
Job  /afs/slac/g/suncat/bin/suncat-tsmpirun -x LD_LIBRARY_PATH -wdir /scratch/qe529751_guvo5 pw.x -in pw.inp

TID   HOST_NAME   COMMAND_LINE            STATUS            TERMINATION_TIME
00000 suncat0003 pw.x -in pw.inp   Done                     12/19/2018 09:20:17
00001 suncat0003 pw.x -in pw.inp   Done                     12/19/2018 09:20:17
00002 suncat0003 pw.x -in pw.inp   Done                     12/19/2018 09:20:17
00003 suncat0003 pw.x -in pw.inp   Done                     12/19/2018 09:20:17
00004 suncat0003 pw.x -in pw.inp   Done                     12/19/2018 09:20:17
00005 suncat0003 pw.x -in pw.inp   Done                     12/19/2018 09:20:17
00006 suncat0003 pw.x -in pw.inp   Done                     12/19/2018 09:20:17
00007 suncat0003 pw.x -in pw.inp   Done                     12/19/2018 09:20:17
00008 suncat0002 pw.x -in pw.inp   Done                     12/19/2018 09:20:17
00009 suncat0002 pw.x -in pw.inp   Done                     12/19/2018 09:20:17
00010 suncat0002 pw.x -in pw.inp   Done                     12/19/2018 09:20:17
00011 suncat0002 pw.x -in pw.inp   Done                     12/19/2018 09:20:17
00012 suncat0002 pw.x -in pw.inp   Done                     12/19/2018 09:20:17
00013 suncat0002 pw.x -in pw.inp   Done                     12/19/2018 09:20:17
00014 suncat0002 pw.x -in pw.inp   Done                     12/19/2018 09:20:17
00015 suncat0002 pw.x -in pw.inp   Done                     12/19/2018 09:20:17
00016 suncat0001 pw.x -in pw.inp   Done                     12/19/2018 09:20:17
00017 suncat0001 pw.x -in pw.inp   Done                     12/19/2018 09:20:17
00018 suncat0001 pw.x -in pw.inp   Done                     12/19/2018 09:20:17
00019 suncat0001 pw.x -in pw.inp   Done                     12/19/2018 09:20:17
00020 suncat0001 pw.x -in pw.inp   Done                     12/19/2018 09:20:17
00021 suncat0001 pw.x -in pw.inp   Done                     12/19/2018 09:20:17
00022 suncat0001 pw.x -in pw.inp   Done                     12/19/2018 09:20:17
00023 suncat0001 pw.x -in pw.inp   Done                     12/19/2018 09:20:17
00024 suncat0188 pw.x -in pw.inp   Done                     12/19/2018 09:20:17
00025 suncat0188 pw.x -in pw.inp   Done                     12/19/2018 09:20:17
00026 suncat0188 pw.x -in pw.inp   Done                     12/19/2018 09:20:17
00027 suncat0188 pw.x -in pw.inp   Done                     12/19/2018 09:20:17
00028 suncat0188 pw.x -in pw.inp   Done                     12/19/2018 09:20:17
00029 suncat0188 pw.x -in pw.inp   Done                     12/19/2018 09:20:17
00030 suncat0188 pw.x -in pw.inp   Done                     12/19/2018 09:20:17
00031 suncat0188 pw.x -in pw.inp   Done                     12/19/2018 09:20:17