     Program PWSCF v.5.1rc2 (svn rev. 11289) starts on 19Dec2018 at  5:38:46

     Current dimensions of program PWSCF are:
     Max number of different atomic species (ntypx) = 10
     Max number of k-points (npk) =  40000
     Max angular momentum in pseudopotentials (lmaxx) =  3
     Presently stress not available with electric field

     IMPORTANT: XC functional enforced from input :
     Exchange-correlation      = BEEF-VDW ( 1  4 27 13 2)
     Any further DFT definition will be discarded
     Please, verify this is what you really want

     Subspace diagonalization in iterative solution of the eigenvalue problem:
     a serial algorithm will be used

     Found symmetry operation: I + ( -0.5000 -0.5000  0.0000)
     This is a supercell, fractional translations are disabled

     Generating pointlists ...
     new r_m :   0.4125 (alat units)  0.7795 (a.u.) for type    1
     new r_m :   0.4125 (alat units)  0.7795 (a.u.) for type    2

     bravais-lattice index     =            0
     lattice parameter (alat)  =       1.8897  a.u.
     unit-cell volume          =    4599.6845 (a.u.)^3
     number of atoms/cell      =           12
     number of atomic types    =            2
     number of electrons       =       180.00
     number of Kohn-Sham states=          120
     kinetic-energy cutoff     =      36.7493  Ry
     charge density cutoff     =     367.4932  Ry
     convergence threshold     =      1.0E-06
     mixing beta               =       0.1000
     number of iterations used =           10  plain     mixing
     Exchange-correlation      = BEEF-VDW ( 1  4 27 13 2)
     nstep                     =           50

     celldm(1)=   1.889726  celldm(2)=   0.000000  celldm(3)=   0.000000
     celldm(4)=   0.000000  celldm(5)=   0.000000  celldm(6)=   0.000000

     crystal axes: (cart. coord. in units of alat)
               a(1) = (   5.438573   0.000000   0.000000 )
               a(2) = (   1.811782   5.127916   0.000000 )
               a(3) = (   0.000000   0.000000  24.440247 )

     reciprocal axes: (cart. coord. in units 2 pi/alat)
               b(1) = (  0.183872 -0.064965  0.000000 )
               b(2) = (  0.000000  0.195011  0.000000 )
               b(3) = (  0.000000  0.000000  0.040916 )

     PseudoPot. # 1 for Co read from file:
     /afs/slac.stanford.edu/u/if/mamunm/psp/gbrv1.5pbe/Co.UPF
     MD5 check sum: 5f91765df6ddd3222702df6e7b74a16d
     Pseudo is Ultrasoft + core correction, Zval = 17.0
     Generated by new atomic code, or converted to UPF format
     Using radial grid of  863 points,  6 beta functions with:
                l(1) =   0
                l(2) =   0
                l(3) =   1
                l(4) =   1
                l(5) =   2
                l(6) =   2
     Q(r) pseudized with  8 coefficients,  rinner =    1.200   1.200   1.200
                                                       1.200   1.200

     PseudoPot. # 2 for In read from file:
     /afs/slac.stanford.edu/u/if/mamunm/psp/gbrv1.5pbe/In.UPF
     MD5 check sum: 90777abd96fbb83f2e67db2a40c566b9
     Pseudo is Ultrasoft + core correction, Zval = 13.0
     Generated by new atomic code, or converted to UPF format
     Using radial grid of  889 points,  6 beta functions with:
                l(1) =   0
                l(2) =   0
                l(3) =   1
                l(4) =   1
                l(5) =   2
                l(6) =   2
     Q(r) pseudized with  6 coefficients,  rinner =    1.400   1.400   1.400
                                                       1.400   1.400

     vdW kernel table read from file vdW_kernel_table
     MD5 check sum: 095c7af220d748ca6e76c0b4c6cfb241

     atomic species   valence    mass     pseudopotential
        Co1           17.00    58.93319     Co( 1.00)
        In1           13.00   114.81800     In( 1.00)

     Starting magnetic structure
     atomic species   magnetization
        Co1          0.118
        In1          0.154

     No symmetry found

   Cartesian axes

     site n.     atom                  positions (alat units)
         1           Co1 tau(   1) = (   0.0000000   0.0000000  10.0000000  )
         2           Co1 tau(   2) = (   3.6251778   2.5639579  10.0000000  )
         3           In1 tau(   3) = (   2.7192865   0.0000000  10.0000000  )
         4           In1 tau(   4) = (   0.9058912   2.5639579  10.0000000  )
         5           Co1 tau(   5) = (   5.4385731   3.8465073  12.2201233  )
         6           Co1 tau(   6) = (   1.8133953   1.2825493  12.2201233  )
         7           In1 tau(   7) = (   2.7192865   3.8465073  12.2201233  )
         8           In1 tau(   8) = (   4.5326818   1.2825493  12.2201233  )
         9           Co1 tau(   9) = (   3.6267906   2.5650986  14.4402467  )
        10           Co1 tau(  10) = (   0.0016128   0.0011407  14.4402467  )
        11           In1 tau(  11) = (   0.9075041   2.5650986  14.4402467  )
        12           In1 tau(  12) = (   2.7208994   0.0011407  14.4402467  )

     number of k points=    40  Fermi-Dirac smearing, width (Ry)=  0.0110
                       cart. coord. in units 2pi/alat
        k(    1) = (   0.0000000   0.0000000   0.0000000), wk =   0.0277778
        k(    2) = (   0.0000000   0.0325018   0.0000000), wk =   0.0555556
        k(    3) = (   0.0000000   0.0650037   0.0000000), wk =   0.0555556
        k(    4) = (   0.0000000  -0.0975055   0.0000000), wk =   0.0277778
        k(    5) = (   0.0306453  -0.0108275   0.0000000), wk =   0.0555556
        k(    6) = (   0.0306453   0.0216743   0.0000000), wk =   0.0555556
        k(    7) = (   0.0306453   0.0541761   0.0000000), wk =   0.0555556
        k(    8) = (   0.0306453  -0.1083330   0.0000000), wk =   0.0555556
        k(    9) = (   0.0306453  -0.0758312   0.0000000), wk =   0.0555556
        k(   10) = (   0.0306453  -0.0433294   0.0000000), wk =   0.0555556
        k(   11) = (   0.0612906  -0.0216550   0.0000000), wk =   0.0555556
        k(   12) = (   0.0612906   0.0108468   0.0000000), wk =   0.0555556
        k(   13) = (   0.0612906   0.0433486   0.0000000), wk =   0.0555556
        k(   14) = (   0.0612906  -0.1191605   0.0000000), wk =   0.0555556
        k(   15) = (   0.0612906  -0.0866587   0.0000000), wk =   0.0555556
        k(   16) = (   0.0612906  -0.0541569   0.0000000), wk =   0.0555556
        k(   17) = (  -0.0919359   0.0324826   0.0000000), wk =   0.0277778
        k(   18) = (  -0.0919359   0.0649844   0.0000000), wk =   0.0555556
        k(   19) = (  -0.0919359   0.0974862   0.0000000), wk =   0.0555556
        k(   20) = (  -0.0919359  -0.0650229   0.0000000), wk =   0.0277778
        k(   21) = (   0.0000000   0.0000000   0.0000000), wk =   0.0277778
        k(   22) = (   0.0000000   0.0325018   0.0000000), wk =   0.0555556
        k(   23) = (   0.0000000   0.0650037   0.0000000), wk =   0.0555556
        k(   24) = (   0.0000000  -0.0975055   0.0000000), wk =   0.0277778
        k(   25) = (   0.0306453  -0.0108275   0.0000000), wk =   0.0555556
        k(   26) = (   0.0306453   0.0216743   0.0000000), wk =   0.0555556
        k(   27) = (   0.0306453   0.0541761   0.0000000), wk =   0.0555556
        k(   28) = (   0.0306453  -0.1083330   0.0000000), wk =   0.0555556
        k(   29) = (   0.0306453  -0.0758312   0.0000000), wk =   0.0555556
        k(   30) = (   0.0306453  -0.0433294   0.0000000), wk =   0.0555556
        k(   31) = (   0.0612906  -0.0216550   0.0000000), wk =   0.0555556
        k(   32) = (   0.0612906   0.0108468   0.0000000), wk =   0.0555556
        k(   33) = (   0.0612906   0.0433486   0.0000000), wk =   0.0555556
        k(   34) = (   0.0612906  -0.1191605   0.0000000), wk =   0.0555556
        k(   35) = (   0.0612906  -0.0866587   0.0000000), wk =   0.0555556
        k(   36) = (   0.0612906  -0.0541569   0.0000000), wk =   0.0555556
        k(   37) = (  -0.0919359   0.0324826   0.0000000), wk =   0.0277778
        k(   38) = (  -0.0919359   0.0649844   0.0000000), wk =   0.0555556
        k(   39) = (  -0.0919359   0.0974862   0.0000000), wk =   0.0555556
        k(   40) = (  -0.0919359  -0.0650229   0.0000000), wk =   0.0277778

     Largest allocated arrays     est. size (Mb)     dimensions
     Largest temporary arrays     est. size (Mb)     dimensions

     Check: negative/imaginary core charge=   -0.000003    0.000000

     Initial potential from superposition of free atoms
     Check: negative starting charge=(component1):   -0.000192
     Check: negative starting charge=(component2):   -0.000150

     starting charge  164.99996, renormalised to  180.00000

     negative rho (up, down):  2.099E-04 1.637E-04

     *
     * You are using vdW-DF for exchange-correlation in this calculation.
     * Please cite the following three references that made this development
     * possible:
     *
     *   M. Dion, H. Rydberg, E. Schroder, D. C. Langreth, and
     *   B. I. Lundqvist, Phys. Rev. Lett. 92, 246401 (2004).
     *
     *   T. Thonhauser, V. R. Cooper, S. Li, A. Puzder, P. Hyldgaard, and
     *   D. C. Langreth, Phys. Rev. B 76, 125112 (2007).
     *
     *   G. Roman-Perez and J. M. Soler, Phys. Rev. Lett. 103, 096102 (2009).
     *
     *
     * If you are using vdW-DF2, please also cite:
     *
     *   K. Lee, E. D. Murray, L. Kong, B. I. Lundqvist, and
     *   D. C. Langreth, Phys. Rev. B 82, 081101(R) (2010).
     *
     *
     * If you are calculating the stress with vdW-DF, please also cite:
     *
     *   R. Sabatini, E. Kucukbenli, B. Kolb, T. Thonhauser, and
     *   S. de Gironcoli, J. Phys.: Condens. Matter 24, 424209 (2012).
     *

     Carrying out vdW-DF run using the following parameters:

     Nqs =      20    Nr_points =    1024   r_max =   100.000
     q_mesh =
               0.00001000     0.04494208     0.09755937     0.15916263
               0.23128650     0.31572767     0.41458969     0.53033537
               0.66584808     0.82450364     1.01025438     1.22772762
               1.48234092     1.78043706     2.12944203     2.53805004
               3.01644009     3.57652955     4.23227104     5.00000000

     Gradients computed in reciprocal space

     Adding external electric field

     Computed dipole along edir(3) :
        Dipole               -0.0000 Ry au,         -0.0000 Debye
        Dipole field         -0.0000 Ry au

        Potential amp.        0.0000 Ry
        Total length         45.0307 bohr

[...]

     Starting wfc are  132 randomized atomic wfcs

     Self-consistent Calculation

     iteration #  1     ecut=    36.75 Ry     beta=0.10
     Davidson diagonalization with overlap
     ethr =  1.00E-02,  avg # of iterations =  8.6

[...]

     Magnetic moment per site:
     atom:    1    charge:    8.5814    magn:    0.9588    constr:    0.0000
     atom:    2    charge:    8.5814    magn:    0.9588    constr:    0.0000
     atom:    3    charge:    3.2569    magn:    0.4634    constr:    0.0000
     atom:    4    charge:    3.2569    magn:    0.4634    constr:    0.0000
     atom:    5    charge:    8.5817    magn:    0.9592    constr:    0.0000
     atom:    6    charge:    8.5817    magn:    0.9592    constr:    0.0000
[...]
                l(4) =   1
                l(5) =   2
                l(6) =   2
     Q(r) pseudized with  8 coefficients,  rinner =    1.200   1.200   1.200
                                                       1.200   1.200

     PseudoPot. # 2 for In read from file:
     /afs/slac.stanford.edu/u/if/mamunm/psp/gbrv1.5pbe/In.UPF
     MD5 check sum: 90777abd96fbb83f2e67db2a40c566b9
     Pseudo is Ultrasoft + core correction, Zval = 13.0
     Generated by new atomic code, or converted to UPF format
     Using radial grid of  889 points,  6 beta functions with:
                l(1) =   0
                l(2) =   0
                l(3) =   1
                l(4) =   1
                l(5) =   2
                l(6) =   2
     Q(r) pseudized with  6 coefficients,  rinner =    1.400   1.400   1.400
                                                       1.400   1.400

     vdW kernel table read from file vdW_kernel_table
     MD5 check sum: 095c7af220d748ca6e76c0b4c6cfb241

     atomic species   valence    mass     pseudopotential
        Co1           17.00    58.93319     Co( 1.00)
        In1           13.00   114.81800     In( 1.00)

     Starting magnetic structure
     atomic species   magnetization
        Co1          0.118
        In1          0.154

     No symmetry found

   Cartesian axes

     site n.     atom                  positions (alat units)
         1           Co1 tau(   1) = (   0.0000000   0.0000000  10.0000000  )
         2           Co1 tau(   2) = (   3.6251778   2.5639579  10.0000000  )
         3           In1 tau(   3) = (   2.7192865   0.0000000  10.0000000  )
         4           In1 tau(   4) = (   0.9058912   2.5639579  10.0000000  )
         5           Co1 tau(   5) = (   5.4385731   3.8465073  12.2201233  )
         6           Co1 tau(   6) = (   1.8133953   1.2825493  12.2201233  )
         7           In1 tau(   7) = (   2.7192865   3.8465073  12.2201233  )
         8           In1 tau(   8) = (   4.5326818   1.2825493  12.2201233  )
         9           Co1 tau(   9) = (   3.6267158   2.5650440  14.3296142  )
        10           Co1 tau(  10) = (   0.0016046   0.0011366  14.3294150  )
        11           In1 tau(  11) = (   0.9073130   2.5649694  14.6823752  )
        12           In1 tau(  12) = (   2.7207136   0.0010036  14.6823755  )

     number of k points=    40  Fermi-Dirac smearing, width (Ry)=  0.0110
                       cart. coord. in units 2pi/alat
        k(    1) = (   0.0000000   0.0000000   0.0000000), wk =   0.0277778
        k(    2) = (   0.0000000   0.0325018   0.0000000), wk =   0.0555556
        k(    3) = (   0.0000000   0.0650037   0.0000000), wk =   0.0555556
        k(    4) = (   0.0000000  -0.0975055   0.0000000), wk =   0.0277778
        k(    5) = (   0.0306453  -0.0108275   0.0000000), wk =   0.0555556
        k(    6) = (   0.0306453   0.0216743   0.0000000), wk =   0.0555556
        k(    7) = (   0.0306453   0.0541761   0.0000000), wk =   0.0555556
        k(    8) = (   0.0306453  -0.1083330   0.0000000), wk =   0.0555556
        k(    9) = (   0.0306453  -0.0758312   0.0000000), wk =   0.0555556
        k(   10) = (   0.0306453  -0.0433294   0.0000000), wk =   0.0555556
        k(   11) = (   0.0612906  -0.0216550   0.0000000), wk =   0.0555556
        k(   12) = (   0.0612906   0.0108468   0.0000000), wk =   0.0555556
        k(   13) = (   0.0612906   0.0433486   0.0000000), wk =   0.0555556
        k(   14) = (   0.0612906  -0.1191605   0.0000000), wk =   0.0555556
        k(   15) = (   0.0612906  -0.0866587   0.0000000), wk =   0.0555556
        k(   16) = (   0.0612906  -0.0541569   0.0000000), wk =   0.0555556
        k(   17) = (  -0.0919359   0.0324826   0.0000000), wk =   0.0277778
        k(   18) = (  -0.0919359   0.0649844   0.0000000), wk =   0.0555556
        k(   19) = (  -0.0919359   0.0974862   0.0000000), wk =   0.0555556
        k(   20) = (  -0.0919359  -0.0650229   0.0000000), wk =   0.0277778
        k(   21) = (   0.0000000   0.0000000   0.0000000), wk =   0.0277778
        k(   22) = (   0.0000000   0.0325018   0.0000000), wk =   0.0555556
        k(   23) = (   0.0000000   0.0650037   0.0000000), wk =   0.0555556
        k(   24) = (   0.0000000  -0.0975055   0.0000000), wk =   0.0277778
        k(   25) = (   0.0306453  -0.0108275   0.0000000), wk =   0.0555556
        k(   26) = (   0.0306453   0.0216743   0.0000000), wk =   0.0555556
        k(   27) = (   0.0306453   0.0541761   0.0000000), wk =   0.0555556
        k(   28) = (   0.0306453  -0.1083330   0.0000000), wk =   0.0555556
        k(   29) = (   0.0306453  -0.0758312   0.0000000), wk =   0.0555556
        k(   30) = (   0.0306453  -0.0433294   0.0000000), wk =   0.0555556
        k(   31) = (   0.0612906  -0.0216550   0.0000000), wk =   0.0555556
        k(   32) = (   0.0612906   0.0108468   0.0000000), wk =   0.0555556
        k(   33) = (   0.0612906   0.0433486   0.0000000), wk =   0.0555556
        k(   34) = (   0.0612906  -0.1191605   0.0000000), wk =   0.0555556
        k(   35) = (   0.0612906  -0.0866587   0.0000000), wk =   0.0555556
        k(   36) = (   0.0612906  -0.0541569   0.0000000), wk =   0.0555556
        k(   37) = (  -0.0919359   0.0324826   0.0000000), wk =   0.0277778
        k(   38) = (  -0.0919359   0.0649844   0.0000000), wk =   0.0555556
        k(   39) = (  -0.0919359   0.0974862   0.0000000), wk =   0.0555556
        k(   40) = (  -0.0919359  -0.0650229   0.0000000), wk =   0.0277778

     Largest allocated arrays     est. size (Mb)     dimensions
     Largest temporary arrays     est. size (Mb)     dimensions

     Check: negative/imaginary core charge=   -0.000003    0.000000

     Initial potential from superposition of free atoms
     Check: negative starting charge=(component1):   -0.000180
     Check: negative starting charge=(component2):   -0.000140

     starting charge  164.99996, renormalised to  180.00000

[...]

     *
     * You are using vdW-DF for exchange-correlation in this calculation.
     * Please cite the following three references that made this development
     * possible:
     *
     *   M. Dion, H. Rydberg, E. Schroder, D. C. Langreth, and
     *   B. I. Lundqvist, Phys. Rev. Lett. 92, 246401 (2004).
     *
     *   T. Thonhauser, V. R. Cooper, S. Li, A. Puzder, P. Hyldgaard, and
     *   D. C. Langreth, Phys. Rev. B 76, 125112 (2007).
     *
     *   G. Roman-Perez and J. M. Soler, Phys. Rev. Lett. 103, 096102 (2009).
     *
     *
     * If you are using vdW-DF2, please also cite:
     *
     *   K. Lee, E. D. Murray, L. Kong, B. I. Lundqvist, and
     *   D. C. Langreth, Phys. Rev. B 82, 081101(R) (2010).
     *
     *
     * If you are calculating the stress with vdW-DF, please also cite:
     *
     *   R. Sabatini, E. Kucukbenli, B. Kolb, T. Thonhauser, and
     *   S. de Gironcoli, J. Phys.: Condens. Matter 24, 424209 (2012).
     *

     Carrying out vdW-DF run using the following parameters:

     Nqs =      20    Nr_points =    1024   r_max =   100.000
     q_mesh =
               0.00001000     0.04494208     0.09755937     0.15916263
               0.23128650     0.31572767     0.41458969     0.53033537
               0.66584808     0.82450364     1.01025438     1.22772762
               1.48234092     1.78043706     2.12944203     2.53805004
               3.01644009     3.57652955     4.23227104     5.00000000

     Gradients computed in reciprocal space

[...]

     Starting wfc are  132 randomized atomic wfcs

     Self-consistent Calculation

[...]

     total energy              =   -2605.61957294 Ry
     Harris-Foulkes estimate   =   -2605.61957295 Ry
     estimated scf accuracy    <       0.00000133 Ry

[...]

     iteration # 40     ecut=    36.75 Ry     beta=0.10
     Davidson diagonalization with overlap
     ethr =  7.41E-10,  avg # of iterations =  1.4

[...]

     negative rho (up, down):  5.511E-04 4.789E-04

[...]

     Adding external electric field

     Computed dipole along edir(3) :
        Dipole                0.0278 Ry au,          0.0708 Debye
        Dipole field          0.0001 Ry au

        Potential amp.       -0.0069 Ry
        Total length         45.0307 bohr

     Magnetic moment per site:
     atom:    1    charge:    8.3006    magn:    0.6434    constr:    0.0000
     atom:    2    charge:    8.3006    magn:    0.6435    constr:    0.0000
     atom:    3    charge:    3.0698    magn:   -0.0035    constr:    0.0000
     atom:    4    charge:    3.0698    magn:   -0.0035    constr:    0.0000
     atom:    5    charge:    8.2973    magn:    0.5071    constr:    0.0000
     atom:    6    charge:    8.2973    magn:    0.5072    constr:    0.0000
     atom:    7    charge:    3.0724    magn:   -0.0045    constr:    0.0000
     atom:    8    charge:    3.0724    magn:   -0.0045    constr:    0.0000
     atom:    9    charge:    8.2986    magn:    0.5800    constr:    0.0000
     atom:   10    charge:    8.2987    magn:    0.5802    constr:    0.0000
     atom:   11    charge:    3.0676    magn:   -0.0029    constr:    0.0000
     atom:   12    charge:    3.0676    magn:   -0.0029    constr:    0.0000

     End of self-consistent calculation

 ------ SPIN UP ------------

[...]

 ------ SPIN DOWN ----------

[...]

          k = 0.0613-0.0542 0.0000 ( 17279 PWs)   bands (ev):

[...]

          k =-0.0919-0.0650 0.0000 ( 17400 PWs)   bands (ev):

   -92.9444 -92.9437 -92.8898 -92.8891 -92.8466 -92.8460 -56.3232 -56.3223
   -56.3214 -56.3086 -56.2870 -56.2833 -56.2770 -56.2759 -56.2741 -56.2615
   -56.2496 -56.2487 -56.2221 -56.2121 -56.2111 -56.2095 -56.1756 -56.1746
   -14.0554 -13.9765 -13.9733 -13.9324 -13.9275 -13.9131 -13.8752 -13.8090
   -13.7999 -13.7758 -13.7606 -13.7484 -13.7481 -13.7261 -13.7091 -13.6788
   -13.6750 -13.6746 -13.6608 -13.6595 -13.6371 -13.6222 -13.5946 -13.5914
   -13.5679 -13.5639 -13.5499 -13.4514 -13.4391 -13.3710  -6.7617  -6.5766
    -5.3010  -5.0834  -4.1101  -3.9589  -3.5710  -2.5023  -2.3769  -1.7525
    -1.4844  -1.4638  -1.2750  -0.6534  -0.5881  -0.4658  -0.2708  -0.2329
    -0.1690  -0.1672   0.0004   0.0814   0.1193   0.1346   0.1696   0.3962
     0.4053   0.4135   0.6924   0.7051   0.7108   0.7330   0.7382   0.9521
     1.0888   1.2016   1.2129   1.5299   1.6624   1.6680   1.6751   2.5011
     2.5107   3.0134   4.2856   4.3960   4.9974   5.1465   5.4848   5.7453
     5.8585   6.3555   6.4189   6.4999   6.5061   6.8462   6.8488   6.8953
     6.9667   7.4390   7.6441   7.6507   7.7362   7.8626   7.9090   8.1905

     the Fermi energy is     0.8190 ev

!    total energy              =   -2605.61957357 Ry
     Harris-Foulkes estimate   =   -2605.61957317 Ry
     estimated scf accuracy    <       0.00000067 Ry

     The total energy is the sum of the following terms:

     one-electron contribution =  -18324.84424451 Ry
     hartree contribution      =    9209.42132841 Ry
     xc contribution           =    -438.03869153 Ry
     ewald contribution        =    6947.92874655 Ry
     electric field correction =       0.00000212 Ry
     smearing contrib. (-TS)   =      -0.08671462 Ry

     total magnetization       =     6.02 Bohr mag/cell
     absolute magnetization    =     7.67 Bohr mag/cell

     convergence has been achieved in  40 iterations

 BEEF-vdW xc energy contributions
           1 :   -384.783623310807
           2 :    350.654677867367
           3 :   -292.736817670161
           4 :    226.891510177813
           5 :   -167.734153222933
           6 :    123.346972845285
           7 :   -93.8165225449326
           8 :    73.6823672414711
           9 :   -56.4227428283879
          10 :    38.2980718096973
          11 :   -19.6750918137179
          12 :    3.62755952397924
          13 :    6.80560536825351
          14 :   -10.8204157505237
          15 :    10.2586809868173
          16 :   -8.29716792003046
          17 :    7.50630232896469
          18 :   -8.59426685413507
          19 :    10.4943942803449
          20 :   -11.5235049699637
          21 :    10.6974088475185
          22 :   -8.35068653993949
          23 :    5.77261290152865
          24 :   -4.26079179132466
          25 :    4.29465167953913
          26 :   -5.35644576354912
          27 :    6.41415563360215
          28 :   -6.65763438152521
          29 :    5.96522274809968
          30 :   -4.84567105664132
          31 :   -33.8014067141213
          32 :   -24.1320036219643

     Forces acting on atoms (Ry/au):

     negative rho (up, down):  5.511E-04 4.789E-04
     atom    1 type  1   force =    -0.00001843   -0.00001310    0.01884657
     atom    2 type  1   force =    -0.00000402   -0.00000287    0.01884792
     atom    3 type  2   force =     0.00004497    0.00002393   -0.03332390
     atom    4 type  2   force =     0.00003753    0.00003451   -0.03332395
     atom    5 type  1   force =     0.00001302    0.00000926    0.01659247
     atom    6 type  1   force =     0.00000417    0.00000289    0.01658732
     atom    7 type  2   force =    -0.00002965   -0.00003102   -0.00316870
     atom    8 type  2   force =    -0.00003916   -0.00001765   -0.00316912
     atom    9 type  1   force =     0.00000001    0.00000025    0.00077238
     atom   10 type  1   force =    -0.00001987   -0.00001425    0.00082467
     atom   11 type  2   force =     0.00000342    0.00000763    0.00025709
     atom   12 type  2   force =     0.00000802    0.00000043    0.00025725

     Total force =     0.059189     Total SCF correction =     0.001689

     entering subroutine stress ...

     negative rho (up, down):  5.511E-04 4.789E-04
          total   stress  (Ry/bohr**3)                   (kbar)     P=  -11.52
  -0.00012827  -0.00001867  -0.00000006        -18.87     -2.75     -0.01
  -0.00001867  -0.00011508  -0.00000004         -2.75    -16.93     -0.01
  -0.00000006  -0.00000004   0.00000843         -0.01     -0.01      1.24

 !ASE

     Writing output data file calc.save

     General routines

     Parallel routines

   This run was terminated on:   9:42: 9  19Dec2018

   JOB DONE.
Job  /afs/slac/g/suncat/bin/suncat-tsmpirun -x LD_LIBRARY_PATH -wdir /scratch/qe529680_mmFQV pw.x -in pw.inp

TID   HOST_NAME   COMMAND_LINE            STATUS            TERMINATION_TIME
00000 suncat0044 pw.x -in pw.inp   Done                     12/19/2018 09:42:09
00001 suncat0044 pw.x -in pw.inp   Done                     12/19/2018 09:42:09
00002 suncat0044 pw.x -in pw.inp   Done                     12/19/2018 09:42:09
00003 suncat0044 pw.x -in pw.inp   Done                     12/19/2018 09:42:09
00004 suncat0044 pw.x -in pw.inp   Done                     12/19/2018 09:42:09
00005 suncat0044 pw.x -in pw.inp   Done                     12/19/2018 09:42:09
00006 suncat0044 pw.x -in pw.inp   Done                     12/19/2018 09:42:09
00007 suncat0044 pw.x -in pw.inp   Done                     12/19/2018 09:42:09
00008 suncat0043 pw.x -in pw.inp   Done                     12/19/2018 09:42:09
00009 suncat0043 pw.x -in pw.inp   Done                     12/19/2018 09:42:09
00010 suncat0043 pw.x -in pw.inp   Done                     12/19/2018 09:42:09
00011 suncat0043 pw.x -in pw.inp   Done                     12/19/2018 09:42:09
00012 suncat0043 pw.x -in pw.inp   Done                     12/19/2018 09:42:09
00013 suncat0043 pw.x -in pw.inp   Done                     12/19/2018 09:42:09
00014 suncat0043 pw.x -in pw.inp   Done                     12/19/2018 09:42:09
00015 suncat0043 pw.x -in pw.inp   Done                     12/19/2018 09:42:09
00016 suncat0042 pw.x -in pw.inp   Done                     12/19/2018 09:42:09
00017 suncat0042 pw.x -in pw.inp   Done                     12/19/2018 09:42:09
00018 suncat0042 pw.x -in pw.inp   Done                     12/19/2018 09:42:09
00019 suncat0042 pw.x -in pw.inp   Done                     12/19/2018 09:42:09
00020 suncat0042 pw.x -in pw.inp   Done                     12/19/2018 09:42:09
00021 suncat0042 pw.x -in pw.inp   Done                     12/19/2018 09:42:09
00022 suncat0042 pw.x -in pw.inp   Done                     12/19/2018 09:42:09
00023 suncat0042 pw.x -in pw.inp   Done                     12/19/2018 09:42:09
00024 suncat0041 pw.x -in pw.inp   Done                     12/19/2018 09:42:09
00025 suncat0041 pw.x -in pw.inp   Done                     12/19/2018 09:42:09
00026 suncat0041 pw.x -in pw.inp   Done                     12/19/2018 09:42:09
00027 suncat0041 pw.x -in pw.inp   Done                     12/19/2018 09:42:09
00028 suncat0041 pw.x -in pw.inp   Done                     12/19/2018 09:42:09
00029 suncat0041 pw.x -in pw.inp   Done                     12/19/2018 09:42:09
00030 suncat0041 pw.x -in pw.inp   Done                     12/19/2018 09:42:09
00031 suncat0041 pw.x -in pw.inp   Done                     12/19/2018 09:42:09