     Program PWSCF v.5.1rc2 (svn rev. 11289) starts on 19Dec2018 at  6:48:20

     Current dimensions of program PWSCF are:
     Max number of different atomic species (ntypx) = 10
     Max number of k-points (npk) =  40000
     Max angular momentum in pseudopotentials (lmaxx) =  3
     Presently stress not available with electric field

     IMPORTANT: XC functional enforced from input :
     Exchange-correlation      = BEEF-VDW ( 1  4 27 13 2)
     Any further DFT definition will be discarded
     Please, verify this is what you really want

     Subspace diagonalization in iterative solution of the eigenvalue problem:
     a serial algorithm will be used

     Found symmetry operation: I + ( -0.5000  0.5000  0.0000)
     This is a supercell, fractional translations are disabled

     bravais-lattice index     =            0
     lattice parameter (alat)  =       1.8897  a.u.
     unit-cell volume          =    6002.0706 (a.u.)^3
     number of atoms/cell      =           12
     number of atomic types    =            2
     number of electrons       =       162.00
     number of Kohn-Sham states=          111
     kinetic-energy cutoff     =      36.7493  Ry
     charge density cutoff     =     367.4932  Ry
     convergence threshold     =      1.0E-06
     mixing beta               =       0.1000
     number of iterations used =           10  plain     mixing
     Exchange-correlation      = BEEF-VDW ( 1  4 27 13 2)
     nstep                     =           50

     celldm(1)=   1.889726  celldm(2)=   0.000000  celldm(3)=   0.000000
     celldm(4)=   0.000000  celldm(5)=   0.000000  celldm(6)=   0.000000

     crystal axes: (cart. coord. in units of alat)
               a(1) = (   6.102438   0.000000   0.000000 )
               a(2) = (   1.653502   5.874154   0.000000 )
               a(3) = (   0.000000   0.000000  24.811660 )

     reciprocal axes: (cart. coord. in units 2 pi/alat)
               b(1) = (  0.163869 -0.046127  0.000000 )
               b(2) = (  0.000000  0.170237  0.000000 )
               b(3) = (  0.000000  0.000000  0.040304 )

     PseudoPot. # 1 for Ta read from file:
     /afs/slac.stanford.edu/u/if/mamunm/psp/gbrv1.5pbe/Ta.UPF
     MD5 check sum: f8bbe9446314a3b8ea5d9f3e3836c939
     Pseudo is Ultrasoft + core correction, Zval = 13.0
     Generated by new atomic code, or converted to UPF format
     Using radial grid of  921 points,  7 beta functions with:
                l(1) =   0
                l(2) =   0
                l(3) =   1
                l(4) =   1
                l(5) =   2
                l(6) =   2
                l(7) =   3
     Q(r) pseudized with  6 coefficients,  rinner =    1.300   1.300   1.300
                                                       1.300   1.300   1.300
                                                       1.300

     PseudoPot. # 2 for Pb read from file:
     /afs/slac.stanford.edu/u/if/mamunm/psp/gbrv1.5pbe/Pb.UPF
     MD5 check sum: 3d1c1779aa92214d1e8f3a7db79003e2
     Pseudo is Ultrasoft + core correction, Zval = 14.0
     Generated by new atomic code, or converted to UPF format
     Using radial grid of  899 points,  6 beta functions with:
                l(1) =   0
                l(2) =   0
                l(3) =   1
                l(4) =   1
                l(5) =   2
                l(6) =   2
     Q(r) pseudized with  6 coefficients,  rinner =    1.000   1.000   1.000
                                                       1.000   1.000

     vdW kernel table read from file vdW_kernel_table
     MD5 check sum: 095c7af220d748ca6e76c0b4c6cfb241

     atomic species   valence    mass     pseudopotential
        Ta1           13.00   180.94788     Ta( 1.00)
        Pb1           14.00   207.20000     Pb( 1.00)

     No symmetry found

   Cartesian axes

     site n.     atom                  positions (alat units)
         1           Ta1 tau(   1) = (   0.0000000   0.0000000  10.0000000  )
         2           Ta1 tau(   2) = (   3.8779702   2.9370768  10.0000000  )
         3           Pb1 tau(   3) = (   3.0512190   0.0000000  10.0000000  )
         4           Pb1 tau(   4) = (   0.8267512   2.9370768  10.0000000  )
         5           Ta1 tau(   5) = (   6.1024381   4.6218326  12.4058300  )
         6           Ta1 tau(   6) = (   2.2244679   1.6847558  12.4058300  )
         7           Pb1 tau(   7) = (   3.0512190   4.6218326  12.4058300  )
         8           Pb1 tau(   8) = (   5.2756869   1.6847558  12.4058300  )
         9           Ta1 tau(   9) = (   4.4489357   3.3695117  14.8116600  )
        10           Ta1 tau(  10) = (   0.5709655   0.4324349  14.8116600  )
        11           Pb1 tau(  11) = (   1.3977167   3.3695117  14.8116600  )
        12           Pb1 tau(  12) = (   3.6221845   0.4324349  14.8116600  )

     number of k points=    20  Fermi-Dirac smearing, width (Ry)=  0.0110
                       cart. coord. in units 2pi/alat
        k(    1) = (   0.0000000   0.0000000   0.0000000), wk =   0.0555556
        k(    2) = (   0.0000000   0.0283729   0.0000000), wk =   0.1111111
        k(    3) = (   0.0000000   0.0567458   0.0000000), wk =   0.1111111
        k(    4) = (   0.0000000  -0.0851186   0.0000000), wk =   0.0555556
        k(    5) = (   0.0273115  -0.0076878   0.0000000), wk =   0.1111111
        k(    6) = (   0.0273115   0.0206850   0.0000000), wk =   0.1111111
        k(    7) = (   0.0273115   0.0490579   0.0000000), wk =   0.1111111
        k(    8) = (   0.0273115  -0.0928065   0.0000000), wk =   0.1111111
        k(    9) = (   0.0273115  -0.0644336   0.0000000), wk =   0.1111111
        k(   10) = (   0.0273115  -0.0360607   0.0000000), wk =   0.1111111
        k(   11) = (   0.0546230  -0.0153757   0.0000000), wk =   0.1111111
        k(   12) = (   0.0546230   0.0129972   0.0000000), wk =   0.1111111
        k(   13) = (   0.0546230   0.0413701   0.0000000), wk =   0.1111111
        k(   14) = (   0.0546230  -0.1004943   0.0000000), wk =   0.1111111
        k(   15) = (   0.0546230  -0.0721215   0.0000000), wk =   0.1111111
        k(   16) = (   0.0546230  -0.0437486   0.0000000), wk =   0.1111111
        k(   17) = (  -0.0819345   0.0230635   0.0000000), wk =   0.0555556
        k(   18) = (  -0.0819345   0.0514364   0.0000000), wk =   0.1111111
        k(   19) = (  -0.0819345   0.0798093   0.0000000), wk =   0.1111111
        k(   20) = (  -0.0819345  -0.0620551   0.0000000), wk =   0.0555556

     Largest allocated arrays     est. size (Mb)     dimensions
     Largest temporary arrays     est. size (Mb)     dimensions

     Initial potential from superposition of free atoms
     Check: negative starting charge=   -0.669802

     starting charge  161.97922, renormalised to  162.00000

     negative rho (up, down):  6.699E-01 0.000E+00

     *
     * You are using vdW-DF for exchange-correlation in this calculation.
     * Please cite the following three references that made this development
     * possible:
     *
     *   M. Dion, H. Rydberg, E. Schroder, D. C. Langreth, and
     *   B. I. Lundqvist, Phys. Rev. Lett. 92, 246401 (2004).
     *
     *   T. Thonhauser, V. R. Cooper, S. Li, A. Puzder, P. Hyldgaard, and
     *   D. C. Langreth, Phys. Rev. B 76, 125112 (2007).
     *
     *   G. Roman-Perez and J. M. Soler, Phys. Rev. Lett. 103, 096102 (2009).
     *
     *
     * If you are using vdW-DF2, please also cite:
     *
     *   K. Lee, E. D. Murray, L. Kong, B. I. Lundqvist, and
     *   D. C. Langreth, Phys. Rev. B 82, 081101(R) (2010).
     *
     *
     * If you are calculating the stress with vdW-DF, please also cite:
     *
     *   R. Sabatini, E. Kucukbenli, B. Kolb, T. Thonhauser, and
     *   S. de Gironcoli, J. Phys.: Condens. Matter 24, 424209 (2012).
     *

     Carrying out vdW-DF run using the following parameters:

     Nqs =      20    Nr_points =    1024   r_max =   100.000
     q_mesh =
               0.00001000     0.04494208     0.09755937     0.15916263
               0.23128650     0.31572767     0.41458969     0.53033537
               0.66584808     0.82450364     1.01025438     1.22772762
               1.48234092     1.78043706     2.12944203     2.53805004
               3.01644009     3.57652955     4.23227104     5.00000000

     Gradients computed in reciprocal space

     Adding external electric field

     Computed dipole along edir(3) :
        Dipole               -0.0000 Ry au,         -0.0000 Debye
        Dipole field         -0.0000 Ry au

        Potential amp.        0.0000 Ry
        Total length         45.7151 bohr

     Starting wfc are  132 randomized atomic wfcs

     Self-consistent Calculation

     iteration #  1     ecut=    36.75 Ry     beta=0.10
     Davidson diagonalization with overlap
     ethr =  1.00E-02,  avg # of iterations =  2.8

[...]

     total energy              =   -1854.50728710 Ry
     Harris-Foulkes estimate   =   -1854.81147126 Ry
     estimated scf accuracy    <       1.81770467 Ry

[...]

     End of self-consistent calculation

          k = 0.0000 0.0000 0.0000 ( 22571 PWs)   bands (ev):

   -67.3308 -67.3307 -67.3295 -67.3294 -67.0767 -67.0753 -33.7076 -33.7073
   -33.7044 -33.6986 -33.6599 -33.6594 -33.6041 -33.6040 -33.5749 -33.5713
   -33.5471 -33.5438 -33.4510 -33.4457 -33.4418 -33.3820 -33.2784 -33.2711
   -15.5653 -15.5020 -15.5011 -15.4831 -15.4399 -15.4259 -15.4248 -15.4043
   -15.3558 -15.2668 -15.2300 -15.2299 -15.2061 -15.1988 -15.1875 -15.1824
   -15.1634 -15.1633 -15.1605 -15.1473 -15.1450 -15.1347 -15.1314 -15.1282
   -15.1276 -15.1245 -15.0521 -15.0243 -15.0119 -14.9891  -9.5022  -7.9137
    -7.2642  -6.5323  -6.5037  -6.1369  -2.1843  -1.9209  -1.2597  -1.1212
    -0.9976  -0.8342  -0.5890  -0.2060  -0.1468   0.0083   0.2949   0.4322
     0.4407   0.9248   1.0240   1.0431   1.3343   1.4037   1.6452   1.6850
     1.7465   1.7640   1.7934   2.1284   2.1547   2.2866   2.6481   2.7438
     2.7951   2.8048   3.1167   3.4730   3.5290   3.5459   3.5471   3.6377
     3.7009   4.0983   4.2270   4.2395   4.3845   4.3847   4.3886   4.4386
     4.5419   4.6149   5.2022   5.3345   5.7803   5.9332   5.9502

[...]

          k =-0.0819 0.0231 0.0000 ( 22560 PWs)   bands (ev):

[...]

     the Fermi energy is     1.7963 ev

!    total energy              =   -1854.63746710 Ry
     Harris-Foulkes estimate   =   -1854.63754790 Ry
     estimated scf accuracy    <       0.00000024 Ry

     The total energy is the sum of the following terms:

     one-electron contribution =  -10647.24713002 Ry
     hartree contribution      =    5350.07681738 Ry
     xc contribution           =    -653.37703817 Ry
     ewald contribution        =    4095.98356267 Ry
     electric field correction =       0.00000000 Ry
     smearing contrib. (-TS)   =      -0.07367897 Ry

     convergence has been achieved in  15 iterations

 BEEF-vdW xc energy contributions
           1 :   -579.776208027174
           2 :    537.683001851605
           3 :   -463.586092577075
           4 :    373.777125238679
           5 :   -285.047637829657
           6 :    209.643363675710
           7 :   -152.692164288210
           8 :    112.685333921988
           9 :   -84.2540566000287
[...]

[...]

   This run was terminated on:   7: 6:18  19Dec2018

[...]

     Program PWSCF v.5.1rc2 (svn rev. 11289) starts on 19Dec2018 at  7: 6:24

[...]

   This run was terminated on:   7:12:17  19Dec2018

[...]

   This run was terminated on:   7:36: 3  19Dec2018

[...]

     Program PWSCF v.5.1rc2 (svn rev. 11289) starts on 19Dec2018 at  7:36:10

[...]

     Program PWSCF v.5.1rc2 (svn rev. 11289) starts on 19Dec2018 at  7:48: 3

     Current dimensions of program PWSCF are:
     Max number of different atomic species (ntypx) = 10
     Max number of k-points (npk) =  40000
     Max angular momentum in pseudopotentials (lmaxx) =  3
     Presently stress not available with electric field

     IMPORTANT: XC functional enforced from input :
     Exchange-correlation      = BEEF-VDW ( 1  4 27 13 2)
     Any further DFT definition will be discarded
     Please, verify this is what you really want

     Subspace diagonalization in iterative solution of the eigenvalue problem:
     a serial algorithm will be used

     Found symmetry operation: I + ( -0.5000  0.5000  0.0000)
     This is a supercell, fractional translations are disabled

     bravais-lattice index     =            0
     lattice parameter (alat)  =       1.8897  a.u.
     unit-cell volume          =    6002.0706 (a.u.)^3
     number of atoms/cell      =           12
     number of atomic types    =            2
     number of electrons       =       162.00
     number of Kohn-Sham states=          111
     kinetic-energy cutoff     =      36.7493  Ry
     charge density cutoff     =     367.4932  Ry
     convergence threshold     =      1.0E-06
     mixing beta               =       0.1000
     number of iterations used =           10  plain     mixing
     Exchange-correlation      = BEEF-VDW ( 1  4 27 13 2)
     nstep                     =           50

     celldm(1)=   1.889726  celldm(2)=   0.000000  celldm(3)=   0.000000
     celldm(4)=   0.000000  celldm(5)=   0.000000  celldm(6)=   0.000000

     crystal axes: (cart. coord. in units of alat)
               a(1) = (   6.102438   0.000000   0.000000 )
               a(2) = (   1.653502   5.874154   0.000000 )
               a(3) = (   0.000000   0.000000  24.811660 )

     reciprocal axes: (cart. coord. in units 2 pi/alat)
               b(1) = (  0.163869 -0.046127  0.000000 )
               b(2) = (  0.000000  0.170237  0.000000 )
               b(3) = (  0.000000  0.000000  0.040304 )

     PseudoPot. # 1 for Ta read from file:
     /afs/slac.stanford.edu/u/if/mamunm/psp/gbrv1.5pbe/Ta.UPF
     MD5 check sum: f8bbe9446314a3b8ea5d9f3e3836c939
     Pseudo is Ultrasoft + core correction, Zval = 13.0
     Generated by new atomic code, or converted to UPF format
     Using radial grid of  921 points,  7 beta functions with:
                l(1) =   0
                l(2) =   0
                l(3) =   1
                l(4) =   1
                l(5) =   2
                l(6) =   2
                l(7) =   3
     Q(r) pseudized with  6 coefficients,  rinner =    1.300   1.300   1.300
                                                       1.300   1.300   1.300
                                                       1.300

     PseudoPot. # 2 for Pb read from file:
     /afs/slac.stanford.edu/u/if/mamunm/psp/gbrv1.5pbe/Pb.UPF
     MD5 check sum: 3d1c1779aa92214d1e8f3a7db79003e2
     Pseudo is Ultrasoft + core correction, Zval = 14.0
     Generated by new atomic code, or converted to UPF format
     Using radial grid of  899 points,  6 beta functions with:
                l(1) =   0
                l(2) =   0
                l(3) =   1
                l(4) =   1
                l(5) =   2
                l(6) =   2
     Q(r) pseudized with  6 coefficients,  rinner =    1.000   1.000   1.000
                                                       1.000   1.000

     vdW kernel table read from file vdW_kernel_table
     MD5 check sum: 095c7af220d748ca6e76c0b4c6cfb241

     atomic species   valence    mass     pseudopotential
        Ta1           13.00   180.94788     Ta( 1.00)
        Pb1           14.00   207.20000     Pb( 1.00)

     No symmetry found

   Cartesian axes

     site n.     atom                  positions (alat units)
         1           Ta1 tau(   1) = (   0.0000000   0.0000000  10.0000000  )
         2           Ta1 tau(   2) = (   3.8779702   2.9370768  10.0000000  )
         3           Pb1 tau(   3) = (   3.0512190   0.0000000  10.0000000  )
         4           Pb1 tau(   4) = (   0.8267512   2.9370768  10.0000000  )
         5           Ta1 tau(   5) = (   6.1024381   4.6218326  12.4058300  )
         6           Ta1 tau(   6) = (   2.2244679   1.6847558  12.4058300  )
         7           Pb1 tau(   7) = (   3.0512190   4.6218326  12.4058300  )
         8           Pb1 tau(   8) = (   5.2756869   1.6847558  12.4058300  )
         9           Ta1 tau(   9) = (   4.6953007   3.5560910  14.5403157  )
        10           Ta1 tau(  10) = (   0.8173344   0.6190129  14.5403256  )
        11           Pb1 tau(  11) = (   1.5616488   3.4936590  15.1968438  )
        12           Pb1 tau(  12) = (   3.7861167   0.5565997  15.1967635  )

     number of k points=    20  Fermi-Dirac smearing, width (Ry)=  0.0110
                       cart. coord. in units 2pi/alat
        k(    1) = (   0.0000000   0.0000000   0.0000000), wk =   0.0555556
        k(    2) = (   0.0000000   0.0283729   0.0000000), wk =   0.1111111
        k(    3) = (   0.0000000   0.0567458   0.0000000), wk =   0.1111111
        k(    4) = (   0.0000000  -0.0851186   0.0000000), wk =   0.0555556
        k(    5) = (   0.0273115  -0.0076878   0.0000000), wk =   0.1111111
        k(    6) = (   0.0273115   0.0206850   0.0000000), wk =   0.1111111
        k(    7) = (   0.0273115   0.0490579   0.0000000), wk =   0.1111111
        k(    8) = (   0.0273115  -0.0928065   0.0000000), wk =   0.1111111
        k(    9) = (   0.0273115  -0.0644336   0.0000000), wk =   0.1111111
        k(   10) = (   0.0273115  -0.0360607   0.0000000), wk =   0.1111111
        k(   11) = (   0.0546230  -0.0153757   0.0000000), wk =   0.1111111
        k(   12) = (   0.0546230   0.0129972   0.0000000), wk =   0.1111111
        k(   13) = (   0.0546230   0.0413701   0.0000000), wk =   0.1111111
        k(   14) = (   0.0546230  -0.1004943   0.0000000), wk =   0.1111111
        k(   15) = (   0.0546230  -0.0721215   0.0000000), wk =   0.1111111
        k(   16) = (   0.0546230  -0.0437486   0.0000000), wk =   0.1111111
        k(   17) = (  -0.0819345   0.0230635   0.0000000), wk =   0.0555556
        k(   18) = (  -0.0819345   0.0514364   0.0000000), wk =   0.1111111
        k(   19) = (  -0.0819345   0.0798093   0.0000000), wk =   0.1111111
        k(   20) = (  -0.0819345  -0.0620551   0.0000000), wk =   0.0555556

     Largest allocated arrays     est. size (Mb)     dimensions
     Largest temporary arrays     est. size (Mb)     dimensions

     Initial potential from superposition of free atoms
     Check: negative starting charge=   -0.665653

     starting charge  161.97922, renormalised to  162.00000

[...]

     *
     * You are using vdW-DF for exchange-correlation in this calculation.
     * Please cite the following three references that made this development
     * possible:
     *
     *   M. Dion, H. Rydberg, E. Schroder, D. C. Langreth, and
     *   B. I. Lundqvist, Phys. Rev. Lett. 92, 246401 (2004).
     *
     *   T. Thonhauser, V. R. Cooper, S. Li, A. Puzder, P. Hyldgaard, and
     *   D. C. Langreth, Phys. Rev. B 76, 125112 (2007).
     *
     *   G. Roman-Perez and J. M. Soler, Phys. Rev. Lett. 103, 096102 (2009).
     *
     *
     * If you are using vdW-DF2, please also cite:
     *
     *   K. Lee, E. D. Murray, L. Kong, B. I. Lundqvist, and
     *   D. C. Langreth, Phys. Rev. B 82, 081101(R) (2010).
     *
     *
     * If you are calculating the stress with vdW-DF, please also cite:
     *
     *   R. Sabatini, E. Kucukbenli, B. Kolb, T. Thonhauser, and
     *   S. de Gironcoli, J. Phys.: Condens. Matter 24, 424209 (2012).
     *

     Carrying out vdW-DF run using the following parameters:

     Nqs =      20    Nr_points =    1024   r_max =   100.000
     q_mesh =
               0.00001000     0.04494208     0.09755937     0.15916263
               0.23128650     0.31572767     0.41458969     0.53033537
               0.66584808     0.82450364     1.01025438     1.22772762
               1.48234092     1.78043706     2.12944203     2.53805004
               3.01644009     3.57652955     4.23227104     5.00000000

     Gradients computed in reciprocal space

[...]

     Starting wfc are  132 randomized atomic wfcs

     Self-consistent Calculation

[...]

     total energy              =   -1854.72360595 Ry
     Harris-Foulkes estimate   =   -1854.72358775 Ry
     estimated scf accuracy    <       0.00000154 Ry

     iteration # 16     ecut=    36.75 Ry     beta=0.10
     Davidson diagonalization with overlap
     ethr =  9.51E-10,  avg # of iterations =  5.1

[...]

     negative rho (up, down):  7.017E-01 0.000E+00

     Adding external electric field

     Computed dipole along edir(3) :
        Dipole                0.0151 Ry au,          0.0383 Debye
        Dipole field          0.0000 Ry au

        Potential amp.       -0.0029 Ry
        Total length         45.7151 bohr

     End of self-consistent calculation

[...]

          k = 0.0546-0.0437 0.0000 ( 22549 PWs)   bands (ev):

[...]

          k =-0.0819-0.0621 0.0000 ( 22652 PWs)   bands (ev):

   -67.3530 -67.3517 -67.0368 -67.0357 -66.9607 -66.9592 -33.7374 -33.7302
   -33.6811 -33.6249 -33.5861 -33.5778 -33.4827 -33.4662 -33.4556 -33.4084
   -33.3978 -33.3948 -33.3700 -33.3526 -33.3462 -33.3144 -32.9398 -32.9368
   -15.5293 -15.4956 -15.4788 -15.4512 -15.4424 -15.4286 -15.4208 -15.3960
   -15.3802 -15.2704 -15.2451 -15.2155 -15.1914 -15.1909 -15.1773 -15.1756
   -15.1706 -15.1573 -15.1526 -15.1482 -15.1393 -15.1348 -15.1295 -15.1279
   -15.1276 -15.1193 -15.0998 -15.0475 -15.0378 -15.0198  -8.1476  -7.5212
    -7.4661  -6.7766  -6.2101  -5.1651  -3.9824  -3.8267  -2.9371  -2.2329
    -1.7901  -1.7816  -1.7229  -1.1090  -0.4266   0.1444   0.1983   0.2529
     0.3318   0.4040   0.4173   0.8835   0.8930   1.4052   1.5551   1.8073
     1.8389   2.1085   2.1459   2.2162   2.5259   2.6082   2.7739   2.8841
     3.0257   3.3853   3.4291   3.7383   3.9265   3.9338   3.9948   4.0585
     4.2128   4.2712   4.5626   5.0124   5.2415   5.2920   5.9592   6.1624
     6.3570   6.3610   6.5160   6.7004   6.9789   7.0045   7.1002

     the Fermi energy is     1.7889 ev

!    total energy              =   -1854.72354130 Ry
     Harris-Foulkes estimate   =   -1854.72360634 Ry
     estimated scf accuracy    <       0.00000058 Ry

     The total energy is the sum of the following terms:

     one-electron contribution =  -10523.73796724 Ry
     hartree contribution      =    5288.52696522 Ry
     xc contribution           =    -653.40821088 Ry
     ewald contribution        =    4033.96817791 Ry
     electric field correction =       0.00000047 Ry
     smearing contrib. (-TS)   =      -0.07250679 Ry

     convergence has been achieved in  16 iterations

 BEEF-vdW xc energy contributions
           1 :   -579.801466234593
           2 :    537.662580527120
           3 :   -463.506812216872
           4 :    373.655637218239
           5 :   -284.904035470130
           6 :    209.479379092405
           7 :   -152.485453551379
           8 :    112.399533348956
           9 :   -83.8607637967425
          10 :    61.1322819336689
          11 :   -40.6267198084905
          12 :    21.6348786056888
          13 :   -5.42988241701016
          14 :   -6.35423050981069
          15 :    13.0523590472811
          16 :   -15.4105799216153
          17 :    15.1490927936140
          18 :   -14.0971908290620
          19 :    13.4457824382472
          20 :   -13.4649144913400
          21 :    13.7167472897995
          22 :   -13.5463233102968
          23 :    12.5465207207004
          24 :   -10.7801013145662
          25 :    8.71143372854476
          26 :   -6.94883145208280
          27 :    5.95583607978404
          28 :   -5.86393574490171
          29 :    6.44633495659889
          30 :   -7.23907573348481
          31 :   -48.4312894206449
          32 :   -35.7748423294561

     Forces acting on atoms (Ry/au):

     negative rho (up, down):  7.017E-01 0.000E+00
     atom    1 type  1   force =    -0.00582647   -0.00441263    0.05864021
     atom    2 type  1   force =    -0.00582588   -0.00441207    0.05864172
     atom    3 type  2   force =     0.00672113    0.00509266   -0.05642756
     atom    4 type  2   force =     0.00672791    0.00509312   -0.05641742
     atom    5 type  1   force =     0.00950097    0.00719447    0.01040247
     atom    6 type  1   force =     0.00950918    0.00720286    0.01039828
     atom    7 type  2   force =    -0.01082176   -0.00818405   -0.01277779
     atom    8 type  2   force =    -0.01080144   -0.00819576   -0.01278282
     atom    9 type  1   force =     0.00014957    0.00011549   -0.00019624
     atom   10 type  1   force =     0.00014840    0.00011475   -0.00019601
     atom   11 type  2   force =     0.00025831    0.00019689    0.00035310
     atom   12 type  2   force =     0.00026006    0.00019427    0.00036206

     Total force =     0.121200     Total SCF correction =     0.004889

     entering subroutine stress ...

     negative rho (up, down):  7.017E-01 0.000E+00
          total   stress  (Ry/bohr**3)                   (kbar)     P=  -16.77
  -0.00016198  -0.00000610  -0.00000007        -23.83     -0.90     -0.01
  -0.00000610  -0.00015854  -0.00000005         -0.90    -23.32     -0.01
  -0.00000007  -0.00000005  -0.00002156         -0.01     -0.01     -3.17

 !ASE

     Writing output data file calc.save

     General routines

     Parallel routines

   This run was terminated on:   7:53:54  19Dec2018

   JOB DONE.
Job  /afs/slac/g/suncat/bin/suncat-tsmpirun -x LD_LIBRARY_PATH -wdir /scratch/qe530627_jnIEX pw.x -in pw.inp

TID   HOST_NAME   COMMAND_LINE            STATUS            TERMINATION_TIME
00000 suncat2056 pw.x -in pw.inp   Done                     12/19/2018 07:53:54
00001 suncat2056 pw.x -in pw.inp   Done                     12/19/2018 07:53:54
00002 suncat2056 pw.x -in pw.inp   Done                     12/19/2018 07:53:54
00003 suncat2056 pw.x -in pw.inp   Done                     12/19/2018 07:53:54
00004 suncat2056 pw.x -in pw.inp   Done                     12/19/2018 07:53:54
00005 suncat2056 pw.x -in pw.inp   Done                     12/19/2018 07:53:54
00006 suncat2056 pw.x -in pw.inp   Done                     12/19/2018 07:53:54
00007 suncat2056 pw.x -in pw.inp   Done                     12/19/2018 07:53:54
00008 suncat2056 pw.x -in pw.inp   Done                     12/19/2018 07:53:54
00009 suncat2056 pw.x -in pw.inp   Done                     12/19/2018 07:53:54
00010 suncat2056 pw.x -in pw.inp   Done                     12/19/2018 07:53:54
00011 suncat2056 pw.x -in pw.inp   Done                     12/19/2018 07:53:54
00012 suncat2056 pw.x -in pw.inp   Done                     12/19/2018 07:53:54
00013 suncat2056 pw.x -in pw.inp   Done                     12/19/2018 07:53:54
00014 suncat2056 pw.x -in pw.inp   Done                     12/19/2018 07:53:54
00015 suncat2056 pw.x -in pw.inp   Done                     12/19/2018 07:53:54
00016 suncat2055 pw.x -in pw.inp   Done                     12/19/2018 07:53:54
00017 suncat2055 pw.x -in pw.inp   Done                     12/19/2018 07:53:54
00018 suncat2055 pw.x -in pw.inp   Done                     12/19/2018 07:53:54
00019 suncat2055 pw.x -in pw.inp   Done                     12/19/2018 07:53:54
00020 suncat2055 pw.x -in pw.inp   Done                     12/19/2018 07:53:54
00021 suncat2055 pw.x -in pw.inp   Done                     12/19/2018 07:53:54
00022 suncat2055 pw.x -in pw.inp   Done                     12/19/2018 07:53:54
00023 suncat2055 pw.x -in pw.inp   Done                     12/19/2018 07:53:54
00024 suncat2055 pw.x -in pw.inp   Done                     12/19/2018 07:53:54
00025 suncat2055 pw.x -in pw.inp   Done                     12/19/2018 07:53:54
00026 suncat2055 pw.x -in pw.inp   Done                     12/19/2018 07:53:54
00027 suncat2055 pw.x -in pw.inp   Done                     12/19/2018 07:53:54
00028 suncat2055 pw.x -in pw.inp   Done                     12/19/2018 07:53:54
00029 suncat2055 pw.x -in pw.inp   Done                     12/19/2018 07:53:54
00030 suncat2055 pw.x -in pw.inp   Done                     12/19/2018 07:53:54
00031 suncat2055 pw.x -in pw.inp   Done                     12/19/2018 07:53:54