     Program PWSCF v.5.1rc2 (svn rev. 11289) starts on 18Dec2018 at 18:51:49

     Current dimensions of program PWSCF are:
     Max number of different atomic species (ntypx) = 10
     Max number of k-points (npk) =  40000
     Max angular momentum in pseudopotentials (lmaxx) =  3
     Presently stress not available with electric field

     IMPORTANT: XC functional enforced from input :
     Exchange-correlation      = BEEF-VDW ( 1  4 27 13 2)
     Any further DFT definition will be discarded
     Please, verify this is what you really want

     Subspace diagonalization in iterative solution of the eigenvalue problem:
     a serial algorithm will be used

     Found symmetry operation: I + (  0.5000 -0.5000  0.0000)
     This is a supercell, fractional translations are disabled

     bravais-lattice index     =            0
     lattice parameter (alat)  =       1.8897  a.u.
     unit-cell volume          =    5661.7465 (a.u.)^3
     number of atoms/cell      =           12
     number of atomic types    =            2
     number of electrons       =       168.00
     number of Kohn-Sham states=          114
     kinetic-energy cutoff     =      36.7493  Ry
     charge density cutoff     =     367.4932  Ry
     convergence threshold     =      1.0E-06
     mixing beta               =       0.1000
     number of iterations used =           10  plain     mixing
     Exchange-correlation      = BEEF-VDW ( 1  4 27 13 2)
     nstep                     =           50

     celldm(1)=   1.889726  celldm(2)=   0.000000  celldm(3)=   0.000000
     celldm(4)=   0.000000  celldm(5)=   0.000000  celldm(6)=   0.000000

     crystal axes: (cart. coord. in units of alat)
               a(1) = (   5.966663   0.000000   0.000000 )
               a(2) = (   1.882839   5.661801   0.000000 )
               a(3) = (   0.000000   0.000000  24.835204 )

     reciprocal axes: (cart. coord. in units 2 pi/alat)
               b(1) = (  0.167598 -0.055735  0.000000 )
               b(2) = (  0.000000  0.176622  0.000000 )
               b(3) = (  0.000000  0.000000  0.040265 )

     PseudoPot. # 1 for Mo read from file:
     /afs/slac.stanford.edu/u/if/mamunm/psp/gbrv1.5pbe/Mo.UPF
     MD5 check sum: 30c4dcd161f5d35cd49bb5239c51a633
     Pseudo is Ultrasoft + core correction, Zval = 14.0
     Generated by new atomic code, or converted to UPF format
     Using radial grid of  889 points,  6 beta functions with:
                l(1) =   0
                l(2) =   0
                l(3) =   1
                l(4) =   1
                l(5) =   2
                l(6) =   2
     Q(r) pseudized with  6 coefficients,  rinner =    1.000   1.000   1.000
                                                       1.000   1.000

     PseudoPot. # 2 for Pb read from file:
     /afs/slac.stanford.edu/u/if/mamunm/psp/gbrv1.5pbe/Pb.UPF
     MD5 check sum: 3d1c1779aa92214d1e8f3a7db79003e2
     Pseudo is Ultrasoft + core correction, Zval = 14.0
     Generated by new atomic code, or converted to UPF format
     Using radial grid of  899 points,  6 beta functions with:
                l(1) =   0
                l(2) =   0
                l(3) =   1
                l(4) =   1
                l(5) =   2
                l(6) =   2
     Q(r) pseudized with  6 coefficients,  rinner =    1.000   1.000   1.000
                                                       1.000   1.000

     vdW kernel table read from file vdW_kernel_table
     MD5 check sum: 095c7af220d748ca6e76c0b4c6cfb241

     atomic species   valence    mass     pseudopotential
        Mo1           14.00    95.95000     Mo( 1.00)
        Pb1           14.00   207.20000     Pb( 1.00)

     No symmetry found

   Cartesian axes

     site n.     atom                  positions (alat units)
         1           Mo1 tau(   1) = (   0.0000000   0.0000000  10.0000000  )
         2           Mo1 tau(   2) = (   3.9247511   2.8309003  10.0000000  )
         3           Pb1 tau(   3) = (   2.9833315   0.0000000  10.0000000  )
         4           Pb1 tau(   4) = (   0.9414195   2.8309003  10.0000000  )
         5           Mo1 tau(   5) = (   5.9666631   4.3037196  12.4176020  )
         6           Mo1 tau(   6) = (   2.0419120   1.4728193  12.4176020  )
         7           Pb1 tau(   7) = (   2.9833315   4.3037196  12.4176020  )
         8           Pb1 tau(   8) = (   5.0252436   1.4728193  12.4176020  )
         9           Mo1 tau(   9) = (   4.0838240   2.9456386  14.8352041  )
        10           Mo1 tau(  10) = (   0.1590729   0.1147384  14.8352041  )
        11           Pb1 tau(  11) = (   1.1004925   2.9456386  14.8352041  )
        12           Pb1 tau(  12) = (   3.1424045   0.1147384  14.8352041  )

     number of k points=    20  Fermi-Dirac smearing, width (Ry)=  0.0110
                       cart. coord. in units 2pi/alat
        k(    1) = (   0.0000000   0.0000000   0.0000000), wk =   0.0555556
        k(    2) = (   0.0000000   0.0294370   0.0000000), wk =   0.1111111
        k(    3) = (   0.0000000   0.0588741   0.0000000), wk =   0.1111111
        k(    4) = (   0.0000000  -0.0883111   0.0000000), wk =   0.0555556
        k(    5) = (   0.0279330  -0.0092891   0.0000000), wk =   0.1111111
        k(    6) = (   0.0279330   0.0201479   0.0000000), wk =   0.1111111
        k(    7) = (   0.0279330   0.0495849   0.0000000), wk =   0.1111111
        k(    8) = (   0.0279330  -0.0976003   0.0000000), wk =   0.1111111
        k(    9) = (   0.0279330  -0.0681632   0.0000000), wk =   0.1111111
        k(   10) = (   0.0279330  -0.0387262   0.0000000), wk =   0.1111111
        k(   11) = (   0.0558660  -0.0185783   0.0000000), wk =   0.1111111
        k(   12) = (   0.0558660   0.0108587   0.0000000), wk =   0.1111111
        k(   13) = (   0.0558660   0.0402958   0.0000000), wk =   0.1111111
        k(   14) = (   0.0558660  -0.1068894   0.0000000), wk =   0.1111111
        k(   15) = (   0.0558660  -0.0774524   0.0000000), wk =   0.1111111
        k(   16) = (   0.0558660  -0.0480153   0.0000000), wk =   0.1111111
        k(   17) = (  -0.0837989   0.0278674   0.0000000), wk =   0.0555556
        k(   18) = (  -0.0837989   0.0573045   0.0000000), wk =   0.1111111
        k(   19) = (  -0.0837989   0.0867415   0.0000000), wk =   0.1111111
        k(   20) = (  -0.0837989  -0.0604437   0.0000000), wk =   0.0555556

     Largest allocated arrays     est. size (Mb)     dimensions
     Largest temporary arrays     est. size (Mb)     dimensions

     Check: negative/imaginary core charge=   -0.000001    0.000000

     Initial potential from superposition of free atoms
     Check: negative starting charge=   -0.102217

     starting charge  167.97951, renormalised to  168.00000

     negative rho (up, down):  1.022E-01 0.000E+00

     *
     * You are using vdW-DF for exchange-correlation in this calculation.
     * Please cite the following three references that made this development
     * possible:
     *
     *   M. Dion, H. Rydberg, E. Schroder, D. C. Langreth, and
     *   B. I. Lundqvist, Phys. Rev. Lett. 92, 246401 (2004).
     *
     *   T. Thonhauser, V. R. Cooper, S. Li, A. Puzder, P. Hyldgaard, and
     *   D. C. Langreth, Phys. Rev. B 76, 125112 (2007).
     *
     *   G. Roman-Perez and J. M. Soler, Phys. Rev. Lett. 103, 096102 (2009).
     *
     *
     * If you are using vdW-DF2, please also cite:
     *
     *   K. Lee, E. D. Murray, L. Kong, B. I. Lundqvist, and
     *   D. C. Langreth, Phys. Rev. B 82, 081101(R) (2010).
     *
     *
     * If you are calculating the stress with vdW-DF, please also cite:
     *
     *   R. Sabatini, E. Kucukbenli, B. Kolb, T. Thonhauser, and
     *   S. de Gironcoli, J. Phys.: Condens. Matter 24, 424209 (2012).
     *

     Carrying out vdW-DF run using the following parameters:

     Nqs =      20    Nr_points =    1024   r_max =   100.000
     q_mesh =
               0.00001000     0.04494208     0.09755937     0.15916263
               0.23128650     0.31572767     0.41458969     0.53033537
               0.66584808     0.82450364     1.01025438     1.22772762
               1.48234092     1.78043706     2.12944203     2.53805004
               3.01644009     3.57652955     4.23227104     5.00000000

     Gradients computed in reciprocal space

     Adding external electric field

     Computed dipole along edir(3) :
        Dipole               -0.0000 Ry au,         -0.0001 Debye
        Dipole field         -0.0000 Ry au

        Potential amp.        0.0000 Ry
        Total length         45.7584 bohr

     Starting wfc are  132 randomized atomic wfcs

     Self-consistent Calculation

     iteration #  1     ecut=    36.75 Ry     beta=0.10
     Davidson diagonalization with overlap
     ethr =  1.00E-02,  avg # of iterations =  3.0

[...]

     total energy              =   -1834.89500041 Ry
     Harris-Foulkes estimate   =   -1835.47298778 Ry
     estimated scf accuracy    <       3.27426298 Ry

[...]

     End of self-consistent calculation

          k = 0.0000 0.0000 0.0000 ( 21247 PWs)   bands (ev):

   -59.2668 -59.2660 -59.2613 -59.2613 -59.2364 -59.2322 -33.3917 -33.3908
   -33.3796 -33.3660 -33.3515 -33.3387 -33.3300 -33.3094 -33.3093 -33.3051
   -33.2983 -33.2950 -33.2729 -33.2639 -33.2570 -33.2403 -33.2176 -33.2082
   -15.3827 -15.3465 -15.3268 -15.3077 -15.3020 -15.2630 -15.2565 -15.2358
   -15.2151 -15.1989 -15.1969 -15.1675 -15.1597 -15.1504 -15.1454 -15.1394
   -15.0862 -15.0847 -15.0840 -15.0660 -15.0564 -15.0562 -15.0557 -15.0528
   -15.0521 -15.0469 -14.9547 -14.9351 -14.9329 -14.8955  -9.1181  -7.7139
    -6.5999  -6.5668  -6.1410  -6.0855  -1.6920  -1.4917  -0.9030  -0.7921
    -0.7419  -0.6173  -0.4696  -0.2268   0.1167   0.3043   0.3241   0.3961
     0.4621   0.8856   0.9976   1.0040   1.0369   1.1187   1.4036   1.4856
     1.5874   1.6006   1.6086   1.8135   1.8183   1.8530   2.0827   2.1377
     2.1599   2.1766   2.2773   2.4369   2.8741   2.9155   2.9634   3.1417
     3.5043   3.5726   3.6906   4.1173   4.1363   4.4889   4.9077   5.1800
     5.2815   5.3700   5.4297   5.5166   5.9286   6.1185   6.2005   6.3595
     6.6349   6.8678

[...]

          k =-0.0838 0.0279 0.0000 ( 21308 PWs)   bands (ev):

[...]

     the Fermi energy is     1.7914 ev

!    total energy              =   -1835.11174645 Ry
     Harris-Foulkes estimate   =   -1835.11176548 Ry
     estimated scf accuracy    <       0.00000036 Ry

     The total energy is the sum of the following terms:

     one-electron contribution =  -12144.52895668 Ry
     hartree contribution      =    6105.57299116 Ry
     xc contribution           =    -512.13420765 Ry
     ewald contribution        =    4716.07889282 Ry
     electric field correction =       0.00000002 Ry
     smearing contrib. (-TS)   =      -0.10046611 Ry

     convergence has been achieved in  18 iterations

 BEEF-vdW xc energy contributions
           1 :   -452.724051128048
           2 :    419.161436388901
           3 :   -360.398604737696
           4 :    289.898233620244
           5 :   -221.508193053970
           6 :    165.221408810923
           7 :   -124.959560647055
           8 :    98.8702012792517
           9 :   -81.6399179303670
[...]
     Davidson diagonalization with overlap
     c_bands:  1 eigenvalues not converged
     ethr =  1.26E-05,  avg # of iterations =  2.2

[...]

     Program PWSCF v.5.1rc2 (svn rev. 11289) starts on 18Dec2018 at 23:50: 4

[...]

   This run was terminated on:   0: 6:16  19Dec2018

[...]

     Program PWSCF v.5.1rc2 (svn rev. 11289) starts on 19Dec2018 at  0: 6:22

[...]

     Program PWSCF v.5.1rc2 (svn rev. 11289) starts on 19Dec2018 at  0:38:24

[...]

   This run was terminated on:   0:55: 1  19Dec2018

[...]

     Program PWSCF v.5.1rc2 (svn rev. 11289) starts on 19Dec2018 at  0:55: 7

     Current dimensions of program PWSCF are:
     Max number of different atomic species (ntypx) = 10
     Max number of k-points (npk) =  40000
     Max angular momentum in pseudopotentials (lmaxx) =  3
     Presently stress not available with electric field

     IMPORTANT: XC functional enforced from input :
     Exchange-correlation      = BEEF-VDW ( 1  4 27 13 2)
     Any further DFT definition will be discarded
     Please, verify this is what you really want

     Subspace diagonalization in iterative solution of the eigenvalue problem:
     a serial algorithm will be used

     bravais-lattice index     =            0
     lattice parameter (alat)  =       1.8897  a.u.
     unit-cell volume          =    5661.7465 (a.u.)^3
     number of atoms/cell      =           12
     number of atomic types    =            2
     number of electrons       =       168.00
     number of Kohn-Sham states=          114
     kinetic-energy cutoff     =      36.7493  Ry
     charge density cutoff     =     367.4932  Ry
     convergence threshold     =      1.0E-06
     mixing beta               =       0.1000
     number of iterations used =           10  plain     mixing
     Exchange-correlation      = BEEF-VDW ( 1  4 27 13 2)
     nstep                     =           50

     celldm(1)=   1.889726  celldm(2)=   0.000000  celldm(3)=   0.000000
     celldm(4)=   0.000000  celldm(5)=   0.000000  celldm(6)=   0.000000

     crystal axes: (cart. coord. in units of alat)
               a(1) = (   5.966663   0.000000   0.000000 )
               a(2) = (   1.882839   5.661801   0.000000 )
               a(3) = (   0.000000   0.000000  24.835204 )

     reciprocal axes: (cart. coord. in units 2 pi/alat)
               b(1) = (  0.167598 -0.055735  0.000000 )
               b(2) = (  0.000000  0.176622  0.000000 )
               b(3) = (  0.000000  0.000000  0.040265 )

     PseudoPot. # 1 for Mo read from file:
     /afs/slac.stanford.edu/u/if/mamunm/psp/gbrv1.5pbe/Mo.UPF
     MD5 check sum: 30c4dcd161f5d35cd49bb5239c51a633
     Pseudo is Ultrasoft + core correction, Zval = 14.0
     Generated by new atomic code, or converted to UPF format
     Using radial grid of  889 points,  6 beta functions with:
                l(1) =   0
                l(2) =   0
                l(3) =   1
                l(4) =   1
                l(5) =   2
                l(6) =   2
     Q(r) pseudized with  6 coefficients,  rinner =    1.000   1.000   1.000
                                                       1.000   1.000

     PseudoPot. # 2 for Pb read from file:
     /afs/slac.stanford.edu/u/if/mamunm/psp/gbrv1.5pbe/Pb.UPF
     MD5 check sum: 3d1c1779aa92214d1e8f3a7db79003e2
     Pseudo is Ultrasoft + core correction, Zval = 14.0
     Generated by new atomic code, or converted to UPF format
     Using radial grid of  899 points,  6 beta functions with:
                l(1) =   0
                l(2) =   0
                l(3) =   1
                l(4) =   1
                l(5) =   2
                l(6) =   2
     Q(r) pseudized with  6 coefficients,  rinner =    1.000   1.000   1.000
                                                       1.000   1.000

     vdW kernel table read from file vdW_kernel_table
     MD5 check sum: 095c7af220d748ca6e76c0b4c6cfb241

     atomic species   valence    mass     pseudopotential
        Mo1           14.00    95.95000     Mo( 1.00)
        Pb1           14.00   207.20000     Pb( 1.00)

     No symmetry found

   Cartesian axes

     site n.     atom                  positions (alat units)
         1           Mo1 tau(   1) = (   0.0000000   0.0000000  10.0000000  )
         2           Mo1 tau(   2) = (   3.9247511   2.8309003  10.0000000  )
         3           Pb1 tau(   3) = (   2.9833315   0.0000000  10.0000000  )
         4           Pb1 tau(   4) = (   0.9414195   2.8309003  10.0000000  )
         5           Mo1 tau(   5) = (   5.9666631   4.3037196  12.4176020  )
         6           Mo1 tau(   6) = (   2.0419120   1.4728193  12.4176020  )
         7           Pb1 tau(   7) = (   2.9833315   4.3037196  12.4176020  )
         8           Pb1 tau(   8) = (   5.0252436   1.4728193  12.4176020  )
         9           Mo1 tau(   9) = (   5.0719101   3.6574797  14.4377290  )
        10           Mo1 tau(  10) = (   1.1471442   0.8285970  14.4380762  )
        11           Pb1 tau(  11) = (   1.9472495   3.5570097  15.3609055  )
        12           Pb1 tau(  12) = (   3.9888064   0.7252061  15.3593860  )

     number of k points=    20  Fermi-Dirac smearing, width (Ry)=  0.0110
                       cart. coord. in units 2pi/alat
        k(    1) = (   0.0000000   0.0000000   0.0000000), wk =   0.0555556
        k(    2) = (   0.0000000   0.0294370   0.0000000), wk =   0.1111111
        k(    3) = (   0.0000000   0.0588741   0.0000000), wk =   0.1111111
        k(    4) = (   0.0000000  -0.0883111   0.0000000), wk =   0.0555556
        k(    5) = (   0.0279330  -0.0092891   0.0000000), wk =   0.1111111
        k(    6) = (   0.0279330   0.0201479   0.0000000), wk =   0.1111111
        k(    7) = (   0.0279330   0.0495849   0.0000000), wk =   0.1111111
        k(    8) = (   0.0279330  -0.0976003   0.0000000), wk =   0.1111111
        k(    9) = (   0.0279330  -0.0681632   0.0000000), wk =   0.1111111
        k(   10) = (   0.0279330  -0.0387262   0.0000000), wk =   0.1111111
        k(   11) = (   0.0558660  -0.0185783   0.0000000), wk =   0.1111111
        k(   12) = (   0.0558660   0.0108587   0.0000000), wk =   0.1111111
        k(   13) = (   0.0558660   0.0402958   0.0000000), wk =   0.1111111
        k(   14) = (   0.0558660  -0.1068894   0.0000000), wk =   0.1111111
        k(   15) = (   0.0558660  -0.0774524   0.0000000), wk =   0.1111111
        k(   16) = (   0.0558660  -0.0480153   0.0000000), wk =   0.1111111
        k(   17) = (  -0.0837989   0.0278674   0.0000000), wk =   0.0555556
        k(   18) = (  -0.0837989   0.0573045   0.0000000), wk =   0.1111111
        k(   19) = (  -0.0837989   0.0867415   0.0000000), wk =   0.1111111
        k(   20) = (  -0.0837989  -0.0604437   0.0000000), wk =   0.0555556

     Largest allocated arrays     est. size (Mb)     dimensions
     Largest temporary arrays     est. size (Mb)     dimensions

     Check: negative/imaginary core charge=   -0.000001    0.000000

     Initial potential from superposition of free atoms
     Check: negative starting charge=   -0.102656

     starting charge  167.97951, renormalised to  168.00000

[...]

     *
     * You are using vdW-DF for exchange-correlation in this calculation.
     * Please cite the following three references that made this development
     * possible:
     *
     *   M. Dion, H. Rydberg, E. Schroder, D. C. Langreth, and
     *   B. I. Lundqvist, Phys. Rev. Lett. 92, 246401 (2004).
     *
     *   T. Thonhauser, V. R. Cooper, S. Li, A. Puzder, P. Hyldgaard, and
     *   D. C. Langreth, Phys. Rev. B 76, 125112 (2007).
     *
     *   G. Roman-Perez and J. M. Soler, Phys. Rev. Lett. 103, 096102 (2009).
     *
     *
     * If you are using vdW-DF2, please also cite:
     *
     *   K. Lee, E. D. Murray, L. Kong, B. I. Lundqvist, and
     *   D. C. Langreth, Phys. Rev. B 82, 081101(R) (2010).
     *
     *
     * If you are calculating the stress with vdW-DF, please also cite:
     *
     *   R. Sabatini, E. Kucukbenli, B. Kolb, T. Thonhauser, and
     *   S. de Gironcoli, J. Phys.: Condens. Matter 24, 424209 (2012).
     *

     Carrying out vdW-DF run using the following parameters:

     Nqs =      20    Nr_points =    1024   r_max =   100.000
     q_mesh =
               0.00001000     0.04494208     0.09755937     0.15916263
               0.23128650     0.31572767     0.41458969     0.53033537
               0.66584808     0.82450364     1.01025438     1.22772762
               1.48234092     1.78043706     2.12944203     2.53805004
               3.01644009     3.57652955     4.23227104     5.00000000

     Gradients computed in reciprocal space

[...]

     Starting wfc are  132 randomized atomic wfcs

     Self-consistent Calculation

[...]

     total energy              =   -1835.25997786 Ry
     Harris-Foulkes estimate   =   -1835.25997260 Ry
     estimated scf accuracy    <       0.00000548 Ry

     iteration # 17     ecut=    36.75 Ry     beta=0.10
     Davidson diagonalization with overlap
     ethr =  3.26E-09,  avg # of iterations =  3.2

[...]

     negative rho (up, down):  1.149E-01 0.000E+00

     Adding external electric field

     Computed dipole along edir(3) :
        Dipole                0.1661 Ry au,          0.4222 Debye
        Dipole field          0.0004 Ry au

        Potential amp.       -0.0337 Ry
        Total length         45.7584 bohr

     End of self-consistent calculation

[...]

          k = 0.0559-0.0480 0.0000 ( 21305 PWs)   bands (ev):

[...]

          k =-0.0838-0.0604 0.0000 ( 21330 PWs)   bands (ev):

   -59.2149 -59.2101 -58.9934 -58.9887 -58.8810 -58.8763 -34.0474 -34.0370
   -33.2970 -33.2808 -33.2685 -33.1773 -33.1355 -33.0963 -33.0881 -33.0520
   -33.0171 -33.0148 -33.0079 -32.9654 -32.9541 -32.9300 -32.2791 -32.2735
   -15.4687 -15.3905 -15.3668 -15.3473 -15.3221 -15.3025 -15.2998 -15.2661
   -15.2558 -15.2542 -15.2381 -15.2004 -15.1848 -15.1722 -15.1692 -15.1644
   -15.1409 -15.1139 -15.0905 -15.0793 -15.0560 -15.0291 -14.9943 -14.9672
   -14.9667 -14.9533 -14.9449 -14.9127 -14.8911 -14.8083  -7.9404  -7.2269
    -6.9641  -6.7470  -5.7982  -4.8011  -3.1313  -2.8708  -2.3420  -1.9397
    -1.7404  -1.4915  -1.2284  -0.9759  -0.5455  -0.4342  -0.2960  -0.0727
    -0.0234   0.2136   0.4940   0.5648   0.7700   1.1022   1.2239   1.3134
     1.5396   1.6658   1.8681   1.9524   2.1934   2.4086   2.5123   2.5243
     2.6997   2.9650   3.2095   3.2330   3.4902   3.6609   3.7110   3.8533
     4.3274   4.4100   4.8256   4.8972   5.2973   5.7029   5.8760   6.2627
     6.4086   6.5027   6.8032   7.0149   7.1386   7.1683   7.2965   7.3595
     7.6326   7.6791

     the Fermi energy is     2.0015 ev

!    total energy              =   -1835.25997978 Ry
     Harris-Foulkes estimate   =   -1835.25998201 Ry
     estimated scf accuracy    <       0.00000091 Ry

     The total energy is the sum of the following terms:

     one-electron contribution =  -11998.48269008 Ry
     hartree contribution      =    6032.97248827 Ry
     xc contribution           =    -512.34947844 Ry
     ewald contribution        =    4642.67574244 Ry
     electric field correction =       0.00006123 Ry
     smearing contrib. (-TS)   =      -0.07610320 Ry

     convergence has been achieved in  17 iterations

 BEEF-vdW xc energy contributions
           1 :   -452.933296045118
           2 :    419.322373129667
           3 :   -360.491265573955
           4 :    289.919747623282
           5 :   -221.433660772891
           6 :    164.979801766300
           7 :   -124.446536986203
           8 :    97.9977097282917
           9 :   -80.4072908611201
          10 :    66.1162743962516
          11 :   -51.6424244698372
          12 :    36.4465052848996
          13 :   -22.2229691112991
          14 :    11.2826130477586
          15 :   -4.99898104882675
          16 :    3.05253825472926
          17 :   -3.69713506148685
          18 :    4.72758756874509
          19 :   -4.55048399307952
          20 :    2.79497429849249
          21 :  -0.222827314335802
          22 :   -1.92158130772111
          23 :    2.70538299047143
          24 :   -2.01835391197324
          25 :   0.569516651654340
          26 :   0.559184487314837
          27 :  -0.514943076735221
          28 :  -0.904029128387265
          29 :    3.20389872383612
          30 :   -5.51300478042288
          31 :   -39.6682373614202
          32 :   -29.5138970179688

     Forces acting on atoms (Ry/au):

     negative rho (up, down):  1.149E-01 0.000E+00
     atom    1 type  1   force =     0.01215212    0.00877808    0.05130747
     atom    2 type  1   force =     0.01216271    0.00875963    0.05124527
     atom    3 type  2   force =    -0.00099275   -0.00070399   -0.05908924
     atom    4 type  2   force =    -0.00096366   -0.00070760   -0.05908190
     atom    5 type  1   force =    -0.00458558   -0.00331064    0.02243587
     atom    6 type  1   force =    -0.00455396   -0.00327769    0.02241336
     atom    7 type  2   force =    -0.00665847   -0.00474598   -0.01733071
     atom    8 type  2   force =    -0.00663346   -0.00482093   -0.01754535
     atom    9 type  1   force =     0.00001110   -0.00000688    0.00152406
     atom   10 type  1   force =    -0.00016964   -0.00011019    0.00149948
     atom   11 type  2   force =     0.00010436    0.00011451    0.00125419
     atom   12 type  2   force =     0.00012722    0.00003170    0.00136751

     Total force =     0.120468     Total SCF correction =     0.004010

     entering subroutine stress ...

     negative rho (up, down):  1.149E-01 0.000E+00
          total   stress  (Ry/bohr**3)                   (kbar)     P=  -10.51
  -0.00010903   0.00002036  -0.00001669        -16.04      2.99     -2.46
   0.00002036  -0.00012260  -0.00001205          2.99    -18.04     -1.77
  -0.00001669  -0.00001205   0.00001730         -2.46     -1.77      2.55

 !ASE

     Writing output data file calc.save

     General routines

     Parallel routines

   This run was terminated on:   1:10:41  19Dec2018

   JOB DONE.
Job  /afs/slac/g/suncat/bin/suncat-tsmpirun -x LD_LIBRARY_PATH -wdir /scratch/qe530263_LDIyr pw.x -in pw.inp

TID   HOST_NAME   COMMAND_LINE            STATUS            TERMINATION_TIME
00000 suncat2024 pw.x -in pw.inp   Done                     12/19/2018 01:10:41
00001 suncat2024 pw.x -in pw.inp   Done                     12/19/2018 01:10:41
00002 suncat2024 pw.x -in pw.inp   Done                     12/19/2018 01:10:41
00003 suncat2024 pw.x -in pw.inp   Done                     12/19/2018 01:10:41
00004 suncat2024 pw.x -in pw.inp   Done                     12/19/2018 01:10:41
00005 suncat2024 pw.x -in pw.inp   Done                     12/19/2018 01:10:41
00006 suncat2024 pw.x -in pw.inp   Done                     12/19/2018 01:10:41
00007 suncat2024 pw.x -in pw.inp   Done                     12/19/2018 01:10:41
00008 suncat2024 pw.x -in pw.inp   Done                     12/19/2018 01:10:41
00009 suncat2024 pw.x -in pw.inp   Done                     12/19/2018 01:10:41
00010 suncat2024 pw.x -in pw.inp   Done                     12/19/2018 01:10:41
00011 suncat2024 pw.x -in pw.inp   Done                     12/19/2018 01:10:41
00012 suncat2024 pw.x -in pw.inp   Done                     12/19/2018 01:10:41
00013 suncat2024 pw.x -in pw.inp   Done                     12/19/2018 01:10:41
00014 suncat2024 pw.x -in pw.inp   Done                     12/19/2018 01:10:41
00015 suncat2024 pw.x -in pw.inp   Done                     12/19/2018 01:10:41
00016 suncat2023 pw.x -in pw.inp   Done                     12/19/2018 01:10:41
00017 suncat2023 pw.x -in pw.inp   Done                     12/19/2018 01:10:41
00018 suncat2023 pw.x -in pw.inp   Done                     12/19/2018 01:10:41
00019 suncat2023 pw.x -in pw.inp   Done                     12/19/2018 01:10:41
00020 suncat2023 pw.x -in pw.inp   Done                     12/19/2018 01:10:41
00021 suncat2023 pw.x -in pw.inp   Done                     12/19/2018 01:10:41
00022 suncat2023 pw.x -in pw.inp   Done                     12/19/2018 01:10:41
00023 suncat2023 pw.x -in pw.inp   Done                     12/19/2018 01:10:41
00024 suncat2023 pw.x -in pw.inp   Done                     12/19/2018 01:10:41
00025 suncat2023 pw.x -in pw.inp   Done                     12/19/2018 01:10:41
00026 suncat2023 pw.x -in pw.inp   Done                     12/19/2018 01:10:41
00027 suncat2023 pw.x -in pw.inp   Done                     12/19/2018 01:10:41
00028 suncat2023 pw.x -in pw.inp   Done                     12/19/2018 01:10:41
00029 suncat2023 pw.x -in pw.inp   Done                     12/19/2018 01:10:41
00030 suncat2023 pw.x -in pw.inp   Done                     12/19/2018 01:10:41
00031 suncat2023 pw.x -in pw.inp   Done                     12/19/2018 01:10:41