     Program PWSCF v.5.1rc2 (svn rev. 11289) starts on 18Dec2018 at 16:49:46

     Current dimensions of program PWSCF are:
     Max number of different atomic species (ntypx) = 10
     Max number of k-points (npk) =  40000
     Max angular momentum in pseudopotentials (lmaxx) =  3
     Presently stress not available with electric field

     IMPORTANT: XC functional enforced from input :
     Exchange-correlation      = BEEF-VDW ( 1  4 27 13 2)
     Any further DFT definition will be discarded
     Please, verify this is what you really want

     Subspace diagonalization in iterative solution of the eigenvalue problem:
     a serial algorithm will be used

     Found symmetry operation: I + ( -0.5000 -0.5000  0.0000)
     This is a supercell, fractional translations are disabled

     bravais-lattice index     =            0
     lattice parameter (alat)  =       1.8897  a.u.
     unit-cell volume          =    5504.6204 (a.u.)^3
     number of atoms/cell      =           12
     number of atomic types    =            2
     number of electrons       =       186.00
     number of Kohn-Sham states=          123
     kinetic-energy cutoff     =      36.7493  Ry
     charge density cutoff     =     367.4932  Ry
     convergence threshold     =      1.0E-06
     mixing beta               =       0.1000
     number of iterations used =           10  plain     mixing
     Exchange-correlation      = BEEF-VDW ( 1  4 27 13 2)
     nstep                     =           50

     celldm(1)=   1.889726  celldm(2)=   0.000000  celldm(3)=   0.000000
     celldm(4)=   0.000000  celldm(5)=   0.000000  celldm(6)=   0.000000

     crystal axes: (cart. coord. in units of alat)
               a(1) = (   6.020314   0.000000   0.000000 )
               a(2) = (   2.613881   5.423266   0.000000 )
               a(3) = (   0.000000   0.000000  24.983351 )

     reciprocal axes: (cart. coord. in units 2 pi/alat)
               b(1) = (  0.166104 -0.080058  0.000000 )
               b(2) = (  0.000000  0.184391  0.000000 )
               b(3) = (  0.000000  0.000000  0.040027 )

     PseudoPot. # 1 for Ag read from file:
     /afs/slac.stanford.edu/u/if/mamunm/psp/gbrv1.5pbe/Ag.UPF
     MD5 check sum: d66d668201baa78d5eb5b04ef7011058
     Pseudo is Ultrasoft + core correction, Zval = 19.0
     Generated by new atomic code, or converted to UPF format
     Using radial grid of  887 points,  6 beta functions with:
                l(1) =   0
                l(2) =   0
                l(3) =   1
                l(4) =   1
                l(5) =   2
                l(6) =   2
     Q(r) pseudized with  6 coefficients,  rinner =    1.300   1.300   1.300
                                                       1.300   1.300

     PseudoPot. # 2 for Cd read from file:
     /afs/slac.stanford.edu/u/if/mamunm/psp/gbrv1.5pbe/Cd.UPF
     MD5 check sum: 17164a7926edb8e0dc231208abae86a6
     Pseudo is Ultrasoft + core correction, Zval = 12.0
     Generated by new atomic code, or converted to UPF format
     Using radial grid of  889 points,  6 beta functions with:
                l(1) =   0
                l(2) =   0
                l(3) =   1
                l(4) =   1
                l(5) =   2
                l(6) =   2
     Q(r) pseudized with  6 coefficients,  rinner =    1.000   1.000   1.000
                                                       1.000   1.000

     vdW kernel table read from file vdW_kernel_table
     MD5 check sum: 095c7af220d748ca6e76c0b4c6cfb241

     atomic species   valence    mass     pseudopotential
        Ag1           19.00   107.86820     Ag( 1.00)
        Cd1           12.00   112.41400     Cd( 1.00)

     No symmetry found

   Cartesian axes

     site n.     atom                  positions (alat units)
         1           Ag1 tau(   1) = (   0.0000000   0.0000000  10.0000000  )
         2           Ag1 tau(   2) = (   4.3170975   2.7116330  10.0000000  )
         3           Cd1 tau(   3) = (   3.0101572   0.0000000  10.0000000  )
         4           Cd1 tau(   4) = (   1.3069403   2.7116330  10.0000000  )
         5           Ag1 tau(   5) = (   6.0203144   3.7814488  12.4916757  )
         6           Ag1 tau(   6) = (   1.7032169   1.0698158  12.4916757  )
         7           Cd1 tau(   7) = (   3.0101572   3.7814488  12.4916757  )
         8           Cd1 tau(   8) = (   4.7133741   1.0698158  12.4916757  )
         9           Ag1 tau(   9) = (   3.4064339   2.1396317  14.9833513  )
        10           Ag1 tau(  10) = (   7.7235314   4.8512647  14.9833513  )
        11           Cd1 tau(  11) = (   6.4165911   2.1396317  14.9833513  )
        12           Cd1 tau(  12) = (   4.7133741   4.8512647  14.9833513  )

     number of k points=    20  Fermi-Dirac smearing, width (Ry)=  0.0110
                       cart. coord. in units 2pi/alat
        k(    1) = (   0.0000000   0.0000000   0.0000000), wk =   0.0555556
        k(    2) = (   0.0000000   0.0307318   0.0000000), wk =   0.1111111
        k(    3) = (   0.0000000   0.0614636   0.0000000), wk =   0.1111111
        k(    4) = (   0.0000000  -0.0921954   0.0000000), wk =   0.0555556
        k(    5) = (   0.0276840  -0.0133430   0.0000000), wk =   0.1111111
        k(    6) = (   0.0276840   0.0173888   0.0000000), wk =   0.1111111
        k(    7) = (   0.0276840   0.0481205   0.0000000), wk =   0.1111111
        k(    8) = (   0.0276840  -0.1055384   0.0000000), wk =   0.1111111
        k(    9) = (   0.0276840  -0.0748066   0.0000000), wk =   0.1111111
        k(   10) = (   0.0276840  -0.0440748   0.0000000), wk =   0.1111111
        k(   11) = (   0.0553681  -0.0266861   0.0000000), wk =   0.1111111
        k(   12) = (   0.0553681   0.0040457   0.0000000), wk =   0.1111111
        k(   13) = (   0.0553681   0.0347775   0.0000000), wk =   0.1111111
        k(   14) = (   0.0553681  -0.1188814   0.0000000), wk =   0.1111111
        k(   15) = (   0.0553681  -0.0881496   0.0000000), wk =   0.1111111
        k(   16) = (   0.0553681  -0.0574178   0.0000000), wk =   0.1111111
        k(   17) = (  -0.0830521   0.0400291   0.0000000), wk =   0.0555556
        k(   18) = (  -0.0830521   0.0707609   0.0000000), wk =   0.1111111
        k(   19) = (  -0.0830521   0.1014927   0.0000000), wk =   0.1111111
        k(   20) = (  -0.0830521  -0.0521663   0.0000000), wk =   0.0555556

     Largest allocated arrays     est. size (Mb)     dimensions
     Largest temporary arrays     est. size (Mb)     dimensions

     Initial potential from superposition of free atoms
     Check: negative starting charge=   -0.135023

     starting charge  179.99947, renormalised to  186.00000

     negative rho (up, down):  1.395E-01 0.000E+00

     *
     * You are using vdW-DF for exchange-correlation in this calculation.
     * Please cite the following three references that made this development
     * possible:
     *
     *   M. Dion, H. Rydberg, E. Schroder, D. C. Langreth, and
     *   B. I. Lundqvist, Phys. Rev. Lett. 92, 246401 (2004).
     *
     *   T. Thonhauser, V. R. Cooper, S. Li, A. Puzder, P. Hyldgaard, and
     *   D. C. Langreth, Phys. Rev. B 76, 125112 (2007).
     *
     *   G. Roman-Perez and J. M. Soler, Phys. Rev. Lett. 103, 096102 (2009).
     *
     *
     * If you are using vdW-DF2, please also cite:
     *
     *   K. Lee, E. D. Murray, L. Kong, B. I. Lundqvist, and
     *   D. C. Langreth, Phys. Rev. B 82, 081101(R) (2010).
     *
     *
     * If you are calculating the stress with vdW-DF, please also cite:
     *
     *   R. Sabatini, E. Kucukbenli, B. Kolb, T. Thonhauser, and
     *   S. de Gironcoli, J. Phys.: Condens. Matter 24, 424209 (2012).
     *

     Carrying out vdW-DF run using the following parameters:

     Nqs =      20    Nr_points =    1024   r_max =   100.000
     q_mesh =
               0.00001000     0.04494208     0.09755937     0.15916263
               0.23128650     0.31572767     0.41458969     0.53033537
               0.66584808     0.82450364     1.01025438     1.22772762
               1.48234092     1.78043706     2.12944203     2.53805004
               3.01644009     3.57652955     4.23227104     5.00000000

     Gradients computed in reciprocal space

     Adding external electric field

     Computed dipole along edir(3) :
        Dipole                0.0000 Ry au,          0.0000 Debye
        Dipole field          0.0000 Ry au

        Potential amp.       -0.0000 Ry
        Total length         46.0314 bohr

     Starting wfc are  132 randomized atomic wfcs

     Self-consistent Calculation

     iteration #  1     ecut=    36.75 Ry     beta=0.10
     Davidson diagonalization with overlap
     ethr =  1.00E-02,  avg # of iterations =  7.2

[...]

     total energy              =   -2476.00280772 Ry
     Harris-Foulkes estimate   =   -2479.94302754 Ry
     estimated scf accuracy    <      22.70790454 Ry

[...]

     End of self-consistent calculation

          k = 0.0000 0.0000 0.0000 ( 20675 PWs)   bands (ev):

   -91.6612 -91.6600 -91.2961 -91.2961 -91.2950 -91.2950 -55.1721 -55.1701
   -55.1653 -55.1412 -55.1389 -55.1370 -54.8160 -54.8160 -54.8141 -54.8141
   -54.7964 -54.7963 -54.7725 -54.7724 -54.7678 -54.7676 -54.7660 -54.7658
    -8.6146  -8.5609  -8.4942  -8.4350  -8.4132  -8.3393  -8.3296  -8.3278
    -8.3050  -8.2554  -8.2492  -8.1368  -8.0957  -8.0954  -8.0726  -8.0627
    -8.0550  -8.0131  -7.9939  -7.9822  -7.9693  -7.9334  -7.8428  -7.8385
    -7.8265  -7.7885  -7.7707  -7.7699  -7.6561  -7.5495  -6.6426  -5.1138
    -4.7480  -4.7180  -4.5093  -4.4169  -4.1412  -4.1318  -4.0468  -4.0168
    -3.9824  -3.8459  -3.8411  -3.7198  -3.6012  -3.5683  -3.5584  -3.5569
    -3.5499  -3.5315  -3.4620  -3.4482  -3.4317  -3.2996  -3.2913  -3.2285
    -3.2026  -3.1698  -3.1665  -3.1242  -3.0728  -2.8784  -1.5497  -0.3375
    -0.2866   0.0981   0.1303   0.2128   0.5361   0.6303   0.8767   1.1018
     1.8567   1.9283   2.5757   2.7799   2.9818   3.8202   3.8917   3.9382
     4.1225   4.4368   4.5441   4.7468   4.9467   5.9252   6.0317   6.2907
     6.6105   6.8811   7.0363   7.2885   7.6566   8.0978   8.4240   8.4506
     8.6482   8.7667   8.8228

[...]

          k =-0.0831 0.0400 0.0000 ( 20720 PWs)   bands (ev):

[...]

     the Fermi energy is     0.8335 ev

!    total energy              =   -2476.44715390 Ry
     Harris-Foulkes estimate   =   -2476.44715799 Ry
     estimated scf accuracy    <       0.00000018 Ry

     The total energy is the sum of the following terms:

     one-electron contribution =  -15968.13415996 Ry
     hartree contribution      =    8023.73882479 Ry
     xc contribution           =    -425.25901701 Ry
     ewald contribution        =    5893.23337883 Ry
     electric field correction =       0.00000000 Ry
     smearing contrib. (-TS)   =      -0.02618055 Ry

     convergence has been achieved in  15 iterations

 BEEF-vdW xc energy contributions
           1 :   -370.947550660288
           2 :    337.906544798555
           3 :   -282.444047930067
           4 :    220.806309444074
           5 :   -167.884167033124
           6 :    131.804040091253
           7 :   -112.395648687332
           8 :    103.599666849289
           9 :   -97.9456945845378
[...]
     SCF correction compared to forces is large: reduce conv_thr to get better values

[...]

   This run was terminated on:  17:19:15  18Dec2018

[...]

     Program PWSCF v.5.1rc2 (svn rev. 11289) starts on 18Dec2018 at 17:34:42

[...]

     Program PWSCF v.5.1rc2 (svn rev. 11289) starts on 18Dec2018 at 17:50: 1

[...]

   This run was terminated on:  18: 5:26  18Dec2018

[...]

     Program PWSCF v.5.1rc2 (svn rev. 11289) starts on 18Dec2018 at 18: 5:34

     Current dimensions of program PWSCF are:
     Max number of different atomic species (ntypx) = 10
     Max number of k-points (npk) =  40000
     Max angular momentum in pseudopotentials (lmaxx) =  3
     Presently stress not available with electric field

     IMPORTANT: XC functional enforced from input :
     Exchange-correlation      = BEEF-VDW ( 1  4 27 13 2)
     Any further DFT definition will be discarded
     Please, verify this is what you really want

     Subspace diagonalization in iterative solution of the eigenvalue problem:
     a serial algorithm will be used

     Found symmetry operation: I + ( -0.5000 -0.5000  0.0000)
     This is a supercell, fractional translations are disabled

     bravais-lattice index     =            0
     lattice parameter (alat)  =       1.8897  a.u.
     unit-cell volume          =    5504.6204 (a.u.)^3
     number of atoms/cell      =           12
     number of atomic types    =            2
     number of electrons       =       186.00
     number of Kohn-Sham states=          123
     kinetic-energy cutoff     =      36.7493  Ry
     charge density cutoff     =     367.4932  Ry
     convergence threshold     =      1.0E-06
     mixing beta               =       0.1000
     number of iterations used =           10  plain     mixing
     Exchange-correlation      = BEEF-VDW ( 1  4 27 13 2)
     nstep                     =           50

     celldm(1)=   1.889726  celldm(2)=   0.000000  celldm(3)=   0.000000
     celldm(4)=   0.000000  celldm(5)=   0.000000  celldm(6)=   0.000000

     crystal axes: (cart. coord. in units of alat)
               a(1) = (   6.020314   0.000000   0.000000 )
               a(2) = (   2.613881   5.423266   0.000000 )
               a(3) = (   0.000000   0.000000  24.983351 )

     reciprocal axes: (cart. coord. in units 2 pi/alat)
               b(1) = (  0.166104 -0.080058  0.000000 )
               b(2) = (  0.000000  0.184391  0.000000 )
               b(3) = (  0.000000  0.000000  0.040027 )

     PseudoPot. # 1 for Ag read from file:
     /afs/slac.stanford.edu/u/if/mamunm/psp/gbrv1.5pbe/Ag.UPF
     MD5 check sum: d66d668201baa78d5eb5b04ef7011058
     Pseudo is Ultrasoft + core correction, Zval = 19.0
     Generated by new atomic code, or converted to UPF format
     Using radial grid of  887 points,  6 beta functions with:
                l(1) =   0
                l(2) =   0
                l(3) =   1
                l(4) =   1
                l(5) =   2
                l(6) =   2
     Q(r) pseudized with  6 coefficients,  rinner =    1.300   1.300   1.300
                                                       1.300   1.300

     PseudoPot. # 2 for Cd read from file:
     /afs/slac.stanford.edu/u/if/mamunm/psp/gbrv1.5pbe/Cd.UPF
     MD5 check sum: 17164a7926edb8e0dc231208abae86a6
     Pseudo is Ultrasoft + core correction, Zval = 12.0
     Generated by new atomic code, or converted to UPF format
     Using radial grid of  889 points,  6 beta functions with:
                l(1) =   0
                l(2) =   0
                l(3) =   1
                l(4) =   1
                l(5) =   2
                l(6) =   2
     Q(r) pseudized with  6 coefficients,  rinner =    1.000   1.000   1.000
                                                       1.000   1.000

     vdW kernel table read from file vdW_kernel_table
     MD5 check sum: 095c7af220d748ca6e76c0b4c6cfb241

     atomic species   valence    mass     pseudopotential
        Ag1           19.00   107.86820     Ag( 1.00)
        Cd1           12.00   112.41400     Cd( 1.00)

     No symmetry found

   Cartesian axes

     site n.     atom                  positions (alat units)
         1           Ag1 tau(   1) = (   0.0000000   0.0000000  10.0000000  )
         2           Ag1 tau(   2) = (   4.3170975   2.7116330  10.0000000  )
         3           Cd1 tau(   3) = (   3.0101572   0.0000000  10.0000000  )
         4           Cd1 tau(   4) = (   1.3069403   2.7116330  10.0000000  )
         5           Ag1 tau(   5) = (   6.0203144   3.7814488  12.4916757  )
         6           Ag1 tau(   6) = (   1.7032169   1.0698158  12.4916757  )
         7           Cd1 tau(   7) = (   3.0101572   3.7814488  12.4916757  )
         8           Cd1 tau(   8) = (   4.7133741   1.0698158  12.4916757  )
         9           Ag1 tau(   9) = (   3.3911687   2.1300421  15.0110982  )
        10           Ag1 tau(  10) = (   7.7082451   4.8416773  15.0111055  )
        11           Cd1 tau(  11) = (   6.4215473   2.1427387  15.2366152  )
        12           Cd1 tau(  12) = (   4.7183143   4.8543556  15.2365734  )

     number of k points=    20  Fermi-Dirac smearing, width (Ry)=  0.0110
                       cart. coord. in units 2pi/alat
        k(    1) = (   0.0000000   0.0000000   0.0000000), wk =   0.0555556
        k(    2) = (   0.0000000   0.0307318   0.0000000), wk =   0.1111111
        k(    3) = (   0.0000000   0.0614636   0.0000000), wk =   0.1111111
        k(    4) = (   0.0000000  -0.0921954   0.0000000), wk =   0.0555556
        k(    5) = (   0.0276840  -0.0133430   0.0000000), wk =   0.1111111
        k(    6) = (   0.0276840   0.0173888   0.0000000), wk =   0.1111111
        k(    7) = (   0.0276840   0.0481205   0.0000000), wk =   0.1111111
        k(    8) = (   0.0276840  -0.1055384   0.0000000), wk =   0.1111111
        k(    9) = (   0.0276840  -0.0748066   0.0000000), wk =   0.1111111
        k(   10) = (   0.0276840  -0.0440748   0.0000000), wk =   0.1111111
        k(   11) = (   0.0553681  -0.0266861   0.0000000), wk =   0.1111111
        k(   12) = (   0.0553681   0.0040457   0.0000000), wk =   0.1111111
        k(   13) = (   0.0553681   0.0347775   0.0000000), wk =   0.1111111
        k(   14) = (   0.0553681  -0.1188814   0.0000000), wk =   0.1111111
        k(   15) = (   0.0553681  -0.0881496   0.0000000), wk =   0.1111111
        k(   16) = (   0.0553681  -0.0574178   0.0000000), wk =   0.1111111
        k(   17) = (  -0.0830521   0.0400291   0.0000000), wk =   0.0555556
        k(   18) = (  -0.0830521   0.0707609   0.0000000), wk =   0.1111111
        k(   19) = (  -0.0830521   0.1014927   0.0000000), wk =   0.1111111
        k(   20) = (  -0.0830521  -0.0521663   0.0000000), wk =   0.0555556

     Largest allocated arrays     est. size (Mb)     dimensions
     Largest temporary arrays     est. size (Mb)     dimensions

     Initial potential from superposition of free atoms
     Check: negative starting charge=   -0.134790

     starting charge  179.99947, renormalised to  186.00000

[...]

     *
     * You are using vdW-DF for exchange-correlation in this calculation.
     * Please cite the following three references that made this development
     * possible:
     *
     *   M. Dion, H. Rydberg, E. Schroder, D. C. Langreth, and
     *   B. I. Lundqvist, Phys. Rev. Lett. 92, 246401 (2004).
     *
     *   T. Thonhauser, V. R. Cooper, S. Li, A. Puzder, P. Hyldgaard, and
     *   D. C. Langreth, Phys. Rev. B 76, 125112 (2007).
     *
     *   G. Roman-Perez and J. M. Soler, Phys. Rev. Lett. 103, 096102 (2009).
     *
     *
     * If you are using vdW-DF2, please also cite:
     *
     *   K. Lee, E. D. Murray, L. Kong, B. I. Lundqvist, and
     *   D. C. Langreth, Phys. Rev. B 82, 081101(R) (2010).
     *
     *
     * If you are calculating the stress with vdW-DF, please also cite:
     *
     *   R. Sabatini, E. Kucukbenli, B. Kolb, T. Thonhauser, and
     *   S. de Gironcoli, J. Phys.: Condens. Matter 24, 424209 (2012).
     *

     Carrying out vdW-DF run using the following parameters:

     Nqs =      20    Nr_points =    1024   r_max =   100.000
     q_mesh =
               0.00001000     0.04494208     0.09755937     0.15916263
               0.23128650     0.31572767     0.41458969     0.53033537
               0.66584808     0.82450364     1.01025438     1.22772762
               1.48234092     1.78043706     2.12944203     2.53805004
               3.01644009     3.57652955     4.23227104     5.00000000

     Gradients computed in reciprocal space

[...]

     Starting wfc are  132 randomized atomic wfcs

     Self-consistent Calculation

[...]

     total energy              =   -2476.45212649 Ry
     Harris-Foulkes estimate   =   -2476.45212704 Ry
     estimated scf accuracy    <       0.00000124 Ry

     iteration # 15     ecut=    36.75 Ry     beta=0.10
     Davidson diagonalization with overlap
     ethr =  6.69E-10,  avg # of iterations =  2.0

[...]

     negative rho (up, down):  1.387E-01 0.000E+00

     Adding external electric field

     Computed dipole along edir(3) :
        Dipole                0.0216 Ry au,          0.0549 Debye
        Dipole field          0.0000 Ry au

        Potential amp.       -0.0045 Ry
        Total length         46.0314 bohr

     End of self-consistent calculation

[...]

          k = 0.0554-0.0574 0.0000 ( 20689 PWs)   bands (ev):

[...]

          k =-0.0831-0.0522 0.0000 ( 20778 PWs)   bands (ev):

   -91.5514 -91.5503 -91.2891 -91.2880 -91.2513 -91.2501 -55.0634 -55.0614
   -55.0554 -55.0316 -55.0275 -55.0256 -54.8101 -54.8081 -54.7898 -54.7709
   -54.7689 -54.7662 -54.7597 -54.7578 -54.7513 -54.7277 -54.7213 -54.7194
    -8.5132  -8.3981  -8.3484  -8.3220  -8.2413  -8.2178  -8.2173  -8.2099
    -8.1781  -8.1501  -8.0921  -8.0443  -7.9921  -7.9866  -7.9754  -7.9683
    -7.9491  -7.9279  -7.8944  -7.8802  -7.8704  -7.8591  -7.8338  -7.7837
    -7.7522  -7.7416  -7.6914  -7.6768  -7.5943  -7.5055  -5.0666  -4.8959
    -4.4295  -4.3654  -4.3559  -4.2839  -4.2013  -4.1391  -4.0606  -4.0449
    -4.0438  -4.0290  -3.9775  -3.9478  -3.9277  -3.6825  -3.6601  -3.6065
    -3.6053  -3.5824  -3.5625  -3.5259  -3.4343  -3.4229  -3.3754  -3.3065
    -3.3026  -3.2613  -3.2588  -3.1456  -3.1104  -3.0637  -2.8645  -2.1492
    -1.9373  -0.9153  -0.3962  -0.2982  -0.2036   0.2576   1.6429   2.2099
     2.3729   2.6437   4.5072   4.6971   4.8105   5.1315   5.1446   5.2144
     5.2159   5.5636   5.8961   5.9474   6.2946   6.3540   6.4931   6.6034
     6.6160   6.8471   6.9235   7.1856   7.3381   7.3660   7.3734   7.4418
     8.1283   8.1944   8.2371

     the Fermi energy is     0.8531 ev

!    total energy              =   -2476.45212273 Ry
     Harris-Foulkes estimate   =   -2476.45212679 Ry
     estimated scf accuracy    <       0.00000016 Ry

     The total energy is the sum of the following terms:

     one-electron contribution =  -15714.93340820 Ry
     hartree contribution      =    7897.47939786 Ry
     xc contribution           =    -425.18677853 Ry
     ewald contribution        =    5766.21419437 Ry
     electric field correction =       0.00000107 Ry
     smearing contrib. (-TS)   =      -0.02552929 Ry

     convergence has been achieved in  15 iterations

 BEEF-vdW xc energy contributions
           1 :   -370.862184471354
           2 :    337.740012054144
           3 :   -282.185089118565
           4 :    220.529441080145
           5 :   -167.698247082014
           6 :    131.771492656460
           7 :   -112.482990960670
           8 :    103.697962743563
           9 :   -97.9470787416349
          10 :    90.3636556369623
          11 :   -80.1761974444164
          12 :    69.5708475880184
          13 :   -61.2299312464567
          14 :    56.3053934169314
          15 :   -53.9339783235010
          16 :    52.2072381902098
          17 :   -49.6267941564217
          18 :    45.9746318208461
          19 :   -42.1398244675273
          20 :    39.2250683911975
          21 :   -37.6826054215433
          22 :    37.0653127846001
          23 :   -36.4546551276082
          24 :    35.1531073218351
          25 :   -33.1253313244295
          26 :    30.9268218199230
          27 :   -29.2471882629691
          28 :    28.4294130085558
          29 :   -28.2884455177442
          30 :    28.3020720186213
          31 :   -34.8485101967723
          32 :   -25.3771479397008

     Forces acting on atoms (Ry/au):

     negative rho (up, down):  1.387E-01 0.000E+00
     atom    1 type  1   force =     0.00183746    0.00115356   -0.00156882
     atom    2 type  1   force =     0.00183845    0.00115434   -0.00156906
     atom    3 type  2   force =    -0.00149890   -0.00094349   -0.01296861
     atom    4 type  2   force =    -0.00149765   -0.00094103   -0.01297151
     atom    5 type  1   force =    -0.00165330   -0.00103851    0.00863599
     atom    6 type  1   force =    -0.00165288   -0.00103777    0.00863607
     atom    7 type  2   force =     0.00184476    0.00115989    0.00634017
     atom    8 type  2   force =     0.00184291    0.00115951    0.00633960
     atom    9 type  1   force =     0.00066068    0.00041474   -0.00038771
     atom   10 type  1   force =     0.00066331    0.00041548   -0.00038758
     atom   11 type  2   force =    -0.00119282   -0.00074966   -0.00005042
     atom   12 type  2   force =    -0.00119202   -0.00074706   -0.00004812

     Total force =     0.024682     Total SCF correction =     0.001993

     entering subroutine stress ...

     negative rho (up, down):  1.387E-01 0.000E+00
          total   stress  (Ry/bohr**3)                   (kbar)     P=   -8.42
  -0.00008478   0.00000316  -0.00000187        -12.47      0.46     -0.27
   0.00000316  -0.00008782  -0.00000117          0.46    -12.92     -0.17
  -0.00000187  -0.00000117   0.00000095         -0.27     -0.17      0.14

 !ASE

     Writing output data file calc.save

     General routines

     Parallel routines

   This run was terminated on:  18:20:43  18Dec2018

   JOB DONE.
Job  /afs/slac/g/suncat/bin/suncat-tsmpirun -x LD_LIBRARY_PATH -wdir /scratch/qe529549_PICoY pw.x -in pw.inp

TID   HOST_NAME   COMMAND_LINE            STATUS            TERMINATION_TIME
00000 suncat0179 pw.x -in pw.inp   Done                     12/18/2018 18:20:43
00001 suncat0179 pw.x -in pw.inp   Done                     12/18/2018 18:20:43
00002 suncat0179 pw.x -in pw.inp   Done                     12/18/2018 18:20:43
00003 suncat0179 pw.x -in pw.inp   Done                     12/18/2018 18:20:43
00004 suncat0179 pw.x -in pw.inp   Done                     12/18/2018 18:20:43
00005 suncat0179 pw.x -in pw.inp   Done                     12/18/2018 18:20:43
00006 suncat0179 pw.x -in pw.inp   Done                     12/18/2018 18:20:43
00007 suncat0179 pw.x -in pw.inp   Done                     12/18/2018 18:20:43
00008 suncat0178 pw.x -in pw.inp   Done                     12/18/2018 18:20:43
00009 suncat0178 pw.x -in pw.inp   Done                     12/18/2018 18:20:43
00010 suncat0178 pw.x -in pw.inp   Done                     12/18/2018 18:20:43
00011 suncat0178 pw.x -in pw.inp   Done                     12/18/2018 18:20:43
00012 suncat0178 pw.x -in pw.inp   Done                     12/18/2018 18:20:43
00013 suncat0178 pw.x -in pw.inp   Done                     12/18/2018 18:20:43
00014 suncat0178 pw.x -in pw.inp   Done                     12/18/2018 18:20:43
00015 suncat0178 pw.x -in pw.inp   Done                     12/18/2018 18:20:43
00016 suncat0177 pw.x -in pw.inp   Done                     12/18/2018 18:20:43
00017 suncat0177 pw.x -in pw.inp   Done                     12/18/2018 18:20:43
00018 suncat0177 pw.x -in pw.inp   Done                     12/18/2018 18:20:43
00019 suncat0177 pw.x -in pw.inp   Done                     12/18/2018 18:20:43
00020 suncat0177 pw.x -in pw.inp   Done                     12/18/2018 18:20:43
00021 suncat0177 pw.x -in pw.inp   Done                     12/18/2018 18:20:43
00022 suncat0177 pw.x -in pw.inp   Done                     12/18/2018 18:20:43
00023 suncat0177 pw.x -in pw.inp   Done                     12/18/2018 18:20:43
00024 suncat0172 pw.x -in pw.inp   Done                     12/18/2018 18:20:43
00025 suncat0172 pw.x -in pw.inp   Done                     12/18/2018 18:20:43
00026 suncat0172 pw.x -in pw.inp   Done                     12/18/2018 18:20:43
00027 suncat0172 pw.x -in pw.inp   Done                     12/18/2018 18:20:43
00028 suncat0172 pw.x -in pw.inp   Done                     12/18/2018 18:20:43
00029 suncat0172 pw.x -in pw.inp   Done                     12/18/2018 18:20:43
00030 suncat0172 pw.x -in pw.inp   Done                     12/18/2018 18:20:43
00031 suncat0172 pw.x -in pw.inp   Done                     12/18/2018 18:20:43