     Program PWSCF v.5.1rc2 (svn rev. 11289) starts on 25Dec2018 at  7:56:31

     Current dimensions of program PWSCF are:
     Max number of different atomic species (ntypx) = 10
     Max number of k-points (npk) =  40000
     Max angular momentum in pseudopotentials (lmaxx) =  3
     Presently stress not available with electric field

     IMPORTANT: XC functional enforced from input :
     Exchange-correlation      = BEEF-VDW ( 1  4 27 13 2)
     Any further DFT definition will be discarded
     Please, verify this is what you really want

     Subspace diagonalization in iterative solution of the eigenvalue problem:
     a serial algorithm will be used

     Found symmetry operation: I + ( -0.5000 -0.5000  0.0000)
     This is a supercell, fractional translations are disabled

     bravais-lattice index     =            0
     lattice parameter (alat)  =       1.8897  a.u.
     unit-cell volume          =    5131.2592 (a.u.)^3
     number of atoms/cell      =           12
     number of atomic types    =            2
     number of electrons       =       162.00
     number of Kohn-Sham states=          111
     kinetic-energy cutoff     =      36.7493  Ry
     charge density cutoff     =     367.4932  Ry
     convergence threshold     =      1.0E-06
     mixing beta               =       0.1000
     number of iterations used =           10  plain     mixing
     Exchange-correlation      = BEEF-VDW ( 1  4 27 13 2)
     nstep                     =           50

     celldm(1)=   1.889726  celldm(2)=   0.000000  celldm(3)=   0.000000
     celldm(4)=   0.000000  celldm(5)=   0.000000  celldm(6)=   0.000000

     crystal axes: (cart. coord. in units of alat)
               a(1) = (   5.718292   0.000000   0.000000 )
               a(2) = (   1.909553   5.390034   0.000000 )
               a(3) = (   0.000000   0.000000  24.670020 )

     reciprocal axes: (cart. coord. in units 2 pi/alat)
               b(1) = (  0.174877 -0.061955  0.000000 )
               b(2) = (  0.000000  0.185528  0.000000 )
               b(3) = (  0.000000  0.000000  0.040535 )

     PseudoPot. # 1 for Zr read from file:
     /afs/slac.stanford.edu/u/if/mamunm/psp/gbrv1.5pbe/Zr.UPF
     MD5 check sum: 5db81b1e868ab7776c4564c113de050b
     Pseudo is Ultrasoft + core correction, Zval = 12.0
     Generated by new atomic code, or converted to UPF format
     Using radial grid of  887 points,  6 beta functions with:
                l(1) =   0
                l(2) =   0
                l(3) =   1
                l(4) =   1
                l(5) =   2
                l(6) =   2
     Q(r) pseudized with  6 coefficients,  rinner =    1.200   1.200   1.200
                                                       1.200   1.200

     PseudoPot. # 2 for Re read from file:
     /afs/slac.stanford.edu/u/if/mamunm/psp/gbrv1.5pbe/Re.UPF
     MD5 check sum: 85f993410f3e006da9d71c142b4ad953
     Pseudo is Ultrasoft + core correction, Zval = 15.0
     Generated by new atomic code, or converted to UPF format
     Using radial grid of  981 points,  8 beta functions with:
                l(1) =   0
                l(2) =   0
                l(3) =   1
                l(4) =   1
                l(5) =   2
                l(6) =   2
                l(7) =   3
                l(8) =   3
     Q(r) pseudized with  8 coefficients,  rinner =    1.150   1.150   1.150
                                                       1.150   1.150   1.150
                                                       1.150

     vdW kernel table read from file vdW_kernel_table
     MD5 check sum: 095c7af220d748ca6e76c0b4c6cfb241

     atomic species   valence    mass     pseudopotential
        Zr1           12.00    91.22400     Zr( 1.00)
        Re1           15.00   186.20700     Re( 1.00)

     No symmetry found

   Cartesian axes

     site n.     atom                  positions (alat units)
         1           Zr1 tau(   1) = (   0.0000000   0.0000000  10.0000000  )
         2           Zr1 tau(   2) = (   3.8139225   2.6950172  10.0000000  )
         3           Re1 tau(   3) = (   2.8591460   0.0000000  10.0000000  )
         4           Re1 tau(   4) = (   0.9547766   2.6950172  10.0000000  )
         5           Zr1 tau(   5) = (   5.7182920   4.0406943  12.3350098  )
         6           Zr1 tau(   6) = (   1.9043694   1.3456771  12.3350098  )
         7           Re1 tau(   7) = (   2.8591460   4.0406943  12.3350098  )
         8           Re1 tau(   8) = (   4.7635154   1.3456771  12.3350098  )
         9           Zr1 tau(   9) = (   3.8087389   2.6913542  14.6700195  )
        10           Zr1 tau(  10) = (   7.6226614   5.3863714  14.6700195  )
        11           Re1 tau(  11) = (   6.6678848   2.6913542  14.6700195  )
        12           Re1 tau(  12) = (   4.7635154   5.3863714  14.6700195  )

     number of k points=    20  Fermi-Dirac smearing, width (Ry)=  0.0110
                       cart. coord. in units 2pi/alat
        k(    1) = (   0.0000000   0.0000000   0.0000000), wk =   0.0555556
        k(    2) = (   0.0000000   0.0309213   0.0000000), wk =   0.1111111
        k(    3) = (   0.0000000   0.0618425   0.0000000), wk =   0.1111111
        k(    4) = (   0.0000000  -0.0927638   0.0000000), wk =   0.0555556
        k(    5) = (   0.0291462  -0.0103258   0.0000000), wk =   0.1111111
        k(    6) = (   0.0291462   0.0205955   0.0000000), wk =   0.1111111
        k(    7) = (   0.0291462   0.0515168   0.0000000), wk =   0.1111111
        k(    8) = (   0.0291462  -0.1030896   0.0000000), wk =   0.1111111
        k(    9) = (   0.0291462  -0.0721683   0.0000000), wk =   0.1111111
        k(   10) = (   0.0291462  -0.0412470   0.0000000), wk =   0.1111111
        k(   11) = (   0.0582925  -0.0206515   0.0000000), wk =   0.1111111
        k(   12) = (   0.0582925   0.0102697   0.0000000), wk =   0.1111111
        k(   13) = (   0.0582925   0.0411910   0.0000000), wk =   0.1111111
        k(   14) = (   0.0582925  -0.1134153   0.0000000), wk =   0.1111111
        k(   15) = (   0.0582925  -0.0824941   0.0000000), wk =   0.1111111
        k(   16) = (   0.0582925  -0.0515728   0.0000000), wk =   0.1111111
        k(   17) = (  -0.0874387   0.0309773   0.0000000), wk =   0.0555556
        k(   18) = (  -0.0874387   0.0618986   0.0000000), wk =   0.1111111
        k(   19) = (  -0.0874387   0.0928198   0.0000000), wk =   0.1111111
        k(   20) = (  -0.0874387  -0.0617865   0.0000000), wk =   0.0555556

     Largest allocated arrays     est. size (Mb)     dimensions
     Largest temporary arrays     est. size (Mb)     dimensions

     Initial potential from superposition of free atoms
     Check: negative starting charge=   -1.139868

     starting charge  158.98683, renormalised to  162.00000

     negative rho (up, down):  1.161E+00 0.000E+00

     *
     * You are using vdW-DF for exchange-correlation in this calculation.
     * Please cite the following three references that made this development
     * possible:
     *
     *   M. Dion, H. Rydberg, E. Schroder, D. C. Langreth, and
     *   B. I. Lundqvist, Phys. Rev. Lett. 92, 246401 (2004).
     *
     *   T. Thonhauser, V. R. Cooper, S. Li, A. Puzder, P. Hyldgaard, and
     *   D. C. Langreth, Phys. Rev. B 76, 125112 (2007).
     *
     *   G. Roman-Perez and J. M. Soler, Phys. Rev. Lett. 103, 096102 (2009).
     *
     *
     * If you are using vdW-DF2, please also cite:
     *
     *   K. Lee, E. D. Murray, L. Kong, B. I. Lundqvist, and
     *   D. C. Langreth, Phys. Rev. B 82, 081101(R) (2010).
     *
     *
     * If you are calculating the stress with vdW-DF, please also cite:
     *
     *   R. Sabatini, E. Kucukbenli, B. Kolb, T. Thonhauser, and
     *   S. de Gironcoli, J. Phys.: Condens. Matter 24, 424209 (2012).
     *

     Carrying out vdW-DF run using the following parameters:

     Nqs =      20    Nr_points =    1024   r_max =   100.000
     q_mesh =
               0.00001000     0.04494208     0.09755937     0.15916263
               0.23128650     0.31572767     0.41458969     0.53033537
               0.66584808     0.82450364     1.01025438     1.22772762
               1.48234092     1.78043706     2.12944203     2.53805004
               3.01644009     3.57652955     4.23227104     5.00000000

     Gradients computed in reciprocal space

     Adding external electric field

     Computed dipole along edir(3) :
        Dipole                0.0000 Ry au,          0.0000 Debye
        Dipole field          0.0000 Ry au

        Potential amp.       -0.0000 Ry
        Total length         45.4541 bohr

     Starting wfc are  156 randomized atomic wfcs

     Self-consistent Calculation

     iteration #  1     ecut=    36.75 Ry     beta=0.10
     Davidson diagonalization with overlap
     ethr =  1.00E-02,  avg # of iterations =  2.0

[...]

     total energy              =   -1751.34058403 Ry
     Harris-Foulkes estimate   =   -1751.96029912 Ry
     estimated scf accuracy    <       3.68409892 Ry

[...]

     End of self-consistent calculation

          k = 0.0000 0.0000 0.0000 ( 19289 PWs)   bands (ev):

   -77.8963 -77.8934 -77.7402 -77.7401 -77.7373 -77.7373 -46.7768 -46.7758
   -46.7435 -46.7424 -46.2831 -46.2495 -39.6356 -39.6342 -39.6339 -39.6296
   -39.6262 -39.5316 -39.5176 -39.5153 -39.5138 -39.5022 -39.4889 -39.4851
   -39.4066 -39.4020 -39.3965 -39.3904 -39.3903 -39.3892 -24.9171 -24.9017
   -24.8706 -24.8692 -24.8444 -24.8260 -24.7292 -24.7120 -24.6974 -24.6697
   -24.5428 -24.5387 -24.4920 -24.2933 -24.2809 -24.2508 -24.2338 -24.1070
    -4.4149  -2.9202  -2.4725  -2.2558  -2.1217  -1.6974  -1.5839  -1.5531
    -1.5267  -1.3806  -1.2017  -1.0460  -0.6694  -0.0778  -0.0091   0.0245
     0.0653   0.0687   0.1157   0.1543   0.3014   0.4982   0.7301   1.0690
     1.2149   1.3762   1.4716   1.7381   2.0321   2.2081   2.2455   2.3131
     2.5392   2.8440   2.9976   3.0981   3.7570   3.8203   3.9276   4.0291
     4.0430   4.1861   4.4459   4.4777   4.5425   4.7173   4.7528   4.9208
     5.0621   5.0672   5.1516   5.1566   5.3823   5.4651   5.4871   5.5250
     5.5972   5.7486   5.7668   5.8026   6.0608   6.1070   6.1638

[...]

          k =-0.0874 0.0310 0.0000 ( 19308 PWs)   bands (ev):

[...]

     the Fermi energy is     2.0438 ev

!    total energy              =   -1751.43097010 Ry
     Harris-Foulkes estimate   =   -1751.43097714 Ry
     estimated scf accuracy    <       0.00000039 Ry

     The total energy is the sum of the following terms:

     one-electron contribution =  -12513.06409816 Ry
     hartree contribution      =    6245.93594793 Ry
     xc contribution           =    -435.15413957 Ry
     ewald contribution        =    4950.93449590 Ry
     electric field correction =       0.00000000 Ry
     smearing contrib. (-TS)   =      -0.08317620 Ry

     convergence has been achieved in  16 iterations

 BEEF-vdW xc energy contributions
           1 :   -383.425637284904
           2 :    354.093315093764
           3 :   -302.288393426249
           4 :    239.096589319280
           5 :   -176.043429799186
           6 :    121.804673233819
           7 :   -80.5108998380870
           8 :    51.9097460379135
[...]
     MD5 check sum: 5db81b1e868ab7776c4564c113de050b
     Pseudo is Ultrasoft + core correction, Zval = 12.0
     Generated by new atomic code, or converted to UPF format
     Using radial grid of  887 points,  6 beta functions with:
                l(1) =   0
                l(2) =   0
                l(3) =   1
                l(4) =   1
                l(5) =   2
                l(6) =   2
     Q(r) pseudized with  6 coefficients,  rinner =    1.200   1.200   1.200
                                                       1.200   1.200

     PseudoPot. # 2 for Re read from file:
     /afs/slac.stanford.edu/u/if/mamunm/psp/gbrv1.5pbe/Re.UPF
     MD5 check sum: 85f993410f3e006da9d71c142b4ad953
     Pseudo is Ultrasoft + core correction, Zval = 15.0
     Generated by new atomic code, or converted to UPF format
     Using radial grid of  981 points,  8 beta functions with:
                l(1) =   0
                l(2) =   0
                l(3) =   1
                l(4) =   1
                l(5) =   2
                l(6) =   2
                l(7) =   3
                l(8) =   3
     Q(r) pseudized with  8 coefficients,  rinner =    1.150   1.150   1.150
                                                       1.150   1.150   1.150
                                                       1.150

     vdW kernel table read from file vdW_kernel_table
     MD5 check sum: 095c7af220d748ca6e76c0b4c6cfb241

     atomic species   valence    mass     pseudopotential
        Zr1           12.00    91.22400     Zr( 1.00)
        Re1           15.00   186.20700     Re( 1.00)

     No symmetry found

   Cartesian axes

     site n.     atom                  positions (alat units)
         1           Zr1 tau(   1) = (   0.0000000   0.0000000  10.0000000  )
         2           Zr1 tau(   2) = (   3.8139225   2.6950172  10.0000000  )
         3           Re1 tau(   3) = (   2.8591460   0.0000000  10.0000000  )
         4           Re1 tau(   4) = (   0.9547766   2.6950172  10.0000000  )
         5           Zr1 tau(   5) = (   5.7182920   4.0406943  12.3350098  )
         6           Zr1 tau(   6) = (   1.9043694   1.3456771  12.3350098  )
         7           Re1 tau(   7) = (   2.8591460   4.0406943  12.3350098  )
         8           Re1 tau(   8) = (   4.7635154   1.3456771  12.3350098  )
         9           Zr1 tau(   9) = (   3.8100609   2.6922840  14.6883081  )
        10           Zr1 tau(  10) = (   7.6239963   5.3873161  14.6883157  )
        11           Re1 tau(  11) = (   6.6680541   2.6915095  14.5683851  )
        12           Re1 tau(  12) = (   4.7637259   5.3864827  14.5683876  )

     number of k points=    20  Fermi-Dirac smearing, width (Ry)=  0.0110
                       cart. coord. in units 2pi/alat
        k(    1) = (   0.0000000   0.0000000   0.0000000), wk =   0.0555556
        k(    2) = (   0.0000000   0.0309213   0.0000000), wk =   0.1111111
        k(    3) = (   0.0000000   0.0618425   0.0000000), wk =   0.1111111
        k(    4) = (   0.0000000  -0.0927638   0.0000000), wk =   0.0555556
        k(    5) = (   0.0291462  -0.0103258   0.0000000), wk =   0.1111111
        k(    6) = (   0.0291462   0.0205955   0.0000000), wk =   0.1111111
        k(    7) = (   0.0291462   0.0515168   0.0000000), wk =   0.1111111
        k(    8) = (   0.0291462  -0.1030896   0.0000000), wk =   0.1111111
        k(    9) = (   0.0291462  -0.0721683   0.0000000), wk =   0.1111111
        k(   10) = (   0.0291462  -0.0412470   0.0000000), wk =   0.1111111
        k(   11) = (   0.0582925  -0.0206515   0.0000000), wk =   0.1111111
        k(   12) = (   0.0582925   0.0102697   0.0000000), wk =   0.1111111
        k(   13) = (   0.0582925   0.0411910   0.0000000), wk =   0.1111111
        k(   14) = (   0.0582925  -0.1134153   0.0000000), wk =   0.1111111
        k(   15) = (   0.0582925  -0.0824941   0.0000000), wk =   0.1111111
        k(   16) = (   0.0582925  -0.0515728   0.0000000), wk =   0.1111111
        k(   17) = (  -0.0874387   0.0309773   0.0000000), wk =   0.0555556
        k(   18) = (  -0.0874387   0.0618986   0.0000000), wk =   0.1111111
        k(   19) = (  -0.0874387   0.0928198   0.0000000), wk =   0.1111111
        k(   20) = (  -0.0874387  -0.0617865   0.0000000), wk =   0.0555556

     Largest allocated arrays     est. size (Mb)     dimensions
     Largest temporary arrays     est. size (Mb)     dimensions

     Initial potential from superposition of free atoms
     Check: negative starting charge=   -1.141959

     starting charge  158.98683, renormalised to  162.00000

[...]

     *
     * You are using vdW-DF for exchange-correlation in this calculation.
     * Please cite the following three references that made this development
     * possible:
     *
     *   M. Dion, H. Rydberg, E. Schroder, D. C. Langreth, and
     *   B. I. Lundqvist, Phys. Rev. Lett. 92, 246401 (2004).
     *
     *   T. Thonhauser, V. R. Cooper, S. Li, A. Puzder, P. Hyldgaard, and
     *   D. C. Langreth, Phys. Rev. B 76, 125112 (2007).
     *
     *   G. Roman-Perez and J. M. Soler, Phys. Rev. Lett. 103, 096102 (2009).
     *
     *
     * If you are using vdW-DF2, please also cite:
     *
     *   K. Lee, E. D. Murray, L. Kong, B. I. Lundqvist, and
     *   D. C. Langreth, Phys. Rev. B 82, 081101(R) (2010).
     *
     *
     * If you are calculating the stress with vdW-DF, please also cite:
     *
     *   R. Sabatini, E. Kucukbenli, B. Kolb, T. Thonhauser, and
     *   S. de Gironcoli, J. Phys.: Condens. Matter 24, 424209 (2012).
     *

     Carrying out vdW-DF run using the following parameters:

     Nqs =      20    Nr_points =    1024   r_max =   100.000
     q_mesh =
               0.00001000     0.04494208     0.09755937     0.15916263
               0.23128650     0.31572767     0.41458969     0.53033537
               0.66584808     0.82450364     1.01025438     1.22772762
               1.48234092     1.78043706     2.12944203     2.53805004
               3.01644009     3.57652955     4.23227104     5.00000000

     Gradients computed in reciprocal space

[...]

     Starting wfc are  156 randomized atomic wfcs

     Self-consistent Calculation

[...]

     total energy              =   -1751.43649506 Ry
     Harris-Foulkes estimate   =   -1751.43649627 Ry
     estimated scf accuracy    <       0.00000154 Ry

     iteration # 16     ecut=    36.75 Ry     beta=0.10
     Davidson diagonalization with overlap
     ethr =  9.50E-10,  avg # of iterations =  2.1

[...]

     negative rho (up, down):  1.162E+00 0.000E+00

     Adding external electric field

     Computed dipole along edir(3) :
        Dipole                0.0403 Ry au,          0.1024 Debye
        Dipole field          0.0001 Ry au

        Potential amp.       -0.0090 Ry
        Total length         45.4541 bohr

     End of self-consistent calculation

[...]

          k = 0.0583-0.0516 0.0000 ( 19315 PWs)   bands (ev):

[...]

          k =-0.0874-0.0618 0.0000 ( 19226 PWs)   bands (ev):

   -77.8688 -77.8660 -77.7115 -77.7086 -77.6602 -77.6573 -46.7645 -46.7375
   -46.7304 -46.7031 -46.1574 -46.1183 -39.5998 -39.5979 -39.5975 -39.5956
   -39.5886 -39.4978 -39.4924 -39.4854 -39.4503 -39.4267 -39.4232 -39.4120
   -39.3608 -39.3592 -39.3590 -39.3344 -39.3340 -39.3222 -24.9201 -24.8974
   -24.8881 -24.8303 -24.8165 -24.7793 -24.7650 -24.7158 -24.7003 -24.6649
   -24.5259 -24.5096 -24.4043 -24.2065 -24.1628 -24.1601 -24.1424 -23.9980
    -2.4892  -2.3217  -1.6198  -1.4583  -0.8251  -0.7564  -0.6436  -0.6130
    -0.5195  -0.3538  -0.1514  -0.1207   0.1401   0.2110   0.2660   0.2780
     0.4824   0.5137   0.6837   0.9341   0.9986   1.0799   1.0990   1.2487
     1.3296   1.3571   1.4345   1.5005   1.5111   1.6986   1.7314   1.7491
     1.7826   1.7965   1.9057   2.0035   2.1316   2.3788   2.4698   2.7159
     2.7446   2.8935   3.4769   3.5881   3.6019   3.7935   4.1187   4.1791
     4.2057   4.2854   4.3343   4.3747   4.5122   4.5907   4.7013   4.7992
     5.0371   5.0901   5.3375   5.5337   5.6619   5.8974   6.1605

     the Fermi energy is     2.0769 ev

!    total energy              =   -1751.43649241 Ry
     Harris-Foulkes estimate   =   -1751.43649478 Ry
     estimated scf accuracy    <       0.00000062 Ry

     The total energy is the sum of the following terms:

     one-electron contribution =  -12598.50751979 Ry
     hartree contribution      =    6288.96173913 Ry
     xc contribution           =    -435.23255220 Ry
     ewald contribution        =    4993.42822022 Ry
     electric field correction =       0.00000397 Ry
     smearing contrib. (-TS)   =      -0.08638375 Ry

     convergence has been achieved in  16 iterations

 BEEF-vdW xc energy contributions
           1 :   -383.506203874725
           2 :    354.207697433223
           3 :   -302.448112922738
           4 :    239.280099421688
           5 :   -176.203503770515
           6 :    121.894104026471
           7 :   -80.5132854464612
           8 :    51.8531450522734
           9 :   -32.8538603014900
          10 :    19.6381167894899
          11 :   -9.20825442639261
          12 :   0.242660339193890
          13 :    7.10236686257855
          14 :   -12.0346941685635
          15 :    14.0378674846613
          16 :   -13.3807396088851
          17 :    11.0682746798258
          18 :   -8.39734089134390
          19 :    6.42765582756459
          20 :   -5.63867221891394
          21 :    5.89148501027614
          22 :   -6.65227633921529
          23 :    7.32196999208861
          24 :   -7.50148117150803
          25 :    7.09273013814152
          26 :   -6.24324692258324
          27 :    5.21233642739412
          28 :   -4.24449276577997
          29 :    3.49527768994687
          30 :   -3.01388975139849
          31 :   -34.8970518820433
          32 :   -25.8737732882489

     Forces acting on atoms (Ry/au):

     negative rho (up, down):  1.162E+00 0.000E+00
     atom    1 type  1   force =    -0.00032486   -0.00022987   -0.00684131
     atom    2 type  1   force =    -0.00032773   -0.00023133   -0.00684204
     atom    3 type  2   force =     0.00002411    0.00002167    0.02456293
     atom    4 type  2   force =     0.00002855    0.00001581    0.02455719
     atom    5 type  1   force =     0.00011432    0.00006245   -0.01424559
     atom    6 type  1   force =     0.00009740    0.00008676   -0.01424297
     atom    7 type  2   force =     0.00005480    0.00003484   -0.00189009
     atom    8 type  2   force =     0.00007353    0.00005442   -0.00188858
     atom    9 type  1   force =     0.00004338    0.00003192   -0.00158011
     atom   10 type  1   force =     0.00004975    0.00003325   -0.00157991
     atom   11 type  2   force =     0.00008765    0.00005611   -0.00000927
     atom   12 type  2   force =     0.00007911    0.00006397   -0.00000025

     Total force =     0.041453     Total SCF correction =     0.002916

     entering subroutine stress ...

     negative rho (up, down):  1.162E+00 0.000E+00
          total   stress  (Ry/bohr**3)                   (kbar)     P=  -21.80
  -0.00020236  -0.00001046   0.00000073        -29.77     -1.54      0.11
  -0.00001046  -0.00019495   0.00000052         -1.54    -28.68      0.08
   0.00000073   0.00000052  -0.00004721          0.11      0.08     -6.95

 !ASE

     Writing output data file calc.save

     General routines

     Parallel routines

   This run was terminated on:   8:35: 0  25Dec2018

   JOB DONE.
Job  /afs/slac/g/suncat/bin/suncat-tsmpirun -x LD_LIBRARY_PATH -wdir /scratch/qe109296_zrLQ1 pw.x -in pw.inp

TID   HOST_NAME   COMMAND_LINE            STATUS            TERMINATION_TIME
00000 suncat0190 pw.x -in pw.inp   Done                     12/25/2018 08:35:00
00001 suncat0190 pw.x -in pw.inp   Done                     12/25/2018 08:35:00
00002 suncat0190 pw.x -in pw.inp   Done                     12/25/2018 08:35:00
00003 suncat0190 pw.x -in pw.inp   Done                     12/25/2018 08:35:00
00004 suncat0190 pw.x -in pw.inp   Done                     12/25/2018 08:35:00
00005 suncat0190 pw.x -in pw.inp   Done                     12/25/2018 08:35:00
00006 suncat0190 pw.x -in pw.inp   Done                     12/25/2018 08:35:00
00007 suncat0190 pw.x -in pw.inp   Done                     12/25/2018 08:35:00
00008 suncat0009 pw.x -in pw.inp   Done                     12/25/2018 08:35:00
00009 suncat0009 pw.x -in pw.inp   Done                     12/25/2018 08:35:00
00010 suncat0009 pw.x -in pw.inp   Done                     12/25/2018 08:35:00
00011 suncat0009 pw.x -in pw.inp   Done                     12/25/2018 08:35:00
00012 suncat0009 pw.x -in pw.inp   Done                     12/25/2018 08:35:00
00013 suncat0009 pw.x -in pw.inp   Done                     12/25/2018 08:35:00
00014 suncat0009 pw.x -in pw.inp   Done                     12/25/2018 08:35:00
00015 suncat0009 pw.x -in pw.inp   Done                     12/25/2018 08:35:00
00016 suncat0114 pw.x -in pw.inp   Done                     12/25/2018 08:35:00
00017 suncat0114 pw.x -in pw.inp   Done                     12/25/2018 08:35:00
00018 suncat0114 pw.x -in pw.inp   Done                     12/25/2018 08:35:00
00019 suncat0114 pw.x -in pw.inp   Done                     12/25/2018 08:35:00
00020 suncat0114 pw.x -in pw.inp   Done                     12/25/2018 08:35:00
00021 suncat0114 pw.x -in pw.inp   Done                     12/25/2018 08:35:00
00022 suncat0114 pw.x -in pw.inp   Done                     12/25/2018 08:35:00
00023 suncat0114 pw.x -in pw.inp   Done                     12/25/2018 08:35:00
00024 suncat0113 pw.x -in pw.inp   Done                     12/25/2018 08:35:00
00025 suncat0113 pw.x -in pw.inp   Done                     12/25/2018 08:35:00
00026 suncat0113 pw.x -in pw.inp   Done                     12/25/2018 08:35:00
00027 suncat0113 pw.x -in pw.inp   Done                     12/25/2018 08:35:00
00028 suncat0113 pw.x -in pw.inp   Done                     12/25/2018 08:35:00
00029 suncat0113 pw.x -in pw.inp   Done                     12/25/2018 08:35:00
00030 suncat0113 pw.x -in pw.inp   Done                     12/25/2018 08:35:00
00031 suncat0113 pw.x -in pw.inp   Done                     12/25/2018 08:35:00
00032 suncat0230 pw.x -in pw.inp   Done                     12/25/2018 08:35:00
00033 suncat0230 pw.x -in pw.inp   Done                     12/25/2018 08:35:00
00034 suncat0230 pw.x -in pw.inp   Done                     12/25/2018 08:35:00
00035 suncat0230 pw.x -in pw.inp   Done                     12/25/2018 08:35:00
00036 suncat0230 pw.x -in pw.inp   Done                     12/25/2018 08:35:00
00037 suncat0230 pw.x -in pw.inp   Done                     12/25/2018 08:35:00
00038 suncat0230 pw.x -in pw.inp   Done                     12/25/2018 08:35:00
00039 suncat0230 pw.x -in pw.inp   Done                     12/25/2018 08:35:00
00040 suncat0229 pw.x -in pw.inp   Done                     12/25/2018 08:35:00
00041 suncat0229 pw.x -in pw.inp   Done                     12/25/2018 08:35:00
00042 suncat0229 pw.x -in pw.inp   Done                     12/25/2018 08:35:00
00043 suncat0229 pw.x -in pw.inp   Done                     12/25/2018 08:35:00
00044 suncat0229 pw.x -in pw.inp   Done                     12/25/2018 08:35:00
00045 suncat0229 pw.x -in pw.inp   Done                     12/25/2018 08:35:00
00046 suncat0229 pw.x -in pw.inp   Done                     12/25/2018 08:35:00
00047 suncat0229 pw.x -in pw.inp   Done                     12/25/2018 08:35:00
00048 suncat0205 pw.x -in pw.inp   Done                     12/25/2018 08:35:00
00049 suncat0205 pw.x -in pw.inp   Done                     12/25/2018 08:35:00
00050 suncat0205 pw.x -in pw.inp   Done                     12/25/2018 08:35:00
00051 suncat0205 pw.x -in pw.inp   Done                     12/25/2018 08:35:00
00052 suncat0205 pw.x -in pw.inp   Done                     12/25/2018 08:35:00
00053 suncat0205 pw.x -in pw.inp   Done                     12/25/2018 08:35:00
00054 suncat0205 pw.x -in pw.inp   Done                     12/25/2018 08:35:00
00055 suncat0205 pw.x -in pw.inp   Done                     12/25/2018 08:35:00
00056 suncat0204 pw.x -in pw.inp   Done                     12/25/2018 08:35:00
00057 suncat0204 pw.x -in pw.inp   Done                     12/25/2018 08:35:00
00058 suncat0204 pw.x -in pw.inp   Done                     12/25/2018 08:35:00
00059 suncat0204 pw.x -in pw.inp   Done                     12/25/2018 08:35:00
00060 suncat0204 pw.x -in pw.inp   Done                     12/25/2018 08:35:00
00061 suncat0204 pw.x -in pw.inp   Done                     12/25/2018 08:35:00
00062 suncat0204 pw.x -in pw.inp   Done                     12/25/2018 08:35:00
00063 suncat0204 pw.x -in pw.inp   Done                     12/25/2018 08:35:00