     Program PWSCF v.5.1rc2 (svn rev. 11289) starts on 18Dec2018 at 20:28:35

     Current dimensions of program PWSCF are:
     Max number of different atomic species (ntypx) = 10
     Max number of k-points (npk) =  40000
     Max angular momentum in pseudopotentials (lmaxx) =  3
     Presently stress not available with electric field

     IMPORTANT: XC functional enforced from input :
     Exchange-correlation      = BEEF-VDW ( 1  4 27 13 2)
     Any further DFT definition will be discarded
     Please, verify this is what you really want

     Subspace diagonalization in iterative solution of the eigenvalue problem:
     a serial algorithm will be used

     Found symmetry operation: I + ( -0.5000 -0.5000  0.0000)
     This is a supercell, fractional translations are disabled

     bravais-lattice index     =            0
     lattice parameter (alat)  =       1.8897  a.u.
     unit-cell volume          =    5727.0656 (a.u.)^3
     number of atoms/cell      =           12
     number of atomic types    =            2
     number of electrons       =       162.00
     number of Kohn-Sham states=          111
     kinetic-energy cutoff     =      36.7493  Ry
     charge density cutoff     =     367.4932  Ry
     convergence threshold     =      1.0E-06
     mixing beta               =       0.1000
     number of iterations used =           10  plain     mixing
     Exchange-correlation      = BEEF-VDW ( 1  4 27 13 2)
     nstep                     =           50

     celldm(1)=   1.889726  celldm(2)=   0.000000  celldm(3)=   0.000000
     celldm(4)=   0.000000  celldm(5)=   0.000000  celldm(6)=   0.000000

     crystal axes: (cart. coord. in units of alat)
               a(1) = (   5.973125   0.000000   0.000000 )
               a(2) = (   1.616296   5.750288   0.000000 )
               a(3) = (   0.000000   0.000000  24.708387 )

     reciprocal axes: (cart. coord. in units 2 pi/alat)
               b(1) = (  0.167417 -0.047058  0.000000 )
               b(2) = (  0.000000  0.173904  0.000000 )
               b(3) = (  0.000000  0.000000  0.040472 )

     PseudoPot. # 1 for Nb read from file:
     /afs/slac.stanford.edu/u/if/mamunm/psp/gbrv1.5pbe/Nb.UPF
     MD5 check sum: 573aab8a2fa660278ed4a62cd769473f
     Pseudo is Ultrasoft + core correction, Zval = 13.0
     Generated by new atomic code, or converted to UPF format
     Using radial grid of  887 points,  6 beta functions with:
                l(1) =   0
                l(2) =   0
                l(3) =   1
                l(4) =   1
                l(5) =   2
                l(6) =   2
     Q(r) pseudized with  6 coefficients,  rinner =    1.000   1.000   1.000
                                                       1.000   1.000

     PseudoPot. # 2 for Sn read from file:
     /afs/slac.stanford.edu/u/if/mamunm/psp/gbrv1.5pbe/Sn.UPF
     MD5 check sum: 469debedee59599fedebd795477fea03
     Pseudo is Ultrasoft + core correction, Zval = 14.0
     Generated by new atomic code, or converted to UPF format
     Using radial grid of  891 points,  6 beta functions with:
                l(1) =   0
                l(2) =   0
                l(3) =   1
                l(4) =   1
                l(5) =   2
                l(6) =   2
     Q(r) pseudized with  8 coefficients,  rinner =    1.350   1.350   1.350
                                                       1.350   1.350

     vdW kernel table read from file vdW_kernel_table
     MD5 check sum: 095c7af220d748ca6e76c0b4c6cfb241

     atomic species   valence    mass     pseudopotential
        Nb1           13.00    92.90637     Nb( 1.00)
        Sn1           14.00   118.71000     Sn( 1.00)

     No symmetry found

   Cartesian axes

     site n.     atom                  positions (alat units)
         1           Nb1 tau(   1) = (   0.0000000   0.0000000  10.0000000  )
         2           Nb1 tau(   2) = (   3.7947104   2.8751438  10.0000000  )
         3           Sn1 tau(   3) = (   2.9865624   0.0000000  10.0000000  )
         4           Sn1 tau(   4) = (   0.8081480   2.8751438  10.0000000  )
         5           Nb1 tau(   5) = (   5.9731248   4.5256662  12.3541936  )
         6           Nb1 tau(   6) = (   2.1784144   1.6505224  12.3541936  )
         7           Sn1 tau(   7) = (   2.9865624   4.5256662  12.3541936  )
         8           Sn1 tau(   8) = (   5.1649768   1.6505224  12.3541936  )
         9           Nb1 tau(   9) = (   4.3568288   3.3010448  14.7083872  )
        10           Nb1 tau(  10) = (   0.5621183   0.4259010  14.7083872  )
        11           Sn1 tau(  11) = (   1.3702664   3.3010448  14.7083872  )
        12           Sn1 tau(  12) = (   3.5486807   0.4259010  14.7083872  )

     number of k points=    20  Fermi-Dirac smearing, width (Ry)=  0.0110
                       cart. coord. in units 2pi/alat
        k(    1) = (   0.0000000   0.0000000   0.0000000), wk =   0.0555556
        k(    2) = (   0.0000000   0.0289841   0.0000000), wk =   0.1111111
        k(    3) = (   0.0000000   0.0579681   0.0000000), wk =   0.1111111
        k(    4) = (   0.0000000  -0.0869522   0.0000000), wk =   0.0555556
        k(    5) = (   0.0279028  -0.0078429   0.0000000), wk =   0.1111111
        k(    6) = (   0.0279028   0.0211411   0.0000000), wk =   0.1111111
        k(    7) = (   0.0279028   0.0501252   0.0000000), wk =   0.1111111
        k(    8) = (   0.0279028  -0.0947951   0.0000000), wk =   0.1111111
        k(    9) = (   0.0279028  -0.0658110   0.0000000), wk =   0.1111111
        k(   10) = (   0.0279028  -0.0368270   0.0000000), wk =   0.1111111
        k(   11) = (   0.0558055  -0.0156859   0.0000000), wk =   0.1111111
        k(   12) = (   0.0558055   0.0132982   0.0000000), wk =   0.1111111
        k(   13) = (   0.0558055   0.0422822   0.0000000), wk =   0.1111111
        k(   14) = (   0.0558055  -0.1026380   0.0000000), wk =   0.1111111
        k(   15) = (   0.0558055  -0.0736540   0.0000000), wk =   0.1111111
        k(   16) = (   0.0558055  -0.0446699   0.0000000), wk =   0.1111111
        k(   17) = (  -0.0837083   0.0235288   0.0000000), wk =   0.0555556
        k(   18) = (  -0.0837083   0.0525129   0.0000000), wk =   0.1111111
        k(   19) = (  -0.0837083   0.0814969   0.0000000), wk =   0.1111111
        k(   20) = (  -0.0837083  -0.0634234   0.0000000), wk =   0.0555556

     Largest allocated arrays     est. size (Mb)     dimensions
     Largest temporary arrays     est. size (Mb)     dimensions

     Initial potential from superposition of free atoms
     Check: negative starting charge=   -0.004301

     starting charge  155.98333, renormalised to  162.00000

     negative rho (up, down):  4.467E-03 0.000E+00

     *
     * You are using vdW-DF for exchange-correlation in this calculation.
     * Please cite the following three references that made this development
     * possible:
     *
     *   M. Dion, H. Rydberg, E. Schroder, D. C. Langreth, and
     *   B. I. Lundqvist, Phys. Rev. Lett. 92, 246401 (2004).
     *
     *   T. Thonhauser, V. R. Cooper, S. Li, A. Puzder, P. Hyldgaard, and
     *   D. C. Langreth, Phys. Rev. B 76, 125112 (2007).
     *
     *   G. Roman-Perez and J. M. Soler, Phys. Rev. Lett. 103, 096102 (2009).
     *
     *
     * If you are using vdW-DF2, please also cite:
     *
     *   K. Lee, E. D. Murray, L. Kong, B. I. Lundqvist, and
     *   D. C. Langreth, Phys. Rev. B 82, 081101(R) (2010).
     *
     *
     * If you are calculating the stress with vdW-DF, please also cite:
     *
     *   R. Sabatini, E. Kucukbenli, B. Kolb, T. Thonhauser, and
     *   S. de Gironcoli, J. Phys.: Condens. Matter 24, 424209 (2012).
     *

     Carrying out vdW-DF run using the following parameters:

     Nqs =      20    Nr_points =    1024   r_max =   100.000
     q_mesh =
               0.00001000     0.04494208     0.09755937     0.15916263
               0.23128650     0.31572767     0.41458969     0.53033537
               0.66584808     0.82450364     1.01025438     1.22772762
               1.48234092     1.78043706     2.12944203     2.53805004
               3.01644009     3.57652955     4.23227104     5.00000000

     Gradients computed in reciprocal space

     Adding external electric field

     Computed dipole along edir(3) :
        Dipole               -0.0000 Ry au,         -0.0000 Debye
        Dipole field         -0.0000 Ry au

        Potential amp.        0.0000 Ry
        Total length         45.5248 bohr

     Starting wfc are  132 randomized atomic wfcs

     Self-consistent Calculation

     iteration #  1     ecut=    36.75 Ry     beta=0.10
     Davidson diagonalization with overlap
     ethr =  1.00E-02,  avg # of iterations =  7.3

[...]

     total energy              =   -1676.12809952 Ry
     Harris-Foulkes estimate   =   -1676.95564096 Ry
     estimated scf accuracy    <       5.43618448 Ry

[...]

     End of self-consistent calculation

          k = 0.0000 0.0000 0.0000 ( 21503 PWs)   bands (ev):

   -53.9240 -53.9228 -53.9180 -53.9174 -53.7243 -53.7191 -30.0468 -30.0440
   -30.0277 -30.0171 -29.9817 -29.9812 -29.9330 -29.9274 -29.8872 -29.8862
   -29.8682 -29.8615 -29.8149 -29.8023 -29.7886 -29.7116 -29.6302 -29.6147
   -20.1879 -20.1619 -20.1589 -20.1504 -20.1420 -20.1367 -20.1081 -20.0954
   -20.0870 -20.0318 -19.9030 -19.8919 -19.8905 -19.8880 -19.8684 -19.8676
   -19.8665 -19.8585 -19.8488 -19.8472 -19.8339 -19.8310 -19.8250 -19.8244
   -19.8165 -19.8079 -19.8068 -19.7904 -19.7613 -19.7576  -8.4511  -6.8430
    -6.2615  -5.4647  -5.4350  -5.0742  -2.0725  -1.7769  -1.4229  -1.0331
    -1.0093  -0.8995  -0.6125  -0.4468  -0.1665  -0.0409   0.1533   0.1667
     0.3966   0.7974   0.8211   0.8457   1.1206   1.1904   1.2669   1.3726
     1.4687   1.5691   1.5770   1.7145   1.7459   1.9556   2.2470   2.3473
     2.3759   2.6045   2.7189   3.0286   3.4145   3.4285   3.5218   3.5456
     3.5683   4.0144   4.0381   4.2801   4.4594   4.5643   4.7661   4.9818
     5.1030   5.1385   5.4609   5.4614   5.6053   6.1755   6.1912

[...]

          k =-0.0837 0.0235 0.0000 ( 21514 PWs)   bands (ev):

[...]

     the Fermi energy is     1.5893 ev

!    total energy              =   -1675.24165810 Ry
     Harris-Foulkes estimate   =   -1675.24165732 Ry
     estimated scf accuracy    <       0.00000072 Ry

     The total energy is the sum of the following terms:

     one-electron contribution =  -11347.52629948 Ry
     hartree contribution      =    5703.07232109 Ry
     xc contribution           =    -381.56425040 Ry
     ewald contribution        =    4350.85284335 Ry
     electric field correction =       0.00000002 Ry
     smearing contrib. (-TS)   =      -0.07627269 Ry

     convergence has been achieved in  17 iterations

 BEEF-vdW xc energy contributions
           1 :   -333.001761998589
           2 :    304.635471690049
           3 :   -256.374664487285
           4 :    201.396238566890
           5 :   -152.282648026217
           6 :    116.644059181551
           7 :   -95.4759120616873
           8 :    84.5102384145141
           9 :   -77.4813380972037
          10 :    69.4821199046117
          11 :   -58.8639238608303
          12 :    47.0526306367906
[...]

[...]

     iteration #  9     ecut=    36.75 Ry     beta=0.10
     Davidson diagonalization with overlap
     c_bands:  1 eigenvalues not converged
     ethr =  1.61E-05,  avg # of iterations =  4.4

[...]

   This run was terminated on:  21:10: 8  18Dec2018

[...]

     Program PWSCF v.5.1rc2 (svn rev. 11289) starts on 18Dec2018 at 21:25:57

     Current dimensions of program PWSCF are:
     Max number of different atomic species (ntypx) = 10
     Max number of k-points (npk) =  40000
     Max angular momentum in pseudopotentials (lmaxx) =  3
     Presently stress not available with electric field

     IMPORTANT: XC functional enforced from input :
     Exchange-correlation      = BEEF-VDW ( 1  4 27 13 2)
     Any further DFT definition will be discarded
     Please, verify this is what you really want

     Subspace diagonalization in iterative solution of the eigenvalue problem:
     a serial algorithm will be used

     Found symmetry operation: I + ( -0.5000 -0.5000  0.0000)
     This is a supercell, fractional translations are disabled

     bravais-lattice index     =            0
     lattice parameter (alat)  =       1.8897  a.u.
     unit-cell volume          =    5727.0656 (a.u.)^3
     number of atoms/cell      =           12
     number of atomic types    =            2
     number of electrons       =       162.00
     number of Kohn-Sham states=          111
     kinetic-energy cutoff     =      36.7493  Ry
     charge density cutoff     =     367.4932  Ry
     convergence threshold     =      1.0E-06
     mixing beta               =       0.1000
     number of iterations used =           10  plain     mixing
     Exchange-correlation      = BEEF-VDW ( 1  4 27 13 2)
     nstep                     =           50

     celldm(1)=   1.889726  celldm(2)=   0.000000  celldm(3)=   0.000000
     celldm(4)=   0.000000  celldm(5)=   0.000000  celldm(6)=   0.000000

     crystal axes: (cart. coord. in units of alat)
               a(1) = (   5.973125   0.000000   0.000000 )
               a(2) = (   1.616296   5.750288   0.000000 )
               a(3) = (   0.000000   0.000000  24.708387 )

     reciprocal axes: (cart. coord. in units 2 pi/alat)
               b(1) = (  0.167417 -0.047058  0.000000 )
               b(2) = (  0.000000  0.173904  0.000000 )
               b(3) = (  0.000000  0.000000  0.040472 )

     PseudoPot. # 1 for Nb read from file:
     /afs/slac.stanford.edu/u/if/mamunm/psp/gbrv1.5pbe/Nb.UPF
     MD5 check sum: 573aab8a2fa660278ed4a62cd769473f
     Pseudo is Ultrasoft + core correction, Zval = 13.0
     Generated by new atomic code, or converted to UPF format
     Using radial grid of  887 points,  6 beta functions with:
                l(1) =   0
                l(2) =   0
                l(3) =   1
                l(4) =   1
                l(5) =   2
                l(6) =   2
     Q(r) pseudized with  6 coefficients,  rinner =    1.000   1.000   1.000
                                                       1.000   1.000

     PseudoPot. # 2 for Sn read from file:
     /afs/slac.stanford.edu/u/if/mamunm/psp/gbrv1.5pbe/Sn.UPF
     MD5 check sum: 469debedee59599fedebd795477fea03
     Pseudo is Ultrasoft + core correction, Zval = 14.0
     Generated by new atomic code, or converted to UPF format
     Using radial grid of  891 points,  6 beta functions with:
                l(1) =   0
                l(2) =   0
                l(3) =   1
                l(4) =   1
                l(5) =   2
                l(6) =   2
     Q(r) pseudized with  8 coefficients,  rinner =    1.350   1.350   1.350
                                                       1.350   1.350

     vdW kernel table read from file vdW_kernel_table
     MD5 check sum: 095c7af220d748ca6e76c0b4c6cfb241

     atomic species   valence    mass     pseudopotential
        Nb1           13.00    92.90637     Nb( 1.00)
        Sn1           14.00   118.71000     Sn( 1.00)

     No symmetry found

   Cartesian axes

     site n.     atom                  positions (alat units)
         1           Nb1 tau(   1) = (   0.0000000   0.0000000  10.0000000  )
         2           Nb1 tau(   2) = (   3.7947104   2.8751438  10.0000000  )
         3           Sn1 tau(   3) = (   2.9865624   0.0000000  10.0000000  )
         4           Sn1 tau(   4) = (   0.8081480   2.8751438  10.0000000  )
         5           Nb1 tau(   5) = (   5.9731248   4.5256662  12.3541936  )
         6           Nb1 tau(   6) = (   2.1784144   1.6505224  12.3541936  )
         7           Sn1 tau(   7) = (   2.9865624   4.5256662  12.3541936  )
         8           Sn1 tau(   8) = (   5.1649768   1.6505224  12.3541936  )
         9           Nb1 tau(   9) = (   4.5642112   3.4581602  14.4932841  )
        10           Nb1 tau(  10) = (   0.7695088   0.5830299  14.4932719  )
        11           Sn1 tau(  11) = (   1.5277045   3.4203226  14.9506653  )
        12           Sn1 tau(  12) = (   3.7061117   0.5451636  14.9507051  )

     number of k points=    20  Fermi-Dirac smearing, width (Ry)=  0.0110
                       cart. coord. in units 2pi/alat
        k(    1) = (   0.0000000   0.0000000   0.0000000), wk =   0.0555556
        k(    2) = (   0.0000000   0.0289841   0.0000000), wk =   0.1111111
        k(    3) = (   0.0000000   0.0579681   0.0000000), wk =   0.1111111
        k(    4) = (   0.0000000  -0.0869522   0.0000000), wk =   0.0555556
        k(    5) = (   0.0279028  -0.0078429   0.0000000), wk =   0.1111111
        k(    6) = (   0.0279028   0.0211411   0.0000000), wk =   0.1111111
        k(    7) = (   0.0279028   0.0501252   0.0000000), wk =   0.1111111
        k(    8) = (   0.0279028  -0.0947951   0.0000000), wk =   0.1111111
        k(    9) = (   0.0279028  -0.0658110   0.0000000), wk =   0.1111111
        k(   10) = (   0.0279028  -0.0368270   0.0000000), wk =   0.1111111
        k(   11) = (   0.0558055  -0.0156859   0.0000000), wk =   0.1111111
        k(   12) = (   0.0558055   0.0132982   0.0000000), wk =   0.1111111
        k(   13) = (   0.0558055   0.0422822   0.0000000), wk =   0.1111111
        k(   14) = (   0.0558055  -0.1026380   0.0000000), wk =   0.1111111
        k(   15) = (   0.0558055  -0.0736540   0.0000000), wk =   0.1111111
        k(   16) = (   0.0558055  -0.0446699   0.0000000), wk =   0.1111111
        k(   17) = (  -0.0837083   0.0235288   0.0000000), wk =   0.0555556
        k(   18) = (  -0.0837083   0.0525129   0.0000000), wk =   0.1111111
        k(   19) = (  -0.0837083   0.0814969   0.0000000), wk =   0.1111111
        k(   20) = (  -0.0837083  -0.0634234   0.0000000), wk =   0.0555556

     Largest allocated arrays     est. size (Mb)     dimensions
     Largest temporary arrays     est. size (Mb)     dimensions

     Initial potential from superposition of free atoms
     Check: negative starting charge=   -0.004322

     starting charge  155.98333, renormalised to  162.00000

[...]

     *
     * You are using vdW-DF for exchange-correlation in this calculation.
     * Please cite the following three references that made this development
     * possible:
     *
     *   M. Dion, H. Rydberg, E. Schroder, D. C. Langreth, and
     *   B. I. Lundqvist, Phys. Rev. Lett. 92, 246401 (2004).
     *
     *   T. Thonhauser, V. R. Cooper, S. Li, A. Puzder, P. Hyldgaard, and
     *   D. C. Langreth, Phys. Rev. B 76, 125112 (2007).
     *
     *   G. Roman-Perez and J. M. Soler, Phys. Rev. Lett. 103, 096102 (2009).
     *
     *
     * If you are using vdW-DF2, please also cite:
     *
     *   K. Lee, E. D. Murray, L. Kong, B. I. Lundqvist, and
     *   D. C. Langreth, Phys. Rev. B 82, 081101(R) (2010).
     *
     *
     * If you are calculating the stress with vdW-DF, please also cite:
     *
     *   R. Sabatini, E. Kucukbenli, B. Kolb, T. Thonhauser, and
     *   S. de Gironcoli, J. Phys.: Condens. Matter 24, 424209 (2012).
     *

     Carrying out vdW-DF run using the following parameters:

     Nqs =      20    Nr_points =    1024   r_max =   100.000
     q_mesh =
               0.00001000     0.04494208     0.09755937     0.15916263
               0.23128650     0.31572767     0.41458969     0.53033537
               0.66584808     0.82450364     1.01025438     1.22772762
               1.48234092     1.78043706     2.12944203     2.53805004
               3.01644009     3.57652955     4.23227104     5.00000000

     Gradients computed in reciprocal space

[...]

     Starting wfc are  132 randomized atomic wfcs

     Self-consistent Calculation

[...]

     iteration #  9     ecut=    36.75 Ry     beta=0.10
     Davidson diagonalization with overlap
     c_bands:  1 eigenvalues not converged
     ethr =  1.48E-05,  avg # of iterations =  4.5

[...]

     total energy              =   -1675.28667601 Ry
     Harris-Foulkes estimate   =   -1675.28667491 Ry
     estimated scf accuracy    <       0.00000203 Ry

     iteration # 18     ecut=    36.75 Ry     beta=0.10
     Davidson diagonalization with overlap
     ethr =  1.25E-09,  avg # of iterations =  2.8

[...]

     negative rho (up, down):  3.649E-03 0.000E+00

     Adding external electric field

     Computed dipole along edir(3) :
        Dipole               -0.0553 Ry au,         -0.1406 Debye
        Dipole field         -0.0001 Ry au

        Potential amp.        0.0111 Ry
        Total length         45.5248 bohr

     End of self-consistent calculation

[...]

          k = 0.0558-0.0447 0.0000 ( 21572 PWs)   bands (ev):

[...]

          k =-0.0837-0.0634 0.0000 ( 21608 PWs)   bands (ev):

   -53.9920 -53.9869 -53.8441 -53.8400 -53.7494 -53.7422 -30.1345 -30.1128
   -30.0602 -30.0525 -30.0501 -29.9691 -29.9603 -29.9549 -29.9363 -29.9113
   -29.8967 -29.8629 -29.8555 -29.8383 -29.8229 -29.7684 -29.4593 -29.4555
   -20.2267 -20.2085 -20.1923 -20.1802 -20.1787 -20.1742 -20.1467 -20.1339
   -20.1315 -20.0730 -20.0319 -20.0215 -19.9988 -19.9986 -19.9547 -19.9479
   -19.9458 -19.9428 -19.9411 -19.9254 -19.9247 -19.9136 -19.9133 -19.8854
   -19.8794 -19.8740 -19.8709 -19.8653 -19.8602 -19.8176  -7.1388  -6.5638
    -6.5236  -5.6476  -5.2488  -3.6892  -3.6423  -3.4344  -2.6492  -2.2760
    -2.1652  -2.1404  -1.5402  -1.3178  -0.9268  -0.2342  -0.1346  -0.0943
     0.0578   0.0715   0.1531   0.4836   0.6010   1.0972   1.1946   1.5650
     1.6897   1.8644   2.1698   2.1872   2.2077   2.2558   2.3958   2.5644
     2.6815   3.1069   3.1808   3.2424   3.4358   3.5973   3.6694   3.7073
     4.0366   4.3195   4.4698   5.0281   5.0455   5.3336   5.8179   6.0192
     6.2740   6.3327   6.3742   6.4910   6.7623   6.8907   7.0488

     the Fermi energy is     1.5285 ev

!    total energy              =   -1675.28667714 Ry
     Harris-Foulkes estimate   =   -1675.28667680 Ry
     estimated scf accuracy    <       0.00000086 Ry

     The total energy is the sum of the following terms:

     one-electron contribution =  -11301.79091826 Ry
     hartree contribution      =    5679.92407641 Ry
     xc contribution           =    -381.60077594 Ry
     ewald contribution        =    4328.25486485 Ry
     electric field correction =       0.00000671 Ry
     smearing contrib. (-TS)   =      -0.07393092 Ry

     convergence has been achieved in  18 iterations

 BEEF-vdW xc energy contributions
           1 :   -333.039126139915
           2 :    304.660197013006
           3 :   -256.369919682049
           4 :    201.341144759088
           5 :   -152.159572205175
           6 :    116.447049135067
           7 :   -95.2079522802449
           8 :    84.1754352619961
           9 :   -77.0879717210734
          10 :    69.0568221610437
          11 :   -58.4564048818362
          12 :    46.7161605349497
          13 :   -36.5714454076845
          14 :    30.0062239470460
          15 :   -27.0832675065085
          16 :    26.1494277977638
          17 :   -25.0598238727491
          18 :    22.5208199173462
          19 :   -18.7286658284220
          20 :    15.0059452350451
          21 :   -12.7926055163834
          22 :    12.6900884592630
          23 :   -14.1486024489818
          24 :    15.9120671356157
          25 :   -16.8571647773235
          26 :    16.6501788778732
          27 :   -15.8291759449151
          28 :    15.3188248702224
          29 :   -15.7497544498063
          30 :    17.0384132548625
          31 :   -31.7957764605140
          32 :   -23.5577869881067

     Forces acting on atoms (Ry/au):

     negative rho (up, down):  3.649E-03 0.000E+00
     atom    1 type  1   force =    -0.00327852   -0.00248404    0.04742852
     atom    2 type  1   force =    -0.00327786   -0.00248383    0.04742735
     atom    3 type  2   force =     0.00262417    0.00199381   -0.03811104
     atom    4 type  2   force =     0.00261969    0.00199291   -0.03810907
     atom    5 type  1   force =     0.00537019    0.00406923    0.00994470
     atom    6 type  1   force =     0.00536433    0.00406250    0.00995361
     atom    7 type  2   force =    -0.00441256   -0.00341427   -0.01928205
     atom    8 type  2   force =    -0.00448221   -0.00332750   -0.01928312
     atom    9 type  1   force =    -0.00088533   -0.00067060   -0.00007333
     atom   10 type  1   force =    -0.00088577   -0.00067074   -0.00006929
     atom   11 type  2   force =     0.00061794    0.00047265    0.00008623
     atom   12 type  2   force =     0.00062593    0.00045987    0.00008749

     Total force =     0.092506     Total SCF correction =     0.002907

     entering subroutine stress ...

     negative rho (up, down):  3.649E-03 0.000E+00
          total   stress  (Ry/bohr**3)                   (kbar)     P=  -16.40
  -0.00016090  -0.00001574   0.00000226        -23.67     -2.32      0.33
  -0.00001574  -0.00015205   0.00000172         -2.32    -22.37      0.25
   0.00000226   0.00000172  -0.00002155          0.33      0.25     -3.17

 !ASE

     Writing output data file calc.save

     General routines

     Parallel routines

   This run was terminated on:  21:30:59  18Dec2018

   JOB DONE.
Job  /afs/slac/g/suncat/bin/suncat-tsmpirun -x LD_LIBRARY_PATH -wdir /scratch/qe530316_bStm2 pw.x -in pw.inp

TID   HOST_NAME   COMMAND_LINE            STATUS            TERMINATION_TIME
00000 suncat2048 pw.x -in pw.inp   Done                     12/18/2018 21:30:59
00001 suncat2048 pw.x -in pw.inp   Done                     12/18/2018 21:30:59
00002 suncat2048 pw.x -in pw.inp   Done                     12/18/2018 21:30:59
00003 suncat2048 pw.x -in pw.inp   Done                     12/18/2018 21:30:59
00004 suncat2048 pw.x -in pw.inp   Done                     12/18/2018 21:30:59
00005 suncat2048 pw.x -in pw.inp   Done                     12/18/2018 21:30:59
00006 suncat2048 pw.x -in pw.inp   Done                     12/18/2018 21:30:59
00007 suncat2048 pw.x -in pw.inp   Done                     12/18/2018 21:30:59
00008 suncat2048 pw.x -in pw.inp   Done                     12/18/2018 21:30:59
00009 suncat2048 pw.x -in pw.inp   Done                     12/18/2018 21:30:59
00010 suncat2048 pw.x -in pw.inp   Done                     12/18/2018 21:30:59
00011 suncat2048 pw.x -in pw.inp   Done                     12/18/2018 21:30:59
00012 suncat2048 pw.x -in pw.inp   Done                     12/18/2018 21:30:59
00013 suncat2048 pw.x -in pw.inp   Done                     12/18/2018 21:30:59
00014 suncat2048 pw.x -in pw.inp   Done                     12/18/2018 21:30:59
00015 suncat2048 pw.x -in pw.inp   Done                     12/18/2018 21:30:59
00016 suncat2047 pw.x -in pw.inp   Done                     12/18/2018 21:30:59
00017 suncat2047 pw.x -in pw.inp   Done                     12/18/2018 21:30:59
00018 suncat2047 pw.x -in pw.inp   Done                     12/18/2018 21:30:59
00019 suncat2047 pw.x -in pw.inp   Done                     12/18/2018 21:30:59
00020 suncat2047 pw.x -in pw.inp   Done                     12/18/2018 21:30:59
00021 suncat2047 pw.x -in pw.inp   Done                     12/18/2018 21:30:59
00022 suncat2047 pw.x -in pw.inp   Done                     12/18/2018 21:30:59
00023 suncat2047 pw.x -in pw.inp   Done                     12/18/2018 21:30:59
00024 suncat2047 pw.x -in pw.inp   Done                     12/18/2018 21:30:59
00025 suncat2047 pw.x -in pw.inp   Done                     12/18/2018 21:30:59
00026 suncat2047 pw.x -in pw.inp   Done                     12/18/2018 21:30:59
00027 suncat2047 pw.x -in pw.inp   Done                     12/18/2018 21:30:59
00028 suncat2047 pw.x -in pw.inp   Done                     12/18/2018 21:30:59
00029 suncat2047 pw.x -in pw.inp   Done                     12/18/2018 21:30:59
00030 suncat2047 pw.x -in pw.inp   Done                     12/18/2018 21:30:59
00031 suncat2047 pw.x -in pw.inp   Done                     12/18/2018 21:30:59