     Program PWSCF v.5.1rc2 (svn rev. 11289) starts on 19Dec2018 at  5:12:48

     Current dimensions of program PWSCF are:
     Max number of different atomic species (ntypx) = 10
     Max number of k-points (npk) =  40000
     Max angular momentum in pseudopotentials (lmaxx) =  3
     Presently stress not available with electric field

     IMPORTANT: XC functional enforced from input :
     Exchange-correlation      = BEEF-VDW ( 1  4 27 13 2)
     Any further DFT definition will be discarded
     Please, verify this is what you really want

     Subspace diagonalization in iterative solution of the eigenvalue problem:
     a serial algorithm will be used

     Found symmetry operation: I + ( -0.5000 -0.5000  0.0000)
     This is a supercell, fractional translations are disabled

     bravais-lattice index     =            0
     lattice parameter (alat)  =       1.8897  a.u.
     unit-cell volume          =    5213.0065 (a.u.)^3
     number of atoms/cell      =           12
     number of atomic types    =            2
     number of electrons       =       162.00
     number of Kohn-Sham states=          111
     kinetic-energy cutoff     =      36.7493  Ry
     charge density cutoff     =     367.4932  Ry
     convergence threshold     =      1.0E-06
     mixing beta               =       0.1000
     number of iterations used =           10  plain     mixing
     Exchange-correlation      = BEEF-VDW ( 1  4 27 13 2)
     nstep                     =           50

     celldm(1)=   1.889726  celldm(2)=   0.000000  celldm(3)=   0.000000
     celldm(4)=   0.000000  celldm(5)=   0.000000  celldm(6)=   0.000000

     crystal axes: (cart. coord. in units of alat)
               a(1) = (   5.761856   0.000000   0.000000 )
               a(2) = (   1.939327   5.425680   0.000000 )
               a(3) = (   0.000000   0.000000  24.710135 )

     reciprocal axes: (cart. coord. in units 2 pi/alat)
               b(1) = (  0.173555 -0.062035  0.000000 )
               b(2) = (  0.000000  0.184309  0.000000 )
               b(3) = (  0.000000  0.000000  0.040469 )

     PseudoPot. # 1 for Sc read from file:
     /afs/slac.stanford.edu/u/if/mamunm/psp/gbrv1.5pbe/Sc.UPF
     MD5 check sum: db30a2753ba66ef00f23801d899b7e7f
     Pseudo is Ultrasoft + core correction, Zval = 11.0
     Generated by new atomic code, or converted to UPF format
     Using radial grid of  849 points,  6 beta functions with:
                l(1) =   0
                l(2) =   0
                l(3) =   1
                l(4) =   1
                l(5) =   2
                l(6) =   2
     Q(r) pseudized with  6 coefficients,  rinner =    1.200   1.200   1.200
                                                       1.200   1.200

     PseudoPot. # 2 for Pd read from file:
     /afs/slac.stanford.edu/u/if/mamunm/psp/gbrv1.5pbe/Pd.UPF
     MD5 check sum: 2d733d2bc2cbfd217af676df1668a4bc
     Pseudo is Ultrasoft + core correction, Zval = 16.0
     Generated by new atomic code, or converted to UPF format
     Using radial grid of  887 points,  6 beta functions with:
                l(1) =   0
                l(2) =   0
                l(3) =   1
                l(4) =   1
                l(5) =   2
                l(6) =   2
     Q(r) pseudized with  8 coefficients,  rinner =    1.130   1.130   1.130
                                                       1.130   1.130

     vdW kernel table read from file vdW_kernel_table
     MD5 check sum: 095c7af220d748ca6e76c0b4c6cfb241

     atomic species   valence    mass     pseudopotential
        Sc1           11.00    44.95591     Sc( 1.00)
        Pd1           16.00   106.42000     Pd( 1.00)

     No symmetry found

   Cartesian axes

     site n.     atom                  positions (alat units)
         1           Sc1 tau(   1) = (   0.0000000   0.0000000  10.0000000  )
         2           Sc1 tau(   2) = (   3.8505913   2.7128398  10.0000000  )
         3           Pd1 tau(   3) = (   2.8809281   0.0000000  10.0000000  )
         4           Pd1 tau(   4) = (   0.9696633   2.7128398  10.0000000  )
         5           Sc1 tau(   5) = (   5.7618561   4.0593745  12.3550677  )
         6           Sc1 tau(   6) = (   1.9112648   1.3465348  12.3550677  )
         7           Pd1 tau(   7) = (   2.8809281   4.0593745  12.3550677  )
         8           Pd1 tau(   8) = (   4.7921928   1.3465348  12.3550677  )
         9           Sc1 tau(   9) = (   3.8225295   2.6930695  14.7101353  )
        10           Sc1 tau(  10) = (   7.6731209   5.4059093  14.7101353  )
        11           Pd1 tau(  11) = (   6.7034576   2.6930695  14.7101353  )
        12           Pd1 tau(  12) = (   4.7921928   5.4059093  14.7101353  )

     number of k points=    20  Fermi-Dirac smearing, width (Ry)=  0.0110
                       cart. coord. in units 2pi/alat
        k(    1) = (   0.0000000   0.0000000   0.0000000), wk =   0.0555556
        k(    2) = (   0.0000000   0.0307181   0.0000000), wk =   0.1111111
        k(    3) = (   0.0000000   0.0614362   0.0000000), wk =   0.1111111
        k(    4) = (   0.0000000  -0.0921544   0.0000000), wk =   0.0555556
        k(    5) = (   0.0289259  -0.0103391   0.0000000), wk =   0.1111111
        k(    6) = (   0.0289259   0.0203790   0.0000000), wk =   0.1111111
        k(    7) = (   0.0289259   0.0510971   0.0000000), wk =   0.1111111
        k(    8) = (   0.0289259  -0.1024935   0.0000000), wk =   0.1111111
        k(    9) = (   0.0289259  -0.0717753   0.0000000), wk =   0.1111111
        k(   10) = (   0.0289259  -0.0410572   0.0000000), wk =   0.1111111
        k(   11) = (   0.0578517  -0.0206782   0.0000000), wk =   0.1111111
        k(   12) = (   0.0578517   0.0100399   0.0000000), wk =   0.1111111
        k(   13) = (   0.0578517   0.0407580   0.0000000), wk =   0.1111111
        k(   14) = (   0.0578517  -0.1128326   0.0000000), wk =   0.1111111
        k(   15) = (   0.0578517  -0.0821145   0.0000000), wk =   0.1111111
        k(   16) = (   0.0578517  -0.0513963   0.0000000), wk =   0.1111111
        k(   17) = (  -0.0867776   0.0310173   0.0000000), wk =   0.0555556
        k(   18) = (  -0.0867776   0.0617354   0.0000000), wk =   0.1111111
        k(   19) = (  -0.0867776   0.0924536   0.0000000), wk =   0.1111111
        k(   20) = (  -0.0867776  -0.0611370   0.0000000), wk =   0.0555556

     Largest allocated arrays     est. size (Mb)     dimensions
     Largest temporary arrays     est. size (Mb)     dimensions

     Initial potential from superposition of free atoms
     Check: negative starting charge=   -0.448420

     starting charge  158.98554, renormalised to  162.00000

     negative rho (up, down):  4.569E-01 0.000E+00

     *
     * You are using vdW-DF for exchange-correlation in this calculation.
     * Please cite the following three references that made this development
     * possible:
     *
     *   M. Dion, H. Rydberg, E. Schroder, D. C. Langreth, and
     *   B. I. Lundqvist, Phys. Rev. Lett. 92, 246401 (2004).
     *
     *   T. Thonhauser, V. R. Cooper, S. Li, A. Puzder, P. Hyldgaard, and
     *   D. C. Langreth, Phys. Rev. B 76, 125112 (2007).
     *
     *   G. Roman-Perez and J. M. Soler, Phys. Rev. Lett. 103, 096102 (2009).
     *
     *
     * If you are using vdW-DF2, please also cite:
     *
     *   K. Lee, E. D. Murray, L. Kong, B. I. Lundqvist, and
     *   D. C. Langreth, Phys. Rev. B 82, 081101(R) (2010).
     *
     *
     * If you are calculating the stress with vdW-DF, please also cite:
     *
     *   R. Sabatini, E. Kucukbenli, B. Kolb, T. Thonhauser, and
     *   S. de Gironcoli, J. Phys.: Condens. Matter 24, 424209 (2012).
     *

     Carrying out vdW-DF run using the following parameters:

     Nqs =      20    Nr_points =    1024   r_max =   100.000
     q_mesh =
               0.00001000     0.04494208     0.09755937     0.15916263
               0.23128650     0.31572767     0.41458969     0.53033537
               0.66584808     0.82450364     1.01025438     1.22772762
               1.48234092     1.78043706     2.12944203     2.53805004
               3.01644009     3.57652955     4.23227104     5.00000000

     Gradients computed in reciprocal space

     Adding external electric field

     Computed dipole along edir(3) :
        Dipole               -0.0000 Ry au,         -0.0000 Debye
        Dipole field         -0.0000 Ry au

        Potential amp.        0.0000 Ry
        Total length         45.5280 bohr

     Starting wfc are  150 randomized atomic wfcs

     Self-consistent Calculation

     iteration #  1     ecut=    36.75 Ry     beta=0.10
     Davidson diagonalization with overlap
     ethr =  1.00E-02,  avg # of iterations =  2.0

[...]

     total energy              =   -1767.36718234 Ry
     Harris-Foulkes estimate   =   -1770.22410571 Ry
     estimated scf accuracy    <      16.73560051 Ry

[...]

     End of self-consistent calculation

          k = 0.0000 0.0000 0.0000 ( 19647 PWs)   bands (ev):

   -49.5501 -49.5484 -49.5307 -49.5158 -49.5154 -49.5133 -49.3662 -49.3506
   -49.3480 -49.3423 -49.2473 -49.2471 -49.2453 -49.2450 -49.1683 -49.1597
   -49.1354 -49.1354 -49.1019 -49.0711 -49.0691 -49.0690 -48.9689 -48.9620
   -28.0250 -28.0242 -28.0119 -28.0055 -27.9629 -27.9605 -27.8805 -27.8725
   -27.8695 -27.8584 -27.7959 -27.7954 -27.6468 -27.5554 -27.5496 -27.5355
   -27.5317 -27.4772  -4.5833  -3.2868  -3.1040  -3.0273  -2.9682  -2.9650
    -2.8171  -2.7169  -2.7019  -2.6987  -2.5133  -2.4683  -2.2259  -2.1696
    -2.0620  -2.0428  -1.9451  -1.8973  -1.8827  -1.8772  -1.8453  -1.7071
    -1.6715  -1.5055  -1.4738  -1.3156  -1.2698  -1.1403  -1.0773  -0.9715
    -0.9323  -0.6640  -0.0960   0.4650   0.6012   0.8156   0.8216   1.5048
     1.5580   1.7065   1.8196   1.9312   2.0801   2.1593   2.2259   2.2303
     2.2747   2.3307   2.4559   2.4977   2.7346   2.7918   2.8086   3.0275
     3.0630   3.2326   3.2959   3.3496   3.4557   3.5213   3.5932   3.7049
     3.7723   3.9002   3.9085   4.0474   4.1268   4.1303   4.2653

[...]

          k =-0.0868 0.0310 0.0000 ( 19624 PWs)   bands (ev):

[...]

     the Fermi energy is     1.2445 ev

!    total energy              =   -1768.25933844 Ry
     Harris-Foulkes estimate   =   -1768.25934780 Ry
     estimated scf accuracy    <       0.00000043 Ry

     The total energy is the sum of the following terms:

     one-electron contribution =  -12679.83563704 Ry
     hartree contribution      =    6353.33875582 Ry
     xc contribution           =    -278.23172635 Ry
     ewald contribution        =    4836.52576604 Ry
     electric field correction =       0.00000001 Ry
     smearing contrib. (-TS)   =      -0.05649692 Ry

     convergence has been achieved in  16 iterations

 BEEF-vdW xc energy contributions
           1 :   -240.407515426128
           2 :    217.333884355999
           3 :   -179.085609885351
           4 :    137.330893862976
           5 :   -102.131426250421
           6 :    78.4225186860042
           7 :   -65.7039249874873
           8 :    60.1582658640230
           9 :   -57.4200890683715
          10 :    54.5034064245531
          11 :   -50.3479554841630
          12 :    45.3033799498019
[...]
00029 suncat2055 pw.x -in pw.inp   Done                     12/19/2018 05:17:43
00030 suncat2055 pw.x -in pw.inp   Done                     12/19/2018 05:17:43
00031 suncat2055 pw.x -in pw.inp   Done                     12/19/2018 05:17:43

[...]

     Program PWSCF v.5.1rc2 (svn rev. 11289) starts on 19Dec2018 at  5:23: 5

[...]

   This run was terminated on:   5:28: 2  19Dec2018

[...]

     Program PWSCF v.5.1rc2 (svn rev. 11289) starts on 19Dec2018 at  5:28: 8

[...]

     Program PWSCF v.5.1rc2 (svn rev. 11289) starts on 19Dec2018 at  5:43:38

     Current dimensions of program PWSCF are:
     Max number of different atomic species (ntypx) = 10
     Max number of k-points (npk) =  40000
     Max angular momentum in pseudopotentials (lmaxx) =  3
     Presently stress not available with electric field

     IMPORTANT: XC functional enforced from input :
     Exchange-correlation      = BEEF-VDW ( 1  4 27 13 2)
     Any further DFT definition will be discarded
     Please, verify this is what you really want

     Subspace diagonalization in iterative solution of the eigenvalue problem:
     a serial algorithm will be used

     Found symmetry operation: I + ( -0.5000 -0.5000  0.0000)
     This is a supercell, fractional translations are disabled

     bravais-lattice index     =            0
     lattice parameter (alat)  =       1.8897  a.u.
     unit-cell volume          =    5213.0065 (a.u.)^3
     number of atoms/cell      =           12
     number of atomic types    =            2
     number of electrons       =       162.00
     number of Kohn-Sham states=          111
     kinetic-energy cutoff     =      36.7493  Ry
     charge density cutoff     =     367.4932  Ry
     convergence threshold     =      1.0E-06
     mixing beta               =       0.1000
     number of iterations used =           10  plain     mixing
     Exchange-correlation      = BEEF-VDW ( 1  4 27 13 2)
     nstep                     =           50

     celldm(1)=   1.889726  celldm(2)=   0.000000  celldm(3)=   0.000000
     celldm(4)=   0.000000  celldm(5)=   0.000000  celldm(6)=   0.000000

     crystal axes: (cart. coord. in units of alat)
               a(1) = (   5.761856   0.000000   0.000000 )
               a(2) = (   1.939327   5.425680   0.000000 )
               a(3) = (   0.000000   0.000000  24.710135 )

     reciprocal axes: (cart. coord. in units 2 pi/alat)
               b(1) = (  0.173555 -0.062035  0.000000 )
               b(2) = (  0.000000  0.184309  0.000000 )
               b(3) = (  0.000000  0.000000  0.040469 )

     PseudoPot. # 1 for Sc read from file:
     /afs/slac.stanford.edu/u/if/mamunm/psp/gbrv1.5pbe/Sc.UPF
     MD5 check sum: db30a2753ba66ef00f23801d899b7e7f
     Pseudo is Ultrasoft + core correction, Zval = 11.0
     Generated by new atomic code, or converted to UPF format
     Using radial grid of  849 points,  6 beta functions with:
                l(1) =   0
                l(2) =   0
                l(3) =   1
                l(4) =   1
                l(5) =   2
                l(6) =   2
     Q(r) pseudized with  6 coefficients,  rinner =    1.200   1.200   1.200
                                                       1.200   1.200

     PseudoPot. # 2 for Pd read from file:
     /afs/slac.stanford.edu/u/if/mamunm/psp/gbrv1.5pbe/Pd.UPF
     MD5 check sum: 2d733d2bc2cbfd217af676df1668a4bc
     Pseudo is Ultrasoft + core correction, Zval = 16.0
     Generated by new atomic code, or converted to UPF format
     Using radial grid of  887 points,  6 beta functions with:
                l(1) =   0
                l(2) =   0
                l(3) =   1
                l(4) =   1
                l(5) =   2
                l(6) =   2
     Q(r) pseudized with  8 coefficients,  rinner =    1.130   1.130   1.130
                                                       1.130   1.130

     vdW kernel table read from file vdW_kernel_table
     MD5 check sum: 095c7af220d748ca6e76c0b4c6cfb241

     atomic species   valence    mass     pseudopotential
        Sc1           11.00    44.95591     Sc( 1.00)
        Pd1           16.00   106.42000     Pd( 1.00)

     No symmetry found

   Cartesian axes

     site n.     atom                  positions (alat units)
         1           Sc1 tau(   1) = (   0.0000000   0.0000000  10.0000000  )
         2           Sc1 tau(   2) = (   3.8505913   2.7128398  10.0000000  )
         3           Pd1 tau(   3) = (   2.8809281   0.0000000  10.0000000  )
         4           Pd1 tau(   4) = (   0.9696633   2.7128398  10.0000000  )
         5           Sc1 tau(   5) = (   5.7618561   4.0593745  12.3550677  )
         6           Sc1 tau(   6) = (   1.9112648   1.3465348  12.3550677  )
         7           Pd1 tau(   7) = (   2.8809281   4.0593745  12.3550677  )
         8           Pd1 tau(   8) = (   4.7921928   1.3465348  12.3550677  )
         9           Sc1 tau(   9) = (   3.8283331   2.6971745  14.7046722  )
        10           Sc1 tau(  10) = (   7.6789317   5.4099920  14.7046692  )
        11           Pd1 tau(  11) = (   6.7085222   2.6966433  14.5105664  )
        12           Pd1 tau(  12) = (   4.7972477   5.4094663  14.5105513  )

     number of k points=    20  Fermi-Dirac smearing, width (Ry)=  0.0110
                       cart. coord. in units 2pi/alat
        k(    1) = (   0.0000000   0.0000000   0.0000000), wk =   0.0555556
        k(    2) = (   0.0000000   0.0307181   0.0000000), wk =   0.1111111
        k(    3) = (   0.0000000   0.0614362   0.0000000), wk =   0.1111111
        k(    4) = (   0.0000000  -0.0921544   0.0000000), wk =   0.0555556
        k(    5) = (   0.0289259  -0.0103391   0.0000000), wk =   0.1111111
        k(    6) = (   0.0289259   0.0203790   0.0000000), wk =   0.1111111
        k(    7) = (   0.0289259   0.0510971   0.0000000), wk =   0.1111111
        k(    8) = (   0.0289259  -0.1024935   0.0000000), wk =   0.1111111
        k(    9) = (   0.0289259  -0.0717753   0.0000000), wk =   0.1111111
        k(   10) = (   0.0289259  -0.0410572   0.0000000), wk =   0.1111111
        k(   11) = (   0.0578517  -0.0206782   0.0000000), wk =   0.1111111
        k(   12) = (   0.0578517   0.0100399   0.0000000), wk =   0.1111111
        k(   13) = (   0.0578517   0.0407580   0.0000000), wk =   0.1111111
        k(   14) = (   0.0578517  -0.1128326   0.0000000), wk =   0.1111111
        k(   15) = (   0.0578517  -0.0821145   0.0000000), wk =   0.1111111
        k(   16) = (   0.0578517  -0.0513963   0.0000000), wk =   0.1111111
        k(   17) = (  -0.0867776   0.0310173   0.0000000), wk =   0.0555556
        k(   18) = (  -0.0867776   0.0617354   0.0000000), wk =   0.1111111
        k(   19) = (  -0.0867776   0.0924536   0.0000000), wk =   0.1111111
        k(   20) = (  -0.0867776  -0.0611370   0.0000000), wk =   0.0555556

     Largest allocated arrays     est. size (Mb)     dimensions
     Largest temporary arrays     est. size (Mb)     dimensions

     Initial potential from superposition of free atoms
     Check: negative starting charge=   -0.448286

     starting charge  158.98554, renormalised to  162.00000

[...]

     *
     * You are using vdW-DF for exchange-correlation in this calculation.
     * Please cite the following three references that made this development
     * possible:
     *
     *   M. Dion, H. Rydberg, E. Schroder, D. C. Langreth, and
     *   B. I. Lundqvist, Phys. Rev. Lett. 92, 246401 (2004).
     *
     *   T. Thonhauser, V. R. Cooper, S. Li, A. Puzder, P. Hyldgaard, and
     *   D. C. Langreth, Phys. Rev. B 76, 125112 (2007).
     *
     *   G. Roman-Perez and J. M. Soler, Phys. Rev. Lett. 103, 096102 (2009).
     *
     *
     * If you are using vdW-DF2, please also cite:
     *
     *   K. Lee, E. D. Murray, L. Kong, B. I. Lundqvist, and
     *   D. C. Langreth, Phys. Rev. B 82, 081101(R) (2010).
     *
     *
     * If you are calculating the stress with vdW-DF, please also cite:
     *
     *   R. Sabatini, E. Kucukbenli, B. Kolb, T. Thonhauser, and
     *   S. de Gironcoli, J. Phys.: Condens. Matter 24, 424209 (2012).
     *

     Carrying out vdW-DF run using the following parameters:

     Nqs =      20    Nr_points =    1024   r_max =   100.000
     q_mesh =
               0.00001000     0.04494208     0.09755937     0.15916263
               0.23128650     0.31572767     0.41458969     0.53033537
               0.66584808     0.82450364     1.01025438     1.22772762
               1.48234092     1.78043706     2.12944203     2.53805004
               3.01644009     3.57652955     4.23227104     5.00000000

     Gradients computed in reciprocal space

[...]

     Starting wfc are  150 randomized atomic wfcs

     Self-consistent Calculation

[...]

     total energy              =   -1768.26892280 Ry
     Harris-Foulkes estimate   =   -1768.26892395 Ry
     estimated scf accuracy    <       0.00000215 Ry

     iteration # 17     ecut=    36.75 Ry     beta=0.10
     Davidson diagonalization with overlap
     ethr =  1.33E-09,  avg # of iterations =  3.2

[...]

     negative rho (up, down):  4.715E-01 0.000E+00

     Adding external electric field

     Computed dipole along edir(3) :
        Dipole                0.0697 Ry au,          0.1770 Debye
        Dipole field          0.0002 Ry au

        Potential amp.       -0.0153 Ry
        Total length         45.5280 bohr

     End of self-consistent calculation

[...]

          k = 0.0579-0.0514 0.0000 ( 19609 PWs)   bands (ev):

[...]

          k =-0.0868-0.0611 0.0000 ( 19530 PWs)   bands (ev):

   -49.4818 -49.4785 -49.4565 -49.4494 -49.4398 -49.4361 -49.3632 -49.3256
   -49.3180 -49.2997 -49.2872 -49.2493 -49.2217 -49.2155 -49.2094 -49.2093
   -49.1569 -49.1198 -49.0559 -49.0442 -48.9843 -48.9754 -48.7669 -48.7665
   -27.9567 -27.9442 -27.9353 -27.9290 -27.8924 -27.8788 -27.8156 -27.8016
   -27.7920 -27.7801 -27.7227 -27.7093 -27.4645 -27.3773 -27.3676 -27.3569
   -27.3557 -27.2893  -3.1885  -2.9011  -2.6508  -2.6304  -2.5915  -2.5247
    -2.4742  -2.3513  -2.3334  -2.2982  -2.2659  -2.1621  -2.1171  -2.0361
    -1.8495  -1.8006  -1.7990  -1.6988  -1.6383  -1.6273  -1.6222  -1.5321
    -1.4543  -1.3938  -1.3930  -1.3297  -1.2466  -1.1618  -1.1186  -0.9921
    -0.9422  -0.8815  -0.6394  -0.5638   0.1176   0.3821   0.4973   0.6811
     0.7129   0.7411   0.7454   1.4233   1.4807   1.6138   1.6159   1.6498
     1.8715   1.9035   2.1086   2.2949   2.3944   2.4900   2.7428   2.7486
     2.7790   2.8088   2.8896   3.0053   3.1169   3.3615   3.4203   3.5585
     3.6573   3.8412   4.0392   4.1455   4.3258   4.9575   5.0231

     the Fermi energy is     1.3192 ev

!    total energy              =   -1768.26891536 Ry
     Harris-Foulkes estimate   =   -1768.26892370 Ry
     estimated scf accuracy    <       0.00000022 Ry

     The total energy is the sum of the following terms:

     one-electron contribution =  -12889.00454793 Ry
     hartree contribution      =    6458.28933323 Ry
     xc contribution           =    -278.31867413 Ry
     ewald contribution        =    4940.81932238 Ry
     electric field correction =       0.00001170 Ry
     smearing contrib. (-TS)   =      -0.05436060 Ry

     convergence has been achieved in  17 iterations

 BEEF-vdW xc energy contributions
           1 :   -240.504966219376
           2 :    217.496122608660
           3 :   -179.314532854631
           4 :    137.552936185706
           5 :   -102.246147979095
           6 :    78.3773404155775
           7 :   -65.5358647772989
           8 :    59.9675344424539
           9 :   -57.2989828290521
          10 :    54.4810413860954
          11 :   -50.3901861385608
          12 :    45.3543367727999
          13 :   -40.2955933852077
          14 :    36.0697381907792
          15 :   -33.1726319034030
          16 :    31.6618228637291
          17 :   -31.1581247923375
          18 :    30.9569439622687
          19 :   -30.3183924742142
          20 :    28.8422667000629
          21 :   -26.6929166855784
          22 :    24.4876266106019
          23 :   -22.8927950048001
          24 :    22.1905374560079
          25 :   -22.1165544964068
          26 :    22.0745792657677
          27 :   -21.5569062737202
          28 :    20.4581846681440
          29 :   -19.0803320610631
          30 :    17.8695232367920
          31 :   -24.8350811575829
          32 :   -18.1438448953933

     Forces acting on atoms (Ry/au):

     negative rho (up, down):  4.715E-01 0.000E+00
     atom    1 type  1   force =    -0.00065951   -0.00046129   -0.00241882
     atom    2 type  1   force =    -0.00066082   -0.00046932   -0.00241916
     atom    3 type  2   force =    -0.00022736   -0.00015625    0.02274223
     atom    4 type  2   force =    -0.00022665   -0.00016371    0.02273910
     atom    5 type  1   force =     0.00033234    0.00023642   -0.01896149
     atom    6 type  1   force =     0.00033468    0.00023306   -0.01896370
     atom    7 type  2   force =    -0.00005010   -0.00003559   -0.00131110
     atom    8 type  2   force =    -0.00005257   -0.00003711   -0.00131361
     atom    9 type  1   force =     0.00028099    0.00019855   -0.00150553
     atom   10 type  1   force =     0.00028297    0.00019914   -0.00150458
     atom   11 type  2   force =     0.00032406    0.00022799    0.00145817
     atom   12 type  2   force =     0.00032197    0.00022811    0.00145849

     Total force =     0.042187     Total SCF correction =     0.002072

     entering subroutine stress ...

     negative rho (up, down):  4.715E-01 0.000E+00
          total   stress  (Ry/bohr**3)                   (kbar)     P=  -10.53
  -0.00009348  -0.00002140   0.00000252        -13.75     -3.15      0.37
  -0.00002140  -0.00007818   0.00000177         -3.15    -11.50      0.26
   0.00000252   0.00000177  -0.00004314          0.37      0.26     -6.35

 !ASE

     Writing output data file calc.save

     General routines

     Parallel routines

   This run was terminated on:   5:48:42  19Dec2018

   JOB DONE.
Job  /afs/slac/g/suncat/bin/suncat-tsmpirun -x LD_LIBRARY_PATH -wdir /scratch/qe530571_yDIhJ pw.x -in pw.inp

TID   HOST_NAME   COMMAND_LINE            STATUS            TERMINATION_TIME
00000 suncat2056 pw.x -in pw.inp   Done                     12/19/2018 05:48:42
00001 suncat2056 pw.x -in pw.inp   Done                     12/19/2018 05:48:42
00002 suncat2056 pw.x -in pw.inp   Done                     12/19/2018 05:48:42
00003 suncat2056 pw.x -in pw.inp   Done                     12/19/2018 05:48:42
00004 suncat2056 pw.x -in pw.inp   Done                     12/19/2018 05:48:42
00005 suncat2056 pw.x -in pw.inp   Done                     12/19/2018 05:48:42
00006 suncat2056 pw.x -in pw.inp   Done                     12/19/2018 05:48:42
00007 suncat2056 pw.x -in pw.inp   Done                     12/19/2018 05:48:42
00008 suncat2056 pw.x -in pw.inp   Done                     12/19/2018 05:48:42
00009 suncat2056 pw.x -in pw.inp   Done                     12/19/2018 05:48:42
00010 suncat2056 pw.x -in pw.inp   Done                     12/19/2018 05:48:42
00011 suncat2056 pw.x -in pw.inp   Done                     12/19/2018 05:48:42
00012 suncat2056 pw.x -in pw.inp   Done                     12/19/2018 05:48:42
00013 suncat2056 pw.x -in pw.inp   Done                     12/19/2018 05:48:42
00014 suncat2056 pw.x -in pw.inp   Done                     12/19/2018 05:48:42
00015 suncat2056 pw.x -in pw.inp   Done                     12/19/2018 05:48:42
00016 suncat2055 pw.x -in pw.inp   Done                     12/19/2018 05:48:42
00017 suncat2055 pw.x -in pw.inp   Done                     12/19/2018 05:48:42
00018 suncat2055 pw.x -in pw.inp   Done                     12/19/2018 05:48:42
00019 suncat2055 pw.x -in pw.inp   Done                     12/19/2018 05:48:42
00020 suncat2055 pw.x -in pw.inp   Done                     12/19/2018 05:48:42
00021 suncat2055 pw.x -in pw.inp   Done                     12/19/2018 05:48:42
00022 suncat2055 pw.x -in pw.inp   Done                     12/19/2018 05:48:42
00023 suncat2055 pw.x -in pw.inp   Done                     12/19/2018 05:48:42
00024 suncat2055 pw.x -in pw.inp   Done                     12/19/2018 05:48:42
00025 suncat2055 pw.x -in pw.inp   Done                     12/19/2018 05:48:42
00026 suncat2055 pw.x -in pw.inp   Done                     12/19/2018 05:48:42
00027 suncat2055 pw.x -in pw.inp   Done                     12/19/2018 05:48:42
00028 suncat2055 pw.x -in pw.inp   Done                     12/19/2018 05:48:42
00029 suncat2055 pw.x -in pw.inp   Done                     12/19/2018 05:48:42
00030 suncat2055 pw.x -in pw.inp   Done                     12/19/2018 05:48:42
00031 suncat2055 pw.x -in pw.inp   Done                     12/19/2018 05:48:42