     Program PWSCF v.5.1rc2 (svn rev. 11289) starts on 25Dec2018 at  7:59:13

     Current dimensions of program PWSCF are:
     Max number of different atomic species (ntypx) = 10
     Max number of k-points (npk) =  40000
     Max angular momentum in pseudopotentials (lmaxx) =  3
     Presently stress not available with electric field

     IMPORTANT: XC functional enforced from input :
     Exchange-correlation      = BEEF-VDW ( 1  4 27 13 2)
     Any further DFT definition will be discarded
     Please, verify this is what you really want

     Subspace diagonalization in iterative solution of the eigenvalue problem:
     a serial algorithm will be used

     Found symmetry operation: I + (  0.5000 -0.5000  0.0000)
     This is a supercell, fractional translations are disabled

     bravais-lattice index     =            0
     lattice parameter (alat)  =       1.8897  a.u.
     unit-cell volume          =    5118.5721 (a.u.)^3
     number of atoms/cell      =           12
     number of atomic types    =            2
     number of electrons       =       162.00
     number of Kohn-Sham states=          111
     kinetic-energy cutoff     =      36.7493  Ry
     charge density cutoff     =     367.4932  Ry
     convergence threshold     =      1.0E-06
     mixing beta               =       0.1000
     number of iterations used =           10  plain     mixing
     Exchange-correlation      = BEEF-VDW ( 1  4 27 13 2)
     nstep                     =           50

     celldm(1)=   1.889726  celldm(2)=   0.000000  celldm(3)=   0.000000
     celldm(4)=   0.000000  celldm(5)=   0.000000  celldm(6)=   0.000000

     crystal axes: (cart. coord. in units of alat)
               a(1) = (   5.724538   0.000000   0.000000 )
               a(2) = (   1.997757   5.364634   0.000000 )
               a(3) = (   0.000000   0.000000  24.698565 )

     reciprocal axes: (cart. coord. in units 2 pi/alat)
               b(1) = (  0.174687 -0.065052  0.000000 )
               b(2) = (  0.000000  0.186406  0.000000 )
               b(3) = (  0.000000  0.000000  0.040488 )

     PseudoPot. # 1 for Zr read from file:
     /afs/slac.stanford.edu/u/if/mamunm/psp/gbrv1.5pbe/Zr.UPF
     MD5 check sum: 5db81b1e868ab7776c4564c113de050b
     Pseudo is Ultrasoft + core correction, Zval = 12.0
     Generated by new atomic code, or converted to UPF format
     Using radial grid of  887 points,  6 beta functions with:
                l(1) =   0
                l(2) =   0
                l(3) =   1
                l(4) =   1
                l(5) =   2
                l(6) =   2
     Q(r) pseudized with  6 coefficients,  rinner =    1.200   1.200   1.200
                                                       1.200   1.200

     PseudoPot. # 2 for Rh read from file:
     /afs/slac.stanford.edu/u/if/mamunm/psp/gbrv1.5pbe/Rh.UPF
     MD5 check sum: 761627e959a2e3a1f56b0b5fe687810e
     Pseudo is Ultrasoft + core correction, Zval = 15.0
     Generated by new atomic code, or converted to UPF format
     Using radial grid of  969 points,  7 beta functions with:
                l(1) =   0
                l(2) =   0
                l(3) =   1
                l(4) =   1
                l(5) =   2
                l(6) =   2
                l(7) =   2
     Q(r) pseudized with  8 coefficients,  rinner =    1.200   1.200   1.200
                                                       1.200   1.200

     vdW kernel table read from file vdW_kernel_table
     MD5 check sum: 095c7af220d748ca6e76c0b4c6cfb241

     atomic species   valence    mass     pseudopotential
        Zr1           12.00    91.22400     Zr( 1.00)
        Rh1           15.00   102.90550     Rh( 1.00)

     No symmetry found

   Cartesian axes

     site n.     atom                  positions (alat units)
         1           Zr1 tau(   1) = (   0.0000000   0.0000000  10.0000000  )
         2           Zr1 tau(   2) = (   3.8611472   2.6823170  10.0000000  )
         3           Rh1 tau(   3) = (   2.8622688   0.0000000  10.0000000  )
         4           Rh1 tau(   4) = (   0.9988785   2.6823170  10.0000000  )
         5           Zr1 tau(   5) = (   5.7245375   3.9768036  12.3492826  )
         6           Zr1 tau(   6) = (   1.8633903   1.2944866  12.3492826  )
         7           Rh1 tau(   7) = (   2.8622688   3.9768036  12.3492826  )
         8           Rh1 tau(   8) = (   4.7256591   1.2944866  12.3492826  )
         9           Zr1 tau(   9) = (   3.7267806   2.5889732  14.6985652  )
        10           Zr1 tau(  10) = (   7.5879278   5.2712902  14.6985652  )
        11           Rh1 tau(  11) = (   6.5890494   2.5889732  14.6985652  )
        12           Rh1 tau(  12) = (   4.7256591   5.2712902  14.6985652  )

     number of k points=    20  Fermi-Dirac smearing, width (Ry)=  0.0110
                       cart. coord. in units 2pi/alat
        k(    1) = (   0.0000000   0.0000000   0.0000000), wk =   0.0555556
        k(    2) = (   0.0000000   0.0310677   0.0000000), wk =   0.1111111
        k(    3) = (   0.0000000   0.0621353   0.0000000), wk =   0.1111111
        k(    4) = (   0.0000000  -0.0932030   0.0000000), wk =   0.0555556
        k(    5) = (   0.0291144  -0.0108420   0.0000000), wk =   0.1111111
        k(    6) = (   0.0291144   0.0202256   0.0000000), wk =   0.1111111
        k(    7) = (   0.0291144   0.0512933   0.0000000), wk =   0.1111111
        k(    8) = (   0.0291144  -0.1040450   0.0000000), wk =   0.1111111
        k(    9) = (   0.0291144  -0.0729774   0.0000000), wk =   0.1111111
        k(   10) = (   0.0291144  -0.0419097   0.0000000), wk =   0.1111111
        k(   11) = (   0.0582289  -0.0216841   0.0000000), wk =   0.1111111
        k(   12) = (   0.0582289   0.0093836   0.0000000), wk =   0.1111111
        k(   13) = (   0.0582289   0.0404513   0.0000000), wk =   0.1111111
        k(   14) = (   0.0582289  -0.1148871   0.0000000), wk =   0.1111111
        k(   15) = (   0.0582289  -0.0838194   0.0000000), wk =   0.1111111
        k(   16) = (   0.0582289  -0.0527517   0.0000000), wk =   0.1111111
        k(   17) = (  -0.0873433   0.0325261   0.0000000), wk =   0.0555556
        k(   18) = (  -0.0873433   0.0635938   0.0000000), wk =   0.1111111
        k(   19) = (  -0.0873433   0.0946614   0.0000000), wk =   0.1111111
        k(   20) = (  -0.0873433  -0.0606769   0.0000000), wk =   0.0555556

     Largest allocated arrays     est. size (Mb)     dimensions
     Largest temporary arrays     est. size (Mb)     dimensions

     Initial potential from superposition of free atoms
     Check: negative starting charge=   -0.692589

     starting charge  158.98651, renormalised to  162.00000

     negative rho (up, down):  7.057E-01 0.000E+00

     *
     * You are using vdW-DF for exchange-correlation in this calculation.
     * Please cite the following three references that made this development
     * possible:
     *
     *   M. Dion, H. Rydberg, E. Schroder, D. C. Langreth, and
     *   B. I. Lundqvist, Phys. Rev. Lett. 92, 246401 (2004).
     *
     *   T. Thonhauser, V. R. Cooper, S. Li, A. Puzder, P. Hyldgaard, and
     *   D. C. Langreth, Phys. Rev. B 76, 125112 (2007).
     *
     *   G. Roman-Perez and J. M. Soler, Phys. Rev. Lett. 103, 096102 (2009).
     *
     *
     * If you are using vdW-DF2, please also cite:
     *
     *   K. Lee, E. D. Murray, L. Kong, B. I. Lundqvist, and
     *   D. C. Langreth, Phys. Rev. B 82, 081101(R) (2010).
     *
     *
     * If you are calculating the stress with vdW-DF, please also cite:
     *
     *   R. Sabatini, E. Kucukbenli, B. Kolb, T. Thonhauser, and
     *   S. de Gironcoli, J. Phys.: Condens. Matter 24, 424209 (2012).
     *

     Carrying out vdW-DF run using the following parameters:

     Nqs =      20    Nr_points =    1024   r_max =   100.000
     q_mesh =
               0.00001000     0.04494208     0.09755937     0.15916263
               0.23128650     0.31572767     0.41458969     0.53033537
               0.66584808     0.82450364     1.01025438     1.22772762
               1.48234092     1.78043706     2.12944203     2.53805004
               3.01644009     3.57652955     4.23227104     5.00000000

     Gradients computed in reciprocal space

     Adding external electric field

     Computed dipole along edir(3) :
        Dipole                0.0000 Ry au,          0.0000 Debye
        Dipole field          0.0000 Ry au

        Potential amp.       -0.0000 Ry
        Total length         45.5067 bohr

     Starting wfc are  150 randomized atomic wfcs

     Self-consistent Calculation

     iteration #  1     ecut=    36.75 Ry     beta=0.10
     Davidson diagonalization with overlap
     ethr =  1.00E-02,  avg # of iterations =  2.0

[...]

     total energy              =   -1632.45724510 Ry
     Harris-Foulkes estimate   =   -1632.80203905 Ry
     estimated scf accuracy    <       2.18194276 Ry

[...]

     End of self-consistent calculation

          k = 0.0000 0.0000 0.0000 ( 19285 PWs)   bands (ev):

   -48.0252 -48.0240 -47.9890 -47.9877 -47.7292 -47.6935 -44.8647 -44.8267
   -44.8258 -44.8178 -44.7991 -44.7945 -44.4353 -44.4348 -44.4306 -44.4297
   -44.3560 -44.3540 -44.3083 -44.3080 -44.2287 -44.2244 -44.2240 -44.2239
   -26.0875 -26.0860 -26.0790 -26.0703 -26.0623 -26.0250 -25.9471 -25.9201
   -25.9035 -25.8935 -25.8692 -25.6902 -25.6897 -25.6489 -25.6244 -25.6161
   -25.5585 -25.4878  -4.0879  -2.6928  -2.6743  -2.4267  -2.4043  -2.3638
    -2.3527  -2.2947  -2.2225  -2.1938  -1.7489  -1.6060  -1.5702  -1.4291
    -1.3445  -1.1669  -1.0632  -1.0263  -0.8638  -0.8562  -0.7888  -0.7061
    -0.5795  -0.3200  -0.2804   0.0099   0.1174   0.2729   0.4653   0.5049
     0.5837   0.9005   1.0008   1.2895   1.6890   1.9613   2.0707   2.2352
     2.3410   2.4913   2.5360   2.5689   2.6702   2.8723   3.0684   3.1369
     3.1632   3.2419   3.4423   3.5522   3.6031   3.7220   3.8502   4.0216
     4.1645   4.2915   4.4665   4.4862   4.5772   4.8985   4.9277   5.0919
     5.4566   5.5921   5.7459   5.7470   5.7598   5.8034   5.8070

[...]

          k =-0.0873 0.0325 0.0000 ( 19270 PWs)   bands (ev):

[...]

     the Fermi energy is     1.8604 ev

!    total energy              =   -1632.31251367 Ry
     Harris-Foulkes estimate   =   -1632.31251133 Ry
     estimated scf accuracy    <       0.00000033 Ry

     The total energy is the sum of the following terms:

     one-electron contribution =  -12621.10439447 Ry
     hartree contribution      =    6326.38987545 Ry
     xc contribution           =    -296.46582841 Ry
     ewald contribution        =    4958.93191275 Ry
     electric field correction =       0.00000000 Ry
     smearing contrib. (-TS)   =      -0.06407899 Ry

     convergence has been achieved in  15 iterations

 BEEF-vdW xc energy contributions
           1 :   -256.686940759614
           2 :    234.466047932805
           3 :   -196.369840475084
           4 :    152.311476488994
           5 :   -111.889454483228
           6 :    81.2631998662257
           7 :   -61.9090059983750
           8 :    51.3789714557321
           9 :   -45.3443397070844
          10 :    39.8502623124363
          11 :   -32.8321280552152
[...]

     PseudoPot. # 1 for Zr read from file:
     /afs/slac.stanford.edu/u/if/mamunm/psp/gbrv1.5pbe/Zr.UPF
     MD5 check sum: 5db81b1e868ab7776c4564c113de050b
     Pseudo is Ultrasoft + core correction, Zval = 12.0
     Generated by new atomic code, or converted to UPF format
     Using radial grid of  887 points,  6 beta functions with:
                l(1) =   0
                l(2) =   0
                l(3) =   1
                l(4) =   1
                l(5) =   2
                l(6) =   2
     Q(r) pseudized with  6 coefficients,  rinner =    1.200   1.200   1.200
                                                       1.200   1.200

     PseudoPot. # 2 for Rh read from file:
     /afs/slac.stanford.edu/u/if/mamunm/psp/gbrv1.5pbe/Rh.UPF
     MD5 check sum: 761627e959a2e3a1f56b0b5fe687810e
     Pseudo is Ultrasoft + core correction, Zval = 15.0
     Generated by new atomic code, or converted to UPF format
     Using radial grid of  969 points,  7 beta functions with:
                l(1) =   0
                l(2) =   0
                l(3) =   1
                l(4) =   1
                l(5) =   2
                l(6) =   2
                l(7) =   2
     Q(r) pseudized with  8 coefficients,  rinner =    1.200   1.200   1.200
                                                       1.200   1.200

     vdW kernel table read from file vdW_kernel_table
     MD5 check sum: 095c7af220d748ca6e76c0b4c6cfb241

     atomic species   valence    mass     pseudopotential
        Zr1           12.00    91.22400     Zr( 1.00)
        Rh1           15.00   102.90550     Rh( 1.00)

     No symmetry found

   Cartesian axes

     site n.     atom                  positions (alat units)
         1           Zr1 tau(   1) = (   0.0000000   0.0000000  10.0000000  )
         2           Zr1 tau(   2) = (   3.8611472   2.6823170  10.0000000  )
         3           Rh1 tau(   3) = (   2.8622688   0.0000000  10.0000000  )
         4           Rh1 tau(   4) = (   0.9988785   2.6823170  10.0000000  )
         5           Zr1 tau(   5) = (   5.7245375   3.9768036  12.3492826  )
         6           Zr1 tau(   6) = (   1.8633903   1.2944866  12.3492826  )
         7           Rh1 tau(   7) = (   2.8622688   3.9768036  12.3492826  )
         8           Rh1 tau(   8) = (   4.7256591   1.2944866  12.3492826  )
         9           Zr1 tau(   9) = (   3.7954983   2.6367125  14.7126777  )
        10           Zr1 tau(  10) = (   7.6566471   5.3190286  14.7126764  )
        11           Rh1 tau(  11) = (   6.6596736   2.6380344  14.4782758  )
        12           Rh1 tau(  12) = (   4.7962813   5.3203519  14.4782758  )

     number of k points=    20  Fermi-Dirac smearing, width (Ry)=  0.0110
                       cart. coord. in units 2pi/alat
        k(    1) = (   0.0000000   0.0000000   0.0000000), wk =   0.0555556
        k(    2) = (   0.0000000   0.0310677   0.0000000), wk =   0.1111111
        k(    3) = (   0.0000000   0.0621353   0.0000000), wk =   0.1111111
        k(    4) = (   0.0000000  -0.0932030   0.0000000), wk =   0.0555556
        k(    5) = (   0.0291144  -0.0108420   0.0000000), wk =   0.1111111
        k(    6) = (   0.0291144   0.0202256   0.0000000), wk =   0.1111111
        k(    7) = (   0.0291144   0.0512933   0.0000000), wk =   0.1111111
        k(    8) = (   0.0291144  -0.1040450   0.0000000), wk =   0.1111111
        k(    9) = (   0.0291144  -0.0729774   0.0000000), wk =   0.1111111
        k(   10) = (   0.0291144  -0.0419097   0.0000000), wk =   0.1111111
        k(   11) = (   0.0582289  -0.0216841   0.0000000), wk =   0.1111111
        k(   12) = (   0.0582289   0.0093836   0.0000000), wk =   0.1111111
        k(   13) = (   0.0582289   0.0404513   0.0000000), wk =   0.1111111
        k(   14) = (   0.0582289  -0.1148871   0.0000000), wk =   0.1111111
        k(   15) = (   0.0582289  -0.0838194   0.0000000), wk =   0.1111111
        k(   16) = (   0.0582289  -0.0527517   0.0000000), wk =   0.1111111
        k(   17) = (  -0.0873433   0.0325261   0.0000000), wk =   0.0555556
        k(   18) = (  -0.0873433   0.0635938   0.0000000), wk =   0.1111111
        k(   19) = (  -0.0873433   0.0946614   0.0000000), wk =   0.1111111
        k(   20) = (  -0.0873433  -0.0606769   0.0000000), wk =   0.0555556

     Largest allocated arrays     est. size (Mb)     dimensions
     Largest temporary arrays     est. size (Mb)     dimensions

     Initial potential from superposition of free atoms
     Check: negative starting charge=   -0.695581

     starting charge  158.98651, renormalised to  162.00000

[...]

     *
     * You are using vdW-DF for exchange-correlation in this calculation.
     * Please cite the following three references that made this development
     * possible:
     *
     *   M. Dion, H. Rydberg, E. Schroder, D. C. Langreth, and
     *   B. I. Lundqvist, Phys. Rev. Lett. 92, 246401 (2004).
     *
     *   T. Thonhauser, V. R. Cooper, S. Li, A. Puzder, P. Hyldgaard, and
     *   D. C. Langreth, Phys. Rev. B 76, 125112 (2007).
     *
     *   G. Roman-Perez and J. M. Soler, Phys. Rev. Lett. 103, 096102 (2009).
     *
     *
     * If you are using vdW-DF2, please also cite:
     *
     *   K. Lee, E. D. Murray, L. Kong, B. I. Lundqvist, and
     *   D. C. Langreth, Phys. Rev. B 82, 081101(R) (2010).
     *
     *
     * If you are calculating the stress with vdW-DF, please also cite:
     *
     *   R. Sabatini, E. Kucukbenli, B. Kolb, T. Thonhauser, and
     *   S. de Gironcoli, J. Phys.: Condens. Matter 24, 424209 (2012).
     *

     Carrying out vdW-DF run using the following parameters:

     Nqs =      20    Nr_points =    1024   r_max =   100.000
     q_mesh =
               0.00001000     0.04494208     0.09755937     0.15916263
               0.23128650     0.31572767     0.41458969     0.53033537
               0.66584808     0.82450364     1.01025438     1.22772762
               1.48234092     1.78043706     2.12944203     2.53805004
               3.01644009     3.57652955     4.23227104     5.00000000

     Gradients computed in reciprocal space

[...]

     Starting wfc are  150 randomized atomic wfcs

     Self-consistent Calculation

[...]

     total energy              =   -1632.33391748 Ry
     Harris-Foulkes estimate   =   -1632.33391725 Ry
     estimated scf accuracy    <       0.00000100 Ry

     iteration # 17     ecut=    36.75 Ry     beta=0.10
     Davidson diagonalization with overlap
     ethr =  6.19E-10,  avg # of iterations =  2.0

[...]

     negative rho (up, down):  7.254E-01 0.000E+00

     Adding external electric field

     Computed dipole along edir(3) :
        Dipole                0.1042 Ry au,          0.2649 Debye
        Dipole field          0.0003 Ry au

        Potential amp.       -0.0233 Ry
        Total length         45.5067 bohr

     End of self-consistent calculation

[...]

          k = 0.0582-0.0528 0.0000 ( 19271 PWs)   bands (ev):

[...]

          k =-0.0873-0.0607 0.0000 ( 19210 PWs)   bands (ev):

   -47.9613 -47.9287 -47.9246 -47.8916 -47.5385 -47.4949 -44.7529 -44.7210
   -44.7199 -44.7109 -44.6939 -44.6884 -44.4476 -44.4455 -44.4435 -44.4023
   -44.3587 -44.3561 -44.3146 -44.3118 -44.2313 -44.1885 -44.1002 -44.0978
   -26.0417 -26.0092 -25.9908 -25.9852 -25.9757 -25.9332 -25.8979 -25.8429
   -25.8372 -25.7926 -25.7214 -25.6053 -25.5880 -25.4954 -25.4484 -25.4351
   -25.4191 -25.3065  -2.4058  -2.2369  -1.7396  -1.7193  -1.6988  -1.5511
    -1.5470  -1.3723  -1.2829  -1.2541  -1.2231  -1.0666  -1.0509  -0.9319
    -0.8727  -0.8291  -0.7467  -0.5897  -0.4100  -0.3593  -0.3147  -0.3026
    -0.2946  -0.2880  -0.1200  -0.0846   0.0855   0.0867   0.1599   0.1981
     0.3560   0.3783   0.6433   0.7854   0.8702   0.9124   1.0863   1.1202
     1.1624   1.2094   1.5223   1.6537   2.0101   2.1870   2.1959   2.3022
     2.3127   2.6624   2.7979   2.9784   3.0244   3.0566   3.2535   3.3980
     3.4091   3.6152   3.9300   3.9429   4.1849   4.3452   4.5118   4.7777
     4.9904   5.2183   5.3693   5.7786   6.0188   6.4005   6.4881

     the Fermi energy is     1.9629 ev

!    total energy              =   -1632.33391935 Ry
     Harris-Foulkes estimate   =   -1632.33391810 Ry
     estimated scf accuracy    <       0.00000030 Ry

     The total energy is the sum of the following terms:

     one-electron contribution =  -12825.85915415 Ry
     hartree contribution      =    6429.22016459 Ry
     xc contribution           =    -296.59213712 Ry
     ewald contribution        =    5060.95547526 Ry
     electric field correction =       0.00002666 Ry
     smearing contrib. (-TS)   =      -0.05829459 Ry

     convergence has been achieved in  17 iterations

 BEEF-vdW xc energy contributions
           1 :   -256.822858869678
           2 :    234.674993512858
           3 :   -196.671043854360
           4 :    152.647364727493
           5 :   -112.148218968387
           6 :    81.3402411591255
           7 :   -61.7735644535775
           8 :    51.0999326290708
           9 :   -45.0546418750974
          10 :    39.6735941335899
          11 :   -32.8196929428291
          12 :    24.5260845781452
          13 :   -16.2622344093042
          14 :    9.71465853697072
          15 :   -5.79200697440865
          16 :    4.28800258797384
          17 :   -4.19479861627809
          18 :    4.33913586129887
          19 :   -3.94668850218028
          20 :    2.87717429607659
          21 :   -1.49282717118331
          22 :   0.313174803552897
          23 :   0.314394472425647
          24 :  -0.362456875183000
          25 :   6.514988471275274E-002
          26 :   0.255447575537403
          27 :  -0.358010332849346
          28 :   0.168017107208073
          29 :   0.233290963243689
          30 :  -0.683971209042738
          31 :   -26.9378845540535
          32 :   -20.1397811317894

     Forces acting on atoms (Ry/au):

     negative rho (up, down):  7.254E-01 0.000E+00
     atom    1 type  1   force =    -0.00581016   -0.00403623   -0.01396383
     atom    2 type  1   force =    -0.00581014   -0.00403632   -0.01396403
     atom    3 type  2   force =    -0.00043343   -0.00030104    0.04107295
     atom    4 type  2   force =    -0.00043337   -0.00030111    0.04107283
     atom    5 type  1   force =     0.00513701    0.00356853   -0.02686098
     atom    6 type  1   force =     0.00513651    0.00356831   -0.02686137
     atom    7 type  2   force =     0.00117043    0.00081313   -0.00072137
     atom    8 type  2   force =     0.00117054    0.00081309   -0.00072146
     atom    9 type  1   force =    -0.00016691   -0.00011637    0.00055685
     atom   10 type  1   force =    -0.00016764   -0.00011607    0.00055668
     atom   11 type  2   force =     0.00010349    0.00007218   -0.00008310
     atom   12 type  2   force =     0.00010367    0.00007190   -0.00008316

     Total force =     0.073428     Total SCF correction =     0.002821

     entering subroutine stress ...

     negative rho (up, down):  7.254E-01 0.000E+00
          total   stress  (Ry/bohr**3)                   (kbar)     P=  -26.48
  -0.00022321  -0.00002687   0.00001063        -32.84     -3.95      1.56
  -0.00002687  -0.00020320   0.00000739         -3.95    -29.89      1.09
   0.00001063   0.00000739  -0.00011366          1.56      1.09    -16.72

 !ASE

     Writing output data file calc.save

     General routines

     Parallel routines

   This run was terminated on:  12: 9: 9  25Dec2018

   JOB DONE.
Job  /afs/slac/g/suncat/bin/suncat-tsmpirun -x LD_LIBRARY_PATH -wdir /scratch/qe109299_cmMWR pw.x -in pw.inp

TID   HOST_NAME   COMMAND_LINE            STATUS            TERMINATION_TIME
00000 suncat0094 pw.x -in pw.inp   Done                     12/25/2018 12:09:09
00001 suncat0094 pw.x -in pw.inp   Done                     12/25/2018 12:09:09
00002 suncat0094 pw.x -in pw.inp   Done                     12/25/2018 12:09:09
00003 suncat0094 pw.x -in pw.inp   Done                     12/25/2018 12:09:09
00004 suncat0094 pw.x -in pw.inp   Done                     12/25/2018 12:09:09
00005 suncat0094 pw.x -in pw.inp   Done                     12/25/2018 12:09:09
00006 suncat0094 pw.x -in pw.inp   Done                     12/25/2018 12:09:09
00007 suncat0094 pw.x -in pw.inp   Done                     12/25/2018 12:09:09
00008 suncat0093 pw.x -in pw.inp   Done                     12/25/2018 12:09:09
00009 suncat0093 pw.x -in pw.inp   Done                     12/25/2018 12:09:09
00010 suncat0093 pw.x -in pw.inp   Done                     12/25/2018 12:09:09
00011 suncat0093 pw.x -in pw.inp   Done                     12/25/2018 12:09:09
00012 suncat0093 pw.x -in pw.inp   Done                     12/25/2018 12:09:09
00013 suncat0093 pw.x -in pw.inp   Done                     12/25/2018 12:09:09
00014 suncat0093 pw.x -in pw.inp   Done                     12/25/2018 12:09:09
00015 suncat0093 pw.x -in pw.inp   Done                     12/25/2018 12:09:09
00016 suncat0083 pw.x -in pw.inp   Done                     12/25/2018 12:09:09
00017 suncat0083 pw.x -in pw.inp   Done                     12/25/2018 12:09:09
00018 suncat0083 pw.x -in pw.inp   Done                     12/25/2018 12:09:09
00019 suncat0083 pw.x -in pw.inp   Done                     12/25/2018 12:09:09
00020 suncat0083 pw.x -in pw.inp   Done                     12/25/2018 12:09:09
00021 suncat0083 pw.x -in pw.inp   Done                     12/25/2018 12:09:09
00022 suncat0083 pw.x -in pw.inp   Done                     12/25/2018 12:09:09
00023 suncat0083 pw.x -in pw.inp   Done                     12/25/2018 12:09:09
00024 suncat0070 pw.x -in pw.inp   Done                     12/25/2018 12:09:09
00025 suncat0070 pw.x -in pw.inp   Done                     12/25/2018 12:09:09
00026 suncat0070 pw.x -in pw.inp   Done                     12/25/2018 12:09:09
00027 suncat0070 pw.x -in pw.inp   Done                     12/25/2018 12:09:09
00028 suncat0070 pw.x -in pw.inp   Done                     12/25/2018 12:09:09
00029 suncat0070 pw.x -in pw.inp   Done                     12/25/2018 12:09:09
00030 suncat0070 pw.x -in pw.inp   Done                     12/25/2018 12:09:09
00031 suncat0070 pw.x -in pw.inp   Done                     12/25/2018 12:09:09
00032 suncat0039 pw.x -in pw.inp   Done                     12/25/2018 12:09:09
00033 suncat0039 pw.x -in pw.inp   Done                     12/25/2018 12:09:09
00034 suncat0039 pw.x -in pw.inp   Done                     12/25/2018 12:09:09
00035 suncat0039 pw.x -in pw.inp   Done                     12/25/2018 12:09:09
00036 suncat0039 pw.x -in pw.inp   Done                     12/25/2018 12:09:09
00037 suncat0039 pw.x -in pw.inp   Done                     12/25/2018 12:09:09
00038 suncat0039 pw.x -in pw.inp   Done                     12/25/2018 12:09:09
00039 suncat0039 pw.x -in pw.inp   Done                     12/25/2018 12:09:09
00040 suncat0034 pw.x -in pw.inp   Done                     12/25/2018 12:09:09
00041 suncat0034 pw.x -in pw.inp   Done                     12/25/2018 12:09:09
00042 suncat0034 pw.x -in pw.inp   Done                     12/25/2018 12:09:09
00043 suncat0034 pw.x -in pw.inp   Done                     12/25/2018 12:09:09
00044 suncat0034 pw.x -in pw.inp   Done                     12/25/2018 12:09:09
00045 suncat0034 pw.x -in pw.inp   Done                     12/25/2018 12:09:09
00046 suncat0034 pw.x -in pw.inp   Done                     12/25/2018 12:09:09
00047 suncat0034 pw.x -in pw.inp   Done                     12/25/2018 12:09:09
00048 suncat0026 pw.x -in pw.inp   Done                     12/25/2018 12:09:09
00049 suncat0026 pw.x -in pw.inp   Done                     12/25/2018 12:09:09
00050 suncat0026 pw.x -in pw.inp   Done                     12/25/2018 12:09:09
00051 suncat0026 pw.x -in pw.inp   Done                     12/25/2018 12:09:09
00052 suncat0026 pw.x -in pw.inp   Done                     12/25/2018 12:09:09
00053 suncat0026 pw.x -in pw.inp   Done                     12/25/2018 12:09:09
00054 suncat0026 pw.x -in pw.inp   Done                     12/25/2018 12:09:09
00055 suncat0026 pw.x -in pw.inp   Done                     12/25/2018 12:09:09
00056 suncat0180 pw.x -in pw.inp   Done                     12/25/2018 12:09:09
00057 suncat0180 pw.x -in pw.inp   Done                     12/25/2018 12:09:09
00058 suncat0180 pw.x -in pw.inp   Done                     12/25/2018 12:09:09
00059 suncat0180 pw.x -in pw.inp   Done                     12/25/2018 12:09:09
00060 suncat0180 pw.x -in pw.inp   Done                     12/25/2018 12:09:09
00061 suncat0180 pw.x -in pw.inp   Done                     12/25/2018 12:09:09
00062 suncat0180 pw.x -in pw.inp   Done                     12/25/2018 12:09:09
00063 suncat0180 pw.x -in pw.inp   Done                     12/25/2018 12:09:09