     Program PWSCF v.5.1rc2 (svn rev. 11289) starts on 18Dec2018 at 16:51:58

     Current dimensions of program PWSCF are:
     Max number of different atomic species (ntypx) = 10
     Max number of k-points (npk) =  40000
     Max angular momentum in pseudopotentials (lmaxx) =  3
     Presently stress not available with electric field

     IMPORTANT: XC functional enforced from input :
     Exchange-correlation      = BEEF-VDW ( 1  4 27 13 2)
     Any further DFT definition will be discarded
     Please, verify this is what you really want

     Subspace diagonalization in iterative solution of the eigenvalue problem:
     a serial algorithm will be used

     Found symmetry operation: I + ( -0.5000 -0.5000  0.0000)
     This is a supercell, fractional translations are disabled

     Generating pointlists ...
     new r_m :   0.4125 (alat units)  0.7795 (a.u.) for type    1
     new r_m :   0.4125 (alat units)  0.7795 (a.u.) for type    2

     bravais-lattice index     =            0
     lattice parameter (alat)  =       1.8897  a.u.
     unit-cell volume          =    4320.8879 (a.u.)^3
     number of atoms/cell      =           12
     number of atomic types    =            2
     number of electrons       =       180.00
     number of Kohn-Sham states=          120
     kinetic-energy cutoff     =      36.7493  Ry
     charge density cutoff     =     367.4932  Ry
     convergence threshold     =      1.0E-06
     mixing beta               =       0.1000
     number of iterations used =           10  plain     mixing
     Exchange-correlation      = BEEF-VDW ( 1  4 27 13 2)
     nstep                     =           50

     celldm(1)=   1.889726  celldm(2)=   0.000000  celldm(3)=   0.000000
     celldm(4)=   0.000000  celldm(5)=   0.000000  celldm(6)=   0.000000

     crystal axes: (cart. coord. in units of alat)
               a(1) = (   5.286112   0.000000   0.000000 )
               a(2) = (   1.770429   4.980820   0.000000 )
               a(3) = (   0.000000   0.000000  24.318634 )

     reciprocal axes: (cart. coord. in units 2 pi/alat)
               b(1) = (  0.189175 -0.067242  0.000000 )
               b(2) = (  0.000000  0.200770  0.000000 )
               b(3) = (  0.000000  0.000000  0.041121 )

     PseudoPot. # 1 for Mn read from file:
     /afs/slac.stanford.edu/u/if/mamunm/psp/gbrv1.5pbe/Mn.UPF
     MD5 check sum: 82ef2b46521d7a7d9e736dc3972e4928
     Pseudo is Ultrasoft + core correction, Zval = 15.0
     Generated by new atomic code, or converted to UPF format
     Using radial grid of  859 points,  6 beta functions with:
                l(1) =   0
                l(2) =   0
                l(3) =   1
                l(4) =   1
                l(5) =   2
                l(6) =   2
     Q(r) pseudized with  8 coefficients,  rinner =    0.950   0.950   0.950
                                                       0.950   0.950

     PseudoPot. # 2 for Rh read from file:
     /afs/slac.stanford.edu/u/if/mamunm/psp/gbrv1.5pbe/Rh.UPF
     MD5 check sum: 761627e959a2e3a1f56b0b5fe687810e
     Pseudo is Ultrasoft + core correction, Zval = 15.0
     Generated by new atomic code, or converted to UPF format
     Using radial grid of  969 points,  7 beta functions with:
                l(1) =   0
                l(2) =   0
                l(3) =   1
                l(4) =   1
                l(5) =   2
                l(6) =   2
                l(7) =   2
     Q(r) pseudized with  8 coefficients,  rinner =    1.200   1.200   1.200
                                                       1.200   1.200

     vdW kernel table read from file vdW_kernel_table
     MD5 check sum: 095c7af220d748ca6e76c0b4c6cfb241

     atomic species   valence    mass     pseudopotential
        Mn1           15.00    54.93804     Mn( 1.00)
        Rh1           15.00   102.90550     Rh( 1.00)

     Starting magnetic structure
     atomic species   magnetization
        Mn1          0.133
        Rh1          0.133

     No symmetry found

   Cartesian axes

     site n.     atom                  positions (alat units)
         1           Mn1 tau(   1) = (   0.0000000   0.0000000  10.0000000  )
         2           Mn1 tau(   2) = (   3.5282705   2.4904099  10.0000000  )
         3           Rh1 tau(   3) = (   2.6430562   0.0000000  10.0000000  )
         4           Rh1 tau(   4) = (   0.8852143   2.4904099  10.0000000  )
         5           Mn1 tau(   5) = (   5.2861124   3.7311727  12.1593169  )
         6           Mn1 tau(   6) = (   1.7578418   1.2407628  12.1593169  )
         7           Rh1 tau(   7) = (   2.6430562   3.7311727  12.1593169  )
         8           Rh1 tau(   8) = (   4.4008980   1.2407628  12.1593169  )
         9           Mn1 tau(   9) = (   3.5156837   2.4815256  14.3186337  )
        10           Mn1 tau(  10) = (   7.0439542   4.9719355  14.3186337  )
        11           Rh1 tau(  11) = (   6.1587399   2.4815256  14.3186337  )
        12           Rh1 tau(  12) = (   4.4008980   4.9719355  14.3186337  )

     number of k points=    40  Fermi-Dirac smearing, width (Ry)=  0.0110
                       cart. coord. in units 2pi/alat
        k(    1) = (   0.0000000   0.0000000   0.0000000), wk =   0.0277778
        k(    2) = (   0.0000000   0.0334617   0.0000000), wk =   0.0555556
        k(    3) = (   0.0000000   0.0669234   0.0000000), wk =   0.0555556
        k(    4) = (   0.0000000  -0.1003851   0.0000000), wk =   0.0277778
        k(    5) = (   0.0315292  -0.0112070   0.0000000), wk =   0.0555556
        k(    6) = (   0.0315292   0.0222547   0.0000000), wk =   0.0555556
        k(    7) = (   0.0315292   0.0557164   0.0000000), wk =   0.0555556
        k(    8) = (   0.0315292  -0.1115921   0.0000000), wk =   0.0555556
        k(    9) = (   0.0315292  -0.0781304   0.0000000), wk =   0.0555556
        k(   10) = (   0.0315292  -0.0446687   0.0000000), wk =   0.0555556
        k(   11) = (   0.0630583  -0.0224140   0.0000000), wk =   0.0555556
        k(   12) = (   0.0630583   0.0110477   0.0000000), wk =   0.0555556
        k(   13) = (   0.0630583   0.0445094   0.0000000), wk =   0.0555556
        k(   14) = (   0.0630583  -0.1227991   0.0000000), wk =   0.0555556
        k(   15) = (   0.0630583  -0.0893374   0.0000000), wk =   0.0555556
        k(   16) = (   0.0630583  -0.0558757   0.0000000), wk =   0.0555556
        k(   17) = (  -0.0945875   0.0336210   0.0000000), wk =   0.0277778
        k(   18) = (  -0.0945875   0.0670827   0.0000000), wk =   0.0555556
        k(   19) = (  -0.0945875   0.1005444   0.0000000), wk =   0.0555556
        k(   20) = (  -0.0945875  -0.0667640   0.0000000), wk =   0.0277778
        k(   21) = (   0.0000000   0.0000000   0.0000000), wk =   0.0277778
        k(   22) = (   0.0000000   0.0334617   0.0000000), wk =   0.0555556
        k(   23) = (   0.0000000   0.0669234   0.0000000), wk =   0.0555556
        k(   24) = (   0.0000000  -0.1003851   0.0000000), wk =   0.0277778
        k(   25) = (   0.0315292  -0.0112070   0.0000000), wk =   0.0555556
        k(   26) = (   0.0315292   0.0222547   0.0000000), wk =   0.0555556
        k(   27) = (   0.0315292   0.0557164   0.0000000), wk =   0.0555556
        k(   28) = (   0.0315292  -0.1115921   0.0000000), wk =   0.0555556
        k(   29) = (   0.0315292  -0.0781304   0.0000000), wk =   0.0555556
        k(   30) = (   0.0315292  -0.0446687   0.0000000), wk =   0.0555556
        k(   31) = (   0.0630583  -0.0224140   0.0000000), wk =   0.0555556
        k(   32) = (   0.0630583   0.0110477   0.0000000), wk =   0.0555556
        k(   33) = (   0.0630583   0.0445094   0.0000000), wk =   0.0555556
        k(   34) = (   0.0630583  -0.1227991   0.0000000), wk =   0.0555556
        k(   35) = (   0.0630583  -0.0893374   0.0000000), wk =   0.0555556
        k(   36) = (   0.0630583  -0.0558757   0.0000000), wk =   0.0555556
        k(   37) = (  -0.0945875   0.0336210   0.0000000), wk =   0.0277778
        k(   38) = (  -0.0945875   0.0670827   0.0000000), wk =   0.0555556
        k(   39) = (  -0.0945875   0.1005444   0.0000000), wk =   0.0555556
        k(   40) = (  -0.0945875  -0.0667640   0.0000000), wk =   0.0277778

     Largest allocated arrays     est. size (Mb)     dimensions
     Largest temporary arrays     est. size (Mb)     dimensions

     Check: negative/imaginary core charge=   -0.000005    0.000000

     Initial potential from superposition of free atoms
     Check: negative starting charge=(component1):   -0.185968
     Check: negative starting charge=(component2):   -0.142211

     starting charge  173.99890, renormalised to  180.00000

     negative rho (up, down):  1.924E-01 1.471E-01

     *
     * You are using vdW-DF for exchange-correlation in this calculation.
     * Please cite the following three references that made this development
     * possible:
     *
     *   M. Dion, H. Rydberg, E. Schroder, D. C. Langreth, and
     *   B. I. Lundqvist, Phys. Rev. Lett. 92, 246401 (2004).
     *
     *   T. Thonhauser, V. R. Cooper, S. Li, A. Puzder, P. Hyldgaard, and
     *   D. C. Langreth, Phys. Rev. B 76, 125112 (2007).
     *
     *   G. Roman-Perez and J. M. Soler, Phys. Rev. Lett. 103, 096102 (2009).
     *
     *
     * If you are using vdW-DF2, please also cite:
     *
     *   K. Lee, E. D. Murray, L. Kong, B. I. Lundqvist, and
     *   D. C. Langreth, Phys. Rev. B 82, 081101(R) (2010).
     *
     *
     * If you are calculating the stress with vdW-DF, please also cite:
     *
     *   R. Sabatini, E. Kucukbenli, B. Kolb, T. Thonhauser, and
     *   S. de Gironcoli, J. Phys.: Condens. Matter 24, 424209 (2012).
     *

     Carrying out vdW-DF run using the following parameters:

     Nqs =      20    Nr_points =    1024   r_max =   100.000
     q_mesh =
               0.00001000     0.04494208     0.09755937     0.15916263
               0.23128650     0.31572767     0.41458969     0.53033537
               0.66584808     0.82450364     1.01025438     1.22772762
               1.48234092     1.78043706     2.12944203     2.53805004
               3.01644009     3.57652955     4.23227104     5.00000000

     Gradients computed in reciprocal space

     Adding external electric field

     Computed dipole along edir(3) :
        Dipole                0.0000 Ry au,          0.0000 Debye
        Dipole field          0.0000 Ry au

        Potential amp.       -0.0000 Ry
        Total length         44.8067 bohr

[...]

     Starting wfc are  150 randomized atomic wfcs

     Self-consistent Calculation

     iteration #  1     ecut=    36.75 Ry     beta=0.10
     Davidson diagonalization with overlap
     ethr =  1.00E-02,  avg # of iterations =  7.4

[...]

     Magnetic moment per site:
     atom:    1    charge:    6.0724    magn:    0.8092    constr:    0.0000
     atom:    2    charge:    6.0724    magn:    0.8092    constr:    0.0000
     atom:    3    charge:    2.7667    magn:    0.3449    constr:    0.0000
     atom:    4    charge:    2.7667    magn:    0.3449    constr:    0.0000
     atom:    5    charge:    6.0864    magn:    0.8076    constr:    0.0000
     atom:    6    charge:    6.0864    magn:    0.8076    constr:    0.0000
[...]

     PseudoPot. # 2 for Rh read from file:
     /afs/slac.stanford.edu/u/if/mamunm/psp/gbrv1.5pbe/Rh.UPF
     MD5 check sum: 761627e959a2e3a1f56b0b5fe687810e
     Pseudo is Ultrasoft + core correction, Zval = 15.0
     Generated by new atomic code, or converted to UPF format
     Using radial grid of  969 points,  7 beta functions with:
                l(1) =   0
                l(2) =   0
                l(3) =   1
                l(4) =   1
                l(5) =   2
                l(6) =   2
                l(7) =   2
     Q(r) pseudized with  8 coefficients,  rinner =    1.200   1.200   1.200
                                                       1.200   1.200

     vdW kernel table read from file vdW_kernel_table
     MD5 check sum: 095c7af220d748ca6e76c0b4c6cfb241

     atomic species   valence    mass     pseudopotential
        Mn1           15.00    54.93804     Mn( 1.00)
        Rh1           15.00   102.90550     Rh( 1.00)

     Starting magnetic structure
     atomic species   magnetization
        Mn1          0.133
        Rh1          0.133

     No symmetry found

   Cartesian axes

     site n.     atom                  positions (alat units)
         1           Mn1 tau(   1) = (   0.0000000   0.0000000  10.0000000  )
         2           Mn1 tau(   2) = (   3.5282705   2.4904099  10.0000000  )
         3           Rh1 tau(   3) = (   2.6430562   0.0000000  10.0000000  )
         4           Rh1 tau(   4) = (   0.8852143   2.4904099  10.0000000  )
         5           Mn1 tau(   5) = (   5.2861124   3.7311727  12.1593169  )
         6           Mn1 tau(   6) = (   1.7578418   1.2407628  12.1593169  )
         7           Rh1 tau(   7) = (   2.6430562   3.7311727  12.1593169  )
         8           Rh1 tau(   8) = (   4.4008980   1.2407628  12.1593169  )
         9           Mn1 tau(   9) = (   3.5166917   2.4822373  14.3871602  )
        10           Mn1 tau(  10) = (   7.0449602   4.9726454  14.3871648  )
        11           Rh1 tau(  11) = (   6.1599716   2.4823918  14.2103011  )
        12           Rh1 tau(  12) = (   4.4021270   4.9728060  14.2103015  )

     number of k points=    40  Fermi-Dirac smearing, width (Ry)=  0.0110
                       cart. coord. in units 2pi/alat
        k(    1) = (   0.0000000   0.0000000   0.0000000), wk =   0.0277778
        k(    2) = (   0.0000000   0.0334617   0.0000000), wk =   0.0555556
        k(    3) = (   0.0000000   0.0669234   0.0000000), wk =   0.0555556
        k(    4) = (   0.0000000  -0.1003851   0.0000000), wk =   0.0277778
        k(    5) = (   0.0315292  -0.0112070   0.0000000), wk =   0.0555556
        k(    6) = (   0.0315292   0.0222547   0.0000000), wk =   0.0555556
        k(    7) = (   0.0315292   0.0557164   0.0000000), wk =   0.0555556
        k(    8) = (   0.0315292  -0.1115921   0.0000000), wk =   0.0555556
        k(    9) = (   0.0315292  -0.0781304   0.0000000), wk =   0.0555556
        k(   10) = (   0.0315292  -0.0446687   0.0000000), wk =   0.0555556
        k(   11) = (   0.0630583  -0.0224140   0.0000000), wk =   0.0555556
        k(   12) = (   0.0630583   0.0110477   0.0000000), wk =   0.0555556
        k(   13) = (   0.0630583   0.0445094   0.0000000), wk =   0.0555556
        k(   14) = (   0.0630583  -0.1227991   0.0000000), wk =   0.0555556
        k(   15) = (   0.0630583  -0.0893374   0.0000000), wk =   0.0555556
        k(   16) = (   0.0630583  -0.0558757   0.0000000), wk =   0.0555556
        k(   17) = (  -0.0945875   0.0336210   0.0000000), wk =   0.0277778
        k(   18) = (  -0.0945875   0.0670827   0.0000000), wk =   0.0555556
        k(   19) = (  -0.0945875   0.1005444   0.0000000), wk =   0.0555556
        k(   20) = (  -0.0945875  -0.0667640   0.0000000), wk =   0.0277778
        k(   21) = (   0.0000000   0.0000000   0.0000000), wk =   0.0277778
        k(   22) = (   0.0000000   0.0334617   0.0000000), wk =   0.0555556
        k(   23) = (   0.0000000   0.0669234   0.0000000), wk =   0.0555556
        k(   24) = (   0.0000000  -0.1003851   0.0000000), wk =   0.0277778
        k(   25) = (   0.0315292  -0.0112070   0.0000000), wk =   0.0555556
        k(   26) = (   0.0315292   0.0222547   0.0000000), wk =   0.0555556
        k(   27) = (   0.0315292   0.0557164   0.0000000), wk =   0.0555556
        k(   28) = (   0.0315292  -0.1115921   0.0000000), wk =   0.0555556
        k(   29) = (   0.0315292  -0.0781304   0.0000000), wk =   0.0555556
        k(   30) = (   0.0315292  -0.0446687   0.0000000), wk =   0.0555556
        k(   31) = (   0.0630583  -0.0224140   0.0000000), wk =   0.0555556
        k(   32) = (   0.0630583   0.0110477   0.0000000), wk =   0.0555556
        k(   33) = (   0.0630583   0.0445094   0.0000000), wk =   0.0555556
        k(   34) = (   0.0630583  -0.1227991   0.0000000), wk =   0.0555556
        k(   35) = (   0.0630583  -0.0893374   0.0000000), wk =   0.0555556
        k(   36) = (   0.0630583  -0.0558757   0.0000000), wk =   0.0555556
        k(   37) = (  -0.0945875   0.0336210   0.0000000), wk =   0.0277778
        k(   38) = (  -0.0945875   0.0670827   0.0000000), wk =   0.0555556
        k(   39) = (  -0.0945875   0.1005444   0.0000000), wk =   0.0555556
        k(   40) = (  -0.0945875  -0.0667640   0.0000000), wk =   0.0277778

     Largest allocated arrays     est. size (Mb)     dimensions
     Largest temporary arrays     est. size (Mb)     dimensions

     Check: negative/imaginary core charge=   -0.000005    0.000000

     Initial potential from superposition of free atoms
     Check: negative starting charge=(component1):   -0.185008
     Check: negative starting charge=(component2):   -0.141476

     starting charge  173.99890, renormalised to  180.00000

[...]

     *
     * You are using vdW-DF for exchange-correlation in this calculation.
     * Please cite the following three references that made this development
     * possible:
     *
     *   M. Dion, H. Rydberg, E. Schroder, D. C. Langreth, and
     *   B. I. Lundqvist, Phys. Rev. Lett. 92, 246401 (2004).
     *
     *   T. Thonhauser, V. R. Cooper, S. Li, A. Puzder, P. Hyldgaard, and
     *   D. C. Langreth, Phys. Rev. B 76, 125112 (2007).
     *
     *   G. Roman-Perez and J. M. Soler, Phys. Rev. Lett. 103, 096102 (2009).
     *
     *
     * If you are using vdW-DF2, please also cite:
     *
     *   K. Lee, E. D. Murray, L. Kong, B. I. Lundqvist, and
     *   D. C. Langreth, Phys. Rev. B 82, 081101(R) (2010).
     *
     *
     * If you are calculating the stress with vdW-DF, please also cite:
     *
     *   R. Sabatini, E. Kucukbenli, B. Kolb, T. Thonhauser, and
     *   S. de Gironcoli, J. Phys.: Condens. Matter 24, 424209 (2012).
     *

     Carrying out vdW-DF run using the following parameters:

     Nqs =      20    Nr_points =    1024   r_max =   100.000
     q_mesh =
               0.00001000     0.04494208     0.09755937     0.15916263
               0.23128650     0.31572767     0.41458969     0.53033537
               0.66584808     0.82450364     1.01025438     1.22772762
               1.48234092     1.78043706     2.12944203     2.53805004
               3.01644009     3.57652955     4.23227104     5.00000000

     Gradients computed in reciprocal space

[...]

     Starting wfc are  150 randomized atomic wfcs

     Self-consistent Calculation

[...]

     iteration # 13     ecut=    36.75 Ry     beta=0.10
     Davidson diagonalization with overlap
     c_bands:  1 eigenvalues not converged
     ethr =  2.01E-06,  avg # of iterations =  4.5

[...]

     total energy              =   -2306.07026413 Ry
     Harris-Foulkes estimate   =   -2306.07026320 Ry
     estimated scf accuracy    <       0.00000116 Ry

[...]

     iteration # 25     ecut=    36.75 Ry     beta=0.10
     Davidson diagonalization with overlap
     ethr =  6.43E-10,  avg # of iterations =  2.2

[...]

     negative rho (up, down):  1.639E-01 1.748E-01

[...]

     Adding external electric field

     Computed dipole along edir(3) :
        Dipole                0.0260 Ry au,          0.0661 Debye
        Dipole field          0.0001 Ry au

        Potential amp.       -0.0068 Ry
        Total length         44.8067 bohr

     Magnetic moment per site:
     atom:    1    charge:    6.0092    magn:    1.5679    constr:    0.0000
     atom:    2    charge:    6.0092    magn:    1.5679    constr:    0.0000
     atom:    3    charge:    2.6928    magn:    0.0580    constr:    0.0000
     atom:    4    charge:    2.6928    magn:    0.0580    constr:    0.0000
     atom:    5    charge:    6.0107    magn:    1.4311    constr:    0.0000
     atom:    6    charge:    6.0106    magn:    1.4311    constr:    0.0000
     atom:    7    charge:    2.7064    magn:    0.0910    constr:    0.0000
     atom:    8    charge:    2.7064    magn:    0.0910    constr:    0.0000
     atom:    9    charge:    6.0104    magn:    1.5787    constr:    0.0000
     atom:   10    charge:    6.0104    magn:    1.5787    constr:    0.0000
     atom:   11    charge:    2.6979    magn:    0.0488    constr:    0.0000
     atom:   12    charge:    2.6979    magn:    0.0488    constr:    0.0000

     End of self-consistent calculation

 ------ SPIN UP ------------

[...]

 ------ SPIN DOWN ----------

[...]

          k = 0.0631-0.0559 0.0000 ( 16267 PWs)   bands (ev):

[...]

          k =-0.0946-0.0668 0.0000 ( 16196 PWs)   bands (ev):

   -75.9863 -75.9826 -75.7930 -75.7896 -75.7893 -75.7858 -44.8894 -44.8749
   -44.8689 -44.8283 -44.8227 -44.8025 -44.7954 -44.7883 -44.7866 -44.7400
   -44.7268 -44.7055 -44.6461 -44.6407 -44.6380 -44.6285 -44.6214 -44.6205
   -44.6176 -44.6144 -44.5743 -44.5694 -44.5618 -44.5602 -44.5594 -44.5458
   -44.5424 -44.5305 -44.5280 -44.4876 -44.4848 -44.4834 -44.4795 -44.4665
   -44.3709 -44.3674  -3.5251  -3.2592  -2.5780  -2.5273  -2.3754  -2.2277
    -2.1759  -1.9658  -1.9139  -1.8562  -1.5718  -1.5149  -1.4891  -1.4083
    -1.2908  -1.2298  -0.7904  -0.7519  -0.7109  -0.7099  -0.6257  -0.5966
    -0.4829  -0.4267  -0.2858  -0.2734  -0.2433  -0.0054   0.0180   0.1614
     0.3765   0.6143   0.6567   0.9067   0.9686   1.1772   1.2064   1.2067
     1.2918   1.4527   1.7485   2.0171   2.1759   2.1798   2.2259   2.3135
     2.3395   2.3435   2.3854   2.4327   2.4410   2.4654   2.5518   2.7054
     2.9133   2.9896   3.0155   3.1082   3.2212   3.3740   3.5103   3.5905
     3.6369   3.7307   3.7409   4.2535   4.3713   4.3880   4.7199   4.8789
     5.8180   6.0245   6.3191   6.5162   7.1666   7.2401   7.8068   7.8429

     the Fermi energy is     1.1637 ev

!    total energy              =   -2306.07026616 Ry
     Harris-Foulkes estimate   =   -2306.07026427 Ry
     estimated scf accuracy    <       0.00000049 Ry

     The total energy is the sum of the following terms:

     one-electron contribution =  -19166.05455239 Ry
     hartree contribution      =    9601.22784089 Ry
     xc contribution           =    -352.37847567 Ry
     ewald contribution        =    7611.20935201 Ry
     electric field correction =       0.00000197 Ry
     smearing contrib. (-TS)   =      -0.07443297 Ry

     total magnetization       =    25.77 Bohr mag/cell
     absolute magnetization    =    26.11 Bohr mag/cell

     convergence has been achieved in  25 iterations

 BEEF-vdW xc energy contributions
           1 :   -307.334307260096
           2 :    279.762870566728
           3 :   -233.296217809819
           4 :    180.926978139814
           5 :   -134.298061290559
           6 :    99.9028669619689
           7 :   -78.4289743451181
           8 :    66.5169589554116
           9 :   -59.3859750112322
          10 :    53.0255440119232
          11 :   -45.3317274911833
          12 :    36.1799022461719
          13 :   -26.7936688215593
          14 :    18.8188414147193
          15 :   -13.4266359435920
          16 :    10.7316603375305
          17 :   -9.78280426013873
          18 :    9.14956364797740
          19 :   -7.75581765673121
          20 :    5.42323001868328
          21 :   -2.79953550884784
          22 :   0.783928964224913
          23 :   0.112681091908257
          24 :  -5.043002458762658E-002
          25 :  -0.340753651170644
          26 :   0.426926499113051
          27 :   5.447025851321996E-002
          28 :  -0.930053382500716
          29 :    1.79714523456926
          30 :   -2.30566339220991
          31 :   -28.9740185192992
          32 :   -21.0996514464269

     Forces acting on atoms (Ry/au):

     negative rho (up, down):  1.639E-01 1.748E-01
     atom    1 type  1   force =    -0.00016485   -0.00011608   -0.00984258
     atom    2 type  1   force =    -0.00016847   -0.00011925   -0.00984231
     atom    3 type  2   force =    -0.00010449   -0.00007515    0.02024296
     atom    4 type  2   force =    -0.00010570   -0.00007317    0.02024286
     atom    5 type  1   force =     0.00007701    0.00005465   -0.01373486
     atom    6 type  1   force =     0.00007735    0.00005426   -0.01373458
     atom    7 type  2   force =    -0.00005974   -0.00004194    0.00252440
     atom    8 type  2   force =    -0.00005952   -0.00004228    0.00252450
     atom    9 type  1   force =     0.00013122    0.00009252    0.00080627
     atom   10 type  1   force =     0.00013437    0.00009499    0.00080619
     atom   11 type  2   force =     0.00012028    0.00008735    0.00000364
     atom   12 type  2   force =     0.00012253    0.00008410    0.00000351

     Total force =     0.037482     Total SCF correction =     0.003149

     entering subroutine stress ...

     negative rho (up, down):  1.639E-01 1.748E-01
          total   stress  (Ry/bohr**3)                   (kbar)     P=  -19.81
  -0.00014125   0.00002395   0.00000110        -20.78      3.52      0.16
   0.00002395  -0.00015827   0.00000078          3.52    -23.28      0.11
   0.00000110   0.00000078  -0.00010452          0.16      0.11    -15.38

 !ASE

     Writing output data file calc.save

     General routines

     Parallel routines

   This run was terminated on:  17:44:35  18Dec2018

   JOB DONE.
Job  /afs/slac/g/suncat/bin/suncat-tsmpirun -x LD_LIBRARY_PATH -wdir /scratch/qe530223_JxZ6r pw.x -in pw.inp

TID   HOST_NAME   COMMAND_LINE            STATUS            TERMINATION_TIME
00000 suncat2062 pw.x -in pw.inp   Done                     12/18/2018 17:44:35
00001 suncat2062 pw.x -in pw.inp   Done                     12/18/2018 17:44:35
00002 suncat2062 pw.x -in pw.inp   Done                     12/18/2018 17:44:35
00003 suncat2062 pw.x -in pw.inp   Done                     12/18/2018 17:44:35
00004 suncat2062 pw.x -in pw.inp   Done                     12/18/2018 17:44:35
00005 suncat2062 pw.x -in pw.inp   Done                     12/18/2018 17:44:35
00006 suncat2062 pw.x -in pw.inp   Done                     12/18/2018 17:44:35
00007 suncat2062 pw.x -in pw.inp   Done                     12/18/2018 17:44:35
00008 suncat2062 pw.x -in pw.inp   Done                     12/18/2018 17:44:35
00009 suncat2062 pw.x -in pw.inp   Done                     12/18/2018 17:44:35
00010 suncat2062 pw.x -in pw.inp   Done                     12/18/2018 17:44:35
00011 suncat2062 pw.x -in pw.inp   Done                     12/18/2018 17:44:35
00012 suncat2062 pw.x -in pw.inp   Done                     12/18/2018 17:44:35
00013 suncat2062 pw.x -in pw.inp   Done                     12/18/2018 17:44:35
00014 suncat2062 pw.x -in pw.inp   Done                     12/18/2018 17:44:35
00015 suncat2062 pw.x -in pw.inp   Done                     12/18/2018 17:44:35
00016 suncat2061 pw.x -in pw.inp   Done                     12/18/2018 17:44:35
00017 suncat2061 pw.x -in pw.inp   Done                     12/18/2018 17:44:35
00018 suncat2061 pw.x -in pw.inp   Done                     12/18/2018 17:44:35
00019 suncat2061 pw.x -in pw.inp   Done                     12/18/2018 17:44:35
00020 suncat2061 pw.x -in pw.inp   Done                     12/18/2018 17:44:35
00021 suncat2061 pw.x -in pw.inp   Done                     12/18/2018 17:44:35
00022 suncat2061 pw.x -in pw.inp   Done                     12/18/2018 17:44:35
00023 suncat2061 pw.x -in pw.inp   Done                     12/18/2018 17:44:35
00024 suncat2061 pw.x -in pw.inp   Done                     12/18/2018 17:44:35
00025 suncat2061 pw.x -in pw.inp   Done                     12/18/2018 17:44:35
00026 suncat2061 pw.x -in pw.inp   Done                     12/18/2018 17:44:35
00027 suncat2061 pw.x -in pw.inp   Done                     12/18/2018 17:44:35
00028 suncat2061 pw.x -in pw.inp   Done                     12/18/2018 17:44:35
00029 suncat2061 pw.x -in pw.inp   Done                     12/18/2018 17:44:35
00030 suncat2061 pw.x -in pw.inp   Done                     12/18/2018 17:44:35
00031 suncat2061 pw.x -in pw.inp   Done                     12/18/2018 17:44:35