     Program PWSCF v.5.1rc2 (svn rev. 11289) starts on 18Dec2018 at 16:51:54

     Current dimensions of program PWSCF are:
     Max number of different atomic species (ntypx) = 10
     Max number of k-points (npk) =  40000
     Max angular momentum in pseudopotentials (lmaxx) =  3
     Presently stress not available with electric field

     IMPORTANT: XC functional enforced from input :
     Exchange-correlation      = BEEF-VDW ( 1  4 27 13 2)
     Any further DFT definition will be discarded
     Please, verify this is what you really want

     Subspace diagonalization in iterative solution of the eigenvalue problem:
     a serial algorithm will be used

     Found symmetry operation: I + ( -0.5000 -0.5000  0.0000)
     This is a supercell, fractional translations are disabled

     Generating pointlists ...
     new r_m :   0.4125 (alat units)  0.7795 (a.u.) for type    1
     new r_m :   0.4125 (alat units)  0.7795 (a.u.) for type    2

     bravais-lattice index     =            0
     lattice parameter (alat)  =       1.8897  a.u.
     unit-cell volume          =    5407.0100 (a.u.)^3
     number of atoms/cell      =           12
     number of atomic types    =            2
     number of electrons       =       162.00
     number of Kohn-Sham states=          111
     kinetic-energy cutoff     =      36.7493  Ry
     charge density cutoff     =     367.4932  Ry
     convergence threshold     =      1.0E-06
     mixing beta               =       0.1000
     number of iterations used =           10  plain     mixing
     Exchange-correlation      = BEEF-VDW ( 1  4 27 13 2)
     nstep                     =           50

     celldm(1)=   1.889726  celldm(2)=   0.000000  celldm(3)=   0.000000
     celldm(4)=   0.000000  celldm(5)=   0.000000  celldm(6)=   0.000000

     crystal axes: (cart. coord. in units of alat)
               a(1) = (   5.871332   0.000000   0.000000 )
               a(2) = (   2.060725   5.497813   0.000000 )
               a(3) = (   0.000000   0.000000  24.821837 )

     reciprocal axes: (cart. coord. in units 2 pi/alat)
               b(1) = (  0.170319 -0.063840  0.000000 )
               b(2) = (  0.000000  0.181890  0.000000 )
               b(3) = (  0.000000  0.000000  0.040287 )

     PseudoPot. # 1 for Mn read from file:
     /afs/slac.stanford.edu/u/if/mamunm/psp/gbrv1.5pbe/Mn.UPF
     MD5 check sum: 82ef2b46521d7a7d9e736dc3972e4928
     Pseudo is Ultrasoft + core correction, Zval = 15.0
     Generated by new atomic code, or converted to UPF format
     Using radial grid of  859 points,  6 beta functions with:
                l(1) =   0
                l(2) =   0
                l(3) =   1
                l(4) =   1
                l(5) =   2
                l(6) =   2
     Q(r) pseudized with  8 coefficients,  rinner =    0.950   0.950   0.950
                                                       0.950   0.950

     PseudoPot. # 2 for Hg read from file:
     /afs/slac.stanford.edu/u/if/mamunm/psp/gbrv1.5pbe/Hg.UPF
     MD5 check sum: 8f42caffe07f7fd9c0a564347f8c5498
     Pseudo is Ultrasoft + core correction, Zval = 12.0
     Generated by new atomic code, or converted to UPF format
     Using radial grid of  985 points,  6 beta functions with:
                l(1) =   0
                l(2) =   0
                l(3) =   1
                l(4) =   1
                l(5) =   2
                l(6) =   2
     Q(r) pseudized with  8 coefficients,  rinner =    2.000   2.000   2.000
                                                       2.000   2.000

     vdW kernel table read from file vdW_kernel_table
     MD5 check sum: 095c7af220d748ca6e76c0b4c6cfb241

     atomic species   valence    mass     pseudopotential
        Mn1           15.00    54.93804     Mn( 1.00)
        Hg1           12.00   200.59200     Hg( 1.00)

     Starting magnetic structure
     atomic species   magnetization
        Mn1          0.133
        Hg1          0.167

     No symmetry found

   Cartesian axes

     site n.     atom                  positions (alat units)
         1           Mn1 tau(   1) = (   0.0000000   0.0000000  10.0000000  )
         2           Mn1 tau(   2) = (   3.9660288   2.7489067  10.0000000  )
         3           Hg1 tau(   3) = (   2.9356661   0.0000000  10.0000000  )
         4           Hg1 tau(   4) = (   1.0303627   2.7489067  10.0000000  )
         5           Mn1 tau(   5) = (   5.8713322   4.0694976  12.4109185  )
         6           Mn1 tau(   6) = (   1.9053034   1.3205909  12.4109185  )
         7           Hg1 tau(   7) = (   2.9356661   4.0694976  12.4109185  )
         8           Hg1 tau(   8) = (   4.8409695   1.3205909  12.4109185  )
         9           Mn1 tau(   9) = (   3.8106068   2.6411817  14.8218370  )
        10           Mn1 tau(  10) = (   7.7766356   5.3900884  14.8218370  )
        11           Hg1 tau(  11) = (   6.7462729   2.6411817  14.8218370  )
        12           Hg1 tau(  12) = (   4.8409695   5.3900884  14.8218370  )

     number of k points=    40  Fermi-Dirac smearing, width (Ry)=  0.0110
                       cart. coord. in units 2pi/alat
        k(    1) = (   0.0000000   0.0000000   0.0000000), wk =   0.0277778
        k(    2) = (   0.0000000   0.0303151   0.0000000), wk =   0.0555556
        k(    3) = (   0.0000000   0.0606302   0.0000000), wk =   0.0555556
        k(    4) = (   0.0000000  -0.0909452   0.0000000), wk =   0.0277778
        k(    5) = (   0.0283865  -0.0106400   0.0000000), wk =   0.0555556
        k(    6) = (   0.0283865   0.0196751   0.0000000), wk =   0.0555556
        k(    7) = (   0.0283865   0.0499901   0.0000000), wk =   0.0555556
        k(    8) = (   0.0283865  -0.1015853   0.0000000), wk =   0.0555556
        k(    9) = (   0.0283865  -0.0712702   0.0000000), wk =   0.0555556
        k(   10) = (   0.0283865  -0.0409551   0.0000000), wk =   0.0555556
        k(   11) = (   0.0567730  -0.0212800   0.0000000), wk =   0.0555556
        k(   12) = (   0.0567730   0.0090351   0.0000000), wk =   0.0555556
        k(   13) = (   0.0567730   0.0393501   0.0000000), wk =   0.0555556
        k(   14) = (   0.0567730  -0.1122253   0.0000000), wk =   0.0555556
        k(   15) = (   0.0567730  -0.0819102   0.0000000), wk =   0.0555556
        k(   16) = (   0.0567730  -0.0515951   0.0000000), wk =   0.0555556
        k(   17) = (  -0.0851595   0.0319200   0.0000000), wk =   0.0277778
        k(   18) = (  -0.0851595   0.0622351   0.0000000), wk =   0.0555556
        k(   19) = (  -0.0851595   0.0925502   0.0000000), wk =   0.0555556
        k(   20) = (  -0.0851595  -0.0590252   0.0000000), wk =   0.0277778
        k(   21) = (   0.0000000   0.0000000   0.0000000), wk =   0.0277778
        k(   22) = (   0.0000000   0.0303151   0.0000000), wk =   0.0555556
        k(   23) = (   0.0000000   0.0606302   0.0000000), wk =   0.0555556
        k(   24) = (   0.0000000  -0.0909452   0.0000000), wk =   0.0277778
        k(   25) = (   0.0283865  -0.0106400   0.0000000), wk =   0.0555556
        k(   26) = (   0.0283865   0.0196751   0.0000000), wk =   0.0555556
        k(   27) = (   0.0283865   0.0499901   0.0000000), wk =   0.0555556
        k(   28) = (   0.0283865  -0.1015853   0.0000000), wk =   0.0555556
        k(   29) = (   0.0283865  -0.0712702   0.0000000), wk =   0.0555556
        k(   30) = (   0.0283865  -0.0409551   0.0000000), wk =   0.0555556
        k(   31) = (   0.0567730  -0.0212800   0.0000000), wk =   0.0555556
        k(   32) = (   0.0567730   0.0090351   0.0000000), wk =   0.0555556
        k(   33) = (   0.0567730   0.0393501   0.0000000), wk =   0.0555556
        k(   34) = (   0.0567730  -0.1122253   0.0000000), wk =   0.0555556
        k(   35) = (   0.0567730  -0.0819102   0.0000000), wk =   0.0555556
        k(   36) = (   0.0567730  -0.0515951   0.0000000), wk =   0.0555556
        k(   37) = (  -0.0851595   0.0319200   0.0000000), wk =   0.0277778
        k(   38) = (  -0.0851595   0.0622351   0.0000000), wk =   0.0555556
        k(   39) = (  -0.0851595   0.0925502   0.0000000), wk =   0.0555556
        k(   40) = (  -0.0851595  -0.0590252   0.0000000), wk =   0.0277778

     Largest allocated arrays     est. size (Mb)     dimensions
     Largest temporary arrays     est. size (Mb)     dimensions

     Check: negative/imaginary core charge=   -0.000004    0.000000

     Initial potential from superposition of free atoms
     Check: negative starting charge=(component1):   -0.001403
     Check: negative starting charge=(component2):   -0.001075

     starting charge  158.99914, renormalised to  162.00000

     negative rho (up, down):  1.429E-03 1.095E-03

     *
     * You are using vdW-DF for exchange-correlation in this calculation.
     * Please cite the following three references that made this development
     * possible:
     *
     *   M. Dion, H. Rydberg, E. Schroder, D. C. Langreth, and
     *   B. I. Lundqvist, Phys. Rev. Lett. 92, 246401 (2004).
     *
     *   T. Thonhauser, V. R. Cooper, S. Li, A. Puzder, P. Hyldgaard, and
     *   D. C. Langreth, Phys. Rev. B 76, 125112 (2007).
     *
     *   G. Roman-Perez and J. M. Soler, Phys. Rev. Lett. 103, 096102 (2009).
     *
     *
     * If you are using vdW-DF2, please also cite:
     *
     *   K. Lee, E. D. Murray, L. Kong, B. I. Lundqvist, and
     *   D. C. Langreth, Phys. Rev. B 82, 081101(R) (2010).
     *
     *
     * If you are calculating the stress with vdW-DF, please also cite:
     *
     *   R. Sabatini, E. Kucukbenli, B. Kolb, T. Thonhauser, and
     *   S. de Gironcoli, J. Phys.: Condens. Matter 24, 424209 (2012).
     *

     Carrying out vdW-DF run using the following parameters:

     Nqs =      20    Nr_points =    1024   r_max =   100.000
     q_mesh =
               0.00001000     0.04494208     0.09755937     0.15916263
               0.23128650     0.31572767     0.41458969     0.53033537
               0.66584808     0.82450364     1.01025438     1.22772762
               1.48234092     1.78043706     2.12944203     2.53805004
               3.01644009     3.57652955     4.23227104     5.00000000

     Gradients computed in reciprocal space

     Adding external electric field

     Computed dipole along edir(3) :
        Dipole                0.0000 Ry au,          0.0000 Debye
        Dipole field          0.0000 Ry au

        Potential amp.       -0.0000 Ry
        Total length         45.7338 bohr

[...]

     Starting wfc are  132 randomized atomic wfcs

     Self-consistent Calculation

     iteration #  1     ecut=    36.75 Ry     beta=0.10
     Davidson diagonalization with overlap
     ethr =  1.00E-02,  avg # of iterations =  7.6

     Threshold (ethr) on eigenvalues was too large:
     Diagonalizing with lowered threshold

     Davidson diagonalization with overlap
     ethr =  9.73E-04,  avg # of iterations =  3.2

[...]

     Magnetic moment per site:
     atom:    1    charge:    6.0711    magn:    0.8504    constr:    0.0000
     atom:    2    charge:    6.0711    magn:    0.8504    constr:    0.0000
     atom:    3    charge:    1.9686    magn:    0.3008    constr:    0.0000
[...]
                l(1) =   0
                l(2) =   0
                l(3) =   1
                l(4) =   1
                l(5) =   2
                l(6) =   2
     Q(r) pseudized with  8 coefficients,  rinner =    0.950   0.950   0.950
                                                       0.950   0.950

     PseudoPot. # 2 for Hg read from file:
     /afs/slac.stanford.edu/u/if/mamunm/psp/gbrv1.5pbe/Hg.UPF
     MD5 check sum: 8f42caffe07f7fd9c0a564347f8c5498
     Pseudo is Ultrasoft + core correction, Zval = 12.0
     Generated by new atomic code, or converted to UPF format
     Using radial grid of  985 points,  6 beta functions with:
                l(1) =   0
                l(2) =   0
                l(3) =   1
                l(4) =   1
                l(5) =   2
                l(6) =   2
     Q(r) pseudized with  8 coefficients,  rinner =    2.000   2.000   2.000
                                                       2.000   2.000

     vdW kernel table read from file vdW_kernel_table
     MD5 check sum: 095c7af220d748ca6e76c0b4c6cfb241

     atomic species   valence    mass     pseudopotential
        Mn1           15.00    54.93804     Mn( 1.00)
        Hg1           12.00   200.59200     Hg( 1.00)

     Starting magnetic structure
     atomic species   magnetization
        Mn1          0.133
        Hg1          0.167

     No symmetry found

   Cartesian axes

     site n.     atom                  positions (alat units)
         1           Mn1 tau(   1) = (   0.0000000   0.0000000  10.0000000  )
         2           Mn1 tau(   2) = (   3.9660288   2.7489067  10.0000000  )
         3           Hg1 tau(   3) = (   2.9356661   0.0000000  10.0000000  )
         4           Hg1 tau(   4) = (   1.0303627   2.7489067  10.0000000  )
         5           Mn1 tau(   5) = (   5.8713322   4.0694976  12.4109185  )
         6           Mn1 tau(   6) = (   1.9053034   1.3205909  12.4109185  )
         7           Hg1 tau(   7) = (   2.9356661   4.0694976  12.4109185  )
         8           Hg1 tau(   8) = (   4.8409695   1.3205909  12.4109185  )
         9           Mn1 tau(   9) = (   3.8065477   2.6383676  14.7860993  )
        10           Mn1 tau(  10) = (   7.7725542   5.3872581  14.7860656  )
        11           Hg1 tau(  11) = (   6.7539609   2.6465080  15.0426000  )
        12           Hg1 tau(  12) = (   4.8486550   5.3954222  15.0426027  )

     number of k points=    40  Fermi-Dirac smearing, width (Ry)=  0.0110
                       cart. coord. in units 2pi/alat
        k(    1) = (   0.0000000   0.0000000   0.0000000), wk =   0.0277778
        k(    2) = (   0.0000000   0.0303151   0.0000000), wk =   0.0555556
        k(    3) = (   0.0000000   0.0606302   0.0000000), wk =   0.0555556
        k(    4) = (   0.0000000  -0.0909452   0.0000000), wk =   0.0277778
        k(    5) = (   0.0283865  -0.0106400   0.0000000), wk =   0.0555556
        k(    6) = (   0.0283865   0.0196751   0.0000000), wk =   0.0555556
        k(    7) = (   0.0283865   0.0499901   0.0000000), wk =   0.0555556
        k(    8) = (   0.0283865  -0.1015853   0.0000000), wk =   0.0555556
        k(    9) = (   0.0283865  -0.0712702   0.0000000), wk =   0.0555556
        k(   10) = (   0.0283865  -0.0409551   0.0000000), wk =   0.0555556
        k(   11) = (   0.0567730  -0.0212800   0.0000000), wk =   0.0555556
        k(   12) = (   0.0567730   0.0090351   0.0000000), wk =   0.0555556
        k(   13) = (   0.0567730   0.0393501   0.0000000), wk =   0.0555556
        k(   14) = (   0.0567730  -0.1122253   0.0000000), wk =   0.0555556
        k(   15) = (   0.0567730  -0.0819102   0.0000000), wk =   0.0555556
        k(   16) = (   0.0567730  -0.0515951   0.0000000), wk =   0.0555556
        k(   17) = (  -0.0851595   0.0319200   0.0000000), wk =   0.0277778
        k(   18) = (  -0.0851595   0.0622351   0.0000000), wk =   0.0555556
        k(   19) = (  -0.0851595   0.0925502   0.0000000), wk =   0.0555556
        k(   20) = (  -0.0851595  -0.0590252   0.0000000), wk =   0.0277778
        k(   21) = (   0.0000000   0.0000000   0.0000000), wk =   0.0277778
        k(   22) = (   0.0000000   0.0303151   0.0000000), wk =   0.0555556
        k(   23) = (   0.0000000   0.0606302   0.0000000), wk =   0.0555556
        k(   24) = (   0.0000000  -0.0909452   0.0000000), wk =   0.0277778
        k(   25) = (   0.0283865  -0.0106400   0.0000000), wk =   0.0555556
        k(   26) = (   0.0283865   0.0196751   0.0000000), wk =   0.0555556
        k(   27) = (   0.0283865   0.0499901   0.0000000), wk =   0.0555556
        k(   28) = (   0.0283865  -0.1015853   0.0000000), wk =   0.0555556
        k(   29) = (   0.0283865  -0.0712702   0.0000000), wk =   0.0555556
        k(   30) = (   0.0283865  -0.0409551   0.0000000), wk =   0.0555556
        k(   31) = (   0.0567730  -0.0212800   0.0000000), wk =   0.0555556
        k(   32) = (   0.0567730   0.0090351   0.0000000), wk =   0.0555556
        k(   33) = (   0.0567730   0.0393501   0.0000000), wk =   0.0555556
        k(   34) = (   0.0567730  -0.1122253   0.0000000), wk =   0.0555556
        k(   35) = (   0.0567730  -0.0819102   0.0000000), wk =   0.0555556
        k(   36) = (   0.0567730  -0.0515951   0.0000000), wk =   0.0555556
        k(   37) = (  -0.0851595   0.0319200   0.0000000), wk =   0.0277778
        k(   38) = (  -0.0851595   0.0622351   0.0000000), wk =   0.0555556
        k(   39) = (  -0.0851595   0.0925502   0.0000000), wk =   0.0555556
        k(   40) = (  -0.0851595  -0.0590252   0.0000000), wk =   0.0277778

     Largest allocated arrays     est. size (Mb)     dimensions
     Largest temporary arrays     est. size (Mb)     dimensions

     Check: negative/imaginary core charge=   -0.000004    0.000000

     Initial potential from superposition of free atoms
     Check: negative starting charge=(component1):   -0.001384
     Check: negative starting charge=(component2):   -0.001061

     starting charge  158.99914, renormalised to  162.00000

[...]

     *
     * You are using vdW-DF for exchange-correlation in this calculation.
     * Please cite the following three references that made this development
     * possible:
     *
     *   M. Dion, H. Rydberg, E. Schroder, D. C. Langreth, and
     *   B. I. Lundqvist, Phys. Rev. Lett. 92, 246401 (2004).
     *
     *   T. Thonhauser, V. R. Cooper, S. Li, A. Puzder, P. Hyldgaard, and
     *   D. C. Langreth, Phys. Rev. B 76, 125112 (2007).
     *
     *   G. Roman-Perez and J. M. Soler, Phys. Rev. Lett. 103, 096102 (2009).
     *
     *
     * If you are using vdW-DF2, please also cite:
     *
     *   K. Lee, E. D. Murray, L. Kong, B. I. Lundqvist, and
     *   D. C. Langreth, Phys. Rev. B 82, 081101(R) (2010).
     *
     *
     * If you are calculating the stress with vdW-DF, please also cite:
     *
     *   R. Sabatini, E. Kucukbenli, B. Kolb, T. Thonhauser, and
     *   S. de Gironcoli, J. Phys.: Condens. Matter 24, 424209 (2012).
     *

     Carrying out vdW-DF run using the following parameters:

     Nqs =      20    Nr_points =    1024   r_max =   100.000
     q_mesh =
               0.00001000     0.04494208     0.09755937     0.15916263
               0.23128650     0.31572767     0.41458969     0.53033537
               0.66584808     0.82450364     1.01025438     1.22772762
               1.48234092     1.78043706     2.12944203     2.53805004
               3.01644009     3.57652955     4.23227104     5.00000000

     Gradients computed in reciprocal space

[...]

     Starting wfc are  132 randomized atomic wfcs

     Self-consistent Calculation

[...]

     total energy              =   -1927.06211315 Ry
     Harris-Foulkes estimate   =   -1927.06211072 Ry
     estimated scf accuracy    <       0.00000121 Ry

[...]

     iteration # 23     ecut=    36.75 Ry     beta=0.10
     Davidson diagonalization with overlap
     ethr =  7.49E-10,  avg # of iterations =  2.0

[...]

     negative rho (up, down):  1.643E-03 1.740E-03

[...]

     Adding external electric field

     Computed dipole along edir(3) :
        Dipole               -0.0331 Ry au,         -0.0842 Debye
        Dipole field         -0.0001 Ry au

        Potential amp.        0.0070 Ry
        Total length         45.7338 bohr

     Magnetic moment per site:
     atom:    1    charge:    6.0261    magn:    1.6243    constr:    0.0000
     atom:    2    charge:    6.0261    magn:    1.6243    constr:    0.0000
     atom:    3    charge:    1.9866    magn:    0.0101    constr:    0.0000
     atom:    4    charge:    1.9866    magn:    0.0101    constr:    0.0000
     atom:    5    charge:    6.0257    magn:    1.5964    constr:    0.0000
     atom:    6    charge:    6.0256    magn:    1.5964    constr:    0.0000
     atom:    7    charge:    1.9921    magn:    0.0088    constr:    0.0000
     atom:    8    charge:    1.9921    magn:    0.0088    constr:    0.0000
     atom:    9    charge:    6.0338    magn:    1.6260    constr:    0.0000
     atom:   10    charge:    6.0338    magn:    1.6260    constr:    0.0000
     atom:   11    charge:    1.9840    magn:    0.0084    constr:    0.0000
     atom:   12    charge:    1.9840    magn:    0.0084    constr:    0.0000

     End of self-consistent calculation

 ------ SPIN UP ------------

[...]

 ------ SPIN DOWN ----------

[...]

          k = 0.0568-0.0516 0.0000 ( 20364 PWs)   bands (ev):

[...]

          k =-0.0852-0.0590 0.0000 ( 20338 PWs)   bands (ev):

   -76.8050 -76.8041 -76.7938 -76.7929 -76.7667 -76.7658 -45.6139 -45.6128
   -45.6094 -45.6065 -45.6060 -45.5976 -45.5975 -45.5931 -45.5907 -45.5894
   -45.5770 -45.5760 -45.5751 -45.5729 -45.5714 -45.5583 -45.5445 -45.5277
    -7.4425  -7.2828  -7.2178  -7.1399  -7.1040  -7.0748  -7.0247  -7.0227
    -6.9647  -6.8806  -6.8774  -6.8470  -6.8312  -6.7469  -6.6974  -6.6693
    -6.6598  -6.6024  -6.5851  -6.5326  -6.4722  -6.4322  -6.4049  -6.3971
    -6.3169  -6.2808  -6.1564  -6.1366  -6.1278  -5.9415  -5.5448  -5.3799
    -4.3628  -3.9327  -2.8717  -2.8146  -2.6456  -1.5401  -1.1110  -1.0356
    -0.7053  -0.4806  -0.2599   0.3381   0.4811   0.6331   0.7117   0.7484
     0.9081   0.9207   1.1162   1.2553   1.2801   1.3536   1.4352   1.5522
     1.5890   1.6177   1.7899   1.8142   1.8690   1.9001   1.9149   1.9680
     1.9995   2.1641   2.2471   2.2730   2.5698   2.6524   2.8361   3.3131
     3.4157   3.4373   4.1183   4.8808   5.0100   5.3880   5.4918   5.8613
     5.8930   5.9765   6.3823   6.3828   6.4593   6.4823   6.5589

     the Fermi energy is     0.6317 ev

!    total energy              =   -1927.06212282 Ry
     Harris-Foulkes estimate   =   -1927.06211351 Ry
     estimated scf accuracy    <       0.00000060 Ry

     The total energy is the sum of the following terms:

     one-electron contribution =  -12228.32171170 Ry
     hartree contribution      =    6153.83864752 Ry
     xc contribution           =    -408.63879628 Ry
     ewald contribution        =    4556.11930685 Ry
     electric field correction =       0.00000255 Ry
     smearing contrib. (-TS)   =      -0.05957176 Ry

     total magnetization       =    25.37 Bohr mag/cell
     absolute magnetization    =    26.50 Bohr mag/cell

     convergence has been achieved in  23 iterations

 BEEF-vdW xc energy contributions
           1 :   -357.723620796554
           2 :    326.333916643087
           3 :   -273.358548323814
           4 :    213.185704124170
           5 :   -158.373886224685
           6 :    115.888050044928
           7 :   -86.9286683245523
           8 :    68.8533900197243
           9 :   -57.4250844532756
          10 :    48.5865543473908
          11 :   -39.6730852404955
          12 :    29.9681347383526
          13 :   -20.4096885609288
          14 :    12.5305964059818
          15 :   -7.24716638101694
          16 :    4.28699067957695
          17 :   -2.56719637953347
          18 :    1.05825504447307
          19 :   0.625871931370284
          20 :   -2.26974012001409
          21 :    3.48222238976359
          22 :   -4.06392571429569
          23 :    4.10216697970742
          24 :   -3.86910117374782
          25 :    3.66907898230744
          26 :   -3.71421220501185
          27 :    4.04496368503516
          28 :   -4.52080795440202
          29 :    4.89953735280977
          30 :   -4.97601498240294
          31 :   -32.6563658271435
          32 :   -23.5773360504971

     Forces acting on atoms (Ry/au):

     negative rho (up, down):  1.643E-03 1.740E-03
     atom    1 type  1   force =     0.00067284    0.00046663    0.00213397
     atom    2 type  1   force =     0.00066315    0.00045925    0.00213351
     atom    3 type  2   force =    -0.00087496   -0.00057561   -0.01435394
     atom    4 type  2   force =    -0.00084721   -0.00061759   -0.01435353
     atom    5 type  1   force =    -0.00051486   -0.00035703    0.00789049
     atom    6 type  1   force =    -0.00051231   -0.00035499    0.00789363
     atom    7 type  2   force =     0.00072899    0.00049778    0.00323632
     atom    8 type  2   force =     0.00072223    0.00050812    0.00323605
     atom    9 type  1   force =     0.00076153    0.00052773    0.00004619
     atom   10 type  1   force =     0.00077343    0.00053630    0.00005013
     atom   11 type  2   force =    -0.00077473   -0.00056219    0.00104341
     atom   12 type  2   force =    -0.00079812   -0.00052841    0.00104377

     Total force =     0.024048     Total SCF correction =     0.001521

     entering subroutine stress ...

     negative rho (up, down):  1.643E-03 1.740E-03
          total   stress  (Ry/bohr**3)                   (kbar)     P=   -5.87
  -0.00007258  -0.00001070   0.00000007        -10.68     -1.57      0.01
  -0.00001070  -0.00006456   0.00000005         -1.57     -9.50      0.01
   0.00000007   0.00000005   0.00001736          0.01      0.01      2.55

 !ASE

     Writing output data file calc.save

     General routines

     Parallel routines

   This run was terminated on:  17:43:46  18Dec2018

   JOB DONE.
Job  /afs/slac/g/suncat/bin/suncat-tsmpirun -x LD_LIBRARY_PATH -wdir /scratch/qe530205_13lQH pw.x -in pw.inp

TID   HOST_NAME   COMMAND_LINE            STATUS            TERMINATION_TIME
00000 suncat2038 pw.x -in pw.inp   Done                     12/18/2018 17:43:46
00001 suncat2038 pw.x -in pw.inp   Done                     12/18/2018 17:43:46
00002 suncat2038 pw.x -in pw.inp   Done                     12/18/2018 17:43:46
00003 suncat2038 pw.x -in pw.inp   Done                     12/18/2018 17:43:46
00004 suncat2038 pw.x -in pw.inp   Done                     12/18/2018 17:43:46
00005 suncat2038 pw.x -in pw.inp   Done                     12/18/2018 17:43:46
00006 suncat2038 pw.x -in pw.inp   Done                     12/18/2018 17:43:46
00007 suncat2038 pw.x -in pw.inp   Done                     12/18/2018 17:43:46
00008 suncat2038 pw.x -in pw.inp   Done                     12/18/2018 17:43:46
00009 suncat2038 pw.x -in pw.inp   Done                     12/18/2018 17:43:46
00010 suncat2038 pw.x -in pw.inp   Done                     12/18/2018 17:43:46
00011 suncat2038 pw.x -in pw.inp   Done                     12/18/2018 17:43:46
00012 suncat2038 pw.x -in pw.inp   Done                     12/18/2018 17:43:46
00013 suncat2038 pw.x -in pw.inp   Done                     12/18/2018 17:43:46
00014 suncat2038 pw.x -in pw.inp   Done                     12/18/2018 17:43:46
00015 suncat2038 pw.x -in pw.inp   Done                     12/18/2018 17:43:46
00016 suncat2037 pw.x -in pw.inp   Done                     12/18/2018 17:43:46
00017 suncat2037 pw.x -in pw.inp   Done                     12/18/2018 17:43:46
00018 suncat2037 pw.x -in pw.inp   Done                     12/18/2018 17:43:46
00019 suncat2037 pw.x -in pw.inp   Done                     12/18/2018 17:43:46
00020 suncat2037 pw.x -in pw.inp   Done                     12/18/2018 17:43:46
00021 suncat2037 pw.x -in pw.inp   Done                     12/18/2018 17:43:46
00022 suncat2037 pw.x -in pw.inp   Done                     12/18/2018 17:43:46
00023 suncat2037 pw.x -in pw.inp   Done                     12/18/2018 17:43:46
00024 suncat2037 pw.x -in pw.inp   Done                     12/18/2018 17:43:46
00025 suncat2037 pw.x -in pw.inp   Done                     12/18/2018 17:43:46
00026 suncat2037 pw.x -in pw.inp   Done                     12/18/2018 17:43:46
00027 suncat2037 pw.x -in pw.inp   Done                     12/18/2018 17:43:46
00028 suncat2037 pw.x -in pw.inp   Done                     12/18/2018 17:43:46
00029 suncat2037 pw.x -in pw.inp   Done                     12/18/2018 17:43:46
00030 suncat2037 pw.x -in pw.inp   Done                     12/18/2018 17:43:46
00031 suncat2037 pw.x -in pw.inp   Done                     12/18/2018 17:43:46