     Program PWSCF v.5.1rc2 (svn rev. 11289) starts on 24Dec2018 at 23:43:29

     Current dimensions of program PWSCF are:
     Max number of different atomic species (ntypx) = 10
     Max number of k-points (npk) =  40000
     Max angular momentum in pseudopotentials (lmaxx) =  3
     Presently stress not available with electric field

     IMPORTANT: XC functional enforced from input :
     Exchange-correlation      = BEEF-VDW ( 1  4 27 13 2)
     Any further DFT definition will be discarded
     Please, verify this is what you really want

     Subspace diagonalization in iterative solution of the eigenvalue problem:
     a serial algorithm will be used

     Found symmetry operation: I + ( -0.5000 -0.5000  0.0000)
     This is a supercell, fractional translations are disabled

     bravais-lattice index     =            0
     lattice parameter (alat)  =       1.8897  a.u.
     unit-cell volume          =    6846.7287 (a.u.)^3
     number of atoms/cell      =           12
     number of atomic types    =            2
     number of electrons       =       132.00
     number of Kohn-Sham states=           96
     kinetic-energy cutoff     =      36.7493  Ry
     charge density cutoff     =     367.4932  Ry
     convergence threshold     =      1.0E-06
     mixing beta               =       0.1000
     number of iterations used =           10  plain     mixing
     Exchange-correlation      = BEEF-VDW ( 1  4 27 13 2)
     nstep                     =           50

     celldm(1)=   1.889726  celldm(2)=   0.000000  celldm(3)=   0.000000
     celldm(4)=   0.000000  celldm(5)=   0.000000  celldm(6)=   0.000000

     crystal axes: (cart. coord. in units of alat)
               a(1) = (   6.553564   0.000000   0.000000 )
               a(2) = (   2.410882   6.094001   0.000000 )
               a(3) = (   0.000000   0.000000  25.404255 )

     reciprocal axes: (cart. coord. in units 2 pi/alat)
               b(1) = (  0.152589 -0.060366  0.000000 )
               b(2) = (  0.000000  0.164096  0.000000 )
               b(3) = (  0.000000  0.000000  0.039363 )

     PseudoPot. # 1 for La read from file:
     /afs/slac.stanford.edu/u/if/mamunm/psp/gbrv1.5pbe/La.UPF
     MD5 check sum: 5937b0c7494ba0601a847275249473aa
     Pseudo is Ultrasoft + core correction, Zval = 11.0
     Generated by new atomic code, or converted to UPF format
     Using radial grid of  995 points,  8 beta functions with:
                l(1) =   0
                l(2) =   0
                l(3) =   1
                l(4) =   1
                l(5) =   2
                l(6) =   2
                l(7) =   3
                l(8) =   3
     Q(r) pseudized with  8 coefficients,  rinner =    1.700   1.700   1.700
                                                       1.700   1.700   1.700
                                                       1.700

     PseudoPot. # 2 for Au read from file:
     /afs/slac.stanford.edu/u/if/mamunm/psp/gbrv1.5pbe/Au.UPF
     MD5 check sum: 9d7f43293ad2c663164586bc4b293ffc
     Pseudo is Ultrasoft + core correction, Zval = 11.0
     Generated by new atomic code, or converted to UPF format
     Using radial grid of  985 points,  7 beta functions with:
                l(1) =   0
                l(2) =   0
                l(3) =   1
                l(4) =   1
                l(5) =   2
                l(6) =   2
                l(7) =   3
     Q(r) pseudized with  6 coefficients,  rinner =    1.900   1.900   1.900
                                                       1.900   1.900   1.900
                                                       1.900

     vdW kernel table read from file vdW_kernel_table
     MD5 check sum: 095c7af220d748ca6e76c0b4c6cfb241

     atomic species   valence    mass     pseudopotential
        La1           11.00   138.90547     La( 1.00)
        Au1           11.00   196.96657     Au( 1.00)

     No symmetry found

   Cartesian axes

     site n.     atom                  positions (alat units)
         1           La1 tau(   1) = (   0.0000000   0.0000000  10.0000000  )
         2           La1 tau(   2) = (   4.4822229   3.0470005  10.0000000  )
         3           Au1 tau(   3) = (   3.2767819   0.0000000  10.0000000  )
         4           Au1 tau(   4) = (   1.2054410   3.0470005  10.0000000  )
         5           La1 tau(   5) = (   6.5535639   4.4550913  12.7021273  )
         6           La1 tau(   6) = (   2.0713410   1.4080908  12.7021273  )
         7           Au1 tau(   7) = (   3.2767819   4.4550913  12.7021273  )
         8           Au1 tau(   8) = (   5.3481229   1.4080908  12.7021273  )
         9           La1 tau(   9) = (   4.1426820   2.8161817  15.4042547  )
        10           La1 tau(  10) = (   8.6249049   5.8631822  15.4042547  )
        11           Au1 tau(  11) = (   7.4194639   2.8161817  15.4042547  )
        12           Au1 tau(  12) = (   5.3481229   5.8631822  15.4042547  )

     number of k points=    20  Fermi-Dirac smearing, width (Ry)=  0.0110
                       cart. coord. in units 2pi/alat
        k(    1) = (   0.0000000   0.0000000   0.0000000), wk =   0.0555556
        k(    2) = (   0.0000000   0.0273493   0.0000000), wk =   0.1111111
        k(    3) = (   0.0000000   0.0546986   0.0000000), wk =   0.1111111
        k(    4) = (   0.0000000  -0.0820479   0.0000000), wk =   0.0555556
        k(    5) = (   0.0254315  -0.0100611   0.0000000), wk =   0.1111111
        k(    6) = (   0.0254315   0.0172882   0.0000000), wk =   0.1111111
        k(    7) = (   0.0254315   0.0446375   0.0000000), wk =   0.1111111
        k(    8) = (   0.0254315  -0.0921090   0.0000000), wk =   0.1111111
        k(    9) = (   0.0254315  -0.0647597   0.0000000), wk =   0.1111111
        k(   10) = (   0.0254315  -0.0374104   0.0000000), wk =   0.1111111
        k(   11) = (   0.0508629  -0.0201222   0.0000000), wk =   0.1111111
        k(   12) = (   0.0508629   0.0072271   0.0000000), wk =   0.1111111
        k(   13) = (   0.0508629   0.0345764   0.0000000), wk =   0.1111111
        k(   14) = (   0.0508629  -0.1021701   0.0000000), wk =   0.1111111
        k(   15) = (   0.0508629  -0.0748208   0.0000000), wk =   0.1111111
        k(   16) = (   0.0508629  -0.0474715   0.0000000), wk =   0.1111111
        k(   17) = (  -0.0762944   0.0301832   0.0000000), wk =   0.0555556
        k(   18) = (  -0.0762944   0.0575325   0.0000000), wk =   0.1111111
        k(   19) = (  -0.0762944   0.0848818   0.0000000), wk =   0.1111111
        k(   20) = (  -0.0762944  -0.0518647   0.0000000), wk =   0.0555556

     Largest allocated arrays     est. size (Mb)     dimensions
     Largest temporary arrays     est. size (Mb)     dimensions

     Check: negative/imaginary core charge=   -0.000002    0.000000

     Initial potential from superposition of free atoms
     Check: negative starting charge=   -0.423313

     starting charge  131.80685, renormalised to  132.00000

     negative rho (up, down):  4.239E-01 0.000E+00

     *
     * You are using vdW-DF for exchange-correlation in this calculation.
     * Please cite the following three references that made this development
     * possible:
     *
     *   M. Dion, H. Rydberg, E. Schroder, D. C. Langreth, and
     *   B. I. Lundqvist, Phys. Rev. Lett. 92, 246401 (2004).
     *
     *   T. Thonhauser, V. R. Cooper, S. Li, A. Puzder, P. Hyldgaard, and
     *   D. C. Langreth, Phys. Rev. B 76, 125112 (2007).
     *
     *   G. Roman-Perez and J. M. Soler, Phys. Rev. Lett. 103, 096102 (2009).
     *
     *
     * If you are using vdW-DF2, please also cite:
     *
     *   K. Lee, E. D. Murray, L. Kong, B. I. Lundqvist, and
     *   D. C. Langreth, Phys. Rev. B 82, 081101(R) (2010).
     *
     *
     * If you are calculating the stress with vdW-DF, please also cite:
     *
     *   R. Sabatini, E. Kucukbenli, B. Kolb, T. Thonhauser, and
     *   S. de Gironcoli, J. Phys.: Condens. Matter 24, 424209 (2012).
     *

     Carrying out vdW-DF run using the following parameters:

     Nqs =      20    Nr_points =    1024   r_max =   100.000
     q_mesh =
               0.00001000     0.04494208     0.09755937     0.15916263
               0.23128650     0.31572767     0.41458969     0.53033537
               0.66584808     0.82450364     1.01025438     1.22772762
               1.48234092     1.78043706     2.12944203     2.53805004
               3.01644009     3.57652955     4.23227104     5.00000000

     Gradients computed in reciprocal space

     Adding external electric field

     Computed dipole along edir(3) :
        Dipole               -0.0000 Ry au,         -0.0000 Debye
        Dipole field         -0.0000 Ry au

        Potential amp.        0.0000 Ry
        Total length         46.8069 bohr

     Starting wfc are  174 randomized atomic wfcs

     Self-consistent Calculation

     iteration #  1     ecut=    36.75 Ry     beta=0.10
     Davidson diagonalization with overlap
     ethr =  1.00E-02,  avg # of iterations =  1.6

[...]

     total energy              =   -1324.58593513 Ry
     Harris-Foulkes estimate   =   -1325.52068410 Ry
     estimated scf accuracy    <       5.18194082 Ry

[...]

     iteration #  7     ecut=    36.75 Ry     beta=0.10
     Davidson diagonalization with overlap
     c_bands:  2 eigenvalues not converged
     c_bands:  2 eigenvalues not converged
     c_bands:  1 eigenvalues not converged
     c_bands:  1 eigenvalues not converged
     ethr =  3.16E-05,  avg # of iterations = 14.9

[...]

     End of self-consistent calculation

          k = 0.0000 0.0000 0.0000 ( 25723 PWs)   bands (ev):

   -31.8900 -31.8845 -31.8114 -31.8105 -31.6012 -31.5290 -15.7990 -15.7904
   -15.6889 -15.6234 -15.6104 -15.5588 -15.5230 -15.4859 -15.4630 -15.4462
   -15.3759 -15.1984 -15.0690 -15.0396 -14.9970 -14.9919 -14.9590 -14.7880
    -3.8599  -3.4263  -3.3202  -3.2835  -3.2316  -3.2065  -3.1484  -3.1483
    -3.0550  -3.0436  -2.9563  -2.9301  -2.8922  -2.8872  -2.8715  -2.7596
    -2.6902  -2.6854  -2.6159  -2.5750  -2.5401  -2.5193  -2.4969  -2.4924
    -2.4639  -2.2304  -2.1932  -2.1591  -2.1114  -2.0898  -2.0324  -1.9122
    -1.3907  -1.1141  -0.8486  -0.8265   1.6429   1.6518   1.7248   1.7466
     1.8714   2.0438   2.2203   2.4649   2.5368   2.5793   2.6143   2.6213
     2.6248   2.7394   2.7568   2.8317   2.8323   2.8828   2.9452   2.9648
     2.9670   2.9879   2.9939   3.0374   3.0596   3.0677   3.0904   3.0912
     3.0978   3.1193   3.1343   3.1378   3.1494   3.1545   3.1840   3.2044

[...]

          k =-0.0763 0.0302 0.0000 ( 25708 PWs)   bands (ev):

[...]

     the Fermi energy is     1.8432 ev

!    total energy              =   -1324.98274850 Ry
     Harris-Foulkes estimate   =   -1324.98274858 Ry
     estimated scf accuracy    <       0.00000032 Ry

     The total energy is the sum of the following terms:

     one-electron contribution =   -5897.78158991 Ry
     hartree contribution      =    3003.38812564 Ry
     xc contribution           =    -688.23225443 Ry
     ewald contribution        =    2257.72644393 Ry
     electric field correction =       0.00000000 Ry
     smearing contrib. (-TS)   =      -0.08347374 Ry

[...]
                l(1) =   0
                l(2) =   0
                l(3) =   1
                l(4) =   1
                l(5) =   2
                l(6) =   2
                l(7) =   3
                l(8) =   3
     Q(r) pseudized with  8 coefficients,  rinner =    1.700   1.700   1.700
                                                       1.700   1.700   1.700
                                                       1.700

     PseudoPot. # 2 for Au read from file:
     /afs/slac.stanford.edu/u/if/mamunm/psp/gbrv1.5pbe/Au.UPF
     MD5 check sum: 9d7f43293ad2c663164586bc4b293ffc
     Pseudo is Ultrasoft + core correction, Zval = 11.0
     Generated by new atomic code, or converted to UPF format
     Using radial grid of  985 points,  7 beta functions with:
                l(1) =   0
                l(2) =   0
                l(3) =   1
                l(4) =   1
                l(5) =   2
                l(6) =   2
                l(7) =   3
     Q(r) pseudized with  6 coefficients,  rinner =    1.900   1.900   1.900
                                                       1.900   1.900   1.900
                                                       1.900

     vdW kernel table read from file vdW_kernel_table
     MD5 check sum: 095c7af220d748ca6e76c0b4c6cfb241

     atomic species   valence    mass     pseudopotential
        La1           11.00   138.90547     La( 1.00)
        Au1           11.00   196.96657     Au( 1.00)

     No symmetry found

   Cartesian axes

     site n.     atom                  positions (alat units)
         1           La1 tau(   1) = (   0.0000000   0.0000000  10.0000000  )
         2           La1 tau(   2) = (   4.4822229   3.0470005  10.0000000  )
         3           Au1 tau(   3) = (   3.2767819   0.0000000  10.0000000  )
         4           Au1 tau(   4) = (   1.2054410   3.0470005  10.0000000  )
         5           La1 tau(   5) = (   6.5535639   4.4550913  12.7021273  )
         6           La1 tau(   6) = (   2.0713410   1.4080908  12.7021273  )
         7           Au1 tau(   7) = (   3.2767819   4.4550913  12.7021273  )
         8           Au1 tau(   8) = (   5.3481229   1.4080908  12.7021273  )
         9           La1 tau(   9) = (   4.2673377   2.9009200  15.4219579  )
        10           La1 tau(  10) = (   8.7520150   5.9496131  15.4218063  )
        11           Au1 tau(  11) = (   7.5363223   2.8949116  15.2628773  )
        12           Au1 tau(  12) = (   5.4643514   5.9428916  15.2628098  )

     number of k points=    20  Fermi-Dirac smearing, width (Ry)=  0.0110
                       cart. coord. in units 2pi/alat
        k(    1) = (   0.0000000   0.0000000   0.0000000), wk =   0.0555556
        k(    2) = (   0.0000000   0.0273493   0.0000000), wk =   0.1111111
        k(    3) = (   0.0000000   0.0546986   0.0000000), wk =   0.1111111
        k(    4) = (   0.0000000  -0.0820479   0.0000000), wk =   0.0555556
        k(    5) = (   0.0254315  -0.0100611   0.0000000), wk =   0.1111111
        k(    6) = (   0.0254315   0.0172882   0.0000000), wk =   0.1111111
        k(    7) = (   0.0254315   0.0446375   0.0000000), wk =   0.1111111
        k(    8) = (   0.0254315  -0.0921090   0.0000000), wk =   0.1111111
        k(    9) = (   0.0254315  -0.0647597   0.0000000), wk =   0.1111111
        k(   10) = (   0.0254315  -0.0374104   0.0000000), wk =   0.1111111
        k(   11) = (   0.0508629  -0.0201222   0.0000000), wk =   0.1111111
        k(   12) = (   0.0508629   0.0072271   0.0000000), wk =   0.1111111
        k(   13) = (   0.0508629   0.0345764   0.0000000), wk =   0.1111111
        k(   14) = (   0.0508629  -0.1021701   0.0000000), wk =   0.1111111
        k(   15) = (   0.0508629  -0.0748208   0.0000000), wk =   0.1111111
        k(   16) = (   0.0508629  -0.0474715   0.0000000), wk =   0.1111111
        k(   17) = (  -0.0762944   0.0301832   0.0000000), wk =   0.0555556
        k(   18) = (  -0.0762944   0.0575325   0.0000000), wk =   0.1111111
        k(   19) = (  -0.0762944   0.0848818   0.0000000), wk =   0.1111111
        k(   20) = (  -0.0762944  -0.0518647   0.0000000), wk =   0.0555556

     Largest allocated arrays     est. size (Mb)     dimensions
     Largest temporary arrays     est. size (Mb)     dimensions

     Check: negative/imaginary core charge=   -0.000002    0.000000

     Initial potential from superposition of free atoms
     Check: negative starting charge=   -0.423266

     starting charge  131.80685, renormalised to  132.00000

[...]

     *
     * You are using vdW-DF for exchange-correlation in this calculation.
     * Please cite the following three references that made this development
     * possible:
     *
     *   M. Dion, H. Rydberg, E. Schroder, D. C. Langreth, and
     *   B. I. Lundqvist, Phys. Rev. Lett. 92, 246401 (2004).
     *
     *   T. Thonhauser, V. R. Cooper, S. Li, A. Puzder, P. Hyldgaard, and
     *   D. C. Langreth, Phys. Rev. B 76, 125112 (2007).
     *
     *   G. Roman-Perez and J. M. Soler, Phys. Rev. Lett. 103, 096102 (2009).
     *
     *
     * If you are using vdW-DF2, please also cite:
     *
     *   K. Lee, E. D. Murray, L. Kong, B. I. Lundqvist, and
     *   D. C. Langreth, Phys. Rev. B 82, 081101(R) (2010).
     *
     *
     * If you are calculating the stress with vdW-DF, please also cite:
     *
     *   R. Sabatini, E. Kucukbenli, B. Kolb, T. Thonhauser, and
     *   S. de Gironcoli, J. Phys.: Condens. Matter 24, 424209 (2012).
     *

     Carrying out vdW-DF run using the following parameters:

     Nqs =      20    Nr_points =    1024   r_max =   100.000
     q_mesh =
               0.00001000     0.04494208     0.09755937     0.15916263
               0.23128650     0.31572767     0.41458969     0.53033537
               0.66584808     0.82450364     1.01025438     1.22772762
               1.48234092     1.78043706     2.12944203     2.53805004
               3.01644009     3.57652955     4.23227104     5.00000000

     Gradients computed in reciprocal space

[...]

     Starting wfc are  174 randomized atomic wfcs

     Self-consistent Calculation

[...]

     iteration # 12     ecut=    36.75 Ry     beta=0.10
     Davidson diagonalization with overlap
     c_bands:  2 eigenvalues not converged
     ethr =  7.57E-07,  avg # of iterations =  4.4

[...]

     total energy              =   -1324.98744658 Ry
     Harris-Foulkes estimate   =   -1324.98744645 Ry
     estimated scf accuracy    <       0.00000286 Ry

     iteration # 19     ecut=    36.75 Ry     beta=0.10
     Davidson diagonalization with overlap
     ethr =  2.17E-09,  avg # of iterations =  5.0

[...]

     negative rho (up, down):  2.886E-01 0.000E+00

     Adding external electric field

     Computed dipole along edir(3) :
        Dipole                0.0555 Ry au,          0.1411 Debye
        Dipole field          0.0001 Ry au

        Potential amp.       -0.0095 Ry
        Total length         46.8069 bohr

     End of self-consistent calculation

[...]

          k = 0.0509-0.0475 0.0000 ( 25752 PWs)   bands (ev):

[...]

          k =-0.0763-0.0519 0.0000 ( 25798 PWs)   bands (ev):

   -31.8571 -31.8367 -31.7857 -31.7652 -31.5208 -31.4416 -15.8079 -15.7691
   -15.6857 -15.6126 -15.5683 -15.5219 -15.4970 -15.4738 -15.4300 -15.3931
   -15.3430 -15.0736 -15.0234 -15.0200 -14.9705 -14.9484 -14.9418 -14.7382
    -3.0950  -3.0832  -2.9265  -2.9040  -2.7911  -2.7833  -2.7459  -2.7432
    -2.6982  -2.6276  -2.6091  -2.6017  -2.5786  -2.5608  -2.5152  -2.5110
    -2.4987  -2.4765  -2.4703  -2.4261  -2.4218  -2.4091  -2.3855  -2.3659
    -2.3311  -2.3122  -2.2487  -2.1621  -2.0897  -2.0581  -1.8828  -1.7216
    -1.1286  -0.8991  -0.7953  -0.0583   0.1745   0.2702   0.4473   0.6384
     0.7068   1.1753   1.1911   1.2355   1.4174   1.7959   1.9407   2.2539
     2.2912   2.4621   2.6019   2.6836   2.7216   2.8940   2.9230   2.9819
     3.0005   3.0890   3.1162   3.1215   3.1233   3.1325   3.1447   3.1496
     3.1525   3.1539   3.1605   3.1630   3.1695   3.2049   3.2374   3.2395

     the Fermi energy is     1.8963 ev

!    total energy              =   -1324.98744706 Ry
     Harris-Foulkes estimate   =   -1324.98744654 Ry
     estimated scf accuracy    <       0.00000057 Ry

     The total energy is the sum of the following terms:

     one-electron contribution =   -5951.38289230 Ry
     hartree contribution      =    3030.34023515 Ry
     xc contribution           =    -688.26549907 Ry
     ewald contribution        =    2284.40239206 Ry
     electric field correction =       0.00000565 Ry
     smearing contrib. (-TS)   =      -0.08168855 Ry

     convergence has been achieved in  19 iterations

 BEEF-vdW xc energy contributions
           1 :   -612.977296997814
           2 :    567.129781055858
           3 :   -485.452830529238
           4 :    384.407468002804
           5 :   -281.740044122277
           6 :    191.837487218940
           7 :   -123.036596066372
           8 :    77.1644828103421
           9 :   -50.9060764678229
          10 :    38.1700305102115
          11 :   -32.5317633713142
          12 :    28.9601323086147
          13 :   -24.5199546814559
          14 :    18.2165332977951
          15 :   -10.4086772560009
          16 :    2.13896929910436
          17 :    5.41750259844287
          18 :   -11.3236087789970
          19 :    15.0615721205810
          20 :   -16.5712942866345
          21 :    16.1862390146720
          22 :   -14.5043112755825
          23 :    12.2185488301917
          24 :   -9.95627168117767
          25 :    8.16523677987050
          26 :   -7.06532379160615
          27 :    6.65075932907246
          28 :   -6.73345878315615
          29 :    7.01849341350180
          30 :   -7.20566015567613
          31 :   -49.9476191412623
          32 :   -36.0548846909660

     Forces acting on atoms (Ry/au):

     negative rho (up, down):  2.886E-01 0.000E+00
     atom    1 type  1   force =    -0.00514904   -0.00350042   -0.00470926
     atom    2 type  1   force =    -0.00515255   -0.00350282   -0.00471628
     atom    3 type  2   force =    -0.00055304   -0.00038883    0.00907464
     atom    4 type  2   force =    -0.00056464   -0.00037146    0.00907537
     atom    5 type  1   force =     0.00419123    0.00284640   -0.00800643
     atom    6 type  1   force =     0.00418418    0.00284570   -0.00813968
     atom    7 type  2   force =     0.00055416    0.00045129    0.00112669
     atom    8 type  2   force =     0.00062502    0.00035064    0.00112486
     atom    9 type  1   force =     0.00045346    0.00031098    0.00159592
     atom   10 type  1   force =     0.00015328    0.00010052    0.00161726
     atom   11 type  2   force =     0.00052239    0.00058883    0.00097313
     atom   12 type  2   force =     0.00073555    0.00026917    0.00098377

     Total force =     0.021942     Total SCF correction =     0.001753

     entering subroutine stress ...

     negative rho (up, down):  2.886E-01 0.000E+00
          total   stress  (Ry/bohr**3)                   (kbar)     P=   -2.13
  -0.00003126  -0.00002981   0.00000988         -4.60     -4.38      1.45
  -0.00002981  -0.00000768   0.00000672         -4.38     -1.13      0.99
   0.00000988   0.00000672  -0.00000441          1.45      0.99     -0.65

 !ASE

     Writing output data file calc.save

     General routines

     Parallel routines

   This run was terminated on:   3:29:31  25Dec2018

   JOB DONE.
Job  /afs/slac/g/suncat/bin/suncat-tsmpirun -x LD_LIBRARY_PATH -wdir /scratch/qe109049_OYAvB pw.x -in pw.inp

TID   HOST_NAME   COMMAND_LINE            STATUS            TERMINATION_TIME
00000 suncat0060 pw.x -in pw.inp   Done                     12/25/2018 03:29:31
00001 suncat0060 pw.x -in pw.inp   Done                     12/25/2018 03:29:31
00002 suncat0060 pw.x -in pw.inp   Done                     12/25/2018 03:29:31
00003 suncat0060 pw.x -in pw.inp   Done                     12/25/2018 03:29:31
00004 suncat0060 pw.x -in pw.inp   Done                     12/25/2018 03:29:31
00005 suncat0060 pw.x -in pw.inp   Done                     12/25/2018 03:29:31
00006 suncat0060 pw.x -in pw.inp   Done                     12/25/2018 03:29:31
00007 suncat0060 pw.x -in pw.inp   Done                     12/25/2018 03:29:31
00008 suncat0059 pw.x -in pw.inp   Done                     12/25/2018 03:29:31
00009 suncat0059 pw.x -in pw.inp   Done                     12/25/2018 03:29:31
00010 suncat0059 pw.x -in pw.inp   Done                     12/25/2018 03:29:31
00011 suncat0059 pw.x -in pw.inp   Done                     12/25/2018 03:29:31
00012 suncat0059 pw.x -in pw.inp   Done                     12/25/2018 03:29:31
00013 suncat0059 pw.x -in pw.inp   Done                     12/25/2018 03:29:31
00014 suncat0059 pw.x -in pw.inp   Done                     12/25/2018 03:29:31
00015 suncat0059 pw.x -in pw.inp   Done                     12/25/2018 03:29:31
00016 suncat0058 pw.x -in pw.inp   Done                     12/25/2018 03:29:31
00017 suncat0058 pw.x -in pw.inp   Done                     12/25/2018 03:29:31
00018 suncat0058 pw.x -in pw.inp   Done                     12/25/2018 03:29:31
00019 suncat0058 pw.x -in pw.inp   Done                     12/25/2018 03:29:31
00020 suncat0058 pw.x -in pw.inp   Done                     12/25/2018 03:29:31
00021 suncat0058 pw.x -in pw.inp   Done                     12/25/2018 03:29:31
00022 suncat0058 pw.x -in pw.inp   Done                     12/25/2018 03:29:31
00023 suncat0058 pw.x -in pw.inp   Done                     12/25/2018 03:29:31
00024 suncat0195 pw.x -in pw.inp   Done                     12/25/2018 03:29:31
00025 suncat0195 pw.x -in pw.inp   Done                     12/25/2018 03:29:31
00026 suncat0195 pw.x -in pw.inp   Done                     12/25/2018 03:29:31
00027 suncat0195 pw.x -in pw.inp   Done                     12/25/2018 03:29:31
00028 suncat0195 pw.x -in pw.inp   Done                     12/25/2018 03:29:31
00029 suncat0195 pw.x -in pw.inp   Done                     12/25/2018 03:29:31
00030 suncat0195 pw.x -in pw.inp   Done                     12/25/2018 03:29:31
00031 suncat0195 pw.x -in pw.inp   Done                     12/25/2018 03:29:31
00032 suncat0003 pw.x -in pw.inp   Done                     12/25/2018 03:29:31
00033 suncat0003 pw.x -in pw.inp   Done                     12/25/2018 03:29:31
00034 suncat0003 pw.x -in pw.inp   Done                     12/25/2018 03:29:31
00035 suncat0003 pw.x -in pw.inp   Done                     12/25/2018 03:29:31
00036 suncat0003 pw.x -in pw.inp   Done                     12/25/2018 03:29:31
00037 suncat0003 pw.x -in pw.inp   Done                     12/25/2018 03:29:31
00038 suncat0003 pw.x -in pw.inp   Done                     12/25/2018 03:29:31
00039 suncat0003 pw.x -in pw.inp   Done                     12/25/2018 03:29:31
00040 suncat0002 pw.x -in pw.inp   Done                     12/25/2018 03:29:31
00041 suncat0002 pw.x -in pw.inp   Done                     12/25/2018 03:29:31
00042 suncat0002 pw.x -in pw.inp   Done                     12/25/2018 03:29:31
00043 suncat0002 pw.x -in pw.inp   Done                     12/25/2018 03:29:31
00044 suncat0002 pw.x -in pw.inp   Done                     12/25/2018 03:29:31
00045 suncat0002 pw.x -in pw.inp   Done                     12/25/2018 03:29:31
00046 suncat0002 pw.x -in pw.inp   Done                     12/25/2018 03:29:31
00047 suncat0002 pw.x -in pw.inp   Done                     12/25/2018 03:29:31
00048 suncat0283 pw.x -in pw.inp   Done                     12/25/2018 03:29:31
00049 suncat0283 pw.x -in pw.inp   Done                     12/25/2018 03:29:31
00050 suncat0283 pw.x -in pw.inp   Done                     12/25/2018 03:29:31
00051 suncat0283 pw.x -in pw.inp   Done                     12/25/2018 03:29:31
00052 suncat0283 pw.x -in pw.inp   Done                     12/25/2018 03:29:31
00053 suncat0283 pw.x -in pw.inp   Done                     12/25/2018 03:29:31
00054 suncat0283 pw.x -in pw.inp   Done                     12/25/2018 03:29:31
00055 suncat0283 pw.x -in pw.inp   Done                     12/25/2018 03:29:31
00056 suncat0282 pw.x -in pw.inp   Done                     12/25/2018 03:29:31
00057 suncat0282 pw.x -in pw.inp   Done                     12/25/2018 03:29:31
00058 suncat0282 pw.x -in pw.inp   Done                     12/25/2018 03:29:31
00059 suncat0282 pw.x -in pw.inp   Done                     12/25/2018 03:29:31
00060 suncat0282 pw.x -in pw.inp   Done                     12/25/2018 03:29:31
00061 suncat0282 pw.x -in pw.inp   Done                     12/25/2018 03:29:31
00062 suncat0282 pw.x -in pw.inp   Done                     12/25/2018 03:29:31
00063 suncat0282 pw.x -in pw.inp   Done                     12/25/2018 03:29:31