     Program PWSCF v.5.1rc2 (svn rev. 11289) starts on 29Dec2018 at 20:32:11

     Current dimensions of program PWSCF are:
     Max number of different atomic species (ntypx) = 10
     Max number of k-points (npk) =  40000
     Max angular momentum in pseudopotentials (lmaxx) =  3
     Presently stress not available with electric field

     IMPORTANT: XC functional enforced from input :
     Exchange-correlation      = BEEF-VDW ( 1  4 27 13 2)
     Any further DFT definition will be discarded
     Please, verify this is what you really want

     Subspace diagonalization in iterative solution of the eigenvalue problem:
     a serial algorithm will be used

     Found symmetry operation: I + ( -0.5000  0.0000  0.0000)
     This is a supercell, fractional translations are disabled

     bravais-lattice index     =            0
     lattice parameter (alat)  =       1.8897  a.u.
     unit-cell volume          =    4243.8269 (a.u.)^3
     number of atoms/cell      =           12
     number of atomic types    =            2
     number of electrons       =       180.00
     number of Kohn-Sham states=          120
     kinetic-energy cutoff     =      36.7493  Ry
     charge density cutoff     =     367.4932  Ry
     convergence threshold     =      1.0E-06
     mixing beta               =       0.1000
     number of iterations used =           10  plain     mixing
     Exchange-correlation      = BEEF-VDW ( 1  4 27 13 2)
     nstep                     =           50

     celldm(1)=   1.889726  celldm(2)=   0.000000  celldm(3)=   0.000000
     celldm(4)=   0.000000  celldm(5)=   0.000000  celldm(6)=   0.000000

     crystal axes: (cart. coord. in units of alat)
               a(1) = (   5.391494   0.000000   0.000000 )
               a(2) = (  -2.695747   4.770925   0.000000 )
               a(3) = (   0.000000   0.000000  24.448338 )

     reciprocal axes: (cart. coord. in units 2 pi/alat)
               b(1) = (  0.185477  0.104801  0.000000 )
               b(2) = (  0.000000  0.209603  0.000000 )
               b(3) = (  0.000000  0.000000  0.040903 )

     PseudoPot. # 1 for Tc read from file:
     /afs/slac.stanford.edu/u/if/mamunm/psp/gbrv1.5pbe/Tc.UPF
     MD5 check sum: 9eb49e5b028550b2339a02317eb7b844
     Pseudo is Ultrasoft + core correction, Zval = 15.0
     Generated by new atomic code, or converted to UPF format
     Using radial grid of  965 points,  6 beta functions with:
                l(1) =   0
                l(2) =   0
                l(3) =   1
                l(4) =   1
                l(5) =   2
                l(6) =   2
     Q(r) pseudized with  8 coefficients,  rinner =    1.300   1.300   1.300
                                                       1.300   1.300

     PseudoPot. # 2 for Rh read from file:
     /afs/slac.stanford.edu/u/if/mamunm/psp/gbrv1.5pbe/Rh.UPF
     MD5 check sum: 761627e959a2e3a1f56b0b5fe687810e
     Pseudo is Ultrasoft + core correction, Zval = 15.0
     Generated by new atomic code, or converted to UPF format
     Using radial grid of  969 points,  7 beta functions with:
                l(1) =   0
                l(2) =   0
                l(3) =   1
                l(4) =   1
                l(5) =   2
                l(6) =   2
                l(7) =   2
     Q(r) pseudized with  8 coefficients,  rinner =    1.200   1.200   1.200
                                                       1.200   1.200

     vdW kernel table read from file vdW_kernel_table
     MD5 check sum: 095c7af220d748ca6e76c0b4c6cfb241

     atomic species   valence    mass     pseudopotential
        Tc1           15.00    97.90721     Tc( 1.00)
        Rh1           15.00   102.90550     Rh( 1.00)

     No symmetry found

   Cartesian axes

     site n.     atom                  positions (alat units)
         1           Tc1 tau(   1) = (   0.0000000   0.0000000  10.0000000  )
         2           Tc1 tau(   2) = (   2.6957471   0.0000000  10.0000000  )
         3           Rh1 tau(   3) = (   1.3478735   2.3854625  10.0000000  )
         4           Rh1 tau(   4) = (  -1.3478735   2.3854625  10.0000000  )
         5           Tc1 tau(   5) = (   2.6957471   1.5231956  12.2241689  )
         6           Tc1 tau(   6) = (   0.0000000   1.5231956  12.2241689  )
         7           Rh1 tau(   7) = (  -1.3478735   3.9086582  12.2241689  )
         8           Rh1 tau(   8) = (   1.3478735   3.9086582  12.2241689  )
         9           Tc1 tau(   9) = (  -0.0000000   3.0463913  14.4483378  )
        10           Tc1 tau(  10) = (   2.6957471   3.0463913  14.4483378  )
        11           Rh1 tau(  11) = (   4.0436206   0.6609288  14.4483378  )
        12           Rh1 tau(  12) = (   1.3478735   0.6609288  14.4483378  )

     number of k points=    20  Fermi-Dirac smearing, width (Ry)=  0.0110
                       cart. coord. in units 2pi/alat
        k(    1) = (   0.0000000   0.0000000   0.0000000), wk =   0.0555556
        k(    2) = (   0.0000000   0.0349338   0.0000000), wk =   0.1111111
        k(    3) = (   0.0000000   0.0698677   0.0000000), wk =   0.1111111
        k(    4) = (   0.0000000  -0.1048015   0.0000000), wk =   0.0555556
        k(    5) = (   0.0309129   0.0174669   0.0000000), wk =   0.1111111
        k(    6) = (   0.0309129   0.0524007   0.0000000), wk =   0.1111111
        k(    7) = (   0.0309129   0.0873346   0.0000000), wk =   0.1111111
        k(    8) = (   0.0309129  -0.0873346   0.0000000), wk =   0.1111111
        k(    9) = (   0.0309129  -0.0524007   0.0000000), wk =   0.1111111
        k(   10) = (   0.0309129  -0.0174669   0.0000000), wk =   0.1111111
        k(   11) = (   0.0618258   0.0349338   0.0000000), wk =   0.1111111
        k(   12) = (   0.0618258   0.0698677   0.0000000), wk =   0.1111111
        k(   13) = (   0.0618258   0.1048015   0.0000000), wk =   0.1111111
        k(   14) = (   0.0618258  -0.0698677   0.0000000), wk =   0.1111111
        k(   15) = (   0.0618258  -0.0349338   0.0000000), wk =   0.1111111
        k(   16) = (   0.0618258   0.0000000   0.0000000), wk =   0.1111111
        k(   17) = (  -0.0927387  -0.0524007   0.0000000), wk =   0.0555556
        k(   18) = (  -0.0927387  -0.0174669   0.0000000), wk =   0.1111111
        k(   19) = (  -0.0927387   0.0174669   0.0000000), wk =   0.1111111
        k(   20) = (  -0.0927387  -0.1572022   0.0000000), wk =   0.0555556

     Largest allocated arrays     est. size (Mb)     dimensions
     Largest temporary arrays     est. size (Mb)     dimensions

     Check: negative/imaginary core charge=   -0.000013    0.000000

     Initial potential from superposition of free atoms
     Check: negative starting charge=   -1.079250

     starting charge  170.99924, renormalised to  180.00000

     negative rho (up, down):  1.136E+00 0.000E+00

     *
     * You are using vdW-DF for exchange-correlation in this calculation.
     * Please cite the following three references that made this development
     * possible:
     *
     *   M. Dion, H. Rydberg, E. Schroder, D. C. Langreth, and
     *   B. I. Lundqvist, Phys. Rev. Lett. 92, 246401 (2004).
     *
     *   T. Thonhauser, V. R. Cooper, S. Li, A. Puzder, P. Hyldgaard, and
     *   D. C. Langreth, Phys. Rev. B 76, 125112 (2007).
     *
     *   G. Roman-Perez and J. M. Soler, Phys. Rev. Lett. 103, 096102 (2009).
     *
     *
     * If you are using vdW-DF2, please also cite:
     *
     *   K. Lee, E. D. Murray, L. Kong, B. I. Lundqvist, and
     *   D. C. Langreth, Phys. Rev. B 82, 081101(R) (2010).
     *
     *
     * If you are calculating the stress with vdW-DF, please also cite:
     *
     *   R. Sabatini, E. Kucukbenli, B. Kolb, T. Thonhauser, and
     *   S. de Gironcoli, J. Phys.: Condens. Matter 24, 424209 (2012).
     *

     Carrying out vdW-DF run using the following parameters:

     Nqs =      20    Nr_points =    1024   r_max =   100.000
     q_mesh =
               0.00001000     0.04494208     0.09755937     0.15916263
               0.23128650     0.31572767     0.41458969     0.53033537
               0.66584808     0.82450364     1.01025438     1.22772762
               1.48234092     1.78043706     2.12944203     2.53805004
               3.01644009     3.57652955     4.23227104     5.00000000

     Gradients computed in reciprocal space

     Adding external electric field

     Computed dipole along edir(3) :
        Dipole               -0.0000 Ry au,         -0.0000 Debye
        Dipole field         -0.0000 Ry au

        Potential amp.        0.0000 Ry
        Total length         45.0456 bohr

     Starting wfc are  150 randomized atomic wfcs

     Self-consistent Calculation

     iteration #  1     ecut=    36.75 Ry     beta=0.10
     Davidson diagonalization with overlap
     ethr =  1.00E-02,  avg # of iterations =  8.3

[...]

     total energy              =   -2085.48490320 Ry
     Harris-Foulkes estimate   =   -2088.47677386 Ry
     estimated scf accuracy    <      18.23678674 Ry

[...]

     End of self-consistent calculation

          k = 0.0000 0.0000 0.0000 ( 15857 PWs)   bands (ev):

   -65.4479 -65.3664 -65.0417 -65.0393 -64.9605 -64.9585 -45.0583 -44.9213
   -44.9068 -44.8771 -44.8655 -44.6866 -44.5556 -44.5542 -44.4674 -44.4623
   -44.4242 -44.4181 -44.3311 -44.3067 -44.2946 -44.2695 -44.1852 -44.1849
   -37.7438 -37.5325 -37.4538 -37.4155 -37.3467 -37.3242 -37.3178 -37.0541
   -37.0397 -37.0353 -37.0116 -36.9778 -36.9664 -36.9410 -36.8928 -36.8260
   -36.6193 -36.6174  -4.6858  -3.4662  -3.4475  -3.4371  -3.3443  -3.2103
    -3.1157  -3.0786  -3.0684  -2.8642  -2.8056  -2.7994  -2.4929  -2.4627
    -2.4494  -1.4211  -1.3445  -1.2809  -1.0631  -0.8829  -0.7054  -0.5612
    -0.4260  -0.3284  -0.2747  -0.1690  -0.0502  -0.0472   0.1514   0.1955
     0.2950   0.3278   0.4434   0.7950   1.2500   1.2877   1.3476   1.5805
     1.5860   1.5883   1.6427   1.9540   2.0586   2.1470   2.3997   2.4023
     2.5627   2.9748   3.0096   3.0527   3.0870   3.2102   3.2443   3.4293
     3.4547   3.5379   3.6402   3.6509   3.7701   4.1397   4.1505   4.2260
     4.3238   4.3247   4.4373   4.5691   4.7331   6.1172   6.1173   6.3694
     6.4090   6.4692   6.5408   6.7149   6.7915   6.8244   7.7251   8.6301

[...]

          k =-0.0927-0.0524 0.0000 ( 15950 PWs)   bands (ev):

[...]

     the Fermi energy is     2.0410 ev

!    total energy              =   -2084.89430905 Ry
     Harris-Foulkes estimate   =   -2084.89430433 Ry
     estimated scf accuracy    <       0.00000059 Ry

     The total energy is the sum of the following terms:

     one-electron contribution =  -18839.23963364 Ry
     hartree contribution      =    9438.39521448 Ry
     xc contribution           =    -384.38385758 Ry
     ewald contribution        =    7700.42156127 Ry
     electric field correction =       0.00000002 Ry
     smearing contrib. (-TS)   =      -0.08759360 Ry

     convergence has been achieved in  18 iterations

 BEEF-vdW xc energy contributions
           1 :   -335.910028037580
           2 :    308.785214857872
           3 :   -261.120283047475
           4 :    203.509267911616
           5 :   -147.013747742929
           6 :    99.8655463917045
           7 :   -65.7022968410940
[...]
     Pseudo is Ultrasoft + core correction, Zval = 15.0
     Generated by new atomic code, or converted to UPF format
     Using radial grid of  965 points,  6 beta functions with:
                l(1) =   0
                l(2) =   0
                l(3) =   1
                l(4) =   1
                l(5) =   2
                l(6) =   2
     Q(r) pseudized with  8 coefficients,  rinner =    1.300   1.300   1.300
                                                       1.300   1.300

     PseudoPot. # 2 for Rh read from file:
     /afs/slac.stanford.edu/u/if/mamunm/psp/gbrv1.5pbe/Rh.UPF
     MD5 check sum: 761627e959a2e3a1f56b0b5fe687810e
     Pseudo is Ultrasoft + core correction, Zval = 15.0
     Generated by new atomic code, or converted to UPF format
     Using radial grid of  969 points,  7 beta functions with:
                l(1) =   0
                l(2) =   0
                l(3) =   1
                l(4) =   1
                l(5) =   2
                l(6) =   2
                l(7) =   2
     Q(r) pseudized with  8 coefficients,  rinner =    1.200   1.200   1.200
                                                       1.200   1.200

     vdW kernel table read from file vdW_kernel_table
     MD5 check sum: 095c7af220d748ca6e76c0b4c6cfb241

     atomic species   valence    mass     pseudopotential
        Tc1           15.00    97.90721     Tc( 1.00)
        Rh1           15.00   102.90550     Rh( 1.00)

     No symmetry found

   Cartesian axes

     site n.     atom                  positions (alat units)
         1           Tc1 tau(   1) = (   0.0000000   0.0000000  10.0000000  )
         2           Tc1 tau(   2) = (   2.6957471   0.0000000  10.0000000  )
         3           Rh1 tau(   3) = (   1.3478735   2.3854625  10.0000000  )
         4           Rh1 tau(   4) = (  -1.3478735   2.3854625  10.0000000  )
         5           Tc1 tau(   5) = (   2.6957471   1.5231956  12.2241689  )
         6           Tc1 tau(   6) = (   0.0000000   1.5231956  12.2241689  )
         7           Rh1 tau(   7) = (  -1.3478735   3.9086582  12.2241689  )
         8           Rh1 tau(   8) = (   1.3478735   3.9086582  12.2241689  )
         9           Tc1 tau(   9) = (  -0.0000006   3.0589742  14.3500983  )
        10           Tc1 tau(  10) = (   2.6957469   3.0589756  14.3501206  )
        11           Rh1 tau(  11) = (   4.0436211   0.7511625  14.3719435  )
        12           Rh1 tau(  12) = (   1.3478725   0.7511622  14.3719439  )

     number of k points=    20  Fermi-Dirac smearing, width (Ry)=  0.0110
                       cart. coord. in units 2pi/alat
        k(    1) = (   0.0000000   0.0000000   0.0000000), wk =   0.0555556
        k(    2) = (   0.0000000   0.0349338   0.0000000), wk =   0.1111111
        k(    3) = (   0.0000000   0.0698677   0.0000000), wk =   0.1111111
        k(    4) = (   0.0000000  -0.1048015   0.0000000), wk =   0.0555556
        k(    5) = (   0.0309129   0.0174669   0.0000000), wk =   0.1111111
        k(    6) = (   0.0309129   0.0524007   0.0000000), wk =   0.1111111
        k(    7) = (   0.0309129   0.0873346   0.0000000), wk =   0.1111111
        k(    8) = (   0.0309129  -0.0873346   0.0000000), wk =   0.1111111
        k(    9) = (   0.0309129  -0.0524007   0.0000000), wk =   0.1111111
        k(   10) = (   0.0309129  -0.0174669   0.0000000), wk =   0.1111111
        k(   11) = (   0.0618258   0.0349338   0.0000000), wk =   0.1111111
        k(   12) = (   0.0618258   0.0698677   0.0000000), wk =   0.1111111
        k(   13) = (   0.0618258   0.1048015   0.0000000), wk =   0.1111111
        k(   14) = (   0.0618258  -0.0698677   0.0000000), wk =   0.1111111
        k(   15) = (   0.0618258  -0.0349338   0.0000000), wk =   0.1111111
        k(   16) = (   0.0618258   0.0000000   0.0000000), wk =   0.1111111
        k(   17) = (  -0.0927387  -0.0524007   0.0000000), wk =   0.0555556
        k(   18) = (  -0.0927387  -0.0174669   0.0000000), wk =   0.1111111
        k(   19) = (  -0.0927387   0.0174669   0.0000000), wk =   0.1111111
        k(   20) = (  -0.0927387  -0.1572022   0.0000000), wk =   0.0555556

     Largest allocated arrays     est. size (Mb)     dimensions
     Largest temporary arrays     est. size (Mb)     dimensions

     Check: negative/imaginary core charge=   -0.000013    0.000000

     Initial potential from superposition of free atoms
     Check: negative starting charge=   -1.074448

     starting charge  170.99924, renormalised to  180.00000

[...]

     *
     * You are using vdW-DF for exchange-correlation in this calculation.
     * Please cite the following three references that made this development
     * possible:
     *
     *   M. Dion, H. Rydberg, E. Schroder, D. C. Langreth, and
     *   B. I. Lundqvist, Phys. Rev. Lett. 92, 246401 (2004).
     *
     *   T. Thonhauser, V. R. Cooper, S. Li, A. Puzder, P. Hyldgaard, and
     *   D. C. Langreth, Phys. Rev. B 76, 125112 (2007).
     *
     *   G. Roman-Perez and J. M. Soler, Phys. Rev. Lett. 103, 096102 (2009).
     *
     *
     * If you are using vdW-DF2, please also cite:
     *
     *   K. Lee, E. D. Murray, L. Kong, B. I. Lundqvist, and
     *   D. C. Langreth, Phys. Rev. B 82, 081101(R) (2010).
     *
     *
     * If you are calculating the stress with vdW-DF, please also cite:
     *
     *   R. Sabatini, E. Kucukbenli, B. Kolb, T. Thonhauser, and
     *   S. de Gironcoli, J. Phys.: Condens. Matter 24, 424209 (2012).
     *

     Carrying out vdW-DF run using the following parameters:

     Nqs =      20    Nr_points =    1024   r_max =   100.000
     q_mesh =
               0.00001000     0.04494208     0.09755937     0.15916263
               0.23128650     0.31572767     0.41458969     0.53033537
               0.66584808     0.82450364     1.01025438     1.22772762
               1.48234092     1.78043706     2.12944203     2.53805004
               3.01644009     3.57652955     4.23227104     5.00000000

     Gradients computed in reciprocal space

[...]

     Starting wfc are  150 randomized atomic wfcs

     Self-consistent Calculation

[...]

     total energy              =   -2084.90653931 Ry
     Harris-Foulkes estimate   =   -2084.90653824 Ry
     estimated scf accuracy    <       0.00000189 Ry

     iteration # 18     ecut=    36.75 Ry     beta=0.10
     Davidson diagonalization with overlap
     ethr =  1.05E-09,  avg # of iterations =  1.0

[...]

     negative rho (up, down):  1.136E+00 0.000E+00

     Adding external electric field

     Computed dipole along edir(3) :
        Dipole                0.0117 Ry au,          0.0297 Debye
        Dipole field          0.0000 Ry au

        Potential amp.       -0.0031 Ry
        Total length         45.0456 bohr

     End of self-consistent calculation

[...]

          k = 0.0618 0.0000 0.0000 ( 15976 PWs)   bands (ev):

[...]

          k =-0.0927-0.1572 0.0000 ( 15950 PWs)   bands (ev):

   -65.4166 -65.4166 -65.0128 -65.0128 -64.9672 -64.9672 -44.9668 -44.9668
   -44.9353 -44.9353 -44.9313 -44.9313 -44.5001 -44.5001 -44.4559 -44.4559
   -44.4107 -44.4107 -44.3782 -44.3782 -44.3336 -44.3336 -44.2640 -44.2640
   -37.5500 -37.5500 -37.4121 -37.4121 -37.4028 -37.4028 -37.0314 -37.0314
   -36.9944 -36.9944 -36.9851 -36.9851 -36.9738 -36.9738 -36.9477 -36.9477
   -36.8349 -36.8349  -3.2301  -3.2301  -2.6483  -2.6483  -2.5948  -2.5948
    -2.3289  -2.3289  -2.1753  -2.1753  -2.0777  -2.0777  -1.6871  -1.6871
    -1.6448  -1.6448  -1.3153  -1.3153  -1.0891  -1.0891  -0.8915  -0.8915
    -0.4758  -0.4758  -0.2921  -0.2921  -0.1874  -0.1874  -0.0532  -0.0532
     0.0588   0.0588   0.2681   0.2681   0.3399   0.3399   0.5513   0.5513
     0.7250   0.7250   0.9457   0.9457   1.3222   1.3222   1.6627   1.6627
     1.7285   1.7285   1.9200   1.9200   2.0795   2.0795   2.2272   2.2273
     2.4254   2.4255   2.8464   2.8464   2.9977   2.9977   3.5475   3.5475
     3.8043   3.8043   5.0602   5.0602   6.0711   6.0711   6.7202   6.7202
     7.0510   7.0510   7.8210   7.8210   8.4061   8.4061   8.4376   8.4376

     the Fermi energy is     2.0528 ev

!    total energy              =   -2084.90654387 Ry
     Harris-Foulkes estimate   =   -2084.90653962 Ry
     estimated scf accuracy    <       0.00000081 Ry

     The total energy is the sum of the following terms:

     one-electron contribution =  -19075.48549222 Ry
     hartree contribution      =    9556.39493563 Ry
     xc contribution           =    -384.57216821 Ry
     ewald contribution        =    7818.84016868 Ry
     electric field correction =       0.00000040 Ry
     smearing contrib. (-TS)   =      -0.08398815 Ry

     convergence has been achieved in  18 iterations

 BEEF-vdW xc energy contributions
           1 :   -336.106676347358
           2 :    309.066616971559
           3 :   -261.516359679837
           4 :    203.969310008989
           5 :   -147.426965893252
           6 :    100.115019560880
           7 :   -65.7268102268104
           8 :    43.4877660924510
           9 :   -29.7451299354483
          10 :    20.1623606206627
          11 :   -11.6149883292392
          12 :    3.09699211137217
          13 :    4.48212378351633
          14 :   -9.32096507423546
          15 :    9.96303266742598
          16 :   -6.19518813158732
          17 :  -0.748668153314725
          18 :    8.66240441916267
          19 :   -15.2409652557336
          20 :    18.9089040377961
          21 :   -19.2562183228230
          22 :    16.9349256166890
          23 :   -13.1522136336602
          24 :    9.04625209882136
          25 :   -5.25374639398876
          26 :    1.83068807065030
          27 :    1.49728971052195
          28 :   -4.94740042280171
          29 :    8.38104672981626
          30 :   -11.2560405705623
          31 :   -32.5145473775589
          32 :   -24.1532161923950

     Forces acting on atoms (Ry/au):

     negative rho (up, down):  1.136E+00 0.000E+00
     atom    1 type  1   force =    -0.00000024    0.01087267    0.01930321
     atom    2 type  1   force =    -0.00000004    0.01086055    0.01927097
     atom    3 type  2   force =    -0.00000017   -0.01877353    0.01508894
     atom    4 type  2   force =     0.00000026   -0.01877352    0.01508881
     atom    5 type  1   force =     0.00000002    0.00402720   -0.01906875
     atom    6 type  1   force =    -0.00000012    0.00402607   -0.01907122
     atom    7 type  2   force =    -0.00000100    0.00352545   -0.01504893
     atom    8 type  2   force =     0.00000109    0.00352554   -0.01504908
     atom    9 type  1   force =     0.00000006   -0.00017155    0.00004251
     atom   10 type  1   force =    -0.00000000   -0.00016285    0.00004715
     atom   11 type  2   force =    -0.00000048    0.00052196   -0.00030175
     atom   12 type  2   force =     0.00000064    0.00052202   -0.00030184

     Total force =     0.058127     Total SCF correction =     0.004389

     entering subroutine stress ...

     negative rho (up, down):  1.136E+00 0.000E+00
          total   stress  (Ry/bohr**3)                   (kbar)     P=  -29.74
  -0.00020341   0.00000000   0.00000000        -29.92      0.00      0.00
   0.00000000  -0.00024613   0.00001597          0.00    -36.21      2.35
   0.00000000   0.00001597  -0.00015703          0.00      2.35    -23.10

 !ASE

     Writing output data file calc.save

     General routines

     Parallel routines

   This run was terminated on:  22: 4:31  29Dec2018

   JOB DONE.
Job  /afs/slac/g/suncat/bin/suncat-tsmpirun -x LD_LIBRARY_PATH -wdir /scratch/qe387727_aNoKP pw.x -in pw.inp

TID   HOST_NAME   COMMAND_LINE            STATUS            TERMINATION_TIME
00000 suncat0056 pw.x -in pw.inp   Done                     12/29/2018 22:04:31
00001 suncat0056 pw.x -in pw.inp   Done                     12/29/2018 22:04:31
00002 suncat0056 pw.x -in pw.inp   Done                     12/29/2018 22:04:31
00003 suncat0056 pw.x -in pw.inp   Done                     12/29/2018 22:04:31
00004 suncat0056 pw.x -in pw.inp   Done                     12/29/2018 22:04:31
00005 suncat0056 pw.x -in pw.inp   Done                     12/29/2018 22:04:31
00006 suncat0056 pw.x -in pw.inp   Done                     12/29/2018 22:04:31
00007 suncat0056 pw.x -in pw.inp   Done                     12/29/2018 22:04:31
00008 suncat0052 pw.x -in pw.inp   Done                     12/29/2018 22:04:31
00009 suncat0052 pw.x -in pw.inp   Done                     12/29/2018 22:04:31
00010 suncat0052 pw.x -in pw.inp   Done                     12/29/2018 22:04:31
00011 suncat0052 pw.x -in pw.inp   Done                     12/29/2018 22:04:31
00012 suncat0052 pw.x -in pw.inp   Done                     12/29/2018 22:04:31
00013 suncat0052 pw.x -in pw.inp   Done                     12/29/2018 22:04:31
00014 suncat0052 pw.x -in pw.inp   Done                     12/29/2018 22:04:31
00015 suncat0052 pw.x -in pw.inp   Done                     12/29/2018 22:04:31
00016 suncat0048 pw.x -in pw.inp   Done                     12/29/2018 22:04:31
00017 suncat0048 pw.x -in pw.inp   Done                     12/29/2018 22:04:31
00018 suncat0048 pw.x -in pw.inp   Done                     12/29/2018 22:04:31
00019 suncat0048 pw.x -in pw.inp   Done                     12/29/2018 22:04:31
00020 suncat0048 pw.x -in pw.inp   Done                     12/29/2018 22:04:31
00021 suncat0048 pw.x -in pw.inp   Done                     12/29/2018 22:04:31
00022 suncat0048 pw.x -in pw.inp   Done                     12/29/2018 22:04:31
00023 suncat0048 pw.x -in pw.inp   Done                     12/29/2018 22:04:31
00024 suncat0047 pw.x -in pw.inp   Done                     12/29/2018 22:04:31
00025 suncat0047 pw.x -in pw.inp   Done                     12/29/2018 22:04:31
00026 suncat0047 pw.x -in pw.inp   Done                     12/29/2018 22:04:31
00027 suncat0047 pw.x -in pw.inp   Done                     12/29/2018 22:04:31
00028 suncat0047 pw.x -in pw.inp   Done                     12/29/2018 22:04:31
00029 suncat0047 pw.x -in pw.inp   Done                     12/29/2018 22:04:31
00030 suncat0047 pw.x -in pw.inp   Done                     12/29/2018 22:04:31
00031 suncat0047 pw.x -in pw.inp   Done                     12/29/2018 22:04:31
00032 suncat0041 pw.x -in pw.inp   Done                     12/29/2018 22:04:31
00033 suncat0041 pw.x -in pw.inp   Done                     12/29/2018 22:04:31
00034 suncat0041 pw.x -in pw.inp   Done                     12/29/2018 22:04:31
00035 suncat0041 pw.x -in pw.inp   Done                     12/29/2018 22:04:31
00036 suncat0041 pw.x -in pw.inp   Done                     12/29/2018 22:04:31
00037 suncat0041 pw.x -in pw.inp   Done                     12/29/2018 22:04:31
00038 suncat0041 pw.x -in pw.inp   Done                     12/29/2018 22:04:31
00039 suncat0041 pw.x -in pw.inp   Done                     12/29/2018 22:04:31
00040 suncat0039 pw.x -in pw.inp   Done                     12/29/2018 22:04:31
00041 suncat0039 pw.x -in pw.inp   Done                     12/29/2018 22:04:31
00042 suncat0039 pw.x -in pw.inp   Done                     12/29/2018 22:04:31
00043 suncat0039 pw.x -in pw.inp   Done                     12/29/2018 22:04:31
00044 suncat0039 pw.x -in pw.inp   Done                     12/29/2018 22:04:31
00045 suncat0039 pw.x -in pw.inp   Done                     12/29/2018 22:04:31
00046 suncat0039 pw.x -in pw.inp   Done                     12/29/2018 22:04:31
00047 suncat0039 pw.x -in pw.inp   Done                     12/29/2018 22:04:31
00048 suncat0207 pw.x -in pw.inp   Done                     12/29/2018 22:04:31
00049 suncat0207 pw.x -in pw.inp   Done                     12/29/2018 22:04:31
00050 suncat0207 pw.x -in pw.inp   Done                     12/29/2018 22:04:31
00051 suncat0207 pw.x -in pw.inp   Done                     12/29/2018 22:04:31
00052 suncat0207 pw.x -in pw.inp   Done                     12/29/2018 22:04:31
00053 suncat0207 pw.x -in pw.inp   Done                     12/29/2018 22:04:31
00054 suncat0207 pw.x -in pw.inp   Done                     12/29/2018 22:04:31
00055 suncat0207 pw.x -in pw.inp   Done                     12/29/2018 22:04:31
00056 suncat0206 pw.x -in pw.inp   Done                     12/29/2018 22:04:31
00057 suncat0206 pw.x -in pw.inp   Done                     12/29/2018 22:04:31
00058 suncat0206 pw.x -in pw.inp   Done                     12/29/2018 22:04:31
00059 suncat0206 pw.x -in pw.inp   Done                     12/29/2018 22:04:31
00060 suncat0206 pw.x -in pw.inp   Done                     12/29/2018 22:04:31
00061 suncat0206 pw.x -in pw.inp   Done                     12/29/2018 22:04:31
00062 suncat0206 pw.x -in pw.inp   Done                     12/29/2018 22:04:31
00063 suncat0206 pw.x -in pw.inp   Done                     12/29/2018 22:04:31