     Program PWSCF v.5.1rc2 (svn rev. 11289) starts on 29Dec2018 at 10: 4: 1

     Current dimensions of program PWSCF are:
     Max number of different atomic species (ntypx) = 10
     Max number of k-points (npk) =  40000
     Max angular momentum in pseudopotentials (lmaxx) =  3
     Presently stress not available with electric field

     IMPORTANT: XC functional enforced from input :
     Exchange-correlation      = BEEF-VDW ( 1  4 27 13 2)
     Any further DFT definition will be discarded
     Please, verify this is what you really want

     Subspace diagonalization in iterative solution of the eigenvalue problem:
     a serial algorithm will be used

     Found symmetry operation: I + ( -0.5000 -0.5000  0.0000)
     This is a supercell, fractional translations are disabled

     bravais-lattice index     =            0
     lattice parameter (alat)  =       1.8897  a.u.
     unit-cell volume          =    4409.5233 (a.u.)^3
     number of atoms/cell      =           12
     number of atomic types    =            2
     number of electrons       =       204.00
     number of Kohn-Sham states=          132
     kinetic-energy cutoff     =      36.7493  Ry
     charge density cutoff     =     367.4932  Ry
     convergence threshold     =      1.0E-06
     mixing beta               =       0.1000
     number of iterations used =           10  plain     mixing
     Exchange-correlation      = BEEF-VDW ( 1  4 27 13 2)
     nstep                     =           50

     celldm(1)=   1.889726  celldm(2)=   0.000000  celldm(3)=   0.000000
     celldm(4)=   0.000000  celldm(5)=   0.000000  celldm(6)=   0.000000

     crystal axes: (cart. coord. in units of alat)
               a(1) = (   5.325693   0.000000   0.000000 )
               a(2) = (   1.710607   5.043494   0.000000 )
               a(3) = (   0.000000   0.000000  24.326935 )

     reciprocal axes: (cart. coord. in units 2 pi/alat)
               b(1) = (  0.187769 -0.063686  0.000000 )
               b(2) = (  0.000000  0.198275  0.000000 )
               b(3) = (  0.000000  0.000000  0.041107 )

     PseudoPot. # 1 for Ga read from file:
     /afs/slac.stanford.edu/u/if/mamunm/psp/gbrv1.5pbe/Ga.UPF
     MD5 check sum: ccd671392a58a050fbb373893b4fcd66
     Pseudo is Ultrasoft + core correction, Zval = 19.0
     Generated by new atomic code, or converted to UPF format
     Using radial grid of  871 points,  6 beta functions with:
                l(1) =   0
                l(2) =   0
                l(3) =   1
                l(4) =   1
                l(5) =   2
                l(6) =   2
     Q(r) pseudized with  8 coefficients,  rinner =    1.250   1.250   1.250
                                                       1.250   1.250

     PseudoPot. # 2 for Tc read from file:
     /afs/slac.stanford.edu/u/if/mamunm/psp/gbrv1.5pbe/Tc.UPF
     MD5 check sum: 9eb49e5b028550b2339a02317eb7b844
     Pseudo is Ultrasoft + core correction, Zval = 15.0
     Generated by new atomic code, or converted to UPF format
     Using radial grid of  965 points,  6 beta functions with:
                l(1) =   0
                l(2) =   0
                l(3) =   1
                l(4) =   1
                l(5) =   2
                l(6) =   2
     Q(r) pseudized with  8 coefficients,  rinner =    1.300   1.300   1.300
                                                       1.300   1.300

     vdW kernel table read from file vdW_kernel_table
     MD5 check sum: 095c7af220d748ca6e76c0b4c6cfb241

     atomic species   valence    mass     pseudopotential
        Ga1           19.00    69.72300     Ga( 1.00)
        Tc1           15.00    97.90721     Tc( 1.00)

     No symmetry found

   Cartesian axes

     site n.     atom                  positions (alat units)
         1           Ga1 tau(   1) = (   0.0000000   0.0000000  10.0000000  )
         2           Ga1 tau(   2) = (   3.5181499   2.5217470  10.0000000  )
         3           Tc1 tau(   3) = (   2.6628466   0.0000000  10.0000000  )
         4           Tc1 tau(   4) = (   0.8553034   2.5217470  10.0000000  )
         5           Ga1 tau(   5) = (   5.3256931   3.8173617  12.1634673  )
         6           Ga1 tau(   6) = (   1.8075432   1.2956147  12.1634673  )
         7           Tc1 tau(   7) = (   2.6628466   3.8173617  12.1634673  )
         8           Tc1 tau(   8) = (   4.4703898   1.2956147  12.1634673  )
         9           Ga1 tau(   9) = (   3.6150864   2.5912293  14.3269345  )
        10           Ga1 tau(  10) = (   0.0969364   0.0694823  14.3269345  )
        11           Tc1 tau(  11) = (   0.9522398   2.5912293  14.3269345  )
        12           Tc1 tau(  12) = (   2.7597830   0.0694823  14.3269345  )

     number of k points=    20  Fermi-Dirac smearing, width (Ry)=  0.0110
                       cart. coord. in units 2pi/alat
        k(    1) = (   0.0000000   0.0000000   0.0000000), wk =   0.0555556
        k(    2) = (   0.0000000   0.0330459   0.0000000), wk =   0.1111111
        k(    3) = (   0.0000000   0.0660917   0.0000000), wk =   0.1111111
        k(    4) = (   0.0000000  -0.0991376   0.0000000), wk =   0.0555556
        k(    5) = (   0.0312948  -0.0106143   0.0000000), wk =   0.1111111
        k(    6) = (   0.0312948   0.0224316   0.0000000), wk =   0.1111111
        k(    7) = (   0.0312948   0.0554774   0.0000000), wk =   0.1111111
        k(    8) = (   0.0312948  -0.1097519   0.0000000), wk =   0.1111111
        k(    9) = (   0.0312948  -0.0767060   0.0000000), wk =   0.1111111
        k(   10) = (   0.0312948  -0.0436602   0.0000000), wk =   0.1111111
        k(   11) = (   0.0625897  -0.0212286   0.0000000), wk =   0.1111111
        k(   12) = (   0.0625897   0.0118173   0.0000000), wk =   0.1111111
        k(   13) = (   0.0625897   0.0448632   0.0000000), wk =   0.1111111
        k(   14) = (   0.0625897  -0.1203662   0.0000000), wk =   0.1111111
        k(   15) = (   0.0625897  -0.0873203   0.0000000), wk =   0.1111111
        k(   16) = (   0.0625897  -0.0542745   0.0000000), wk =   0.1111111
        k(   17) = (  -0.0938845   0.0318429   0.0000000), wk =   0.0555556
        k(   18) = (  -0.0938845   0.0648888   0.0000000), wk =   0.1111111
        k(   19) = (  -0.0938845   0.0979346   0.0000000), wk =   0.1111111
        k(   20) = (  -0.0938845  -0.0672947   0.0000000), wk =   0.0555556

     Largest allocated arrays     est. size (Mb)     dimensions
     Largest temporary arrays     est. size (Mb)     dimensions

     Check: negative/imaginary core charge=   -0.000014    0.000000

     Initial potential from superposition of free atoms
     Check: negative starting charge=   -0.752837

     starting charge  191.99983, renormalised to  204.00000

     negative rho (up, down):  7.999E-01 0.000E+00

     *
     * You are using vdW-DF for exchange-correlation in this calculation.
     * Please cite the following three references that made this development
     * possible:
     *
     *   M. Dion, H. Rydberg, E. Schroder, D. C. Langreth, and
     *   B. I. Lundqvist, Phys. Rev. Lett. 92, 246401 (2004).
     *
     *   T. Thonhauser, V. R. Cooper, S. Li, A. Puzder, P. Hyldgaard, and
     *   D. C. Langreth, Phys. Rev. B 76, 125112 (2007).
     *
     *   G. Roman-Perez and J. M. Soler, Phys. Rev. Lett. 103, 096102 (2009).
     *
     *
     * If you are using vdW-DF2, please also cite:
     *
     *   K. Lee, E. D. Murray, L. Kong, B. I. Lundqvist, and
     *   D. C. Langreth, Phys. Rev. B 82, 081101(R) (2010).
     *
     *
     * If you are calculating the stress with vdW-DF, please also cite:
     *
     *   R. Sabatini, E. Kucukbenli, B. Kolb, T. Thonhauser, and
     *   S. de Gironcoli, J. Phys.: Condens. Matter 24, 424209 (2012).
     *

     Carrying out vdW-DF run using the following parameters:

     Nqs =      20    Nr_points =    1024   r_max =   100.000
     q_mesh =
               0.00001000     0.04494208     0.09755937     0.15916263
               0.23128650     0.31572767     0.41458969     0.53033537
               0.66584808     0.82450364     1.01025438     1.22772762
               1.48234092     1.78043706     2.12944203     2.53805004
               3.01644009     3.57652955     4.23227104     5.00000000

     Gradients computed in reciprocal space

     Adding external electric field

     Computed dipole along edir(3) :
        Dipole               -0.0000 Ry au,         -0.0000 Debye
        Dipole field         -0.0000 Ry au

        Potential amp.        0.0000 Ry
        Total length         44.8220 bohr

     Starting wfc are  150 randomized atomic wfcs

     Self-consistent Calculation

     iteration #  1     ecut=    36.75 Ry     beta=0.10
     Davidson diagonalization with overlap
     ethr =  1.00E-02,  avg # of iterations =  7.5

[...]

     total energy              =   -3492.65842328 Ry
     Harris-Foulkes estimate   =   -3573.43694317 Ry
     estimated scf accuracy    <     444.20247590 Ry

[...]

     End of self-consistent calculation

          k = 0.0000 0.0000 0.0000 ( 16609 PWs)   bands (ev):

   -92.8084 -92.8083 -92.8018 -92.8005 -92.7895 -92.7894 -92.7013 -92.7012
   -92.7011 -92.7011 -92.6829 -92.6826 -92.6816 -92.6813 -92.6490 -92.6490
   -92.6488 -92.6487 -65.2907 -65.2750 -65.1475 -65.1465 -65.1333 -65.1330
   -37.4035 -37.3988 -37.3799 -37.3638 -37.3526 -37.2940 -37.2930 -37.1922
   -37.1706 -37.1643 -37.1611 -37.1408 -37.1404 -37.1246 -37.1176 -37.1060
   -37.1020 -37.0908 -13.2940 -13.2867 -13.2469 -13.2438 -13.2431 -13.2136
   -13.2012 -13.1993 -13.1665 -13.1387 -13.1367 -13.1294 -13.1140 -13.1096
   -13.1043 -13.0895 -13.0623 -13.0548 -13.0539 -13.0398 -13.0366 -13.0331
   -13.0316 -13.0296 -13.0230 -13.0229 -12.9791 -12.9624 -12.9424 -12.9206
    -8.2426  -6.4025  -5.1631  -5.1449  -4.6658  -4.4075  -1.6987  -1.6812
    -1.4888  -1.2276  -1.1838  -1.1536  -0.9661  -0.6216  -0.4477  -0.1448
     0.0961   0.1198   0.1916   0.5037   0.5163   0.7989   0.8255   0.8791
     1.0886   1.1010   1.1538   1.2457   1.3017   1.3197   1.5755   1.6250
     1.6372   1.7353   1.7447   1.9040   2.0100   2.3275   2.7673   3.3473
     3.6703   4.0987   4.2191   4.3204   4.9150   5.1170   5.5002   5.7610
     5.8704   6.2972   6.3203   6.5162   6.5982   6.7671   7.1961   7.3924
     7.8470   7.9828   8.1944   8.2425

[...]

          k =-0.0939 0.0318 0.0000 ( 16596 PWs)   bands (ev):

[...]

     the Fermi energy is     1.3949 ev

!    total energy              =   -3551.16794531 Ry
     Harris-Foulkes estimate   =   -3551.16794043 Ry
     estimated scf accuracy    <       0.00000056 Ry

     The total energy is the sum of the following terms:

     one-electron contribution =  -25122.05543037 Ry
     hartree contribution      =   12568.10015805 Ry
     xc contribution           =    -497.64239000 Ry
     ewald contribution        =    9500.51140378 Ry
     electric field correction =       0.00000000 Ry
     smearing contrib. (-TS)   =      -0.08168677 Ry

     convergence has been achieved in  21 iterations

 BEEF-vdW xc energy contributions
           1 :   -441.559137418049
           2 :    403.329122647412
           3 :   -337.674964855971
           4 :    261.295594363458
[...]
     Generated by new atomic code, or converted to UPF format
     Using radial grid of  871 points,  6 beta functions with:
                l(1) =   0
                l(2) =   0
                l(3) =   1
                l(4) =   1
                l(5) =   2
                l(6) =   2
     Q(r) pseudized with  8 coefficients,  rinner =    1.250   1.250   1.250
                                                       1.250   1.250

     PseudoPot. # 2 for Tc read from file:
     /afs/slac.stanford.edu/u/if/mamunm/psp/gbrv1.5pbe/Tc.UPF
     MD5 check sum: 9eb49e5b028550b2339a02317eb7b844
     Pseudo is Ultrasoft + core correction, Zval = 15.0
     Generated by new atomic code, or converted to UPF format
     Using radial grid of  965 points,  6 beta functions with:
                l(1) =   0
                l(2) =   0
                l(3) =   1
                l(4) =   1
                l(5) =   2
                l(6) =   2
     Q(r) pseudized with  8 coefficients,  rinner =    1.300   1.300   1.300
                                                       1.300   1.300

     vdW kernel table read from file vdW_kernel_table
     MD5 check sum: 095c7af220d748ca6e76c0b4c6cfb241

     atomic species   valence    mass     pseudopotential
        Ga1           19.00    69.72300     Ga( 1.00)
        Tc1           15.00    97.90721     Tc( 1.00)

     No symmetry found

   Cartesian axes

     site n.     atom                  positions (alat units)
         1           Ga1 tau(   1) = (   0.0000000   0.0000000  10.0000000  )
         2           Ga1 tau(   2) = (   3.5181499   2.5217470  10.0000000  )
         3           Tc1 tau(   3) = (   2.6628466   0.0000000  10.0000000  )
         4           Tc1 tau(   4) = (   0.8553034   2.5217470  10.0000000  )
         5           Ga1 tau(   5) = (   5.3256931   3.8173617  12.1634673  )
         6           Ga1 tau(   6) = (   1.8075432   1.2956147  12.1634673  )
         7           Tc1 tau(   7) = (   2.6628466   3.8173617  12.1634673  )
         8           Tc1 tau(   8) = (   4.4703898   1.2956147  12.1634673  )
         9           Ga1 tau(   9) = (   3.6143454   2.5904487  14.4360215  )
        10           Ga1 tau(  10) = (   0.0959680   0.0690287  14.4360168  )
        11           Tc1 tau(  11) = (   0.9524731   2.5913971  14.1940068  )
        12           Tc1 tau(  12) = (   2.7594995   0.0692731  14.1940186  )

     number of k points=    20  Fermi-Dirac smearing, width (Ry)=  0.0110
                       cart. coord. in units 2pi/alat
        k(    1) = (   0.0000000   0.0000000   0.0000000), wk =   0.0555556
        k(    2) = (   0.0000000   0.0330459   0.0000000), wk =   0.1111111
        k(    3) = (   0.0000000   0.0660917   0.0000000), wk =   0.1111111
        k(    4) = (   0.0000000  -0.0991376   0.0000000), wk =   0.0555556
        k(    5) = (   0.0312948  -0.0106143   0.0000000), wk =   0.1111111
        k(    6) = (   0.0312948   0.0224316   0.0000000), wk =   0.1111111
        k(    7) = (   0.0312948   0.0554774   0.0000000), wk =   0.1111111
        k(    8) = (   0.0312948  -0.1097519   0.0000000), wk =   0.1111111
        k(    9) = (   0.0312948  -0.0767060   0.0000000), wk =   0.1111111
        k(   10) = (   0.0312948  -0.0436602   0.0000000), wk =   0.1111111
        k(   11) = (   0.0625897  -0.0212286   0.0000000), wk =   0.1111111
        k(   12) = (   0.0625897   0.0118173   0.0000000), wk =   0.1111111
        k(   13) = (   0.0625897   0.0448632   0.0000000), wk =   0.1111111
        k(   14) = (   0.0625897  -0.1203662   0.0000000), wk =   0.1111111
        k(   15) = (   0.0625897  -0.0873203   0.0000000), wk =   0.1111111
        k(   16) = (   0.0625897  -0.0542745   0.0000000), wk =   0.1111111
        k(   17) = (  -0.0938845   0.0318429   0.0000000), wk =   0.0555556
        k(   18) = (  -0.0938845   0.0648888   0.0000000), wk =   0.1111111
        k(   19) = (  -0.0938845   0.0979346   0.0000000), wk =   0.1111111
        k(   20) = (  -0.0938845  -0.0672947   0.0000000), wk =   0.0555556

     Largest allocated arrays     est. size (Mb)     dimensions
     Largest temporary arrays     est. size (Mb)     dimensions

     Check: negative/imaginary core charge=   -0.000014    0.000000

     Initial potential from superposition of free atoms
     Check: negative starting charge=   -0.754166

     starting charge  191.99983, renormalised to  204.00000

[...]

     *
     * You are using vdW-DF for exchange-correlation in this calculation.
     * Please cite the following three references that made this development
     * possible:
     *
     *   M. Dion, H. Rydberg, E. Schroder, D. C. Langreth, and
     *   B. I. Lundqvist, Phys. Rev. Lett. 92, 246401 (2004).
     *
     *   T. Thonhauser, V. R. Cooper, S. Li, A. Puzder, P. Hyldgaard, and
     *   D. C. Langreth, Phys. Rev. B 76, 125112 (2007).
     *
     *   G. Roman-Perez and J. M. Soler, Phys. Rev. Lett. 103, 096102 (2009).
     *
     *
     * If you are using vdW-DF2, please also cite:
     *
     *   K. Lee, E. D. Murray, L. Kong, B. I. Lundqvist, and
     *   D. C. Langreth, Phys. Rev. B 82, 081101(R) (2010).
     *
     *
     * If you are calculating the stress with vdW-DF, please also cite:
     *
     *   R. Sabatini, E. Kucukbenli, B. Kolb, T. Thonhauser, and
     *   S. de Gironcoli, J. Phys.: Condens. Matter 24, 424209 (2012).
     *

     Carrying out vdW-DF run using the following parameters:

     Nqs =      20    Nr_points =    1024   r_max =   100.000
     q_mesh =
               0.00001000     0.04494208     0.09755937     0.15916263
               0.23128650     0.31572767     0.41458969     0.53033537
               0.66584808     0.82450364     1.01025438     1.22772762
               1.48234092     1.78043706     2.12944203     2.53805004
               3.01644009     3.57652955     4.23227104     5.00000000

     Gradients computed in reciprocal space

[...]

     Starting wfc are  150 randomized atomic wfcs

     Self-consistent Calculation

[...]

     total energy              =   -3551.18208916 Ry
     Harris-Foulkes estimate   =   -3551.18208811 Ry
     estimated scf accuracy    <       0.00000119 Ry

     iteration # 21     ecut=    36.75 Ry     beta=0.10
     Davidson diagonalization with overlap
     ethr =  5.84E-10,  avg # of iterations =  2.0

[...]

     negative rho (up, down):  7.789E-01 0.000E+00

     Adding external electric field

     Computed dipole along edir(3) :
        Dipole                0.0128 Ry au,          0.0326 Debye
        Dipole field          0.0000 Ry au

        Potential amp.       -0.0033 Ry
        Total length         44.8220 bohr

     End of self-consistent calculation

[...]

          k = 0.0626-0.0543 0.0000 ( 16574 PWs)   bands (ev):

[...]

          k =-0.0939-0.0673 0.0000 ( 16596 PWs)   bands (ev):

   -92.7837 -92.7835 -92.7784 -92.7783 -92.7759 -92.7747 -92.7642 -92.7641
   -92.7512 -92.7500 -92.7122 -92.7120 -92.7018 -92.7018 -92.6841 -92.6829
   -92.6491 -92.6489 -65.3518 -65.3388 -65.1771 -65.1618 -65.1412 -65.1267
   -37.4984 -37.4578 -37.4432 -37.4111 -37.4096 -37.3284 -37.2886 -37.2100
   -37.2094 -37.1977 -37.1660 -37.1579 -37.1452 -37.1421 -37.1416 -37.1200
   -37.1086 -37.1016 -13.2636 -13.2238 -13.2148 -13.2113 -13.2079 -13.1934
   -13.1773 -13.1655 -13.1614 -13.1570 -13.1488 -13.1212 -13.1055 -13.1034
   -13.0943 -13.0915 -13.0884 -13.0872 -13.0779 -13.0637 -13.0625 -13.0620
   -13.0329 -13.0319 -13.0284 -13.0255 -13.0054 -12.9926 -12.9693 -12.9328
    -6.2624  -6.1147  -5.1791  -4.9049  -4.2605  -3.6339  -3.4945  -2.7146
    -2.6709  -2.6176  -2.1300  -2.0456  -1.6341  -1.4246  -1.1580  -0.9264
    -0.7731  -0.6969  -0.5811  -0.3179   0.0792   0.1177   0.2933   0.3090
     0.4041   0.7878   0.9792   1.2015   1.3218   1.6983   1.9153   1.9305
     1.9984   2.1120   2.1979   2.5479   2.7039   2.8121   3.8005   4.0954
     4.1770   4.3660   4.4670   4.8424   4.9807   6.2967   6.4084   6.4238
     6.8584   7.0838   7.2337   7.2552   7.3155   7.4467   7.8951   8.1708
     8.2621   8.4607   8.5074   8.7498

     the Fermi energy is     1.3869 ev

!    total energy              =   -3551.18209402 Ry
     Harris-Foulkes estimate   =   -3551.18208922 Ry
     estimated scf accuracy    <       0.00000034 Ry

     The total energy is the sum of the following terms:

     one-electron contribution =  -25108.07510935 Ry
     hartree contribution      =   12560.94701999 Ry
     xc contribution           =    -497.65947937 Ry
     ewald contribution        =    9493.68767373 Ry
     electric field correction =       0.00000047 Ry
     smearing contrib. (-TS)   =      -0.08219949 Ry

     convergence has been achieved in  21 iterations

 BEEF-vdW xc energy contributions
           1 :   -441.581261349381
           2 :    403.371552533622
           3 :   -337.734992062508
           4 :    261.344637006999
           5 :   -190.025721086235
           6 :    133.294531497195
           7 :   -92.6818528942672
           8 :    63.9147659523153
           9 :   -41.1761207811571
          10 :    20.7767413310964
          11 :   -2.48065311623850
          12 :   -11.6744191523750
          13 :    19.6863658684092
          14 :   -21.3321064585572
          15 :    18.3406842816364
          16 :   -13.2543562094120
          17 :    8.01860232237925
          18 :   -3.33658873200903
          19 :  -0.946858125259780
          20 :    4.94070333009068
          21 :   -8.11245563085470
          22 :    9.45302338604034
          23 :   -8.21042532223771
          24 :    4.54456081903425
          25 :   0.436971124252409
          26 :   -5.30329779005507
          27 :    9.10063946819128
          28 :   -11.7379141568401
          29 :    13.7026480309966
          30 :   -15.3807395495530
          31 :   -36.2000802384114
          32 :   -25.5922210178052

     Forces acting on atoms (Ry/au):

     negative rho (up, down):  7.789E-01 0.000E+00
     atom    1 type  1   force =    -0.00002749   -0.00000943   -0.02278463
     atom    2 type  1   force =    -0.00001954   -0.00002192   -0.02278502
     atom    3 type  2   force =     0.00026238    0.00018789    0.03484686
     atom    4 type  2   force =     0.00027050    0.00019372    0.03485212
     atom    5 type  1   force =    -0.00127993   -0.00101608   -0.02728154
     atom    6 type  1   force =    -0.00137338   -0.00088697   -0.02728506
     atom    7 type  2   force =     0.00046619    0.00033327    0.01209398
     atom    8 type  2   force =     0.00046067    0.00032969    0.01202707
     atom    9 type  1   force =     0.00031572    0.00019589    0.00182141
     atom   10 type  1   force =     0.00028589    0.00023597    0.00182227
     atom   11 type  2   force =     0.00029868    0.00021398    0.00132525
     atom   12 type  2   force =     0.00034033    0.00024399    0.00134728

     Total force =     0.072553     Total SCF correction =     0.003435

     entering subroutine stress ...

     negative rho (up, down):  7.789E-01 0.000E+00
          total   stress  (Ry/bohr**3)                   (kbar)     P=  -18.78
  -0.00018541  -0.00001983   0.00000095        -27.27     -2.92      0.14
  -0.00001983  -0.00017196   0.00000069         -2.92    -25.30      0.10
   0.00000095   0.00000069  -0.00002560          0.14      0.10     -3.77

 !ASE

     Writing output data file calc.save

     General routines

     Parallel routines

   This run was terminated on:  11:29:34  29Dec2018

   JOB DONE.
Job  /afs/slac/g/suncat/bin/suncat-tsmpirun -x LD_LIBRARY_PATH -wdir /scratch/qe387684_sBTuc pw.x -in pw.inp

TID   HOST_NAME   COMMAND_LINE            STATUS            TERMINATION_TIME
00000 suncat0183 pw.x -in pw.inp   Done                     12/29/2018 11:29:34
00001 suncat0183 pw.x -in pw.inp   Done                     12/29/2018 11:29:34
00002 suncat0183 pw.x -in pw.inp   Done                     12/29/2018 11:29:34
00003 suncat0183 pw.x -in pw.inp   Done                     12/29/2018 11:29:34
00004 suncat0183 pw.x -in pw.inp   Done                     12/29/2018 11:29:34
00005 suncat0183 pw.x -in pw.inp   Done                     12/29/2018 11:29:34
00006 suncat0183 pw.x -in pw.inp   Done                     12/29/2018 11:29:34
00007 suncat0183 pw.x -in pw.inp   Done                     12/29/2018 11:29:34
00008 suncat0182 pw.x -in pw.inp   Done                     12/29/2018 11:29:34
00009 suncat0182 pw.x -in pw.inp   Done                     12/29/2018 11:29:34
00010 suncat0182 pw.x -in pw.inp   Done                     12/29/2018 11:29:34
00011 suncat0182 pw.x -in pw.inp   Done                     12/29/2018 11:29:34
00012 suncat0182 pw.x -in pw.inp   Done                     12/29/2018 11:29:34
00013 suncat0182 pw.x -in pw.inp   Done                     12/29/2018 11:29:34
00014 suncat0182 pw.x -in pw.inp   Done                     12/29/2018 11:29:34
00015 suncat0182 pw.x -in pw.inp   Done                     12/29/2018 11:29:34
00016 suncat0181 pw.x -in pw.inp   Done                     12/29/2018 11:29:34
00017 suncat0181 pw.x -in pw.inp   Done                     12/29/2018 11:29:34
00018 suncat0181 pw.x -in pw.inp   Done                     12/29/2018 11:29:34
00019 suncat0181 pw.x -in pw.inp   Done                     12/29/2018 11:29:34
00020 suncat0181 pw.x -in pw.inp   Done                     12/29/2018 11:29:34
00021 suncat0181 pw.x -in pw.inp   Done                     12/29/2018 11:29:34
00022 suncat0181 pw.x -in pw.inp   Done                     12/29/2018 11:29:34
00023 suncat0181 pw.x -in pw.inp   Done                     12/29/2018 11:29:34
00024 suncat0252 pw.x -in pw.inp   Done                     12/29/2018 11:29:34
00025 suncat0252 pw.x -in pw.inp   Done                     12/29/2018 11:29:34
00026 suncat0252 pw.x -in pw.inp   Done                     12/29/2018 11:29:34
00027 suncat0252 pw.x -in pw.inp   Done                     12/29/2018 11:29:34
00028 suncat0252 pw.x -in pw.inp   Done                     12/29/2018 11:29:34
00029 suncat0252 pw.x -in pw.inp   Done                     12/29/2018 11:29:34
00030 suncat0252 pw.x -in pw.inp   Done                     12/29/2018 11:29:34
00031 suncat0252 pw.x -in pw.inp   Done                     12/29/2018 11:29:34
00032 suncat0226 pw.x -in pw.inp   Done                     12/29/2018 11:29:34
00033 suncat0226 pw.x -in pw.inp   Done                     12/29/2018 11:29:34
00034 suncat0226 pw.x -in pw.inp   Done                     12/29/2018 11:29:34
00035 suncat0226 pw.x -in pw.inp   Done                     12/29/2018 11:29:34
00036 suncat0226 pw.x -in pw.inp   Done                     12/29/2018 11:29:34
00037 suncat0226 pw.x -in pw.inp   Done                     12/29/2018 11:29:34
00038 suncat0226 pw.x -in pw.inp   Done                     12/29/2018 11:29:34
00039 suncat0226 pw.x -in pw.inp   Done                     12/29/2018 11:29:34
00040 suncat0225 pw.x -in pw.inp   Done                     12/29/2018 11:29:34
00041 suncat0225 pw.x -in pw.inp   Done                     12/29/2018 11:29:34
00042 suncat0225 pw.x -in pw.inp   Done                     12/29/2018 11:29:34
00043 suncat0225 pw.x -in pw.inp   Done                     12/29/2018 11:29:34
00044 suncat0225 pw.x -in pw.inp   Done                     12/29/2018 11:29:34
00045 suncat0225 pw.x -in pw.inp   Done                     12/29/2018 11:29:34
00046 suncat0225 pw.x -in pw.inp   Done                     12/29/2018 11:29:34
00047 suncat0225 pw.x -in pw.inp   Done                     12/29/2018 11:29:34
00048 suncat0224 pw.x -in pw.inp   Done                     12/29/2018 11:29:34
00049 suncat0224 pw.x -in pw.inp   Done                     12/29/2018 11:29:34
00050 suncat0224 pw.x -in pw.inp   Done                     12/29/2018 11:29:34
00051 suncat0224 pw.x -in pw.inp   Done                     12/29/2018 11:29:34
00052 suncat0224 pw.x -in pw.inp   Done                     12/29/2018 11:29:34
00053 suncat0224 pw.x -in pw.inp   Done                     12/29/2018 11:29:34
00054 suncat0224 pw.x -in pw.inp   Done                     12/29/2018 11:29:34
00055 suncat0224 pw.x -in pw.inp   Done                     12/29/2018 11:29:34
00056 suncat0223 pw.x -in pw.inp   Done                     12/29/2018 11:29:34
00057 suncat0223 pw.x -in pw.inp   Done                     12/29/2018 11:29:34
00058 suncat0223 pw.x -in pw.inp   Done                     12/29/2018 11:29:34
00059 suncat0223 pw.x -in pw.inp   Done                     12/29/2018 11:29:34
00060 suncat0223 pw.x -in pw.inp   Done                     12/29/2018 11:29:34
00061 suncat0223 pw.x -in pw.inp   Done                     12/29/2018 11:29:34
00062 suncat0223 pw.x -in pw.inp   Done                     12/29/2018 11:29:34
00063 suncat0223 pw.x -in pw.inp   Done                     12/29/2018 11:29:34