     Program PWSCF v.5.1rc2 (svn rev. 11289) starts on 18Dec2018 at 19: 1:46

     Current dimensions of program PWSCF are:
     Max number of different atomic species (ntypx) = 10
     Max number of k-points (npk) =  40000
     Max angular momentum in pseudopotentials (lmaxx) =  3
     Presently stress not available with electric field

     IMPORTANT: XC functional enforced from input :
     Exchange-correlation      = BEEF-VDW ( 1  4 27 13 2)
     Any further DFT definition will be discarded
     Please, verify this is what you really want

     Subspace diagonalization in iterative solution of the eigenvalue problem:
     a serial algorithm will be used

     Found symmetry operation: I + ( -0.5000  0.0000  0.0000)
     This is a supercell, fractional translations are disabled

     bravais-lattice index     =            0
     lattice parameter (alat)  =       1.8897  a.u.
     unit-cell volume          =    4504.0470 (a.u.)^3
     number of atoms/cell      =           12
     number of atomic types    =            2
     number of electrons       =       180.00
     number of Kohn-Sham states=          120
     kinetic-energy cutoff     =      36.7493  Ry
     charge density cutoff     =     367.4932  Ry
     convergence threshold     =      1.0E-06
     mixing beta               =       0.1000
     number of iterations used =           10  plain     mixing
     Exchange-correlation      = BEEF-VDW ( 1  4 27 13 2)
     nstep                     =           50

     celldm(1)=   1.889726  celldm(2)=   0.000000  celldm(3)=   0.000000
     celldm(4)=   0.000000  celldm(5)=   0.000000  celldm(6)=   0.000000

     crystal axes: (cart. coord. in units of alat)
               a(1) = (   5.469609   0.000000   0.000000 )
               a(2) = (  -2.734805   4.967249   0.000000 )
               a(3) = (   0.000000   0.000000  24.565980 )

     reciprocal axes: (cart. coord. in units 2 pi/alat)
               b(1) = (  0.182828  0.100659  0.000000 )
               b(2) = (  0.000000  0.201319  0.000000 )
               b(3) = (  0.000000  0.000000  0.040707 )

     PseudoPot. # 1 for Mo read from file:
     /afs/slac.stanford.edu/u/if/mamunm/psp/gbrv1.5pbe/Mo.UPF
     MD5 check sum: 30c4dcd161f5d35cd49bb5239c51a633
     Pseudo is Ultrasoft + core correction, Zval = 14.0
     Generated by new atomic code, or converted to UPF format
     Using radial grid of  889 points,  6 beta functions with:
                l(1) =   0
                l(2) =   0
                l(3) =   1
                l(4) =   1
                l(5) =   2
                l(6) =   2
     Q(r) pseudized with  6 coefficients,  rinner =    1.000   1.000   1.000
                                                       1.000   1.000

     PseudoPot. # 2 for Pt read from file:
     /afs/slac.stanford.edu/u/if/mamunm/psp/gbrv1.5pbe/Pt.UPF
     MD5 check sum: f09d6de1a584b5a045c4fc126da2d0c4
     Pseudo is Ultrasoft + core correction, Zval = 16.0
     Generated by new atomic code, or converted to UPF format
     Using radial grid of  985 points,  6 beta functions with:
                l(1) =   0
                l(2) =   0
                l(3) =   1
                l(4) =   1
                l(5) =   2
                l(6) =   2
     Q(r) pseudized with  8 coefficients,  rinner =    1.300   1.300   1.300
                                                       1.300   1.300

     vdW kernel table read from file vdW_kernel_table
     MD5 check sum: 095c7af220d748ca6e76c0b4c6cfb241

     atomic species   valence    mass     pseudopotential
        Mo1           14.00    95.95000     Mo( 1.00)
        Pt1           16.00   195.08400     Pt( 1.00)

     No symmetry found

   Cartesian axes

     site n.     atom                  positions (alat units)
         1           Mo1 tau(   1) = (   0.0000000   0.0000000  10.0000000  )
         2           Mo1 tau(   2) = (   2.7348046   0.0000000  10.0000000  )
         3           Pt1 tau(   3) = (   1.3674023   2.4836245  10.0000000  )
         4           Pt1 tau(   4) = (  -1.3674023   2.4836245  10.0000000  )
         5           Mo1 tau(   5) = (   2.7348046   1.5056938  12.2829898  )
         6           Mo1 tau(   6) = (   0.0000000   1.5056938  12.2829898  )
         7           Pt1 tau(   7) = (  -1.3674023   3.9893183  12.2829898  )
         8           Pt1 tau(   8) = (   1.3674023   3.9893183  12.2829898  )
         9           Mo1 tau(   9) = (   0.0000000   3.0113876  14.5659795  )
        10           Mo1 tau(  10) = (   2.7348046   3.0113876  14.5659795  )
        11           Pt1 tau(  11) = (   4.1022069   0.5277630  14.5659795  )
        12           Pt1 tau(  12) = (   1.3674023   0.5277630  14.5659795  )

     number of k points=    20  Fermi-Dirac smearing, width (Ry)=  0.0110
                       cart. coord. in units 2pi/alat
        k(    1) = (   0.0000000   0.0000000   0.0000000), wk =   0.0555556
        k(    2) = (   0.0000000   0.0335531   0.0000000), wk =   0.1111111
        k(    3) = (   0.0000000   0.0671062   0.0000000), wk =   0.1111111
        k(    4) = (   0.0000000  -0.1006593   0.0000000), wk =   0.0555556
        k(    5) = (   0.0304714   0.0167766   0.0000000), wk =   0.1111111
        k(    6) = (   0.0304714   0.0503297   0.0000000), wk =   0.1111111
        k(    7) = (   0.0304714   0.0838828   0.0000000), wk =   0.1111111
        k(    8) = (   0.0304714  -0.0838828   0.0000000), wk =   0.1111111
        k(    9) = (   0.0304714  -0.0503297   0.0000000), wk =   0.1111111
        k(   10) = (   0.0304714  -0.0167766   0.0000000), wk =   0.1111111
        k(   11) = (   0.0609428   0.0335531   0.0000000), wk =   0.1111111
        k(   12) = (   0.0609428   0.0671062   0.0000000), wk =   0.1111111
        k(   13) = (   0.0609428   0.1006593   0.0000000), wk =   0.1111111
        k(   14) = (   0.0609428  -0.0671062   0.0000000), wk =   0.1111111
        k(   15) = (   0.0609428  -0.0335531   0.0000000), wk =   0.1111111
        k(   16) = (   0.0609428  -0.0000000   0.0000000), wk =   0.1111111
        k(   17) = (  -0.0914142  -0.0503297   0.0000000), wk =   0.0555556
        k(   18) = (  -0.0914142  -0.0167766   0.0000000), wk =   0.1111111
        k(   19) = (  -0.0914142   0.0167766   0.0000000), wk =   0.1111111
        k(   20) = (  -0.0914142  -0.1509890   0.0000000), wk =   0.0555556

     Largest allocated arrays     est. size (Mb)     dimensions
     Largest temporary arrays     est. size (Mb)     dimensions

     Initial potential from superposition of free atoms
     Check: negative starting charge=   -1.101161

     starting charge  176.99355, renormalised to  180.00000

     negative rho (up, down):  1.120E+00 0.000E+00

     *
     * You are using vdW-DF for exchange-correlation in this calculation.
     * Please cite the following three references that made this development
     * possible:
     *
     *   M. Dion, H. Rydberg, E. Schroder, D. C. Langreth, and
     *   B. I. Lundqvist, Phys. Rev. Lett. 92, 246401 (2004).
     *
     *   T. Thonhauser, V. R. Cooper, S. Li, A. Puzder, P. Hyldgaard, and
     *   D. C. Langreth, Phys. Rev. B 76, 125112 (2007).
     *
     *   G. Roman-Perez and J. M. Soler, Phys. Rev. Lett. 103, 096102 (2009).
     *
     *
     * If you are using vdW-DF2, please also cite:
     *
     *   K. Lee, E. D. Murray, L. Kong, B. I. Lundqvist, and
     *   D. C. Langreth, Phys. Rev. B 82, 081101(R) (2010).
     *
     *
     * If you are calculating the stress with vdW-DF, please also cite:
     *
     *   R. Sabatini, E. Kucukbenli, B. Kolb, T. Thonhauser, and
     *   S. de Gironcoli, J. Phys.: Condens. Matter 24, 424209 (2012).
     *

     Carrying out vdW-DF run using the following parameters:

     Nqs =      20    Nr_points =    1024   r_max =   100.000
     q_mesh =
               0.00001000     0.04494208     0.09755937     0.15916263
               0.23128650     0.31572767     0.41458969     0.53033537
               0.66584808     0.82450364     1.01025438     1.22772762
               1.48234092     1.78043706     2.12944203     2.53805004
               3.01644009     3.57652955     4.23227104     5.00000000

     Gradients computed in reciprocal space

     Adding external electric field

     Computed dipole along edir(3) :
        Dipole               -0.0000 Ry au,         -0.0000 Debye
        Dipole field         -0.0000 Ry au

        Potential amp.        0.0000 Ry
        Total length         45.2624 bohr

     Starting wfc are  150 randomized atomic wfcs

     Self-consistent Calculation

     iteration #  1     ecut=    36.75 Ry     beta=0.10
     Davidson diagonalization with overlap
     ethr =  1.00E-02,  avg # of iterations =  7.2

[...]

     total energy              =   -2112.69346263 Ry
     Harris-Foulkes estimate   =   -2116.21149765 Ry
     estimated scf accuracy    <      20.21420083 Ry

[...]

     End of self-consistent calculation

          k = 0.0000 0.0000 0.0000 ( 16915 PWs)   bands (ev):

   -59.3746 -59.2679 -59.1886 -59.1803 -59.0841 -59.0766 -51.3745 -51.2154
   -51.1929 -51.1882 -51.1655 -51.0958 -50.8409 -50.8405 -50.7752 -50.7717
   -50.7480 -50.7443 -50.6001 -50.5860 -50.5747 -50.5634 -50.5632 -50.5606
   -33.7829 -33.6072 -33.4954 -33.4831 -33.4747 -33.4363 -33.3372 -33.2882
   -33.2580 -33.2104 -33.1876 -33.1598 -33.1128 -32.9580 -32.8949 -32.8716
   -32.6065 -32.6032  -5.8919  -4.2980  -4.2301  -3.9199  -3.8122  -3.7062
    -3.5922  -3.4663  -3.3938  -3.2668  -3.1437  -3.1207  -2.9556  -2.7847
    -2.7196  -1.9994  -1.7877  -1.6847  -1.5632  -1.3432  -1.1211  -0.9899
    -0.7875  -0.6210  -0.4736  -0.3851  -0.3297  -0.2467   0.0079   0.0448
     0.1186   0.1643   0.7431   0.7878   0.9126   1.0798   1.1328   1.1751
     1.4746   1.5246   1.5388   2.0419   2.1333   2.3415   2.3846   2.5887
     2.5903   2.9315   3.0113   3.2149   3.2918   3.5131   3.6282   3.7671
     3.8276   3.8378   3.9032   4.0037   4.2711   4.3052   4.4087   4.6350
     4.7643   4.8438   4.9732   5.0407   5.4124   5.5314   6.1344   6.1405
     6.2025   6.4382   6.5344   6.7705   6.8754   7.1655   8.0711   8.5831

[...]

          k =-0.0914-0.0503 0.0000 ( 16958 PWs)   bands (ev):

[...]

     the Fermi energy is     2.2411 ev

!    total energy              =   -2113.96573679 Ry
     Harris-Foulkes estimate   =   -2113.96572472 Ry
     estimated scf accuracy    <       0.00000082 Ry

     The total energy is the sum of the following terms:

     one-electron contribution =  -17614.38624328 Ry
     hartree contribution      =    8820.45906031 Ry
     xc contribution           =    -471.49764946 Ry
     ewald contribution        =    7151.53849451 Ry
     electric field correction =       0.00000010 Ry
     smearing contrib. (-TS)   =      -0.07939896 Ry

     convergence has been achieved in  19 iterations

 BEEF-vdW xc energy contributions
           1 :   -416.145678903058
           2 :    385.733180081091
           3 :   -331.790390029915
           4 :    265.578549930570
           5 :   -199.142531938691
           6 :    141.973911335111
           7 :   -99.0350674770211
           8 :    70.5255856837601
           9 :   -53.1662099042055
[...]
00031 suncat2051 pw.x -in pw.inp   Done                     12/18/2018 19:06:41

     Program PWSCF v.5.1rc2 (svn rev. 11289) starts on 18Dec2018 at 19: 6:47

[...]

   This run was terminated on:  19:11:36  18Dec2018

[...]

     Program PWSCF v.5.1rc2 (svn rev. 11289) starts on 18Dec2018 at 19:11:43

[...]

   This run was terminated on:  19:26: 9  18Dec2018

[...]

     Program PWSCF v.5.1rc2 (svn rev. 11289) starts on 18Dec2018 at 19:26:16

     Current dimensions of program PWSCF are:
     Max number of different atomic species (ntypx) = 10
     Max number of k-points (npk) =  40000
     Max angular momentum in pseudopotentials (lmaxx) =  3
     Presently stress not available with electric field

     IMPORTANT: XC functional enforced from input :
     Exchange-correlation      = BEEF-VDW ( 1  4 27 13 2)
     Any further DFT definition will be discarded
     Please, verify this is what you really want

     Subspace diagonalization in iterative solution of the eigenvalue problem:
     a serial algorithm will be used

     Found symmetry operation: I + ( -0.5000  0.0000  0.0000)
     This is a supercell, fractional translations are disabled

     bravais-lattice index     =            0
     lattice parameter (alat)  =       1.8897  a.u.
     unit-cell volume          =    4504.0470 (a.u.)^3
     number of atoms/cell      =           12
     number of atomic types    =            2
     number of electrons       =       180.00
     number of Kohn-Sham states=          120
     kinetic-energy cutoff     =      36.7493  Ry
     charge density cutoff     =     367.4932  Ry
     convergence threshold     =      1.0E-06
     mixing beta               =       0.1000
     number of iterations used =           10  plain     mixing
     Exchange-correlation      = BEEF-VDW ( 1  4 27 13 2)
     nstep                     =           50

     celldm(1)=   1.889726  celldm(2)=   0.000000  celldm(3)=   0.000000
     celldm(4)=   0.000000  celldm(5)=   0.000000  celldm(6)=   0.000000

     crystal axes: (cart. coord. in units of alat)
               a(1) = (   5.469609   0.000000   0.000000 )
               a(2) = (  -2.734805   4.967249   0.000000 )
               a(3) = (   0.000000   0.000000  24.565980 )

     reciprocal axes: (cart. coord. in units 2 pi/alat)
               b(1) = (  0.182828  0.100659  0.000000 )
               b(2) = (  0.000000  0.201319  0.000000 )
               b(3) = (  0.000000  0.000000  0.040707 )

     PseudoPot. # 1 for Mo read from file:
     /afs/slac.stanford.edu/u/if/mamunm/psp/gbrv1.5pbe/Mo.UPF
     MD5 check sum: 30c4dcd161f5d35cd49bb5239c51a633
     Pseudo is Ultrasoft + core correction, Zval = 14.0
     Generated by new atomic code, or converted to UPF format
     Using radial grid of  889 points,  6 beta functions with:
                l(1) =   0
                l(2) =   0
                l(3) =   1
                l(4) =   1
                l(5) =   2
                l(6) =   2
     Q(r) pseudized with  6 coefficients,  rinner =    1.000   1.000   1.000
                                                       1.000   1.000

     PseudoPot. # 2 for Pt read from file:
     /afs/slac.stanford.edu/u/if/mamunm/psp/gbrv1.5pbe/Pt.UPF
     MD5 check sum: f09d6de1a584b5a045c4fc126da2d0c4
     Pseudo is Ultrasoft + core correction, Zval = 16.0
     Generated by new atomic code, or converted to UPF format
     Using radial grid of  985 points,  6 beta functions with:
                l(1) =   0
                l(2) =   0
                l(3) =   1
                l(4) =   1
                l(5) =   2
                l(6) =   2
     Q(r) pseudized with  8 coefficients,  rinner =    1.300   1.300   1.300
                                                       1.300   1.300

     vdW kernel table read from file vdW_kernel_table
     MD5 check sum: 095c7af220d748ca6e76c0b4c6cfb241

     atomic species   valence    mass     pseudopotential
        Mo1           14.00    95.95000     Mo( 1.00)
        Pt1           16.00   195.08400     Pt( 1.00)

     No symmetry found

   Cartesian axes

     site n.     atom                  positions (alat units)
         1           Mo1 tau(   1) = (   0.0000000   0.0000000  10.0000000  )
         2           Mo1 tau(   2) = (   2.7348046   0.0000000  10.0000000  )
         3           Pt1 tau(   3) = (   1.3674023   2.4836245  10.0000000  )
         4           Pt1 tau(   4) = (  -1.3674023   2.4836245  10.0000000  )
         5           Mo1 tau(   5) = (   2.7348046   1.5056938  12.2829898  )
         6           Mo1 tau(   6) = (   0.0000000   1.5056938  12.2829898  )
         7           Pt1 tau(   7) = (  -1.3674023   3.9893183  12.2829898  )
         8           Pt1 tau(   8) = (   1.3674023   3.9893183  12.2829898  )
         9           Mo1 tau(   9) = (  -0.0000534   3.1189049  14.4806105  )
        10           Mo1 tau(  10) = (   2.7347475   3.1188857  14.4806087  )
        11           Pt1 tau(  11) = (   4.1022062   0.7306245  14.5279612  )
        12           Pt1 tau(  12) = (   1.3673663   0.7306228  14.5279611  )

     number of k points=    20  Fermi-Dirac smearing, width (Ry)=  0.0110
                       cart. coord. in units 2pi/alat
        k(    1) = (   0.0000000   0.0000000   0.0000000), wk =   0.0555556
        k(    2) = (   0.0000000   0.0335531   0.0000000), wk =   0.1111111
        k(    3) = (   0.0000000   0.0671062   0.0000000), wk =   0.1111111
        k(    4) = (   0.0000000  -0.1006593   0.0000000), wk =   0.0555556
        k(    5) = (   0.0304714   0.0167766   0.0000000), wk =   0.1111111
        k(    6) = (   0.0304714   0.0503297   0.0000000), wk =   0.1111111
        k(    7) = (   0.0304714   0.0838828   0.0000000), wk =   0.1111111
        k(    8) = (   0.0304714  -0.0838828   0.0000000), wk =   0.1111111
        k(    9) = (   0.0304714  -0.0503297   0.0000000), wk =   0.1111111
        k(   10) = (   0.0304714  -0.0167766   0.0000000), wk =   0.1111111
        k(   11) = (   0.0609428   0.0335531   0.0000000), wk =   0.1111111
        k(   12) = (   0.0609428   0.0671062   0.0000000), wk =   0.1111111
        k(   13) = (   0.0609428   0.1006593   0.0000000), wk =   0.1111111
        k(   14) = (   0.0609428  -0.0671062   0.0000000), wk =   0.1111111
        k(   15) = (   0.0609428  -0.0335531   0.0000000), wk =   0.1111111
        k(   16) = (   0.0609428  -0.0000000   0.0000000), wk =   0.1111111
        k(   17) = (  -0.0914142  -0.0503297   0.0000000), wk =   0.0555556
        k(   18) = (  -0.0914142  -0.0167766   0.0000000), wk =   0.1111111
        k(   19) = (  -0.0914142   0.0167766   0.0000000), wk =   0.1111111
        k(   20) = (  -0.0914142  -0.1509890   0.0000000), wk =   0.0555556

     Largest allocated arrays     est. size (Mb)     dimensions
     Largest temporary arrays     est. size (Mb)     dimensions

     Initial potential from superposition of free atoms
     Check: negative starting charge=   -1.099228

     starting charge  176.99355, renormalised to  180.00000

[...]

     *
     * You are using vdW-DF for exchange-correlation in this calculation.
     * Please cite the following three references that made this development
     * possible:
     *
     *   M. Dion, H. Rydberg, E. Schroder, D. C. Langreth, and
     *   B. I. Lundqvist, Phys. Rev. Lett. 92, 246401 (2004).
     *
     *   T. Thonhauser, V. R. Cooper, S. Li, A. Puzder, P. Hyldgaard, and
     *   D. C. Langreth, Phys. Rev. B 76, 125112 (2007).
     *
     *   G. Roman-Perez and J. M. Soler, Phys. Rev. Lett. 103, 096102 (2009).
     *
     *
     * If you are using vdW-DF2, please also cite:
     *
     *   K. Lee, E. D. Murray, L. Kong, B. I. Lundqvist, and
     *   D. C. Langreth, Phys. Rev. B 82, 081101(R) (2010).
     *
     *
     * If you are calculating the stress with vdW-DF, please also cite:
     *
     *   R. Sabatini, E. Kucukbenli, B. Kolb, T. Thonhauser, and
     *   S. de Gironcoli, J. Phys.: Condens. Matter 24, 424209 (2012).
     *

     Carrying out vdW-DF run using the following parameters:

     Nqs =      20    Nr_points =    1024   r_max =   100.000
     q_mesh =
               0.00001000     0.04494208     0.09755937     0.15916263
               0.23128650     0.31572767     0.41458969     0.53033537
               0.66584808     0.82450364     1.01025438     1.22772762
               1.48234092     1.78043706     2.12944203     2.53805004
               3.01644009     3.57652955     4.23227104     5.00000000

     Gradients computed in reciprocal space

[...]

     Starting wfc are  150 randomized atomic wfcs

     Self-consistent Calculation

[...]

     total energy              =   -2113.98135292 Ry
     Harris-Foulkes estimate   =   -2113.98134974 Ry
     estimated scf accuracy    <       0.00000115 Ry

     iteration # 18     ecut=    36.75 Ry     beta=0.10
     Davidson diagonalization with overlap
     ethr =  6.39E-10,  avg # of iterations =  1.9

[...]

     negative rho (up, down):  1.053E+00 0.000E+00

     Adding external electric field

     Computed dipole along edir(3) :
        Dipole                0.0161 Ry au,          0.0410 Debye
        Dipole field          0.0000 Ry au

        Potential amp.       -0.0041 Ry
        Total length         45.2624 bohr

     End of self-consistent calculation

[...]

          k = 0.0609-0.0000 0.0000 ( 16934 PWs)   bands (ev):

[...]

          k =-0.0914-0.1510 0.0000 ( 16958 PWs)   bands (ev):

   -59.3134 -59.3133 -59.1192 -59.1191 -59.0921 -59.0921 -51.3108 -51.3108
   -51.2843 -51.2843 -51.2144 -51.2144 -50.8263 -50.8263 -50.7938 -50.7938
   -50.7204 -50.7204 -50.6685 -50.6685 -50.6657 -50.6657 -50.5392 -50.5392
   -33.5528 -33.5528 -33.3884 -33.3883 -33.3492 -33.3492 -33.2221 -33.2220
   -33.1869 -33.1869 -33.1431 -33.1431 -33.0463 -33.0462 -33.0161 -33.0161
   -32.8965 -32.8964  -4.2050  -4.2050  -3.1520  -3.1520  -2.9176  -2.9176
    -2.7489  -2.7488  -2.6518  -2.6517  -2.4477  -2.4477  -2.1711  -2.1711
    -2.1078  -2.1078  -1.7777  -1.7777  -1.4510  -1.4510  -1.3013  -1.3013
    -1.0112  -1.0111  -0.9685  -0.9684  -0.8734  -0.8734  -0.7748  -0.7748
    -0.5601  -0.5600  -0.1846  -0.1846   0.3843   0.3843   0.7320   0.7320
     1.0231   1.0231   1.1084   1.1084   1.5563   1.5563   1.9002   1.9002
     2.2293   2.2293   2.2696   2.2696   2.3804   2.3805   2.4998   2.4998
     2.6874   2.6874   3.1836   3.1836   3.4313   3.4313   4.0075   4.0076
     4.3247   4.3247   5.0995   5.0995   5.9509   5.9509   6.4685   6.4685
     7.1362   7.1362   8.0503   8.0504   8.1510   8.1510   8.7264   8.7264

     the Fermi energy is     2.2672 ev

!    total energy              =   -2113.98136615 Ry
     Harris-Foulkes estimate   =   -2113.98135320 Ry
     estimated scf accuracy    <       0.00000081 Ry

     The total energy is the sum of the following terms:

     one-electron contribution =  -17766.89255652 Ry
     hartree contribution      =    8896.62916422 Ry
     xc contribution           =    -471.63952802 Ry
     ewald contribution        =    7227.99922639 Ry
     electric field correction =       0.00000073 Ry
     smearing contrib. (-TS)   =      -0.07767295 Ry

     convergence has been achieved in  18 iterations

 BEEF-vdW xc energy contributions
           1 :   -416.291912858880
           2 :    385.936071675043
           3 :   -332.070426786774
           4 :    265.901909687014
           5 :   -199.432915074168
           6 :    142.148571915586
           7 :   -99.0473120600533
           8 :    70.3918867850459
           9 :   -52.9637092855594
          10 :    42.0997340943460
          11 :   -33.6768792095100
          12 :    25.3540926245858
          13 :   -16.8076931372059
          14 :    9.10409494101498
          15 :   -3.66506199226410
          16 :    1.32766644527396
          17 :   -1.88073588328189
          18 :    4.17748087313191
          19 :   -6.67161872793940
          20 :    8.05981726037737
          21 :   -7.73379556639048
          22 :    5.87686740359374
          23 :   -3.23181928815075
          24 :   0.693513833310703
          25 :    1.07400470400830
          26 :   -1.85294229794113
          27 :    1.86523710981282
          28 :   -1.59317859472139
          29 :    1.53174812975976
          30 :   -1.98696775930262
          31 :   -37.3825405360060
          32 :   -28.0149894143700

     Forces acting on atoms (Ry/au):

     negative rho (up, down):  1.053E+00 0.000E+00
     atom    1 type  1   force =    -0.00000406    0.01254543    0.01616717
     atom    2 type  1   force =    -0.00000397    0.01254224    0.01616748
     atom    3 type  2   force =    -0.00000126   -0.03277189    0.00361454
     atom    4 type  2   force =    -0.00000162   -0.03277205    0.00361443
     atom    5 type  1   force =     0.00000146    0.00828587   -0.01813259
     atom    6 type  1   force =     0.00000149    0.00828778   -0.01813114
     atom    7 type  2   force =    -0.00000427    0.01178864   -0.00246006
     atom    8 type  2   force =     0.00000277    0.01178902   -0.00246036
     atom    9 type  1   force =     0.00000129   -0.00016874    0.00020187
     atom   10 type  1   force =     0.00000096   -0.00017187    0.00020278
     atom   11 type  2   force =    -0.00001070    0.00032286    0.00060797
     atom   12 type  2   force =     0.00001792    0.00032271    0.00060791

     Total force =     0.064013     Total SCF correction =     0.003146

     entering subroutine stress ...

     negative rho (up, down):  1.053E+00 0.000E+00
          total   stress  (Ry/bohr**3)                   (kbar)     P=  -19.24
  -0.00011142  -0.00000002   0.00000001        -16.39     -0.00      0.00
  -0.00000002  -0.00023676   0.00003916         -0.00    -34.83      5.76
   0.00000001   0.00003916  -0.00004427          0.00      5.76     -6.51

 !ASE

     Writing output data file calc.save

     General routines

     Parallel routines

   This run was terminated on:  19:30:59  18Dec2018

   JOB DONE.
Job  /afs/slac/g/suncat/bin/suncat-tsmpirun -x LD_LIBRARY_PATH -wdir /scratch/qe530267_no4Y2 pw.x -in pw.inp

TID   HOST_NAME   COMMAND_LINE            STATUS            TERMINATION_TIME
00000 suncat2052 pw.x -in pw.inp   Done                     12/18/2018 19:30:59
00001 suncat2052 pw.x -in pw.inp   Done                     12/18/2018 19:30:59
00002 suncat2052 pw.x -in pw.inp   Done                     12/18/2018 19:30:59
00003 suncat2052 pw.x -in pw.inp   Done                     12/18/2018 19:30:59
00004 suncat2052 pw.x -in pw.inp   Done                     12/18/2018 19:30:59
00005 suncat2052 pw.x -in pw.inp   Done                     12/18/2018 19:30:59
00006 suncat2052 pw.x -in pw.inp   Done                     12/18/2018 19:30:59
00007 suncat2052 pw.x -in pw.inp   Done                     12/18/2018 19:30:59
00008 suncat2052 pw.x -in pw.inp   Done                     12/18/2018 19:30:59
00009 suncat2052 pw.x -in pw.inp   Done                     12/18/2018 19:30:59
00010 suncat2052 pw.x -in pw.inp   Done                     12/18/2018 19:30:59
00011 suncat2052 pw.x -in pw.inp   Done                     12/18/2018 19:30:59
00012 suncat2052 pw.x -in pw.inp   Done                     12/18/2018 19:30:59
00013 suncat2052 pw.x -in pw.inp   Done                     12/18/2018 19:30:59
00014 suncat2052 pw.x -in pw.inp   Done                     12/18/2018 19:30:59
00015 suncat2052 pw.x -in pw.inp   Done                     12/18/2018 19:30:59
00016 suncat2051 pw.x -in pw.inp   Done                     12/18/2018 19:30:59
00017 suncat2051 pw.x -in pw.inp   Done                     12/18/2018 19:30:59
00018 suncat2051 pw.x -in pw.inp   Done                     12/18/2018 19:30:59
00019 suncat2051 pw.x -in pw.inp   Done                     12/18/2018 19:30:59
00020 suncat2051 pw.x -in pw.inp   Done                     12/18/2018 19:30:59
00021 suncat2051 pw.x -in pw.inp   Done                     12/18/2018 19:30:59
00022 suncat2051 pw.x -in pw.inp   Done                     12/18/2018 19:30:59
00023 suncat2051 pw.x -in pw.inp   Done                     12/18/2018 19:30:59
00024 suncat2051 pw.x -in pw.inp   Done                     12/18/2018 19:30:59
00025 suncat2051 pw.x -in pw.inp   Done                     12/18/2018 19:30:59
00026 suncat2051 pw.x -in pw.inp   Done                     12/18/2018 19:30:59
00027 suncat2051 pw.x -in pw.inp   Done                     12/18/2018 19:30:59
00028 suncat2051 pw.x -in pw.inp   Done                     12/18/2018 19:30:59
00029 suncat2051 pw.x -in pw.inp   Done                     12/18/2018 19:30:59
00030 suncat2051 pw.x -in pw.inp   Done                     12/18/2018 19:30:59
00031 suncat2051 pw.x -in pw.inp   Done                     12/18/2018 19:30:59