     Program PWSCF v.5.1rc2 (svn rev. 11289) starts on 25Dec2018 at  5: 0:18

     Current dimensions of program PWSCF are:
     Max number of different atomic species (ntypx) = 10
     Max number of k-points (npk) =  40000
     Max angular momentum in pseudopotentials (lmaxx) =  3
     Presently stress not available with electric field

     IMPORTANT: XC functional enforced from input :
     Exchange-correlation      = BEEF-VDW ( 1  4 27 13 2)
     Any further DFT definition will be discarded
     Please, verify this is what you really want

     Subspace diagonalization in iterative solution of the eigenvalue problem:
     a serial algorithm will be used

     Found symmetry operation: I + ( -0.5000  0.5000  0.0000)
     This is a supercell, fractional translations are disabled

     bravais-lattice index     =            0
     lattice parameter (alat)  =       1.8897  a.u.
     unit-cell volume          =    7116.2514 (a.u.)^3
     number of atoms/cell      =           12
     number of atomic types    =            2
     number of electrons       =       186.00
     number of Kohn-Sham states=          123
     kinetic-energy cutoff     =      36.7493  Ry
     charge density cutoff     =     367.4932  Ry
     convergence threshold     =      1.0E-06
     mixing beta               =       0.1000
     number of iterations used =           10  plain     mixing
     Exchange-correlation      = BEEF-VDW ( 1  4 27 13 2)
     nstep                     =           50

     celldm(1)=   1.889726  celldm(2)=   0.000000  celldm(3)=   0.000000
     celldm(4)=   0.000000  celldm(5)=   0.000000  celldm(6)=   0.000000

     crystal axes: (cart. coord. in units of alat)
               a(1) = (   6.617337   0.000000   0.000000 )
               a(2) = (   2.071313   6.284808   0.000000 )
               a(3) = (   0.000000   0.000000  25.355922 )

     reciprocal axes: (cart. coord. in units 2 pi/alat)
               b(1) = (  0.151118 -0.049805  0.000000 )
               b(2) = (  0.000000  0.159114  0.000000 )
               b(3) = (  0.000000  0.000000  0.039439 )

     PseudoPot. # 1 for Zn read from file:
     /afs/slac.stanford.edu/u/if/mamunm/psp/gbrv1.5pbe/Zn.UPF
     MD5 check sum: df62231357ef9e81f77b2b3087fa5675
     Pseudo is Ultrasoft, Zval = 20.0
     Generated by new atomic code, or converted to UPF format
     Using radial grid of  943 points,  6 beta functions with:
                l(1) =   0
                l(2) =   0
                l(3) =   1
                l(4) =   1
                l(5) =   2
                l(6) =   2
     Q(r) pseudized with  8 coefficients,  rinner =    1.100   1.100   1.100
                                                       1.100   1.100

     PseudoPot. # 2 for La read from file:
     /afs/slac.stanford.edu/u/if/mamunm/psp/gbrv1.5pbe/La.UPF
     MD5 check sum: 5937b0c7494ba0601a847275249473aa
     Pseudo is Ultrasoft + core correction, Zval = 11.0
     Generated by new atomic code, or converted to UPF format
     Using radial grid of  995 points,  8 beta functions with:
                l(1) =   0
                l(2) =   0
                l(3) =   1
                l(4) =   1
                l(5) =   2
                l(6) =   2
                l(7) =   3
                l(8) =   3
     Q(r) pseudized with  8 coefficients,  rinner =    1.700   1.700   1.700
                                                       1.700   1.700   1.700
                                                       1.700

     vdW kernel table read from file vdW_kernel_table
     MD5 check sum: 095c7af220d748ca6e76c0b4c6cfb241

     atomic species   valence    mass     pseudopotential
        Zn1           20.00    65.38000     Zn( 1.00)
        La1           11.00   138.90547     La( 1.00)

     No symmetry found

   Cartesian axes

     site n.     atom                  positions (alat units)
         1           Zn1 tau(   1) = (   0.0000000   0.0000000  10.0000000  )
         2           Zn1 tau(   2) = (   4.3443253   3.1424040  10.0000000  )
         3           La1 tau(   3) = (   3.3086686   0.0000000  10.0000000  )
         4           La1 tau(   4) = (   1.0356567   3.1424040  10.0000000  )
         5           Zn1 tau(   5) = (   6.6173372   4.7865539  12.6779608  )
         6           Zn1 tau(   6) = (   2.2730119   1.6441498  12.6779608  )
         7           La1 tau(   7) = (   3.3086686   4.7865539  12.6779608  )
         8           La1 tau(   8) = (   5.5816805   1.6441498  12.6779608  )
         9           Zn1 tau(   9) = (   4.5460238   3.2882997  15.3559217  )
        10           Zn1 tau(  10) = (   0.2016985   0.1458957  15.3559217  )
        11           La1 tau(  11) = (   1.2373552   3.2882997  15.3559217  )
        12           La1 tau(  12) = (   3.5103671   0.1458957  15.3559217  )

     number of k points=    20  Fermi-Dirac smearing, width (Ry)=  0.0110
                       cart. coord. in units 2pi/alat
        k(    1) = (   0.0000000   0.0000000   0.0000000), wk =   0.0555556
        k(    2) = (   0.0000000   0.0265190   0.0000000), wk =   0.1111111
        k(    3) = (   0.0000000   0.0530379   0.0000000), wk =   0.1111111
        k(    4) = (   0.0000000  -0.0795569   0.0000000), wk =   0.0555556
        k(    5) = (   0.0251864  -0.0083008   0.0000000), wk =   0.1111111
        k(    6) = (   0.0251864   0.0182182   0.0000000), wk =   0.1111111
        k(    7) = (   0.0251864   0.0447372   0.0000000), wk =   0.1111111
        k(    8) = (   0.0251864  -0.0878577   0.0000000), wk =   0.1111111
        k(    9) = (   0.0251864  -0.0613387   0.0000000), wk =   0.1111111
        k(   10) = (   0.0251864  -0.0348198   0.0000000), wk =   0.1111111
        k(   11) = (   0.0503727  -0.0166016   0.0000000), wk =   0.1111111
        k(   12) = (   0.0503727   0.0099174   0.0000000), wk =   0.1111111
        k(   13) = (   0.0503727   0.0364364   0.0000000), wk =   0.1111111
        k(   14) = (   0.0503727  -0.0961585   0.0000000), wk =   0.1111111
        k(   15) = (   0.0503727  -0.0696395   0.0000000), wk =   0.1111111
        k(   16) = (   0.0503727  -0.0431205   0.0000000), wk =   0.1111111
        k(   17) = (  -0.0755591   0.0249024   0.0000000), wk =   0.0555556
        k(   18) = (  -0.0755591   0.0514213   0.0000000), wk =   0.1111111
        k(   19) = (  -0.0755591   0.0779403   0.0000000), wk =   0.1111111
        k(   20) = (  -0.0755591  -0.0546546   0.0000000), wk =   0.0555556

     Largest allocated arrays     est. size (Mb)     dimensions
     Largest temporary arrays     est. size (Mb)     dimensions

     Initial potential from superposition of free atoms
     Check: negative starting charge=   -0.424831

     starting charge  185.80674, renormalised to  186.00000

     negative rho (up, down):  4.253E-01 0.000E+00

     *
     * You are using vdW-DF for exchange-correlation in this calculation.
     * Please cite the following three references that made this development
     * possible:
     *
     *   M. Dion, H. Rydberg, E. Schroder, D. C. Langreth, and
     *   B. I. Lundqvist, Phys. Rev. Lett. 92, 246401 (2004).
     *
     *   T. Thonhauser, V. R. Cooper, S. Li, A. Puzder, P. Hyldgaard, and
     *   D. C. Langreth, Phys. Rev. B 76, 125112 (2007).
     *
     *   G. Roman-Perez and J. M. Soler, Phys. Rev. Lett. 103, 096102 (2009).
     *
     *
     * If you are using vdW-DF2, please also cite:
     *
     *   K. Lee, E. D. Murray, L. Kong, B. I. Lundqvist, and
     *   D. C. Langreth, Phys. Rev. B 82, 081101(R) (2010).
     *
     *
     * If you are calculating the stress with vdW-DF, please also cite:
     *
     *   R. Sabatini, E. Kucukbenli, B. Kolb, T. Thonhauser, and
     *   S. de Gironcoli, J. Phys.: Condens. Matter 24, 424209 (2012).
     *

     Carrying out vdW-DF run using the following parameters:

     Nqs =      20    Nr_points =    1024   r_max =   100.000
     q_mesh =
               0.00001000     0.04494208     0.09755937     0.15916263
               0.23128650     0.31572767     0.41458969     0.53033537
               0.66584808     0.82450364     1.01025438     1.22772762
               1.48234092     1.78043706     2.12944203     2.53805004
               3.01644009     3.57652955     4.23227104     5.00000000

     Gradients computed in reciprocal space

     Adding external electric field

     Computed dipole along edir(3) :
        Dipole               -0.0000 Ry au,         -0.0000 Debye
        Dipole field         -0.0000 Ry au

        Potential amp.        0.0000 Ry
        Total length         46.7179 bohr

     Starting wfc are  198 randomized atomic wfcs

     Self-consistent Calculation

     iteration #  1     ecut=    36.75 Ry     beta=0.10
     Davidson diagonalization with overlap
     ethr =  1.00E-02,  avg # of iterations =  1.9

[...]

     total energy              =   -3400.54861048 Ry
     Harris-Foulkes estimate   =   -3401.42274635 Ry
     estimated scf accuracy    <       4.83640630 Ry

[...]

     iteration #  5     ecut=    36.75 Ry     beta=0.10
     Davidson diagonalization with overlap
     c_bands:  1 eigenvalues not converged
     ethr =  4.74E-05,  avg # of iterations = 11.2

[...]

     End of self-consistent calculation

          k = 0.0000 0.0000 0.0000 ( 26705 PWs)   bands (ev):

  -125.0166-125.0166-125.0165-125.0165-124.8988-124.8988 -79.1923 -79.1923
   -79.1922 -79.1921 -79.1892 -79.1891 -79.1891 -79.1891 -79.1883 -79.1882
   -79.1881 -79.1880 -79.0864 -79.0862 -79.0647 -79.0645 -79.0608 -79.0608
   -32.3980 -32.3942 -32.3536 -32.3535 -31.9671 -31.9279 -16.1524 -16.1485
   -16.1389 -16.1107 -16.0535 -16.0241 -16.0189 -15.9772 -15.9552 -15.9095
   -15.8427 -15.6341 -15.6278 -15.5429 -15.4749 -15.4303 -15.3936 -15.2892
    -5.9516  -5.9491  -5.9458  -5.9334  -5.9251  -5.9210  -5.9204  -5.9175
    -5.9159  -5.9118  -5.9080  -5.9049  -5.9040  -5.8819  -5.8808  -5.8799
    -5.8783  -5.8577  -5.8530  -5.8308  -5.8251  -5.8199  -5.8042  -5.7918
    -5.7842  -5.7829  -5.7534  -5.7482  -5.7311  -5.6824  -4.2254  -3.2376
    -2.6950  -2.6813  -2.5326  -2.2940   0.5467   0.6806   0.6991   0.7425
     0.7488   0.9592   1.0722   1.4590   1.5036   1.5943   1.6651   1.7597
     1.9394   1.9415   1.9697   2.0535   2.0690   2.1815   2.2176   2.2433
     2.3304   2.3457   2.4015   2.4222   2.4243   2.4418   2.4660   2.4725
     2.4762   2.4848   2.5102   2.5153   2.5428   2.5576   2.5629   2.5637
     2.5659   2.5989   2.6070

[...]

          k =-0.0756 0.0249 0.0000 ( 26758 PWs)   bands (ev):

[...]

     the Fermi energy is     1.2223 ev

!    total energy              =   -3400.95042125 Ry
     Harris-Foulkes estimate   =   -3400.95044174 Ry
     estimated scf accuracy    <       0.00000042 Ry

     The total energy is the sum of the following terms:

     one-electron contribution =  -14111.03531722 Ry
     hartree contribution      =    7053.24161024 Ry
     xc contribution           =    -564.29855959 Ry
     ewald contribution        =    4221.21988818 Ry
     electric field correction =       0.00000000 Ry
     smearing contrib. (-TS)   =      -0.07804286 Ry

     convergence has been achieved in  17 iterations

 BEEF-vdW xc energy contributions
[...]
     Generated by new atomic code, or converted to UPF format
     Using radial grid of  943 points,  6 beta functions with:
                l(1) =   0
                l(2) =   0
                l(3) =   1
                l(4) =   1
                l(5) =   2
                l(6) =   2
     Q(r) pseudized with  8 coefficients,  rinner =    1.100   1.100   1.100
                                                       1.100   1.100

     PseudoPot. # 2 for La read from file:
     /afs/slac.stanford.edu/u/if/mamunm/psp/gbrv1.5pbe/La.UPF
     MD5 check sum: 5937b0c7494ba0601a847275249473aa
     Pseudo is Ultrasoft + core correction, Zval = 11.0
     Generated by new atomic code, or converted to UPF format
     Using radial grid of  995 points,  8 beta functions with:
                l(1) =   0
                l(2) =   0
                l(3) =   1
                l(4) =   1
                l(5) =   2
                l(6) =   2
                l(7) =   3
                l(8) =   3
     Q(r) pseudized with  8 coefficients,  rinner =    1.700   1.700   1.700
                                                       1.700   1.700   1.700
                                                       1.700

     vdW kernel table read from file vdW_kernel_table
     MD5 check sum: 095c7af220d748ca6e76c0b4c6cfb241

     atomic species   valence    mass     pseudopotential
        Zn1           20.00    65.38000     Zn( 1.00)
        La1           11.00   138.90547     La( 1.00)

     No symmetry found

   Cartesian axes

     site n.     atom                  positions (alat units)
         1           Zn1 tau(   1) = (   0.0000000   0.0000000  10.0000000  )
         2           Zn1 tau(   2) = (   4.3443253   3.1424040  10.0000000  )
         3           La1 tau(   3) = (   3.3086686   0.0000000  10.0000000  )
         4           La1 tau(   4) = (   1.0356567   3.1424040  10.0000000  )
         5           Zn1 tau(   5) = (   6.6173372   4.7865539  12.6779608  )
         6           Zn1 tau(   6) = (   2.2730119   1.6441498  12.6779608  )
         7           La1 tau(   7) = (   3.3086686   4.7865539  12.6779608  )
         8           La1 tau(   8) = (   5.5816805   1.6441498  12.6779608  )
         9           Zn1 tau(   9) = (   4.4564179   3.2235607  15.2156283  )
        10           Zn1 tau(  10) = (   0.1121346   0.0810451  15.2156407  )
        11           La1 tau(  11) = (   1.1410988   3.2186544  15.2392531  )
        12           La1 tau(  12) = (   3.4141817   0.0763079  15.2392358  )

     number of k points=    20  Fermi-Dirac smearing, width (Ry)=  0.0110
                       cart. coord. in units 2pi/alat
        k(    1) = (   0.0000000   0.0000000   0.0000000), wk =   0.0555556
        k(    2) = (   0.0000000   0.0265190   0.0000000), wk =   0.1111111
        k(    3) = (   0.0000000   0.0530379   0.0000000), wk =   0.1111111
        k(    4) = (   0.0000000  -0.0795569   0.0000000), wk =   0.0555556
        k(    5) = (   0.0251864  -0.0083008   0.0000000), wk =   0.1111111
        k(    6) = (   0.0251864   0.0182182   0.0000000), wk =   0.1111111
        k(    7) = (   0.0251864   0.0447372   0.0000000), wk =   0.1111111
        k(    8) = (   0.0251864  -0.0878577   0.0000000), wk =   0.1111111
        k(    9) = (   0.0251864  -0.0613387   0.0000000), wk =   0.1111111
        k(   10) = (   0.0251864  -0.0348198   0.0000000), wk =   0.1111111
        k(   11) = (   0.0503727  -0.0166016   0.0000000), wk =   0.1111111
        k(   12) = (   0.0503727   0.0099174   0.0000000), wk =   0.1111111
        k(   13) = (   0.0503727   0.0364364   0.0000000), wk =   0.1111111
        k(   14) = (   0.0503727  -0.0961585   0.0000000), wk =   0.1111111
        k(   15) = (   0.0503727  -0.0696395   0.0000000), wk =   0.1111111
        k(   16) = (   0.0503727  -0.0431205   0.0000000), wk =   0.1111111
        k(   17) = (  -0.0755591   0.0249024   0.0000000), wk =   0.0555556
        k(   18) = (  -0.0755591   0.0514213   0.0000000), wk =   0.1111111
        k(   19) = (  -0.0755591   0.0779403   0.0000000), wk =   0.1111111
        k(   20) = (  -0.0755591  -0.0546546   0.0000000), wk =   0.0555556

     Largest allocated arrays     est. size (Mb)     dimensions
     Largest temporary arrays     est. size (Mb)     dimensions

     Initial potential from superposition of free atoms
     Check: negative starting charge=   -0.424607

     starting charge  185.80674, renormalised to  186.00000

[...]

     *
     * You are using vdW-DF for exchange-correlation in this calculation.
     * Please cite the following three references that made this development
     * possible:
     *
     *   M. Dion, H. Rydberg, E. Schroder, D. C. Langreth, and
     *   B. I. Lundqvist, Phys. Rev. Lett. 92, 246401 (2004).
     *
     *   T. Thonhauser, V. R. Cooper, S. Li, A. Puzder, P. Hyldgaard, and
     *   D. C. Langreth, Phys. Rev. B 76, 125112 (2007).
     *
     *   G. Roman-Perez and J. M. Soler, Phys. Rev. Lett. 103, 096102 (2009).
     *
     *
     * If you are using vdW-DF2, please also cite:
     *
     *   K. Lee, E. D. Murray, L. Kong, B. I. Lundqvist, and
     *   D. C. Langreth, Phys. Rev. B 82, 081101(R) (2010).
     *
     *
     * If you are calculating the stress with vdW-DF, please also cite:
     *
     *   R. Sabatini, E. Kucukbenli, B. Kolb, T. Thonhauser, and
     *   S. de Gironcoli, J. Phys.: Condens. Matter 24, 424209 (2012).
     *

     Carrying out vdW-DF run using the following parameters:

     Nqs =      20    Nr_points =    1024   r_max =   100.000
     q_mesh =
               0.00001000     0.04494208     0.09755937     0.15916263
               0.23128650     0.31572767     0.41458969     0.53033537
               0.66584808     0.82450364     1.01025438     1.22772762
               1.48234092     1.78043706     2.12944203     2.53805004
               3.01644009     3.57652955     4.23227104     5.00000000

     Gradients computed in reciprocal space

[...]

     Starting wfc are  198 randomized atomic wfcs

     Self-consistent Calculation

[...]

     total energy              =   -3400.95481648 Ry
     Harris-Foulkes estimate   =   -3400.95481990 Ry
     estimated scf accuracy    <       0.00000107 Ry

     iteration # 19     ecut=    36.75 Ry     beta=0.10
     Davidson diagonalization with overlap
     ethr =  5.77E-10,  avg # of iterations =  3.5

[...]

     negative rho (up, down):  2.930E-01 0.000E+00

     Adding external electric field

     Computed dipole along edir(3) :
        Dipole                0.0163 Ry au,          0.0415 Debye
        Dipole field          0.0000 Ry au

        Potential amp.       -0.0027 Ry
        Total length         46.7179 bohr

     End of self-consistent calculation

[...]

          k = 0.0504-0.0431 0.0000 ( 26786 PWs)   bands (ev):

[...]

          k =-0.0756-0.0547 0.0000 ( 26802 PWs)   bands (ev):

  -125.0508-125.0508-125.0022-125.0022-124.9011-124.9011 -79.2298 -79.2297
   -79.2206 -79.2206 -79.2205 -79.2204 -79.1771 -79.1771 -79.1749 -79.1747
   -79.1746 -79.1745 -79.0845 -79.0844 -79.0671 -79.0669 -79.0662 -79.0662
   -32.3755 -32.3468 -32.3372 -32.3090 -31.9074 -31.8612 -16.1745 -16.1569
   -16.1314 -16.1167 -16.0380 -16.0080 -15.9699 -15.9653 -15.9463 -15.8697
   -15.7865 -15.6084 -15.5926 -15.4212 -15.4194 -15.4015 -15.3594 -15.2448
    -5.9633  -5.9390  -5.9313  -5.9223  -5.9212  -5.9184  -5.9150  -5.9144
    -5.9130  -5.9079  -5.8750  -5.8722  -5.8709  -5.8698  -5.8649  -5.8648
    -5.8641  -5.8575  -5.8507  -5.8110  -5.7993  -5.7860  -5.7774  -5.7748
    -5.7700  -5.7689  -5.7612  -5.7562  -5.7302  -5.6921  -2.9250  -2.7418
    -2.3308  -2.1698  -2.1247  -1.0268  -0.8753  -0.7172  -0.4538  -0.3270
    -0.3220   0.2152   0.2425   0.3552   0.4485   1.2518   1.3691   1.4216
     1.6425   1.7086   2.0538   2.0615   2.1931   2.2455   2.2556   2.2924
     2.3902   2.3927   2.4247   2.4302   2.4583   2.4678   2.4768   2.4843
     2.5153   2.5228   2.5263   2.5297   2.5450   2.5874   2.5914   2.5928
     2.6269   2.6336   2.6436

     the Fermi energy is     1.2308 ev

!    total energy              =   -3400.95480337 Ry
     Harris-Foulkes estimate   =   -3400.95481643 Ry
     estimated scf accuracy    <       0.00000018 Ry

     The total energy is the sum of the following terms:

     one-electron contribution =  -14330.36005497 Ry
     hartree contribution      =    7162.97561352 Ry
     xc contribution           =    -564.39187119 Ry
     ewald contribution        =    4330.89615040 Ry
     electric field correction =       0.00000047 Ry
     smearing contrib. (-TS)   =      -0.07464159 Ry

     convergence has been achieved in  19 iterations

 BEEF-vdW xc energy contributions
           1 :   -500.779810202303
           2 :    457.335122527199
           3 :   -382.507731590899
           4 :    295.125434625059
           5 :   -213.296318611773
           6 :    148.520602111620
           7 :   -103.771389470905
           8 :    75.4898708652892
           9 :   -57.5903900882272
          10 :    45.0279683597865
          11 :   -35.2978032996676
          12 :    27.7579344716494
          13 :   -22.0057243083093
          14 :    16.8537692435259
          15 :   -10.6614204352005
          16 :    2.55122561598114
          17 :    6.64644432177442
          18 :   -14.6062175560988
          19 :    18.8344922563863
          20 :   -18.2320537318450
          21 :    13.8359215091667
          22 :   -8.25679619450466
          23 :    4.20776060081528
          24 :   -3.09682097716598
          25 :    4.53638826212580
          26 :   -6.94983463169569
          27 :    8.73153691710684
          28 :   -9.14978365444404
          29 :    8.48440382038905
          30 :   -7.48870889281409
          31 :   -40.6893974000047
          32 :   -28.4694030998176

     Forces acting on atoms (Ry/au):

     negative rho (up, down):  2.930E-01 0.000E+00
     atom    1 type  1   force =     0.00022824    0.00016346    0.00606445
     atom    2 type  1   force =     0.00022069    0.00016599    0.00606174
     atom    3 type  2   force =     0.00288183    0.00208331    0.00711444
     atom    4 type  2   force =     0.00288164    0.00208346    0.00711209
     atom    5 type  1   force =    -0.00001528   -0.00001419   -0.00546696
     atom    6 type  1   force =    -0.00001976   -0.00000985   -0.00546634
     atom    7 type  2   force =    -0.00238316   -0.00172401   -0.00897910
     atom    8 type  2   force =    -0.00238308   -0.00172412   -0.00897707
     atom    9 type  1   force =    -0.00096047   -0.00069661    0.00077185
     atom   10 type  1   force =    -0.00095678   -0.00069477    0.00077402
     atom   11 type  2   force =     0.00025477    0.00018397    0.00049393
     atom   12 type  2   force =     0.00025135    0.00018337    0.00049695

     Total force =     0.021051     Total SCF correction =     0.001772

     entering subroutine stress ...

     negative rho (up, down):  2.930E-01 0.000E+00
          total   stress  (Ry/bohr**3)                   (kbar)     P=   -8.07
  -0.00006789  -0.00000586  -0.00000537         -9.99     -0.86     -0.79
  -0.00000586  -0.00006403  -0.00000389         -0.86     -9.42     -0.57
  -0.00000537  -0.00000389  -0.00003260         -0.79     -0.57     -4.80

 !ASE

     Writing output data file calc.save

     General routines

     Parallel routines

   This run was terminated on:   8:47:53  26Dec2018

   JOB DONE.
Job  /afs/slac/g/suncat/bin/suncat-tsmpirun -x LD_LIBRARY_PATH -wdir /scratch/qe109220_VudEr pw.x -in pw.inp

TID   HOST_NAME   COMMAND_LINE            STATUS            TERMINATION_TIME
00000 suncat0040 pw.x -in pw.inp   Done                     12/26/2018 08:47:53
00001 suncat0040 pw.x -in pw.inp   Done                     12/26/2018 08:47:53
00002 suncat0040 pw.x -in pw.inp   Done                     12/26/2018 08:47:53
00003 suncat0040 pw.x -in pw.inp   Done                     12/26/2018 08:47:53
00004 suncat0040 pw.x -in pw.inp   Done                     12/26/2018 08:47:53
00005 suncat0040 pw.x -in pw.inp   Done                     12/26/2018 08:47:53
00006 suncat0040 pw.x -in pw.inp   Done                     12/26/2018 08:47:53
00007 suncat0040 pw.x -in pw.inp   Done                     12/26/2018 08:47:53
00008 suncat0179 pw.x -in pw.inp   Done                     12/26/2018 08:47:53
00009 suncat0179 pw.x -in pw.inp   Done                     12/26/2018 08:47:53
00010 suncat0179 pw.x -in pw.inp   Done                     12/26/2018 08:47:53
00011 suncat0179 pw.x -in pw.inp   Done                     12/26/2018 08:47:53
00012 suncat0179 pw.x -in pw.inp   Done                     12/26/2018 08:47:53
00013 suncat0179 pw.x -in pw.inp   Done                     12/26/2018 08:47:53
00014 suncat0179 pw.x -in pw.inp   Done                     12/26/2018 08:47:53
00015 suncat0179 pw.x -in pw.inp   Done                     12/26/2018 08:47:53
00016 suncat0147 pw.x -in pw.inp   Done                     12/26/2018 08:47:53
00017 suncat0147 pw.x -in pw.inp   Done                     12/26/2018 08:47:53
00018 suncat0147 pw.x -in pw.inp   Done                     12/26/2018 08:47:53
00019 suncat0147 pw.x -in pw.inp   Done                     12/26/2018 08:47:53
00020 suncat0147 pw.x -in pw.inp   Done                     12/26/2018 08:47:53
00021 suncat0147 pw.x -in pw.inp   Done                     12/26/2018 08:47:53
00022 suncat0147 pw.x -in pw.inp   Done                     12/26/2018 08:47:53
00023 suncat0147 pw.x -in pw.inp   Done                     12/26/2018 08:47:53
00024 suncat0146 pw.x -in pw.inp   Done                     12/26/2018 08:47:53
00025 suncat0146 pw.x -in pw.inp   Done                     12/26/2018 08:47:53
00026 suncat0146 pw.x -in pw.inp   Done                     12/26/2018 08:47:53
00027 suncat0146 pw.x -in pw.inp   Done                     12/26/2018 08:47:53
00028 suncat0146 pw.x -in pw.inp   Done                     12/26/2018 08:47:53
00029 suncat0146 pw.x -in pw.inp   Done                     12/26/2018 08:47:53
00030 suncat0146 pw.x -in pw.inp   Done                     12/26/2018 08:47:53
00031 suncat0146 pw.x -in pw.inp   Done                     12/26/2018 08:47:53
00032 suncat0272 pw.x -in pw.inp   Done                     12/26/2018 08:47:53
00033 suncat0272 pw.x -in pw.inp   Done                     12/26/2018 08:47:53
00034 suncat0272 pw.x -in pw.inp   Done                     12/26/2018 08:47:53
00035 suncat0272 pw.x -in pw.inp   Done                     12/26/2018 08:47:53
00036 suncat0272 pw.x -in pw.inp   Done                     12/26/2018 08:47:53
00037 suncat0272 pw.x -in pw.inp   Done                     12/26/2018 08:47:53
00038 suncat0272 pw.x -in pw.inp   Done                     12/26/2018 08:47:53
00039 suncat0272 pw.x -in pw.inp   Done                     12/26/2018 08:47:53
00040 suncat0271 pw.x -in pw.inp   Done                     12/26/2018 08:47:53
00041 suncat0271 pw.x -in pw.inp   Done                     12/26/2018 08:47:53
00042 suncat0271 pw.x -in pw.inp   Done                     12/26/2018 08:47:53
00043 suncat0271 pw.x -in pw.inp   Done                     12/26/2018 08:47:53
00044 suncat0271 pw.x -in pw.inp   Done                     12/26/2018 08:47:53
00045 suncat0271 pw.x -in pw.inp   Done                     12/26/2018 08:47:53
00046 suncat0271 pw.x -in pw.inp   Done                     12/26/2018 08:47:53
00047 suncat0271 pw.x -in pw.inp   Done                     12/26/2018 08:47:53
00048 suncat0260 pw.x -in pw.inp   Done                     12/26/2018 08:47:53
00049 suncat0260 pw.x -in pw.inp   Done                     12/26/2018 08:47:53
00050 suncat0260 pw.x -in pw.inp   Done                     12/26/2018 08:47:53
00051 suncat0260 pw.x -in pw.inp   Done                     12/26/2018 08:47:53
00052 suncat0260 pw.x -in pw.inp   Done                     12/26/2018 08:47:53
00053 suncat0260 pw.x -in pw.inp   Done                     12/26/2018 08:47:53
00054 suncat0260 pw.x -in pw.inp   Done                     12/26/2018 08:47:53
00055 suncat0260 pw.x -in pw.inp   Done                     12/26/2018 08:47:53
00056 suncat0259 pw.x -in pw.inp   Done                     12/26/2018 08:47:53
00057 suncat0259 pw.x -in pw.inp   Done                     12/26/2018 08:47:53
00058 suncat0259 pw.x -in pw.inp   Done                     12/26/2018 08:47:53
00059 suncat0259 pw.x -in pw.inp   Done                     12/26/2018 08:47:53
00060 suncat0259 pw.x -in pw.inp   Done                     12/26/2018 08:47:53
00061 suncat0259 pw.x -in pw.inp   Done                     12/26/2018 08:47:53
00062 suncat0259 pw.x -in pw.inp   Done                     12/26/2018 08:47:53
00063 suncat0259 pw.x -in pw.inp   Done                     12/26/2018 08:47:53