     Program PWSCF v.5.1rc2 (svn rev. 11289) starts on 18Dec2018 at 20: 6: 7

     Current dimensions of program PWSCF are:
     Max number of different atomic species (ntypx) = 10
     Max number of k-points (npk) =  40000
     Max angular momentum in pseudopotentials (lmaxx) =  3
     Presently stress not available with electric field

     IMPORTANT: XC functional enforced from input :
     Exchange-correlation      = BEEF-VDW ( 1  4 27 13 2)
     Any further DFT definition will be discarded
     Please, verify this is what you really want

     Subspace diagonalization in iterative solution of the eigenvalue problem:
     a serial algorithm will be used

     Found symmetry operation: I + (  0.5000  0.0000  0.0000)
     This is a supercell, fractional translations are disabled

     bravais-lattice index     =            0
     lattice parameter (alat)  =       1.8897  a.u.
     unit-cell volume          =    4726.4754 (a.u.)^3
     number of atoms/cell      =           12
     number of atomic types    =            2
     number of electrons       =       174.00
     number of Kohn-Sham states=          117
     kinetic-energy cutoff     =      36.7493  Ry
     charge density cutoff     =     367.4932  Ry
     convergence threshold     =      1.0E-06
     mixing beta               =       0.1000
     number of iterations used =           10  plain     mixing
     Exchange-correlation      = BEEF-VDW ( 1  4 27 13 2)
     nstep                     =           50

     celldm(1)=   1.889726  celldm(2)=   0.000000  celldm(3)=   0.000000
     celldm(4)=   0.000000  celldm(5)=   0.000000  celldm(6)=   0.000000

     crystal axes: (cart. coord. in units of alat)
               a(1) = (   5.651872   0.000000   0.000000 )
               a(2) = (  -2.825936   5.022690   0.000000 )
               a(3) = (   0.000000   0.000000  24.672437 )

     reciprocal axes: (cart. coord. in units 2 pi/alat)
               b(1) = (  0.176933  0.099548  0.000000 )
               b(2) = (  0.000000  0.199096  0.000000 )
               b(3) = (  0.000000  0.000000  0.040531 )

     PseudoPot. # 1 for Nb read from file:
     /afs/slac.stanford.edu/u/if/mamunm/psp/gbrv1.5pbe/Nb.UPF
     MD5 check sum: 573aab8a2fa660278ed4a62cd769473f
     Pseudo is Ultrasoft + core correction, Zval = 13.0
     Generated by new atomic code, or converted to UPF format
     Using radial grid of  887 points,  6 beta functions with:
                l(1) =   0
                l(2) =   0
                l(3) =   1
                l(4) =   1
                l(5) =   2
                l(6) =   2
     Q(r) pseudized with  6 coefficients,  rinner =    1.000   1.000   1.000
                                                       1.000   1.000

     PseudoPot. # 2 for Pd read from file:
     /afs/slac.stanford.edu/u/if/mamunm/psp/gbrv1.5pbe/Pd.UPF
     MD5 check sum: 2d733d2bc2cbfd217af676df1668a4bc
     Pseudo is Ultrasoft + core correction, Zval = 16.0
     Generated by new atomic code, or converted to UPF format
     Using radial grid of  887 points,  6 beta functions with:
                l(1) =   0
                l(2) =   0
                l(3) =   1
                l(4) =   1
                l(5) =   2
                l(6) =   2
     Q(r) pseudized with  8 coefficients,  rinner =    1.130   1.130   1.130
                                                       1.130   1.130

     vdW kernel table read from file vdW_kernel_table
     MD5 check sum: 095c7af220d748ca6e76c0b4c6cfb241

     atomic species   valence    mass     pseudopotential
        Nb1           13.00    92.90637     Nb( 1.00)
        Pd1           16.00   106.42000     Pd( 1.00)

     No symmetry found

   Cartesian axes

     site n.     atom                  positions (alat units)
         1           Nb1 tau(   1) = (   0.0000000   0.0000000  10.0000000  )
         2           Nb1 tau(   2) = (   2.8259361   0.0000000  10.0000000  )
         3           Pd1 tau(   3) = (   1.4129680   2.5113452  10.0000000  )
         4           Pd1 tau(   4) = (  -1.4129680   2.5113452  10.0000000  )
         5           Nb1 tau(   5) = (   2.8259361   1.5899675  12.3362187  )
         6           Nb1 tau(   6) = (   0.0000000   1.5899675  12.3362187  )
         7           Pd1 tau(   7) = (  -1.4129680   4.1013128  12.3362187  )
         8           Pd1 tau(   8) = (   1.4129680   4.1013128  12.3362187  )
         9           Nb1 tau(   9) = (   0.0000000   3.1799351  14.6724375  )
        10           Nb1 tau(  10) = (   2.8259361   3.1799351  14.6724375  )
        11           Pd1 tau(  11) = (   4.2389041   0.6685899  14.6724375  )
        12           Pd1 tau(  12) = (   1.4129680   0.6685899  14.6724375  )

     number of k points=    20  Fermi-Dirac smearing, width (Ry)=  0.0110
                       cart. coord. in units 2pi/alat
        k(    1) = (   0.0000000   0.0000000   0.0000000), wk =   0.0555556
        k(    2) = (   0.0000000   0.0331827   0.0000000), wk =   0.1111111
        k(    3) = (   0.0000000   0.0663655   0.0000000), wk =   0.1111111
        k(    4) = (   0.0000000  -0.0995482   0.0000000), wk =   0.0555556
        k(    5) = (   0.0294888   0.0165914   0.0000000), wk =   0.1111111
        k(    6) = (   0.0294888   0.0497741   0.0000000), wk =   0.1111111
        k(    7) = (   0.0294888   0.0829569   0.0000000), wk =   0.1111111
        k(    8) = (   0.0294888  -0.0829569   0.0000000), wk =   0.1111111
        k(    9) = (   0.0294888  -0.0497741   0.0000000), wk =   0.1111111
        k(   10) = (   0.0294888  -0.0165914   0.0000000), wk =   0.1111111
        k(   11) = (   0.0589775   0.0331827   0.0000000), wk =   0.1111111
        k(   12) = (   0.0589775   0.0663655   0.0000000), wk =   0.1111111
        k(   13) = (   0.0589775   0.0995482   0.0000000), wk =   0.1111111
        k(   14) = (   0.0589775  -0.0663655   0.0000000), wk =   0.1111111
        k(   15) = (   0.0589775  -0.0331827   0.0000000), wk =   0.1111111
        k(   16) = (   0.0589775   0.0000000   0.0000000), wk =   0.1111111
        k(   17) = (  -0.0884663  -0.0497741   0.0000000), wk =   0.0555556
        k(   18) = (  -0.0884663  -0.0165914   0.0000000), wk =   0.1111111
        k(   19) = (  -0.0884663   0.0165914   0.0000000), wk =   0.1111111
        k(   20) = (  -0.0884663  -0.1493224   0.0000000), wk =   0.0555556

     Largest allocated arrays     est. size (Mb)     dimensions
     Largest temporary arrays     est. size (Mb)     dimensions

     Initial potential from superposition of free atoms
     Check: negative starting charge=   -0.455142

     starting charge  170.98356, renormalised to  174.00000

     negative rho (up, down):  4.632E-01 0.000E+00

     *
     * You are using vdW-DF for exchange-correlation in this calculation.
     * Please cite the following three references that made this development
     * possible:
     *
     *   M. Dion, H. Rydberg, E. Schroder, D. C. Langreth, and
     *   B. I. Lundqvist, Phys. Rev. Lett. 92, 246401 (2004).
     *
     *   T. Thonhauser, V. R. Cooper, S. Li, A. Puzder, P. Hyldgaard, and
     *   D. C. Langreth, Phys. Rev. B 76, 125112 (2007).
     *
     *   G. Roman-Perez and J. M. Soler, Phys. Rev. Lett. 103, 096102 (2009).
     *
     *
     * If you are using vdW-DF2, please also cite:
     *
     *   K. Lee, E. D. Murray, L. Kong, B. I. Lundqvist, and
     *   D. C. Langreth, Phys. Rev. B 82, 081101(R) (2010).
     *
     *
     * If you are calculating the stress with vdW-DF, please also cite:
     *
     *   R. Sabatini, E. Kucukbenli, B. Kolb, T. Thonhauser, and
     *   S. de Gironcoli, J. Phys.: Condens. Matter 24, 424209 (2012).
     *

     Carrying out vdW-DF run using the following parameters:

     Nqs =      20    Nr_points =    1024   r_max =   100.000
     q_mesh =
               0.00001000     0.04494208     0.09755937     0.15916263
               0.23128650     0.31572767     0.41458969     0.53033537
               0.66584808     0.82450364     1.01025438     1.22772762
               1.48234092     1.78043706     2.12944203     2.53805004
               3.01644009     3.57652955     4.23227104     5.00000000

     Gradients computed in reciprocal space

     Adding external electric field

     Computed dipole along edir(3) :
        Dipole               -0.0000 Ry au,         -0.0000 Debye
        Dipole field         -0.0000 Ry au

        Potential amp.        0.0000 Ry
        Total length         45.4585 bohr

     Starting wfc are  150 randomized atomic wfcs

     Self-consistent Calculation

     iteration #  1     ecut=    36.75 Ry     beta=0.10
     Davidson diagonalization with overlap
     ethr =  1.00E-02,  avg # of iterations =  6.8

[...]

     total energy              =   -1910.05728697 Ry
     Harris-Foulkes estimate   =   -1911.61395938 Ry
     estimated scf accuracy    <       9.64575277 Ry

[...]

     End of self-consistent calculation

          k = 0.0000 0.0000 0.0000 ( 17809 PWs)   bands (ev):

   -53.5453 -53.5371 -53.4318 -53.4240 -53.3524 -53.2373 -48.8589 -48.8440
   -48.8431 -48.7673 -48.7522 -48.6864 -48.5659 -48.5638 -48.5506 -48.5482
   -48.4898 -48.4894 -48.3624 -48.3566 -48.3486 -48.3421 -48.3325 -48.3325
   -29.8891 -29.8485 -29.8037 -29.7971 -29.6810 -29.6422 -29.6149 -29.5551
   -29.5310 -29.5105 -29.4466 -29.4412 -29.3253 -29.0546 -28.9563 -28.9217
   -28.8997 -28.8557  -4.2518  -2.9978  -2.9905  -2.9862  -2.9171  -2.8513
    -2.7695  -2.6711  -2.6166  -2.5058  -2.5044  -2.4887  -2.3806  -2.2654
    -2.1565  -1.5478  -1.4209  -1.3467  -1.2657  -1.1766  -0.9901  -0.7969
    -0.7020  -0.6893  -0.6151  -0.5480  -0.3237  -0.3096  -0.2630   0.2267
     0.4012   0.4224   0.5449   0.5699   0.9027   0.9794   1.1025   1.3793
     1.4065   1.7622   1.7891   1.8087   1.8540   2.0325   2.4137   2.6044
     2.6691   2.6723   2.8434   3.0130   3.1829   3.3608   3.7930   3.9014
     4.0193   4.1510   4.1969   4.2660   4.4839   4.5933   5.0141   5.0339
     5.1142   5.1222   5.1819   5.5969   5.6450   5.7213   5.7423   5.9997
     6.0002   6.1676   6.2251   6.4594   6.5627

[...]

          k =-0.0885-0.0498 0.0000 ( 17760 PWs)   bands (ev):

[...]

     the Fermi energy is     1.8958 ev

!    total energy              =   -1910.02311188 Ry
     Harris-Foulkes estimate   =   -1910.02310635 Ry
     estimated scf accuracy    <       0.00000043 Ry

     The total energy is the sum of the following terms:

     one-electron contribution =  -15814.55120525 Ry
     hartree contribution      =    7927.30665784 Ry
     xc contribution           =    -309.11361129 Ry
     ewald contribution        =    6286.41002858 Ry
     electric field correction =       0.00000000 Ry
     smearing contrib. (-TS)   =      -0.07498176 Ry

     convergence has been achieved in  16 iterations

 BEEF-vdW xc energy contributions
           1 :   -267.774673324549
           2 :    244.572288557810
           3 :   -204.792059073296
           4 :    158.873124453758
           5 :   -117.096816487714
           6 :    86.1922921072300
           7 :   -67.8426215960137
           8 :    59.3411418569900
           9 :   -55.7578264432645
          10 :    52.4422455430888
[...]
00031 suncat2055 pw.x -in pw.inp   Done                     12/18/2018 20:10:52

     Program PWSCF v.5.1rc2 (svn rev. 11289) starts on 18Dec2018 at 20:10:58

[...]

     Program PWSCF v.5.1rc2 (svn rev. 11289) starts on 18Dec2018 at 20:16: 4

[...]

   This run was terminated on:  20:21: 4  18Dec2018

[...]

     Program PWSCF v.5.1rc2 (svn rev. 11289) starts on 18Dec2018 at 20:21: 9

[...]

   This run was terminated on:  20:26: 9  18Dec2018

[...]

     Program PWSCF v.5.1rc2 (svn rev. 11289) starts on 18Dec2018 at 20:36:39

     Current dimensions of program PWSCF are:
     Max number of different atomic species (ntypx) = 10
     Max number of k-points (npk) =  40000
     Max angular momentum in pseudopotentials (lmaxx) =  3
     Presently stress not available with electric field

     IMPORTANT: XC functional enforced from input :
     Exchange-correlation      = BEEF-VDW ( 1  4 27 13 2)
     Any further DFT definition will be discarded
     Please, verify this is what you really want

     Subspace diagonalization in iterative solution of the eigenvalue problem:
     a serial algorithm will be used

     Found symmetry operation: I + (  0.5000  0.0000  0.0000)
     This is a supercell, fractional translations are disabled

     bravais-lattice index     =            0
     lattice parameter (alat)  =       1.8897  a.u.
     unit-cell volume          =    4726.4754 (a.u.)^3
     number of atoms/cell      =           12
     number of atomic types    =            2
     number of electrons       =       174.00
     number of Kohn-Sham states=          117
     kinetic-energy cutoff     =      36.7493  Ry
     charge density cutoff     =     367.4932  Ry
     convergence threshold     =      1.0E-06
     mixing beta               =       0.1000
     number of iterations used =           10  plain     mixing
     Exchange-correlation      = BEEF-VDW ( 1  4 27 13 2)
     nstep                     =           50

     celldm(1)=   1.889726  celldm(2)=   0.000000  celldm(3)=   0.000000
     celldm(4)=   0.000000  celldm(5)=   0.000000  celldm(6)=   0.000000

     crystal axes: (cart. coord. in units of alat)
               a(1) = (   5.651872   0.000000   0.000000 )
               a(2) = (  -2.825936   5.022690   0.000000 )
               a(3) = (   0.000000   0.000000  24.672437 )

     reciprocal axes: (cart. coord. in units 2 pi/alat)
               b(1) = (  0.176933  0.099548  0.000000 )
               b(2) = (  0.000000  0.199096  0.000000 )
               b(3) = (  0.000000  0.000000  0.040531 )

     PseudoPot. # 1 for Nb read from file:
     /afs/slac.stanford.edu/u/if/mamunm/psp/gbrv1.5pbe/Nb.UPF
     MD5 check sum: 573aab8a2fa660278ed4a62cd769473f
     Pseudo is Ultrasoft + core correction, Zval = 13.0
     Generated by new atomic code, or converted to UPF format
     Using radial grid of  887 points,  6 beta functions with:
                l(1) =   0
                l(2) =   0
                l(3) =   1
                l(4) =   1
                l(5) =   2
                l(6) =   2
     Q(r) pseudized with  6 coefficients,  rinner =    1.000   1.000   1.000
                                                       1.000   1.000

     PseudoPot. # 2 for Pd read from file:
     /afs/slac.stanford.edu/u/if/mamunm/psp/gbrv1.5pbe/Pd.UPF
     MD5 check sum: 2d733d2bc2cbfd217af676df1668a4bc
     Pseudo is Ultrasoft + core correction, Zval = 16.0
     Generated by new atomic code, or converted to UPF format
     Using radial grid of  887 points,  6 beta functions with:
                l(1) =   0
                l(2) =   0
                l(3) =   1
                l(4) =   1
                l(5) =   2
                l(6) =   2
     Q(r) pseudized with  8 coefficients,  rinner =    1.130   1.130   1.130
                                                       1.130   1.130

     vdW kernel table read from file vdW_kernel_table
     MD5 check sum: 095c7af220d748ca6e76c0b4c6cfb241

     atomic species   valence    mass     pseudopotential
        Nb1           13.00    92.90637     Nb( 1.00)
        Pd1           16.00   106.42000     Pd( 1.00)

     No symmetry found

   Cartesian axes

     site n.     atom                  positions (alat units)
         1           Nb1 tau(   1) = (   0.0000000   0.0000000  10.0000000  )
         2           Nb1 tau(   2) = (   2.8259361   0.0000000  10.0000000  )
         3           Pd1 tau(   3) = (   1.4129680   2.5113452  10.0000000  )
         4           Pd1 tau(   4) = (  -1.4129680   2.5113452  10.0000000  )
         5           Nb1 tau(   5) = (   2.8259361   1.5899675  12.3362187  )
         6           Nb1 tau(   6) = (   0.0000000   1.5899675  12.3362187  )
         7           Pd1 tau(   7) = (  -1.4129680   4.1013128  12.3362187  )
         8           Pd1 tau(   8) = (   1.4129680   4.1013128  12.3362187  )
         9           Nb1 tau(   9) = (   0.0000020   3.2318289  14.5385216  )
        10           Nb1 tau(  10) = (   2.8259371   3.2318346  14.5385233  )
        11           Pd1 tau(  11) = (   4.2389040   0.7710525  14.6599191  )
        12           Pd1 tau(  12) = (   1.4129655   0.7710526  14.6599210  )

     number of k points=    20  Fermi-Dirac smearing, width (Ry)=  0.0110
                       cart. coord. in units 2pi/alat
        k(    1) = (   0.0000000   0.0000000   0.0000000), wk =   0.0555556
        k(    2) = (   0.0000000   0.0331827   0.0000000), wk =   0.1111111
        k(    3) = (   0.0000000   0.0663655   0.0000000), wk =   0.1111111
        k(    4) = (   0.0000000  -0.0995482   0.0000000), wk =   0.0555556
        k(    5) = (   0.0294888   0.0165914   0.0000000), wk =   0.1111111
        k(    6) = (   0.0294888   0.0497741   0.0000000), wk =   0.1111111
        k(    7) = (   0.0294888   0.0829569   0.0000000), wk =   0.1111111
        k(    8) = (   0.0294888  -0.0829569   0.0000000), wk =   0.1111111
        k(    9) = (   0.0294888  -0.0497741   0.0000000), wk =   0.1111111
        k(   10) = (   0.0294888  -0.0165914   0.0000000), wk =   0.1111111
        k(   11) = (   0.0589775   0.0331827   0.0000000), wk =   0.1111111
        k(   12) = (   0.0589775   0.0663655   0.0000000), wk =   0.1111111
        k(   13) = (   0.0589775   0.0995482   0.0000000), wk =   0.1111111
        k(   14) = (   0.0589775  -0.0663655   0.0000000), wk =   0.1111111
        k(   15) = (   0.0589775  -0.0331827   0.0000000), wk =   0.1111111
        k(   16) = (   0.0589775   0.0000000   0.0000000), wk =   0.1111111
        k(   17) = (  -0.0884663  -0.0497741   0.0000000), wk =   0.0555556
        k(   18) = (  -0.0884663  -0.0165914   0.0000000), wk =   0.1111111
        k(   19) = (  -0.0884663   0.0165914   0.0000000), wk =   0.1111111
        k(   20) = (  -0.0884663  -0.1493224   0.0000000), wk =   0.0555556

     Largest allocated arrays     est. size (Mb)     dimensions
     Largest temporary arrays     est. size (Mb)     dimensions

     Initial potential from superposition of free atoms
     Check: negative starting charge=   -0.453755

     starting charge  170.98356, renormalised to  174.00000

[...]

     *
     * You are using vdW-DF for exchange-correlation in this calculation.
     * Please cite the following three references that made this development
     * possible:
     *
     *   M. Dion, H. Rydberg, E. Schroder, D. C. Langreth, and
     *   B. I. Lundqvist, Phys. Rev. Lett. 92, 246401 (2004).
     *
     *   T. Thonhauser, V. R. Cooper, S. Li, A. Puzder, P. Hyldgaard, and
     *   D. C. Langreth, Phys. Rev. B 76, 125112 (2007).
     *
     *   G. Roman-Perez and J. M. Soler, Phys. Rev. Lett. 103, 096102 (2009).
     *
     *
     * If you are using vdW-DF2, please also cite:
     *
     *   K. Lee, E. D. Murray, L. Kong, B. I. Lundqvist, and
     *   D. C. Langreth, Phys. Rev. B 82, 081101(R) (2010).
     *
     *
     * If you are calculating the stress with vdW-DF, please also cite:
     *
     *   R. Sabatini, E. Kucukbenli, B. Kolb, T. Thonhauser, and
     *   S. de Gironcoli, J. Phys.: Condens. Matter 24, 424209 (2012).
     *

     Carrying out vdW-DF run using the following parameters:

     Nqs =      20    Nr_points =    1024   r_max =   100.000
     q_mesh =
               0.00001000     0.04494208     0.09755937     0.15916263
               0.23128650     0.31572767     0.41458969     0.53033537
               0.66584808     0.82450364     1.01025438     1.22772762
               1.48234092     1.78043706     2.12944203     2.53805004
               3.01644009     3.57652955     4.23227104     5.00000000

     Gradients computed in reciprocal space

[...]

     Starting wfc are  150 randomized atomic wfcs

     Self-consistent Calculation

[...]

     total energy              =   -1910.03298287 Ry
     Harris-Foulkes estimate   =   -1910.03298052 Ry
     estimated scf accuracy    <       0.00000170 Ry

     iteration # 17     ecut=    36.75 Ry     beta=0.10
     Davidson diagonalization with overlap
     ethr =  9.79E-10,  avg # of iterations =  2.5

[...]

     negative rho (up, down):  4.787E-01 0.000E+00

     Adding external electric field

     Computed dipole along edir(3) :
        Dipole               -0.0036 Ry au,         -0.0091 Debye
        Dipole field         -0.0000 Ry au

        Potential amp.        0.0009 Ry
        Total length         45.4585 bohr

     End of self-consistent calculation

[...]

          k = 0.0590 0.0000 0.0000 ( 17838 PWs)   bands (ev):

[...]

          k =-0.0885-0.1493 0.0000 ( 17760 PWs)   bands (ev):

   -53.5133 -53.5133 -53.4489 -53.4489 -53.2788 -53.2788 -49.0017 -49.0017
   -48.9079 -48.9079 -48.8777 -48.8777 -48.5782 -48.5782 -48.5683 -48.5683
   -48.4436 -48.4436 -48.4247 -48.4247 -48.3879 -48.3879 -48.3633 -48.3633
   -29.7899 -29.7899 -29.6042 -29.6042 -29.5565 -29.5565 -29.5062 -29.5061
   -29.4335 -29.4334 -29.3942 -29.3942 -29.3700 -29.3700 -29.3314 -29.3314
   -28.9592 -28.9592  -2.8848  -2.8848  -2.4428  -2.4428  -2.3333  -2.3333
    -2.1052  -2.1052  -2.0126  -2.0126  -1.9361  -1.9361  -1.7229  -1.7229
    -1.6254  -1.6254  -1.3266  -1.3266  -1.1665  -1.1665  -1.0560  -1.0560
    -0.8963  -0.8963  -0.8148  -0.8148  -0.7126  -0.7126  -0.6570  -0.6570
    -0.4712  -0.4712  -0.3173  -0.3173   0.5852   0.5852   0.9920   0.9920
     1.0575   1.0575   1.3961   1.3961   1.6204   1.6204   2.1525   2.1525
     2.3019   2.3019   2.5155   2.5155   2.7315   2.7315   2.7705   2.7705
     2.9291   2.9291   3.1044   3.1044   4.0490   4.0490   4.3257   4.3257
     4.5279   4.5279   5.1285   5.1285   6.0146   6.0146   6.3952   6.3952
     6.6526   6.6526   7.2897   7.2898   7.8561

     the Fermi energy is     1.8811 ev

!    total energy              =   -1910.03298773 Ry
     Harris-Foulkes estimate   =   -1910.03298314 Ry
     estimated scf accuracy    <       0.00000035 Ry

     The total energy is the sum of the following terms:

     one-electron contribution =  -15963.73807585 Ry
     hartree contribution      =    8001.72249623 Ry
     xc contribution           =    -309.25736396 Ry
     ewald contribution        =    6361.31216500 Ry
     electric field correction =       0.00000003 Ry
     smearing contrib. (-TS)   =      -0.07220919 Ry

     convergence has been achieved in  17 iterations

 BEEF-vdW xc energy contributions
           1 :   -267.922296895258
           2 :    244.775205962107
           3 :   -205.065963052551
           4 :    159.176478460269
           5 :   -117.347332823256
           6 :    86.3111395907987
           7 :   -67.8014423120082
           8 :    59.1833150305310
           9 :   -55.5799632906659
          10 :    52.3453099270121
          11 :   -46.8355133354204
          12 :    38.8976171495560
          13 :   -30.1647462853326
          14 :    22.7249414211316
          15 :   -17.9095995925456
          16 :    15.7336822465161
          17 :   -15.1250395356601
          18 :    14.6634616789812
          19 :   -13.3627998812554
          20 :    11.0869767305890
          21 :   -8.45846051159867
          22 :    6.39227836328359
          23 :   -5.55934198237293
          24 :    6.05768395735828
          25 :   -7.42393948124140
          26 :    8.92149781801879
          27 :   -9.92113586518110
          28 :    10.1698754088366
          29 :   -9.83389742333816
          30 :    9.32616359958820
          31 :   -27.8016711586989
          32 :   -20.7940756189796

     Forces acting on atoms (Ry/au):

     negative rho (up, down):  4.787E-01 0.000E+00
     atom    1 type  1   force =     0.00000001    0.00847591    0.02557951
     atom    2 type  1   force =     0.00000003    0.00847603    0.02557952
     atom    3 type  2   force =    -0.00000043   -0.01542246   -0.00210316
     atom    4 type  2   force =     0.00000050   -0.01542280   -0.00210319
     atom    5 type  1   force =    -0.00000014    0.00144461   -0.01276930
     atom    6 type  1   force =    -0.00000002    0.00144416   -0.01277021
     atom    7 type  2   force =     0.00000042    0.00535886   -0.01272413
     atom    8 type  2   force =    -0.00000019    0.00535882   -0.01272433
     atom    9 type  1   force =    -0.00000042   -0.00056143    0.00094583
     atom   10 type  1   force =    -0.00000020   -0.00056256    0.00094556
     atom   11 type  2   force =    -0.00000095    0.00070548    0.00107212
     atom   12 type  2   force =     0.00000138    0.00070539    0.00107177

     Total force =     0.051518     Total SCF correction =     0.002645

     entering subroutine stress ...

     negative rho (up, down):  4.787E-01 0.000E+00
          total   stress  (Ry/bohr**3)                   (kbar)     P=  -11.59
  -0.00005944  -0.00000000   0.00000000         -8.74     -0.00      0.00
  -0.00000000  -0.00012840   0.00001356         -0.00    -18.89      1.99
   0.00000000   0.00001356  -0.00004853          0.00      1.99     -7.14

 !ASE

     Writing output data file calc.save

     General routines

     Parallel routines

   This run was terminated on:  20:41:37  18Dec2018

   JOB DONE.
Job  /afs/slac/g/suncat/bin/suncat-tsmpirun -x LD_LIBRARY_PATH -wdir /scratch/qe530303_44ASn pw.x -in pw.inp

TID   HOST_NAME   COMMAND_LINE            STATUS            TERMINATION_TIME
00000 suncat2056 pw.x -in pw.inp   Done                     12/18/2018 20:41:37
00001 suncat2056 pw.x -in pw.inp   Done                     12/18/2018 20:41:37
00002 suncat2056 pw.x -in pw.inp   Done                     12/18/2018 20:41:37
00003 suncat2056 pw.x -in pw.inp   Done                     12/18/2018 20:41:37
00004 suncat2056 pw.x -in pw.inp   Done                     12/18/2018 20:41:37
00005 suncat2056 pw.x -in pw.inp   Done                     12/18/2018 20:41:37
00006 suncat2056 pw.x -in pw.inp   Done                     12/18/2018 20:41:37
00007 suncat2056 pw.x -in pw.inp   Done                     12/18/2018 20:41:37
00008 suncat2056 pw.x -in pw.inp   Done                     12/18/2018 20:41:37
00009 suncat2056 pw.x -in pw.inp   Done                     12/18/2018 20:41:37
00010 suncat2056 pw.x -in pw.inp   Done                     12/18/2018 20:41:37
00011 suncat2056 pw.x -in pw.inp   Done                     12/18/2018 20:41:37
00012 suncat2056 pw.x -in pw.inp   Done                     12/18/2018 20:41:37
00013 suncat2056 pw.x -in pw.inp   Done                     12/18/2018 20:41:37
00014 suncat2056 pw.x -in pw.inp   Done                     12/18/2018 20:41:37
00015 suncat2056 pw.x -in pw.inp   Done                     12/18/2018 20:41:37
00016 suncat2055 pw.x -in pw.inp   Done                     12/18/2018 20:41:37
00017 suncat2055 pw.x -in pw.inp   Done                     12/18/2018 20:41:37
00018 suncat2055 pw.x -in pw.inp   Done                     12/18/2018 20:41:37
00019 suncat2055 pw.x -in pw.inp   Done                     12/18/2018 20:41:37
00020 suncat2055 pw.x -in pw.inp   Done                     12/18/2018 20:41:37
00021 suncat2055 pw.x -in pw.inp   Done                     12/18/2018 20:41:37
00022 suncat2055 pw.x -in pw.inp   Done                     12/18/2018 20:41:37
00023 suncat2055 pw.x -in pw.inp   Done                     12/18/2018 20:41:37
00024 suncat2055 pw.x -in pw.inp   Done                     12/18/2018 20:41:37
00025 suncat2055 pw.x -in pw.inp   Done                     12/18/2018 20:41:37
00026 suncat2055 pw.x -in pw.inp   Done                     12/18/2018 20:41:37
00027 suncat2055 pw.x -in pw.inp   Done                     12/18/2018 20:41:37
00028 suncat2055 pw.x -in pw.inp   Done                     12/18/2018 20:41:37
00029 suncat2055 pw.x -in pw.inp   Done                     12/18/2018 20:41:37
00030 suncat2055 pw.x -in pw.inp   Done                     12/18/2018 20:41:37
00031 suncat2055 pw.x -in pw.inp   Done                     12/18/2018 20:41:37