     Program PWSCF v.5.1rc2 (svn rev. 11289) starts on 19Dec2018 at  2:14: 4

     Current dimensions of program PWSCF are:
     Max number of different atomic species (ntypx) = 10
     Max number of k-points (npk) =  40000
     Max angular momentum in pseudopotentials (lmaxx) =  3
     Presently stress not available with electric field

     IMPORTANT: XC functional enforced from input :
     Exchange-correlation      = BEEF-VDW ( 1  4 27 13 2)
     Any further DFT definition will be discarded
     Please, verify this is what you really want

     Subspace diagonalization in iterative solution of the eigenvalue problem:
     a serial algorithm will be used

     Found symmetry operation: I + (  0.5000  0.0000  0.0000)
     This is a supercell, fractional translations are disabled

     bravais-lattice index     =            0
     lattice parameter (alat)  =       1.8897  a.u.
     unit-cell volume          =    4682.4176 (a.u.)^3
     number of atoms/cell      =           12
     number of atomic types    =            2
     number of electrons       =       156.00
     number of Kohn-Sham states=          108
     kinetic-energy cutoff     =      36.7493  Ry
     charge density cutoff     =     367.4932  Ry
     convergence threshold     =      1.0E-06
     mixing beta               =       0.1000
     number of iterations used =           10  plain     mixing
     Exchange-correlation      = BEEF-VDW ( 1  4 27 13 2)
     nstep                     =           50

     celldm(1)=   1.889726  celldm(2)=   0.000000  celldm(3)=   0.000000
     celldm(4)=   0.000000  celldm(5)=   0.000000  celldm(6)=   0.000000

     crystal axes: (cart. coord. in units of alat)
               a(1) = (   5.452973   0.000000   0.000000 )
               a(2) = (  -2.726487   5.165911   0.000000 )
               a(3) = (   0.000000   0.000000  24.631638 )

     reciprocal axes: (cart. coord. in units 2 pi/alat)
               b(1) = (  0.183386  0.096788  0.000000 )
               b(2) = (  0.000000  0.193577  0.000000 )
               b(3) = (  0.000000  0.000000  0.040598 )

     PseudoPot. # 1 for Re read from file:
     /afs/slac.stanford.edu/u/if/mamunm/psp/gbrv1.5pbe/Re.UPF
     MD5 check sum: 85f993410f3e006da9d71c142b4ad953
     Pseudo is Ultrasoft + core correction, Zval = 15.0
     Generated by new atomic code, or converted to UPF format
     Using radial grid of  981 points,  8 beta functions with:
                l(1) =   0
                l(2) =   0
                l(3) =   1
                l(4) =   1
                l(5) =   2
                l(6) =   2
                l(7) =   3
                l(8) =   3
     Q(r) pseudized with  8 coefficients,  rinner =    1.150   1.150   1.150
                                                       1.150   1.150   1.150
                                                       1.150

     PseudoPot. # 2 for Au read from file:
     /afs/slac.stanford.edu/u/if/mamunm/psp/gbrv1.5pbe/Au.UPF
     MD5 check sum: 9d7f43293ad2c663164586bc4b293ffc
     Pseudo is Ultrasoft + core correction, Zval = 11.0
     Generated by new atomic code, or converted to UPF format
     Using radial grid of  985 points,  7 beta functions with:
                l(1) =   0
                l(2) =   0
                l(3) =   1
                l(4) =   1
                l(5) =   2
                l(6) =   2
                l(7) =   3
     Q(r) pseudized with  6 coefficients,  rinner =    1.900   1.900   1.900
                                                       1.900   1.900   1.900
                                                       1.900

     vdW kernel table read from file vdW_kernel_table
     MD5 check sum: 095c7af220d748ca6e76c0b4c6cfb241

     atomic species   valence    mass     pseudopotential
        Re1           15.00   186.20700     Re( 1.00)
        Au1           11.00   196.96657     Au( 1.00)

     No symmetry found

   Cartesian axes

     site n.     atom                  positions (alat units)
         1           Re1 tau(   1) = (   0.0000000   0.0000000  10.0000000  )
         2           Re1 tau(   2) = (   2.7264866   0.0000000  10.0000000  )
         3           Au1 tau(   3) = (   1.3632433   2.5829553  10.0000000  )
         4           Au1 tau(   4) = (  -1.3632433   2.5829553  10.0000000  )
         5           Re1 tau(   5) = (   2.7264866   1.4389969  12.3158189  )
         6           Re1 tau(   6) = (   0.0000000   1.4389969  12.3158189  )
         7           Au1 tau(   7) = (  -1.3632433   4.0219522  12.3158189  )
         8           Au1 tau(   8) = (   1.3632433   4.0219522  12.3158189  )
         9           Re1 tau(   9) = (   0.0000000   2.8779938  14.6316378  )
        10           Re1 tau(  10) = (   2.7264866   2.8779938  14.6316378  )
        11           Au1 tau(  11) = (   4.0897300   0.2950386  14.6316378  )
        12           Au1 tau(  12) = (   1.3632433   0.2950386  14.6316378  )

     number of k points=    20  Fermi-Dirac smearing, width (Ry)=  0.0110
                       cart. coord. in units 2pi/alat
        k(    1) = (   0.0000000   0.0000000   0.0000000), wk =   0.0555556
        k(    2) = (   0.0000000   0.0322628   0.0000000), wk =   0.1111111
        k(    3) = (   0.0000000   0.0645256   0.0000000), wk =   0.1111111
        k(    4) = (   0.0000000  -0.0967884   0.0000000), wk =   0.0555556
        k(    5) = (   0.0305644   0.0161314   0.0000000), wk =   0.1111111
        k(    6) = (   0.0305644   0.0483942   0.0000000), wk =   0.1111111
        k(    7) = (   0.0305644   0.0806570   0.0000000), wk =   0.1111111
        k(    8) = (   0.0305644  -0.0806570   0.0000000), wk =   0.1111111
        k(    9) = (   0.0305644  -0.0483942   0.0000000), wk =   0.1111111
        k(   10) = (   0.0305644  -0.0161314   0.0000000), wk =   0.1111111
        k(   11) = (   0.0611287   0.0322628   0.0000000), wk =   0.1111111
        k(   12) = (   0.0611287   0.0645256   0.0000000), wk =   0.1111111
        k(   13) = (   0.0611287   0.0967884   0.0000000), wk =   0.1111111
        k(   14) = (   0.0611287  -0.0645256   0.0000000), wk =   0.1111111
        k(   15) = (   0.0611287  -0.0322628   0.0000000), wk =   0.1111111
        k(   16) = (   0.0611287   0.0000000   0.0000000), wk =   0.1111111
        k(   17) = (  -0.0916931  -0.0483942   0.0000000), wk =   0.0555556
        k(   18) = (  -0.0916931  -0.0161314   0.0000000), wk =   0.1111111
        k(   19) = (  -0.0916931   0.0161314   0.0000000), wk =   0.1111111
        k(   20) = (  -0.0916931  -0.1451825   0.0000000), wk =   0.0555556

     Largest allocated arrays     est. size (Mb)     dimensions
     Largest temporary arrays     est. size (Mb)     dimensions

     Check: negative/imaginary core charge=   -0.000001    0.000000

     Initial potential from superposition of free atoms
     Check: negative starting charge=   -0.779818

     starting charge  152.99900, renormalised to  156.00000

     negative rho (up, down):  7.951E-01 0.000E+00

     *
     * You are using vdW-DF for exchange-correlation in this calculation.
     * Please cite the following three references that made this development
     * possible:
     *
     *   M. Dion, H. Rydberg, E. Schroder, D. C. Langreth, and
     *   B. I. Lundqvist, Phys. Rev. Lett. 92, 246401 (2004).
     *
     *   T. Thonhauser, V. R. Cooper, S. Li, A. Puzder, P. Hyldgaard, and
     *   D. C. Langreth, Phys. Rev. B 76, 125112 (2007).
     *
     *   G. Roman-Perez and J. M. Soler, Phys. Rev. Lett. 103, 096102 (2009).
     *
     *
     * If you are using vdW-DF2, please also cite:
     *
     *   K. Lee, E. D. Murray, L. Kong, B. I. Lundqvist, and
     *   D. C. Langreth, Phys. Rev. B 82, 081101(R) (2010).
     *
     *
     * If you are calculating the stress with vdW-DF, please also cite:
     *
     *   R. Sabatini, E. Kucukbenli, B. Kolb, T. Thonhauser, and
     *   S. de Gironcoli, J. Phys.: Condens. Matter 24, 424209 (2012).
     *

     Carrying out vdW-DF run using the following parameters:

     Nqs =      20    Nr_points =    1024   r_max =   100.000
     q_mesh =
               0.00001000     0.04494208     0.09755937     0.15916263
               0.23128650     0.31572767     0.41458969     0.53033537
               0.66584808     0.82450364     1.01025438     1.22772762
               1.48234092     1.78043706     2.12944203     2.53805004
               3.01644009     3.57652955     4.23227104     5.00000000

     Gradients computed in reciprocal space

     Adding external electric field

     Computed dipole along edir(3) :
        Dipole                0.0000 Ry au,          0.0000 Debye
        Dipole field          0.0000 Ry au

        Potential amp.       -0.0000 Ry
        Total length         45.3834 bohr

     Starting wfc are  132 randomized atomic wfcs

     Self-consistent Calculation

     iteration #  1     ecut=    36.75 Ry     beta=0.10
     Davidson diagonalization with overlap
     ethr =  1.00E-02,  avg # of iterations =  9.2

[...]

     total energy              =   -1851.85001031 Ry
     Harris-Foulkes estimate   =   -1853.75954577 Ry
     estimated scf accuracy    <      10.75969282 Ry

[...]

     End of self-consistent calculation

          k = 0.0000 0.0000 0.0000 ( 17611 PWs)   bands (ev):

   -79.4384 -79.3974 -78.9670 -78.9664 -78.9258 -78.9253 -41.3581 -41.2112
   -41.1688 -41.1377 -41.0985 -40.9407 -40.9383 -40.7110 -40.7074 -40.7008
   -40.6419 -40.6385 -40.5881 -40.5193 -40.4963 -40.4334 -40.2858 -40.2846
    -7.6972  -5.9386  -5.6863  -5.5711  -5.4918  -5.3641  -5.1958  -5.1302
    -4.9119  -4.7270  -4.7019  -4.6838  -4.6292  -4.5196  -3.9762  -3.8107
    -3.7685  -3.5611  -3.3103  -3.0155  -2.9104  -2.8988  -2.6396  -2.5793
    -2.4675  -2.2773  -2.2481  -2.0074  -1.9020  -1.9015  -1.6935  -1.6598
    -1.4839  -1.2006  -0.9193  -0.8094  -0.6626  -0.6102  -0.5595  -0.5399
    -0.0777   0.0883   0.2540   0.5848   0.8094   0.9399   0.9400   0.9763
     1.3165   1.3611   1.7133   1.8010   1.9935   2.2068   2.2699   2.4620
     2.5636   2.6051   2.6062   2.9379   3.0104   3.1316   3.1716   3.3633
     3.4250   3.4396   3.9209   3.9320   4.1474   4.2792   4.4138   5.1758
     5.6094   5.9628   6.2143   6.4993   6.5044   6.6413   6.8282   6.9816
     7.5388   7.6726   8.0811   8.6020

[...]

          k =-0.0917-0.0484 0.0000 ( 17654 PWs)   bands (ev):

[...]

     the Fermi energy is     1.5357 ev

!    total energy              =   -1852.55813321 Ry
     Harris-Foulkes estimate   =   -1852.55813160 Ry
     estimated scf accuracy    <       0.00000091 Ry

     The total energy is the sum of the following terms:

     one-electron contribution =  -12586.83586090 Ry
     hartree contribution      =    6330.39244446 Ry
     xc contribution           =    -708.07620585 Ry
     ewald contribution        =    5112.03135567 Ry
     electric field correction =       0.00000010 Ry
     smearing contrib. (-TS)   =      -0.06986670 Ry

     convergence has been achieved in  17 iterations

 BEEF-vdW xc energy contributions
           1 :   -631.591721046100
           2 :    587.378296993210
           3 :   -507.937978422766
           4 :    408.258291384141
[...]
     ethr =  5.20E-06,  avg # of iterations =  5.0

[...]

   This run was terminated on:   5: 1:53  19Dec2018

[...]

     Program PWSCF v.5.1rc2 (svn rev. 11289) starts on 19Dec2018 at  5: 1:58

[...]

     Program PWSCF v.5.1rc2 (svn rev. 11289) starts on 19Dec2018 at  5:45: 8

[...]

   This run was terminated on:   6:42: 4  19Dec2018

[...]

     Program PWSCF v.5.1rc2 (svn rev. 11289) starts on 19Dec2018 at  7:24:29

     Current dimensions of program PWSCF are:
     Max number of different atomic species (ntypx) = 10
     Max number of k-points (npk) =  40000
     Max angular momentum in pseudopotentials (lmaxx) =  3
     Presently stress not available with electric field

     IMPORTANT: XC functional enforced from input :
     Exchange-correlation      = BEEF-VDW ( 1  4 27 13 2)
     Any further DFT definition will be discarded
     Please, verify this is what you really want

     Subspace diagonalization in iterative solution of the eigenvalue problem:
     a serial algorithm will be used

     bravais-lattice index     =            0
     lattice parameter (alat)  =       1.8897  a.u.
     unit-cell volume          =    4682.4176 (a.u.)^3
     number of atoms/cell      =           12
     number of atomic types    =            2
     number of electrons       =       156.00
     number of Kohn-Sham states=          108
     kinetic-energy cutoff     =      36.7493  Ry
     charge density cutoff     =     367.4932  Ry
     convergence threshold     =      1.0E-06
     mixing beta               =       0.1000
     number of iterations used =           10  plain     mixing
     Exchange-correlation      = BEEF-VDW ( 1  4 27 13 2)
     nstep                     =           50

     celldm(1)=   1.889726  celldm(2)=   0.000000  celldm(3)=   0.000000
     celldm(4)=   0.000000  celldm(5)=   0.000000  celldm(6)=   0.000000

     crystal axes: (cart. coord. in units of alat)
               a(1) = (   5.452973   0.000000   0.000000 )
               a(2) = (  -2.726487   5.165911   0.000000 )
               a(3) = (   0.000000   0.000000  24.631638 )

     reciprocal axes: (cart. coord. in units 2 pi/alat)
               b(1) = (  0.183386  0.096788  0.000000 )
               b(2) = (  0.000000  0.193577  0.000000 )
               b(3) = (  0.000000  0.000000  0.040598 )

     PseudoPot. # 1 for Re read from file:
     /afs/slac.stanford.edu/u/if/mamunm/psp/gbrv1.5pbe/Re.UPF
     MD5 check sum: 85f993410f3e006da9d71c142b4ad953
     Pseudo is Ultrasoft + core correction, Zval = 15.0
     Generated by new atomic code, or converted to UPF format
     Using radial grid of  981 points,  8 beta functions with:
                l(1) =   0
                l(2) =   0
                l(3) =   1
                l(4) =   1
                l(5) =   2
                l(6) =   2
                l(7) =   3
                l(8) =   3
     Q(r) pseudized with  8 coefficients,  rinner =    1.150   1.150   1.150
                                                       1.150   1.150   1.150
                                                       1.150

     PseudoPot. # 2 for Au read from file:
     /afs/slac.stanford.edu/u/if/mamunm/psp/gbrv1.5pbe/Au.UPF
     MD5 check sum: 9d7f43293ad2c663164586bc4b293ffc
     Pseudo is Ultrasoft + core correction, Zval = 11.0
     Generated by new atomic code, or converted to UPF format
     Using radial grid of  985 points,  7 beta functions with:
                l(1) =   0
                l(2) =   0
                l(3) =   1
                l(4) =   1
                l(5) =   2
                l(6) =   2
                l(7) =   3
     Q(r) pseudized with  6 coefficients,  rinner =    1.900   1.900   1.900
                                                       1.900   1.900   1.900
                                                       1.900

     vdW kernel table read from file vdW_kernel_table
     MD5 check sum: 095c7af220d748ca6e76c0b4c6cfb241

     atomic species   valence    mass     pseudopotential
        Re1           15.00   186.20700     Re( 1.00)
        Au1           11.00   196.96657     Au( 1.00)

     No symmetry found

   Cartesian axes

     site n.     atom                  positions (alat units)
         1           Re1 tau(   1) = (   0.0000000   0.0000000  10.0000000  )
         2           Re1 tau(   2) = (   2.7264866   0.0000000  10.0000000  )
         3           Au1 tau(   3) = (   1.3632433   2.5829553  10.0000000  )
         4           Au1 tau(   4) = (  -1.3632433   2.5829553  10.0000000  )
         5           Re1 tau(   5) = (   2.7264866   1.4389969  12.3158189  )
         6           Re1 tau(   6) = (   0.0000000   1.4389969  12.3158189  )
         7           Au1 tau(   7) = (  -1.3632433   4.0219522  12.3158189  )
         8           Au1 tau(   8) = (   1.3632433   4.0219522  12.3158189  )
         9           Re1 tau(   9) = (  -0.0021328   0.4827974  14.4739826  )
        10           Re1 tau(  10) = (   2.7254112   0.4824150  14.4739979  )
        11           Au1 tau(  11) = (   1.3597972   2.9712980  14.9856210  )
        12           Au1 tau(  12) = (  -1.3626434   2.9726392  14.9857328  )

     number of k points=    20  Fermi-Dirac smearing, width (Ry)=  0.0110
                       cart. coord. in units 2pi/alat
        k(    1) = (   0.0000000   0.0000000   0.0000000), wk =   0.0555556
        k(    2) = (   0.0000000   0.0322628   0.0000000), wk =   0.1111111
        k(    3) = (   0.0000000   0.0645256   0.0000000), wk =   0.1111111
        k(    4) = (   0.0000000  -0.0967884   0.0000000), wk =   0.0555556
        k(    5) = (   0.0305644   0.0161314   0.0000000), wk =   0.1111111
        k(    6) = (   0.0305644   0.0483942   0.0000000), wk =   0.1111111
        k(    7) = (   0.0305644   0.0806570   0.0000000), wk =   0.1111111
        k(    8) = (   0.0305644  -0.0806570   0.0000000), wk =   0.1111111
        k(    9) = (   0.0305644  -0.0483942   0.0000000), wk =   0.1111111
        k(   10) = (   0.0305644  -0.0161314   0.0000000), wk =   0.1111111
        k(   11) = (   0.0611287   0.0322628   0.0000000), wk =   0.1111111
        k(   12) = (   0.0611287   0.0645256   0.0000000), wk =   0.1111111
        k(   13) = (   0.0611287   0.0967884   0.0000000), wk =   0.1111111
        k(   14) = (   0.0611287  -0.0645256   0.0000000), wk =   0.1111111
        k(   15) = (   0.0611287  -0.0322628   0.0000000), wk =   0.1111111
        k(   16) = (   0.0611287   0.0000000   0.0000000), wk =   0.1111111
        k(   17) = (  -0.0916931  -0.0483942   0.0000000), wk =   0.0555556
        k(   18) = (  -0.0916931  -0.0161314   0.0000000), wk =   0.1111111
        k(   19) = (  -0.0916931   0.0161314   0.0000000), wk =   0.1111111
        k(   20) = (  -0.0916931  -0.1451825   0.0000000), wk =   0.0555556

     Largest allocated arrays     est. size (Mb)     dimensions
     Largest temporary arrays     est. size (Mb)     dimensions

     Check: negative/imaginary core charge=   -0.000001    0.000000

     Initial potential from superposition of free atoms
     Check: negative starting charge=   -0.778736

     starting charge  152.99900, renormalised to  156.00000

[...]

     *
     * You are using vdW-DF for exchange-correlation in this calculation.
     * Please cite the following three references that made this development
     * possible:
     *
     *   M. Dion, H. Rydberg, E. Schroder, D. C. Langreth, and
     *   B. I. Lundqvist, Phys. Rev. Lett. 92, 246401 (2004).
     *
     *   T. Thonhauser, V. R. Cooper, S. Li, A. Puzder, P. Hyldgaard, and
     *   D. C. Langreth, Phys. Rev. B 76, 125112 (2007).
     *
     *   G. Roman-Perez and J. M. Soler, Phys. Rev. Lett. 103, 096102 (2009).
     *
     *
     * If you are using vdW-DF2, please also cite:
     *
     *   K. Lee, E. D. Murray, L. Kong, B. I. Lundqvist, and
     *   D. C. Langreth, Phys. Rev. B 82, 081101(R) (2010).
     *
     *
     * If you are calculating the stress with vdW-DF, please also cite:
     *
     *   R. Sabatini, E. Kucukbenli, B. Kolb, T. Thonhauser, and
     *   S. de Gironcoli, J. Phys.: Condens. Matter 24, 424209 (2012).
     *

     Carrying out vdW-DF run using the following parameters:

     Nqs =      20    Nr_points =    1024   r_max =   100.000
     q_mesh =
               0.00001000     0.04494208     0.09755937     0.15916263
               0.23128650     0.31572767     0.41458969     0.53033537
               0.66584808     0.82450364     1.01025438     1.22772762
               1.48234092     1.78043706     2.12944203     2.53805004
               3.01644009     3.57652955     4.23227104     5.00000000

     Gradients computed in reciprocal space

[...]

     Starting wfc are  132 randomized atomic wfcs

     Self-consistent Calculation

[...]

     total energy              =   -1852.68018964 Ry
     Harris-Foulkes estimate   =   -1852.68018933 Ry
     estimated scf accuracy    <       0.00000104 Ry

     iteration # 18     ecut=    36.75 Ry     beta=0.10
     Davidson diagonalization with overlap
     ethr =  6.65E-10,  avg # of iterations =  2.0

[...]

     negative rho (up, down):  7.881E-01 0.000E+00

     Adding external electric field

     Computed dipole along edir(3) :
        Dipole               -0.0337 Ry au,         -0.0857 Debye
        Dipole field         -0.0001 Ry au

        Potential amp.        0.0082 Ry
        Total length         45.3834 bohr

     End of self-consistent calculation

[...]

          k = 0.0611 0.0000 0.0000 ( 17638 PWs)   bands (ev):

[...]

          k =-0.0917-0.1452 0.0000 ( 17654 PWs)   bands (ev):

   -79.2329 -79.2328 -78.9781 -78.9781 -78.9405 -78.9403 -41.4282 -41.4277
   -41.0235 -41.0233 -40.8755 -40.8752 -40.6895 -40.6892 -40.6716 -40.6716
   -40.6518 -40.6518 -40.5771 -40.5749 -40.5693 -40.5692 -40.1955 -40.1952
    -5.6799  -5.6791  -4.5381  -4.5379  -4.3419  -4.3414  -4.2172  -4.2153
    -3.9380  -3.9369  -3.8949  -3.8946  -3.6914  -3.6906  -3.3294  -3.3282
    -3.2265  -3.2256  -2.9624  -2.9615  -2.8524  -2.8488  -2.6994  -2.6933
    -2.6188  -2.6158  -2.4872  -2.4833  -2.4688  -2.4505  -2.0192  -2.0087
    -1.8243  -1.8212  -1.4952  -1.4943  -1.1076  -1.1072  -0.8189  -0.8183
    -0.4573  -0.4555  -0.2459  -0.2456   0.0944   0.0948   0.3132   0.3141
     0.5452   0.5458   0.9033   0.9047   1.0519   1.0565   1.2874   1.2876
     1.4479   1.4481   2.4644   2.4647   2.5831   2.5848   3.1067   3.1074
     3.5557   3.5577   3.9782   3.9789   4.3977   4.3994   5.6463   5.6482
     6.0784   6.0789   7.3401   7.3408   7.9496   7.9500   8.0403   8.0406
     8.1075   8.1077   8.7788   8.7802

     the Fermi energy is     1.5189 ev

!    total energy              =   -1852.68019155 Ry
     Harris-Foulkes estimate   =   -1852.68018953 Ry
     estimated scf accuracy    <       0.00000027 Ry

     The total energy is the sum of the following terms:

     one-electron contribution =  -12475.60139280 Ry
     hartree contribution      =    6275.35705532 Ry
     xc contribution           =    -708.23220804 Ry
     ewald contribution        =    5055.86056512 Ry
     electric field correction =       0.00000305 Ry
     smearing contrib. (-TS)   =      -0.06421422 Ry

     convergence has been achieved in  18 iterations

 BEEF-vdW xc energy contributions
           1 :   -631.728038672652
           2 :    587.424736209928
           3 :   -507.864347018418
           4 :    408.094588369620
           5 :   -304.715086436916
           6 :    211.645207945914
           7 :   -137.371390953913
           8 :    84.2362775722611
           9 :   -49.6443859768503
          10 :    28.4060259207620
          11 :   -15.1785665761969
          12 :    6.11517336773022
          13 :   0.642262474381596
          14 :   -5.45457581295796
          15 :    8.12726745586883
          16 :   -8.74086234849915
          17 :    8.00114737803801
          18 :   -7.05824893288411
          19 :    6.99815860013769
          20 :   -8.33978893117319
          21 :    10.8117018136036
          22 :   -13.5135042248382
          23 :    15.3584799877098
          24 :   -15.5735177140119
          25 :    14.0216035013932
          26 :   -11.2216271954815
          27 :    8.08552907420096
          28 :   -5.52007504582457
          29 :    4.08025164264518
          30 :   -3.81919716428297
          31 :   -51.0134210976531
          32 :   -37.4831184839649

     Forces acting on atoms (Ry/au):

     negative rho (up, down):  7.881E-01 0.000E+00
     atom    1 type  1   force =     0.00000172    0.03103686    0.04890625
     atom    2 type  1   force =    -0.00000891    0.03103820    0.04889366
     atom    3 type  2   force =     0.00000073   -0.01707842   -0.05459077
     atom    4 type  2   force =     0.00000853   -0.01707624   -0.05457287
     atom    5 type  1   force =    -0.00001763   -0.03005948   -0.01531930
     atom    6 type  1   force =     0.00008838   -0.03004165   -0.01543717
     atom    7 type  2   force =    -0.00009450    0.01580836    0.02152484
     atom    8 type  2   force =     0.00000758    0.01578770    0.02153593
     atom    9 type  1   force =     0.00001072   -0.00021266   -0.00031553
     atom   10 type  1   force =     0.00000988   -0.00004168   -0.00033502
     atom   11 type  2   force =     0.00162904    0.00041582   -0.00014429
     atom   12 type  2   force =    -0.00163555    0.00042319   -0.00014572

     Total force =     0.130238     Total SCF correction =     0.002745

     entering subroutine stress ...

     negative rho (up, down):  7.881E-01 0.000E+00
          total   stress  (Ry/bohr**3)                   (kbar)     P=  -23.52
  -0.00018477   0.00000011  -0.00000002        -27.18      0.02     -0.00
   0.00000011  -0.00028940  -0.00002526          0.02    -42.57     -3.72
  -0.00000002  -0.00002526  -0.00000540         -0.00     -3.72     -0.79

 !ASE

     Writing output data file calc.save

     General routines

     Parallel routines

   This run was terminated on:   7:38:41  19Dec2018

   JOB DONE.
Job  /afs/slac/g/suncat/bin/suncat-tsmpirun -x LD_LIBRARY_PATH -wdir /scratch/qe530445_k72Kg pw.x -in pw.inp

TID   HOST_NAME   COMMAND_LINE            STATUS            TERMINATION_TIME
00000 suncat2024 pw.x -in pw.inp   Done                     12/19/2018 07:38:41
00001 suncat2024 pw.x -in pw.inp   Done                     12/19/2018 07:38:41
00002 suncat2024 pw.x -in pw.inp   Done                     12/19/2018 07:38:41
00003 suncat2024 pw.x -in pw.inp   Done                     12/19/2018 07:38:41
00004 suncat2024 pw.x -in pw.inp   Done                     12/19/2018 07:38:41
00005 suncat2024 pw.x -in pw.inp   Done                     12/19/2018 07:38:41
00006 suncat2024 pw.x -in pw.inp   Done                     12/19/2018 07:38:41
00007 suncat2024 pw.x -in pw.inp   Done                     12/19/2018 07:38:41
00008 suncat2024 pw.x -in pw.inp   Done                     12/19/2018 07:38:41
00009 suncat2024 pw.x -in pw.inp   Done                     12/19/2018 07:38:41
00010 suncat2024 pw.x -in pw.inp   Done                     12/19/2018 07:38:41
00011 suncat2024 pw.x -in pw.inp   Done                     12/19/2018 07:38:41
00012 suncat2024 pw.x -in pw.inp   Done                     12/19/2018 07:38:41
00013 suncat2024 pw.x -in pw.inp   Done                     12/19/2018 07:38:41
00014 suncat2024 pw.x -in pw.inp   Done                     12/19/2018 07:38:41
00015 suncat2024 pw.x -in pw.inp   Done                     12/19/2018 07:38:41
00016 suncat2023 pw.x -in pw.inp   Done                     12/19/2018 07:38:41
00017 suncat2023 pw.x -in pw.inp   Done                     12/19/2018 07:38:41
00018 suncat2023 pw.x -in pw.inp   Done                     12/19/2018 07:38:41
00019 suncat2023 pw.x -in pw.inp   Done                     12/19/2018 07:38:41
00020 suncat2023 pw.x -in pw.inp   Done                     12/19/2018 07:38:41
00021 suncat2023 pw.x -in pw.inp   Done                     12/19/2018 07:38:41
00022 suncat2023 pw.x -in pw.inp   Done                     12/19/2018 07:38:41
00023 suncat2023 pw.x -in pw.inp   Done                     12/19/2018 07:38:41
00024 suncat2023 pw.x -in pw.inp   Done                     12/19/2018 07:38:41
00025 suncat2023 pw.x -in pw.inp   Done                     12/19/2018 07:38:41
00026 suncat2023 pw.x -in pw.inp   Done                     12/19/2018 07:38:41
00027 suncat2023 pw.x -in pw.inp   Done                     12/19/2018 07:38:41
00028 suncat2023 pw.x -in pw.inp   Done                     12/19/2018 07:38:41
00029 suncat2023 pw.x -in pw.inp   Done                     12/19/2018 07:38:41
00030 suncat2023 pw.x -in pw.inp   Done                     12/19/2018 07:38:41
00031 suncat2023 pw.x -in pw.inp   Done                     12/19/2018 07:38:41