     Program PWSCF v.5.1rc2 (svn rev. 11289) starts on 18Dec2018 at 16:51:56

     Current dimensions of program PWSCF are:
     Max number of different atomic species (ntypx) = 10
     Max number of k-points (npk) =  40000
     Max angular momentum in pseudopotentials (lmaxx) =  3
     Presently stress not available with electric field

     IMPORTANT: XC functional enforced from input :
     Exchange-correlation      = BEEF-VDW ( 1  4 27 13 2)
     Any further DFT definition will be discarded
     Please, verify this is what you really want

     Subspace diagonalization in iterative solution of the eigenvalue problem:
     a serial algorithm will be used

     Found symmetry operation: I + ( -0.5000 -0.5000  0.0000)
     This is a supercell, fractional translations are disabled

     Generating pointlists ...
     new r_m :   0.4125 (alat units)  0.7795 (a.u.) for type    1
     new r_m :   0.4125 (alat units)  0.7795 (a.u.) for type    2

     bravais-lattice index     =            0
     lattice parameter (alat)  =       1.8897  a.u.
     unit-cell volume          =    4594.8023 (a.u.)^3
     number of atoms/cell      =           12
     number of atomic types    =            2
     number of electrons       =       186.00
     number of Kohn-Sham states=          123
     kinetic-energy cutoff     =      36.7493  Ry
     charge density cutoff     =     367.4932  Ry
     convergence threshold     =      1.0E-06
     mixing beta               =       0.1000
     number of iterations used =           10  plain     mixing
     Exchange-correlation      = BEEF-VDW ( 1  4 27 13 2)
     nstep                     =           50

     celldm(1)=   1.889726  celldm(2)=   0.000000  celldm(3)=   0.000000
     celldm(4)=   0.000000  celldm(5)=   0.000000  celldm(6)=   0.000000

     crystal axes: (cart. coord. in units of alat)
               a(1) = (   5.471943   0.000000   0.000000 )
               a(2) = (   2.045570   5.075214   0.000000 )
               a(3) = (   0.000000   0.000000  24.517396 )

     reciprocal axes: (cart. coord. in units 2 pi/alat)
               b(1) = (  0.182750 -0.073658  0.000000 )
               b(2) = (  0.000000  0.197036  0.000000 )
               b(3) = (  0.000000  0.000000  0.040787 )

     PseudoPot. # 1 for Mn read from file:
     /afs/slac.stanford.edu/u/if/mamunm/psp/gbrv1.5pbe/Mn.UPF
     MD5 check sum: 82ef2b46521d7a7d9e736dc3972e4928
     Pseudo is Ultrasoft + core correction, Zval = 15.0
     Generated by new atomic code, or converted to UPF format
     Using radial grid of  859 points,  6 beta functions with:
                l(1) =   0
                l(2) =   0
                l(3) =   1
                l(4) =   1
                l(5) =   2
                l(6) =   2
     Q(r) pseudized with  8 coefficients,  rinner =    0.950   0.950   0.950
                                                       0.950   0.950

     PseudoPot. # 2 for Pd read from file:
     /afs/slac.stanford.edu/u/if/mamunm/psp/gbrv1.5pbe/Pd.UPF
     MD5 check sum: 2d733d2bc2cbfd217af676df1668a4bc
     Pseudo is Ultrasoft + core correction, Zval = 16.0
     Generated by new atomic code, or converted to UPF format
     Using radial grid of  887 points,  6 beta functions with:
                l(1) =   0
                l(2) =   0
                l(3) =   1
                l(4) =   1
                l(5) =   2
                l(6) =   2
     Q(r) pseudized with  8 coefficients,  rinner =    1.130   1.130   1.130
                                                       1.130   1.130

     vdW kernel table read from file vdW_kernel_table
     MD5 check sum: 095c7af220d748ca6e76c0b4c6cfb241

     atomic species   valence    mass     pseudopotential
        Mn1           15.00    54.93804     Mn( 1.00)
        Pd1           16.00   106.42000     Pd( 1.00)

     Starting magnetic structure
     atomic species   magnetization
        Mn1          0.133
        Pd1          0.125

     No symmetry found

   Cartesian axes

     site n.     atom                  positions (alat units)
         1           Mn1 tau(   1) = (   0.0000000   0.0000000  10.0000000  )
         2           Mn1 tau(   2) = (   3.7587564   2.5376070  10.0000000  )
         3           Pd1 tau(   3) = (   2.7359713   0.0000000  10.0000000  )
         4           Pd1 tau(   4) = (   1.0227851   2.5376070  10.0000000  )
         5           Mn1 tau(   5) = (   5.4719425   3.6942111  12.2586979  )
         6           Mn1 tau(   6) = (   1.7131861   1.1566041  12.2586979  )
         7           Pd1 tau(   7) = (   2.7359713   3.6942111  12.2586979  )
         8           Pd1 tau(   8) = (   4.4491574   1.1566041  12.2586979  )
         9           Mn1 tau(   9) = (   3.4263723   2.3132082  14.5173958  )
        10           Mn1 tau(  10) = (   7.1851287   4.8508152  14.5173958  )
        11           Pd1 tau(  11) = (   6.1623435   2.3132082  14.5173958  )
        12           Pd1 tau(  12) = (   4.4491574   4.8508152  14.5173958  )

     number of k points=    40  Fermi-Dirac smearing, width (Ry)=  0.0110
                       cart. coord. in units 2pi/alat
        k(    1) = (   0.0000000   0.0000000   0.0000000), wk =   0.0277778
        k(    2) = (   0.0000000   0.0328393   0.0000000), wk =   0.0555556
        k(    3) = (   0.0000000   0.0656787   0.0000000), wk =   0.0555556
        k(    4) = (   0.0000000  -0.0985180   0.0000000), wk =   0.0277778
        k(    5) = (   0.0304584  -0.0122763   0.0000000), wk =   0.0555556
        k(    6) = (   0.0304584   0.0205630   0.0000000), wk =   0.0555556
        k(    7) = (   0.0304584   0.0534024   0.0000000), wk =   0.0555556
        k(    8) = (   0.0304584  -0.1107943   0.0000000), wk =   0.0555556
        k(    9) = (   0.0304584  -0.0779550   0.0000000), wk =   0.0555556
        k(   10) = (   0.0304584  -0.0451156   0.0000000), wk =   0.0555556
        k(   11) = (   0.0609168  -0.0245526   0.0000000), wk =   0.0555556
        k(   12) = (   0.0609168   0.0082868   0.0000000), wk =   0.0555556
        k(   13) = (   0.0609168   0.0411261   0.0000000), wk =   0.0555556
        k(   14) = (   0.0609168  -0.1230706   0.0000000), wk =   0.0555556
        k(   15) = (   0.0609168  -0.0902313   0.0000000), wk =   0.0555556
        k(   16) = (   0.0609168  -0.0573919   0.0000000), wk =   0.0555556
        k(   17) = (  -0.0913752   0.0368289   0.0000000), wk =   0.0277778
        k(   18) = (  -0.0913752   0.0696682   0.0000000), wk =   0.0555556
        k(   19) = (  -0.0913752   0.1025076   0.0000000), wk =   0.0555556
        k(   20) = (  -0.0913752  -0.0616891   0.0000000), wk =   0.0277778
        k(   21) = (   0.0000000   0.0000000   0.0000000), wk =   0.0277778
        k(   22) = (   0.0000000   0.0328393   0.0000000), wk =   0.0555556
        k(   23) = (   0.0000000   0.0656787   0.0000000), wk =   0.0555556
        k(   24) = (   0.0000000  -0.0985180   0.0000000), wk =   0.0277778
        k(   25) = (   0.0304584  -0.0122763   0.0000000), wk =   0.0555556
        k(   26) = (   0.0304584   0.0205630   0.0000000), wk =   0.0555556
        k(   27) = (   0.0304584   0.0534024   0.0000000), wk =   0.0555556
        k(   28) = (   0.0304584  -0.1107943   0.0000000), wk =   0.0555556
        k(   29) = (   0.0304584  -0.0779550   0.0000000), wk =   0.0555556
        k(   30) = (   0.0304584  -0.0451156   0.0000000), wk =   0.0555556
        k(   31) = (   0.0609168  -0.0245526   0.0000000), wk =   0.0555556
        k(   32) = (   0.0609168   0.0082868   0.0000000), wk =   0.0555556
        k(   33) = (   0.0609168   0.0411261   0.0000000), wk =   0.0555556
        k(   34) = (   0.0609168  -0.1230706   0.0000000), wk =   0.0555556
        k(   35) = (   0.0609168  -0.0902313   0.0000000), wk =   0.0555556
        k(   36) = (   0.0609168  -0.0573919   0.0000000), wk =   0.0555556
        k(   37) = (  -0.0913752   0.0368289   0.0000000), wk =   0.0277778
        k(   38) = (  -0.0913752   0.0696682   0.0000000), wk =   0.0555556
        k(   39) = (  -0.0913752   0.1025076   0.0000000), wk =   0.0555556
        k(   40) = (  -0.0913752  -0.0616891   0.0000000), wk =   0.0277778

     Largest allocated arrays     est. size (Mb)     dimensions
     Largest temporary arrays     est. size (Mb)     dimensions

     Check: negative/imaginary core charge=   -0.000005    0.000000

     Initial potential from superposition of free atoms
     Check: negative starting charge=(component1):   -0.255969
     Check: negative starting charge=(component2):   -0.199081

     starting charge  179.99945, renormalised to  186.00000

     negative rho (up, down):  2.645E-01 2.057E-01

     *
     * You are using vdW-DF for exchange-correlation in this calculation.
     * Please cite the following three references that made this development
     * possible:
     *
     *   M. Dion, H. Rydberg, E. Schroder, D. C. Langreth, and
     *   B. I. Lundqvist, Phys. Rev. Lett. 92, 246401 (2004).
     *
     *   T. Thonhauser, V. R. Cooper, S. Li, A. Puzder, P. Hyldgaard, and
     *   D. C. Langreth, Phys. Rev. B 76, 125112 (2007).
     *
     *   G. Roman-Perez and J. M. Soler, Phys. Rev. Lett. 103, 096102 (2009).
     *
     *
     * If you are using vdW-DF2, please also cite:
     *
     *   K. Lee, E. D. Murray, L. Kong, B. I. Lundqvist, and
     *   D. C. Langreth, Phys. Rev. B 82, 081101(R) (2010).
     *
     *
     * If you are calculating the stress with vdW-DF, please also cite:
     *
     *   R. Sabatini, E. Kucukbenli, B. Kolb, T. Thonhauser, and
     *   S. de Gironcoli, J. Phys.: Condens. Matter 24, 424209 (2012).
     *

     Carrying out vdW-DF run using the following parameters:

     Nqs =      20    Nr_points =    1024   r_max =   100.000
     q_mesh =
               0.00001000     0.04494208     0.09755937     0.15916263
               0.23128650     0.31572767     0.41458969     0.53033537
               0.66584808     0.82450364     1.01025438     1.22772762
               1.48234092     1.78043706     2.12944203     2.53805004
               3.01644009     3.57652955     4.23227104     5.00000000

     Gradients computed in reciprocal space

     Adding external electric field

     Computed dipole along edir(3) :
        Dipole                0.0000 Ry au,          0.0000 Debye
        Dipole field          0.0000 Ry au

        Potential amp.       -0.0000 Ry
        Total length         45.1729 bohr

[...]

     Starting wfc are  150 randomized atomic wfcs

     Self-consistent Calculation

     iteration #  1     ecut=    36.75 Ry     beta=0.10
     Davidson diagonalization with overlap
     ethr =  1.00E-02,  avg # of iterations =  7.8

[...]

     Magnetic moment per site:
     atom:    1    charge:    6.1401    magn:    0.8205    constr:    0.0000
     atom:    2    charge:    6.1401    magn:    0.8205    constr:    0.0000
     atom:    3    charge:    3.3262    magn:    0.4033    constr:    0.0000
     atom:    4    charge:    3.3262    magn:    0.4033    constr:    0.0000
     atom:    5    charge:    6.1280    magn:    0.8206    constr:    0.0000
     atom:    6    charge:    6.1280    magn:    0.8206    constr:    0.0000
[...]
                l(5) =   2
                l(6) =   2
     Q(r) pseudized with  8 coefficients,  rinner =    0.950   0.950   0.950
                                                       0.950   0.950

     PseudoPot. # 2 for Pd read from file:
     /afs/slac.stanford.edu/u/if/mamunm/psp/gbrv1.5pbe/Pd.UPF
     MD5 check sum: 2d733d2bc2cbfd217af676df1668a4bc
     Pseudo is Ultrasoft + core correction, Zval = 16.0
     Generated by new atomic code, or converted to UPF format
     Using radial grid of  887 points,  6 beta functions with:
                l(1) =   0
                l(2) =   0
                l(3) =   1
                l(4) =   1
                l(5) =   2
                l(6) =   2
     Q(r) pseudized with  8 coefficients,  rinner =    1.130   1.130   1.130
                                                       1.130   1.130

     vdW kernel table read from file vdW_kernel_table
     MD5 check sum: 095c7af220d748ca6e76c0b4c6cfb241

     atomic species   valence    mass     pseudopotential
        Mn1           15.00    54.93804     Mn( 1.00)
        Pd1           16.00   106.42000     Pd( 1.00)

     Starting magnetic structure
     atomic species   magnetization
        Mn1          0.133
        Pd1          0.125

     No symmetry found

   Cartesian axes

     site n.     atom                  positions (alat units)
         1           Mn1 tau(   1) = (   0.0000000   0.0000000  10.0000000  )
         2           Mn1 tau(   2) = (   3.7587564   2.5376070  10.0000000  )
         3           Pd1 tau(   3) = (   2.7359713   0.0000000  10.0000000  )
         4           Pd1 tau(   4) = (   1.0227851   2.5376070  10.0000000  )
         5           Mn1 tau(   5) = (   5.4719425   3.6942111  12.2586979  )
         6           Mn1 tau(   6) = (   1.7131861   1.1566041  12.2586979  )
         7           Pd1 tau(   7) = (   2.7359713   3.6942111  12.2586979  )
         8           Pd1 tau(   8) = (   4.4491574   1.1566041  12.2586979  )
         9           Mn1 tau(   9) = (   3.5854422   2.4206018  14.5405855  )
        10           Mn1 tau(  10) = (   7.3441999   4.9582050  14.5406010  )
        11           Pd1 tau(  11) = (   6.3217931   2.4208515  14.4240277  )
        12           Pd1 tau(  12) = (   4.6086013   4.9584633  14.4240175  )

     number of k points=    40  Fermi-Dirac smearing, width (Ry)=  0.0110
                       cart. coord. in units 2pi/alat
        k(    1) = (   0.0000000   0.0000000   0.0000000), wk =   0.0277778
        k(    2) = (   0.0000000   0.0328393   0.0000000), wk =   0.0555556
        k(    3) = (   0.0000000   0.0656787   0.0000000), wk =   0.0555556
        k(    4) = (   0.0000000  -0.0985180   0.0000000), wk =   0.0277778
        k(    5) = (   0.0304584  -0.0122763   0.0000000), wk =   0.0555556
        k(    6) = (   0.0304584   0.0205630   0.0000000), wk =   0.0555556
        k(    7) = (   0.0304584   0.0534024   0.0000000), wk =   0.0555556
        k(    8) = (   0.0304584  -0.1107943   0.0000000), wk =   0.0555556
        k(    9) = (   0.0304584  -0.0779550   0.0000000), wk =   0.0555556
        k(   10) = (   0.0304584  -0.0451156   0.0000000), wk =   0.0555556
        k(   11) = (   0.0609168  -0.0245526   0.0000000), wk =   0.0555556
        k(   12) = (   0.0609168   0.0082868   0.0000000), wk =   0.0555556
        k(   13) = (   0.0609168   0.0411261   0.0000000), wk =   0.0555556
        k(   14) = (   0.0609168  -0.1230706   0.0000000), wk =   0.0555556
        k(   15) = (   0.0609168  -0.0902313   0.0000000), wk =   0.0555556
        k(   16) = (   0.0609168  -0.0573919   0.0000000), wk =   0.0555556
        k(   17) = (  -0.0913752   0.0368289   0.0000000), wk =   0.0277778
        k(   18) = (  -0.0913752   0.0696682   0.0000000), wk =   0.0555556
        k(   19) = (  -0.0913752   0.1025076   0.0000000), wk =   0.0555556
        k(   20) = (  -0.0913752  -0.0616891   0.0000000), wk =   0.0277778
        k(   21) = (   0.0000000   0.0000000   0.0000000), wk =   0.0277778
        k(   22) = (   0.0000000   0.0328393   0.0000000), wk =   0.0555556
        k(   23) = (   0.0000000   0.0656787   0.0000000), wk =   0.0555556
        k(   24) = (   0.0000000  -0.0985180   0.0000000), wk =   0.0277778
        k(   25) = (   0.0304584  -0.0122763   0.0000000), wk =   0.0555556
        k(   26) = (   0.0304584   0.0205630   0.0000000), wk =   0.0555556
        k(   27) = (   0.0304584   0.0534024   0.0000000), wk =   0.0555556
        k(   28) = (   0.0304584  -0.1107943   0.0000000), wk =   0.0555556
        k(   29) = (   0.0304584  -0.0779550   0.0000000), wk =   0.0555556
        k(   30) = (   0.0304584  -0.0451156   0.0000000), wk =   0.0555556
        k(   31) = (   0.0609168  -0.0245526   0.0000000), wk =   0.0555556
        k(   32) = (   0.0609168   0.0082868   0.0000000), wk =   0.0555556
        k(   33) = (   0.0609168   0.0411261   0.0000000), wk =   0.0555556
        k(   34) = (   0.0609168  -0.1230706   0.0000000), wk =   0.0555556
        k(   35) = (   0.0609168  -0.0902313   0.0000000), wk =   0.0555556
        k(   36) = (   0.0609168  -0.0573919   0.0000000), wk =   0.0555556
        k(   37) = (  -0.0913752   0.0368289   0.0000000), wk =   0.0277778
        k(   38) = (  -0.0913752   0.0696682   0.0000000), wk =   0.0555556
        k(   39) = (  -0.0913752   0.1025076   0.0000000), wk =   0.0555556
        k(   40) = (  -0.0913752  -0.0616891   0.0000000), wk =   0.0277778

     Largest allocated arrays     est. size (Mb)     dimensions
     Largest temporary arrays     est. size (Mb)     dimensions

     Check: negative/imaginary core charge=   -0.000005    0.000000

     Initial potential from superposition of free atoms
     Check: negative starting charge=(component1):   -0.258347
     Check: negative starting charge=(component2):   -0.200931

     starting charge  179.99945, renormalised to  186.00000

[...]

     *
     * You are using vdW-DF for exchange-correlation in this calculation.
     * Please cite the following three references that made this development
     * possible:
     *
     *   M. Dion, H. Rydberg, E. Schroder, D. C. Langreth, and
     *   B. I. Lundqvist, Phys. Rev. Lett. 92, 246401 (2004).
     *
     *   T. Thonhauser, V. R. Cooper, S. Li, A. Puzder, P. Hyldgaard, and
     *   D. C. Langreth, Phys. Rev. B 76, 125112 (2007).
     *
     *   G. Roman-Perez and J. M. Soler, Phys. Rev. Lett. 103, 096102 (2009).
     *
     *
     * If you are using vdW-DF2, please also cite:
     *
     *   K. Lee, E. D. Murray, L. Kong, B. I. Lundqvist, and
     *   D. C. Langreth, Phys. Rev. B 82, 081101(R) (2010).
     *
     *
     * If you are calculating the stress with vdW-DF, please also cite:
     *
     *   R. Sabatini, E. Kucukbenli, B. Kolb, T. Thonhauser, and
     *   S. de Gironcoli, J. Phys.: Condens. Matter 24, 424209 (2012).
     *

     Carrying out vdW-DF run using the following parameters:

     Nqs =      20    Nr_points =    1024   r_max =   100.000
     q_mesh =
               0.00001000     0.04494208     0.09755937     0.15916263
               0.23128650     0.31572767     0.41458969     0.53033537
               0.66584808     0.82450364     1.01025438     1.22772762
               1.48234092     1.78043706     2.12944203     2.53805004
               3.01644009     3.57652955     4.23227104     5.00000000

     Gradients computed in reciprocal space

[...]

     Starting wfc are  150 randomized atomic wfcs

     Self-consistent Calculation

[...]

     total energy              =   -2471.63375801 Ry
     Harris-Foulkes estimate   =   -2471.63375686 Ry
     estimated scf accuracy    <       0.00000322 Ry

[...]

     iteration # 21     ecut=    36.75 Ry     beta=0.10
     Davidson diagonalization with overlap
     ethr =  1.73E-09,  avg # of iterations =  2.0

[...]

     negative rho (up, down):  2.420E-01 2.384E-01

[...]

     Adding external electric field

     Computed dipole along edir(3) :
        Dipole                0.0208 Ry au,          0.0528 Debye
        Dipole field          0.0001 Ry au

        Potential amp.       -0.0051 Ry
        Total length         45.1729 bohr

     Magnetic moment per site:
     atom:    1    charge:    6.0169    magn:    1.6689    constr:    0.0000
     atom:    2    charge:    6.0169    magn:    1.6689    constr:    0.0000
     atom:    3    charge:    3.2997    magn:    0.0588    constr:    0.0000
     atom:    4    charge:    3.2997    magn:    0.0588    constr:    0.0000
     atom:    5    charge:    6.0092    magn:    1.6270    constr:    0.0000
     atom:    6    charge:    6.0092    magn:    1.6270    constr:    0.0000
     atom:    7    charge:    3.3012    magn:    0.0748    constr:    0.0000
     atom:    8    charge:    3.3012    magn:    0.0748    constr:    0.0000
     atom:    9    charge:    6.0135    magn:    1.6684    constr:    0.0000
     atom:   10    charge:    6.0135    magn:    1.6684    constr:    0.0000
     atom:   11    charge:    3.3074    magn:    0.0618    constr:    0.0000
     atom:   12    charge:    3.3074    magn:    0.0618    constr:    0.0000

     End of self-consistent calculation

 ------ SPIN UP ------------

[...]

 ------ SPIN DOWN ----------

[...]

          k = 0.0609-0.0574 0.0000 ( 17309 PWs)   bands (ev):

[...]

          k =-0.0914-0.0617 0.0000 ( 17312 PWs)   bands (ev):

   -76.1551 -76.1517 -76.1499 -76.1465 -75.9624 -75.9589 -49.2846 -49.2530
   -49.2461 -49.2316 -49.2257 -49.2182 -49.0047 -48.9989 -48.9860 -48.9384
   -48.9326 -48.9200 -48.9013 -48.8890 -48.8832 -48.8359 -48.7887 -48.7829
   -44.9686 -44.9624 -44.9617 -44.9581 -44.9573 -44.9546 -44.9240 -44.9208
   -44.9193 -44.9171 -44.9147 -44.9124 -44.7708 -44.7619 -44.7574 -44.7402
   -44.7371 -44.7235  -3.9223  -3.5572  -3.0623  -2.9761  -2.9074  -2.7747
    -2.6767  -2.5814  -2.5241  -2.3965  -2.2830  -2.1907  -2.1763  -2.1102
    -2.0359  -1.8644  -1.8136  -1.6322  -1.4900  -1.4531  -1.4063  -1.3876
    -1.3340  -1.3267  -1.3141  -1.0328  -1.0162  -0.9797  -0.9530  -0.7990
    -0.6714  -0.5705  -0.5534  -0.1566   0.2523   0.6488   0.7937   0.7982
     0.8128   0.8962   1.1552   1.4496   1.4956   1.5185   1.7368   1.7407
     1.8036   1.8983   1.9686   2.0051   2.0557   2.1460   2.2401   2.3730
     2.4059   2.4548   2.4766   2.7111   2.8118   2.8566   2.9962   3.1119
     3.1713   3.1971   3.2217   3.4673   3.5622   4.0586   4.1039   4.3323
     5.0474   5.2149   5.4094   5.7216   6.5732   6.6133   7.1454   7.1583
     7.3188   7.3251   7.5637

     the Fermi energy is     1.0039 ev

!    total energy              =   -2471.63376214 Ry
     Harris-Foulkes estimate   =   -2471.63375846 Ry
     estimated scf accuracy    <       0.00000091 Ry

     The total energy is the sum of the following terms:

     one-electron contribution =  -19318.05533900 Ry
     hartree contribution      =    9678.31045835 Ry
     xc contribution           =    -361.38756907 Ry
     ewald contribution        =    7529.53412358 Ry
     electric field correction =       0.00000118 Ry
     smearing contrib. (-TS)   =      -0.03543718 Ry

     total magnetization       =    27.54 Bohr mag/cell
     absolute magnetization    =    28.00 Bohr mag/cell

     convergence has been achieved in  21 iterations

 BEEF-vdW xc energy contributions
           1 :   -315.178301178165
           2 :    286.144139214156
           3 :   -237.635194674392
           4 :    183.708834922861
           5 :   -136.553326189965
           6 :    102.551115381842
           7 :   -81.9790040554822
           8 :    71.1290912621641
           9 :   -65.0265294269971
          10 :    59.5532522328822
          11 :   -52.5881510036710
          12 :    44.1675064105348
          13 :   -35.8268953364271
          14 :    29.4073176722643
          15 :   -25.8557090353199
          16 :    24.6685712132905
          17 :   -24.3259740647773
          18 :    23.3636503394786
          19 :   -21.2671082904312
          20 :    18.5749535758005
          21 :   -16.2643016264824
          22 :    14.9879573791679
          23 :   -14.7105328634133
          24 :    14.8723429960811
          25 :   -14.8320402953287
          26 :    14.2350890967178
          27 :   -13.1283916581875
          28 :    11.8460313807619
          29 :   -10.7901502289221
          30 :    10.2127351011302
          31 :   -29.4129495369974
          32 :   -21.2306056827919

     Forces acting on atoms (Ry/au):

     negative rho (up, down):  2.420E-01 2.384E-01
     atom    1 type  1   force =    -0.00189172   -0.00127691   -0.00295037
     atom    2 type  1   force =    -0.00189165   -0.00127715   -0.00294981
     atom    3 type  2   force =    -0.00254661   -0.00171918    0.01252953
     atom    4 type  2   force =    -0.00254629   -0.00171929    0.01252965
     atom    5 type  1   force =     0.00247103    0.00166771   -0.01109514
     atom    6 type  1   force =     0.00247044    0.00166835   -0.01109574
     atom    7 type  2   force =     0.00166334    0.00112360    0.00143509
     atom    8 type  2   force =     0.00166423    0.00112288    0.00143536
     atom    9 type  1   force =    -0.00006822   -0.00004681   -0.00061813
     atom   10 type  1   force =    -0.00006958   -0.00004620   -0.00061852
     atom   11 type  2   force =     0.00037179    0.00025181    0.00069799
     atom   12 type  2   force =     0.00037324    0.00025119    0.00070008

     Total force =     0.025279     Total SCF correction =     0.001644

     entering subroutine stress ...

     negative rho (up, down):  2.420E-01 2.384E-01
          total   stress  (Ry/bohr**3)                   (kbar)     P=   -9.12
  -0.00007240   0.00001091   0.00000884        -10.65      1.61      1.30
   0.00001091  -0.00008120   0.00000597          1.61    -11.94      0.88
   0.00000884   0.00000597  -0.00003239          1.30      0.88     -4.76

 !ASE

     Writing output data file calc.save

     General routines

     Parallel routines

   This run was terminated on:  18:29:41  18Dec2018

   JOB DONE.
Job  /afs/slac/g/suncat/bin/suncat-tsmpirun -x LD_LIBRARY_PATH -wdir /scratch/qe530218_0hcoa pw.x -in pw.inp

TID   HOST_NAME   COMMAND_LINE            STATUS            TERMINATION_TIME
00000 suncat2056 pw.x -in pw.inp   Done                     12/18/2018 18:29:41
00001 suncat2056 pw.x -in pw.inp   Done                     12/18/2018 18:29:41
00002 suncat2056 pw.x -in pw.inp   Done                     12/18/2018 18:29:41
00003 suncat2056 pw.x -in pw.inp   Done                     12/18/2018 18:29:41
00004 suncat2056 pw.x -in pw.inp   Done                     12/18/2018 18:29:41
00005 suncat2056 pw.x -in pw.inp   Done                     12/18/2018 18:29:41
00006 suncat2056 pw.x -in pw.inp   Done                     12/18/2018 18:29:41
00007 suncat2056 pw.x -in pw.inp   Done                     12/18/2018 18:29:41
00008 suncat2056 pw.x -in pw.inp   Done                     12/18/2018 18:29:41
00009 suncat2056 pw.x -in pw.inp   Done                     12/18/2018 18:29:41
00010 suncat2056 pw.x -in pw.inp   Done                     12/18/2018 18:29:41
00011 suncat2056 pw.x -in pw.inp   Done                     12/18/2018 18:29:41
00012 suncat2056 pw.x -in pw.inp   Done                     12/18/2018 18:29:41
00013 suncat2056 pw.x -in pw.inp   Done                     12/18/2018 18:29:41
00014 suncat2056 pw.x -in pw.inp   Done                     12/18/2018 18:29:41
00015 suncat2056 pw.x -in pw.inp   Done                     12/18/2018 18:29:41
00016 suncat2055 pw.x -in pw.inp   Done                     12/18/2018 18:29:41
00017 suncat2055 pw.x -in pw.inp   Done                     12/18/2018 18:29:41
00018 suncat2055 pw.x -in pw.inp   Done                     12/18/2018 18:29:41
00019 suncat2055 pw.x -in pw.inp   Done                     12/18/2018 18:29:41
00020 suncat2055 pw.x -in pw.inp   Done                     12/18/2018 18:29:41
00021 suncat2055 pw.x -in pw.inp   Done                     12/18/2018 18:29:41
00022 suncat2055 pw.x -in pw.inp   Done                     12/18/2018 18:29:41
00023 suncat2055 pw.x -in pw.inp   Done                     12/18/2018 18:29:41
00024 suncat2055 pw.x -in pw.inp   Done                     12/18/2018 18:29:41
00025 suncat2055 pw.x -in pw.inp   Done                     12/18/2018 18:29:41
00026 suncat2055 pw.x -in pw.inp   Done                     12/18/2018 18:29:41
00027 suncat2055 pw.x -in pw.inp   Done                     12/18/2018 18:29:41
00028 suncat2055 pw.x -in pw.inp   Done                     12/18/2018 18:29:41
00029 suncat2055 pw.x -in pw.inp   Done                     12/18/2018 18:29:41
00030 suncat2055 pw.x -in pw.inp   Done                     12/18/2018 18:29:41
00031 suncat2055 pw.x -in pw.inp   Done                     12/18/2018 18:29:41