     Program PWSCF v.5.1rc2 (svn rev. 11289) starts on 19Dec2018 at  7: 5:42

     Current dimensions of program PWSCF are:
     Max number of different atomic species (ntypx) = 10
     Max number of k-points (npk) =  40000
     Max angular momentum in pseudopotentials (lmaxx) =  3
     Presently stress not available with electric field

     IMPORTANT: XC functional enforced from input :
     Exchange-correlation      = BEEF-VDW ( 1  4 27 13 2)
     Any further DFT definition will be discarded
     Please, verify this is what you really want

     Subspace diagonalization in iterative solution of the eigenvalue problem:
     a serial algorithm will be used

     Found symmetry operation: I + (  0.5000  0.5000  0.0000)
     This is a supercell, fractional translations are disabled

     bravais-lattice index     =            0
     lattice parameter (alat)  =       1.8897  a.u.
     unit-cell volume          =    3954.7082 (a.u.)^3
     number of atoms/cell      =           12
     number of atomic types    =            2
     number of electrons       =       180.00
     number of Kohn-Sham states=          120
     kinetic-energy cutoff     =      36.7493  Ry
     charge density cutoff     =     367.4932  Ry
     convergence threshold     =      1.0E-06
     mixing beta               =       0.1000
     number of iterations used =           10  plain     mixing
     Exchange-correlation      = BEEF-VDW ( 1  4 27 13 2)
     nstep                     =           50

     celldm(1)=   1.889726  celldm(2)=   0.000000  celldm(3)=   0.000000
     celldm(4)=   0.000000  celldm(5)=   0.000000  celldm(6)=   0.000000

     crystal axes: (cart. coord. in units of alat)
               a(1) = (   5.241237   0.000000   0.000000 )
               a(2) = (   2.511725   4.600196   0.000000 )
               a(3) = (   0.000000   0.000000  24.305679 )

     reciprocal axes: (cart. coord. in units 2 pi/alat)
               b(1) = (  0.190795 -0.104175  0.000000 )
               b(2) = (  0.000000  0.217382  0.000000 )
               b(3) = (  0.000000  0.000000  0.041143 )

     PseudoPot. # 1 for Cr read from file:
     /afs/slac.stanford.edu/u/if/mamunm/psp/gbrv1.5pbe/Cr.UPF
     MD5 check sum: 0d52af634a40206e4dee301ad30da4bf
     Pseudo is Ultrasoft + core correction, Zval = 14.0
     Generated by new atomic code, or converted to UPF format
     Using radial grid of  857 points,  6 beta functions with:
                l(1) =   0
                l(2) =   0
                l(3) =   1
                l(4) =   1
                l(5) =   2
                l(6) =   2
     Q(r) pseudized with  8 coefficients,  rinner =    0.950   0.950   0.950
                                                       0.950   0.950

     PseudoPot. # 2 for Ru read from file:
     /afs/slac.stanford.edu/u/if/mamunm/psp/gbrv1.5pbe/Ru.UPF
     MD5 check sum: 7158a806dd851261a58e6920c40ebe78
     Pseudo is Ultrasoft + core correction, Zval = 16.0
     Generated by new atomic code, or converted to UPF format
     Using radial grid of  967 points,  6 beta functions with:
                l(1) =   0
                l(2) =   0
                l(3) =   1
                l(4) =   1
                l(5) =   2
                l(6) =   2
     Q(r) pseudized with  8 coefficients,  rinner =    1.300   1.300   1.300
                                                       1.300   1.300

     vdW kernel table read from file vdW_kernel_table
     MD5 check sum: 095c7af220d748ca6e76c0b4c6cfb241

     atomic species   valence    mass     pseudopotential
        Cr1           14.00    51.99610     Cr( 1.00)
        Ru1           16.00   101.07000     Ru( 1.00)

     No symmetry found

   Cartesian axes

     site n.     atom                  positions (alat units)
         1           Cr1 tau(   1) = (   0.0000000   0.0000000  10.0000000  )
         2           Cr1 tau(   2) = (   3.8764808   2.3000979  10.0000000  )
         3           Ru1 tau(   3) = (   2.6206184   0.0000000  10.0000000  )
         4           Ru1 tau(   4) = (   1.2558624   2.3000979  10.0000000  )
         5           Cr1 tau(   5) = (   5.2412368   3.1098717  12.1528393  )
         6           Cr1 tau(   6) = (   1.3647560   0.8097738  12.1528393  )
         7           Ru1 tau(   7) = (   2.6206184   3.1098717  12.1528393  )
         8           Ru1 tau(   8) = (   3.9853744   0.8097738  12.1528393  )
         9           Cr1 tau(   9) = (   2.7295120   1.6195475  14.3056785  )
        10           Cr1 tau(  10) = (   6.6059928   3.9196454  14.3056785  )
        11           Ru1 tau(  11) = (   5.3501304   1.6195475  14.3056785  )
        12           Ru1 tau(  12) = (   3.9853744   3.9196454  14.3056785  )

     number of k points=    20  Fermi-Dirac smearing, width (Ry)=  0.0110
                       cart. coord. in units 2pi/alat
        k(    1) = (   0.0000000   0.0000000   0.0000000), wk =   0.0555556
        k(    2) = (   0.0000000   0.0362303   0.0000000), wk =   0.1111111
        k(    3) = (   0.0000000   0.0724607   0.0000000), wk =   0.1111111
        k(    4) = (   0.0000000  -0.1086910   0.0000000), wk =   0.0555556
        k(    5) = (   0.0317991  -0.0173624   0.0000000), wk =   0.1111111
        k(    6) = (   0.0317991   0.0188679   0.0000000), wk =   0.1111111
        k(    7) = (   0.0317991   0.0550982   0.0000000), wk =   0.1111111
        k(    8) = (   0.0317991  -0.1260535   0.0000000), wk =   0.1111111
        k(    9) = (   0.0317991  -0.0898231   0.0000000), wk =   0.1111111
        k(   10) = (   0.0317991  -0.0535928   0.0000000), wk =   0.1111111
        k(   11) = (   0.0635982  -0.0347249   0.0000000), wk =   0.1111111
        k(   12) = (   0.0635982   0.0015055   0.0000000), wk =   0.1111111
        k(   13) = (   0.0635982   0.0377358   0.0000000), wk =   0.1111111
        k(   14) = (   0.0635982  -0.1434159   0.0000000), wk =   0.1111111
        k(   15) = (   0.0635982  -0.1071856   0.0000000), wk =   0.1111111
        k(   16) = (   0.0635982  -0.0709552   0.0000000), wk =   0.1111111
        k(   17) = (  -0.0953973   0.0520873   0.0000000), wk =   0.0555556
        k(   18) = (  -0.0953973   0.0883177   0.0000000), wk =   0.1111111
        k(   19) = (  -0.0953973   0.1245480   0.0000000), wk =   0.1111111
        k(   20) = (  -0.0953973  -0.0566037   0.0000000), wk =   0.0555556

     Largest allocated arrays     est. size (Mb)     dimensions
     Largest temporary arrays     est. size (Mb)     dimensions

     Check: negative/imaginary core charge=   -0.000003    0.000000

     Initial potential from superposition of free atoms
     Check: negative starting charge=   -0.449092

     starting charge  167.99981, renormalised to  180.00000

     negative rho (up, down):  4.812E-01 0.000E+00

     *
     * You are using vdW-DF for exchange-correlation in this calculation.
     * Please cite the following three references that made this development
     * possible:
     *
     *   M. Dion, H. Rydberg, E. Schroder, D. C. Langreth, and
     *   B. I. Lundqvist, Phys. Rev. Lett. 92, 246401 (2004).
     *
     *   T. Thonhauser, V. R. Cooper, S. Li, A. Puzder, P. Hyldgaard, and
     *   D. C. Langreth, Phys. Rev. B 76, 125112 (2007).
     *
     *   G. Roman-Perez and J. M. Soler, Phys. Rev. Lett. 103, 096102 (2009).
     *
     *
     * If you are using vdW-DF2, please also cite:
     *
     *   K. Lee, E. D. Murray, L. Kong, B. I. Lundqvist, and
     *   D. C. Langreth, Phys. Rev. B 82, 081101(R) (2010).
     *
     *
     * If you are calculating the stress with vdW-DF, please also cite:
     *
     *   R. Sabatini, E. Kucukbenli, B. Kolb, T. Thonhauser, and
     *   S. de Gironcoli, J. Phys.: Condens. Matter 24, 424209 (2012).
     *

     Carrying out vdW-DF run using the following parameters:

     Nqs =      20    Nr_points =    1024   r_max =   100.000
     q_mesh =
               0.00001000     0.04494208     0.09755937     0.15916263
               0.23128650     0.31572767     0.41458969     0.53033537
               0.66584808     0.82450364     1.01025438     1.22772762
               1.48234092     1.78043706     2.12944203     2.53805004
               3.01644009     3.57652955     4.23227104     5.00000000

     Gradients computed in reciprocal space

     Adding external electric field

     Computed dipole along edir(3) :
        Dipole                0.0000 Ry au,          0.0000 Debye
        Dipole field          0.0000 Ry au

        Potential amp.       -0.0000 Ry
        Total length         44.7828 bohr

     Starting wfc are  138 randomized atomic wfcs

     Self-consistent Calculation

     iteration #  1     ecut=    36.75 Ry     beta=0.10
     Davidson diagonalization with overlap
     ethr =  1.00E-02,  avg # of iterations =  8.4

[...]

     total energy              =   -2230.22652078 Ry
     Harris-Foulkes estimate   =   -2234.43048140 Ry
     estimated scf accuracy    <      26.00644760 Ry

[...]

     End of self-consistent calculation

          k = 0.0000 0.0000 0.0000 ( 14925 PWs)   bands (ev):

   -71.2195 -71.1549 -70.8451 -70.8449 -70.7814 -70.7802 -70.1054 -70.0773
   -69.9846 -69.9827 -69.9549 -69.9538 -41.7077 -41.6984 -41.6900 -41.6142
   -41.5302 -41.5284 -41.5038 -41.4482 -41.4080 -41.4039 -41.3824 -41.3486
   -41.3366 -41.2880 -41.2848 -41.2206 -41.1291 -41.0935 -41.0660 -41.0551
   -41.0504 -40.9966 -40.9135 -40.9079 -40.8787 -40.8295 -40.7993 -40.7474
   -40.6876 -40.6730 -40.6491 -40.6325 -40.6117 -40.5974 -40.5032 -40.4983
    -4.9649  -3.4655  -3.3684  -3.1310  -3.0515  -3.0390  -2.7010  -2.5108
    -2.4340  -2.4155  -2.3249  -2.2202  -2.1776  -2.1602  -1.5244  -1.4239
    -1.0436  -0.6430  -0.4932  -0.2327  -0.1341  -0.1204   0.0649   0.0713
     0.3937   0.5149   0.5320   0.5965   0.6621   0.9424   1.1433   1.3110
     1.3498   1.4279   1.4340   1.4414   1.8284   1.9261   2.0668   2.0975
     2.1007   2.2553   2.3281   2.5743   2.5858   2.7674   2.8109   3.1114
     3.1769   3.2265   3.3189   3.3565   3.3772   3.4090   3.5374   3.7445
     3.8079   3.8344   3.8997   3.9758   4.0437   4.0605   4.1427   4.1534
     4.1658   4.1755   4.2209   5.9507   6.0334   6.0698   6.1197   6.1628

[...]

          k =-0.0954 0.0521 0.0000 ( 14886 PWs)   bands (ev):

[...]

     the Fermi energy is     1.8311 ev

!    total energy              =   -2228.13791083 Ry
     Harris-Foulkes estimate   =   -2228.13791252 Ry
     estimated scf accuracy    <       0.00000084 Ry

     The total energy is the sum of the following terms:

     one-electron contribution =  -20633.32263764 Ry
     hartree contribution      =   10311.53690821 Ry
     xc contribution           =    -300.44406630 Ry
     ewald contribution        =    8394.20417593 Ry
     electric field correction =       0.00000000 Ry
     smearing contrib. (-TS)   =      -0.11229103 Ry

     convergence has been achieved in  25 iterations

 BEEF-vdW xc energy contributions
           1 :   -260.431984469564
           2 :    237.005954196230
           3 :   -197.169997121815
           4 :    151.855083155441
           5 :   -111.520352535337
           6 :    82.6027269095207
           7 :   -66.1960642957847
           8 :    59.1129448369384
[...]
00030 suncat0221 pw.x -in pw.inp   Done                     12/19/2018 07:22:30
00031 suncat0221 pw.x -in pw.inp   Done                     12/19/2018 07:22:30

     Program PWSCF v.5.1rc2 (svn rev. 11289) starts on 19Dec2018 at  7:22:36

[...]

     Found symmetry operation: I + (  0.5000  0.5000  0.0000)
     This is a supercell, fractional translations are disabled

[...]

   This run was terminated on:   8:46:53  19Dec2018

[...]

     Program PWSCF v.5.1rc2 (svn rev. 11289) starts on 19Dec2018 at  8:46:59

     Current dimensions of program PWSCF are:
     Max number of different atomic species (ntypx) = 10
     Max number of k-points (npk) =  40000
     Max angular momentum in pseudopotentials (lmaxx) =  3
     Presently stress not available with electric field

     IMPORTANT: XC functional enforced from input :
     Exchange-correlation      = BEEF-VDW ( 1  4 27 13 2)
     Any further DFT definition will be discarded
     Please, verify this is what you really want

     Subspace diagonalization in iterative solution of the eigenvalue problem:
     a serial algorithm will be used

     bravais-lattice index     =            0
     lattice parameter (alat)  =       1.8897  a.u.
     unit-cell volume          =    3954.7082 (a.u.)^3
     number of atoms/cell      =           12
     number of atomic types    =            2
     number of electrons       =       180.00
     number of Kohn-Sham states=          120
     kinetic-energy cutoff     =      36.7493  Ry
     charge density cutoff     =     367.4932  Ry
     convergence threshold     =      1.0E-06
     mixing beta               =       0.1000
     number of iterations used =           10  plain     mixing
     Exchange-correlation      = BEEF-VDW ( 1  4 27 13 2)
     nstep                     =           50

     celldm(1)=   1.889726  celldm(2)=   0.000000  celldm(3)=   0.000000
     celldm(4)=   0.000000  celldm(5)=   0.000000  celldm(6)=   0.000000

     crystal axes: (cart. coord. in units of alat)
               a(1) = (   5.241237   0.000000   0.000000 )
               a(2) = (   2.511725   4.600196   0.000000 )
               a(3) = (   0.000000   0.000000  24.305679 )

     reciprocal axes: (cart. coord. in units 2 pi/alat)
               b(1) = (  0.190795 -0.104175  0.000000 )
               b(2) = (  0.000000  0.217382  0.000000 )
               b(3) = (  0.000000  0.000000  0.041143 )

     PseudoPot. # 1 for Cr read from file:
     /afs/slac.stanford.edu/u/if/mamunm/psp/gbrv1.5pbe/Cr.UPF
     MD5 check sum: 0d52af634a40206e4dee301ad30da4bf
     Pseudo is Ultrasoft + core correction, Zval = 14.0
     Generated by new atomic code, or converted to UPF format
     Using radial grid of  857 points,  6 beta functions with:
                l(1) =   0
                l(2) =   0
                l(3) =   1
                l(4) =   1
                l(5) =   2
                l(6) =   2
     Q(r) pseudized with  8 coefficients,  rinner =    0.950   0.950   0.950
                                                       0.950   0.950

     PseudoPot. # 2 for Ru read from file:
     /afs/slac.stanford.edu/u/if/mamunm/psp/gbrv1.5pbe/Ru.UPF
     MD5 check sum: 7158a806dd851261a58e6920c40ebe78
     Pseudo is Ultrasoft + core correction, Zval = 16.0
     Generated by new atomic code, or converted to UPF format
     Using radial grid of  967 points,  6 beta functions with:
                l(1) =   0
                l(2) =   0
                l(3) =   1
                l(4) =   1
                l(5) =   2
                l(6) =   2
     Q(r) pseudized with  8 coefficients,  rinner =    1.300   1.300   1.300
                                                       1.300   1.300

     vdW kernel table read from file vdW_kernel_table
     MD5 check sum: 095c7af220d748ca6e76c0b4c6cfb241

     atomic species   valence    mass     pseudopotential
        Cr1           14.00    51.99610     Cr( 1.00)
        Ru1           16.00   101.07000     Ru( 1.00)

     No symmetry found

   Cartesian axes

     site n.     atom                  positions (alat units)
         1           Cr1 tau(   1) = (   0.0000000   0.0000000  10.0000000  )
         2           Cr1 tau(   2) = (   3.8764808   2.3000979  10.0000000  )
         3           Ru1 tau(   3) = (   2.6206184   0.0000000  10.0000000  )
         4           Ru1 tau(   4) = (   1.2558624   2.3000979  10.0000000  )
         5           Cr1 tau(   5) = (   5.2412368   3.1098717  12.1528393  )
         6           Cr1 tau(   6) = (   1.3647560   0.8097738  12.1528393  )
         7           Ru1 tau(   7) = (   2.6206184   3.1098717  12.1528393  )
         8           Ru1 tau(   8) = (   3.9853744   0.8097738  12.1528393  )
         9           Cr1 tau(   9) = (   2.6460194   1.5700076  14.1433983  )
        10           Cr1 tau(  10) = (   6.5224309   3.8700643  14.1433882  )
        11           Ru1 tau(  11) = (   5.3069255   1.5942974  14.2629593  )
        12           Ru1 tau(  12) = (   3.9425077   3.8938257  14.2629574  )

     number of k points=    20  Fermi-Dirac smearing, width (Ry)=  0.0110
                       cart. coord. in units 2pi/alat
        k(    1) = (   0.0000000   0.0000000   0.0000000), wk =   0.0555556
        k(    2) = (   0.0000000   0.0362303   0.0000000), wk =   0.1111111
        k(    3) = (   0.0000000   0.0724607   0.0000000), wk =   0.1111111
        k(    4) = (   0.0000000  -0.1086910   0.0000000), wk =   0.0555556
        k(    5) = (   0.0317991  -0.0173624   0.0000000), wk =   0.1111111
        k(    6) = (   0.0317991   0.0188679   0.0000000), wk =   0.1111111
        k(    7) = (   0.0317991   0.0550982   0.0000000), wk =   0.1111111
        k(    8) = (   0.0317991  -0.1260535   0.0000000), wk =   0.1111111
        k(    9) = (   0.0317991  -0.0898231   0.0000000), wk =   0.1111111
        k(   10) = (   0.0317991  -0.0535928   0.0000000), wk =   0.1111111
        k(   11) = (   0.0635982  -0.0347249   0.0000000), wk =   0.1111111
        k(   12) = (   0.0635982   0.0015055   0.0000000), wk =   0.1111111
        k(   13) = (   0.0635982   0.0377358   0.0000000), wk =   0.1111111
        k(   14) = (   0.0635982  -0.1434159   0.0000000), wk =   0.1111111
        k(   15) = (   0.0635982  -0.1071856   0.0000000), wk =   0.1111111
        k(   16) = (   0.0635982  -0.0709552   0.0000000), wk =   0.1111111
        k(   17) = (  -0.0953973   0.0520873   0.0000000), wk =   0.0555556
        k(   18) = (  -0.0953973   0.0883177   0.0000000), wk =   0.1111111
        k(   19) = (  -0.0953973   0.1245480   0.0000000), wk =   0.1111111
        k(   20) = (  -0.0953973  -0.0566037   0.0000000), wk =   0.0555556

     Largest allocated arrays     est. size (Mb)     dimensions
     Largest temporary arrays     est. size (Mb)     dimensions

     Check: negative/imaginary core charge=   -0.000003    0.000000

     Initial potential from superposition of free atoms
     Check: negative starting charge=   -0.447392

     starting charge  167.99981, renormalised to  180.00000

[...]

     *
     * You are using vdW-DF for exchange-correlation in this calculation.
     * Please cite the following three references that made this development
     * possible:
     *
     *   M. Dion, H. Rydberg, E. Schroder, D. C. Langreth, and
     *   B. I. Lundqvist, Phys. Rev. Lett. 92, 246401 (2004).
     *
     *   T. Thonhauser, V. R. Cooper, S. Li, A. Puzder, P. Hyldgaard, and
     *   D. C. Langreth, Phys. Rev. B 76, 125112 (2007).
     *
     *   G. Roman-Perez and J. M. Soler, Phys. Rev. Lett. 103, 096102 (2009).
     *
     *
     * If you are using vdW-DF2, please also cite:
     *
     *   K. Lee, E. D. Murray, L. Kong, B. I. Lundqvist, and
     *   D. C. Langreth, Phys. Rev. B 82, 081101(R) (2010).
     *
     *
     * If you are calculating the stress with vdW-DF, please also cite:
     *
     *   R. Sabatini, E. Kucukbenli, B. Kolb, T. Thonhauser, and
     *   S. de Gironcoli, J. Phys.: Condens. Matter 24, 424209 (2012).
     *

     Carrying out vdW-DF run using the following parameters:

     Nqs =      20    Nr_points =    1024   r_max =   100.000
     q_mesh =
               0.00001000     0.04494208     0.09755937     0.15916263
               0.23128650     0.31572767     0.41458969     0.53033537
               0.66584808     0.82450364     1.01025438     1.22772762
               1.48234092     1.78043706     2.12944203     2.53805004
               3.01644009     3.57652955     4.23227104     5.00000000

     Gradients computed in reciprocal space

[...]

     Starting wfc are  138 randomized atomic wfcs

     Self-consistent Calculation

[...]

     total energy              =   -2228.15091333 Ry
     Harris-Foulkes estimate   =   -2228.15091409 Ry
     estimated scf accuracy    <       0.00000157 Ry

     iteration # 25     ecut=    36.75 Ry     beta=0.10
     Davidson diagonalization with overlap
     ethr =  8.74E-10,  avg # of iterations =  1.9

[...]

     negative rho (up, down):  4.646E-01 0.000E+00

     Adding external electric field

     Computed dipole along edir(3) :
        Dipole                0.0226 Ry au,          0.0575 Debye
        Dipole field          0.0001 Ry au

        Potential amp.       -0.0064 Ry
        Total length         44.7828 bohr

     End of self-consistent calculation

[...]

          k = 0.0636-0.0710 0.0000 ( 14884 PWs)   bands (ev):

[...]

          k =-0.0954-0.0566 0.0000 ( 14858 PWs)   bands (ev):

   -71.2571 -71.1946 -70.8353 -70.8221 -70.7741 -70.7607 -70.0972 -70.0656
   -70.0125 -69.9797 -69.9285 -69.8962 -41.6244 -41.6070 -41.5904 -41.5245
   -41.4811 -41.4779 -41.4749 -41.4395 -41.3456 -41.3275 -41.3210 -41.3118
   -41.2702 -41.2665 -41.2599 -41.2423 -41.1718 -41.1449 -41.1179 -41.0783
   -41.0569 -41.0315 -41.0295 -41.0069 -40.9772 -40.8687 -40.8004 -40.7600
   -40.7462 -40.7055 -40.6980 -40.6792 -40.6739 -40.6524 -40.5110 -40.5055
    -3.5289  -3.1415  -2.8931  -2.5020  -2.3980  -2.2874  -2.2369  -2.1103
    -1.9436  -1.8769  -1.5449  -1.5137  -1.3686  -1.3377  -1.2822  -1.2029
    -1.1979  -0.8045  -0.6200  -0.3139  -0.1806  -0.1704   0.0279   0.0621
     0.1399   0.2036   0.4636   0.4932   0.5578   0.6603   0.7502   0.8198
     0.9156   0.9347   0.9945   1.0127   1.0290   1.0525   1.1275   1.2588
     1.2589   1.5289   1.6845   1.8275   1.8421   1.8602   2.0890   2.1123
     2.1921   2.3614   2.4760   2.5316   2.5820   2.6474   2.6991   2.8424
     2.8738   2.9531   3.2790   3.3514   3.5872   3.7142   3.7733   3.8349
     4.7406   4.9190   5.4065   6.1206   6.1690   6.6197   6.6887   6.8403

     the Fermi energy is     1.8344 ev

!    total energy              =   -2228.15091089 Ry
     Harris-Foulkes estimate   =   -2228.15091343 Ry
     estimated scf accuracy    <       0.00000081 Ry

     The total energy is the sum of the following terms:

     one-electron contribution =  -20918.89718967 Ry
     hartree contribution      =   10454.33400590 Ry
     xc contribution           =    -300.65271292 Ry
     ewald contribution        =    8537.17175307 Ry
     electric field correction =       0.00000162 Ry
     smearing contrib. (-TS)   =      -0.10676890 Ry

     convergence has been achieved in  25 iterations

 BEEF-vdW xc energy contributions
           1 :   -260.646820049200
           2 :    237.298053339444
           3 :   -197.554624698364
           4 :    152.266002865251
           5 :   -111.846430139361
           6 :    82.7561153204389
           7 :   -66.1667946731958
           8 :    58.9756906886133
           9 :   -56.2546188495494
          10 :    53.7536634593939
          11 :   -49.3714170415404
          12 :    43.2346157959652
          13 :   -36.7605887515828
          14 :    31.4397788071245
          15 :   -28.0011466151299
          16 :    26.2453685421547
          17 :   -25.4166978993976
          18 :    24.7410940486012
          19 :   -23.7832387178009
          20 :    22.4847740857963
          21 :   -20.9828495303934
          22 :    19.4153958070474
          23 :   -17.8594551245594
          24 :    16.3924980876051
          25 :   -15.1582531374231
          26 :    14.3320190779835
          27 :   -13.9915436157909
          28 :    13.9993886463149
          29 :   -14.0127672980352
          30 :    13.6469474168107
          31 :   -26.3931275054599
          32 :   -19.5675679111035

     Forces acting on atoms (Ry/au):

     negative rho (up, down):  4.646E-01 0.000E+00
     atom    1 type  1   force =     0.00489616    0.00290518    0.02354510
     atom    2 type  1   force =     0.00489926    0.00290708    0.02355212
     atom    3 type  2   force =    -0.00421860   -0.00249979    0.00535828
     atom    4 type  2   force =    -0.00421553   -0.00250468    0.00535820
     atom    5 type  1   force =     0.00088156    0.00052289   -0.00484553
     atom    6 type  1   force =     0.00087706    0.00052032   -0.00483070
     atom    7 type  2   force =    -0.00098623   -0.00063879   -0.02230328
     atom    8 type  2   force =    -0.00103297   -0.00055958   -0.02230319
     atom    9 type  1   force =    -0.00046150   -0.00027382   -0.00026283
     atom   10 type  1   force =    -0.00032243   -0.00019134   -0.00027061
     atom   11 type  2   force =    -0.00005684   -0.00026511   -0.00149907
     atom   12 type  2   force =    -0.00025995    0.00007764   -0.00149849

     Total force =     0.048282     Total SCF correction =     0.001560

     entering subroutine stress ...

     negative rho (up, down):  4.646E-01 0.000E+00
          total   stress  (Ry/bohr**3)                   (kbar)     P=  -18.29
  -0.00015305  -0.00000057  -0.00000263        -22.51     -0.08     -0.39
  -0.00000057  -0.00015243  -0.00000156         -0.08    -22.42     -0.23
  -0.00000263  -0.00000156  -0.00006743         -0.39     -0.23     -9.92

 !ASE

     Writing output data file calc.save

     General routines

     Parallel routines

   This run was terminated on:   9: 3:33  19Dec2018

   JOB DONE.
Job  /afs/slac/g/suncat/bin/suncat-tsmpirun -x LD_LIBRARY_PATH -wdir /scratch/qe529759_HtKKt pw.x -in pw.inp

TID   HOST_NAME   COMMAND_LINE            STATUS            TERMINATION_TIME
00000 suncat0224 pw.x -in pw.inp   Done                     12/19/2018 09:03:33
00001 suncat0224 pw.x -in pw.inp   Done                     12/19/2018 09:03:33
00002 suncat0224 pw.x -in pw.inp   Done                     12/19/2018 09:03:33
00003 suncat0224 pw.x -in pw.inp   Done                     12/19/2018 09:03:33
00004 suncat0224 pw.x -in pw.inp   Done                     12/19/2018 09:03:33
00005 suncat0224 pw.x -in pw.inp   Done                     12/19/2018 09:03:33
00006 suncat0224 pw.x -in pw.inp   Done                     12/19/2018 09:03:33
00007 suncat0224 pw.x -in pw.inp   Done                     12/19/2018 09:03:33
00008 suncat0223 pw.x -in pw.inp   Done                     12/19/2018 09:03:33
00009 suncat0223 pw.x -in pw.inp   Done                     12/19/2018 09:03:33
00010 suncat0223 pw.x -in pw.inp   Done                     12/19/2018 09:03:33
00011 suncat0223 pw.x -in pw.inp   Done                     12/19/2018 09:03:33
00012 suncat0223 pw.x -in pw.inp   Done                     12/19/2018 09:03:33
00013 suncat0223 pw.x -in pw.inp   Done                     12/19/2018 09:03:33
00014 suncat0223 pw.x -in pw.inp   Done                     12/19/2018 09:03:33
00015 suncat0223 pw.x -in pw.inp   Done                     12/19/2018 09:03:33
00016 suncat0222 pw.x -in pw.inp   Done                     12/19/2018 09:03:33
00017 suncat0222 pw.x -in pw.inp   Done                     12/19/2018 09:03:33
00018 suncat0222 pw.x -in pw.inp   Done                     12/19/2018 09:03:33
00019 suncat0222 pw.x -in pw.inp   Done                     12/19/2018 09:03:33
00020 suncat0222 pw.x -in pw.inp   Done                     12/19/2018 09:03:33
00021 suncat0222 pw.x -in pw.inp   Done                     12/19/2018 09:03:33
00022 suncat0222 pw.x -in pw.inp   Done                     12/19/2018 09:03:33
00023 suncat0222 pw.x -in pw.inp   Done                     12/19/2018 09:03:33
00024 suncat0221 pw.x -in pw.inp   Done                     12/19/2018 09:03:33
00025 suncat0221 pw.x -in pw.inp   Done                     12/19/2018 09:03:33
00026 suncat0221 pw.x -in pw.inp   Done                     12/19/2018 09:03:33
00027 suncat0221 pw.x -in pw.inp   Done                     12/19/2018 09:03:33
00028 suncat0221 pw.x -in pw.inp   Done                     12/19/2018 09:03:33
00029 suncat0221 pw.x -in pw.inp   Done                     12/19/2018 09:03:33
00030 suncat0221 pw.x -in pw.inp   Done                     12/19/2018 09:03:33
00031 suncat0221 pw.x -in pw.inp   Done                     12/19/2018 09:03:33