     Program PWSCF v.5.1rc2 (svn rev. 11289) starts on 24Dec2018 at 22: 5:49

     Current dimensions of program PWSCF are:
     Max number of different atomic species (ntypx) = 10
     Max number of k-points (npk) =  40000
     Max angular momentum in pseudopotentials (lmaxx) =  3
     Presently stress not available with electric field

     IMPORTANT: XC functional enforced from input :
     Exchange-correlation      = BEEF-VDW ( 1  4 27 13 2)
     Any further DFT definition will be discarded
     Please, verify this is what you really want

     Subspace diagonalization in iterative solution of the eigenvalue problem:
     a serial algorithm will be used

     Found symmetry operation: I + ( -0.5000 -0.5000  0.0000)
     This is a supercell, fractional translations are disabled

     bravais-lattice index     =            0
     lattice parameter (alat)  =       1.8897  a.u.
     unit-cell volume          =    7159.9223 (a.u.)^3
     number of atoms/cell      =           12
     number of atomic types    =            2
     number of electrons       =       150.00
     number of Kohn-Sham states=          105
     kinetic-energy cutoff     =      36.7493  Ry
     charge density cutoff     =     367.4932  Ry
     convergence threshold     =      1.0E-06
     mixing beta               =       0.1000
     number of iterations used =           10  plain     mixing
     Exchange-correlation      = BEEF-VDW ( 1  4 27 13 2)
     nstep                     =           50

     celldm(1)=   1.889726  celldm(2)=   0.000000  celldm(3)=   0.000000
     celldm(4)=   0.000000  celldm(5)=   0.000000  celldm(6)=   0.000000

     crystal axes: (cart. coord. in units of alat)
               a(1) = (   6.728879   0.000000   0.000000 )
               a(2) = (   2.694184   6.165970   0.000000 )
               a(3) = (   0.000000   0.000000  25.572169 )

     reciprocal axes: (cart. coord. in units 2 pi/alat)
               b(1) = (  0.148613 -0.064936  0.000000 )
               b(2) = (  0.000000  0.162180  0.000000 )
               b(3) = (  0.000000  0.000000  0.039105 )

     PseudoPot. # 1 for In read from file:
     /afs/slac.stanford.edu/u/if/mamunm/psp/gbrv1.5pbe/In.UPF
     MD5 check sum: 90777abd96fbb83f2e67db2a40c566b9
     Pseudo is Ultrasoft + core correction, Zval = 13.0
     Generated by new atomic code, or converted to UPF format
     Using radial grid of  889 points,  6 beta functions with:
                l(1) =   0
                l(2) =   0
                l(3) =   1
                l(4) =   1
                l(5) =   2
                l(6) =   2
     Q(r) pseudized with  6 coefficients,  rinner =    1.400   1.400   1.400
                                                       1.400   1.400

     PseudoPot. # 2 for Hg read from file:
     /afs/slac.stanford.edu/u/if/mamunm/psp/gbrv1.5pbe/Hg.UPF
     MD5 check sum: 8f42caffe07f7fd9c0a564347f8c5498
     Pseudo is Ultrasoft + core correction, Zval = 12.0
     Generated by new atomic code, or converted to UPF format
     Using radial grid of  985 points,  6 beta functions with:
                l(1) =   0
                l(2) =   0
                l(3) =   1
                l(4) =   1
                l(5) =   2
                l(6) =   2
     Q(r) pseudized with  8 coefficients,  rinner =    2.000   2.000   2.000
                                                       2.000   2.000

     vdW kernel table read from file vdW_kernel_table
     MD5 check sum: 095c7af220d748ca6e76c0b4c6cfb241

     atomic species   valence    mass     pseudopotential
        In1           13.00   114.81800     In( 1.00)
        Hg1           12.00   200.59200     Hg( 1.00)

     No symmetry found

   Cartesian axes

     site n.     atom                  positions (alat units)
         1           In1 tau(   1) = (   0.0000000   0.0000000  10.0000000  )
         2           In1 tau(   2) = (   4.7115314   3.0829851  10.0000000  )
         3           Hg1 tau(   3) = (   3.3644395   0.0000000  10.0000000  )
         4           Hg1 tau(   4) = (   1.3470919   3.0829851  10.0000000  )
         5           In1 tau(   5) = (   6.7288791   4.4030341  12.7860846  )
         6           In1 tau(   6) = (   2.0173477   1.3200491  12.7860846  )
         7           Hg1 tau(   7) = (   3.3644395   4.4030341  12.7860846  )
         8           Hg1 tau(   8) = (   5.3817872   1.3200491  12.7860846  )
         9           In1 tau(   9) = (   4.0346953   2.6400982  15.5721692  )
        10           In1 tau(  10) = (   8.7462267   5.7230832  15.5721692  )
        11           Hg1 tau(  11) = (   7.3991349   2.6400982  15.5721692  )
        12           Hg1 tau(  12) = (   5.3817872   5.7230832  15.5721692  )

     number of k points=    20  Fermi-Dirac smearing, width (Ry)=  0.0110
                       cart. coord. in units 2pi/alat
        k(    1) = (   0.0000000   0.0000000   0.0000000), wk =   0.0555556
        k(    2) = (   0.0000000   0.0270301   0.0000000), wk =   0.1111111
        k(    3) = (   0.0000000   0.0540602   0.0000000), wk =   0.1111111
        k(    4) = (   0.0000000  -0.0810902   0.0000000), wk =   0.0555556
        k(    5) = (   0.0247689  -0.0108226   0.0000000), wk =   0.1111111
        k(    6) = (   0.0247689   0.0162075   0.0000000), wk =   0.1111111
        k(    7) = (   0.0247689   0.0432376   0.0000000), wk =   0.1111111
        k(    8) = (   0.0247689  -0.0919128   0.0000000), wk =   0.1111111
        k(    9) = (   0.0247689  -0.0648828   0.0000000), wk =   0.1111111
        k(   10) = (   0.0247689  -0.0378527   0.0000000), wk =   0.1111111
        k(   11) = (   0.0495377  -0.0216452   0.0000000), wk =   0.1111111
        k(   12) = (   0.0495377   0.0053849   0.0000000), wk =   0.1111111
        k(   13) = (   0.0495377   0.0324149   0.0000000), wk =   0.1111111
        k(   14) = (   0.0495377  -0.1027355   0.0000000), wk =   0.1111111
        k(   15) = (   0.0495377  -0.0757054   0.0000000), wk =   0.1111111
        k(   16) = (   0.0495377  -0.0486753   0.0000000), wk =   0.1111111
        k(   17) = (  -0.0743066   0.0324678   0.0000000), wk =   0.0555556
        k(   18) = (  -0.0743066   0.0594979   0.0000000), wk =   0.1111111
        k(   19) = (  -0.0743066   0.0865280   0.0000000), wk =   0.1111111
        k(   20) = (  -0.0743066  -0.0486224   0.0000000), wk =   0.0555556

     Largest allocated arrays     est. size (Mb)     dimensions
     Largest temporary arrays     est. size (Mb)     dimensions

     Initial potential from superposition of free atoms
     Check: negative starting charge=   -0.000150

     starting charge  140.99965, renormalised to  150.00000

     negative rho (up, down):  1.596E-04 0.000E+00

     *
     * You are using vdW-DF for exchange-correlation in this calculation.
     * Please cite the following three references that made this development
     * possible:
     *
     *   M. Dion, H. Rydberg, E. Schroder, D. C. Langreth, and
     *   B. I. Lundqvist, Phys. Rev. Lett. 92, 246401 (2004).
     *
     *   T. Thonhauser, V. R. Cooper, S. Li, A. Puzder, P. Hyldgaard, and
     *   D. C. Langreth, Phys. Rev. B 76, 125112 (2007).
     *
     *   G. Roman-Perez and J. M. Soler, Phys. Rev. Lett. 103, 096102 (2009).
     *
     *
     * If you are using vdW-DF2, please also cite:
     *
     *   K. Lee, E. D. Murray, L. Kong, B. I. Lundqvist, and
     *   D. C. Langreth, Phys. Rev. B 82, 081101(R) (2010).
     *
     *
     * If you are calculating the stress with vdW-DF, please also cite:
     *
     *   R. Sabatini, E. Kucukbenli, B. Kolb, T. Thonhauser, and
     *   S. de Gironcoli, J. Phys.: Condens. Matter 24, 424209 (2012).
     *

     Carrying out vdW-DF run using the following parameters:

     Nqs =      20    Nr_points =    1024   r_max =   100.000
     q_mesh =
               0.00001000     0.04494208     0.09755937     0.15916263
               0.23128650     0.31572767     0.41458969     0.53033537
               0.66584808     0.82450364     1.01025438     1.22772762
               1.48234092     1.78043706     2.12944203     2.53805004
               3.01644009     3.57652955     4.23227104     5.00000000

     Gradients computed in reciprocal space

     Adding external electric field

     Computed dipole along edir(3) :
        Dipole               -0.0000 Ry au,         -0.0000 Debye
        Dipole field         -0.0000 Ry au

        Potential amp.        0.0000 Ry
        Total length         47.1163 bohr

     Starting wfc are  108 randomized atomic wfcs

     Self-consistent Calculation

     iteration #  1     ecut=    36.75 Ry     beta=0.10
     Davidson diagonalization with overlap
     ethr =  1.00E-02,  avg # of iterations =  8.2

[...]

     total energy              =   -1464.74721761 Ry
     Harris-Foulkes estimate   =   -1466.90046691 Ry
     estimated scf accuracy    <      12.94479168 Ry

[...]

     End of self-consistent calculation

          k = 0.0000 0.0000 0.0000 ( 26981 PWs)   bands (ev):

   -14.9638 -14.9553 -14.9322 -14.9292 -14.9273 -14.9268 -14.9248 -14.9168
   -14.9125 -14.9107 -14.9091 -14.9085 -14.9040 -14.9004 -14.8952 -14.8911
   -14.8765 -14.8761 -14.8753 -14.8711 -14.8667 -14.8597 -14.8566 -14.8562
   -14.8409 -14.8292 -14.8260 -14.8191 -14.8148 -14.7752  -7.9454  -7.3030
    -7.3020  -7.2212  -7.1617  -7.0841  -7.0424  -6.9666  -6.9314  -6.9148
    -6.8999  -6.8652  -6.8481  -6.8079  -6.7502  -6.7317  -6.7272  -6.7226
    -6.6932  -6.6886  -6.6737  -6.6496  -6.6456  -6.5978  -6.5889  -6.5601
    -6.5510  -6.5306  -6.5155  -6.4692  -6.3782  -6.2740  -4.4870  -3.5416
    -3.4592  -3.3626  -3.2628  -2.9190  -2.8128  -2.4644  -2.2023  -1.4776
    -1.4010  -1.1259  -0.9502  -0.8571  -0.4479  -0.2462   0.0621   0.0662
     0.3789   0.9254   1.5488   2.6288   3.0426   3.2112   3.5911   3.6973
     3.7067   3.7233   4.2630   4.3400   4.5367   4.7634   4.8841   5.0314
     5.4924   6.0801   6.1880   6.2908   6.3132   6.4143   6.4435   6.6684
     6.8221

[...]

          k =-0.0743 0.0325 0.0000 ( 26902 PWs)   bands (ev):

[...]

     the Fermi energy is     0.1398 ev

!    total energy              =   -1463.30360753 Ry
     Harris-Foulkes estimate   =   -1463.30359692 Ry
     estimated scf accuracy    <       0.00000088 Ry

     The total energy is the sum of the following terms:

     one-electron contribution =   -7612.78354795 Ry
     hartree contribution      =    3888.88507505 Ry
     xc contribution           =    -476.86976174 Ry
     ewald contribution        =    2737.49868829 Ry
     electric field correction =       0.00000000 Ry
     smearing contrib. (-TS)   =      -0.03406118 Ry

     convergence has been achieved in  14 iterations

 BEEF-vdW xc energy contributions
           1 :   -417.796098683395
           2 :    382.566223417974
           3 :   -322.559550468488
           4 :    253.839810137908
           5 :   -191.400287693671
           6 :    143.997235319243
           7 :   -112.551462257228
           8 :    92.2057645775365
           9 :   -76.4143595330019
          10 :    60.6811220584750
          11 :   -44.1559461468730
          12 :    28.7595559054749
          13 :   -16.9376157140544
[...]
     Generated by new atomic code, or converted to UPF format
     Using radial grid of  889 points,  6 beta functions with:
                l(1) =   0
                l(2) =   0
                l(3) =   1
                l(4) =   1
                l(5) =   2
                l(6) =   2
     Q(r) pseudized with  6 coefficients,  rinner =    1.400   1.400   1.400
                                                       1.400   1.400

     PseudoPot. # 2 for Hg read from file:
     /afs/slac.stanford.edu/u/if/mamunm/psp/gbrv1.5pbe/Hg.UPF
     MD5 check sum: 8f42caffe07f7fd9c0a564347f8c5498
     Pseudo is Ultrasoft + core correction, Zval = 12.0
     Generated by new atomic code, or converted to UPF format
     Using radial grid of  985 points,  6 beta functions with:
                l(1) =   0
                l(2) =   0
                l(3) =   1
                l(4) =   1
                l(5) =   2
                l(6) =   2
     Q(r) pseudized with  8 coefficients,  rinner =    2.000   2.000   2.000
                                                       2.000   2.000

     vdW kernel table read from file vdW_kernel_table
     MD5 check sum: 095c7af220d748ca6e76c0b4c6cfb241

     atomic species   valence    mass     pseudopotential
        In1           13.00   114.81800     In( 1.00)
        Hg1           12.00   200.59200     Hg( 1.00)

     No symmetry found

   Cartesian axes

     site n.     atom                  positions (alat units)
         1           In1 tau(   1) = (   0.0000000   0.0000000  10.0000000  )
         2           In1 tau(   2) = (   4.7115314   3.0829851  10.0000000  )
         3           Hg1 tau(   3) = (   3.3644395   0.0000000  10.0000000  )
         4           Hg1 tau(   4) = (   1.3470919   3.0829851  10.0000000  )
         5           In1 tau(   5) = (   6.7288791   4.4030341  12.7860846  )
         6           In1 tau(   6) = (   2.0173477   1.3200491  12.7860846  )
         7           Hg1 tau(   7) = (   3.3644395   4.4030341  12.7860846  )
         8           Hg1 tau(   8) = (   5.3817872   1.3200491  12.7860846  )
         9           In1 tau(   9) = (   4.0436788   2.6459722  15.5630861  )
        10           In1 tau(  10) = (   8.7552264   5.7289758  15.5630823  )
        11           Hg1 tau(  11) = (   7.3947317   2.6372178  15.7465063  )
        12           Hg1 tau(  12) = (   5.3773640   5.7202008  15.7464894  )

     number of k points=    20  Fermi-Dirac smearing, width (Ry)=  0.0110
                       cart. coord. in units 2pi/alat
        k(    1) = (   0.0000000   0.0000000   0.0000000), wk =   0.0555556
        k(    2) = (   0.0000000   0.0270301   0.0000000), wk =   0.1111111
        k(    3) = (   0.0000000   0.0540602   0.0000000), wk =   0.1111111
        k(    4) = (   0.0000000  -0.0810902   0.0000000), wk =   0.0555556
        k(    5) = (   0.0247689  -0.0108226   0.0000000), wk =   0.1111111
        k(    6) = (   0.0247689   0.0162075   0.0000000), wk =   0.1111111
        k(    7) = (   0.0247689   0.0432376   0.0000000), wk =   0.1111111
        k(    8) = (   0.0247689  -0.0919128   0.0000000), wk =   0.1111111
        k(    9) = (   0.0247689  -0.0648828   0.0000000), wk =   0.1111111
        k(   10) = (   0.0247689  -0.0378527   0.0000000), wk =   0.1111111
        k(   11) = (   0.0495377  -0.0216452   0.0000000), wk =   0.1111111
        k(   12) = (   0.0495377   0.0053849   0.0000000), wk =   0.1111111
        k(   13) = (   0.0495377   0.0324149   0.0000000), wk =   0.1111111
        k(   14) = (   0.0495377  -0.1027355   0.0000000), wk =   0.1111111
        k(   15) = (   0.0495377  -0.0757054   0.0000000), wk =   0.1111111
        k(   16) = (   0.0495377  -0.0486753   0.0000000), wk =   0.1111111
        k(   17) = (  -0.0743066   0.0324678   0.0000000), wk =   0.0555556
        k(   18) = (  -0.0743066   0.0594979   0.0000000), wk =   0.1111111
        k(   19) = (  -0.0743066   0.0865280   0.0000000), wk =   0.1111111
        k(   20) = (  -0.0743066  -0.0486224   0.0000000), wk =   0.0555556

     Largest allocated arrays     est. size (Mb)     dimensions
     Largest temporary arrays     est. size (Mb)     dimensions

     Initial potential from superposition of free atoms
     Check: negative starting charge=   -0.000150

     starting charge  140.99965, renormalised to  150.00000

[...]

     *
     * You are using vdW-DF for exchange-correlation in this calculation.
     * Please cite the following three references that made this development
     * possible:
     *
     *   M. Dion, H. Rydberg, E. Schroder, D. C. Langreth, and
     *   B. I. Lundqvist, Phys. Rev. Lett. 92, 246401 (2004).
     *
     *   T. Thonhauser, V. R. Cooper, S. Li, A. Puzder, P. Hyldgaard, and
     *   D. C. Langreth, Phys. Rev. B 76, 125112 (2007).
     *
     *   G. Roman-Perez and J. M. Soler, Phys. Rev. Lett. 103, 096102 (2009).
     *
     *
     * If you are using vdW-DF2, please also cite:
     *
     *   K. Lee, E. D. Murray, L. Kong, B. I. Lundqvist, and
     *   D. C. Langreth, Phys. Rev. B 82, 081101(R) (2010).
     *
     *
     * If you are calculating the stress with vdW-DF, please also cite:
     *
     *   R. Sabatini, E. Kucukbenli, B. Kolb, T. Thonhauser, and
     *   S. de Gironcoli, J. Phys.: Condens. Matter 24, 424209 (2012).
     *

     Carrying out vdW-DF run using the following parameters:

     Nqs =      20    Nr_points =    1024   r_max =   100.000
     q_mesh =
               0.00001000     0.04494208     0.09755937     0.15916263
               0.23128650     0.31572767     0.41458969     0.53033537
               0.66584808     0.82450364     1.01025438     1.22772762
               1.48234092     1.78043706     2.12944203     2.53805004
               3.01644009     3.57652955     4.23227104     5.00000000

     Gradients computed in reciprocal space

[...]

     Starting wfc are  108 randomized atomic wfcs

     Self-consistent Calculation

[...]

     iteration # 10     ecut=    36.75 Ry     beta=0.10
     Davidson diagonalization with overlap
     c_bands:  1 eigenvalues not converged
     ethr =  1.90E-07,  avg # of iterations =  5.4

[...]

     total energy              =   -1463.30555510 Ry
     Harris-Foulkes estimate   =   -1463.30555313 Ry
     estimated scf accuracy    <       0.00000156 Ry

     iteration # 16     ecut=    36.75 Ry     beta=0.10
     Davidson diagonalization with overlap
     ethr =  1.04E-09,  avg # of iterations =  2.1

[...]

     negative rho (up, down):  8.295E-04 0.000E+00

     Adding external electric field

     Computed dipole along edir(3) :
        Dipole               -0.0023 Ry au,         -0.0059 Debye
        Dipole field         -0.0000 Ry au

        Potential amp.        0.0004 Ry
        Total length         47.1163 bohr

     End of self-consistent calculation

[...]

          k = 0.0495-0.0487 0.0000 ( 26940 PWs)   bands (ev):

[...]

          k =-0.0743-0.0486 0.0000 ( 26962 PWs)   bands (ev):

   -14.9639 -14.9555 -14.9290 -14.9264 -14.9246 -14.9226 -14.9203 -14.9172
   -14.9125 -14.9117 -14.9071 -14.9039 -14.9019 -14.8960 -14.8945 -14.8854
   -14.8787 -14.8765 -14.8735 -14.8698 -14.8605 -14.8555 -14.8489 -14.8418
   -14.8391 -14.8359 -14.8306 -14.8218 -14.8149 -14.7743  -7.1628  -7.1563
    -7.0772  -7.0710  -6.9813  -6.9714  -6.9512  -6.9194  -6.9097  -6.9006
    -6.8666  -6.8632  -6.8529  -6.8136  -6.7735  -6.7640  -6.7586  -6.7301
    -6.7274  -6.6991  -6.6832  -6.6411  -6.6252  -6.6244  -6.5815  -6.5464
    -6.5393  -6.4913  -6.4443  -6.3768  -6.3680  -6.2627  -5.5836  -4.9299
    -4.8963  -4.3770  -3.7912  -3.5632  -3.4495  -3.3542  -2.7332  -2.0460
     0.2204   0.5436   0.7295   0.8646   1.1873   1.3149   1.7433   2.3306
     2.4666   2.6265   2.7298   2.7856   2.8510   2.8660   3.3831   3.7668
     4.1148   4.2583   4.2832   4.3154   4.4112   4.6079   4.6656   4.7963
     4.8388   4.9932   5.1623   5.2413   5.2415   5.3606   5.4989   5.6782
     5.6898

     the Fermi energy is     0.1401 ev

!    total energy              =   -1463.30556319 Ry
     Harris-Foulkes estimate   =   -1463.30555549 Ry
     estimated scf accuracy    <       0.00000015 Ry

     The total energy is the sum of the following terms:

     one-electron contribution =   -7527.45941060 Ry
     hartree contribution      =    3846.25774389 Ry
     xc contribution           =    -476.84503086 Ry
     ewald contribution        =    2694.77525778 Ry
     electric field correction =       0.00000001 Ry
     smearing contrib. (-TS)   =      -0.03412341 Ry

     convergence has been achieved in  16 iterations

 BEEF-vdW xc energy contributions
           1 :   -417.764915393954
           2 :    382.498814990043
           3 :   -322.455831263855
           4 :    253.738835281437
           5 :   -191.350716919349
           6 :    144.020660666732
           7 :   -112.624981547175
           8 :    92.2752700760230
           9 :   -76.4295456320138
          10 :    60.6286218600641
          11 :   -44.0682355849335
          12 :    28.6933836573294
          13 :   -16.9361806936442
          14 :    9.75294735831466
          15 :   -6.08864130645804
          16 :    3.78036174519104
          17 :   -1.02018864235231
          18 :   -2.67554709306540
          19 :    6.51093118008737
          20 :   -9.24852841609373
          21 :    10.1613771922856
          22 :   -9.48009986668086
          23 :    8.14810911871797
          24 :   -7.17414828372290
          25 :    7.06655132497889
          26 :   -7.68044684111550
          27 :    8.47018040556094
          28 :   -8.89172415523666
          29 :    8.67887421973808
          30 :   -7.88403302903322
          31 :   -38.3401093284822
          32 :   -27.8422522039095

     Forces acting on atoms (Ry/au):

     negative rho (up, down):  8.295E-04 0.000E+00
     atom    1 type  1   force =    -0.00015324   -0.00010022    0.00036619
     atom    2 type  1   force =    -0.00015294   -0.00009983    0.00036551
     atom    3 type  2   force =    -0.00002116   -0.00001437   -0.00492952
     atom    4 type  2   force =    -0.00002074   -0.00001398   -0.00492928
     atom    5 type  1   force =    -0.00063179   -0.00041346    0.00310851
     atom    6 type  1   force =    -0.00063213   -0.00041320    0.00310896
     atom    7 type  2   force =     0.00069540    0.00045461    0.00094965
     atom    8 type  2   force =     0.00069528    0.00045479    0.00094926
     atom    9 type  1   force =    -0.00045491   -0.00029759   -0.00025616
     atom   10 type  1   force =    -0.00045577   -0.00029793   -0.00025593
     atom   11 type  2   force =     0.00056546    0.00037098    0.00076128
     atom   12 type  2   force =     0.00056653    0.00037021    0.00076154

     Total force =     0.008682     Total SCF correction =     0.001493
     SCF correction compared to forces is large: reduce conv_thr to get better values

     entering subroutine stress ...

     negative rho (up, down):  8.295E-04 0.000E+00
          total   stress  (Ry/bohr**3)                   (kbar)     P=   -2.34
  -0.00002668  -0.00000189   0.00000045         -3.93     -0.28      0.07
  -0.00000189  -0.00002503   0.00000029         -0.28     -3.68      0.04
   0.00000045   0.00000029   0.00000393          0.07      0.04      0.58

 !ASE

     Writing output data file calc.save

     General routines

     Parallel routines

   This run was terminated on:  23:18:14  24Dec2018

   JOB DONE.
Job  /afs/slac/g/suncat/bin/suncat-tsmpirun -x LD_LIBRARY_PATH -wdir /scratch/qe109020_34Sog pw.x -in pw.inp

TID   HOST_NAME   COMMAND_LINE            STATUS            TERMINATION_TIME
00000 suncat0050 pw.x -in pw.inp   Done                     12/24/2018 23:18:14
00001 suncat0050 pw.x -in pw.inp   Done                     12/24/2018 23:18:14
00002 suncat0050 pw.x -in pw.inp   Done                     12/24/2018 23:18:14
00003 suncat0050 pw.x -in pw.inp   Done                     12/24/2018 23:18:14
00004 suncat0050 pw.x -in pw.inp   Done                     12/24/2018 23:18:14
00005 suncat0050 pw.x -in pw.inp   Done                     12/24/2018 23:18:14
00006 suncat0050 pw.x -in pw.inp   Done                     12/24/2018 23:18:14
00007 suncat0050 pw.x -in pw.inp   Done                     12/24/2018 23:18:14
00008 suncat0049 pw.x -in pw.inp   Done                     12/24/2018 23:18:14
00009 suncat0049 pw.x -in pw.inp   Done                     12/24/2018 23:18:14
00010 suncat0049 pw.x -in pw.inp   Done                     12/24/2018 23:18:14
00011 suncat0049 pw.x -in pw.inp   Done                     12/24/2018 23:18:14
00012 suncat0049 pw.x -in pw.inp   Done                     12/24/2018 23:18:14
00013 suncat0049 pw.x -in pw.inp   Done                     12/24/2018 23:18:14
00014 suncat0049 pw.x -in pw.inp   Done                     12/24/2018 23:18:14
00015 suncat0049 pw.x -in pw.inp   Done                     12/24/2018 23:18:14
00016 suncat0031 pw.x -in pw.inp   Done                     12/24/2018 23:18:14
00017 suncat0031 pw.x -in pw.inp   Done                     12/24/2018 23:18:14
00018 suncat0031 pw.x -in pw.inp   Done                     12/24/2018 23:18:14
00019 suncat0031 pw.x -in pw.inp   Done                     12/24/2018 23:18:14
00020 suncat0031 pw.x -in pw.inp   Done                     12/24/2018 23:18:14
00021 suncat0031 pw.x -in pw.inp   Done                     12/24/2018 23:18:14
00022 suncat0031 pw.x -in pw.inp   Done                     12/24/2018 23:18:14
00023 suncat0031 pw.x -in pw.inp   Done                     12/24/2018 23:18:14
00024 suncat0030 pw.x -in pw.inp   Done                     12/24/2018 23:18:14
00025 suncat0030 pw.x -in pw.inp   Done                     12/24/2018 23:18:14
00026 suncat0030 pw.x -in pw.inp   Done                     12/24/2018 23:18:14
00027 suncat0030 pw.x -in pw.inp   Done                     12/24/2018 23:18:14
00028 suncat0030 pw.x -in pw.inp   Done                     12/24/2018 23:18:14
00029 suncat0030 pw.x -in pw.inp   Done                     12/24/2018 23:18:14
00030 suncat0030 pw.x -in pw.inp   Done                     12/24/2018 23:18:14
00031 suncat0030 pw.x -in pw.inp   Done                     12/24/2018 23:18:14
00032 suncat0280 pw.x -in pw.inp   Done                     12/24/2018 23:18:14
00033 suncat0280 pw.x -in pw.inp   Done                     12/24/2018 23:18:14
00034 suncat0280 pw.x -in pw.inp   Done                     12/24/2018 23:18:14
00035 suncat0280 pw.x -in pw.inp   Done                     12/24/2018 23:18:14
00036 suncat0280 pw.x -in pw.inp   Done                     12/24/2018 23:18:14
00037 suncat0280 pw.x -in pw.inp   Done                     12/24/2018 23:18:14
00038 suncat0280 pw.x -in pw.inp   Done                     12/24/2018 23:18:14
00039 suncat0280 pw.x -in pw.inp   Done                     12/24/2018 23:18:14
00040 suncat0279 pw.x -in pw.inp   Done                     12/24/2018 23:18:14
00041 suncat0279 pw.x -in pw.inp   Done                     12/24/2018 23:18:14
00042 suncat0279 pw.x -in pw.inp   Done                     12/24/2018 23:18:14
00043 suncat0279 pw.x -in pw.inp   Done                     12/24/2018 23:18:14
00044 suncat0279 pw.x -in pw.inp   Done                     12/24/2018 23:18:14
00045 suncat0279 pw.x -in pw.inp   Done                     12/24/2018 23:18:14
00046 suncat0279 pw.x -in pw.inp   Done                     12/24/2018 23:18:14
00047 suncat0279 pw.x -in pw.inp   Done                     12/24/2018 23:18:14
00048 suncat0278 pw.x -in pw.inp   Done                     12/24/2018 23:18:14
00049 suncat0278 pw.x -in pw.inp   Done                     12/24/2018 23:18:14
00050 suncat0278 pw.x -in pw.inp   Done                     12/24/2018 23:18:14
00051 suncat0278 pw.x -in pw.inp   Done                     12/24/2018 23:18:14
00052 suncat0278 pw.x -in pw.inp   Done                     12/24/2018 23:18:14
00053 suncat0278 pw.x -in pw.inp   Done                     12/24/2018 23:18:14
00054 suncat0278 pw.x -in pw.inp   Done                     12/24/2018 23:18:14
00055 suncat0278 pw.x -in pw.inp   Done                     12/24/2018 23:18:14
00056 suncat0099 pw.x -in pw.inp   Done                     12/24/2018 23:18:14
00057 suncat0099 pw.x -in pw.inp   Done                     12/24/2018 23:18:14
00058 suncat0099 pw.x -in pw.inp   Done                     12/24/2018 23:18:14
00059 suncat0099 pw.x -in pw.inp   Done                     12/24/2018 23:18:14
00060 suncat0099 pw.x -in pw.inp   Done                     12/24/2018 23:18:14
00061 suncat0099 pw.x -in pw.inp   Done                     12/24/2018 23:18:14
00062 suncat0099 pw.x -in pw.inp   Done                     12/24/2018 23:18:14
00063 suncat0099 pw.x -in pw.inp   Done                     12/24/2018 23:18:14