     Program PWSCF v.5.1rc2 (svn rev. 11289) starts on 18Dec2018 at 20:44:36

     Current dimensions of program PWSCF are:
     Max number of different atomic species (ntypx) = 10
     Max number of k-points (npk) =  40000
     Max angular momentum in pseudopotentials (lmaxx) =  3
     Presently stress not available with electric field

     IMPORTANT: XC functional enforced from input :
     Exchange-correlation      = BEEF-VDW ( 1  4 27 13 2)
     Any further DFT definition will be discarded
     Please, verify this is what you really want

     Subspace diagonalization in iterative solution of the eigenvalue problem:
     a serial algorithm will be used

     Found symmetry operation: I + ( -0.5000  0.0000  0.0000)
     This is a supercell, fractional translations are disabled

     Generating pointlists ...
     new r_m :   0.4125 (alat units)  0.7795 (a.u.) for type    1
     new r_m :   0.4125 (alat units)  0.7795 (a.u.) for type    2

     bravais-lattice index     =            0
     lattice parameter (alat)  =       1.8897  a.u.
     unit-cell volume          =    3645.3342 (a.u.)^3
     number of atoms/cell      =           12
     number of atomic types    =            2
     number of electrons       =       222.00
     number of Kohn-Sham states=          141
     kinetic-energy cutoff     =      36.7493  Ry
     charge density cutoff     =     367.4932  Ry
     convergence threshold     =      1.0E-06
     mixing beta               =       0.1000
     number of iterations used =           10  plain     mixing
     Exchange-correlation      = BEEF-VDW ( 1  4 27 13 2)
     nstep                     =           50

     celldm(1)=   1.889726  celldm(2)=   0.000000  celldm(3)=   0.000000
     celldm(4)=   0.000000  celldm(5)=   0.000000  celldm(6)=   0.000000

     crystal axes: (cart. coord. in units of alat)
               a(1) = (   5.005819   0.000000   0.000000 )
               a(2) = (  -2.502909   4.468911   0.000000 )
               a(3) = (   0.000000   0.000000  24.147042 )

     reciprocal axes: (cart. coord. in units 2 pi/alat)
               b(1) = (  0.199768  0.111884  0.000000 )
               b(2) = (  0.000000  0.223768  0.000000 )
               b(3) = (  0.000000  0.000000  0.041413 )

     PseudoPot. # 1 for Ni read from file:
     /afs/slac.stanford.edu/u/if/mamunm/psp/gbrv1.5pbe/Ni.UPF
     MD5 check sum: 1ee80287db30b12d2bc1f57a5b5d6409
     Pseudo is Ultrasoft + core correction, Zval = 18.0
     Generated by new atomic code, or converted to UPF format
     Using radial grid of  865 points,  6 beta functions with:
                l(1) =   0
                l(2) =   0
                l(3) =   1
                l(4) =   1
                l(5) =   2
                l(6) =   2
     Q(r) pseudized with 10 coefficients,  rinner =    0.980   0.980   0.980
                                                       0.980   0.980

     PseudoPot. # 2 for Cu read from file:
     /afs/slac.stanford.edu/u/if/mamunm/psp/gbrv1.5pbe/Cu.UPF
     MD5 check sum: 6e991ff952a84172a2a52a1c1e996048
     Pseudo is Ultrasoft + core correction, Zval = 19.0
     Generated by new atomic code, or converted to UPF format
     Using radial grid of  867 points,  6 beta functions with:
                l(1) =   0
                l(2) =   0
                l(3) =   1
                l(4) =   1
                l(5) =   2
                l(6) =   2
     Q(r) pseudized with  8 coefficients,  rinner =    1.150   1.150   1.150
                                                       1.150   1.150

     vdW kernel table read from file vdW_kernel_table
     MD5 check sum: 095c7af220d748ca6e76c0b4c6cfb241

     atomic species   valence    mass     pseudopotential
        Ni1           18.00    58.69340     Ni( 1.00)
        Cu1           19.00    63.54600     Cu( 1.00)

     Starting magnetic structure
     atomic species   magnetization
        Ni1          0.111
        Cu1          0.105

     No symmetry found

   Cartesian axes

     site n.     atom                  positions (alat units)
         1           Ni1 tau(   1) = (   0.0000000   0.0000000  10.0000000  )
         2           Ni1 tau(   2) = (   2.5029094   0.0000000  10.0000000  )
         3           Cu1 tau(   3) = (   1.2514547   2.2344554  10.0000000  )
         4           Cu1 tau(   4) = (  -1.2514547   2.2344554  10.0000000  )
         5           Ni1 tau(   5) = (   2.5029094   1.4018081  12.0735210  )
         6           Ni1 tau(   6) = (  -0.0000000   1.4018081  12.0735210  )
         7           Cu1 tau(   7) = (  -1.2514547   3.6362635  12.0735210  )
         8           Cu1 tau(   8) = (   1.2514547   3.6362635  12.0735210  )
         9           Ni1 tau(   9) = (   0.0000000   2.8036161  14.1470421  )
        10           Ni1 tau(  10) = (   2.5029094   2.8036161  14.1470421  )
        11           Cu1 tau(  11) = (   3.7543641   0.5691607  14.1470421  )
        12           Cu1 tau(  12) = (   1.2514547   0.5691607  14.1470421  )

     number of k points=    40  Fermi-Dirac smearing, width (Ry)=  0.0110
                       cart. coord. in units 2pi/alat
        k(    1) = (   0.0000000   0.0000000   0.0000000), wk =   0.0277778
        k(    2) = (   0.0000000   0.0372947   0.0000000), wk =   0.0555556
        k(    3) = (   0.0000000   0.0745894   0.0000000), wk =   0.0555556
        k(    4) = (   0.0000000  -0.1118841   0.0000000), wk =   0.0277778
        k(    5) = (   0.0332946   0.0186473   0.0000000), wk =   0.0555556
        k(    6) = (   0.0332946   0.0559420   0.0000000), wk =   0.0555556
        k(    7) = (   0.0332946   0.0932367   0.0000000), wk =   0.0555556
        k(    8) = (   0.0332946  -0.0932367   0.0000000), wk =   0.0555556
        k(    9) = (   0.0332946  -0.0559420   0.0000000), wk =   0.0555556
        k(   10) = (   0.0332946  -0.0186473   0.0000000), wk =   0.0555556
        k(   11) = (   0.0665892   0.0372947   0.0000000), wk =   0.0555556
        k(   12) = (   0.0665892   0.0745894   0.0000000), wk =   0.0555556
        k(   13) = (   0.0665892   0.1118841   0.0000000), wk =   0.0555556
        k(   14) = (   0.0665892  -0.0745894   0.0000000), wk =   0.0555556
        k(   15) = (   0.0665892  -0.0372947   0.0000000), wk =   0.0555556
        k(   16) = (   0.0665892   0.0000000   0.0000000), wk =   0.0555556
        k(   17) = (  -0.0998838  -0.0559420   0.0000000), wk =   0.0277778
        k(   18) = (  -0.0998838  -0.0186473   0.0000000), wk =   0.0555556
        k(   19) = (  -0.0998838   0.0186473   0.0000000), wk =   0.0555556
        k(   20) = (  -0.0998838  -0.1678261   0.0000000), wk =   0.0277778
        k(   21) = (   0.0000000   0.0000000   0.0000000), wk =   0.0277778
        k(   22) = (   0.0000000   0.0372947   0.0000000), wk =   0.0555556
        k(   23) = (   0.0000000   0.0745894   0.0000000), wk =   0.0555556
        k(   24) = (   0.0000000  -0.1118841   0.0000000), wk =   0.0277778
        k(   25) = (   0.0332946   0.0186473   0.0000000), wk =   0.0555556
        k(   26) = (   0.0332946   0.0559420   0.0000000), wk =   0.0555556
        k(   27) = (   0.0332946   0.0932367   0.0000000), wk =   0.0555556
        k(   28) = (   0.0332946  -0.0932367   0.0000000), wk =   0.0555556
        k(   29) = (   0.0332946  -0.0559420   0.0000000), wk =   0.0555556
        k(   30) = (   0.0332946  -0.0186473   0.0000000), wk =   0.0555556
        k(   31) = (   0.0665892   0.0372947   0.0000000), wk =   0.0555556
        k(   32) = (   0.0665892   0.0745894   0.0000000), wk =   0.0555556
        k(   33) = (   0.0665892   0.1118841   0.0000000), wk =   0.0555556
        k(   34) = (   0.0665892  -0.0745894   0.0000000), wk =   0.0555556
        k(   35) = (   0.0665892  -0.0372947   0.0000000), wk =   0.0555556
        k(   36) = (   0.0665892   0.0000000   0.0000000), wk =   0.0555556
        k(   37) = (  -0.0998838  -0.0559420   0.0000000), wk =   0.0277778
        k(   38) = (  -0.0998838  -0.0186473   0.0000000), wk =   0.0555556
        k(   39) = (  -0.0998838   0.0186473   0.0000000), wk =   0.0555556
        k(   40) = (  -0.0998838  -0.1678261   0.0000000), wk =   0.0277778

     Largest allocated arrays     est. size (Mb)     dimensions
     Largest temporary arrays     est. size (Mb)     dimensions

     Check: negative/imaginary core charge=   -0.000001    0.000000

     Initial potential from superposition of free atoms
     Check: negative starting charge=(component1):   -0.000324
     Check: negative starting charge=(component2):   -0.000259

     starting charge  203.99999, renormalised to  222.00000

     negative rho (up, down):  3.529E-04 2.823E-04

     *
     * You are using vdW-DF for exchange-correlation in this calculation.
     * Please cite the following three references that made this development
     * possible:
     *
     *   M. Dion, H. Rydberg, E. Schroder, D. C. Langreth, and
     *   B. I. Lundqvist, Phys. Rev. Lett. 92, 246401 (2004).
     *
     *   T. Thonhauser, V. R. Cooper, S. Li, A. Puzder, P. Hyldgaard, and
     *   D. C. Langreth, Phys. Rev. B 76, 125112 (2007).
     *
     *   G. Roman-Perez and J. M. Soler, Phys. Rev. Lett. 103, 096102 (2009).
     *
     *
     * If you are using vdW-DF2, please also cite:
     *
     *   K. Lee, E. D. Murray, L. Kong, B. I. Lundqvist, and
     *   D. C. Langreth, Phys. Rev. B 82, 081101(R) (2010).
     *
     *
     * If you are calculating the stress with vdW-DF, please also cite:
     *
     *   R. Sabatini, E. Kucukbenli, B. Kolb, T. Thonhauser, and
     *   S. de Gironcoli, J. Phys.: Condens. Matter 24, 424209 (2012).
     *

     Carrying out vdW-DF run using the following parameters:

     Nqs =      20    Nr_points =    1024   r_max =   100.000
     q_mesh =
               0.00001000     0.04494208     0.09755937     0.15916263
               0.23128650     0.31572767     0.41458969     0.53033537
               0.66584808     0.82450364     1.01025438     1.22772762
               1.48234092     1.78043706     2.12944203     2.53805004
               3.01644009     3.57652955     4.23227104     5.00000000

     Gradients computed in reciprocal space

     Adding external electric field

     Computed dipole along edir(3) :
        Dipole                0.0000 Ry au,          0.0000 Debye
        Dipole field          0.0000 Ry au

        Potential amp.       -0.0000 Ry
        Total length         44.4905 bohr

[...]

     Starting wfc are  156 randomized atomic wfcs

     Self-consistent Calculation

     iteration #  1     ecut=    36.75 Ry     beta=0.10
     Davidson diagonalization with overlap
     ethr =  1.00E-02,  avg # of iterations =  7.2

[...]

     Magnetic moment per site:
     atom:    1    charge:    9.7093    magn:    1.0311    constr:    0.0000
     atom:    2    charge:    9.7093    magn:    1.0310    constr:    0.0000
     atom:    3    charge:   10.8243    magn:    1.0949    constr:    0.0000
     atom:    4    charge:   10.8243    magn:    1.0949    constr:    0.0000
     atom:    5    charge:    9.7084    magn:    1.0314    constr:    0.0000
     atom:    6    charge:    9.7084    magn:    1.0314    constr:    0.0000
[...]
     /afs/slac.stanford.edu/u/if/mamunm/psp/gbrv1.5pbe/Cu.UPF
     MD5 check sum: 6e991ff952a84172a2a52a1c1e996048
     Pseudo is Ultrasoft + core correction, Zval = 19.0
     Generated by new atomic code, or converted to UPF format
     Using radial grid of  867 points,  6 beta functions with:
                l(1) =   0
                l(2) =   0
                l(3) =   1
                l(4) =   1
                l(5) =   2
                l(6) =   2
     Q(r) pseudized with  8 coefficients,  rinner =    1.150   1.150   1.150
                                                       1.150   1.150

     vdW kernel table read from file vdW_kernel_table
     MD5 check sum: 095c7af220d748ca6e76c0b4c6cfb241

     atomic species   valence    mass     pseudopotential
        Ni1           18.00    58.69340     Ni( 1.00)
        Cu1           19.00    63.54600     Cu( 1.00)

     Starting magnetic structure
     atomic species   magnetization
        Ni1          0.111
        Cu1          0.105

     No symmetry found

   Cartesian axes

     site n.     atom                  positions (alat units)
         1           Ni1 tau(   1) = (   0.0000000   0.0000000  10.0000000  )
         2           Ni1 tau(   2) = (   2.5029094   0.0000000  10.0000000  )
         3           Cu1 tau(   3) = (   1.2514547   2.2344554  10.0000000  )
         4           Cu1 tau(   4) = (  -1.2514547   2.2344554  10.0000000  )
         5           Ni1 tau(   5) = (   2.5029094   1.4018081  12.0735210  )
         6           Ni1 tau(   6) = (  -0.0000000   1.4018081  12.0735210  )
         7           Cu1 tau(   7) = (  -1.2514547   3.6362635  12.0735210  )
         8           Cu1 tau(   8) = (   1.2514547   3.6362635  12.0735210  )
         9           Ni1 tau(   9) = (  -0.0000165   2.7956798  14.0994330  )
        10           Ni1 tau(  10) = (   2.5029189   2.7953720  14.0992731  )
        11           Cu1 tau(  11) = (   3.7540512   0.5773498  14.1737809  )
        12           Cu1 tau(  12) = (   1.2517745   0.5773413  14.1737812  )

     number of k points=    40  Fermi-Dirac smearing, width (Ry)=  0.0110
                       cart. coord. in units 2pi/alat
        k(    1) = (   0.0000000   0.0000000   0.0000000), wk =   0.0277778
        k(    2) = (   0.0000000   0.0372947   0.0000000), wk =   0.0555556
        k(    3) = (   0.0000000   0.0745894   0.0000000), wk =   0.0555556
        k(    4) = (   0.0000000  -0.1118841   0.0000000), wk =   0.0277778
        k(    5) = (   0.0332946   0.0186473   0.0000000), wk =   0.0555556
        k(    6) = (   0.0332946   0.0559420   0.0000000), wk =   0.0555556
        k(    7) = (   0.0332946   0.0932367   0.0000000), wk =   0.0555556
        k(    8) = (   0.0332946  -0.0932367   0.0000000), wk =   0.0555556
        k(    9) = (   0.0332946  -0.0559420   0.0000000), wk =   0.0555556
        k(   10) = (   0.0332946  -0.0186473   0.0000000), wk =   0.0555556
        k(   11) = (   0.0665892   0.0372947   0.0000000), wk =   0.0555556
        k(   12) = (   0.0665892   0.0745894   0.0000000), wk =   0.0555556
        k(   13) = (   0.0665892   0.1118841   0.0000000), wk =   0.0555556
        k(   14) = (   0.0665892  -0.0745894   0.0000000), wk =   0.0555556
        k(   15) = (   0.0665892  -0.0372947   0.0000000), wk =   0.0555556
        k(   16) = (   0.0665892   0.0000000   0.0000000), wk =   0.0555556
        k(   17) = (  -0.0998838  -0.0559420   0.0000000), wk =   0.0277778
        k(   18) = (  -0.0998838  -0.0186473   0.0000000), wk =   0.0555556
        k(   19) = (  -0.0998838   0.0186473   0.0000000), wk =   0.0555556
        k(   20) = (  -0.0998838  -0.1678261   0.0000000), wk =   0.0277778
        k(   21) = (   0.0000000   0.0000000   0.0000000), wk =   0.0277778
        k(   22) = (   0.0000000   0.0372947   0.0000000), wk =   0.0555556
        k(   23) = (   0.0000000   0.0745894   0.0000000), wk =   0.0555556
        k(   24) = (   0.0000000  -0.1118841   0.0000000), wk =   0.0277778
        k(   25) = (   0.0332946   0.0186473   0.0000000), wk =   0.0555556
        k(   26) = (   0.0332946   0.0559420   0.0000000), wk =   0.0555556
        k(   27) = (   0.0332946   0.0932367   0.0000000), wk =   0.0555556
        k(   28) = (   0.0332946  -0.0932367   0.0000000), wk =   0.0555556
        k(   29) = (   0.0332946  -0.0559420   0.0000000), wk =   0.0555556
        k(   30) = (   0.0332946  -0.0186473   0.0000000), wk =   0.0555556
        k(   31) = (   0.0665892   0.0372947   0.0000000), wk =   0.0555556
        k(   32) = (   0.0665892   0.0745894   0.0000000), wk =   0.0555556
        k(   33) = (   0.0665892   0.1118841   0.0000000), wk =   0.0555556
        k(   34) = (   0.0665892  -0.0745894   0.0000000), wk =   0.0555556
        k(   35) = (   0.0665892  -0.0372947   0.0000000), wk =   0.0555556
        k(   36) = (   0.0665892   0.0000000   0.0000000), wk =   0.0555556
        k(   37) = (  -0.0998838  -0.0559420   0.0000000), wk =   0.0277778
        k(   38) = (  -0.0998838  -0.0186473   0.0000000), wk =   0.0555556
        k(   39) = (  -0.0998838   0.0186473   0.0000000), wk =   0.0555556
        k(   40) = (  -0.0998838  -0.1678261   0.0000000), wk =   0.0277778

     Largest allocated arrays     est. size (Mb)     dimensions
     Largest temporary arrays     est. size (Mb)     dimensions

     Check: negative/imaginary core charge=   -0.000001    0.000000

     Initial potential from superposition of free atoms
     Check: negative starting charge=(component1):   -0.000330
     Check: negative starting charge=(component2):   -0.000264

     starting charge  203.99999, renormalised to  222.00000

[...]

     *
     * You are using vdW-DF for exchange-correlation in this calculation.
     * Please cite the following three references that made this development
     * possible:
     *
     *   M. Dion, H. Rydberg, E. Schroder, D. C. Langreth, and
     *   B. I. Lundqvist, Phys. Rev. Lett. 92, 246401 (2004).
     *
     *   T. Thonhauser, V. R. Cooper, S. Li, A. Puzder, P. Hyldgaard, and
     *   D. C. Langreth, Phys. Rev. B 76, 125112 (2007).
     *
     *   G. Roman-Perez and J. M. Soler, Phys. Rev. Lett. 103, 096102 (2009).
     *
     *
     * If you are using vdW-DF2, please also cite:
     *
     *   K. Lee, E. D. Murray, L. Kong, B. I. Lundqvist, and
     *   D. C. Langreth, Phys. Rev. B 82, 081101(R) (2010).
     *
     *
     * If you are calculating the stress with vdW-DF, please also cite:
     *
     *   R. Sabatini, E. Kucukbenli, B. Kolb, T. Thonhauser, and
     *   S. de Gironcoli, J. Phys.: Condens. Matter 24, 424209 (2012).
     *

     Carrying out vdW-DF run using the following parameters:

     Nqs =      20    Nr_points =    1024   r_max =   100.000
     q_mesh =
               0.00001000     0.04494208     0.09755937     0.15916263
               0.23128650     0.31572767     0.41458969     0.53033537
               0.66584808     0.82450364     1.01025438     1.22772762
               1.48234092     1.78043706     2.12944203     2.53805004
               3.01644009     3.57652955     4.23227104     5.00000000

     Gradients computed in reciprocal space

[...]

     Starting wfc are  156 randomized atomic wfcs

     Self-consistent Calculation

[...]

     total energy              =   -4496.08004394 Ry
     Harris-Foulkes estimate   =   -4496.08004396 Ry
     estimated scf accuracy    <       0.00000173 Ry

[...]

     iteration # 52     ecut=    36.75 Ry     beta=0.10
     Davidson diagonalization with overlap
     ethr =  6.88E-10,  avg # of iterations =  1.5

[...]

     negative rho (up, down):  8.167E-04 7.581E-04

[...]

     Adding external electric field

     Computed dipole along edir(3) :
        Dipole                0.0011 Ry au,          0.0027 Debye
        Dipole field          0.0000 Ry au

        Potential amp.       -0.0003 Ry
        Total length         44.4905 bohr

     Magnetic moment per site:
     atom:    1    charge:    9.3524    magn:    0.2346    constr:    0.0000
     atom:    2    charge:    9.3524    magn:    0.2343    constr:    0.0000
     atom:    3    charge:   10.5977    magn:    0.0169    constr:    0.0000
     atom:    4    charge:   10.5977    magn:    0.0169    constr:    0.0000
     atom:    5    charge:    9.3517    magn:    0.2343    constr:    0.0000
     atom:    6    charge:    9.3517    magn:    0.2342    constr:    0.0000
     atom:    7    charge:   10.5973    magn:    0.0208    constr:    0.0000
     atom:    8    charge:   10.5973    magn:    0.0208    constr:    0.0000
     atom:    9    charge:    9.3499    magn:    0.2305    constr:    0.0000
     atom:   10    charge:    9.3498    magn:    0.2306    constr:    0.0000
     atom:   11    charge:   10.6037    magn:    0.0164    constr:    0.0000
     atom:   12    charge:   10.6037    magn:    0.0164    constr:    0.0000

     End of self-consistent calculation

 ------ SPIN UP ------------

[...]

 ------ SPIN DOWN ----------

[...]

          k = 0.0666 0.0000 0.0000 ( 13741 PWs)   bands (ev):

[...]

          k =-0.0999-0.1678 0.0000 ( 13728 PWs)   bands (ev):

  -112.0913-112.0913-111.8844-111.8844-111.8626-111.8625-102.2879-102.2878
  -102.1413-102.1412-102.1150-102.1148 -69.4929 -69.4929 -69.4880 -69.4880
   -69.4763 -69.4763 -69.3206 -69.3206 -69.3063 -69.3063 -69.3010 -69.3008
   -69.2857 -69.2857 -69.2115 -69.2115 -69.1879 -69.1879 -62.7364 -62.7363
   -62.6837 -62.6837 -62.6456 -62.6455 -62.6136 -62.6135 -62.5938 -62.5936
   -62.5588 -62.5586 -62.5352 -62.5349 -62.4467 -62.4465 -62.4133 -62.4131
    -5.7783  -5.7780  -4.1520  -4.1516  -3.5350  -3.5349  -3.2504  -3.2502
    -3.1320  -3.1318  -2.8880  -2.8879  -2.7944  -2.7943  -2.6208  -2.6206
    -2.4623  -2.4621  -2.4040  -2.4035  -2.2990  -2.2989  -2.2094  -2.2093
    -2.1894  -2.1882  -2.0685  -2.0681  -2.0361  -2.0356  -1.8760  -1.8758
    -1.7379  -1.7377  -1.4798  -1.4796  -1.2103  -1.2102  -1.1315  -1.1311
    -1.0448  -1.0447  -0.7667  -0.7666  -0.6157  -0.6157  -0.5673  -0.5671
    -0.4898  -0.4895  -0.4376  -0.4375  -0.4163  -0.4162  -0.3177  -0.3176
    -0.1113  -0.1112  -0.0309  -0.0308   0.1333   0.1334   0.2520   0.2521
     1.4232   1.4233   1.5611   1.5614   2.3951   2.3951   3.8737   3.8742
     4.7224   4.7225   6.2943   6.2943   6.8829   6.8829   7.1508   7.1508
     7.6665   7.6666   8.1634   8.1634   8.2362   8.2368   8.6285   8.6286
     8.8510   8.8517   9.7219   9.7224  10.1622

     the Fermi energy is     0.3758 ev

!    total energy              =   -4496.08004452 Ry
     Harris-Foulkes estimate   =   -4496.08004408 Ry
     estimated scf accuracy    <       0.00000061 Ry

     The total energy is the sum of the following terms:

     one-electron contribution =  -36350.58328819 Ry
     hartree contribution      =   18188.58619855 Ry
     xc contribution           =    -460.71411458 Ry
     ewald contribution        =   14126.70973490 Ry
     electric field correction =       0.00000000 Ry
     smearing contrib. (-TS)   =      -0.07857520 Ry

     total magnetization       =     2.34 Bohr mag/cell
     absolute magnetization    =     2.86 Bohr mag/cell

     convergence has been achieved in  52 iterations

 BEEF-vdW xc energy contributions
           1 :   -407.232486479938
           2 :    369.197906322041
           3 :   -304.964518299664
           4 :    232.657501011082
           5 :   -168.869381339277
           6 :    122.602950586335
           7 :   -93.6970728759375
           8 :    75.7820430964532
           9 :   -61.4632360496686
          10 :    46.5738234108669
          11 :   -31.4058569890709
          12 :    18.9065326874022
          13 :   -11.6234995193521
          14 :    9.58619736562127
          15 :   -10.3328254856629
          16 :    10.6866627069419
          17 :   -8.81923260272777
          18 :    5.15961659514460
          19 :   -1.68808378499870
          20 :   0.278151168657985
          21 :   -1.32465413466747
          22 :    3.55763946191672
          23 :   -5.05082803606729
          24 :    4.60508480325439
          25 :   -2.51775589654733
          26 :   0.251484927200181
          27 :   0.677684650371930
          28 :   0.228533536940404
          29 :   -2.16192149297774
          30 :    3.64643869176433
          31 :   -33.0155625816409
          32 :   -22.7999197095648

     Forces acting on atoms (Ry/au):

     negative rho (up, down):  8.167E-04 7.581E-04
     atom    1 type  1   force =     0.00000076    0.00305574    0.00884515
     atom    2 type  1   force =    -0.00000160    0.00304075    0.00880886
     atom    3 type  2   force =     0.00000282   -0.00343842   -0.00501543
     atom    4 type  2   force =     0.00000509   -0.00344403   -0.00501488
     atom    5 type  1   force =     0.00000088   -0.00318602   -0.00154904
     atom    6 type  1   force =    -0.00000005   -0.00314908   -0.00146092
     atom    7 type  2   force =     0.00005385    0.00367072   -0.00276118
     atom    8 type  2   force =    -0.00005391    0.00367260   -0.00275706
     atom    9 type  1   force =     0.00001084    0.00002873    0.00010852
     atom   10 type  1   force =    -0.00000948    0.00016564    0.00012171
     atom   11 type  2   force =     0.00015121   -0.00021037    0.00033482
     atom   12 type  2   force =    -0.00016040   -0.00020627    0.00033946

     Total force =     0.017766     Total SCF correction =     0.002230
     SCF correction compared to forces is large: reduce conv_thr to get better values

     entering subroutine stress ...

     negative rho (up, down):  8.167E-04 7.581E-04
          total   stress  (Ry/bohr**3)                   (kbar)     P=  -48.94
  -0.00033962   0.00000000  -0.00000000        -49.96      0.00     -0.00
   0.00000000  -0.00037977   0.00000187          0.00    -55.87      0.28
  -0.00000000   0.00000187  -0.00027872         -0.00      0.28    -41.00

 !ASE

     Writing output data file calc.save

     General routines

     Parallel routines

   This run was terminated on:  22: 1:40  18Dec2018

   JOB DONE.
Job  /afs/slac/g/suncat/bin/suncat-tsmpirun -x LD_LIBRARY_PATH -wdir /scratch/qe530340_5acJc pw.x -in pw.inp

TID   HOST_NAME   COMMAND_LINE            STATUS            TERMINATION_TIME
00000 suncat2058 pw.x -in pw.inp   Done                     12/18/2018 22:01:40
00001 suncat2058 pw.x -in pw.inp   Done                     12/18/2018 22:01:40
00002 suncat2058 pw.x -in pw.inp   Done                     12/18/2018 22:01:40
00003 suncat2058 pw.x -in pw.inp   Done                     12/18/2018 22:01:40
00004 suncat2058 pw.x -in pw.inp   Done                     12/18/2018 22:01:40
00005 suncat2058 pw.x -in pw.inp   Done                     12/18/2018 22:01:40
00006 suncat2058 pw.x -in pw.inp   Done                     12/18/2018 22:01:40
00007 suncat2058 pw.x -in pw.inp   Done                     12/18/2018 22:01:40
00008 suncat2058 pw.x -in pw.inp   Done                     12/18/2018 22:01:40
00009 suncat2058 pw.x -in pw.inp   Done                     12/18/2018 22:01:40
00010 suncat2058 pw.x -in pw.inp   Done                     12/18/2018 22:01:40
00011 suncat2058 pw.x -in pw.inp   Done                     12/18/2018 22:01:40
00012 suncat2058 pw.x -in pw.inp   Done                     12/18/2018 22:01:40
00013 suncat2058 pw.x -in pw.inp   Done                     12/18/2018 22:01:40
00014 suncat2058 pw.x -in pw.inp   Done                     12/18/2018 22:01:40
00015 suncat2058 pw.x -in pw.inp   Done                     12/18/2018 22:01:40
00016 suncat2057 pw.x -in pw.inp   Done                     12/18/2018 22:01:40
00017 suncat2057 pw.x -in pw.inp   Done                     12/18/2018 22:01:40
00018 suncat2057 pw.x -in pw.inp   Done                     12/18/2018 22:01:40
00019 suncat2057 pw.x -in pw.inp   Done                     12/18/2018 22:01:40
00020 suncat2057 pw.x -in pw.inp   Done                     12/18/2018 22:01:40
00021 suncat2057 pw.x -in pw.inp   Done                     12/18/2018 22:01:40
00022 suncat2057 pw.x -in pw.inp   Done                     12/18/2018 22:01:40
00023 suncat2057 pw.x -in pw.inp   Done                     12/18/2018 22:01:40
00024 suncat2057 pw.x -in pw.inp   Done                     12/18/2018 22:01:40
00025 suncat2057 pw.x -in pw.inp   Done                     12/18/2018 22:01:40
00026 suncat2057 pw.x -in pw.inp   Done                     12/18/2018 22:01:40
00027 suncat2057 pw.x -in pw.inp   Done                     12/18/2018 22:01:40
00028 suncat2057 pw.x -in pw.inp   Done                     12/18/2018 22:01:40
00029 suncat2057 pw.x -in pw.inp   Done                     12/18/2018 22:01:40
00030 suncat2057 pw.x -in pw.inp   Done                     12/18/2018 22:01:40
00031 suncat2057 pw.x -in pw.inp   Done                     12/18/2018 22:01:40