     Program PWSCF v.5.1rc2 (svn rev. 11289) starts on 19Dec2018 at  1:52:42

     Current dimensions of program PWSCF are:
     Max number of different atomic species (ntypx) = 10
     Max number of k-points (npk) =  40000
     Max angular momentum in pseudopotentials (lmaxx) =  3
     Presently stress not available with electric field

     IMPORTANT: XC functional enforced from input :
     Exchange-correlation      = BEEF-VDW ( 1  4 27 13 2)
     Any further DFT definition will be discarded
     Please, verify this is what you really want

     Subspace diagonalization in iterative solution of the eigenvalue problem:
     a serial algorithm will be used

     Found symmetry operation: I + ( -0.5000  0.5000  0.0000)
     This is a supercell, fractional translations are disabled

     bravais-lattice index     =            0
     lattice parameter (alat)  =       1.8897  a.u.
     unit-cell volume          =    5466.7940 (a.u.)^3
     number of atoms/cell      =           12
     number of atomic types    =            2
     number of electrons       =       180.00
     number of Kohn-Sham states=          120
     kinetic-energy cutoff     =      36.7493  Ry
     charge density cutoff     =     367.4932  Ry
     convergence threshold     =      1.0E-06
     mixing beta               =       0.1000
     number of iterations used =           10  plain     mixing
     Exchange-correlation      = BEEF-VDW ( 1  4 27 13 2)
     nstep                     =           50

     celldm(1)=   1.889726  celldm(2)=   0.000000  celldm(3)=   0.000000
     celldm(4)=   0.000000  celldm(5)=   0.000000  celldm(6)=   0.000000

     crystal axes: (cart. coord. in units of alat)
               a(1) = (   5.889961   0.000000   0.000000 )
               a(2) = (   1.995120   5.541764   0.000000 )
               a(3) = (   0.000000   0.000000  24.818507 )

     reciprocal axes: (cart. coord. in units 2 pi/alat)
               b(1) = (  0.169780 -0.061124  0.000000 )
               b(2) = (  0.000000  0.180448  0.000000 )
               b(3) = (  0.000000  0.000000  0.040293 )

     PseudoPot. # 1 for Pd read from file:
     /afs/slac.stanford.edu/u/if/mamunm/psp/gbrv1.5pbe/Pd.UPF
     MD5 check sum: 2d733d2bc2cbfd217af676df1668a4bc
     Pseudo is Ultrasoft + core correction, Zval = 16.0
     Generated by new atomic code, or converted to UPF format
     Using radial grid of  887 points,  6 beta functions with:
                l(1) =   0
                l(2) =   0
                l(3) =   1
                l(4) =   1
                l(5) =   2
                l(6) =   2
     Q(r) pseudized with  8 coefficients,  rinner =    1.130   1.130   1.130
                                                       1.130   1.130

     PseudoPot. # 2 for Sn read from file:
     /afs/slac.stanford.edu/u/if/mamunm/psp/gbrv1.5pbe/Sn.UPF
     MD5 check sum: 469debedee59599fedebd795477fea03
     Pseudo is Ultrasoft + core correction, Zval = 14.0
     Generated by new atomic code, or converted to UPF format
     Using radial grid of  891 points,  6 beta functions with:
                l(1) =   0
                l(2) =   0
                l(3) =   1
                l(4) =   1
                l(5) =   2
                l(6) =   2
     Q(r) pseudized with  8 coefficients,  rinner =    1.350   1.350   1.350
                                                       1.350   1.350

     vdW kernel table read from file vdW_kernel_table
     MD5 check sum: 095c7af220d748ca6e76c0b4c6cfb241

     atomic species   valence    mass     pseudopotential
        Pd1           16.00   106.42000     Pd( 1.00)
        Sn1           14.00   118.71000     Sn( 1.00)

     No symmetry found

   Cartesian axes

     site n.     atom                  positions (alat units)
         1           Pd1 tau(   1) = (   0.0000000   0.0000000  10.0000000  )
         2           Pd1 tau(   2) = (   3.9425406   2.7708818  10.0000000  )
         3           Sn1 tau(   3) = (   2.9449807   0.0000000  10.0000000  )
         4           Sn1 tau(   4) = (   0.9975599   2.7708818  10.0000000  )
         5           Pd1 tau(   5) = (   5.8899615   4.1395609  12.4092537  )
         6           Pd1 tau(   6) = (   1.9474208   1.3686791  12.4092537  )
         7           Sn1 tau(   7) = (   2.9449807   4.1395609  12.4092537  )
         8           Sn1 tau(   8) = (   4.8924016   1.3686791  12.4092537  )
         9           Pd1 tau(   9) = (   3.8948417   2.7373582  14.8185074  )
        10           Pd1 tau(  10) = (   7.8373823   5.5082399  14.8185074  )
        11           Sn1 tau(  11) = (   6.8398224   2.7373582  14.8185074  )
        12           Sn1 tau(  12) = (   4.8924016   5.5082399  14.8185074  )

     number of k points=    20  Fermi-Dirac smearing, width (Ry)=  0.0110
                       cart. coord. in units 2pi/alat
        k(    1) = (   0.0000000   0.0000000   0.0000000), wk =   0.0555556
        k(    2) = (   0.0000000   0.0300747   0.0000000), wk =   0.1111111
        k(    3) = (   0.0000000   0.0601493   0.0000000), wk =   0.1111111
        k(    4) = (   0.0000000  -0.0902240   0.0000000), wk =   0.0555556
        k(    5) = (   0.0282967  -0.0101873   0.0000000), wk =   0.1111111
        k(    6) = (   0.0282967   0.0198874   0.0000000), wk =   0.1111111
        k(    7) = (   0.0282967   0.0499621   0.0000000), wk =   0.1111111
        k(    8) = (   0.0282967  -0.1004112   0.0000000), wk =   0.1111111
        k(    9) = (   0.0282967  -0.0703366   0.0000000), wk =   0.1111111
        k(   10) = (   0.0282967  -0.0402619   0.0000000), wk =   0.1111111
        k(   11) = (   0.0565935  -0.0203745   0.0000000), wk =   0.1111111
        k(   12) = (   0.0565935   0.0097001   0.0000000), wk =   0.1111111
        k(   13) = (   0.0565935   0.0397748   0.0000000), wk =   0.1111111
        k(   14) = (   0.0565935  -0.1105985   0.0000000), wk =   0.1111111
        k(   15) = (   0.0565935  -0.0805238   0.0000000), wk =   0.1111111
        k(   16) = (   0.0565935  -0.0504492   0.0000000), wk =   0.1111111
        k(   17) = (  -0.0848902   0.0305618   0.0000000), wk =   0.0555556
        k(   18) = (  -0.0848902   0.0606364   0.0000000), wk =   0.1111111
        k(   19) = (  -0.0848902   0.0907111   0.0000000), wk =   0.1111111
        k(   20) = (  -0.0848902  -0.0596622   0.0000000), wk =   0.0555556

     Largest allocated arrays     est. size (Mb)     dimensions
     Largest temporary arrays     est. size (Mb)     dimensions

     Initial potential from superposition of free atoms
     Check: negative starting charge=   -0.452970

     starting charge  170.99969, renormalised to  180.00000

     negative rho (up, down):  4.768E-01 0.000E+00

     *
     * You are using vdW-DF for exchange-correlation in this calculation.
     * Please cite the following three references that made this development
     * possible:
     *
     *   M. Dion, H. Rydberg, E. Schroder, D. C. Langreth, and
     *   B. I. Lundqvist, Phys. Rev. Lett. 92, 246401 (2004).
     *
     *   T. Thonhauser, V. R. Cooper, S. Li, A. Puzder, P. Hyldgaard, and
     *   D. C. Langreth, Phys. Rev. B 76, 125112 (2007).
     *
     *   G. Roman-Perez and J. M. Soler, Phys. Rev. Lett. 103, 096102 (2009).
     *
     *
     * If you are using vdW-DF2, please also cite:
     *
     *   K. Lee, E. D. Murray, L. Kong, B. I. Lundqvist, and
     *   D. C. Langreth, Phys. Rev. B 82, 081101(R) (2010).
     *
     *
     * If you are calculating the stress with vdW-DF, please also cite:
     *
     *   R. Sabatini, E. Kucukbenli, B. Kolb, T. Thonhauser, and
     *   S. de Gironcoli, J. Phys.: Condens. Matter 24, 424209 (2012).
     *

     Carrying out vdW-DF run using the following parameters:

     Nqs =      20    Nr_points =    1024   r_max =   100.000
     q_mesh =
               0.00001000     0.04494208     0.09755937     0.15916263
               0.23128650     0.31572767     0.41458969     0.53033537
               0.66584808     0.82450364     1.01025438     1.22772762
               1.48234092     1.78043706     2.12944203     2.53805004
               3.01644009     3.57652955     4.23227104     5.00000000

     Gradients computed in reciprocal space

     Adding external electric field

     Computed dipole along edir(3) :
        Dipole               -0.0000 Ry au,         -0.0000 Debye
        Dipole field         -0.0000 Ry au

        Potential amp.        0.0000 Ry
        Total length         45.7277 bohr

     Starting wfc are  126 randomized atomic wfcs

     Self-consistent Calculation

     iteration #  1     ecut=    36.75 Ry     beta=0.10
     Davidson diagonalization with overlap
     ethr =  1.00E-02,  avg # of iterations =  7.6

[...]

     total energy              =   -2152.75242626 Ry
     Harris-Foulkes estimate   =   -2171.22845791 Ry
     estimated scf accuracy    <     104.96232775 Ry

[...]

     End of self-consistent calculation

          k = 0.0000 0.0000 0.0000 ( 20651 PWs)   bands (ev):

   -49.4358 -49.4341 -49.4326 -49.4174 -49.4166 -49.4158 -49.0141 -49.0140
   -49.0126 -49.0125 -48.9280 -48.9278 -48.9091 -48.9090 -48.8380 -48.8377
   -48.8364 -48.8362 -21.1655 -21.1220 -21.1159 -21.0975 -21.0874 -21.0791
   -21.0759 -21.0726 -21.0696 -21.0358 -20.9641 -20.9620 -20.9323 -20.9298
   -20.8896 -20.8887 -20.8880 -20.8875 -20.8873 -20.8861 -20.8709 -20.8667
   -20.8665 -20.8647 -20.8579 -20.8483 -20.8402 -20.8395 -20.8023 -20.7974
    -9.1336  -7.6314  -6.3954  -6.2395  -5.7432  -5.7351  -3.0601  -3.0075
    -2.7763  -2.5157  -2.4360  -2.4239  -2.1977  -2.1903  -2.1519  -2.1387
    -1.8951  -1.7621  -1.7386  -1.6835  -1.6430  -1.6245  -1.5329  -1.2938
    -1.2652  -1.2297  -1.1639  -1.1158  -1.1081  -1.0746  -1.0350  -0.9683
    -0.9113  -0.8414  -0.6307  -0.5863  -0.5392  -0.4570  -0.4526  -0.3543
    -0.0655   0.1090   0.2273   0.8816   1.2734   1.7124   2.0006   2.5915
     2.8151   3.6908   3.7507   3.8451   3.9153   4.2103   4.3652   4.6159
     5.2081   5.3355   5.6236   5.8566   6.0064   6.1375   6.1579   6.6109
     6.9269   7.0948   7.7211   8.1724   8.5199   8.5959   8.7364   8.8036

[...]

          k =-0.0849 0.0306 0.0000 ( 20542 PWs)   bands (ev):

[...]

     the Fermi energy is     0.9473 ev

!    total energy              =   -2163.22010113 Ry
     Harris-Foulkes estimate   =   -2163.22010222 Ry
     estimated scf accuracy    <       0.00000036 Ry

     The total energy is the sum of the following terms:

     one-electron contribution =  -14797.60749332 Ry
     hartree contribution      =    7454.08730840 Ry
     xc contribution           =    -462.51721037 Ry
     ewald contribution        =    5642.84873095 Ry
     electric field correction =       0.00000000 Ry
     smearing contrib. (-TS)   =      -0.03143678 Ry

     convergence has been achieved in  16 iterations

 BEEF-vdW xc energy contributions
           1 :   -404.945580102882
           2 :    370.590501617901
           3 :   -312.191852097390
           4 :    245.820985405655
           5 :   -186.833735924876
           6 :    144.536669988391
           7 :   -120.139844560348
           8 :    108.398725948498
           9 :   -101.643173961957
[...]
     c_bands:  2 eigenvalues not converged
     c_bands:  2 eigenvalues not converged
     ethr =  3.16E-07,  avg # of iterations =  6.4

[...]

   This run was terminated on:   2: 5:55  19Dec2018

[...]

     Program PWSCF v.5.1rc2 (svn rev. 11289) starts on 19Dec2018 at  2: 6: 0

[...]

     Program PWSCF v.5.1rc2 (svn rev. 11289) starts on 19Dec2018 at  2:13: 2

[...]

   This run was terminated on:   2:20: 6  19Dec2018

[...]

     Program PWSCF v.5.1rc2 (svn rev. 11289) starts on 19Dec2018 at  2:27:20

     Current dimensions of program PWSCF are:
     Max number of different atomic species (ntypx) = 10
     Max number of k-points (npk) =  40000
     Max angular momentum in pseudopotentials (lmaxx) =  3
     Presently stress not available with electric field

     IMPORTANT: XC functional enforced from input :
     Exchange-correlation      = BEEF-VDW ( 1  4 27 13 2)
     Any further DFT definition will be discarded
     Please, verify this is what you really want

     Subspace diagonalization in iterative solution of the eigenvalue problem:
     a serial algorithm will be used

     Found symmetry operation: I + ( -0.5000  0.5000  0.0000)
     This is a supercell, fractional translations are disabled

     bravais-lattice index     =            0
     lattice parameter (alat)  =       1.8897  a.u.
     unit-cell volume          =    5466.7940 (a.u.)^3
     number of atoms/cell      =           12
     number of atomic types    =            2
     number of electrons       =       180.00
     number of Kohn-Sham states=          120
     kinetic-energy cutoff     =      36.7493  Ry
     charge density cutoff     =     367.4932  Ry
     convergence threshold     =      1.0E-06
     mixing beta               =       0.1000
     number of iterations used =           10  plain     mixing
     Exchange-correlation      = BEEF-VDW ( 1  4 27 13 2)
     nstep                     =           50

     celldm(1)=   1.889726  celldm(2)=   0.000000  celldm(3)=   0.000000
     celldm(4)=   0.000000  celldm(5)=   0.000000  celldm(6)=   0.000000

     crystal axes: (cart. coord. in units of alat)
               a(1) = (   5.889961   0.000000   0.000000 )
               a(2) = (   1.995120   5.541764   0.000000 )
               a(3) = (   0.000000   0.000000  24.818507 )

     reciprocal axes: (cart. coord. in units 2 pi/alat)
               b(1) = (  0.169780 -0.061124  0.000000 )
               b(2) = (  0.000000  0.180448  0.000000 )
               b(3) = (  0.000000  0.000000  0.040293 )

     PseudoPot. # 1 for Pd read from file:
     /afs/slac.stanford.edu/u/if/mamunm/psp/gbrv1.5pbe/Pd.UPF
     MD5 check sum: 2d733d2bc2cbfd217af676df1668a4bc
     Pseudo is Ultrasoft + core correction, Zval = 16.0
     Generated by new atomic code, or converted to UPF format
     Using radial grid of  887 points,  6 beta functions with:
                l(1) =   0
                l(2) =   0
                l(3) =   1
                l(4) =   1
                l(5) =   2
                l(6) =   2
     Q(r) pseudized with  8 coefficients,  rinner =    1.130   1.130   1.130
                                                       1.130   1.130

     PseudoPot. # 2 for Sn read from file:
     /afs/slac.stanford.edu/u/if/mamunm/psp/gbrv1.5pbe/Sn.UPF
     MD5 check sum: 469debedee59599fedebd795477fea03
     Pseudo is Ultrasoft + core correction, Zval = 14.0
     Generated by new atomic code, or converted to UPF format
     Using radial grid of  891 points,  6 beta functions with:
                l(1) =   0
                l(2) =   0
                l(3) =   1
                l(4) =   1
                l(5) =   2
                l(6) =   2
     Q(r) pseudized with  8 coefficients,  rinner =    1.350   1.350   1.350
                                                       1.350   1.350

     vdW kernel table read from file vdW_kernel_table
     MD5 check sum: 095c7af220d748ca6e76c0b4c6cfb241

     atomic species   valence    mass     pseudopotential
        Pd1           16.00   106.42000     Pd( 1.00)
        Sn1           14.00   118.71000     Sn( 1.00)

     No symmetry found

   Cartesian axes

     site n.     atom                  positions (alat units)
         1           Pd1 tau(   1) = (   0.0000000   0.0000000  10.0000000  )
         2           Pd1 tau(   2) = (   3.9425406   2.7708818  10.0000000  )
         3           Sn1 tau(   3) = (   2.9449807   0.0000000  10.0000000  )
         4           Sn1 tau(   4) = (   0.9975599   2.7708818  10.0000000  )
         5           Pd1 tau(   5) = (   5.8899615   4.1395609  12.4092537  )
         6           Pd1 tau(   6) = (   1.9474208   1.3686791  12.4092537  )
         7           Sn1 tau(   7) = (   2.9449807   4.1395609  12.4092537  )
         8           Sn1 tau(   8) = (   4.8924016   1.3686791  12.4092537  )
         9           Pd1 tau(   9) = (   3.8997565   2.7408185  14.5823263  )
        10           Pd1 tau(  10) = (   7.8423119   5.5116981  14.5823254  )
        11           Sn1 tau(  11) = (   6.8462411   2.7418856  14.9470627  )
        12           Sn1 tau(  12) = (   4.8988183   5.5127646  14.9471035  )

     number of k points=    20  Fermi-Dirac smearing, width (Ry)=  0.0110
                       cart. coord. in units 2pi/alat
        k(    1) = (   0.0000000   0.0000000   0.0000000), wk =   0.0555556
        k(    2) = (   0.0000000   0.0300747   0.0000000), wk =   0.1111111
        k(    3) = (   0.0000000   0.0601493   0.0000000), wk =   0.1111111
        k(    4) = (   0.0000000  -0.0902240   0.0000000), wk =   0.0555556
        k(    5) = (   0.0282967  -0.0101873   0.0000000), wk =   0.1111111
        k(    6) = (   0.0282967   0.0198874   0.0000000), wk =   0.1111111
        k(    7) = (   0.0282967   0.0499621   0.0000000), wk =   0.1111111
        k(    8) = (   0.0282967  -0.1004112   0.0000000), wk =   0.1111111
        k(    9) = (   0.0282967  -0.0703366   0.0000000), wk =   0.1111111
        k(   10) = (   0.0282967  -0.0402619   0.0000000), wk =   0.1111111
        k(   11) = (   0.0565935  -0.0203745   0.0000000), wk =   0.1111111
        k(   12) = (   0.0565935   0.0097001   0.0000000), wk =   0.1111111
        k(   13) = (   0.0565935   0.0397748   0.0000000), wk =   0.1111111
        k(   14) = (   0.0565935  -0.1105985   0.0000000), wk =   0.1111111
        k(   15) = (   0.0565935  -0.0805238   0.0000000), wk =   0.1111111
        k(   16) = (   0.0565935  -0.0504492   0.0000000), wk =   0.1111111
        k(   17) = (  -0.0848902   0.0305618   0.0000000), wk =   0.0555556
        k(   18) = (  -0.0848902   0.0606364   0.0000000), wk =   0.1111111
        k(   19) = (  -0.0848902   0.0907111   0.0000000), wk =   0.1111111
        k(   20) = (  -0.0848902  -0.0596622   0.0000000), wk =   0.0555556

     Largest allocated arrays     est. size (Mb)     dimensions
     Largest temporary arrays     est. size (Mb)     dimensions

     Initial potential from superposition of free atoms
     Check: negative starting charge=   -0.453790

     starting charge  170.99969, renormalised to  180.00000

[...]

     *
     * You are using vdW-DF for exchange-correlation in this calculation.
     * Please cite the following three references that made this development
     * possible:
     *
     *   M. Dion, H. Rydberg, E. Schroder, D. C. Langreth, and
     *   B. I. Lundqvist, Phys. Rev. Lett. 92, 246401 (2004).
     *
     *   T. Thonhauser, V. R. Cooper, S. Li, A. Puzder, P. Hyldgaard, and
     *   D. C. Langreth, Phys. Rev. B 76, 125112 (2007).
     *
     *   G. Roman-Perez and J. M. Soler, Phys. Rev. Lett. 103, 096102 (2009).
     *
     *
     * If you are using vdW-DF2, please also cite:
     *
     *   K. Lee, E. D. Murray, L. Kong, B. I. Lundqvist, and
     *   D. C. Langreth, Phys. Rev. B 82, 081101(R) (2010).
     *
     *
     * If you are calculating the stress with vdW-DF, please also cite:
     *
     *   R. Sabatini, E. Kucukbenli, B. Kolb, T. Thonhauser, and
     *   S. de Gironcoli, J. Phys.: Condens. Matter 24, 424209 (2012).
     *

     Carrying out vdW-DF run using the following parameters:

     Nqs =      20    Nr_points =    1024   r_max =   100.000
     q_mesh =
               0.00001000     0.04494208     0.09755937     0.15916263
               0.23128650     0.31572767     0.41458969     0.53033537
               0.66584808     0.82450364     1.01025438     1.22772762
               1.48234092     1.78043706     2.12944203     2.53805004
               3.01644009     3.57652955     4.23227104     5.00000000

     Gradients computed in reciprocal space

[...]

     Starting wfc are  126 randomized atomic wfcs

     Self-consistent Calculation

[...]

     total energy              =   -2163.23439373 Ry
     Harris-Foulkes estimate   =   -2163.23439346 Ry
     estimated scf accuracy    <       0.00000173 Ry

     iteration # 18     ecut=    36.75 Ry     beta=0.10
     Davidson diagonalization with overlap
     ethr =  9.64E-10,  avg # of iterations =  2.2

[...]

     negative rho (up, down):  4.701E-01 0.000E+00

     Adding external electric field

     Computed dipole along edir(3) :
        Dipole                0.0687 Ry au,          0.1746 Debye
        Dipole field          0.0002 Ry au

        Potential amp.       -0.0144 Ry
        Total length         45.7277 bohr

     End of self-consistent calculation

[...]

          k = 0.0566-0.0504 0.0000 ( 20571 PWs)   bands (ev):

[...]

          k =-0.0849-0.0597 0.0000 ( 20578 PWs)   bands (ev):

   -49.3082 -49.3065 -49.2948 -49.2757 -49.2729 -49.2710 -49.1210 -49.1194
   -49.0948 -49.0756 -49.0616 -49.0601 -48.9423 -48.9406 -48.8559 -48.8371
   -48.7719 -48.7704 -21.1008 -21.0563 -21.0515 -21.0186 -21.0166 -21.0159
   -21.0139 -21.0113 -21.0074 -20.9636 -20.9053 -20.8750 -20.8655 -20.8365
   -20.8339 -20.8319 -20.8162 -20.8148 -20.8055 -20.8020 -20.7934 -20.7920
   -20.7899 -20.7772 -20.7733 -20.7719 -20.7623 -20.7470 -20.7414 -20.7128
    -7.7310  -7.3627  -6.7408  -6.6998  -5.5257  -4.4418  -4.1957  -3.9790
    -3.6797  -3.4327  -3.4325  -3.1714  -2.6755  -2.5661  -2.4407  -2.3139
    -2.1602  -2.1382  -2.0908  -1.9432  -1.9193  -1.8994  -1.8062  -1.7856
    -1.6642  -1.4745  -1.4222  -1.3692  -1.1514  -1.1465  -1.1150  -1.0475
    -0.8741  -0.7347  -0.6394  -0.4953  -0.4356  -0.1369   0.0427   0.1352
     0.2560   1.3295   1.6530   1.9944   2.3519   2.7207   4.1109   4.1355
     4.3119   4.5493   4.6791   4.9297   5.4174   5.5346   5.6548   6.0370
     6.1704   6.2406   6.3770   6.5337   6.6448   6.6595   6.7763   6.8069
     7.1348   7.3717   7.3801   7.4412   7.6230   7.6482   7.8606   7.9041

     the Fermi energy is     1.0110 ev

!    total energy              =   -2163.23439216 Ry
     Harris-Foulkes estimate   =   -2163.23439417 Ry
     estimated scf accuracy    <       0.00000078 Ry

     The total energy is the sum of the following terms:

     one-electron contribution =  -14923.53656143 Ry
     hartree contribution      =    7517.31843995 Ry
     xc contribution           =    -462.53748144 Ry
     ewald contribution        =    5705.55387433 Ry
     electric field correction =       0.00001085 Ry
     smearing contrib. (-TS)   =      -0.03267442 Ry

     convergence has been achieved in  18 iterations

 BEEF-vdW xc energy contributions
           1 :   -404.973202274934
           2 :    370.649761429382
           3 :   -312.284813362366
           4 :    245.915394877783
           5 :   -186.886721961498
           6 :    144.525308781618
           7 :   -120.076107199499
           8 :    108.321016385574
           9 :   -101.593212489027
          10 :    93.9258237920600
          11 :   -83.3451337115604
          12 :    71.5540474962089
          13 :   -61.7367346656333
          14 :    56.0711170323411
          15 :   -54.4068071537155
          16 :    54.6342314075793
          17 :   -54.2103829908410
          18 :    51.7188344253555
          19 :   -47.5100552968806
          20 :    43.1629142727723
          21 :   -40.2688637356497
          22 :    39.3866733681131
          23 :   -39.8019344232312
          24 :    40.1345981598937
          25 :   -39.3004297094756
          26 :    37.1667485873088
          27 :   -34.5193830741066
          28 :    32.4395971493983
          29 :   -31.5592105812977
          30 :    31.6869365592981
          31 :   -37.0327478044239
          32 :   -27.1879161924644

     Forces acting on atoms (Ry/au):

     negative rho (up, down):  4.701E-01 0.000E+00
     atom    1 type  1   force =     0.00009515    0.00006679    0.02411789
     atom    2 type  1   force =     0.00009520    0.00006659    0.02411786
     atom    3 type  2   force =    -0.00057049   -0.00040142   -0.01353055
     atom    4 type  2   force =    -0.00057127   -0.00039904   -0.01353121
     atom    5 type  1   force =    -0.00048609   -0.00034105    0.00628008
     atom    6 type  1   force =    -0.00048545   -0.00034172    0.00627997
     atom    7 type  2   force =     0.00041867    0.00029525   -0.01663903
     atom    8 type  2   force =     0.00042329    0.00029667   -0.01663988
     atom    9 type  1   force =     0.00026038    0.00018285    0.00040244
     atom   10 type  1   force =     0.00025929    0.00018273    0.00040269
     atom   11 type  2   force =     0.00028081    0.00019530   -0.00062785
     atom   12 type  2   force =     0.00028050    0.00019703   -0.00063242

     Total force =     0.046539     Total SCF correction =     0.002684

     entering subroutine stress ...

     negative rho (up, down):  4.701E-01 0.000E+00
          total   stress  (Ry/bohr**3)                   (kbar)     P=  -15.67
  -0.00015236  -0.00002617   0.00000161        -22.41     -3.85      0.24
  -0.00002617  -0.00013352   0.00000113         -3.85    -19.64      0.17
   0.00000161   0.00000113  -0.00003372          0.24      0.17     -4.96

 !ASE

     Writing output data file calc.save

     General routines

     Parallel routines

   This run was terminated on:   2:34:24  19Dec2018

   JOB DONE.
Job  /afs/slac/g/suncat/bin/suncat-tsmpirun -x LD_LIBRARY_PATH -wdir /scratch/qe530428_WWwls pw.x -in pw.inp

TID   HOST_NAME   COMMAND_LINE            STATUS            TERMINATION_TIME
00000 suncat2056 pw.x -in pw.inp   Done                     12/19/2018 02:34:24
00001 suncat2056 pw.x -in pw.inp   Done                     12/19/2018 02:34:24
00002 suncat2056 pw.x -in pw.inp   Done                     12/19/2018 02:34:24
00003 suncat2056 pw.x -in pw.inp   Done                     12/19/2018 02:34:24
00004 suncat2056 pw.x -in pw.inp   Done                     12/19/2018 02:34:24
00005 suncat2056 pw.x -in pw.inp   Done                     12/19/2018 02:34:24
00006 suncat2056 pw.x -in pw.inp   Done                     12/19/2018 02:34:24
00007 suncat2056 pw.x -in pw.inp   Done                     12/19/2018 02:34:24
00008 suncat2056 pw.x -in pw.inp   Done                     12/19/2018 02:34:24
00009 suncat2056 pw.x -in pw.inp   Done                     12/19/2018 02:34:24
00010 suncat2056 pw.x -in pw.inp   Done                     12/19/2018 02:34:24
00011 suncat2056 pw.x -in pw.inp   Done                     12/19/2018 02:34:24
00012 suncat2056 pw.x -in pw.inp   Done                     12/19/2018 02:34:24
00013 suncat2056 pw.x -in pw.inp   Done                     12/19/2018 02:34:24
00014 suncat2056 pw.x -in pw.inp   Done                     12/19/2018 02:34:24
00015 suncat2056 pw.x -in pw.inp   Done                     12/19/2018 02:34:24
00016 suncat2055 pw.x -in pw.inp   Done                     12/19/2018 02:34:24
00017 suncat2055 pw.x -in pw.inp   Done                     12/19/2018 02:34:24
00018 suncat2055 pw.x -in pw.inp   Done                     12/19/2018 02:34:24
00019 suncat2055 pw.x -in pw.inp   Done                     12/19/2018 02:34:24
00020 suncat2055 pw.x -in pw.inp   Done                     12/19/2018 02:34:24
00021 suncat2055 pw.x -in pw.inp   Done                     12/19/2018 02:34:24
00022 suncat2055 pw.x -in pw.inp   Done                     12/19/2018 02:34:24
00023 suncat2055 pw.x -in pw.inp   Done                     12/19/2018 02:34:24
00024 suncat2055 pw.x -in pw.inp   Done                     12/19/2018 02:34:24
00025 suncat2055 pw.x -in pw.inp   Done                     12/19/2018 02:34:24
00026 suncat2055 pw.x -in pw.inp   Done                     12/19/2018 02:34:24
00027 suncat2055 pw.x -in pw.inp   Done                     12/19/2018 02:34:24
00028 suncat2055 pw.x -in pw.inp   Done                     12/19/2018 02:34:24
00029 suncat2055 pw.x -in pw.inp   Done                     12/19/2018 02:34:24
00030 suncat2055 pw.x -in pw.inp   Done                     12/19/2018 02:34:24
00031 suncat2055 pw.x -in pw.inp   Done                     12/19/2018 02:34:24