     Program PWSCF v.5.1rc2 (svn rev. 11289) starts on 29Dec2018 at 19: 5:56

     Current dimensions of program PWSCF are:
     Max number of different atomic species (ntypx) = 10
     Max number of k-points (npk) =  40000
     Max angular momentum in pseudopotentials (lmaxx) =  3
     Presently stress not available with electric field

     IMPORTANT: XC functional enforced from input :
     Exchange-correlation      = BEEF-VDW ( 1  4 27 13 2)
     Any further DFT definition will be discarded
     Please, verify this is what you really want

     Subspace diagonalization in iterative solution of the eigenvalue problem:
     a serial algorithm will be used

     Found symmetry operation: I + ( -0.5000  0.5000  0.0000)
     This is a supercell, fractional translations are disabled

     bravais-lattice index     =            0
     lattice parameter (alat)  =       1.8897  a.u.
     unit-cell volume          =    5041.5201 (a.u.)^3
     number of atoms/cell      =           12
     number of atomic types    =            2
     number of electrons       =       168.00
     number of Kohn-Sham states=          114
     kinetic-energy cutoff     =      36.7493  Ry
     charge density cutoff     =     367.4932  Ry
     convergence threshold     =      1.0E-06
     mixing beta               =       0.1000
     number of iterations used =           10  plain     mixing
     Exchange-correlation      = BEEF-VDW ( 1  4 27 13 2)
     nstep                     =           50

     celldm(1)=   1.889726  celldm(2)=   0.000000  celldm(3)=   0.000000
     celldm(4)=   0.000000  celldm(5)=   0.000000  celldm(6)=   0.000000

     crystal axes: (cart. coord. in units of alat)
               a(1) = (   5.674318   0.000000   0.000000 )
               a(2) = (   1.908598   5.343701   0.000000 )
               a(3) = (   0.000000   0.000000  24.638205 )

     reciprocal axes: (cart. coord. in units 2 pi/alat)
               b(1) = (  0.176233 -0.062945  0.000000 )
               b(2) = (  0.000000  0.187136  0.000000 )
               b(3) = (  0.000000  0.000000  0.040587 )

     PseudoPot. # 1 for Tc read from file:
     /afs/slac.stanford.edu/u/if/mamunm/psp/gbrv1.5pbe/Tc.UPF
     MD5 check sum: 9eb49e5b028550b2339a02317eb7b844
     Pseudo is Ultrasoft + core correction, Zval = 15.0
     Generated by new atomic code, or converted to UPF format
     Using radial grid of  965 points,  6 beta functions with:
                l(1) =   0
                l(2) =   0
                l(3) =   1
                l(4) =   1
                l(5) =   2
                l(6) =   2
     Q(r) pseudized with  8 coefficients,  rinner =    1.300   1.300   1.300
                                                       1.300   1.300

     PseudoPot. # 2 for In read from file:
     /afs/slac.stanford.edu/u/if/mamunm/psp/gbrv1.5pbe/In.UPF
     MD5 check sum: 90777abd96fbb83f2e67db2a40c566b9
     Pseudo is Ultrasoft + core correction, Zval = 13.0
     Generated by new atomic code, or converted to UPF format
     Using radial grid of  889 points,  6 beta functions with:
                l(1) =   0
                l(2) =   0
                l(3) =   1
                l(4) =   1
                l(5) =   2
                l(6) =   2
     Q(r) pseudized with  6 coefficients,  rinner =    1.400   1.400   1.400
                                                       1.400   1.400

     vdW kernel table read from file vdW_kernel_table
     MD5 check sum: 095c7af220d748ca6e76c0b4c6cfb241

     atomic species   valence    mass     pseudopotential
        Tc1           15.00    97.90721     Tc( 1.00)
        In1           13.00   114.81800     In( 1.00)

     No symmetry found

   Cartesian axes

     site n.     atom                  positions (alat units)
         1           Tc1 tau(   1) = (   0.0000000   0.0000000  10.0000000  )
         2           Tc1 tau(   2) = (   3.7914581   2.6718505  10.0000000  )
         3           In1 tau(   3) = (   2.8371591   0.0000000  10.0000000  )
         4           In1 tau(   4) = (   0.9542990   2.6718505  10.0000000  )
         5           Tc1 tau(   5) = (   5.6743182   3.9987069  12.3191026  )
         6           Tc1 tau(   6) = (   1.8828601   1.3268564  12.3191026  )
         7           In1 tau(   7) = (   2.8371591   3.9987069  12.3191026  )
         8           In1 tau(   8) = (   4.7200191   1.3268564  12.3191026  )
         9           Tc1 tau(   9) = (   3.7657201   2.6537128  14.6382053  )
        10           Tc1 tau(  10) = (   7.5571782   5.3255633  14.6382053  )
        11           In1 tau(  11) = (   6.6028792   2.6537128  14.6382053  )
        12           In1 tau(  12) = (   4.7200191   5.3255633  14.6382053  )

     number of k points=    20  Fermi-Dirac smearing, width (Ry)=  0.0110
                       cart. coord. in units 2pi/alat
        k(    1) = (   0.0000000   0.0000000   0.0000000), wk =   0.0555556
        k(    2) = (   0.0000000   0.0311894   0.0000000), wk =   0.1111111
        k(    3) = (   0.0000000   0.0623787   0.0000000), wk =   0.1111111
        k(    4) = (   0.0000000  -0.0935681   0.0000000), wk =   0.0555556
        k(    5) = (   0.0293721  -0.0104908   0.0000000), wk =   0.1111111
        k(    6) = (   0.0293721   0.0206986   0.0000000), wk =   0.1111111
        k(    7) = (   0.0293721   0.0518880   0.0000000), wk =   0.1111111
        k(    8) = (   0.0293721  -0.1040589   0.0000000), wk =   0.1111111
        k(    9) = (   0.0293721  -0.0728695   0.0000000), wk =   0.1111111
        k(   10) = (   0.0293721  -0.0416801   0.0000000), wk =   0.1111111
        k(   11) = (   0.0587442  -0.0209815   0.0000000), wk =   0.1111111
        k(   12) = (   0.0587442   0.0102078   0.0000000), wk =   0.1111111
        k(   13) = (   0.0587442   0.0413972   0.0000000), wk =   0.1111111
        k(   14) = (   0.0587442  -0.1145497   0.0000000), wk =   0.1111111
        k(   15) = (   0.0587442  -0.0833603   0.0000000), wk =   0.1111111
        k(   16) = (   0.0587442  -0.0521709   0.0000000), wk =   0.1111111
        k(   17) = (  -0.0881163   0.0314723   0.0000000), wk =   0.0555556
        k(   18) = (  -0.0881163   0.0626617   0.0000000), wk =   0.1111111
        k(   19) = (  -0.0881163   0.0938511   0.0000000), wk =   0.1111111
        k(   20) = (  -0.0881163  -0.0620958   0.0000000), wk =   0.0555556

     Largest allocated arrays     est. size (Mb)     dimensions
     Largest temporary arrays     est. size (Mb)     dimensions

     Check: negative/imaginary core charge=   -0.000012    0.000000

     Initial potential from superposition of free atoms
     Check: negative starting charge=   -0.759724

     starting charge  152.99983, renormalised to  168.00000

     negative rho (up, down):  8.342E-01 0.000E+00

     *
     * You are using vdW-DF for exchange-correlation in this calculation.
     * Please cite the following three references that made this development
     * possible:
     *
     *   M. Dion, H. Rydberg, E. Schroder, D. C. Langreth, and
     *   B. I. Lundqvist, Phys. Rev. Lett. 92, 246401 (2004).
     *
     *   T. Thonhauser, V. R. Cooper, S. Li, A. Puzder, P. Hyldgaard, and
     *   D. C. Langreth, Phys. Rev. B 76, 125112 (2007).
     *
     *   G. Roman-Perez and J. M. Soler, Phys. Rev. Lett. 103, 096102 (2009).
     *
     *
     * If you are using vdW-DF2, please also cite:
     *
     *   K. Lee, E. D. Murray, L. Kong, B. I. Lundqvist, and
     *   D. C. Langreth, Phys. Rev. B 82, 081101(R) (2010).
     *
     *
     * If you are calculating the stress with vdW-DF, please also cite:
     *
     *   R. Sabatini, E. Kucukbenli, B. Kolb, T. Thonhauser, and
     *   S. de Gironcoli, J. Phys.: Condens. Matter 24, 424209 (2012).
     *

     Carrying out vdW-DF run using the following parameters:

     Nqs =      20    Nr_points =    1024   r_max =   100.000
     q_mesh =
               0.00001000     0.04494208     0.09755937     0.15916263
               0.23128650     0.31572767     0.41458969     0.53033537
               0.66584808     0.82450364     1.01025438     1.22772762
               1.48234092     1.78043706     2.12944203     2.53805004
               3.01644009     3.57652955     4.23227104     5.00000000

     Gradients computed in reciprocal space

     Adding external electric field

     Computed dipole along edir(3) :
        Dipole                0.0000 Ry au,          0.0000 Debye
        Dipole field          0.0000 Ry au

        Potential amp.       -0.0000 Ry
        Total length         45.3955 bohr

     Starting wfc are  132 randomized atomic wfcs

     Self-consistent Calculation

     iteration #  1     ecut=    36.75 Ry     beta=0.10
     Davidson diagonalization with overlap
     ethr =  1.00E-02,  avg # of iterations =  7.6

[...]

     total energy              =   -1852.00715403 Ry
     Harris-Foulkes estimate   =   -1870.31255434 Ry
     estimated scf accuracy    <     105.73845330 Ry

[...]

     End of self-consistent calculation

          k = 0.0000 0.0000 0.0000 ( 18963 PWs)   bands (ev):

   -65.1484 -65.1410 -65.0622 -65.0620 -65.0553 -65.0552 -37.2469 -37.2430
   -37.2163 -37.2045 -37.1898 -37.1674 -37.1667 -37.1155 -37.1046 -37.1022
   -37.0922 -37.0803 -37.0604 -37.0592 -37.0580 -37.0527 -37.0499 -37.0387
   -13.1600 -13.1190 -13.0883 -13.0726 -13.0622 -13.0217 -12.9950 -12.9713
   -12.9655 -12.9653 -12.9378 -12.9267 -12.9230 -12.9180 -12.8996 -12.8981
   -12.8536 -12.8531 -12.8446 -12.8144 -12.8019 -12.7975 -12.7957 -12.7840
   -12.7779 -12.7734 -12.6428 -12.6330 -12.6292 -12.5803  -7.3607  -5.6262
    -4.1735  -4.0032  -3.5419  -3.4360  -1.3579  -1.3012  -0.9724  -0.7051
    -0.6848  -0.6725  -0.4782  -0.3585  -0.0614   0.1895   0.1912   0.2751
     0.3931   0.5977   0.6765   0.8826   0.9222   1.0439   1.2038   1.2334
     1.2660   1.3013   1.3061   1.3297   1.4680   1.4936   1.6164   1.6497
     1.6516   1.7741   1.8211   2.2327   2.3706   2.9518   3.1940   3.8924
     4.0293   4.1156   4.8084   5.0333   5.3979   5.4810   5.7296   5.8202
     5.8707   5.9221   5.9487   6.3071   7.0313   7.1428   7.1510   7.4037
     7.4113   7.6640

[...]

          k =-0.0881 0.0315 0.0000 ( 18986 PWs)   bands (ev):

[...]

     the Fermi energy is     1.3510 ev

!    total energy              =   -1859.91159301 Ry
     Harris-Foulkes estimate   =   -1859.91158765 Ry
     estimated scf accuracy    <       0.00000073 Ry

     The total energy is the sum of the following terms:

     one-electron contribution =  -13831.98201602 Ry
     hartree contribution      =    6957.59076809 Ry
     xc contribution           =    -433.87569619 Ry
     ewald contribution        =    5448.45817836 Ry
     electric field correction =       0.00000000 Ry
     smearing contrib. (-TS)   =      -0.10282725 Ry

     convergence has been achieved in  21 iterations

 BEEF-vdW xc energy contributions
           1 :   -380.245020531205
           2 :    348.740461059193
           3 :   -294.180680893723
           4 :    229.806282190917
           5 :   -168.628520279498
           6 :    119.110015258498
           7 :   -83.4355569204000
           8 :    58.6411414369854
           9 :   -39.6523719461388
[...]
     /afs/slac.stanford.edu/u/if/mamunm/psp/gbrv1.5pbe/Tc.UPF
     MD5 check sum: 9eb49e5b028550b2339a02317eb7b844
     Pseudo is Ultrasoft + core correction, Zval = 15.0
     Generated by new atomic code, or converted to UPF format
     Using radial grid of  965 points,  6 beta functions with:
                l(1) =   0
                l(2) =   0
                l(3) =   1
                l(4) =   1
                l(5) =   2
                l(6) =   2
     Q(r) pseudized with  8 coefficients,  rinner =    1.300   1.300   1.300
                                                       1.300   1.300

     PseudoPot. # 2 for In read from file:
     /afs/slac.stanford.edu/u/if/mamunm/psp/gbrv1.5pbe/In.UPF
     MD5 check sum: 90777abd96fbb83f2e67db2a40c566b9
     Pseudo is Ultrasoft + core correction, Zval = 13.0
     Generated by new atomic code, or converted to UPF format
     Using radial grid of  889 points,  6 beta functions with:
                l(1) =   0
                l(2) =   0
                l(3) =   1
                l(4) =   1
                l(5) =   2
                l(6) =   2
     Q(r) pseudized with  6 coefficients,  rinner =    1.400   1.400   1.400
                                                       1.400   1.400

     vdW kernel table read from file vdW_kernel_table
     MD5 check sum: 095c7af220d748ca6e76c0b4c6cfb241

     atomic species   valence    mass     pseudopotential
        Tc1           15.00    97.90721     Tc( 1.00)
        In1           13.00   114.81800     In( 1.00)

     No symmetry found

   Cartesian axes

     site n.     atom                  positions (alat units)
         1           Tc1 tau(   1) = (   0.0000000   0.0000000  10.0000000  )
         2           Tc1 tau(   2) = (   3.7914581   2.6718505  10.0000000  )
         3           In1 tau(   3) = (   2.8371591   0.0000000  10.0000000  )
         4           In1 tau(   4) = (   0.9542990   2.6718505  10.0000000  )
         5           Tc1 tau(   5) = (   5.6743182   3.9987069  12.3191026  )
         6           Tc1 tau(   6) = (   1.8828601   1.3268564  12.3191026  )
         7           In1 tau(   7) = (   2.8371591   3.9987069  12.3191026  )
         8           In1 tau(   8) = (   4.7200191   1.3268564  12.3191026  )
         9           Tc1 tau(   9) = (   3.7639912   2.6524957  14.4901904  )
        10           Tc1 tau(  10) = (   7.5554165   5.3243205  14.4901558  )
        11           In1 tau(  11) = (   6.6022155   2.6532397  14.8118623  )
        12           In1 tau(  12) = (   4.7193533   5.3250986  14.8118645  )

     number of k points=    20  Fermi-Dirac smearing, width (Ry)=  0.0110
                       cart. coord. in units 2pi/alat
        k(    1) = (   0.0000000   0.0000000   0.0000000), wk =   0.0555556
        k(    2) = (   0.0000000   0.0311894   0.0000000), wk =   0.1111111
        k(    3) = (   0.0000000   0.0623787   0.0000000), wk =   0.1111111
        k(    4) = (   0.0000000  -0.0935681   0.0000000), wk =   0.0555556
        k(    5) = (   0.0293721  -0.0104908   0.0000000), wk =   0.1111111
        k(    6) = (   0.0293721   0.0206986   0.0000000), wk =   0.1111111
        k(    7) = (   0.0293721   0.0518880   0.0000000), wk =   0.1111111
        k(    8) = (   0.0293721  -0.1040589   0.0000000), wk =   0.1111111
        k(    9) = (   0.0293721  -0.0728695   0.0000000), wk =   0.1111111
        k(   10) = (   0.0293721  -0.0416801   0.0000000), wk =   0.1111111
        k(   11) = (   0.0587442  -0.0209815   0.0000000), wk =   0.1111111
        k(   12) = (   0.0587442   0.0102078   0.0000000), wk =   0.1111111
        k(   13) = (   0.0587442   0.0413972   0.0000000), wk =   0.1111111
        k(   14) = (   0.0587442  -0.1145497   0.0000000), wk =   0.1111111
        k(   15) = (   0.0587442  -0.0833603   0.0000000), wk =   0.1111111
        k(   16) = (   0.0587442  -0.0521709   0.0000000), wk =   0.1111111
        k(   17) = (  -0.0881163   0.0314723   0.0000000), wk =   0.0555556
        k(   18) = (  -0.0881163   0.0626617   0.0000000), wk =   0.1111111
        k(   19) = (  -0.0881163   0.0938511   0.0000000), wk =   0.1111111
        k(   20) = (  -0.0881163  -0.0620958   0.0000000), wk =   0.0555556

     Largest allocated arrays     est. size (Mb)     dimensions
     Largest temporary arrays     est. size (Mb)     dimensions

     Check: negative/imaginary core charge=   -0.000012    0.000000

     Initial potential from superposition of free atoms
     Check: negative starting charge=   -0.761255

     starting charge  152.99983, renormalised to  168.00000

[...]

     *
     * You are using vdW-DF for exchange-correlation in this calculation.
     * Please cite the following three references that made this development
     * possible:
     *
     *   M. Dion, H. Rydberg, E. Schroder, D. C. Langreth, and
     *   B. I. Lundqvist, Phys. Rev. Lett. 92, 246401 (2004).
     *
     *   T. Thonhauser, V. R. Cooper, S. Li, A. Puzder, P. Hyldgaard, and
     *   D. C. Langreth, Phys. Rev. B 76, 125112 (2007).
     *
     *   G. Roman-Perez and J. M. Soler, Phys. Rev. Lett. 103, 096102 (2009).
     *
     *
     * If you are using vdW-DF2, please also cite:
     *
     *   K. Lee, E. D. Murray, L. Kong, B. I. Lundqvist, and
     *   D. C. Langreth, Phys. Rev. B 82, 081101(R) (2010).
     *
     *
     * If you are calculating the stress with vdW-DF, please also cite:
     *
     *   R. Sabatini, E. Kucukbenli, B. Kolb, T. Thonhauser, and
     *   S. de Gironcoli, J. Phys.: Condens. Matter 24, 424209 (2012).
     *

     Carrying out vdW-DF run using the following parameters:

     Nqs =      20    Nr_points =    1024   r_max =   100.000
     q_mesh =
               0.00001000     0.04494208     0.09755937     0.15916263
               0.23128650     0.31572767     0.41458969     0.53033537
               0.66584808     0.82450364     1.01025438     1.22772762
               1.48234092     1.78043706     2.12944203     2.53805004
               3.01644009     3.57652955     4.23227104     5.00000000

     Gradients computed in reciprocal space

[...]

     Starting wfc are  132 randomized atomic wfcs

     Self-consistent Calculation

[...]

     total energy              =   -1859.93326091 Ry
     Harris-Foulkes estimate   =   -1859.93325980 Ry
     estimated scf accuracy    <       0.00000163 Ry

     iteration # 22     ecut=    36.75 Ry     beta=0.10
     Davidson diagonalization with overlap
     ethr =  9.72E-10,  avg # of iterations =  1.4

[...]

     negative rho (up, down):  7.800E-01 0.000E+00

     Adding external electric field

     Computed dipole along edir(3) :
        Dipole                0.0223 Ry au,          0.0567 Debye
        Dipole field          0.0001 Ry au

        Potential amp.       -0.0050 Ry
        Total length         45.3955 bohr

     End of self-consistent calculation

[...]

          k = 0.0587-0.0522 0.0000 ( 18977 PWs)   bands (ev):

[...]

          k =-0.0881-0.0621 0.0000 ( 18932 PWs)   bands (ev):

   -65.2006 -65.1939 -65.0732 -65.0661 -65.0479 -65.0410 -37.3091 -37.2903
   -37.2546 -37.2416 -37.2317 -37.1860 -37.1533 -37.1229 -37.1188 -37.1149
   -37.0884 -37.0789 -37.0787 -37.0641 -37.0534 -37.0472 -37.0462 -37.0392
   -13.1005 -13.0611 -13.0272 -13.0182 -13.0007 -12.9990 -12.9644 -12.9590
   -12.9230 -12.9146 -12.8977 -12.8749 -12.8700 -12.8613 -12.8536 -12.8530
   -12.8417 -12.8327 -12.8068 -12.8049 -12.8041 -12.7850 -12.7822 -12.7819
   -12.7588 -12.7447 -12.7416 -12.6503 -12.6382 -12.5773  -5.4363  -5.3268
    -4.1824  -4.1484  -3.2434  -3.1028  -2.9701  -2.0831  -1.9675  -1.9321
    -1.7124  -1.2791  -1.1466  -0.8607  -0.6203  -0.5781  -0.4734  -0.3688
    -0.2595  -0.0635   0.2702   0.3403   0.3980   0.4092   0.5756   0.8400
     1.0377   1.2230   1.3292   1.6391   1.6563   1.7646   1.7869   1.8054
     2.0387   2.2196   2.3712   2.9685   3.3311   3.4547   3.6312   4.0190
     4.3196   4.5049   4.5918   5.9516   6.0286   6.0541   6.4697   6.7465
     6.8763   6.8931   7.0747   7.1351   7.2135   7.6500   7.9666   8.1202
     8.1384   8.1720

     the Fermi energy is     1.3577 ev

!    total energy              =   -1859.93326513 Ry
     Harris-Foulkes estimate   =   -1859.93326054 Ry
     estimated scf accuracy    <       0.00000081 Ry

     The total energy is the sum of the following terms:

     one-electron contribution =  -13821.03824580 Ry
     hartree contribution      =    6952.07115651 Ry
     xc contribution           =    -433.83204560 Ry
     ewald contribution        =    5442.97009929 Ry
     electric field correction =       0.00000124 Ry
     smearing contrib. (-TS)   =      -0.10423076 Ry

     convergence has been achieved in  22 iterations

 BEEF-vdW xc energy contributions
           1 :   -380.205409246434
           2 :    348.696651579312
           3 :   -294.126816902516
           4 :    229.735911423157
           5 :   -168.540073229662
           6 :    119.008142710358
           7 :   -83.3282763676373
           8 :    58.5341076367794
           9 :   -39.5478915230298
          10 :    22.3354586864501
          11 :   -5.70253643851220
          12 :   -8.88051264639671
          13 :    18.8765192526355
          14 :   -22.5859095938148
          15 :    20.2537363652542
          16 :   -13.9528724516307
          17 :    6.51754377811199
          18 :  -0.285342036151405
          19 :   -3.67257895616456
          20 :    5.52726601912849
          21 :   -6.07662939900393
          22 :    6.00031513941070
          23 :   -5.43414291701617
          24 :    4.02462884704960
          25 :   -1.33617311566297
          26 :   -2.70480104570527
          27 :    7.59786122261511
          28 :   -12.3926557435198
          29 :    16.0464619948798
          30 :   -17.8138733346286
          31 :   -35.1890751754826
          32 :   -25.7302621613156

     Forces acting on atoms (Ry/au):

     negative rho (up, down):  7.800E-01 0.000E+00
     atom    1 type  1   force =     0.00004195    0.00002953    0.03701039
     atom    2 type  1   force =     0.00004696    0.00003307    0.03699448
     atom    3 type  2   force =    -0.00028009   -0.00017654   -0.03165337
     atom    4 type  2   force =    -0.00026118   -0.00020496   -0.03165292
     atom    5 type  1   force =     0.00004900    0.00003455    0.02132691
     atom    6 type  1   force =     0.00006038    0.00004244    0.02133031
     atom    7 type  2   force =     0.00037614    0.00031233   -0.02723371
     atom    8 type  2   force =     0.00042029    0.00024898   -0.02723364
     atom    9 type  1   force =    -0.00016610   -0.00011671   -0.00011215
     atom   10 type  1   force =    -0.00016537   -0.00011706   -0.00010235
     atom   11 type  2   force =    -0.00005105   -0.00005709    0.00066315
     atom   12 type  2   force =    -0.00007092   -0.00002854    0.00066288

     Total force =     0.084481     Total SCF correction =     0.003557

     entering subroutine stress ...

     negative rho (up, down):  7.800E-01 0.000E+00
          total   stress  (Ry/bohr**3)                   (kbar)     P=  -14.10
  -0.00014049  -0.00001378  -0.00000057        -20.67     -2.03     -0.08
  -0.00001378  -0.00013064  -0.00000040         -2.03    -19.22     -0.06
  -0.00000057  -0.00000040  -0.00001634         -0.08     -0.06     -2.40

 !ASE

     Writing output data file calc.save

     General routines

     Parallel routines

   This run was terminated on:  20:31:51  29Dec2018

   JOB DONE.
Job  /afs/slac/g/suncat/bin/suncat-tsmpirun -x LD_LIBRARY_PATH -wdir /scratch/qe387715_Uoe2J pw.x -in pw.inp

TID   HOST_NAME   COMMAND_LINE            STATUS            TERMINATION_TIME
00000 suncat0056 pw.x -in pw.inp   Done                     12/29/2018 20:31:51
00001 suncat0056 pw.x -in pw.inp   Done                     12/29/2018 20:31:51
00002 suncat0056 pw.x -in pw.inp   Done                     12/29/2018 20:31:51
00003 suncat0056 pw.x -in pw.inp   Done                     12/29/2018 20:31:51
00004 suncat0056 pw.x -in pw.inp   Done                     12/29/2018 20:31:51
00005 suncat0056 pw.x -in pw.inp   Done                     12/29/2018 20:31:51
00006 suncat0056 pw.x -in pw.inp   Done                     12/29/2018 20:31:51
00007 suncat0056 pw.x -in pw.inp   Done                     12/29/2018 20:31:51
00008 suncat0052 pw.x -in pw.inp   Done                     12/29/2018 20:31:51
00009 suncat0052 pw.x -in pw.inp   Done                     12/29/2018 20:31:51
00010 suncat0052 pw.x -in pw.inp   Done                     12/29/2018 20:31:51
00011 suncat0052 pw.x -in pw.inp   Done                     12/29/2018 20:31:51
00012 suncat0052 pw.x -in pw.inp   Done                     12/29/2018 20:31:51
00013 suncat0052 pw.x -in pw.inp   Done                     12/29/2018 20:31:51
00014 suncat0052 pw.x -in pw.inp   Done                     12/29/2018 20:31:51
00015 suncat0052 pw.x -in pw.inp   Done                     12/29/2018 20:31:51
00016 suncat0048 pw.x -in pw.inp   Done                     12/29/2018 20:31:51
00017 suncat0048 pw.x -in pw.inp   Done                     12/29/2018 20:31:51
00018 suncat0048 pw.x -in pw.inp   Done                     12/29/2018 20:31:51
00019 suncat0048 pw.x -in pw.inp   Done                     12/29/2018 20:31:51
00020 suncat0048 pw.x -in pw.inp   Done                     12/29/2018 20:31:51
00021 suncat0048 pw.x -in pw.inp   Done                     12/29/2018 20:31:51
00022 suncat0048 pw.x -in pw.inp   Done                     12/29/2018 20:31:51
00023 suncat0048 pw.x -in pw.inp   Done                     12/29/2018 20:31:51
00024 suncat0047 pw.x -in pw.inp   Done                     12/29/2018 20:31:51
00025 suncat0047 pw.x -in pw.inp   Done                     12/29/2018 20:31:51
00026 suncat0047 pw.x -in pw.inp   Done                     12/29/2018 20:31:51
00027 suncat0047 pw.x -in pw.inp   Done                     12/29/2018 20:31:51
00028 suncat0047 pw.x -in pw.inp   Done                     12/29/2018 20:31:51
00029 suncat0047 pw.x -in pw.inp   Done                     12/29/2018 20:31:51
00030 suncat0047 pw.x -in pw.inp   Done                     12/29/2018 20:31:51
00031 suncat0047 pw.x -in pw.inp   Done                     12/29/2018 20:31:51
00032 suncat0041 pw.x -in pw.inp   Done                     12/29/2018 20:31:51
00033 suncat0041 pw.x -in pw.inp   Done                     12/29/2018 20:31:51
00034 suncat0041 pw.x -in pw.inp   Done                     12/29/2018 20:31:51
00035 suncat0041 pw.x -in pw.inp   Done                     12/29/2018 20:31:51
00036 suncat0041 pw.x -in pw.inp   Done                     12/29/2018 20:31:51
00037 suncat0041 pw.x -in pw.inp   Done                     12/29/2018 20:31:51
00038 suncat0041 pw.x -in pw.inp   Done                     12/29/2018 20:31:51
00039 suncat0041 pw.x -in pw.inp   Done                     12/29/2018 20:31:51
00040 suncat0039 pw.x -in pw.inp   Done                     12/29/2018 20:31:51
00041 suncat0039 pw.x -in pw.inp   Done                     12/29/2018 20:31:51
00042 suncat0039 pw.x -in pw.inp   Done                     12/29/2018 20:31:51
00043 suncat0039 pw.x -in pw.inp   Done                     12/29/2018 20:31:51
00044 suncat0039 pw.x -in pw.inp   Done                     12/29/2018 20:31:51
00045 suncat0039 pw.x -in pw.inp   Done                     12/29/2018 20:31:51
00046 suncat0039 pw.x -in pw.inp   Done                     12/29/2018 20:31:51
00047 suncat0039 pw.x -in pw.inp   Done                     12/29/2018 20:31:51
00048 suncat0207 pw.x -in pw.inp   Done                     12/29/2018 20:31:51
00049 suncat0207 pw.x -in pw.inp   Done                     12/29/2018 20:31:51
00050 suncat0207 pw.x -in pw.inp   Done                     12/29/2018 20:31:51
00051 suncat0207 pw.x -in pw.inp   Done                     12/29/2018 20:31:51
00052 suncat0207 pw.x -in pw.inp   Done                     12/29/2018 20:31:51
00053 suncat0207 pw.x -in pw.inp   Done                     12/29/2018 20:31:51
00054 suncat0207 pw.x -in pw.inp   Done                     12/29/2018 20:31:51
00055 suncat0207 pw.x -in pw.inp   Done                     12/29/2018 20:31:51
00056 suncat0206 pw.x -in pw.inp   Done                     12/29/2018 20:31:51
00057 suncat0206 pw.x -in pw.inp   Done                     12/29/2018 20:31:51
00058 suncat0206 pw.x -in pw.inp   Done                     12/29/2018 20:31:51
00059 suncat0206 pw.x -in pw.inp   Done                     12/29/2018 20:31:51
00060 suncat0206 pw.x -in pw.inp   Done                     12/29/2018 20:31:51
00061 suncat0206 pw.x -in pw.inp   Done                     12/29/2018 20:31:51
00062 suncat0206 pw.x -in pw.inp   Done                     12/29/2018 20:31:51
00063 suncat0206 pw.x -in pw.inp   Done                     12/29/2018 20:31:51