     Program PWSCF v.5.1rc2 (svn rev. 11289) starts on 19Dec2018 at  3:55: 2

     Current dimensions of program PWSCF are:
     Max number of different atomic species (ntypx) = 10
     Max number of k-points (npk) =  40000
     Max angular momentum in pseudopotentials (lmaxx) =  3
     Presently stress not available with electric field

     IMPORTANT: XC functional enforced from input :
     Exchange-correlation      = BEEF-VDW ( 1  4 27 13 2)
     Any further DFT definition will be discarded
     Please, verify this is what you really want

     Subspace diagonalization in iterative solution of the eigenvalue problem:
     a serial algorithm will be used

     Found symmetry operation: I + ( -0.5000 -0.5000  0.0000)
     This is a supercell, fractional translations are disabled

     bravais-lattice index     =            0
     lattice parameter (alat)  =       1.8897  a.u.
     unit-cell volume          =    4940.4088 (a.u.)^3
     number of atoms/cell      =           12
     number of atomic types    =            2
     number of electrons       =       168.00
     number of Kohn-Sham states=          114
     kinetic-energy cutoff     =      36.7493  Ry
     charge density cutoff     =     367.4932  Ry
     convergence threshold     =      1.0E-06
     mixing beta               =       0.1000
     number of iterations used =           10  plain     mixing
     Exchange-correlation      = BEEF-VDW ( 1  4 27 13 2)
     nstep                     =           50

     celldm(1)=   1.889726  celldm(2)=   0.000000  celldm(3)=   0.000000
     celldm(4)=   0.000000  celldm(5)=   0.000000  celldm(6)=   0.000000

     crystal axes: (cart. coord. in units of alat)
               a(1) = (   5.776965   0.000000   0.000000 )
               a(2) = (   2.679963   5.117727   0.000000 )
               a(3) = (   0.000000   0.000000  24.762212 )

     reciprocal axes: (cart. coord. in units 2 pi/alat)
               b(1) = (  0.173101 -0.090647  0.000000 )
               b(2) = (  0.000000  0.195399  0.000000 )
               b(3) = (  0.000000  0.000000  0.040384 )

     PseudoPot. # 1 for Ru read from file:
     /afs/slac.stanford.edu/u/if/mamunm/psp/gbrv1.5pbe/Ru.UPF
     MD5 check sum: 7158a806dd851261a58e6920c40ebe78
     Pseudo is Ultrasoft + core correction, Zval = 16.0
     Generated by new atomic code, or converted to UPF format
     Using radial grid of  967 points,  6 beta functions with:
                l(1) =   0
                l(2) =   0
                l(3) =   1
                l(4) =   1
                l(5) =   2
                l(6) =   2
     Q(r) pseudized with  8 coefficients,  rinner =    1.300   1.300   1.300
                                                       1.300   1.300

     PseudoPot. # 2 for Hg read from file:
     /afs/slac.stanford.edu/u/if/mamunm/psp/gbrv1.5pbe/Hg.UPF
     MD5 check sum: 8f42caffe07f7fd9c0a564347f8c5498
     Pseudo is Ultrasoft + core correction, Zval = 12.0
     Generated by new atomic code, or converted to UPF format
     Using radial grid of  985 points,  6 beta functions with:
                l(1) =   0
                l(2) =   0
                l(3) =   1
                l(4) =   1
                l(5) =   2
                l(6) =   2
     Q(r) pseudized with  8 coefficients,  rinner =    2.000   2.000   2.000
                                                       2.000   2.000

     vdW kernel table read from file vdW_kernel_table
     MD5 check sum: 095c7af220d748ca6e76c0b4c6cfb241

     atomic species   valence    mass     pseudopotential
        Ru1           16.00   101.07000     Ru( 1.00)
        Hg1           12.00   200.59200     Hg( 1.00)

     No symmetry found

   Cartesian axes

     site n.     atom                  positions (alat units)
         1           Ru1 tau(   1) = (   0.0000000   0.0000000  10.0000000  )
         2           Ru1 tau(   2) = (   4.2284644   2.5588633  10.0000000  )
         3           Hg1 tau(   3) = (   2.8884827   0.0000000  10.0000000  )
         4           Hg1 tau(   4) = (   1.3399817   2.5588633  10.0000000  )
         5           Ru1 tau(   5) = (   5.7769654   3.4959416  12.3811060  )
         6           Ru1 tau(   6) = (   1.5485010   0.9370783  12.3811060  )
         7           Hg1 tau(   7) = (   2.8884827   3.4959416  12.3811060  )
         8           Hg1 tau(   8) = (   4.4369837   0.9370783  12.3811060  )
         9           Ru1 tau(   9) = (   3.0970020   1.8741567  14.7622119  )
        10           Ru1 tau(  10) = (   7.3254664   4.4330200  14.7622119  )
        11           Hg1 tau(  11) = (   5.9854847   1.8741567  14.7622119  )
        12           Hg1 tau(  12) = (   4.4369837   4.4330200  14.7622119  )

     number of k points=    20  Fermi-Dirac smearing, width (Ry)=  0.0110
                       cart. coord. in units 2pi/alat
        k(    1) = (   0.0000000   0.0000000   0.0000000), wk =   0.0555556
        k(    2) = (   0.0000000   0.0325665   0.0000000), wk =   0.1111111
        k(    3) = (   0.0000000   0.0651331   0.0000000), wk =   0.1111111
        k(    4) = (   0.0000000  -0.0976996   0.0000000), wk =   0.0555556
        k(    5) = (   0.0288502  -0.0151078   0.0000000), wk =   0.1111111
        k(    6) = (   0.0288502   0.0174588   0.0000000), wk =   0.1111111
        k(    7) = (   0.0288502   0.0500253   0.0000000), wk =   0.1111111
        k(    8) = (   0.0288502  -0.1128074   0.0000000), wk =   0.1111111
        k(    9) = (   0.0288502  -0.0802409   0.0000000), wk =   0.1111111
        k(   10) = (   0.0288502  -0.0476743   0.0000000), wk =   0.1111111
        k(   11) = (   0.0577004  -0.0302156   0.0000000), wk =   0.1111111
        k(   12) = (   0.0577004   0.0023510   0.0000000), wk =   0.1111111
        k(   13) = (   0.0577004   0.0349175   0.0000000), wk =   0.1111111
        k(   14) = (   0.0577004  -0.1279152   0.0000000), wk =   0.1111111
        k(   15) = (   0.0577004  -0.0953487   0.0000000), wk =   0.1111111
        k(   16) = (   0.0577004  -0.0627821   0.0000000), wk =   0.1111111
        k(   17) = (  -0.0865506   0.0453234   0.0000000), wk =   0.0555556
        k(   18) = (  -0.0865506   0.0778899   0.0000000), wk =   0.1111111
        k(   19) = (  -0.0865506   0.1104564   0.0000000), wk =   0.1111111
        k(   20) = (  -0.0865506  -0.0523763   0.0000000), wk =   0.0555556

     Largest allocated arrays     est. size (Mb)     dimensions
     Largest temporary arrays     est. size (Mb)     dimensions

     Initial potential from superposition of free atoms
     Check: negative starting charge=   -0.440814

     starting charge  161.99956, renormalised to  168.00000

     negative rho (up, down):  4.571E-01 0.000E+00

     *
     * You are using vdW-DF for exchange-correlation in this calculation.
     * Please cite the following three references that made this development
     * possible:
     *
     *   M. Dion, H. Rydberg, E. Schroder, D. C. Langreth, and
     *   B. I. Lundqvist, Phys. Rev. Lett. 92, 246401 (2004).
     *
     *   T. Thonhauser, V. R. Cooper, S. Li, A. Puzder, P. Hyldgaard, and
     *   D. C. Langreth, Phys. Rev. B 76, 125112 (2007).
     *
     *   G. Roman-Perez and J. M. Soler, Phys. Rev. Lett. 103, 096102 (2009).
     *
     *
     * If you are using vdW-DF2, please also cite:
     *
     *   K. Lee, E. D. Murray, L. Kong, B. I. Lundqvist, and
     *   D. C. Langreth, Phys. Rev. B 82, 081101(R) (2010).
     *
     *
     * If you are calculating the stress with vdW-DF, please also cite:
     *
     *   R. Sabatini, E. Kucukbenli, B. Kolb, T. Thonhauser, and
     *   S. de Gironcoli, J. Phys.: Condens. Matter 24, 424209 (2012).
     *

     Carrying out vdW-DF run using the following parameters:

     Nqs =      20    Nr_points =    1024   r_max =   100.000
     q_mesh =
               0.00001000     0.04494208     0.09755937     0.15916263
               0.23128650     0.31572767     0.41458969     0.53033537
               0.66584808     0.82450364     1.01025438     1.22772762
               1.48234092     1.78043706     2.12944203     2.53805004
               3.01644009     3.57652955     4.23227104     5.00000000

     Gradients computed in reciprocal space

     Adding external electric field

     Computed dipole along edir(3) :
        Dipole               -0.0000 Ry au,         -0.0000 Debye
        Dipole field         -0.0000 Ry au

        Potential amp.        0.0000 Ry
        Total length         45.6240 bohr

     Starting wfc are  132 randomized atomic wfcs

     Self-consistent Calculation

     iteration #  1     ecut=    36.75 Ry     beta=0.10
     Davidson diagonalization with overlap
     ethr =  1.00E-02,  avg # of iterations =  7.7

[...]

     total energy              =   -1825.02493126 Ry
     Harris-Foulkes estimate   =   -1825.93586496 Ry
     estimated scf accuracy    <       5.48843537 Ry

[...]

     End of self-consistent calculation

          k = 0.0000 0.0000 0.0000 ( 18627 PWs)   bands (ev):

   -70.9503 -70.9360 -70.8083 -70.8081 -70.7941 -70.7939 -41.0311 -41.0253
   -41.0130 -40.9575 -40.9565 -40.8715 -40.8537 -40.8423 -40.7884 -40.7774
   -40.7769 -40.7762 -40.7709 -40.7586 -40.7181 -40.7125 -40.7002 -40.6953
    -7.3802  -6.9497  -6.9455  -6.8375  -6.8000  -6.7168  -6.6153  -6.5473
    -6.4589  -6.4161  -6.4076  -6.3946  -6.0663  -6.0487  -5.9622  -5.8519
    -5.8272  -5.7550  -5.6804  -5.5588  -5.5569  -5.5333  -5.5304  -5.3843
    -5.3345  -5.3106  -5.2641  -5.1193  -5.0980  -4.9989  -4.8515  -4.4953
    -3.1020  -2.3841  -1.7485  -1.6755  -1.0181  -0.9448  -0.8116  -0.5701
    -0.4884  -0.3975  -0.3673  -0.1341  -0.0487   0.2712   0.2947   0.3641
     0.4943   0.6733   1.0387   1.0899   1.1227   1.1920   1.2883   1.3361
     1.3759   1.3912   1.4568   1.5675   1.5915   1.6062   1.6597   1.7151
     1.9943   2.0872   2.1335   2.6892   2.7449   3.2590   3.3827   3.4187
     3.7740   4.0986   4.5304   4.9768   5.4475   5.8690   5.8796   6.2986
     6.4158   6.8500   7.0628   7.1438   7.2130   7.8532   8.0935   8.8742
     8.8925   9.0826

[...]

          k =-0.0866 0.0453 0.0000 ( 18602 PWs)   bands (ev):

[...]

     the Fermi energy is     1.2511 ev

!    total energy              =   -1824.61518168 Ry
     Harris-Foulkes estimate   =   -1824.61518163 Ry
     estimated scf accuracy    <       0.00000056 Ry

     The total energy is the sum of the following terms:

     one-electron contribution =  -14008.54588456 Ry
     hartree contribution      =    7050.72461683 Ry
     xc contribution           =    -403.77508758 Ry
     ewald contribution        =    5537.10266353 Ry
     electric field correction =       0.00000000 Ry
     smearing contrib. (-TS)   =      -0.12148989 Ry

     convergence has been achieved in  20 iterations

 BEEF-vdW xc energy contributions
           1 :   -352.533057277526
           2 :    324.183731433943
           3 :   -274.900819304833
           4 :    216.533823843542
           5 :   -161.127259516148
           6 :    117.255033033236
           7 :   -88.1319853464594
           8 :    71.8891727148414
           9 :   -63.5634632952498
          10 :    57.7541598375849
          11 :   -50.7949050767381
[...]

[...]

   This run was terminated on:   4:46: 5  19Dec2018

[...]

     iteration # 19     ecut=    36.75 Ry     beta=0.10
     Davidson diagonalization with overlap
     c_bands:  1 eigenvalues not converged
     ethr =  5.29E-09,  avg # of iterations =  3.7

[...]

     Program PWSCF v.5.1rc2 (svn rev. 11289) starts on 19Dec2018 at  4:59:32

[...]

   This run was terminated on:   5: 5:48  19Dec2018

[...]

     Program PWSCF v.5.1rc2 (svn rev. 11289) starts on 19Dec2018 at  5: 5:57

     Current dimensions of program PWSCF are:
     Max number of different atomic species (ntypx) = 10
     Max number of k-points (npk) =  40000
     Max angular momentum in pseudopotentials (lmaxx) =  3
     Presently stress not available with electric field

     IMPORTANT: XC functional enforced from input :
     Exchange-correlation      = BEEF-VDW ( 1  4 27 13 2)
     Any further DFT definition will be discarded
     Please, verify this is what you really want

     Subspace diagonalization in iterative solution of the eigenvalue problem:
     a serial algorithm will be used

     Found symmetry operation: I + ( -0.5000 -0.5000  0.0000)
     This is a supercell, fractional translations are disabled

     bravais-lattice index     =            0
     lattice parameter (alat)  =       1.8897  a.u.
     unit-cell volume          =    4940.4088 (a.u.)^3
     number of atoms/cell      =           12
     number of atomic types    =            2
     number of electrons       =       168.00
     number of Kohn-Sham states=          114
     kinetic-energy cutoff     =      36.7493  Ry
     charge density cutoff     =     367.4932  Ry
     convergence threshold     =      1.0E-06
     mixing beta               =       0.1000
     number of iterations used =           10  plain     mixing
     Exchange-correlation      = BEEF-VDW ( 1  4 27 13 2)
     nstep                     =           50

     celldm(1)=   1.889726  celldm(2)=   0.000000  celldm(3)=   0.000000
     celldm(4)=   0.000000  celldm(5)=   0.000000  celldm(6)=   0.000000

     crystal axes: (cart. coord. in units of alat)
               a(1) = (   5.776965   0.000000   0.000000 )
               a(2) = (   2.679963   5.117727   0.000000 )
               a(3) = (   0.000000   0.000000  24.762212 )

     reciprocal axes: (cart. coord. in units 2 pi/alat)
               b(1) = (  0.173101 -0.090647  0.000000 )
               b(2) = (  0.000000  0.195399  0.000000 )
               b(3) = (  0.000000  0.000000  0.040384 )

     PseudoPot. # 1 for Ru read from file:
     /afs/slac.stanford.edu/u/if/mamunm/psp/gbrv1.5pbe/Ru.UPF
     MD5 check sum: 7158a806dd851261a58e6920c40ebe78
     Pseudo is Ultrasoft + core correction, Zval = 16.0
     Generated by new atomic code, or converted to UPF format
     Using radial grid of  967 points,  6 beta functions with:
                l(1) =   0
                l(2) =   0
                l(3) =   1
                l(4) =   1
                l(5) =   2
                l(6) =   2
     Q(r) pseudized with  8 coefficients,  rinner =    1.300   1.300   1.300
                                                       1.300   1.300

     PseudoPot. # 2 for Hg read from file:
     /afs/slac.stanford.edu/u/if/mamunm/psp/gbrv1.5pbe/Hg.UPF
     MD5 check sum: 8f42caffe07f7fd9c0a564347f8c5498
     Pseudo is Ultrasoft + core correction, Zval = 12.0
     Generated by new atomic code, or converted to UPF format
     Using radial grid of  985 points,  6 beta functions with:
                l(1) =   0
                l(2) =   0
                l(3) =   1
                l(4) =   1
                l(5) =   2
                l(6) =   2
     Q(r) pseudized with  8 coefficients,  rinner =    2.000   2.000   2.000
                                                       2.000   2.000

     vdW kernel table read from file vdW_kernel_table
     MD5 check sum: 095c7af220d748ca6e76c0b4c6cfb241

     atomic species   valence    mass     pseudopotential
        Ru1           16.00   101.07000     Ru( 1.00)
        Hg1           12.00   200.59200     Hg( 1.00)

     No symmetry found

   Cartesian axes

     site n.     atom                  positions (alat units)
         1           Ru1 tau(   1) = (   0.0000000   0.0000000  10.0000000  )
         2           Ru1 tau(   2) = (   4.2284644   2.5588633  10.0000000  )
         3           Hg1 tau(   3) = (   2.8884827   0.0000000  10.0000000  )
         4           Hg1 tau(   4) = (   1.3399817   2.5588633  10.0000000  )
         5           Ru1 tau(   5) = (   5.7769654   3.4959416  12.3811060  )
         6           Ru1 tau(   6) = (   1.5485010   0.9370783  12.3811060  )
         7           Hg1 tau(   7) = (   2.8884827   3.4959416  12.3811060  )
         8           Hg1 tau(   8) = (   4.4369837   0.9370783  12.3811060  )
         9           Ru1 tau(   9) = (   2.2247098   1.3462877  14.4967025  )
        10           Ru1 tau(  10) = (   6.4531880   3.9051428  14.4965498  )
        11           Hg1 tau(  11) = (   5.1822393   1.3880329  15.3025630  )
        12           Hg1 tau(  12) = (   3.6337247   3.9469412  15.3025799  )

     number of k points=    20  Fermi-Dirac smearing, width (Ry)=  0.0110
                       cart. coord. in units 2pi/alat
        k(    1) = (   0.0000000   0.0000000   0.0000000), wk =   0.0555556
        k(    2) = (   0.0000000   0.0325665   0.0000000), wk =   0.1111111
        k(    3) = (   0.0000000   0.0651331   0.0000000), wk =   0.1111111
        k(    4) = (   0.0000000  -0.0976996   0.0000000), wk =   0.0555556
        k(    5) = (   0.0288502  -0.0151078   0.0000000), wk =   0.1111111
        k(    6) = (   0.0288502   0.0174588   0.0000000), wk =   0.1111111
        k(    7) = (   0.0288502   0.0500253   0.0000000), wk =   0.1111111
        k(    8) = (   0.0288502  -0.1128074   0.0000000), wk =   0.1111111
        k(    9) = (   0.0288502  -0.0802409   0.0000000), wk =   0.1111111
        k(   10) = (   0.0288502  -0.0476743   0.0000000), wk =   0.1111111
        k(   11) = (   0.0577004  -0.0302156   0.0000000), wk =   0.1111111
        k(   12) = (   0.0577004   0.0023510   0.0000000), wk =   0.1111111
        k(   13) = (   0.0577004   0.0349175   0.0000000), wk =   0.1111111
        k(   14) = (   0.0577004  -0.1279152   0.0000000), wk =   0.1111111
        k(   15) = (   0.0577004  -0.0953487   0.0000000), wk =   0.1111111
        k(   16) = (   0.0577004  -0.0627821   0.0000000), wk =   0.1111111
        k(   17) = (  -0.0865506   0.0453234   0.0000000), wk =   0.0555556
        k(   18) = (  -0.0865506   0.0778899   0.0000000), wk =   0.1111111
        k(   19) = (  -0.0865506   0.1104564   0.0000000), wk =   0.1111111
        k(   20) = (  -0.0865506  -0.0523763   0.0000000), wk =   0.0555556

     Largest allocated arrays     est. size (Mb)     dimensions
     Largest temporary arrays     est. size (Mb)     dimensions

     Initial potential from superposition of free atoms
     Check: negative starting charge=   -0.443847

     starting charge  161.99956, renormalised to  168.00000

[...]

     *
     * You are using vdW-DF for exchange-correlation in this calculation.
     * Please cite the following three references that made this development
     * possible:
     *
     *   M. Dion, H. Rydberg, E. Schroder, D. C. Langreth, and
     *   B. I. Lundqvist, Phys. Rev. Lett. 92, 246401 (2004).
     *
     *   T. Thonhauser, V. R. Cooper, S. Li, A. Puzder, P. Hyldgaard, and
     *   D. C. Langreth, Phys. Rev. B 76, 125112 (2007).
     *
     *   G. Roman-Perez and J. M. Soler, Phys. Rev. Lett. 103, 096102 (2009).
     *
     *
     * If you are using vdW-DF2, please also cite:
     *
     *   K. Lee, E. D. Murray, L. Kong, B. I. Lundqvist, and
     *   D. C. Langreth, Phys. Rev. B 82, 081101(R) (2010).
     *
     *
     * If you are calculating the stress with vdW-DF, please also cite:
     *
     *   R. Sabatini, E. Kucukbenli, B. Kolb, T. Thonhauser, and
     *   S. de Gironcoli, J. Phys.: Condens. Matter 24, 424209 (2012).
     *

     Carrying out vdW-DF run using the following parameters:

     Nqs =      20    Nr_points =    1024   r_max =   100.000
     q_mesh =
               0.00001000     0.04494208     0.09755937     0.15916263
               0.23128650     0.31572767     0.41458969     0.53033537
               0.66584808     0.82450364     1.01025438     1.22772762
               1.48234092     1.78043706     2.12944203     2.53805004
               3.01644009     3.57652955     4.23227104     5.00000000

     Gradients computed in reciprocal space

[...]

     Starting wfc are  132 randomized atomic wfcs

     Self-consistent Calculation

[...]

     total energy              =   -1824.73438736 Ry
     Harris-Foulkes estimate   =   -1824.73438683 Ry
     estimated scf accuracy    <       0.00000128 Ry

     iteration # 21     ecut=    36.75 Ry     beta=0.10
     Davidson diagonalization with overlap
     ethr =  7.64E-10,  avg # of iterations =  1.2

[...]

     negative rho (up, down):  4.525E-01 0.000E+00

     Adding external electric field

     Computed dipole along edir(3) :
        Dipole                0.0969 Ry au,          0.2462 Debye
        Dipole field          0.0002 Ry au

        Potential amp.       -0.0225 Ry
        Total length         45.6240 bohr

     End of self-consistent calculation

[...]

          k = 0.0577-0.0628 0.0000 ( 18605 PWs)   bands (ev):

[...]

          k =-0.0866-0.0524 0.0000 ( 18496 PWs)   bands (ev):

   -71.4148 -71.4007 -71.1523 -71.1388 -70.5751 -70.5609 -42.2671 -42.2473
   -41.2886 -41.1750 -41.1558 -41.1045 -41.0681 -41.0251 -41.0114 -40.9610
   -40.9444 -40.8962 -40.7055 -40.5772 -40.5586 -40.5245 -40.4951 -40.4777
    -6.9201  -6.6584  -6.5315  -6.4270  -6.3974  -6.3687  -6.1808  -6.1521
    -6.1085  -6.0185  -5.9320  -5.8474  -5.7496  -5.6481  -5.6414  -5.5726
    -5.4442  -5.4180  -5.3972  -5.3400  -5.3142  -5.2801  -5.2014  -5.1081
    -5.1034  -4.9806  -4.8928  -4.8727  -4.8526  -4.7532  -4.3651  -4.3520
    -3.0985  -2.6191  -2.5624  -2.1907  -2.1622  -1.8730  -1.8577  -1.6839
    -1.4581  -1.3577  -1.2341  -0.9021  -0.7982  -0.6815  -0.6173  -0.5335
    -0.5177  -0.2307  -0.1757  -0.1082   0.1458   0.4717   0.5566   0.6766
     0.7851   1.2794   1.3610   1.4124   1.6133   1.6289   1.7489   1.7711
     1.8615   2.1879   2.7726   2.8168   2.9821   3.5327   3.7003   3.8426
     4.8182   4.8259   6.1247   6.2308   6.5179   6.6514   7.1183   7.1581
     7.5091   7.6077   7.8407   8.2310   8.3573   8.3916   8.5480   8.6315
     8.6727   8.9160

     the Fermi energy is     1.4400 ev

!    total energy              =   -1824.73438731 Ry
     Harris-Foulkes estimate   =   -1824.73438733 Ry
     estimated scf accuracy    <       0.00000031 Ry

     The total energy is the sum of the following terms:

     one-electron contribution =  -13824.05567509 Ry
     hartree contribution      =    6958.11824985 Ry
     xc contribution           =    -403.74403605 Ry
     ewald contribution        =    5445.03846409 Ry
     electric field correction =       0.00002387 Ry
     smearing contrib. (-TS)   =      -0.09141398 Ry

     convergence has been achieved in  21 iterations

 BEEF-vdW xc energy contributions
           1 :   -352.498511645464
           2 :    324.064338702192
           3 :   -274.676697111629
           4 :    216.252092340036
           5 :   -160.850049401204
           6 :    117.001974078318
           7 :   -87.8569658081227
           8 :    71.5082471446553
           9 :   -63.0213194910396
          10 :    57.0890184074523
          11 :   -50.1555408605428
          12 :    41.2612437359505
          13 :   -31.5499773069723
          14 :    22.9775453003529
          15 :   -17.0017320909466
          16 :    13.8639805848836
          17 :   -12.6633345477652
          18 :    12.0070650708884
          19 :   -10.7943047981038
          20 :    8.70399700667207
          21 :   -6.18105400324322
          22 :    4.00990407589853
          23 :   -2.77528219891434
          24 :    2.52441776116513
          25 :   -2.78905530865251
          26 :    2.90602591615772
          27 :   -2.41916753290388
          28 :    1.32377310258715
          29 :  -2.943869001700250E-002
          30 :  -0.913246856998057
          31 :   -34.2377325187413
          32 :   -25.5064983905742

     Forces acting on atoms (Ry/au):

     negative rho (up, down):  4.525E-01 0.000E+00
     atom    1 type  1   force =     0.01674551    0.01013381    0.02487189
     atom    2 type  1   force =     0.01674420    0.01013277    0.02487241
     atom    3 type  2   force =    -0.00505467   -0.00306239   -0.04203778
     atom    4 type  2   force =    -0.00505753   -0.00305740   -0.04203703
     atom    5 type  1   force =    -0.02009056   -0.01215830    0.00783932
     atom    6 type  1   force =    -0.02007711   -0.01215024    0.00788077
     atom    7 type  2   force =     0.00801920    0.00484244    0.00990830
     atom    8 type  2   force =     0.00800936    0.00485700    0.00990793
     atom    9 type  1   force =    -0.00005013   -0.00002996   -0.00056116
     atom   10 type  1   force =    -0.00004157   -0.00002526   -0.00048930
     atom   11 type  2   force =     0.00042169    0.00026678   -0.00007694
     atom   12 type  2   force =     0.00043161    0.00025075   -0.00007843

     Total force =     0.084889     Total SCF correction =     0.002166

     entering subroutine stress ...

     negative rho (up, down):  4.525E-01 0.000E+00
          total   stress  (Ry/bohr**3)                   (kbar)     P=   -8.35
  -0.00009896   0.00000176  -0.00002010        -14.56      0.26     -2.96
   0.00000176  -0.00010080  -0.00001216          0.26    -14.83     -1.79
  -0.00002010  -0.00001216   0.00002951         -2.96     -1.79      4.34

 !ASE

     Writing output data file calc.save

     General routines

     Parallel routines

   This run was terminated on:   5:12:28  19Dec2018

   JOB DONE.
Job  /afs/slac/g/suncat/bin/suncat-tsmpirun -x LD_LIBRARY_PATH -wdir /scratch/qe530513_vahfY pw.x -in pw.inp

TID   HOST_NAME   COMMAND_LINE            STATUS            TERMINATION_TIME
00000 suncat2056 pw.x -in pw.inp   Done                     12/19/2018 05:12:28
00001 suncat2056 pw.x -in pw.inp   Done                     12/19/2018 05:12:28
00002 suncat2056 pw.x -in pw.inp   Done                     12/19/2018 05:12:28
00003 suncat2056 pw.x -in pw.inp   Done                     12/19/2018 05:12:28
00004 suncat2056 pw.x -in pw.inp   Done                     12/19/2018 05:12:28
00005 suncat2056 pw.x -in pw.inp   Done                     12/19/2018 05:12:28
00006 suncat2056 pw.x -in pw.inp   Done                     12/19/2018 05:12:28
00007 suncat2056 pw.x -in pw.inp   Done                     12/19/2018 05:12:28
00008 suncat2056 pw.x -in pw.inp   Done                     12/19/2018 05:12:28
00009 suncat2056 pw.x -in pw.inp   Done                     12/19/2018 05:12:28
00010 suncat2056 pw.x -in pw.inp   Done                     12/19/2018 05:12:28
00011 suncat2056 pw.x -in pw.inp   Done                     12/19/2018 05:12:28
00012 suncat2056 pw.x -in pw.inp   Done                     12/19/2018 05:12:28
00013 suncat2056 pw.x -in pw.inp   Done                     12/19/2018 05:12:28
00014 suncat2056 pw.x -in pw.inp   Done                     12/19/2018 05:12:28
00015 suncat2056 pw.x -in pw.inp   Done                     12/19/2018 05:12:28
00016 suncat2055 pw.x -in pw.inp   Done                     12/19/2018 05:12:28
00017 suncat2055 pw.x -in pw.inp   Done                     12/19/2018 05:12:28
00018 suncat2055 pw.x -in pw.inp   Done                     12/19/2018 05:12:28
00019 suncat2055 pw.x -in pw.inp   Done                     12/19/2018 05:12:28
00020 suncat2055 pw.x -in pw.inp   Done                     12/19/2018 05:12:28
00021 suncat2055 pw.x -in pw.inp   Done                     12/19/2018 05:12:28
00022 suncat2055 pw.x -in pw.inp   Done                     12/19/2018 05:12:28
00023 suncat2055 pw.x -in pw.inp   Done                     12/19/2018 05:12:28
00024 suncat2055 pw.x -in pw.inp   Done                     12/19/2018 05:12:28
00025 suncat2055 pw.x -in pw.inp   Done                     12/19/2018 05:12:28
00026 suncat2055 pw.x -in pw.inp   Done                     12/19/2018 05:12:28
00027 suncat2055 pw.x -in pw.inp   Done                     12/19/2018 05:12:28
00028 suncat2055 pw.x -in pw.inp   Done                     12/19/2018 05:12:28
00029 suncat2055 pw.x -in pw.inp   Done                     12/19/2018 05:12:28
00030 suncat2055 pw.x -in pw.inp   Done                     12/19/2018 05:12:28
00031 suncat2055 pw.x -in pw.inp   Done                     12/19/2018 05:12:28