     Program PWSCF v.5.1rc2 (svn rev. 11289) starts on 19Dec2018 at  6:58:51

     Current dimensions of program PWSCF are:
     Max number of different atomic species (ntypx) = 10
     Max number of k-points (npk) =  40000
     Max angular momentum in pseudopotentials (lmaxx) =  3
     Presently stress not available with electric field

     IMPORTANT: XC functional enforced from input :
     Exchange-correlation      = BEEF-VDW ( 1  4 27 13 2)
     Any further DFT definition will be discarded
     Please, verify this is what you really want

     Subspace diagonalization in iterative solution of the eigenvalue problem:
     a serial algorithm will be used

     Found symmetry operation: I + ( -0.5000  0.0000  0.0000)
     This is a supercell, fractional translations are disabled

     bravais-lattice index     =            0
     lattice parameter (alat)  =       1.8897  a.u.
     unit-cell volume          =    4116.6822 (a.u.)^3
     number of atoms/cell      =           12
     number of atomic types    =            2
     number of electrons       =       180.00
     number of Kohn-Sham states=          120
     kinetic-energy cutoff     =      36.7493  Ry
     charge density cutoff     =     367.4932  Ry
     convergence threshold     =      1.0E-06
     mixing beta               =       0.1000
     number of iterations used =           10  plain     mixing
     Exchange-correlation      = BEEF-VDW ( 1  4 27 13 2)
     nstep                     =           50

     celldm(1)=   1.889726  celldm(2)=   0.000000  celldm(3)=   0.000000
     celldm(4)=   0.000000  celldm(5)=   0.000000  celldm(6)=   0.000000

     crystal axes: (cart. coord. in units of alat)
               a(1) = (   5.312033   0.000000   0.000000 )
               a(2) = (  -2.656017   4.709130   0.000000 )
               a(3) = (   0.000000   0.000000  24.386491 )

     reciprocal axes: (cart. coord. in units 2 pi/alat)
               b(1) = (  0.188252  0.106177  0.000000 )
               b(2) = (  0.000000  0.212353  0.000000 )
               b(3) = (  0.000000  0.000000  0.041006 )

     PseudoPot. # 1 for Cr read from file:
     /afs/slac.stanford.edu/u/if/mamunm/psp/gbrv1.5pbe/Cr.UPF
     MD5 check sum: 0d52af634a40206e4dee301ad30da4bf
     Pseudo is Ultrasoft + core correction, Zval = 14.0
     Generated by new atomic code, or converted to UPF format
     Using radial grid of  857 points,  6 beta functions with:
                l(1) =   0
                l(2) =   0
                l(3) =   1
                l(4) =   1
                l(5) =   2
                l(6) =   2
     Q(r) pseudized with  8 coefficients,  rinner =    0.950   0.950   0.950
                                                       0.950   0.950

     PseudoPot. # 2 for Pt read from file:
     /afs/slac.stanford.edu/u/if/mamunm/psp/gbrv1.5pbe/Pt.UPF
     MD5 check sum: f09d6de1a584b5a045c4fc126da2d0c4
     Pseudo is Ultrasoft + core correction, Zval = 16.0
     Generated by new atomic code, or converted to UPF format
     Using radial grid of  985 points,  6 beta functions with:
                l(1) =   0
                l(2) =   0
                l(3) =   1
                l(4) =   1
                l(5) =   2
                l(6) =   2
     Q(r) pseudized with  8 coefficients,  rinner =    1.300   1.300   1.300
                                                       1.300   1.300

     vdW kernel table read from file vdW_kernel_table
     MD5 check sum: 095c7af220d748ca6e76c0b4c6cfb241

     atomic species   valence    mass     pseudopotential
        Cr1           14.00    51.99610     Cr( 1.00)
        Pt1           16.00   195.08400     Pt( 1.00)

     No symmetry found

   Cartesian axes

     site n.     atom                  positions (alat units)
         1           Cr1 tau(   1) = (   0.0000000   0.0000000  10.0000000  )
         2           Cr1 tau(   2) = (   2.6560167   0.0000000  10.0000000  )
         3           Pt1 tau(   3) = (   1.3280083   2.3545648  10.0000000  )
         4           Pt1 tau(   4) = (  -1.3280083   2.3545648  10.0000000  )
         5           Cr1 tau(   5) = (   2.6560167   1.4980315  12.1932455  )
         6           Cr1 tau(   6) = (   0.0000000   1.4980315  12.1932455  )
         7           Pt1 tau(   7) = (  -1.3280083   3.8525963  12.1932455  )
         8           Pt1 tau(   8) = (   1.3280083   3.8525963  12.1932455  )
         9           Cr1 tau(   9) = (  -0.0000000   2.9960630  14.3864911  )
        10           Cr1 tau(  10) = (   2.6560167   2.9960630  14.3864911  )
        11           Pt1 tau(  11) = (   3.9840250   0.6414983  14.3864911  )
        12           Pt1 tau(  12) = (   1.3280083   0.6414983  14.3864911  )

     number of k points=    20  Fermi-Dirac smearing, width (Ry)=  0.0110
                       cart. coord. in units 2pi/alat
        k(    1) = (   0.0000000   0.0000000   0.0000000), wk =   0.0555556
        k(    2) = (   0.0000000   0.0353922   0.0000000), wk =   0.1111111
        k(    3) = (   0.0000000   0.0707845   0.0000000), wk =   0.1111111
        k(    4) = (   0.0000000  -0.1061767   0.0000000), wk =   0.0555556
        k(    5) = (   0.0313753   0.0176961   0.0000000), wk =   0.1111111
        k(    6) = (   0.0313753   0.0530884   0.0000000), wk =   0.1111111
        k(    7) = (   0.0313753   0.0884806   0.0000000), wk =   0.1111111
        k(    8) = (   0.0313753  -0.0884806   0.0000000), wk =   0.1111111
        k(    9) = (   0.0313753  -0.0530884   0.0000000), wk =   0.1111111
        k(   10) = (   0.0313753  -0.0176961   0.0000000), wk =   0.1111111
        k(   11) = (   0.0627506   0.0353922   0.0000000), wk =   0.1111111
        k(   12) = (   0.0627506   0.0707845   0.0000000), wk =   0.1111111
        k(   13) = (   0.0627506   0.1061767   0.0000000), wk =   0.1111111
        k(   14) = (   0.0627506  -0.0707845   0.0000000), wk =   0.1111111
        k(   15) = (   0.0627506  -0.0353922   0.0000000), wk =   0.1111111
        k(   16) = (   0.0627506   0.0000000   0.0000000), wk =   0.1111111
        k(   17) = (  -0.0941259  -0.0530884   0.0000000), wk =   0.0555556
        k(   18) = (  -0.0941259  -0.0176961   0.0000000), wk =   0.1111111
        k(   19) = (  -0.0941259   0.0176961   0.0000000), wk =   0.1111111
        k(   20) = (  -0.0941259  -0.1592651   0.0000000), wk =   0.0555556

     Largest allocated arrays     est. size (Mb)     dimensions
     Largest temporary arrays     est. size (Mb)     dimensions

     Check: negative/imaginary core charge=   -0.000003    0.000000

     Initial potential from superposition of free atoms
     Check: negative starting charge=   -1.112112

     starting charge  170.99984, renormalised to  180.00000

     negative rho (up, down):  1.171E+00 0.000E+00

     *
     * You are using vdW-DF for exchange-correlation in this calculation.
     * Please cite the following three references that made this development
     * possible:
     *
     *   M. Dion, H. Rydberg, E. Schroder, D. C. Langreth, and
     *   B. I. Lundqvist, Phys. Rev. Lett. 92, 246401 (2004).
     *
     *   T. Thonhauser, V. R. Cooper, S. Li, A. Puzder, P. Hyldgaard, and
     *   D. C. Langreth, Phys. Rev. B 76, 125112 (2007).
     *
     *   G. Roman-Perez and J. M. Soler, Phys. Rev. Lett. 103, 096102 (2009).
     *
     *
     * If you are using vdW-DF2, please also cite:
     *
     *   K. Lee, E. D. Murray, L. Kong, B. I. Lundqvist, and
     *   D. C. Langreth, Phys. Rev. B 82, 081101(R) (2010).
     *
     *
     * If you are calculating the stress with vdW-DF, please also cite:
     *
     *   R. Sabatini, E. Kucukbenli, B. Kolb, T. Thonhauser, and
     *   S. de Gironcoli, J. Phys.: Condens. Matter 24, 424209 (2012).
     *

     Carrying out vdW-DF run using the following parameters:

     Nqs =      20    Nr_points =    1024   r_max =   100.000
     q_mesh =
               0.00001000     0.04494208     0.09755937     0.15916263
               0.23128650     0.31572767     0.41458969     0.53033537
               0.66584808     0.82450364     1.01025438     1.22772762
               1.48234092     1.78043706     2.12944203     2.53805004
               3.01644009     3.57652955     4.23227104     5.00000000

     Gradients computed in reciprocal space

     Adding external electric field

     Computed dipole along edir(3) :
        Dipole                0.0000 Ry au,          0.0000 Debye
        Dipole field          0.0000 Ry au

        Potential amp.       -0.0000 Ry
        Total length         44.9317 bohr

     Starting wfc are  132 randomized atomic wfcs

     Self-consistent Calculation

     iteration #  1     ecut=    36.75 Ry     beta=0.10
     Davidson diagonalization with overlap
     ethr =  1.00E-02,  avg # of iterations =  8.1

[...]

     total energy              =   -2327.86941191 Ry
     Harris-Foulkes estimate   =   -2339.90838658 Ry
     estimated scf accuracy    <      68.72194153 Ry

[...]

     End of self-consistent calculation

          k = 0.0000 0.0000 0.0000 ( 15501 PWs)   bands (ev):

   -70.3702 -70.3335 -70.2025 -70.2014 -70.1663 -70.1653 -52.1053 -51.9039
   -51.8664 -51.8651 -51.8271 -51.7237 -51.5413 -51.5411 -51.3854 -51.3769
   -51.3465 -51.3381 -51.2332 -51.2115 -51.1970 -51.1755 -51.1612 -51.1610
   -41.7936 -41.7117 -41.6803 -41.6802 -41.6482 -41.5847 -41.5679 -41.5529
   -41.5386 -41.5271 -41.5249 -41.5015 -41.4898 -41.4718 -41.4413 -41.4138
   -41.2247 -41.2241  -6.8668  -5.1357  -4.7638  -4.7613  -4.3537  -4.3289
    -4.0726  -3.9504  -3.9348  -3.6403  -3.5468  -3.4511  -3.4470  -3.1386
    -2.8153  -2.5829  -2.1944  -1.9801  -1.8190  -1.7663  -1.6777  -1.6509
    -1.1519  -1.1148  -1.0174  -0.8893  -0.7549  -0.3679  -0.3652   0.2040
     0.3451   0.4204   0.4214   0.6453   0.7319   0.7570   0.7978   0.9993
     1.0709   1.1290   1.3511   1.5096   1.6868   1.7948   1.8544   1.9903
     2.1139   2.1396   2.4187   2.5096   2.5152   2.6205   2.6578   2.7503
     2.8226   2.8515   2.8741   2.9356   2.9437   2.9921   3.0637   3.0686
     3.1578   3.2276   3.2714   3.4120   3.4978   4.6379   4.8563   4.9826
     5.1012   5.1016   5.1323   6.0046   6.2493   6.6486   7.5642   7.8965

[...]

          k =-0.0941-0.0531 0.0000 ( 15478 PWs)   bands (ev):

[...]

     the Fermi energy is     1.7276 ev

!    total energy              =   -2331.69893888 Ry
     Harris-Foulkes estimate   =   -2331.69894266 Ry
     estimated scf accuracy    <       0.00000066 Ry

     The total energy is the sum of the following terms:

     one-electron contribution =  -19686.49848155 Ry
     hartree contribution      =    9855.02961593 Ry
     xc contribution           =    -491.08466718 Ry
     ewald contribution        =    7990.96517999 Ry
     electric field correction =       0.00000000 Ry
     smearing contrib. (-TS)   =      -0.11058607 Ry

     convergence has been achieved in  25 iterations

 BEEF-vdW xc energy contributions
           1 :   -433.936528410769
           2 :    400.336087497914
           3 :   -341.538217927295
           4 :    270.900103898640
           5 :   -201.865686306939
           6 :    143.915601340840
           7 :   -100.836717161380
           8 :    71.4537235236824
[...]
00030 suncat0282 pw.x -in pw.inp   Done                     12/19/2018 07:15:46
00031 suncat0282 pw.x -in pw.inp   Done                     12/19/2018 07:15:46

[...]

     Found symmetry operation: I + ( -0.5000  0.0000  0.0000)
     This is a supercell, fractional translations are disabled

[...]

   This run was terminated on:   8: 6: 1  19Dec2018

[...]

     Program PWSCF v.5.1rc2 (svn rev. 11289) starts on 19Dec2018 at  8: 6: 7

[...]

     Program PWSCF v.5.1rc2 (svn rev. 11289) starts on 19Dec2018 at  8:38:44

     Current dimensions of program PWSCF are:
     Max number of different atomic species (ntypx) = 10
     Max number of k-points (npk) =  40000
     Max angular momentum in pseudopotentials (lmaxx) =  3
     Presently stress not available with electric field

     IMPORTANT: XC functional enforced from input :
     Exchange-correlation      = BEEF-VDW ( 1  4 27 13 2)
     Any further DFT definition will be discarded
     Please, verify this is what you really want

     Subspace diagonalization in iterative solution of the eigenvalue problem:
     a serial algorithm will be used

     bravais-lattice index     =            0
     lattice parameter (alat)  =       1.8897  a.u.
     unit-cell volume          =    4116.6822 (a.u.)^3
     number of atoms/cell      =           12
     number of atomic types    =            2
     number of electrons       =       180.00
     number of Kohn-Sham states=          120
     kinetic-energy cutoff     =      36.7493  Ry
     charge density cutoff     =     367.4932  Ry
     convergence threshold     =      1.0E-06
     mixing beta               =       0.1000
     number of iterations used =           10  plain     mixing
     Exchange-correlation      = BEEF-VDW ( 1  4 27 13 2)
     nstep                     =           50

     celldm(1)=   1.889726  celldm(2)=   0.000000  celldm(3)=   0.000000
     celldm(4)=   0.000000  celldm(5)=   0.000000  celldm(6)=   0.000000

     crystal axes: (cart. coord. in units of alat)
               a(1) = (   5.312033   0.000000   0.000000 )
               a(2) = (  -2.656017   4.709130   0.000000 )
               a(3) = (   0.000000   0.000000  24.386491 )

     reciprocal axes: (cart. coord. in units 2 pi/alat)
               b(1) = (  0.188252  0.106177  0.000000 )
               b(2) = (  0.000000  0.212353  0.000000 )
               b(3) = (  0.000000  0.000000  0.041006 )

     PseudoPot. # 1 for Cr read from file:
     /afs/slac.stanford.edu/u/if/mamunm/psp/gbrv1.5pbe/Cr.UPF
     MD5 check sum: 0d52af634a40206e4dee301ad30da4bf
     Pseudo is Ultrasoft + core correction, Zval = 14.0
     Generated by new atomic code, or converted to UPF format
     Using radial grid of  857 points,  6 beta functions with:
                l(1) =   0
                l(2) =   0
                l(3) =   1
                l(4) =   1
                l(5) =   2
                l(6) =   2
     Q(r) pseudized with  8 coefficients,  rinner =    0.950   0.950   0.950
                                                       0.950   0.950

     PseudoPot. # 2 for Pt read from file:
     /afs/slac.stanford.edu/u/if/mamunm/psp/gbrv1.5pbe/Pt.UPF
     MD5 check sum: f09d6de1a584b5a045c4fc126da2d0c4
     Pseudo is Ultrasoft + core correction, Zval = 16.0
     Generated by new atomic code, or converted to UPF format
     Using radial grid of  985 points,  6 beta functions with:
                l(1) =   0
                l(2) =   0
                l(3) =   1
                l(4) =   1
                l(5) =   2
                l(6) =   2
     Q(r) pseudized with  8 coefficients,  rinner =    1.300   1.300   1.300
                                                       1.300   1.300

     vdW kernel table read from file vdW_kernel_table
     MD5 check sum: 095c7af220d748ca6e76c0b4c6cfb241

     atomic species   valence    mass     pseudopotential
        Cr1           14.00    51.99610     Cr( 1.00)
        Pt1           16.00   195.08400     Pt( 1.00)

     No symmetry found

   Cartesian axes

     site n.     atom                  positions (alat units)
         1           Cr1 tau(   1) = (   0.0000000   0.0000000  10.0000000  )
         2           Cr1 tau(   2) = (   2.6560167   0.0000000  10.0000000  )
         3           Pt1 tau(   3) = (   1.3280083   2.3545648  10.0000000  )
         4           Pt1 tau(   4) = (  -1.3280083   2.3545648  10.0000000  )
         5           Cr1 tau(   5) = (   2.6560167   1.4980315  12.1932455  )
         6           Cr1 tau(   6) = (   0.0000000   1.4980315  12.1932455  )
         7           Pt1 tau(   7) = (  -1.3280083   3.8525963  12.1932455  )
         8           Pt1 tau(   8) = (   1.3280083   3.8525963  12.1932455  )
         9           Cr1 tau(   9) = (  -0.0000008   3.0132692  14.2626629  )
        10           Cr1 tau(  10) = (   2.6560176   3.0133070  14.2626032  )
        11           Pt1 tau(  11) = (   3.9842974   0.7973783  14.3603595  )
        12           Pt1 tau(  12) = (   1.3277350   0.7973794  14.3603591  )

     number of k points=    20  Fermi-Dirac smearing, width (Ry)=  0.0110
                       cart. coord. in units 2pi/alat
        k(    1) = (   0.0000000   0.0000000   0.0000000), wk =   0.0555556
        k(    2) = (   0.0000000   0.0353922   0.0000000), wk =   0.1111111
        k(    3) = (   0.0000000   0.0707845   0.0000000), wk =   0.1111111
        k(    4) = (   0.0000000  -0.1061767   0.0000000), wk =   0.0555556
        k(    5) = (   0.0313753   0.0176961   0.0000000), wk =   0.1111111
        k(    6) = (   0.0313753   0.0530884   0.0000000), wk =   0.1111111
        k(    7) = (   0.0313753   0.0884806   0.0000000), wk =   0.1111111
        k(    8) = (   0.0313753  -0.0884806   0.0000000), wk =   0.1111111
        k(    9) = (   0.0313753  -0.0530884   0.0000000), wk =   0.1111111
        k(   10) = (   0.0313753  -0.0176961   0.0000000), wk =   0.1111111
        k(   11) = (   0.0627506   0.0353922   0.0000000), wk =   0.1111111
        k(   12) = (   0.0627506   0.0707845   0.0000000), wk =   0.1111111
        k(   13) = (   0.0627506   0.1061767   0.0000000), wk =   0.1111111
        k(   14) = (   0.0627506  -0.0707845   0.0000000), wk =   0.1111111
        k(   15) = (   0.0627506  -0.0353922   0.0000000), wk =   0.1111111
        k(   16) = (   0.0627506   0.0000000   0.0000000), wk =   0.1111111
        k(   17) = (  -0.0941259  -0.0530884   0.0000000), wk =   0.0555556
        k(   18) = (  -0.0941259  -0.0176961   0.0000000), wk =   0.1111111
        k(   19) = (  -0.0941259   0.0176961   0.0000000), wk =   0.1111111
        k(   20) = (  -0.0941259  -0.1592651   0.0000000), wk =   0.0555556

     Largest allocated arrays     est. size (Mb)     dimensions
     Largest temporary arrays     est. size (Mb)     dimensions

     Check: negative/imaginary core charge=   -0.000002    0.000000

     Initial potential from superposition of free atoms
     Check: negative starting charge=   -1.106820

     starting charge  170.99984, renormalised to  180.00000

[...]

     *
     * You are using vdW-DF for exchange-correlation in this calculation.
     * Please cite the following three references that made this development
     * possible:
     *
     *   M. Dion, H. Rydberg, E. Schroder, D. C. Langreth, and
     *   B. I. Lundqvist, Phys. Rev. Lett. 92, 246401 (2004).
     *
     *   T. Thonhauser, V. R. Cooper, S. Li, A. Puzder, P. Hyldgaard, and
     *   D. C. Langreth, Phys. Rev. B 76, 125112 (2007).
     *
     *   G. Roman-Perez and J. M. Soler, Phys. Rev. Lett. 103, 096102 (2009).
     *
     *
     * If you are using vdW-DF2, please also cite:
     *
     *   K. Lee, E. D. Murray, L. Kong, B. I. Lundqvist, and
     *   D. C. Langreth, Phys. Rev. B 82, 081101(R) (2010).
     *
     *
     * If you are calculating the stress with vdW-DF, please also cite:
     *
     *   R. Sabatini, E. Kucukbenli, B. Kolb, T. Thonhauser, and
     *   S. de Gironcoli, J. Phys.: Condens. Matter 24, 424209 (2012).
     *

     Carrying out vdW-DF run using the following parameters:

     Nqs =      20    Nr_points =    1024   r_max =   100.000
     q_mesh =
               0.00001000     0.04494208     0.09755937     0.15916263
               0.23128650     0.31572767     0.41458969     0.53033537
               0.66584808     0.82450364     1.01025438     1.22772762
               1.48234092     1.78043706     2.12944203     2.53805004
               3.01644009     3.57652955     4.23227104     5.00000000

     Gradients computed in reciprocal space

[...]

     Starting wfc are  132 randomized atomic wfcs

     Self-consistent Calculation

[...]

     total energy              =   -2331.71725740 Ry
     Harris-Foulkes estimate   =   -2331.71725815 Ry
     estimated scf accuracy    <       0.00000258 Ry

     iteration # 25     ecut=    36.75 Ry     beta=0.10
     Davidson diagonalization with overlap
     ethr =  6.78E-10,  avg # of iterations =  1.1

[...]

     negative rho (up, down):  1.054E+00 0.000E+00

     Adding external electric field

     Computed dipole along edir(3) :
        Dipole               -0.0022 Ry au,         -0.0055 Debye
        Dipole field         -0.0000 Ry au

        Potential amp.        0.0006 Ry
        Total length         44.9317 bohr

     End of self-consistent calculation

[...]

          k = 0.0628 0.0000 0.0000 ( 15462 PWs)   bands (ev):

[...]

          k =-0.0941-0.1593 0.0000 ( 15478 PWs)   bands (ev):

   -70.3820 -70.3819 -70.2117 -70.2116 -70.1896 -70.1894 -52.0193 -52.0193
   -51.9725 -51.9725 -51.9203 -51.9203 -51.4472 -51.4464 -51.4275 -51.4274
   -51.3632 -51.3632 -51.3540 -51.3540 -51.2793 -51.2792 -51.2010 -51.2010
   -41.7405 -41.7403 -41.7098 -41.7098 -41.6761 -41.6760 -41.5950 -41.5949
   -41.5693 -41.5690 -41.5106 -41.5104 -41.4366 -41.4364 -41.4045 -41.4044
   -41.3816 -41.3813  -5.0839  -5.0836  -3.8982  -3.8979  -3.5222  -3.5219
    -3.5052  -3.5052  -3.1311  -3.1308  -3.0179  -3.0177  -2.7833  -2.7827
    -2.4797  -2.4790  -2.1511  -2.1502  -2.0071  -2.0069  -1.8093  -1.8091
    -1.6720  -1.6715  -1.6510  -1.6487  -1.4660  -1.4647  -1.3689  -1.3687
    -1.0221  -1.0218  -0.7105  -0.7101   0.2608   0.2609   0.6426   0.6427
     0.7019   0.7021   0.8184   0.8184   1.2058   1.2060   1.4370   1.4372
     1.6821   1.6821   1.7484   1.7486   1.7997   1.8001   1.8468   1.8469
     2.0341   2.0342   2.3428   2.3428   2.4629   2.4630   2.8007   2.8008
     2.9759   2.9760   3.8595   3.8598   4.5400   4.5402   5.2018   5.2020
     6.1211   6.1215   7.0802   7.0803   7.6871   7.6871   8.2407   8.2407

     the Fermi energy is     1.7133 ev

!    total energy              =   -2331.71725412 Ry
     Harris-Foulkes estimate   =   -2331.71725754 Ry
     estimated scf accuracy    <       0.00000096 Ry

     The total energy is the sum of the following terms:

     one-electron contribution =  -19887.08431106 Ry
     hartree contribution      =    9955.07286446 Ry
     xc contribution           =    -491.22310543 Ry
     ewald contribution        =    8091.62474943 Ry
     electric field correction =       0.00000001 Ry
     smearing contrib. (-TS)   =      -0.10745153 Ry

     convergence has been achieved in  25 iterations

 BEEF-vdW xc energy contributions
           1 :   -434.081364494670
           2 :    400.539915608538
           3 :   -341.810951114434
           4 :    271.188500774235
           5 :   -202.085031183830
           6 :    144.005350631213
           7 :   -100.799443893577
           8 :    71.3517570858394
           9 :   -51.8148780846826
          10 :    38.0427510131753
          11 :   -27.1830658086441
          12 :    18.0582085691932
          13 :   -10.6435775186403
          14 :    5.26019817043459
          15 :   -2.02068619592933
          16 :   0.708008282693129
          17 :  -0.937997031364603
          18 :    2.31949947581785
          19 :   -4.44959760036107
          20 :    6.79764184843123
          21 :   -8.67482604218111
          22 :    9.41726164588408
          23 :   -8.71634104863585
          24 :    6.86163977442760
          25 :   -4.68499299129928
          26 :    3.17938535204718
          27 :   -2.99401323796661
          28 :    4.09818005211503
          29 :   -5.81447530909838
          30 :    7.20048879364572
          31 :   -37.5520991591429
          32 :   -27.5621506575533

     Forces acting on atoms (Ry/au):

     negative rho (up, down):  1.054E+00 0.000E+00
     atom    1 type  1   force =    -0.00000003    0.02036774    0.02109515
     atom    2 type  1   force =     0.00000003    0.02035782    0.02107488
     atom    3 type  2   force =    -0.00000317   -0.03981961   -0.00908210
     atom    4 type  2   force =     0.00000325   -0.03981962   -0.00908206
     atom    5 type  1   force =    -0.00000001    0.00618644   -0.01078428
     atom    6 type  1   force =    -0.00000004    0.00619911   -0.01080600
     atom    7 type  2   force =     0.00000950    0.01270577   -0.00271064
     atom    8 type  2   force =    -0.00000943    0.01270569   -0.00271066
     atom    9 type  1   force =    -0.00000012   -0.00013490    0.00038098
     atom   10 type  1   force =    -0.00000005   -0.00019686    0.00040650
     atom   11 type  2   force =    -0.00028821    0.00072421    0.00110908
     atom   12 type  2   force =     0.00028828    0.00072420    0.00110915

     Total force =     0.075538     Total SCF correction =     0.003499

     entering subroutine stress ...

     negative rho (up, down):  1.054E+00 0.000E+00
          total   stress  (Ry/bohr**3)                   (kbar)     P=  -15.00
  -0.00007357  -0.00000000  -0.00000000        -10.82     -0.00     -0.00
  -0.00000000  -0.00019897   0.00004031         -0.00    -29.27      5.93
  -0.00000000   0.00004031  -0.00003338         -0.00      5.93     -4.91

 !ASE

     Writing output data file calc.save

     General routines

     Parallel routines

   This run was terminated on:   8:55:43  19Dec2018

   JOB DONE.
Job  /afs/slac/g/suncat/bin/suncat-tsmpirun -x LD_LIBRARY_PATH -wdir /scratch/qe529755_r5zaT pw.x -in pw.inp

TID   HOST_NAME   COMMAND_LINE            STATUS            TERMINATION_TIME
00000 suncat0105 pw.x -in pw.inp   Done                     12/19/2018 08:55:43
00001 suncat0105 pw.x -in pw.inp   Done                     12/19/2018 08:55:43
00002 suncat0105 pw.x -in pw.inp   Done                     12/19/2018 08:55:43
00003 suncat0105 pw.x -in pw.inp   Done                     12/19/2018 08:55:43
00004 suncat0105 pw.x -in pw.inp   Done                     12/19/2018 08:55:43
00005 suncat0105 pw.x -in pw.inp   Done                     12/19/2018 08:55:43
00006 suncat0105 pw.x -in pw.inp   Done                     12/19/2018 08:55:43
00007 suncat0105 pw.x -in pw.inp   Done                     12/19/2018 08:55:43
00008 suncat0100 pw.x -in pw.inp   Done                     12/19/2018 08:55:43
00009 suncat0100 pw.x -in pw.inp   Done                     12/19/2018 08:55:43
00010 suncat0100 pw.x -in pw.inp   Done                     12/19/2018 08:55:43
00011 suncat0100 pw.x -in pw.inp   Done                     12/19/2018 08:55:43
00012 suncat0100 pw.x -in pw.inp   Done                     12/19/2018 08:55:43
00013 suncat0100 pw.x -in pw.inp   Done                     12/19/2018 08:55:43
00014 suncat0100 pw.x -in pw.inp   Done                     12/19/2018 08:55:43
00015 suncat0100 pw.x -in pw.inp   Done                     12/19/2018 08:55:43
00016 suncat0283 pw.x -in pw.inp   Done                     12/19/2018 08:55:43
00017 suncat0283 pw.x -in pw.inp   Done                     12/19/2018 08:55:43
00018 suncat0283 pw.x -in pw.inp   Done                     12/19/2018 08:55:43
00019 suncat0283 pw.x -in pw.inp   Done                     12/19/2018 08:55:43
00020 suncat0283 pw.x -in pw.inp   Done                     12/19/2018 08:55:43
00021 suncat0283 pw.x -in pw.inp   Done                     12/19/2018 08:55:43
00022 suncat0283 pw.x -in pw.inp   Done                     12/19/2018 08:55:43
00023 suncat0283 pw.x -in pw.inp   Done                     12/19/2018 08:55:43
00024 suncat0282 pw.x -in pw.inp   Done                     12/19/2018 08:55:43
00025 suncat0282 pw.x -in pw.inp   Done                     12/19/2018 08:55:43
00026 suncat0282 pw.x -in pw.inp   Done                     12/19/2018 08:55:43
00027 suncat0282 pw.x -in pw.inp   Done                     12/19/2018 08:55:43
00028 suncat0282 pw.x -in pw.inp   Done                     12/19/2018 08:55:43
00029 suncat0282 pw.x -in pw.inp   Done                     12/19/2018 08:55:43
00030 suncat0282 pw.x -in pw.inp   Done                     12/19/2018 08:55:43
00031 suncat0282 pw.x -in pw.inp   Done                     12/19/2018 08:55:43