     Program PWSCF v.5.1rc2 (svn rev. 11289) starts on 24Dec2018 at 22:26: 8

     Current dimensions of program PWSCF are:
     Max number of different atomic species (ntypx) = 10
     Max number of k-points (npk) =  40000
     Max angular momentum in pseudopotentials (lmaxx) =  3
     Presently stress not available with electric field

     IMPORTANT: XC functional enforced from input :
     Exchange-correlation      = BEEF-VDW ( 1  4 27 13 2)
     Any further DFT definition will be discarded
     Please, verify this is what you really want

     Subspace diagonalization in iterative solution of the eigenvalue problem:
     a serial algorithm will be used

     Found symmetry operation: I + ( -0.5000  0.5000  0.0000)
     This is a supercell, fractional translations are disabled

     bravais-lattice index     =            0
     lattice parameter (alat)  =       1.8897  a.u.
     unit-cell volume          =    4982.2884 (a.u.)^3
     number of atoms/cell      =           12
     number of atomic types    =            2
     number of electrons       =       174.00
     number of Kohn-Sham states=          117
     kinetic-energy cutoff     =      36.7493  Ry
     charge density cutoff     =     367.4932  Ry
     convergence threshold     =      1.0E-06
     mixing beta               =       0.1000
     number of iterations used =           10  plain     mixing
     Exchange-correlation      = BEEF-VDW ( 1  4 27 13 2)
     nstep                     =           50

     celldm(1)=   1.889726  celldm(2)=   0.000000  celldm(3)=   0.000000
     celldm(4)=   0.000000  celldm(5)=   0.000000  celldm(6)=   0.000000

     crystal axes: (cart. coord. in units of alat)
               a(1) = (   5.642626   0.000000   0.000000 )
               a(2) = (   1.890024   5.316676   0.000000 )
               a(3) = (   0.000000   0.000000  24.609955 )

     reciprocal axes: (cart. coord. in units 2 pi/alat)
               b(1) = (  0.177222 -0.063001  0.000000 )
               b(2) = (  0.000000  0.188087  0.000000 )
               b(3) = (  0.000000  0.000000  0.040634 )

     PseudoPot. # 1 for In read from file:
     /afs/slac.stanford.edu/u/if/mamunm/psp/gbrv1.5pbe/In.UPF
     MD5 check sum: 90777abd96fbb83f2e67db2a40c566b9
     Pseudo is Ultrasoft + core correction, Zval = 13.0
     Generated by new atomic code, or converted to UPF format
     Using radial grid of  889 points,  6 beta functions with:
                l(1) =   0
                l(2) =   0
                l(3) =   1
                l(4) =   1
                l(5) =   2
                l(6) =   2
     Q(r) pseudized with  6 coefficients,  rinner =    1.400   1.400   1.400
                                                       1.400   1.400

     PseudoPot. # 2 for Os read from file:
     /afs/slac.stanford.edu/u/if/mamunm/psp/gbrv1.5pbe/Os.UPF
     MD5 check sum: a3fb40a04f0c37c25c34bbc47164c9a8
     Pseudo is Ultrasoft + core correction, Zval = 16.0
     Generated by new atomic code, or converted to UPF format
     Using radial grid of  983 points,  8 beta functions with:
                l(1) =   0
                l(2) =   0
                l(3) =   1
                l(4) =   1
                l(5) =   2
                l(6) =   2
                l(7) =   3
                l(8) =   3
     Q(r) pseudized with  8 coefficients,  rinner =    1.150   1.150   1.150
                                                       1.150   1.150   1.150
                                                       1.150

     vdW kernel table read from file vdW_kernel_table
     MD5 check sum: 095c7af220d748ca6e76c0b4c6cfb241

     atomic species   valence    mass     pseudopotential
        In1           13.00   114.81800     In( 1.00)
        Os1           16.00   190.23000     Os( 1.00)

     No symmetry found

   Cartesian axes

     site n.     atom                  positions (alat units)
         1           In1 tau(   1) = (   0.0000000   0.0000000  10.0000000  )
         2           In1 tau(   2) = (   3.7663250   2.6583378  10.0000000  )
         3           Os1 tau(   3) = (   2.8213131   0.0000000  10.0000000  )
         4           Os1 tau(   4) = (   0.9450119   2.6583378  10.0000000  )
         5           In1 tau(   5) = (   5.6426262   3.9826639  12.3049773  )
         6           In1 tau(   6) = (   1.8763012   1.3243261  12.3049773  )
         7           Os1 tau(   7) = (   2.8213131   3.9826639  12.3049773  )
         8           Os1 tau(   8) = (   4.6976143   1.3243261  12.3049773  )
         9           In1 tau(   9) = (   3.7526023   2.6486521  14.6099547  )
        10           In1 tau(  10) = (   7.5189274   5.3069899  14.6099547  )
        11           Os1 tau(  11) = (   6.5739154   2.6486521  14.6099547  )
        12           Os1 tau(  12) = (   4.6976143   5.3069899  14.6099547  )

     number of k points=    20  Fermi-Dirac smearing, width (Ry)=  0.0110
                       cart. coord. in units 2pi/alat
        k(    1) = (   0.0000000   0.0000000   0.0000000), wk =   0.0555556
        k(    2) = (   0.0000000   0.0313479   0.0000000), wk =   0.1111111
        k(    3) = (   0.0000000   0.0626958   0.0000000), wk =   0.1111111
        k(    4) = (   0.0000000  -0.0940437   0.0000000), wk =   0.0555556
        k(    5) = (   0.0295371  -0.0105001   0.0000000), wk =   0.1111111
        k(    6) = (   0.0295371   0.0208478   0.0000000), wk =   0.1111111
        k(    7) = (   0.0295371   0.0521957   0.0000000), wk =   0.1111111
        k(    8) = (   0.0295371  -0.1045439   0.0000000), wk =   0.1111111
        k(    9) = (   0.0295371  -0.0731959   0.0000000), wk =   0.1111111
        k(   10) = (   0.0295371  -0.0418480   0.0000000), wk =   0.1111111
        k(   11) = (   0.0590741  -0.0210003   0.0000000), wk =   0.1111111
        k(   12) = (   0.0590741   0.0103477   0.0000000), wk =   0.1111111
        k(   13) = (   0.0590741   0.0416956   0.0000000), wk =   0.1111111
        k(   14) = (   0.0590741  -0.1150440   0.0000000), wk =   0.1111111
        k(   15) = (   0.0590741  -0.0836961   0.0000000), wk =   0.1111111
        k(   16) = (   0.0590741  -0.0523482   0.0000000), wk =   0.1111111
        k(   17) = (  -0.0886112   0.0315004   0.0000000), wk =   0.0555556
        k(   18) = (  -0.0886112   0.0628483   0.0000000), wk =   0.1111111
        k(   19) = (  -0.0886112   0.0941962   0.0000000), wk =   0.1111111
        k(   20) = (  -0.0886112  -0.0625433   0.0000000), wk =   0.0555556

     Largest allocated arrays     est. size (Mb)     dimensions
     Largest temporary arrays     est. size (Mb)     dimensions

     Initial potential from superposition of free atoms
     Check: negative starting charge=   -0.760573

     starting charge  161.99978, renormalised to  174.00000

     negative rho (up, down):  8.169E-01 0.000E+00

     *
     * You are using vdW-DF for exchange-correlation in this calculation.
     * Please cite the following three references that made this development
     * possible:
     *
     *   M. Dion, H. Rydberg, E. Schroder, D. C. Langreth, and
     *   B. I. Lundqvist, Phys. Rev. Lett. 92, 246401 (2004).
     *
     *   T. Thonhauser, V. R. Cooper, S. Li, A. Puzder, P. Hyldgaard, and
     *   D. C. Langreth, Phys. Rev. B 76, 125112 (2007).
     *
     *   G. Roman-Perez and J. M. Soler, Phys. Rev. Lett. 103, 096102 (2009).
     *
     *
     * If you are using vdW-DF2, please also cite:
     *
     *   K. Lee, E. D. Murray, L. Kong, B. I. Lundqvist, and
     *   D. C. Langreth, Phys. Rev. B 82, 081101(R) (2010).
     *
     *
     * If you are calculating the stress with vdW-DF, please also cite:
     *
     *   R. Sabatini, E. Kucukbenli, B. Kolb, T. Thonhauser, and
     *   S. de Gironcoli, J. Phys.: Condens. Matter 24, 424209 (2012).
     *

     Carrying out vdW-DF run using the following parameters:

     Nqs =      20    Nr_points =    1024   r_max =   100.000
     q_mesh =
               0.00001000     0.04494208     0.09755937     0.15916263
               0.23128650     0.31572767     0.41458969     0.53033537
               0.66584808     0.82450364     1.01025438     1.22772762
               1.48234092     1.78043706     2.12944203     2.53805004
               3.01644009     3.57652955     4.23227104     5.00000000

     Gradients computed in reciprocal space

     Adding external electric field

     Computed dipole along edir(3) :
        Dipole                0.0000 Ry au,          0.0000 Debye
        Dipole field          0.0000 Ry au

        Potential amp.       -0.0000 Ry
        Total length         45.3434 bohr

     Starting wfc are  132 randomized atomic wfcs

     Self-consistent Calculation

     iteration #  1     ecut=    36.75 Ry     beta=0.10
     Davidson diagonalization with overlap
     ethr =  1.00E-02,  avg # of iterations =  7.7

[...]

     total energy              =   -2008.32770676 Ry
     Harris-Foulkes estimate   =   -2011.25057649 Ry
     estimated scf accuracy    <      17.66592151 Ry

[...]

     iteration # 12     ecut=    36.75 Ry     beta=0.10
     Davidson diagonalization with overlap
     c_bands:  1 eigenvalues not converged
     c_bands:  1 eigenvalues not converged
     ethr =  1.15E-06,  avg # of iterations =  7.3

[...]

     End of self-consistent calculation

          k = 0.0000 0.0000 0.0000 ( 18767 PWs)   bands (ev):

   -84.2019 -84.1996 -84.0958 -84.0957 -84.0936 -84.0935 -43.5789 -43.5739
   -43.5491 -43.5454 -43.5430 -43.4949 -43.4945 -43.4667 -43.4189 -43.4183
   -43.3985 -43.3934 -43.3914 -43.3887 -43.3865 -43.3854 -43.3825 -43.3770
   -13.0609 -13.0473 -12.9882 -12.9842 -12.9798 -12.9135 -12.8845 -12.8694
   -12.8558 -12.8522 -12.8259 -12.8181 -12.8094 -12.8090 -12.7861 -12.7786
   -12.7474 -12.7415 -12.7327 -12.6950 -12.6780 -12.6747 -12.6741 -12.6582
   -12.6578 -12.6508 -12.5094 -12.5044 -12.4961 -12.4467  -8.1088  -6.1555
    -4.4071  -4.2693  -3.7953  -3.6490  -1.9406  -1.9076  -1.6583  -1.1456
    -1.0849  -1.0241  -0.9614  -0.6894  -0.6798  -0.0964  -0.0283  -0.0168
     0.0332   0.3836   0.4486   0.6838   0.7377   0.8670   0.9377   0.9786
     0.9835   1.0147   1.0733   1.1426   1.2779   1.3318   1.3895   1.4348
     1.5175   1.6002   1.6102   2.0380   2.1667   2.8926   3.0328   3.8883
     4.2698   4.3679   4.4245   4.8621   5.0841   5.3786   5.4583   5.5551
     5.6193   6.0174   6.1827   6.2515   6.6692   7.0447   7.3464   7.5949
     7.6621   7.8794   8.5133   8.6164   9.2918

[...]

          k =-0.0886 0.0315 0.0000 ( 18752 PWs)   bands (ev):

[...]

     the Fermi energy is     1.4712 ev

!    total energy              =   -2006.75325078 Ry
     Harris-Foulkes estimate   =   -2006.75324596 Ry
     estimated scf accuracy    <       0.00000060 Ry

     The total energy is the sum of the following terms:

     one-electron contribution =  -15002.90352812 Ry
     hartree contribution      =    7535.17414586 Ry
     xc contribution           =    -467.58201772 Ry
     ewald contribution        =    5928.63650246 Ry
     electric field correction =       0.00000003 Ry
     smearing contrib. (-TS)   =      -0.07835328 Ry

     convergence has been achieved in  19 iterations

 BEEF-vdW xc energy contributions
[...]
     Pseudo is Ultrasoft + core correction, Zval = 13.0
     Generated by new atomic code, or converted to UPF format
     Using radial grid of  889 points,  6 beta functions with:
                l(1) =   0
                l(2) =   0
                l(3) =   1
                l(4) =   1
                l(5) =   2
                l(6) =   2
     Q(r) pseudized with  6 coefficients,  rinner =    1.400   1.400   1.400
                                                       1.400   1.400

     PseudoPot. # 2 for Os read from file:
     /afs/slac.stanford.edu/u/if/mamunm/psp/gbrv1.5pbe/Os.UPF
     MD5 check sum: a3fb40a04f0c37c25c34bbc47164c9a8
     Pseudo is Ultrasoft + core correction, Zval = 16.0
     Generated by new atomic code, or converted to UPF format
     Using radial grid of  983 points,  8 beta functions with:
                l(1) =   0
                l(2) =   0
                l(3) =   1
                l(4) =   1
                l(5) =   2
                l(6) =   2
                l(7) =   3
                l(8) =   3
     Q(r) pseudized with  8 coefficients,  rinner =    1.150   1.150   1.150
                                                       1.150   1.150   1.150
                                                       1.150

     vdW kernel table read from file vdW_kernel_table
     MD5 check sum: 095c7af220d748ca6e76c0b4c6cfb241

     atomic species   valence    mass     pseudopotential
        In1           13.00   114.81800     In( 1.00)
        Os1           16.00   190.23000     Os( 1.00)

     No symmetry found

   Cartesian axes

     site n.     atom                  positions (alat units)
         1           In1 tau(   1) = (   0.0000000   0.0000000  10.0000000  )
         2           In1 tau(   2) = (   3.7663250   2.6583378  10.0000000  )
         3           Os1 tau(   3) = (   2.8213131   0.0000000  10.0000000  )
         4           Os1 tau(   4) = (   0.9450119   2.6583378  10.0000000  )
         5           In1 tau(   5) = (   5.6426262   3.9826639  12.3049773  )
         6           In1 tau(   6) = (   1.8763012   1.3243261  12.3049773  )
         7           Os1 tau(   7) = (   2.8213131   3.9826639  12.3049773  )
         8           Os1 tau(   8) = (   4.6976143   1.3243261  12.3049773  )
         9           In1 tau(   9) = (   3.7526014   2.6486481  14.8326266  )
        10           In1 tau(  10) = (   7.5189323   5.3069945  14.8326314  )
        11           Os1 tau(  11) = (   6.5732203   2.6481644  14.4532112  )
        12           Os1 tau(  12) = (   4.6969159   5.3064965  14.4532464  )

     number of k points=    20  Fermi-Dirac smearing, width (Ry)=  0.0110
                       cart. coord. in units 2pi/alat
        k(    1) = (   0.0000000   0.0000000   0.0000000), wk =   0.0555556
        k(    2) = (   0.0000000   0.0313479   0.0000000), wk =   0.1111111
        k(    3) = (   0.0000000   0.0626958   0.0000000), wk =   0.1111111
        k(    4) = (   0.0000000  -0.0940437   0.0000000), wk =   0.0555556
        k(    5) = (   0.0295371  -0.0105001   0.0000000), wk =   0.1111111
        k(    6) = (   0.0295371   0.0208478   0.0000000), wk =   0.1111111
        k(    7) = (   0.0295371   0.0521957   0.0000000), wk =   0.1111111
        k(    8) = (   0.0295371  -0.1045439   0.0000000), wk =   0.1111111
        k(    9) = (   0.0295371  -0.0731959   0.0000000), wk =   0.1111111
        k(   10) = (   0.0295371  -0.0418480   0.0000000), wk =   0.1111111
        k(   11) = (   0.0590741  -0.0210003   0.0000000), wk =   0.1111111
        k(   12) = (   0.0590741   0.0103477   0.0000000), wk =   0.1111111
        k(   13) = (   0.0590741   0.0416956   0.0000000), wk =   0.1111111
        k(   14) = (   0.0590741  -0.1150440   0.0000000), wk =   0.1111111
        k(   15) = (   0.0590741  -0.0836961   0.0000000), wk =   0.1111111
        k(   16) = (   0.0590741  -0.0523482   0.0000000), wk =   0.1111111
        k(   17) = (  -0.0886112   0.0315004   0.0000000), wk =   0.0555556
        k(   18) = (  -0.0886112   0.0628483   0.0000000), wk =   0.1111111
        k(   19) = (  -0.0886112   0.0941962   0.0000000), wk =   0.1111111
        k(   20) = (  -0.0886112  -0.0625433   0.0000000), wk =   0.0555556

     Largest allocated arrays     est. size (Mb)     dimensions
     Largest temporary arrays     est. size (Mb)     dimensions

     Initial potential from superposition of free atoms
     Check: negative starting charge=   -0.759089

     starting charge  161.99978, renormalised to  174.00000

[...]

     *
     * You are using vdW-DF for exchange-correlation in this calculation.
     * Please cite the following three references that made this development
     * possible:
     *
     *   M. Dion, H. Rydberg, E. Schroder, D. C. Langreth, and
     *   B. I. Lundqvist, Phys. Rev. Lett. 92, 246401 (2004).
     *
     *   T. Thonhauser, V. R. Cooper, S. Li, A. Puzder, P. Hyldgaard, and
     *   D. C. Langreth, Phys. Rev. B 76, 125112 (2007).
     *
     *   G. Roman-Perez and J. M. Soler, Phys. Rev. Lett. 103, 096102 (2009).
     *
     *
     * If you are using vdW-DF2, please also cite:
     *
     *   K. Lee, E. D. Murray, L. Kong, B. I. Lundqvist, and
     *   D. C. Langreth, Phys. Rev. B 82, 081101(R) (2010).
     *
     *
     * If you are calculating the stress with vdW-DF, please also cite:
     *
     *   R. Sabatini, E. Kucukbenli, B. Kolb, T. Thonhauser, and
     *   S. de Gironcoli, J. Phys.: Condens. Matter 24, 424209 (2012).
     *

     Carrying out vdW-DF run using the following parameters:

     Nqs =      20    Nr_points =    1024   r_max =   100.000
     q_mesh =
               0.00001000     0.04494208     0.09755937     0.15916263
               0.23128650     0.31572767     0.41458969     0.53033537
               0.66584808     0.82450364     1.01025438     1.22772762
               1.48234092     1.78043706     2.12944203     2.53805004
               3.01644009     3.57652955     4.23227104     5.00000000

     Gradients computed in reciprocal space

[...]

     Starting wfc are  132 randomized atomic wfcs

     Self-consistent Calculation

[...]

     total energy              =   -2006.78470668 Ry
     Harris-Foulkes estimate   =   -2006.78470602 Ry
     estimated scf accuracy    <       0.00000128 Ry

     iteration # 20     ecut=    36.75 Ry     beta=0.10
     Davidson diagonalization with overlap
     ethr =  7.36E-10,  avg # of iterations =  2.0

[...]

     negative rho (up, down):  7.112E-01 0.000E+00

     Adding external electric field

     Computed dipole along edir(3) :
        Dipole                0.0418 Ry au,          0.1062 Debye
        Dipole field          0.0001 Ry au

        Potential amp.       -0.0096 Ry
        Total length         45.3434 bohr

     End of self-consistent calculation

[...]

          k = 0.0591-0.0523 0.0000 ( 18730 PWs)   bands (ev):

[...]

          k =-0.0886-0.0625 0.0000 ( 18768 PWs)   bands (ev):

   -84.1732 -84.1711 -84.0823 -84.0800 -84.0383 -84.0360 -43.5589 -43.5493
   -43.5038 -43.5026 -43.4924 -43.4894 -43.4364 -43.4220 -43.4144 -43.3747
   -43.3698 -43.3656 -43.3604 -43.3599 -43.3351 -43.3311 -43.3290 -43.3246
   -12.9080 -12.9051 -12.8543 -12.8493 -12.8120 -12.8110 -12.8100 -12.7758
   -12.7565 -12.7273 -12.7263 -12.6981 -12.6901 -12.6871 -12.6723 -12.6717
   -12.6696 -12.6503 -12.6403 -12.6387 -12.6267 -12.6112 -12.6061 -12.5949
   -12.5703 -12.5496 -12.5495 -12.4786 -12.4404 -12.3771  -5.8936  -5.8201
    -4.2567  -4.1743  -4.0026  -3.9297  -3.3612  -2.4974  -2.3002  -2.2415
    -2.2008  -1.6797  -1.3710  -1.1532  -0.9420  -0.8527  -0.7578  -0.7342
    -0.4545  -0.3436  -0.0120   0.0754   0.1167   0.1594   0.3137   0.5979
     0.7934   1.0478   1.0989   1.5080   1.5194   1.5528   1.6242   1.6445
     1.7822   2.1616   2.1983   3.0760   3.1079   3.3292   3.4048   3.9290
     4.1670   4.6255   4.7028   5.9339   6.0449   6.3160   6.9248   6.9612
     7.2980   7.3282   7.4755   7.7496   7.8657   7.8739   7.8889   8.6848
     8.7035   8.7405   8.7568   8.8492   9.1901

     the Fermi energy is     1.5217 ev

!    total energy              =   -2006.78471047 Ry
     Harris-Foulkes estimate   =   -2006.78470650 Ry
     estimated scf accuracy    <       0.00000045 Ry

     The total energy is the sum of the following terms:

     one-electron contribution =  -14962.49294300 Ry
     hartree contribution      =    7515.26837464 Ry
     xc contribution           =    -467.50462814 Ry
     ewald contribution        =    5908.02520135 Ry
     electric field correction =       0.00000440 Ry
     smearing contrib. (-TS)   =      -0.08071972 Ry

     convergence has been achieved in  20 iterations

 BEEF-vdW xc energy contributions
           1 :   -409.685681698651
           2 :    377.212822241287
           3 :   -321.090541009416
           4 :    255.299047370536
           5 :   -193.711035102458
           6 :    145.589337362933
           7 :   -113.563789026476
           8 :    94.5103078783295
           9 :   -82.4728504324896
          10 :    71.9730201648643
          11 :   -60.1705539758806
          12 :    47.1661713253230
          13 :   -34.8017064631697
          14 :    24.9643306581992
          15 :   -18.4052986363097
          16 :    14.5417745197152
          17 :   -12.0663878806995
          18 :    9.79642847131186
          19 :   -7.22599945130901
          20 :    4.54919202338482
          21 :   -2.28516658179461
          22 :   0.825044343234140
          23 :  -0.184586772761577
          24 :   4.712752992054448E-002
          25 :   7.046219260189446E-003
          26 :  -0.269343511060811
          27 :   0.797609119971469
          28 :   -1.45742330521597
          29 :    2.04203633599110
          30 :   -2.38822390326493
          31 :   -37.9283870818314
          32 :   -28.2786322497089

     Forces acting on atoms (Ry/au):

     negative rho (up, down):  7.112E-01 0.000E+00
     atom    1 type  1   force =    -0.00025810   -0.00018620   -0.03869924
     atom    2 type  1   force =    -0.00026152   -0.00018108   -0.03869938
     atom    3 type  2   force =     0.00017417    0.00012230    0.04543550
     atom    4 type  2   force =     0.00016947    0.00012090    0.04542412
     atom    5 type  1   force =     0.00029471    0.00018639   -0.02959439
     atom    6 type  1   force =     0.00027386    0.00021474   -0.02959373
     atom    7 type  2   force =    -0.00007661   -0.00005373    0.02252462
     atom    8 type  2   force =    -0.00010126   -0.00007120    0.02252476
     atom    9 type  1   force =     0.00002408    0.00002140   -0.00014007
     atom   10 type  1   force =     0.00002700    0.00001521   -0.00014059
     atom   11 type  2   force =    -0.00013786   -0.00009595    0.00048697
     atom   12 type  2   force =    -0.00012795   -0.00009278    0.00047143

     Total force =     0.099451     Total SCF correction =     0.002034

     entering subroutine stress ...

     negative rho (up, down):  7.112E-01 0.000E+00
          total   stress  (Ry/bohr**3)                   (kbar)     P=  -18.77
  -0.00018353  -0.00000474  -0.00000001        -27.00     -0.70     -0.00
  -0.00000474  -0.00018016  -0.00000001         -0.70    -26.50     -0.00
  -0.00000001  -0.00000001  -0.00001920         -0.00     -0.00     -2.82

 !ASE

     Writing output data file calc.save

     General routines

     Parallel routines

   This run was terminated on:   0:17:57  25Dec2018

   JOB DONE.
Job  /afs/slac/g/suncat/bin/suncat-tsmpirun -x LD_LIBRARY_PATH -wdir /scratch/qe109023_YjM2K pw.x -in pw.inp

TID   HOST_NAME   COMMAND_LINE            STATUS            TERMINATION_TIME
00000 suncat0086 pw.x -in pw.inp   Done                     12/25/2018 00:17:57
00001 suncat0086 pw.x -in pw.inp   Done                     12/25/2018 00:17:57
00002 suncat0086 pw.x -in pw.inp   Done                     12/25/2018 00:17:57
00003 suncat0086 pw.x -in pw.inp   Done                     12/25/2018 00:17:57
00004 suncat0086 pw.x -in pw.inp   Done                     12/25/2018 00:17:57
00005 suncat0086 pw.x -in pw.inp   Done                     12/25/2018 00:17:57
00006 suncat0086 pw.x -in pw.inp   Done                     12/25/2018 00:17:57
00007 suncat0086 pw.x -in pw.inp   Done                     12/25/2018 00:17:57
00008 suncat0085 pw.x -in pw.inp   Done                     12/25/2018 00:17:57
00009 suncat0085 pw.x -in pw.inp   Done                     12/25/2018 00:17:57
00010 suncat0085 pw.x -in pw.inp   Done                     12/25/2018 00:17:57
00011 suncat0085 pw.x -in pw.inp   Done                     12/25/2018 00:17:57
00012 suncat0085 pw.x -in pw.inp   Done                     12/25/2018 00:17:57
00013 suncat0085 pw.x -in pw.inp   Done                     12/25/2018 00:17:57
00014 suncat0085 pw.x -in pw.inp   Done                     12/25/2018 00:17:57
00015 suncat0085 pw.x -in pw.inp   Done                     12/25/2018 00:17:57
00016 suncat0076 pw.x -in pw.inp   Done                     12/25/2018 00:17:57
00017 suncat0076 pw.x -in pw.inp   Done                     12/25/2018 00:17:57
00018 suncat0076 pw.x -in pw.inp   Done                     12/25/2018 00:17:57
00019 suncat0076 pw.x -in pw.inp   Done                     12/25/2018 00:17:57
00020 suncat0076 pw.x -in pw.inp   Done                     12/25/2018 00:17:57
00021 suncat0076 pw.x -in pw.inp   Done                     12/25/2018 00:17:57
00022 suncat0076 pw.x -in pw.inp   Done                     12/25/2018 00:17:57
00023 suncat0076 pw.x -in pw.inp   Done                     12/25/2018 00:17:57
00024 suncat0064 pw.x -in pw.inp   Done                     12/25/2018 00:17:57
00025 suncat0064 pw.x -in pw.inp   Done                     12/25/2018 00:17:57
00026 suncat0064 pw.x -in pw.inp   Done                     12/25/2018 00:17:57
00027 suncat0064 pw.x -in pw.inp   Done                     12/25/2018 00:17:57
00028 suncat0064 pw.x -in pw.inp   Done                     12/25/2018 00:17:57
00029 suncat0064 pw.x -in pw.inp   Done                     12/25/2018 00:17:57
00030 suncat0064 pw.x -in pw.inp   Done                     12/25/2018 00:17:57
00031 suncat0064 pw.x -in pw.inp   Done                     12/25/2018 00:17:57
00032 suncat0063 pw.x -in pw.inp   Done                     12/25/2018 00:17:57
00033 suncat0063 pw.x -in pw.inp   Done                     12/25/2018 00:17:57
00034 suncat0063 pw.x -in pw.inp   Done                     12/25/2018 00:17:57
00035 suncat0063 pw.x -in pw.inp   Done                     12/25/2018 00:17:57
00036 suncat0063 pw.x -in pw.inp   Done                     12/25/2018 00:17:57
00037 suncat0063 pw.x -in pw.inp   Done                     12/25/2018 00:17:57
00038 suncat0063 pw.x -in pw.inp   Done                     12/25/2018 00:17:57
00039 suncat0063 pw.x -in pw.inp   Done                     12/25/2018 00:17:57
00040 suncat0051 pw.x -in pw.inp   Done                     12/25/2018 00:17:57
00041 suncat0051 pw.x -in pw.inp   Done                     12/25/2018 00:17:57
00042 suncat0051 pw.x -in pw.inp   Done                     12/25/2018 00:17:57
00043 suncat0051 pw.x -in pw.inp   Done                     12/25/2018 00:17:57
00044 suncat0051 pw.x -in pw.inp   Done                     12/25/2018 00:17:57
00045 suncat0051 pw.x -in pw.inp   Done                     12/25/2018 00:17:57
00046 suncat0051 pw.x -in pw.inp   Done                     12/25/2018 00:17:57
00047 suncat0051 pw.x -in pw.inp   Done                     12/25/2018 00:17:57
00048 suncat0117 pw.x -in pw.inp   Done                     12/25/2018 00:17:57
00049 suncat0117 pw.x -in pw.inp   Done                     12/25/2018 00:17:57
00050 suncat0117 pw.x -in pw.inp   Done                     12/25/2018 00:17:57
00051 suncat0117 pw.x -in pw.inp   Done                     12/25/2018 00:17:57
00052 suncat0117 pw.x -in pw.inp   Done                     12/25/2018 00:17:57
00053 suncat0117 pw.x -in pw.inp   Done                     12/25/2018 00:17:57
00054 suncat0117 pw.x -in pw.inp   Done                     12/25/2018 00:17:57
00055 suncat0117 pw.x -in pw.inp   Done                     12/25/2018 00:17:57
00056 suncat0116 pw.x -in pw.inp   Done                     12/25/2018 00:17:57
00057 suncat0116 pw.x -in pw.inp   Done                     12/25/2018 00:17:57
00058 suncat0116 pw.x -in pw.inp   Done                     12/25/2018 00:17:57
00059 suncat0116 pw.x -in pw.inp   Done                     12/25/2018 00:17:57
00060 suncat0116 pw.x -in pw.inp   Done                     12/25/2018 00:17:57
00061 suncat0116 pw.x -in pw.inp   Done                     12/25/2018 00:17:57
00062 suncat0116 pw.x -in pw.inp   Done                     12/25/2018 00:17:57
00063 suncat0116 pw.x -in pw.inp   Done                     12/25/2018 00:17:57