     Program PWSCF v.5.1rc2 (svn rev. 11289) starts on 18Dec2018 at 23:55:45

     Current dimensions of program PWSCF are:
     Max number of different atomic species (ntypx) = 10
     Max number of k-points (npk) =  40000
     Max angular momentum in pseudopotentials (lmaxx) =  3
     Presently stress not available with electric field

     IMPORTANT: XC functional enforced from input :
     Exchange-correlation      = BEEF-VDW ( 1  4 27 13 2)
     Any further DFT definition will be discarded
     Please, verify this is what you really want

     Subspace diagonalization in iterative solution of the eigenvalue problem:
     a serial algorithm will be used

     Found symmetry operation: I + ( -0.5000  0.5000  0.0000)
     This is a supercell, fractional translations are disabled

     Generating pointlists ...
     new r_m :   0.4125 (alat units)  0.7795 (a.u.) for type    1
     new r_m :   0.4125 (alat units)  0.7795 (a.u.) for type    2

     bravais-lattice index     =            0
     lattice parameter (alat)  =       1.8897  a.u.
     unit-cell volume          =    3812.3991 (a.u.)^3
     number of atoms/cell      =           12
     number of atomic types    =            2
     number of electrons       =       228.00
     number of Kohn-Sham states=          144
     kinetic-energy cutoff     =      36.7493  Ry
     charge density cutoff     =     367.4932  Ry
     convergence threshold     =      1.0E-06
     mixing beta               =       0.1000
     number of iterations used =           10  plain     mixing
     Exchange-correlation      = BEEF-VDW ( 1  4 27 13 2)
     nstep                     =           50

     celldm(1)=   1.889726  celldm(2)=   0.000000  celldm(3)=   0.000000
     celldm(4)=   0.000000  celldm(5)=   0.000000  celldm(6)=   0.000000

     crystal axes: (cart. coord. in units of alat)
               a(1) = (   5.074275   0.000000   0.000000 )
               a(2) = (   2.142059   4.599984   0.000000 )
               a(3) = (   0.000000   0.000000  24.203126 )

     reciprocal axes: (cart. coord. in units 2 pi/alat)
               b(1) = (  0.197072 -0.091770  0.000000 )
               b(2) = (  0.000000  0.217392  0.000000 )
               b(3) = (  0.000000  0.000000  0.041317 )

     PseudoPot. # 1 for Ni read from file:
     /afs/slac.stanford.edu/u/if/mamunm/psp/gbrv1.5pbe/Ni.UPF
     MD5 check sum: 1ee80287db30b12d2bc1f57a5b5d6409
     Pseudo is Ultrasoft + core correction, Zval = 18.0
     Generated by new atomic code, or converted to UPF format
     Using radial grid of  865 points,  6 beta functions with:
                l(1) =   0
                l(2) =   0
                l(3) =   1
                l(4) =   1
                l(5) =   2
                l(6) =   2
     Q(r) pseudized with 10 coefficients,  rinner =    0.980   0.980   0.980
                                                       0.980   0.980

     PseudoPot. # 2 for Zn read from file:
     /afs/slac.stanford.edu/u/if/mamunm/psp/gbrv1.5pbe/Zn.UPF
     MD5 check sum: df62231357ef9e81f77b2b3087fa5675
     Pseudo is Ultrasoft, Zval = 20.0
     Generated by new atomic code, or converted to UPF format
     Using radial grid of  943 points,  6 beta functions with:
                l(1) =   0
                l(2) =   0
                l(3) =   1
                l(4) =   1
                l(5) =   2
                l(6) =   2
     Q(r) pseudized with  8 coefficients,  rinner =    1.100   1.100   1.100
                                                       1.100   1.100

     vdW kernel table read from file vdW_kernel_table
     MD5 check sum: 095c7af220d748ca6e76c0b4c6cfb241

     atomic species   valence    mass     pseudopotential
        Ni1           18.00    58.69340     Ni( 1.00)
        Zn1           20.00    65.38000     Zn( 1.00)

     Starting magnetic structure
     atomic species   magnetization
        Ni1          0.111
        Zn1          0.100

     No symmetry found

   Cartesian axes

     site n.     atom                  positions (alat units)
         1           Ni1 tau(   1) = (   0.0000000   0.0000000  10.0000000  )
         2           Ni1 tau(   2) = (   3.6081670   2.2999918  10.0000000  )
         3           Zn1 tau(   3) = (   2.5371375   0.0000000  10.0000000  )
         4           Zn1 tau(   4) = (   1.0710295   2.2999918  10.0000000  )
         5           Ni1 tau(   5) = (   5.0742750   3.2345485  12.1015629  )
         6           Ni1 tau(   6) = (   1.4661080   0.9345566  12.1015629  )
         7           Zn1 tau(   7) = (   2.5371375   3.2345485  12.1015629  )
         8           Zn1 tau(   8) = (   4.0032455   0.9345566  12.1015629  )
         9           Ni1 tau(   9) = (   2.9322160   1.8691132  14.2031257  )
        10           Ni1 tau(  10) = (   6.5403830   4.1691051  14.2031257  )
        11           Zn1 tau(  11) = (   5.4693535   1.8691132  14.2031257  )
        12           Zn1 tau(  12) = (   4.0032455   4.1691051  14.2031257  )

     number of k points=    40  Fermi-Dirac smearing, width (Ry)=  0.0110
                       cart. coord. in units 2pi/alat
        k(    1) = (   0.0000000   0.0000000   0.0000000), wk =   0.0277778
        k(    2) = (   0.0000000   0.0362320   0.0000000), wk =   0.0555556
        k(    3) = (   0.0000000   0.0724640   0.0000000), wk =   0.0555556
        k(    4) = (   0.0000000  -0.1086960   0.0000000), wk =   0.0277778
        k(    5) = (   0.0328454  -0.0152950   0.0000000), wk =   0.0555556
        k(    6) = (   0.0328454   0.0209370   0.0000000), wk =   0.0555556
        k(    7) = (   0.0328454   0.0571690   0.0000000), wk =   0.0555556
        k(    8) = (   0.0328454  -0.1239911   0.0000000), wk =   0.0555556
        k(    9) = (   0.0328454  -0.0877590   0.0000000), wk =   0.0555556
        k(   10) = (   0.0328454  -0.0515270   0.0000000), wk =   0.0555556
        k(   11) = (   0.0656908  -0.0305900   0.0000000), wk =   0.0555556
        k(   12) = (   0.0656908   0.0056420   0.0000000), wk =   0.0555556
        k(   13) = (   0.0656908   0.0418740   0.0000000), wk =   0.0555556
        k(   14) = (   0.0656908  -0.1392861   0.0000000), wk =   0.0555556
        k(   15) = (   0.0656908  -0.1030541   0.0000000), wk =   0.0555556
        k(   16) = (   0.0656908  -0.0668220   0.0000000), wk =   0.0555556
        k(   17) = (  -0.0985362   0.0458850   0.0000000), wk =   0.0277778
        k(   18) = (  -0.0985362   0.0821171   0.0000000), wk =   0.0555556
        k(   19) = (  -0.0985362   0.1183491   0.0000000), wk =   0.0555556
        k(   20) = (  -0.0985362  -0.0628110   0.0000000), wk =   0.0277778
        k(   21) = (   0.0000000   0.0000000   0.0000000), wk =   0.0277778
        k(   22) = (   0.0000000   0.0362320   0.0000000), wk =   0.0555556
        k(   23) = (   0.0000000   0.0724640   0.0000000), wk =   0.0555556
        k(   24) = (   0.0000000  -0.1086960   0.0000000), wk =   0.0277778
        k(   25) = (   0.0328454  -0.0152950   0.0000000), wk =   0.0555556
        k(   26) = (   0.0328454   0.0209370   0.0000000), wk =   0.0555556
        k(   27) = (   0.0328454   0.0571690   0.0000000), wk =   0.0555556
        k(   28) = (   0.0328454  -0.1239911   0.0000000), wk =   0.0555556
        k(   29) = (   0.0328454  -0.0877590   0.0000000), wk =   0.0555556
        k(   30) = (   0.0328454  -0.0515270   0.0000000), wk =   0.0555556
        k(   31) = (   0.0656908  -0.0305900   0.0000000), wk =   0.0555556
        k(   32) = (   0.0656908   0.0056420   0.0000000), wk =   0.0555556
        k(   33) = (   0.0656908   0.0418740   0.0000000), wk =   0.0555556
        k(   34) = (   0.0656908  -0.1392861   0.0000000), wk =   0.0555556
        k(   35) = (   0.0656908  -0.1030541   0.0000000), wk =   0.0555556
        k(   36) = (   0.0656908  -0.0668220   0.0000000), wk =   0.0555556
        k(   37) = (  -0.0985362   0.0458850   0.0000000), wk =   0.0277778
        k(   38) = (  -0.0985362   0.0821171   0.0000000), wk =   0.0555556
        k(   39) = (  -0.0985362   0.1183491   0.0000000), wk =   0.0555556
        k(   40) = (  -0.0985362  -0.0628110   0.0000000), wk =   0.0277778

     Largest allocated arrays     est. size (Mb)     dimensions
     Largest temporary arrays     est. size (Mb)     dimensions

     Check: negative/imaginary core charge=   -0.000001    0.000000

     Initial potential from superposition of free atoms
     Check: negative starting charge=(component1):   -0.000451
     Check: negative starting charge=(component2):   -0.000365

     starting charge  215.99915, renormalised to  228.00000

     negative rho (up, down):  4.762E-04 3.858E-04

     *
     * You are using vdW-DF for exchange-correlation in this calculation.
     * Please cite the following three references that made this development
     * possible:
     *
     *   M. Dion, H. Rydberg, E. Schroder, D. C. Langreth, and
     *   B. I. Lundqvist, Phys. Rev. Lett. 92, 246401 (2004).
     *
     *   T. Thonhauser, V. R. Cooper, S. Li, A. Puzder, P. Hyldgaard, and
     *   D. C. Langreth, Phys. Rev. B 76, 125112 (2007).
     *
     *   G. Roman-Perez and J. M. Soler, Phys. Rev. Lett. 103, 096102 (2009).
     *
     *
     * If you are using vdW-DF2, please also cite:
     *
     *   K. Lee, E. D. Murray, L. Kong, B. I. Lundqvist, and
     *   D. C. Langreth, Phys. Rev. B 82, 081101(R) (2010).
     *
     *
     * If you are calculating the stress with vdW-DF, please also cite:
     *
     *   R. Sabatini, E. Kucukbenli, B. Kolb, T. Thonhauser, and
     *   S. de Gironcoli, J. Phys.: Condens. Matter 24, 424209 (2012).
     *

     Carrying out vdW-DF run using the following parameters:

     Nqs =      20    Nr_points =    1024   r_max =   100.000
     q_mesh =
               0.00001000     0.04494208     0.09755937     0.15916263
               0.23128650     0.31572767     0.41458969     0.53033537
               0.66584808     0.82450364     1.01025438     1.22772762
               1.48234092     1.78043706     2.12944203     2.53805004
               3.01644009     3.57652955     4.23227104     5.00000000

     Gradients computed in reciprocal space

     Adding external electric field

     Computed dipole along edir(3) :
        Dipole               -0.0000 Ry au,         -0.0000 Debye
        Dipole field         -0.0000 Ry au

        Potential amp.        0.0000 Ry
        Total length         44.5938 bohr

[...]

     Starting wfc are  156 randomized atomic wfcs

     Self-consistent Calculation

     iteration #  1     ecut=    36.75 Ry     beta=0.10
     Davidson diagonalization with overlap
     ethr =  1.00E-02,  avg # of iterations =  7.0

[...]

     Magnetic moment per site:
     atom:    1    charge:    9.6869    magn:    1.0376    constr:    0.0000
     atom:    2    charge:    9.6869    magn:    1.0376    constr:    0.0000
     atom:    3    charge:   11.7358    magn:    1.1349    constr:    0.0000
     atom:    4    charge:   11.7358    magn:    1.1349    constr:    0.0000
     atom:    5    charge:    9.6661    magn:    1.0481    constr:    0.0000
     atom:    6    charge:    9.6661    magn:    1.0481    constr:    0.0000
[...]

     PseudoPot. # 2 for Zn read from file:
     /afs/slac.stanford.edu/u/if/mamunm/psp/gbrv1.5pbe/Zn.UPF
     MD5 check sum: df62231357ef9e81f77b2b3087fa5675
     Pseudo is Ultrasoft, Zval = 20.0
     Generated by new atomic code, or converted to UPF format
     Using radial grid of  943 points,  6 beta functions with:
                l(1) =   0
                l(2) =   0
                l(3) =   1
                l(4) =   1
                l(5) =   2
                l(6) =   2
     Q(r) pseudized with  8 coefficients,  rinner =    1.100   1.100   1.100
                                                       1.100   1.100

     vdW kernel table read from file vdW_kernel_table
     MD5 check sum: 095c7af220d748ca6e76c0b4c6cfb241

     atomic species   valence    mass     pseudopotential
        Ni1           18.00    58.69340     Ni( 1.00)
        Zn1           20.00    65.38000     Zn( 1.00)

     Starting magnetic structure
     atomic species   magnetization
        Ni1          0.111
        Zn1          0.100

     No symmetry found

   Cartesian axes

     site n.     atom                  positions (alat units)
         1           Ni1 tau(   1) = (   0.0000000   0.0000000  10.0000000  )
         2           Ni1 tau(   2) = (   3.6081670   2.2999918  10.0000000  )
         3           Zn1 tau(   3) = (   2.5371375   0.0000000  10.0000000  )
         4           Zn1 tau(   4) = (   1.0710295   2.2999918  10.0000000  )
         5           Ni1 tau(   5) = (   5.0742750   3.2345485  12.1015629  )
         6           Ni1 tau(   6) = (   1.4661080   0.9345566  12.1015629  )
         7           Zn1 tau(   7) = (   2.5371375   3.2345485  12.1015629  )
         8           Zn1 tau(   8) = (   4.0032455   0.9345566  12.1015629  )
         9           Ni1 tau(   9) = (   2.9236024   1.8636222  14.1070951  )
        10           Ni1 tau(  10) = (   6.5315725   4.1634887  14.1070244  )
        11           Zn1 tau(  11) = (   5.4667725   1.8677362  14.3093895  )
        12           Zn1 tau(  12) = (   4.0009074   4.1673462  14.3093896  )

     number of k points=    40  Fermi-Dirac smearing, width (Ry)=  0.0110
                       cart. coord. in units 2pi/alat
        k(    1) = (   0.0000000   0.0000000   0.0000000), wk =   0.0277778
        k(    2) = (   0.0000000   0.0362320   0.0000000), wk =   0.0555556
        k(    3) = (   0.0000000   0.0724640   0.0000000), wk =   0.0555556
        k(    4) = (   0.0000000  -0.1086960   0.0000000), wk =   0.0277778
        k(    5) = (   0.0328454  -0.0152950   0.0000000), wk =   0.0555556
        k(    6) = (   0.0328454   0.0209370   0.0000000), wk =   0.0555556
        k(    7) = (   0.0328454   0.0571690   0.0000000), wk =   0.0555556
        k(    8) = (   0.0328454  -0.1239911   0.0000000), wk =   0.0555556
        k(    9) = (   0.0328454  -0.0877590   0.0000000), wk =   0.0555556
        k(   10) = (   0.0328454  -0.0515270   0.0000000), wk =   0.0555556
        k(   11) = (   0.0656908  -0.0305900   0.0000000), wk =   0.0555556
        k(   12) = (   0.0656908   0.0056420   0.0000000), wk =   0.0555556
        k(   13) = (   0.0656908   0.0418740   0.0000000), wk =   0.0555556
        k(   14) = (   0.0656908  -0.1392861   0.0000000), wk =   0.0555556
        k(   15) = (   0.0656908  -0.1030541   0.0000000), wk =   0.0555556
        k(   16) = (   0.0656908  -0.0668220   0.0000000), wk =   0.0555556
        k(   17) = (  -0.0985362   0.0458850   0.0000000), wk =   0.0277778
        k(   18) = (  -0.0985362   0.0821171   0.0000000), wk =   0.0555556
        k(   19) = (  -0.0985362   0.1183491   0.0000000), wk =   0.0555556
        k(   20) = (  -0.0985362  -0.0628110   0.0000000), wk =   0.0277778
        k(   21) = (   0.0000000   0.0000000   0.0000000), wk =   0.0277778
        k(   22) = (   0.0000000   0.0362320   0.0000000), wk =   0.0555556
        k(   23) = (   0.0000000   0.0724640   0.0000000), wk =   0.0555556
        k(   24) = (   0.0000000  -0.1086960   0.0000000), wk =   0.0277778
        k(   25) = (   0.0328454  -0.0152950   0.0000000), wk =   0.0555556
        k(   26) = (   0.0328454   0.0209370   0.0000000), wk =   0.0555556
        k(   27) = (   0.0328454   0.0571690   0.0000000), wk =   0.0555556
        k(   28) = (   0.0328454  -0.1239911   0.0000000), wk =   0.0555556
        k(   29) = (   0.0328454  -0.0877590   0.0000000), wk =   0.0555556
        k(   30) = (   0.0328454  -0.0515270   0.0000000), wk =   0.0555556
        k(   31) = (   0.0656908  -0.0305900   0.0000000), wk =   0.0555556
        k(   32) = (   0.0656908   0.0056420   0.0000000), wk =   0.0555556
        k(   33) = (   0.0656908   0.0418740   0.0000000), wk =   0.0555556
        k(   34) = (   0.0656908  -0.1392861   0.0000000), wk =   0.0555556
        k(   35) = (   0.0656908  -0.1030541   0.0000000), wk =   0.0555556
        k(   36) = (   0.0656908  -0.0668220   0.0000000), wk =   0.0555556
        k(   37) = (  -0.0985362   0.0458850   0.0000000), wk =   0.0277778
        k(   38) = (  -0.0985362   0.0821171   0.0000000), wk =   0.0555556
        k(   39) = (  -0.0985362   0.1183491   0.0000000), wk =   0.0555556
        k(   40) = (  -0.0985362  -0.0628110   0.0000000), wk =   0.0277778

     Largest allocated arrays     est. size (Mb)     dimensions
     Largest temporary arrays     est. size (Mb)     dimensions

     Check: negative/imaginary core charge=   -0.000001    0.000000

     Initial potential from superposition of free atoms
     Check: negative starting charge=(component1):   -0.000420
     Check: negative starting charge=(component2):   -0.000341

     starting charge  215.99915, renormalised to  228.00000

[...]

     *
     * You are using vdW-DF for exchange-correlation in this calculation.
     * Please cite the following three references that made this development
     * possible:
     *
     *   M. Dion, H. Rydberg, E. Schroder, D. C. Langreth, and
     *   B. I. Lundqvist, Phys. Rev. Lett. 92, 246401 (2004).
     *
     *   T. Thonhauser, V. R. Cooper, S. Li, A. Puzder, P. Hyldgaard, and
     *   D. C. Langreth, Phys. Rev. B 76, 125112 (2007).
     *
     *   G. Roman-Perez and J. M. Soler, Phys. Rev. Lett. 103, 096102 (2009).
     *
     *
     * If you are using vdW-DF2, please also cite:
     *
     *   K. Lee, E. D. Murray, L. Kong, B. I. Lundqvist, and
     *   D. C. Langreth, Phys. Rev. B 82, 081101(R) (2010).
     *
     *
     * If you are calculating the stress with vdW-DF, please also cite:
     *
     *   R. Sabatini, E. Kucukbenli, B. Kolb, T. Thonhauser, and
     *   S. de Gironcoli, J. Phys.: Condens. Matter 24, 424209 (2012).
     *

     Carrying out vdW-DF run using the following parameters:

     Nqs =      20    Nr_points =    1024   r_max =   100.000
     q_mesh =
               0.00001000     0.04494208     0.09755937     0.15916263
               0.23128650     0.31572767     0.41458969     0.53033537
               0.66584808     0.82450364     1.01025438     1.22772762
               1.48234092     1.78043706     2.12944203     2.53805004
               3.01644009     3.57652955     4.23227104     5.00000000

     Gradients computed in reciprocal space

[...]

     Starting wfc are  156 randomized atomic wfcs

     Self-consistent Calculation

[...]

     total energy              =   -4843.29610516 Ry
     Harris-Foulkes estimate   =   -4843.29610441 Ry
     estimated scf accuracy    <       0.00000113 Ry

[...]

     iteration # 35     ecut=    36.75 Ry     beta=0.10
     Davidson diagonalization with overlap
     ethr =  4.94E-10,  avg # of iterations =  1.7

[...]

     negative rho (up, down):  7.796E-04 7.797E-04

[...]

     Adding external electric field

     Computed dipole along edir(3) :
        Dipole                0.0065 Ry au,          0.0166 Debye
        Dipole field          0.0000 Ry au

        Potential amp.       -0.0019 Ry
        Total length         44.5938 bohr

     Magnetic moment per site:
     atom:    1    charge:    9.3628    magn:    0.0009    constr:    0.0000
     atom:    2    charge:    9.3628    magn:    0.0009    constr:    0.0000
     atom:    3    charge:   11.6913    magn:    0.0000    constr:    0.0000
     atom:    4    charge:   11.6913    magn:    0.0000    constr:    0.0000
     atom:    5    charge:    9.3693    magn:   -0.0020    constr:    0.0000
     atom:    6    charge:    9.3692    magn:   -0.0020    constr:    0.0000
     atom:    7    charge:   11.6974    magn:    0.0000    constr:    0.0000
     atom:    8    charge:   11.6974    magn:    0.0000    constr:    0.0000
     atom:    9    charge:    9.3574    magn:   -0.0006    constr:    0.0000
     atom:   10    charge:    9.3577    magn:   -0.0006    constr:    0.0000
     atom:   11    charge:   11.6873    magn:    0.0000    constr:    0.0000
     atom:   12    charge:   11.6873    magn:    0.0000    constr:    0.0000

     End of self-consistent calculation

 ------ SPIN UP ------------

[...]

 ------ SPIN DOWN ----------

[...]

          k = 0.0657-0.0668 0.0000 ( 14346 PWs)   bands (ev):

[...]

          k =-0.0985-0.0628 0.0000 ( 14370 PWs)   bands (ev):

  -125.6577-125.6568-125.5343-125.5334-125.5092-125.5083-102.3483-102.3452
  -102.2112-102.2081-102.1525-102.1494 -79.8478 -79.8447 -79.8436 -79.8337
   -79.8189 -79.8178 -79.7226 -79.7216 -79.7215 -79.7076 -79.6978 -79.6974
   -79.6966 -79.6961 -79.6952 -79.6835 -79.6711 -79.6701 -62.7709 -62.7607
   -62.7568 -62.7367 -62.7326 -62.7291 -62.6550 -62.6380 -62.6344 -62.6137
   -62.6048 -62.5861 -62.5825 -62.5635 -62.5523 -62.5486 -62.4824 -62.4786
    -7.3403  -7.0615  -7.0311  -6.9981  -6.9344  -6.9327  -6.8122  -6.8028
    -6.7755  -6.7746  -6.7070  -6.6695  -6.6585  -6.6238  -6.5986  -6.5404
    -6.5176  -6.4640  -6.4513  -6.4084  -6.4050  -6.3879  -6.3270  -6.2450
    -6.2341  -6.2098  -6.2060  -6.1914  -6.1756  -5.9987  -5.9917  -5.7642
    -4.1025  -4.0773  -3.5826  -3.1538  -2.6677  -2.3319  -2.1229  -2.0151
    -1.9893  -1.8261  -1.5601  -1.5143  -1.4224  -1.3486  -1.2272  -1.2045
    -1.0940  -0.9510  -0.9258  -0.8692  -0.5915  -0.5741  -0.5255  -0.4983
    -0.3015  -0.2589  -0.2186  -0.1995  -0.1525  -0.1343  -0.0650  -0.0010
     0.2676   0.4225   0.6151   1.1211   1.1583   1.5426   2.8625   2.9758
     3.2693   3.2758   5.8563   6.0520   6.1102   6.3794   6.3893   6.6916
     6.7576   6.9651   7.0527   7.1162   7.1614   7.6161   8.0859   8.1199
     8.2347   8.4684   8.4925   8.6105   8.6596   8.7870   9.1516   9.6928

     the Fermi energy is     0.5294 ev

!    total energy              =   -4843.29610923 Ry
     Harris-Foulkes estimate   =   -4843.29610531 Ry
     estimated scf accuracy    <       0.00000087 Ry

     The total energy is the sum of the following terms:

     one-electron contribution =  -36873.46586197 Ry
     hartree contribution      =   18435.37936181 Ry
     xc contribution           =    -481.57143882 Ry
     ewald contribution        =   14076.40487531 Ry
     electric field correction =       0.00000014 Ry
     smearing contrib. (-TS)   =      -0.04304570 Ry

     total magnetization       =    -0.00 Bohr mag/cell
     absolute magnetization    =     0.01 Bohr mag/cell

     convergence has been achieved in  35 iterations

 BEEF-vdW xc energy contributions
           1 :   -426.327687467813
           2 :    386.603645018197
           3 :   -319.796823975115
           4 :    245.180935728136
           5 :   -180.197658770454
           6 :    133.973639384916
           7 :   -105.782548762834
           8 :    88.4335690942071
           9 :   -73.9677845899232
          10 :    58.1665206347768
          11 :   -41.6569163993774
          12 :    27.7587387162017
          13 :   -19.1529405123690
          14 :    15.7587264918554
          15 :   -14.9865464871814
          16 :    13.7430639815761
          17 :   -10.5076324756699
          18 :    6.01566157144015
          19 :   -2.28066990880677
          20 :   0.865725788608529
          21 :   -1.72490619630543
          22 :    3.35677493285556
          23 :   -4.00617168175950
          24 :    2.92815506863178
          25 :  -0.801646287111851
          26 :  -0.922854769811181
          27 :    1.16258204189575
          28 :   3.251305543335548E-002
          29 :   -1.60711268863952
          30 :    2.34316342271921
          31 :   -34.0108587757604
          32 :   -23.5002400159516

     Forces acting on atoms (Ry/au):

     negative rho (up, down):  7.796E-04 7.797E-04
     atom    1 type  1   force =     0.00184972    0.00117912    0.01747490
     atom    2 type  1   force =     0.00182588    0.00116390    0.01746635
     atom    3 type  2   force =    -0.00152689   -0.00092725   -0.01456213
     atom    4 type  2   force =    -0.00148520   -0.00099280   -0.01456225
     atom    5 type  1   force =    -0.00309782   -0.00197454    0.00722613
     atom    6 type  1   force =    -0.00309063   -0.00197023    0.00726462
     atom    7 type  2   force =     0.00399488    0.00251962   -0.01083602
     atom    8 type  2   force =     0.00397041    0.00255768   -0.01083605
     atom    9 type  1   force =    -0.00088674   -0.00056525    0.00014347
     atom   10 type  1   force =    -0.00075256   -0.00047962    0.00015951
     atom   11 type  2   force =    -0.00033367   -0.00036036    0.00053074
     atom   12 type  2   force =    -0.00046738   -0.00015028    0.00053073

     Total force =     0.038273     Total SCF correction =     0.002766

     entering subroutine stress ...

     negative rho (up, down):  7.796E-04 7.797E-04
          total   stress  (Ry/bohr**3)                   (kbar)     P=  -43.53
  -0.00032091   0.00000811  -0.00000205        -47.21      1.19     -0.30
   0.00000811  -0.00032846  -0.00000131          1.19    -48.32     -0.19
  -0.00000205  -0.00000131  -0.00023830         -0.30     -0.19    -35.05

 !ASE

     Writing output data file calc.save

     General routines

     Parallel routines

   This run was terminated on:   1:51: 7  19Dec2018

   JOB DONE.
Job  /afs/slac/g/suncat/bin/suncat-tsmpirun -x LD_LIBRARY_PATH -wdir /scratch/qe530393_5aQ2H pw.x -in pw.inp

TID   HOST_NAME   COMMAND_LINE            STATUS            TERMINATION_TIME
00000 suncat2040 pw.x -in pw.inp   Done                     12/19/2018 01:51:07
00001 suncat2040 pw.x -in pw.inp   Done                     12/19/2018 01:51:07
00002 suncat2040 pw.x -in pw.inp   Done                     12/19/2018 01:51:07
00003 suncat2040 pw.x -in pw.inp   Done                     12/19/2018 01:51:07
00004 suncat2040 pw.x -in pw.inp   Done                     12/19/2018 01:51:07
00005 suncat2040 pw.x -in pw.inp   Done                     12/19/2018 01:51:07
00006 suncat2040 pw.x -in pw.inp   Done                     12/19/2018 01:51:07
00007 suncat2040 pw.x -in pw.inp   Done                     12/19/2018 01:51:07
00008 suncat2040 pw.x -in pw.inp   Done                     12/19/2018 01:51:07
00009 suncat2040 pw.x -in pw.inp   Done                     12/19/2018 01:51:07
00010 suncat2040 pw.x -in pw.inp   Done                     12/19/2018 01:51:07
00011 suncat2040 pw.x -in pw.inp   Done                     12/19/2018 01:51:07
00012 suncat2040 pw.x -in pw.inp   Done                     12/19/2018 01:51:07
00013 suncat2040 pw.x -in pw.inp   Done                     12/19/2018 01:51:07
00014 suncat2040 pw.x -in pw.inp   Done                     12/19/2018 01:51:07
00015 suncat2040 pw.x -in pw.inp   Done                     12/19/2018 01:51:07
00016 suncat2039 pw.x -in pw.inp   Done                     12/19/2018 01:51:07
00017 suncat2039 pw.x -in pw.inp   Done                     12/19/2018 01:51:07
00018 suncat2039 pw.x -in pw.inp   Done                     12/19/2018 01:51:07
00019 suncat2039 pw.x -in pw.inp   Done                     12/19/2018 01:51:07
00020 suncat2039 pw.x -in pw.inp   Done                     12/19/2018 01:51:07
00021 suncat2039 pw.x -in pw.inp   Done                     12/19/2018 01:51:07
00022 suncat2039 pw.x -in pw.inp   Done                     12/19/2018 01:51:07
00023 suncat2039 pw.x -in pw.inp   Done                     12/19/2018 01:51:07
00024 suncat2039 pw.x -in pw.inp   Done                     12/19/2018 01:51:07
00025 suncat2039 pw.x -in pw.inp   Done                     12/19/2018 01:51:07
00026 suncat2039 pw.x -in pw.inp   Done                     12/19/2018 01:51:07
00027 suncat2039 pw.x -in pw.inp   Done                     12/19/2018 01:51:07
00028 suncat2039 pw.x -in pw.inp   Done                     12/19/2018 01:51:07
00029 suncat2039 pw.x -in pw.inp   Done                     12/19/2018 01:51:07
00030 suncat2039 pw.x -in pw.inp   Done                     12/19/2018 01:51:07
00031 suncat2039 pw.x -in pw.inp   Done                     12/19/2018 01:51:07