     Program PWSCF v.5.1rc2 (svn rev. 11289) starts on 19Dec2018 at  2:34:32

     Current dimensions of program PWSCF are:
     Max number of different atomic species (ntypx) = 10
     Max number of k-points (npk) =  40000
     Max angular momentum in pseudopotentials (lmaxx) =  3
     Presently stress not available with electric field

     IMPORTANT: XC functional enforced from input :
     Exchange-correlation      = BEEF-VDW ( 1  4 27 13 2)
     Any further DFT definition will be discarded
     Please, verify this is what you really want

     Subspace diagonalization in iterative solution of the eigenvalue problem:
     a serial algorithm will be used

     Found symmetry operation: I + ( -0.5000  0.0000  0.0000)
     This is a supercell, fractional translations are disabled

     bravais-lattice index     =            0
     lattice parameter (alat)  =       1.8897  a.u.
     unit-cell volume          =    4693.4261 (a.u.)^3
     number of atoms/cell      =           12
     number of atomic types    =            2
     number of electrons       =       204.00
     number of Kohn-Sham states=          132
     kinetic-energy cutoff     =      36.7493  Ry
     charge density cutoff     =     367.4932  Ry
     convergence threshold     =      1.0E-06
     mixing beta               =       0.1000
     number of iterations used =           10  plain     mixing
     Exchange-correlation      = BEEF-VDW ( 1  4 27 13 2)
     nstep                     =           50

     celldm(1)=   1.889726  celldm(2)=   0.000000  celldm(3)=   0.000000
     celldm(4)=   0.000000  celldm(5)=   0.000000  celldm(6)=   0.000000

     crystal axes: (cart. coord. in units of alat)
               a(1) = (   5.507256   0.000000   0.000000 )
               a(2) = (  -2.753628   5.124331   0.000000 )
               a(3) = (   0.000000   0.000000  24.644549 )

     reciprocal axes: (cart. coord. in units 2 pi/alat)
               b(1) = (  0.181579  0.097574  0.000000 )
               b(2) = (  0.000000  0.195147  0.000000 )
               b(3) = (  0.000000  0.000000  0.040577 )

     PseudoPot. # 1 for Rh read from file:
     /afs/slac.stanford.edu/u/if/mamunm/psp/gbrv1.5pbe/Rh.UPF
     MD5 check sum: 761627e959a2e3a1f56b0b5fe687810e
     Pseudo is Ultrasoft + core correction, Zval = 15.0
     Generated by new atomic code, or converted to UPF format
     Using radial grid of  969 points,  7 beta functions with:
                l(1) =   0
                l(2) =   0
                l(3) =   1
                l(4) =   1
                l(5) =   2
                l(6) =   2
                l(7) =   2
     Q(r) pseudized with  8 coefficients,  rinner =    1.200   1.200   1.200
                                                       1.200   1.200

     PseudoPot. # 2 for Ag read from file:
     /afs/slac.stanford.edu/u/if/mamunm/psp/gbrv1.5pbe/Ag.UPF
     MD5 check sum: d66d668201baa78d5eb5b04ef7011058
     Pseudo is Ultrasoft + core correction, Zval = 19.0
     Generated by new atomic code, or converted to UPF format
     Using radial grid of  887 points,  6 beta functions with:
                l(1) =   0
                l(2) =   0
                l(3) =   1
                l(4) =   1
                l(5) =   2
                l(6) =   2
     Q(r) pseudized with  6 coefficients,  rinner =    1.300   1.300   1.300
                                                       1.300   1.300

     vdW kernel table read from file vdW_kernel_table
     MD5 check sum: 095c7af220d748ca6e76c0b4c6cfb241

     atomic species   valence    mass     pseudopotential
        Rh1           15.00   102.90550     Rh( 1.00)
        Ag1           19.00   107.86820     Ag( 1.00)

     No symmetry found

   Cartesian axes

     site n.     atom                  positions (alat units)
         1           Rh1 tau(   1) = (   0.0000000   0.0000000  10.0000000  )
         2           Rh1 tau(   2) = (   2.7536282   0.0000000  10.0000000  )
         3           Ag1 tau(   3) = (   1.3768141   2.5621657  10.0000000  )
         4           Ag1 tau(   4) = (  -1.3768141   2.5621657  10.0000000  )
         5           Rh1 tau(   5) = (   2.7536282   1.4796991  12.3222745  )
         6           Rh1 tau(   6) = (  -0.0000000   1.4796991  12.3222745  )
         7           Ag1 tau(   7) = (  -1.3768141   4.0418647  12.3222745  )
         8           Ag1 tau(   8) = (   1.3768141   4.0418647  12.3222745  )
         9           Rh1 tau(   9) = (   0.0000000   2.9593981  14.6445491  )
        10           Rh1 tau(  10) = (   2.7536282   2.9593981  14.6445491  )
        11           Ag1 tau(  11) = (   4.1304423   0.3972324  14.6445491  )
        12           Ag1 tau(  12) = (   1.3768141   0.3972324  14.6445491  )

     number of k points=    20  Fermi-Dirac smearing, width (Ry)=  0.0110
                       cart. coord. in units 2pi/alat
        k(    1) = (   0.0000000   0.0000000   0.0000000), wk =   0.0555556
        k(    2) = (   0.0000000   0.0325246   0.0000000), wk =   0.1111111
        k(    3) = (   0.0000000   0.0650491   0.0000000), wk =   0.1111111
        k(    4) = (   0.0000000  -0.0975737   0.0000000), wk =   0.0555556
        k(    5) = (   0.0302631   0.0162623   0.0000000), wk =   0.1111111
        k(    6) = (   0.0302631   0.0487869   0.0000000), wk =   0.1111111
        k(    7) = (   0.0302631   0.0813114   0.0000000), wk =   0.1111111
        k(    8) = (   0.0302631  -0.0813114   0.0000000), wk =   0.1111111
        k(    9) = (   0.0302631  -0.0487869   0.0000000), wk =   0.1111111
        k(   10) = (   0.0302631  -0.0162623   0.0000000), wk =   0.1111111
        k(   11) = (   0.0605262   0.0325246   0.0000000), wk =   0.1111111
        k(   12) = (   0.0605262   0.0650491   0.0000000), wk =   0.1111111
        k(   13) = (   0.0605262   0.0975737   0.0000000), wk =   0.1111111
        k(   14) = (   0.0605262  -0.0650491   0.0000000), wk =   0.1111111
        k(   15) = (   0.0605262  -0.0325246   0.0000000), wk =   0.1111111
        k(   16) = (   0.0605262   0.0000000   0.0000000), wk =   0.1111111
        k(   17) = (  -0.0907893  -0.0487869   0.0000000), wk =   0.0555556
        k(   18) = (  -0.0907893  -0.0162623   0.0000000), wk =   0.1111111
        k(   19) = (  -0.0907893   0.0162623   0.0000000), wk =   0.1111111
        k(   20) = (  -0.0907893  -0.1463606   0.0000000), wk =   0.0555556

     Largest allocated arrays     est. size (Mb)     dimensions
     Largest temporary arrays     est. size (Mb)     dimensions

     Initial potential from superposition of free atoms
     Check: negative starting charge=   -0.328577

     starting charge  197.99912, renormalised to  204.00000

     negative rho (up, down):  3.385E-01 0.000E+00

     *
     * You are using vdW-DF for exchange-correlation in this calculation.
     * Please cite the following three references that made this development
     * possible:
     *
     *   M. Dion, H. Rydberg, E. Schroder, D. C. Langreth, and
     *   B. I. Lundqvist, Phys. Rev. Lett. 92, 246401 (2004).
     *
     *   T. Thonhauser, V. R. Cooper, S. Li, A. Puzder, P. Hyldgaard, and
     *   D. C. Langreth, Phys. Rev. B 76, 125112 (2007).
     *
     *   G. Roman-Perez and J. M. Soler, Phys. Rev. Lett. 103, 096102 (2009).
     *
     *
     * If you are using vdW-DF2, please also cite:
     *
     *   K. Lee, E. D. Murray, L. Kong, B. I. Lundqvist, and
     *   D. C. Langreth, Phys. Rev. B 82, 081101(R) (2010).
     *
     *
     * If you are calculating the stress with vdW-DF, please also cite:
     *
     *   R. Sabatini, E. Kucukbenli, B. Kolb, T. Thonhauser, and
     *   S. de Gironcoli, J. Phys.: Condens. Matter 24, 424209 (2012).
     *

     Carrying out vdW-DF run using the following parameters:

     Nqs =      20    Nr_points =    1024   r_max =   100.000
     q_mesh =
               0.00001000     0.04494208     0.09755937     0.15916263
               0.23128650     0.31572767     0.41458969     0.53033537
               0.66584808     0.82450364     1.01025438     1.22772762
               1.48234092     1.78043706     2.12944203     2.53805004
               3.01644009     3.57652955     4.23227104     5.00000000

     Gradients computed in reciprocal space

     Adding external electric field

     Computed dipole along edir(3) :
        Dipole                0.0000 Ry au,          0.0000 Debye
        Dipole field          0.0000 Ry au

        Potential amp.       -0.0000 Ry
        Total length         45.4072 bohr

     Starting wfc are  150 randomized atomic wfcs

     Self-consistent Calculation

     iteration #  1     ecut=    36.75 Ry     beta=0.10
     Davidson diagonalization with overlap
     ethr =  1.00E-02,  avg # of iterations =  7.4

[...]

     total energy              =   -2810.85021602 Ry
     Harris-Foulkes estimate   =   -2816.83049819 Ry
     estimated scf accuracy    <      33.83592102 Ry

[...]

     End of self-consistent calculation

          k = 0.0000 0.0000 0.0000 ( 17677 PWs)   bands (ev):

   -90.5671 -90.5558 -90.4074 -90.4073 -90.3960 -90.3959 -54.1425 -54.0852
   -54.0715 -54.0371 -54.0235 -54.0108 -54.0107 -53.9966 -53.9067 -53.9012
   -53.8931 -53.8877 -53.8648 -53.8648 -53.8551 -53.8473 -53.8423 -53.8346
   -44.8730 -44.8322 -44.8025 -44.7192 -44.7182 -44.5777 -44.5396 -44.5105
   -44.4237 -44.4233 -44.4207 -44.3990 -44.3917 -44.3713 -44.3041 -44.2981
   -44.2750 -44.2695  -5.0400  -4.4357  -4.3061  -4.2117  -4.1924  -4.1855
    -4.0690  -4.0001  -3.9051  -3.8895  -3.8571  -3.7324  -3.6917  -3.5330
    -3.4158  -3.2704  -3.0441  -3.0294  -3.0128  -2.8515  -2.7126  -2.5041
    -2.4825  -2.3649  -2.3276  -2.2807  -2.1850  -2.1567  -2.1345  -1.9308
    -1.7667  -1.7031  -1.4893  -1.4847  -1.1989  -0.9287  -0.8503  -0.8482
    -0.6969  -0.6818  -0.4256  -0.3223  -0.0761   0.0915   0.1754   0.2044
     0.2564   0.2640   0.4117   0.6181   0.7166   0.8499   0.9132   1.1562
     1.1632   1.2030   1.3057   1.3254   1.3753   1.4441   1.4638   1.5291
     2.1308   2.3006   2.8316   2.8326   3.1023   3.4975   3.6161   4.3269
     4.4180   4.7600   4.9575   5.4651   5.7676   6.1330   6.7351   6.8988
     7.1200   7.1205   7.4739   7.8528   7.9283   8.1675   8.2476   8.5761
     8.8030   9.4402   9.9186  10.1671

[...]

          k =-0.0908-0.0488 0.0000 ( 17672 PWs)   bands (ev):

[...]

     the Fermi energy is     1.1954 ev

!    total energy              =   -2812.86017920 Ry
     Harris-Foulkes estimate   =   -2812.86017863 Ry
     estimated scf accuracy    <       0.00000038 Ry

     The total energy is the sum of the following terms:

     one-electron contribution =  -22369.37319305 Ry
     hartree contribution      =   11202.37412823 Ry
     xc contribution           =    -366.57040395 Ry
     ewald contribution        =    8720.80893327 Ry
     electric field correction =       0.00000000 Ry
     smearing contrib. (-TS)   =      -0.09964370 Ry

     convergence has been achieved in  18 iterations

 BEEF-vdW xc energy contributions
           1 :   -318.503219077890
           2 :    290.393801253579
           3 :   -242.684356530793
           4 :    188.609715562134
           5 :   -140.816540932581
[...]

[...]

   This run was terminated on:   2:46: 7  19Dec2018

[...]

   This run was terminated on:   2:52: 9  19Dec2018

[...]

     Found symmetry operation: I + ( -0.5000  0.0000  0.0000)
     This is a supercell, fractional translations are disabled

[...]

   This run was terminated on:   3: 4:27  19Dec2018

[...]

     Program PWSCF v.5.1rc2 (svn rev. 11289) starts on 19Dec2018 at  3: 4:33

[...]

     Program PWSCF v.5.1rc2 (svn rev. 11289) starts on 19Dec2018 at  3:22:48

     Current dimensions of program PWSCF are:
     Max number of different atomic species (ntypx) = 10
     Max number of k-points (npk) =  40000
     Max angular momentum in pseudopotentials (lmaxx) =  3
     Presently stress not available with electric field

     IMPORTANT: XC functional enforced from input :
     Exchange-correlation      = BEEF-VDW ( 1  4 27 13 2)
     Any further DFT definition will be discarded
     Please, verify this is what you really want

     Subspace diagonalization in iterative solution of the eigenvalue problem:
     a serial algorithm will be used

     bravais-lattice index     =            0
     lattice parameter (alat)  =       1.8897  a.u.
     unit-cell volume          =    4693.4261 (a.u.)^3
     number of atoms/cell      =           12
     number of atomic types    =            2
     number of electrons       =       204.00
     number of Kohn-Sham states=          132
     kinetic-energy cutoff     =      36.7493  Ry
     charge density cutoff     =     367.4932  Ry
     convergence threshold     =      1.0E-06
     mixing beta               =       0.1000
     number of iterations used =           10  plain     mixing
     Exchange-correlation      = BEEF-VDW ( 1  4 27 13 2)
     nstep                     =           50

     celldm(1)=   1.889726  celldm(2)=   0.000000  celldm(3)=   0.000000
     celldm(4)=   0.000000  celldm(5)=   0.000000  celldm(6)=   0.000000

     crystal axes: (cart. coord. in units of alat)
               a(1) = (   5.507256   0.000000   0.000000 )
               a(2) = (  -2.753628   5.124331   0.000000 )
               a(3) = (   0.000000   0.000000  24.644549 )

     reciprocal axes: (cart. coord. in units 2 pi/alat)
               b(1) = (  0.181579  0.097574  0.000000 )
               b(2) = (  0.000000  0.195147  0.000000 )
               b(3) = (  0.000000  0.000000  0.040577 )

     PseudoPot. # 1 for Rh read from file:
     /afs/slac.stanford.edu/u/if/mamunm/psp/gbrv1.5pbe/Rh.UPF
     MD5 check sum: 761627e959a2e3a1f56b0b5fe687810e
     Pseudo is Ultrasoft + core correction, Zval = 15.0
     Generated by new atomic code, or converted to UPF format
     Using radial grid of  969 points,  7 beta functions with:
                l(1) =   0
                l(2) =   0
                l(3) =   1
                l(4) =   1
                l(5) =   2
                l(6) =   2
                l(7) =   2
     Q(r) pseudized with  8 coefficients,  rinner =    1.200   1.200   1.200
                                                       1.200   1.200

     PseudoPot. # 2 for Ag read from file:
     /afs/slac.stanford.edu/u/if/mamunm/psp/gbrv1.5pbe/Ag.UPF
     MD5 check sum: d66d668201baa78d5eb5b04ef7011058
     Pseudo is Ultrasoft + core correction, Zval = 19.0
     Generated by new atomic code, or converted to UPF format
     Using radial grid of  887 points,  6 beta functions with:
                l(1) =   0
                l(2) =   0
                l(3) =   1
                l(4) =   1
                l(5) =   2
                l(6) =   2
     Q(r) pseudized with  6 coefficients,  rinner =    1.300   1.300   1.300
                                                       1.300   1.300

     vdW kernel table read from file vdW_kernel_table
     MD5 check sum: 095c7af220d748ca6e76c0b4c6cfb241

     atomic species   valence    mass     pseudopotential
        Rh1           15.00   102.90550     Rh( 1.00)
        Ag1           19.00   107.86820     Ag( 1.00)

     No symmetry found

   Cartesian axes

     site n.     atom                  positions (alat units)
         1           Rh1 tau(   1) = (   0.0000000   0.0000000  10.0000000  )
         2           Rh1 tau(   2) = (   2.7536282   0.0000000  10.0000000  )
         3           Ag1 tau(   3) = (   1.3768141   2.5621657  10.0000000  )
         4           Ag1 tau(   4) = (  -1.3768141   2.5621657  10.0000000  )
         5           Rh1 tau(   5) = (   2.7536282   1.4796991  12.3222745  )
         6           Rh1 tau(   6) = (  -0.0000000   1.4796991  12.3222745  )
         7           Ag1 tau(   7) = (  -1.3768141   4.0418647  12.3222745  )
         8           Ag1 tau(   8) = (   1.3768141   4.0418647  12.3222745  )
         9           Rh1 tau(   9) = (  -0.0001777   2.7350659  14.5303825  )
        10           Rh1 tau(  10) = (   2.7534494   2.7350149  14.5303968  )
        11           Ag1 tau(  11) = (   4.1300325   0.2257497  14.8166801  )
        12           Ag1 tau(  12) = (   1.3766177   0.2257489  14.8166757  )

     number of k points=    20  Fermi-Dirac smearing, width (Ry)=  0.0110
                       cart. coord. in units 2pi/alat
        k(    1) = (   0.0000000   0.0000000   0.0000000), wk =   0.0555556
        k(    2) = (   0.0000000   0.0325246   0.0000000), wk =   0.1111111
        k(    3) = (   0.0000000   0.0650491   0.0000000), wk =   0.1111111
        k(    4) = (   0.0000000  -0.0975737   0.0000000), wk =   0.0555556
        k(    5) = (   0.0302631   0.0162623   0.0000000), wk =   0.1111111
        k(    6) = (   0.0302631   0.0487869   0.0000000), wk =   0.1111111
        k(    7) = (   0.0302631   0.0813114   0.0000000), wk =   0.1111111
        k(    8) = (   0.0302631  -0.0813114   0.0000000), wk =   0.1111111
        k(    9) = (   0.0302631  -0.0487869   0.0000000), wk =   0.1111111
        k(   10) = (   0.0302631  -0.0162623   0.0000000), wk =   0.1111111
        k(   11) = (   0.0605262   0.0325246   0.0000000), wk =   0.1111111
        k(   12) = (   0.0605262   0.0650491   0.0000000), wk =   0.1111111
        k(   13) = (   0.0605262   0.0975737   0.0000000), wk =   0.1111111
        k(   14) = (   0.0605262  -0.0650491   0.0000000), wk =   0.1111111
        k(   15) = (   0.0605262  -0.0325246   0.0000000), wk =   0.1111111
        k(   16) = (   0.0605262   0.0000000   0.0000000), wk =   0.1111111
        k(   17) = (  -0.0907893  -0.0487869   0.0000000), wk =   0.0555556
        k(   18) = (  -0.0907893  -0.0162623   0.0000000), wk =   0.1111111
        k(   19) = (  -0.0907893   0.0162623   0.0000000), wk =   0.1111111
        k(   20) = (  -0.0907893  -0.1463606   0.0000000), wk =   0.0555556

     Largest allocated arrays     est. size (Mb)     dimensions
     Largest temporary arrays     est. size (Mb)     dimensions

     Initial potential from superposition of free atoms
     Check: negative starting charge=   -0.327539

     starting charge  197.99912, renormalised to  204.00000

[...]

     *
     * You are using vdW-DF for exchange-correlation in this calculation.
     * Please cite the following three references that made this development
     * possible:
     *
     *   M. Dion, H. Rydberg, E. Schroder, D. C. Langreth, and
     *   B. I. Lundqvist, Phys. Rev. Lett. 92, 246401 (2004).
     *
     *   T. Thonhauser, V. R. Cooper, S. Li, A. Puzder, P. Hyldgaard, and
     *   D. C. Langreth, Phys. Rev. B 76, 125112 (2007).
     *
     *   G. Roman-Perez and J. M. Soler, Phys. Rev. Lett. 103, 096102 (2009).
     *
     *
     * If you are using vdW-DF2, please also cite:
     *
     *   K. Lee, E. D. Murray, L. Kong, B. I. Lundqvist, and
     *   D. C. Langreth, Phys. Rev. B 82, 081101(R) (2010).
     *
     *
     * If you are calculating the stress with vdW-DF, please also cite:
     *
     *   R. Sabatini, E. Kucukbenli, B. Kolb, T. Thonhauser, and
     *   S. de Gironcoli, J. Phys.: Condens. Matter 24, 424209 (2012).
     *

     Carrying out vdW-DF run using the following parameters:

     Nqs =      20    Nr_points =    1024   r_max =   100.000
     q_mesh =
               0.00001000     0.04494208     0.09755937     0.15916263
               0.23128650     0.31572767     0.41458969     0.53033537
               0.66584808     0.82450364     1.01025438     1.22772762
               1.48234092     1.78043706     2.12944203     2.53805004
               3.01644009     3.57652955     4.23227104     5.00000000

     Gradients computed in reciprocal space

[...]

     Starting wfc are  150 randomized atomic wfcs

     Self-consistent Calculation

[...]

     total energy              =   -2812.87458282 Ry
     Harris-Foulkes estimate   =   -2812.87458227 Ry
     estimated scf accuracy    <       0.00000117 Ry

     iteration # 19     ecut=    36.75 Ry     beta=0.10
     Davidson diagonalization with overlap
     ethr =  5.75E-10,  avg # of iterations =  2.0

[...]

     negative rho (up, down):  3.338E-01 0.000E+00

     Adding external electric field

     Computed dipole along edir(3) :
        Dipole                0.0333 Ry au,          0.0846 Debye
        Dipole field          0.0001 Ry au

        Potential amp.       -0.0081 Ry
        Total length         45.4072 bohr

     End of self-consistent calculation

[...]

          k = 0.0605 0.0000 0.0000 ( 17694 PWs)   bands (ev):

[...]

          k =-0.0908-0.1464 0.0000 ( 17672 PWs)   bands (ev):

   -90.5482 -90.5482 -90.3719 -90.3719 -90.3121 -90.3121 -54.0571 -54.0571
   -54.0555 -54.0555 -54.0224 -54.0224 -53.9083 -53.9083 -53.8685 -53.8685
   -53.8536 -53.8535 -53.8155 -53.8155 -53.8110 -53.8110 -53.7519 -53.7519
   -45.0222 -45.0222 -44.7636 -44.7635 -44.6187 -44.6186 -44.5575 -44.5574
   -44.5222 -44.5222 -44.5215 -44.5215 -44.3868 -44.3867 -44.3484 -44.3483
   -44.2468 -44.2467  -3.8364  -3.8363  -3.7005  -3.7004  -3.5975  -3.5975
    -3.4931  -3.4931  -3.3116  -3.3115  -3.2331  -3.2330  -3.1614  -3.1612
    -2.9814  -2.9812  -2.8824  -2.8822  -2.8318  -2.8316  -2.7471  -2.7470
    -2.6997  -2.6996  -2.5545  -2.5544  -2.3953  -2.3952  -2.3082  -2.3081
    -2.2549  -2.2546  -1.6687  -1.6686  -1.4901  -1.4901  -1.1888  -1.1887
    -0.6737  -0.6737  -0.5470  -0.5470  -0.2376  -0.2375  -0.1631  -0.1631
    -0.0103  -0.0102   0.0308   0.0308   0.1312   0.1312   0.1933   0.1933
     0.2660   0.2660   0.5126   0.5126   0.9336   0.9336   1.0577   1.0577
     1.2657   1.2657   2.8353   2.8353   2.9874   2.9874   3.9100   3.9101
     5.1540   5.1541   5.9591   5.9591   6.9134   6.9134   7.5238   7.5238
     7.6519   7.6519   8.3064   8.3065   8.7728   8.7729   8.9224   8.9225
     9.2787   9.2787   9.6503   9.6503

     the Fermi energy is     1.2291 ev

!    total energy              =   -2812.87458328 Ry
     Harris-Foulkes estimate   =   -2812.87458272 Ry
     estimated scf accuracy    <       0.00000052 Ry

     The total energy is the sum of the following terms:

     one-electron contribution =  -22220.53636276 Ry
     hartree contribution      =   11127.96562806 Ry
     xc contribution           =    -366.57270648 Ry
     ewald contribution        =    8646.36491923 Ry
     electric field correction =       0.00000297 Ry
     smearing contrib. (-TS)   =      -0.09606430 Ry

     convergence has been achieved in  19 iterations

 BEEF-vdW xc energy contributions
           1 :   -318.504668797916
           2 :    290.380805028242
           3 :   -242.655376009524
           4 :    188.574799627662
           5 :   -140.783057177157
           6 :    107.000547379498
           7 :   -88.3609915986955
           8 :    80.6483447957997
           9 :   -77.4115128743479
          10 :    73.2590379762621
          11 :   -65.8482254695050
          12 :    55.9514285037990
          13 :   -46.0273850067155
          14 :    38.3573741593887
          15 :   -33.7949101529457
          16 :    31.6185113838471
          17 :   -30.2876489702335
          18 :    28.4644965322174
          19 :   -25.6778731613188
          20 :    22.3431376267362
          21 :   -19.2756417480964
          22 :    17.0878054330453
          23 :   -15.8461635479606
          24 :    15.1323484431958
          25 :   -14.3894330699391
          26 :    13.2890721422197
          27 :   -11.8951108227005
          28 :    10.5573924844163
          29 :   -9.64371179678909
          30 :    9.29678614056979
          31 :   -31.5594048016940
          32 :   -23.2752660991641

     Forces acting on atoms (Ry/au):

     negative rho (up, down):  3.338E-01 0.000E+00
     atom    1 type  1   force =    -0.00000736    0.01294071    0.01910392
     atom    2 type  1   force =    -0.00000737    0.01294259    0.01910221
     atom    3 type  2   force =     0.00000087   -0.00661505   -0.01774336
     atom    4 type  2   force =    -0.00000811   -0.00661466   -0.01774281
     atom    5 type  1   force =    -0.00001307   -0.01337101   -0.00366107
     atom    6 type  1   force =    -0.00001306   -0.01337218   -0.00365960
     atom    7 type  2   force =     0.00001540    0.00730885    0.00398506
     atom    8 type  2   force =     0.00002685    0.00730873    0.00398471
     atom    9 type  1   force =    -0.00000507   -0.00010409   -0.00082416
     atom   10 type  1   force =    -0.00000482   -0.00007467   -0.00082985
     atom   11 type  2   force =     0.00006347   -0.00017456   -0.00085777
     atom   12 type  2   force =    -0.00004773   -0.00017465   -0.00085728

     Total force =     0.048040     Total SCF correction =     0.001835

     entering subroutine stress ...

     negative rho (up, down):  3.338E-01 0.000E+00
          total   stress  (Ry/bohr**3)                   (kbar)     P=  -21.46
  -0.00017156  -0.00000001   0.00000001        -25.24     -0.00      0.00
  -0.00000001  -0.00017578  -0.00001053         -0.00    -25.86     -1.55
   0.00000001  -0.00001053  -0.00009039          0.00     -1.55    -13.30

 !ASE

     Writing output data file calc.save

     General routines

     Parallel routines

   This run was terminated on:   3:28:50  19Dec2018

   JOB DONE.
Job  /afs/slac/g/suncat/bin/suncat-tsmpirun -x LD_LIBRARY_PATH -wdir /scratch/qe530458_kgmzg pw.x -in pw.inp

TID   HOST_NAME   COMMAND_LINE            STATUS            TERMINATION_TIME
00000 suncat2058 pw.x -in pw.inp   Done                     12/19/2018 03:28:50
00001 suncat2058 pw.x -in pw.inp   Done                     12/19/2018 03:28:50
00002 suncat2058 pw.x -in pw.inp   Done                     12/19/2018 03:28:50
00003 suncat2058 pw.x -in pw.inp   Done                     12/19/2018 03:28:50
00004 suncat2058 pw.x -in pw.inp   Done                     12/19/2018 03:28:50
00005 suncat2058 pw.x -in pw.inp   Done                     12/19/2018 03:28:50
00006 suncat2058 pw.x -in pw.inp   Done                     12/19/2018 03:28:50
00007 suncat2058 pw.x -in pw.inp   Done                     12/19/2018 03:28:50
00008 suncat2058 pw.x -in pw.inp   Done                     12/19/2018 03:28:50
00009 suncat2058 pw.x -in pw.inp   Done                     12/19/2018 03:28:50
00010 suncat2058 pw.x -in pw.inp   Done                     12/19/2018 03:28:50
00011 suncat2058 pw.x -in pw.inp   Done                     12/19/2018 03:28:50
00012 suncat2058 pw.x -in pw.inp   Done                     12/19/2018 03:28:50
00013 suncat2058 pw.x -in pw.inp   Done                     12/19/2018 03:28:50
00014 suncat2058 pw.x -in pw.inp   Done                     12/19/2018 03:28:50
00015 suncat2058 pw.x -in pw.inp   Done                     12/19/2018 03:28:50
00016 suncat2057 pw.x -in pw.inp   Done                     12/19/2018 03:28:50
00017 suncat2057 pw.x -in pw.inp   Done                     12/19/2018 03:28:50
00018 suncat2057 pw.x -in pw.inp   Done                     12/19/2018 03:28:50
00019 suncat2057 pw.x -in pw.inp   Done                     12/19/2018 03:28:50
00020 suncat2057 pw.x -in pw.inp   Done                     12/19/2018 03:28:50
00021 suncat2057 pw.x -in pw.inp   Done                     12/19/2018 03:28:50
00022 suncat2057 pw.x -in pw.inp   Done                     12/19/2018 03:28:50
00023 suncat2057 pw.x -in pw.inp   Done                     12/19/2018 03:28:50
00024 suncat2057 pw.x -in pw.inp   Done                     12/19/2018 03:28:50
00025 suncat2057 pw.x -in pw.inp   Done                     12/19/2018 03:28:50
00026 suncat2057 pw.x -in pw.inp   Done                     12/19/2018 03:28:50
00027 suncat2057 pw.x -in pw.inp   Done                     12/19/2018 03:28:50
00028 suncat2057 pw.x -in pw.inp   Done                     12/19/2018 03:28:50
00029 suncat2057 pw.x -in pw.inp   Done                     12/19/2018 03:28:50
00030 suncat2057 pw.x -in pw.inp   Done                     12/19/2018 03:28:50
00031 suncat2057 pw.x -in pw.inp   Done                     12/19/2018 03:28:50