     Program PWSCF v.5.1rc2 (svn rev. 11289) starts on 29Dec2018 at  4:58:48

     Current dimensions of program PWSCF are:
     Max number of different atomic species (ntypx) = 10
     Max number of k-points (npk) =  40000
     Max angular momentum in pseudopotentials (lmaxx) =  3
     Presently stress not available with electric field

     IMPORTANT: XC functional enforced from input :
     Exchange-correlation      = BEEF-VDW ( 1  4 27 13 2)
     Any further DFT definition will be discarded
     Please, verify this is what you really want

     Subspace diagonalization in iterative solution of the eigenvalue problem:
     a serial algorithm will be used

     Found symmetry operation: I + ( -0.5000  0.0000  0.0000)
     This is a supercell, fractional translations are disabled

     bravais-lattice index     =            0
     lattice parameter (alat)  =       1.8897  a.u.
     unit-cell volume          =    4062.9648 (a.u.)^3
     number of atoms/cell      =           12
     number of atomic types    =            2
     number of electrons       =       204.00
     number of Kohn-Sham states=          132
     kinetic-energy cutoff     =      36.7493  Ry
     charge density cutoff     =     367.4932  Ry
     convergence threshold     =      1.0E-06
     mixing beta               =       0.1000
     number of iterations used =           10  plain     mixing
     Exchange-correlation      = BEEF-VDW ( 1  4 27 13 2)
     nstep                     =           50

     celldm(1)=   1.889726  celldm(2)=   0.000000  celldm(3)=   0.000000
     celldm(4)=   0.000000  celldm(5)=   0.000000  celldm(6)=   0.000000

     crystal axes: (cart. coord. in units of alat)
               a(1) = (   5.081374   0.000000   0.000000 )
               a(2) = (  -2.540687   4.868989   0.000000 )
               a(3) = (   0.000000   0.000000  24.334726 )

     reciprocal axes: (cart. coord. in units 2 pi/alat)
               b(1) = (  0.196797  0.102691  0.000000 )
               b(2) = (  0.000000  0.205381  0.000000 )
               b(3) = (  0.000000  0.000000  0.041094 )

     PseudoPot. # 1 for Cu read from file:
     /afs/slac.stanford.edu/u/if/mamunm/psp/gbrv1.5pbe/Cu.UPF
     MD5 check sum: 6e991ff952a84172a2a52a1c1e996048
     Pseudo is Ultrasoft + core correction, Zval = 19.0
     Generated by new atomic code, or converted to UPF format
     Using radial grid of  867 points,  6 beta functions with:
                l(1) =   0
                l(2) =   0
                l(3) =   1
                l(4) =   1
                l(5) =   2
                l(6) =   2
     Q(r) pseudized with  8 coefficients,  rinner =    1.150   1.150   1.150
                                                       1.150   1.150

     PseudoPot. # 2 for Tc read from file:
     /afs/slac.stanford.edu/u/if/mamunm/psp/gbrv1.5pbe/Tc.UPF
     MD5 check sum: 9eb49e5b028550b2339a02317eb7b844
     Pseudo is Ultrasoft + core correction, Zval = 15.0
     Generated by new atomic code, or converted to UPF format
     Using radial grid of  965 points,  6 beta functions with:
                l(1) =   0
                l(2) =   0
                l(3) =   1
                l(4) =   1
                l(5) =   2
                l(6) =   2
     Q(r) pseudized with  8 coefficients,  rinner =    1.300   1.300   1.300
                                                       1.300   1.300

     vdW kernel table read from file vdW_kernel_table
     MD5 check sum: 095c7af220d748ca6e76c0b4c6cfb241

     atomic species   valence    mass     pseudopotential
        Cu1           19.00    63.54600     Cu( 1.00)
        Tc1           15.00    97.90721     Tc( 1.00)

     No symmetry found

   Cartesian axes

     site n.     atom                  positions (alat units)
         1           Cu1 tau(   1) = (   0.0000000   0.0000000  10.0000000  )
         2           Cu1 tau(   2) = (   2.5406872   0.0000000  10.0000000  )
         3           Tc1 tau(   3) = (   1.2703436   2.4344945  10.0000000  )
         4           Tc1 tau(   4) = (  -1.2703436   2.4344945  10.0000000  )
         5           Cu1 tau(   5) = (   2.5406872   1.3257560  12.1673630  )
         6           Cu1 tau(   6) = (   0.0000000   1.3257560  12.1673630  )
         7           Tc1 tau(   7) = (  -1.2703436   3.7602506  12.1673630  )
         8           Tc1 tau(   8) = (   1.2703436   3.7602506  12.1673630  )
         9           Cu1 tau(   9) = (   0.0000000   2.6515121  14.3347261  )
        10           Cu1 tau(  10) = (   2.5406872   2.6515121  14.3347261  )
        11           Tc1 tau(  11) = (   3.8110309   0.2170176  14.3347261  )
        12           Tc1 tau(  12) = (   1.2703436   0.2170176  14.3347261  )

     number of k points=    20  Fermi-Dirac smearing, width (Ry)=  0.0110
                       cart. coord. in units 2pi/alat
        k(    1) = (   0.0000000   0.0000000   0.0000000), wk =   0.0555556
        k(    2) = (   0.0000000   0.0342302   0.0000000), wk =   0.1111111
        k(    3) = (   0.0000000   0.0684605   0.0000000), wk =   0.1111111
        k(    4) = (   0.0000000  -0.1026907   0.0000000), wk =   0.0555556
        k(    5) = (   0.0327995   0.0171151   0.0000000), wk =   0.1111111
        k(    6) = (   0.0327995   0.0513454   0.0000000), wk =   0.1111111
        k(    7) = (   0.0327995   0.0855756   0.0000000), wk =   0.1111111
        k(    8) = (   0.0327995  -0.0855756   0.0000000), wk =   0.1111111
        k(    9) = (   0.0327995  -0.0513454   0.0000000), wk =   0.1111111
        k(   10) = (   0.0327995  -0.0171151   0.0000000), wk =   0.1111111
        k(   11) = (   0.0655990   0.0342302   0.0000000), wk =   0.1111111
        k(   12) = (   0.0655990   0.0684605   0.0000000), wk =   0.1111111
        k(   13) = (   0.0655990   0.1026907   0.0000000), wk =   0.1111111
        k(   14) = (   0.0655990  -0.0684605   0.0000000), wk =   0.1111111
        k(   15) = (   0.0655990  -0.0342302   0.0000000), wk =   0.1111111
        k(   16) = (   0.0655990   0.0000000   0.0000000), wk =   0.1111111
        k(   17) = (  -0.0983986  -0.0513454   0.0000000), wk =   0.0555556
        k(   18) = (  -0.0983986  -0.0171151   0.0000000), wk =   0.1111111
        k(   19) = (  -0.0983986   0.0171151   0.0000000), wk =   0.1111111
        k(   20) = (  -0.0983986  -0.1540361   0.0000000), wk =   0.0555556

     Largest allocated arrays     est. size (Mb)     dimensions
     Largest temporary arrays     est. size (Mb)     dimensions

     Check: negative/imaginary core charge=   -0.000016    0.000000

     Initial potential from superposition of free atoms
     Check: negative starting charge=   -0.754114

     starting charge  191.99982, renormalised to  204.00000

     negative rho (up, down):  8.012E-01 0.000E+00

     *
     * You are using vdW-DF for exchange-correlation in this calculation.
     * Please cite the following three references that made this development
     * possible:
     *
     *   M. Dion, H. Rydberg, E. Schroder, D. C. Langreth, and
     *   B. I. Lundqvist, Phys. Rev. Lett. 92, 246401 (2004).
     *
     *   T. Thonhauser, V. R. Cooper, S. Li, A. Puzder, P. Hyldgaard, and
     *   D. C. Langreth, Phys. Rev. B 76, 125112 (2007).
     *
     *   G. Roman-Perez and J. M. Soler, Phys. Rev. Lett. 103, 096102 (2009).
     *
     *
     * If you are using vdW-DF2, please also cite:
     *
     *   K. Lee, E. D. Murray, L. Kong, B. I. Lundqvist, and
     *   D. C. Langreth, Phys. Rev. B 82, 081101(R) (2010).
     *
     *
     * If you are calculating the stress with vdW-DF, please also cite:
     *
     *   R. Sabatini, E. Kucukbenli, B. Kolb, T. Thonhauser, and
     *   S. de Gironcoli, J. Phys.: Condens. Matter 24, 424209 (2012).
     *

     Carrying out vdW-DF run using the following parameters:

     Nqs =      20    Nr_points =    1024   r_max =   100.000
     q_mesh =
               0.00001000     0.04494208     0.09755937     0.15916263
               0.23128650     0.31572767     0.41458969     0.53033537
               0.66584808     0.82450364     1.01025438     1.22772762
               1.48234092     1.78043706     2.12944203     2.53805004
               3.01644009     3.57652955     4.23227104     5.00000000

     Gradients computed in reciprocal space

     Adding external electric field

     Computed dipole along edir(3) :
        Dipole                0.0000 Ry au,          0.0000 Debye
        Dipole field          0.0000 Ry au

        Potential amp.       -0.0000 Ry
        Total length         44.8363 bohr

     Starting wfc are  156 randomized atomic wfcs

     Self-consistent Calculation

     iteration #  1     ecut=    36.75 Ry     beta=0.10
     Davidson diagonalization with overlap
     ethr =  1.00E-02,  avg # of iterations =  7.5

[...]

     total energy              =   -3436.09247297 Ry
     Harris-Foulkes estimate   =   -3497.23220470 Ry
     estimated scf accuracy    <     337.85971239 Ry

[...]

     iteration # 14     ecut=    36.75 Ry     beta=0.10
     Davidson diagonalization with overlap
     c_bands:  1 eigenvalues not converged
     c_bands:  1 eigenvalues not converged
     ethr =  2.23E-06,  avg # of iterations =  4.1

[...]

     End of self-consistent calculation

          k = 0.0000 0.0000 0.0000 ( 15269 PWs)   bands (ev):

  -111.5942-111.5892-111.2154-111.2154-111.2104-111.2104 -69.0142 -69.0016
   -68.9961 -68.9547 -68.9497 -68.9443 -68.6598 -68.6597 -68.6370 -68.6367
   -68.6317 -68.6314 -68.6003 -68.6003 -68.5392 -68.5382 -68.5339 -68.5330
   -66.1149 -65.9547 -65.6344 -65.6273 -65.4733 -65.4666 -38.6365 -38.4006
   -38.2477 -38.2428 -38.2378 -38.0879 -37.9444 -37.6267 -37.6134 -37.5947
   -37.4839 -37.4712 -37.4521 -37.4240 -37.3549 -37.2305 -37.0392 -37.0349
    -6.2255  -4.4572  -4.2153  -4.1304  -3.9975  -3.6174  -3.2167  -3.1843
    -3.0959  -3.0496  -3.0013  -2.9969  -2.8862  -2.8176  -2.5083  -2.1289
    -2.1065  -1.9906  -1.9247  -1.8986  -1.8676  -1.7133  -1.5201  -1.5115
    -1.4112  -1.3676  -1.3176  -1.2764  -1.2342  -1.0999  -0.9750  -0.9522
    -0.9502  -0.7291  -0.7101  -0.7022  -0.6531  -0.5048  -0.4720  -0.4409
    -0.3707  -0.0996   0.2808   0.2947   0.4258   0.5405   0.5927   0.5929
     0.6183   1.2608   1.4498   1.5755   1.8253   1.8575   2.1673   2.2707
     2.3296   2.5851   2.6365   2.7127   2.8662   2.9108   3.0676   3.1072
     3.3459   3.3817   3.7324   3.8228   4.1588   4.8053   4.9288   5.2813
     5.5318   5.5493   5.5607   5.9205   6.8013   7.3195   7.4772   7.5858
     7.7884   7.8267   8.5900   9.0958

[...]

          k =-0.0984-0.0513 0.0000 ( 15278 PWs)   bands (ev):

[...]

     the Fermi energy is     1.2954 ev

!    total energy              =   -3481.08034147 Ry
     Harris-Foulkes estimate   =   -3481.08033283 Ry
     estimated scf accuracy    <       0.00000040 Ry

     The total energy is the sum of the following terms:

     one-electron contribution =  -26968.33712201 Ry
     hartree contribution      =   13489.82799412 Ry
     xc contribution           =    -438.40380172 Ry
     ewald contribution        =   10435.89523648 Ry
     electric field correction =       0.00000000 Ry
     smearing contrib. (-TS)   =      -0.06264835 Ry

[...]
                                                       1.150   1.150

     PseudoPot. # 2 for Tc read from file:
     /afs/slac.stanford.edu/u/if/mamunm/psp/gbrv1.5pbe/Tc.UPF
     MD5 check sum: 9eb49e5b028550b2339a02317eb7b844
     Pseudo is Ultrasoft + core correction, Zval = 15.0
     Generated by new atomic code, or converted to UPF format
     Using radial grid of  965 points,  6 beta functions with:
                l(1) =   0
                l(2) =   0
                l(3) =   1
                l(4) =   1
                l(5) =   2
                l(6) =   2
     Q(r) pseudized with  8 coefficients,  rinner =    1.300   1.300   1.300
                                                       1.300   1.300

     vdW kernel table read from file vdW_kernel_table
     MD5 check sum: 095c7af220d748ca6e76c0b4c6cfb241

     atomic species   valence    mass     pseudopotential
        Cu1           19.00    63.54600     Cu( 1.00)
        Tc1           15.00    97.90721     Tc( 1.00)

     No symmetry found

   Cartesian axes

     site n.     atom                  positions (alat units)
         1           Cu1 tau(   1) = (   0.0000000   0.0000000  10.0000000  )
         2           Cu1 tau(   2) = (   2.5406872   0.0000000  10.0000000  )
         3           Tc1 tau(   3) = (   1.2703436   2.4344945  10.0000000  )
         4           Tc1 tau(   4) = (  -1.2703436   2.4344945  10.0000000  )
         5           Cu1 tau(   5) = (   2.5406872   1.3257560  12.1673630  )
         6           Cu1 tau(   6) = (   0.0000000   1.3257560  12.1673630  )
         7           Tc1 tau(   7) = (  -1.2703436   3.7602506  12.1673630  )
         8           Tc1 tau(   8) = (   1.2703436   3.7602506  12.1673630  )
         9           Cu1 tau(   9) = (  -0.0000268   2.6444423  14.3572101  )
        10           Cu1 tau(  10) = (   2.5406219   2.6444530  14.3572083  )
        11           Tc1 tau(  11) = (   3.8109656   0.2103034  14.2858983  )
        12           Tc1 tau(  12) = (   1.2702811   0.2103397  14.2859172  )

     number of k points=    20  Fermi-Dirac smearing, width (Ry)=  0.0110
                       cart. coord. in units 2pi/alat
        k(    1) = (   0.0000000   0.0000000   0.0000000), wk =   0.0555556
        k(    2) = (   0.0000000   0.0342302   0.0000000), wk =   0.1111111
        k(    3) = (   0.0000000   0.0684605   0.0000000), wk =   0.1111111
        k(    4) = (   0.0000000  -0.1026907   0.0000000), wk =   0.0555556
        k(    5) = (   0.0327995   0.0171151   0.0000000), wk =   0.1111111
        k(    6) = (   0.0327995   0.0513454   0.0000000), wk =   0.1111111
        k(    7) = (   0.0327995   0.0855756   0.0000000), wk =   0.1111111
        k(    8) = (   0.0327995  -0.0855756   0.0000000), wk =   0.1111111
        k(    9) = (   0.0327995  -0.0513454   0.0000000), wk =   0.1111111
        k(   10) = (   0.0327995  -0.0171151   0.0000000), wk =   0.1111111
        k(   11) = (   0.0655990   0.0342302   0.0000000), wk =   0.1111111
        k(   12) = (   0.0655990   0.0684605   0.0000000), wk =   0.1111111
        k(   13) = (   0.0655990   0.1026907   0.0000000), wk =   0.1111111
        k(   14) = (   0.0655990  -0.0684605   0.0000000), wk =   0.1111111
        k(   15) = (   0.0655990  -0.0342302   0.0000000), wk =   0.1111111
        k(   16) = (   0.0655990   0.0000000   0.0000000), wk =   0.1111111
        k(   17) = (  -0.0983986  -0.0513454   0.0000000), wk =   0.0555556
        k(   18) = (  -0.0983986  -0.0171151   0.0000000), wk =   0.1111111
        k(   19) = (  -0.0983986   0.0171151   0.0000000), wk =   0.1111111
        k(   20) = (  -0.0983986  -0.1540361   0.0000000), wk =   0.0555556

     Largest allocated arrays     est. size (Mb)     dimensions
     Largest temporary arrays     est. size (Mb)     dimensions

     Check: negative/imaginary core charge=   -0.000016    0.000000

     Initial potential from superposition of free atoms
     Check: negative starting charge=   -0.751165

     starting charge  191.99982, renormalised to  204.00000

[...]

     *
     * You are using vdW-DF for exchange-correlation in this calculation.
     * Please cite the following three references that made this development
     * possible:
     *
     *   M. Dion, H. Rydberg, E. Schroder, D. C. Langreth, and
     *   B. I. Lundqvist, Phys. Rev. Lett. 92, 246401 (2004).
     *
     *   T. Thonhauser, V. R. Cooper, S. Li, A. Puzder, P. Hyldgaard, and
     *   D. C. Langreth, Phys. Rev. B 76, 125112 (2007).
     *
     *   G. Roman-Perez and J. M. Soler, Phys. Rev. Lett. 103, 096102 (2009).
     *
     *
     * If you are using vdW-DF2, please also cite:
     *
     *   K. Lee, E. D. Murray, L. Kong, B. I. Lundqvist, and
     *   D. C. Langreth, Phys. Rev. B 82, 081101(R) (2010).
     *
     *
     * If you are calculating the stress with vdW-DF, please also cite:
     *
     *   R. Sabatini, E. Kucukbenli, B. Kolb, T. Thonhauser, and
     *   S. de Gironcoli, J. Phys.: Condens. Matter 24, 424209 (2012).
     *

     Carrying out vdW-DF run using the following parameters:

     Nqs =      20    Nr_points =    1024   r_max =   100.000
     q_mesh =
               0.00001000     0.04494208     0.09755937     0.15916263
               0.23128650     0.31572767     0.41458969     0.53033537
               0.66584808     0.82450364     1.01025438     1.22772762
               1.48234092     1.78043706     2.12944203     2.53805004
               3.01644009     3.57652955     4.23227104     5.00000000

     Gradients computed in reciprocal space

[...]

     Starting wfc are  156 randomized atomic wfcs

     Self-consistent Calculation

[...]

     iteration # 14     ecut=    36.75 Ry     beta=0.10
     Davidson diagonalization with overlap
     c_bands:  1 eigenvalues not converged
     c_bands:  1 eigenvalues not converged
     ethr =  2.34E-06,  avg # of iterations =  5.6

[...]

     total energy              =   -3481.08182825 Ry
     Harris-Foulkes estimate   =   -3481.08182693 Ry
     estimated scf accuracy    <       0.00000377 Ry

     iteration # 21     ecut=    36.75 Ry     beta=0.10
     Davidson diagonalization with overlap
     ethr =  1.85E-09,  avg # of iterations =  2.0

[...]

     negative rho (up, down):  7.837E-01 0.000E+00

     Adding external electric field

     Computed dipole along edir(3) :
        Dipole               -0.0039 Ry au,         -0.0098 Debye
        Dipole field         -0.0000 Ry au

        Potential amp.        0.0011 Ry
        Total length         44.8363 bohr

     End of self-consistent calculation

[...]

          k = 0.0656 0.0000 0.0000 ( 15219 PWs)   bands (ev):

[...]

          k =-0.0984-0.1540 0.0000 ( 15278 PWs)   bands (ev):

  -111.6168-111.6168-111.2201-111.2201-111.1952-111.1952 -69.0243 -69.0243
   -69.0103 -69.0103 -68.9711 -68.9711 -68.6414 -68.6414 -68.6371 -68.6371
   -68.6182 -68.6182 -68.6164 -68.6164 -68.5437 -68.5437 -68.5149 -68.5149
   -66.0463 -66.0463 -65.5711 -65.5710 -65.5491 -65.5490 -38.3750 -38.3749
   -38.0515 -38.0515 -38.0327 -38.0326 -37.6720 -37.6720 -37.6593 -37.6592
   -37.5719 -37.5719 -37.5509 -37.5509 -37.5354 -37.5354 -37.2806 -37.2806
    -4.5115  -4.5115  -3.2842  -3.2842  -3.1892  -3.1892  -2.7479  -2.7479
    -2.6404  -2.6404  -2.5040  -2.5040  -2.2176  -2.2176  -2.1637  -2.1637
    -2.0369  -2.0369  -1.7983  -1.7983  -1.7008  -1.7008  -1.4910  -1.4910
    -1.4378  -1.4378  -1.4056  -1.4056  -1.3775  -1.3775  -1.2744  -1.2744
    -1.1271  -1.1271  -1.0899  -1.0899  -0.9807  -0.9807  -0.4316  -0.4316
    -0.4129  -0.4129  -0.0092  -0.0092   0.3143   0.3144   0.3927   0.3927
     0.5446   0.5446   0.6094   0.6095   0.7033   0.7033   0.8304   0.8304
     0.9903   0.9903   1.8685   1.8685   2.1192   2.1192   2.3340   2.3340
     3.5226   3.5227   3.6649   3.6649   4.4961   4.4961   5.5982   5.5982
     6.4760   6.4760   7.0917   7.0917   7.5532   7.5533   7.6802   7.6803
     8.7967   8.7967   8.8280   8.8280

     the Fermi energy is     1.2851 ev

!    total energy              =   -3481.08183729 Ry
     Harris-Foulkes estimate   =   -3481.08182874 Ry
     estimated scf accuracy    <       0.00000047 Ry

     The total energy is the sum of the following terms:

     one-electron contribution =  -27000.19465721 Ry
     hartree contribution      =   13505.67403312 Ry
     xc contribution           =    -438.44500540 Ry
     ewald contribution        =   10451.94617994 Ry
     electric field correction =       0.00000005 Ry
     smearing contrib. (-TS)   =      -0.06238779 Ry

     convergence has been achieved in  21 iterations

 BEEF-vdW xc energy contributions
           1 :   -386.702484419619
           2 :    352.893760977768
           3 :   -294.353353283128
           4 :    225.262132974399
           5 :   -159.433581398089
           6 :    105.743987048383
           7 :   -66.4992032774144
           8 :    38.8876054223643
           9 :   -18.2551472037956
          10 :    1.15758088516532
          11 :    13.2554097982984
          12 :   -23.8343808981547
          13 :    29.1049358953496
          14 :   -28.7626888795792
          15 :    24.0864382192364
          16 :   -17.2646776842931
          17 :    10.2806899336057
          18 :   -4.17469468244263
          19 :  -0.931802688020980
          20 :    5.22960035601614
          21 :   -8.59809039687343
          22 :    10.4366844601952
          23 :   -10.0422389885614
          24 :    7.19664612324721
          25 :   -2.50181654920573
          26 :   -2.80396169821336
          27 :    7.42670138427752
          28 :   -10.6062338586261
          29 :    12.3277030461848
          30 :   -13.0544140821943
          31 :   -33.4113502439584
          32 :   -23.6476492225662

     Forces acting on atoms (Ry/au):

     negative rho (up, down):  7.837E-01 0.000E+00
     atom    1 type  1   force =    -0.00000034    0.00046819   -0.00509166
     atom    2 type  1   force =     0.00000303    0.00046764   -0.00509178
     atom    3 type  2   force =    -0.00002819    0.00046485    0.01031686
     atom    4 type  2   force =    -0.00002780    0.00046897    0.01031875
     atom    5 type  1   force =     0.00002722    0.00384432   -0.00387660
     atom    6 type  1   force =    -0.00000943    0.00384207   -0.00387720
     atom    7 type  2   force =    -0.00000588   -0.00352419   -0.00210427
     atom    8 type  2   force =    -0.00000618   -0.00353054   -0.00211579
     atom    9 type  1   force =    -0.00001096   -0.00026937    0.00068651
     atom   10 type  1   force =     0.00000123   -0.00027045    0.00068457
     atom   11 type  2   force =     0.00002829   -0.00097295    0.00007624
     atom   12 type  2   force =     0.00002901   -0.00098855    0.00007436

     Total force =     0.019028     Total SCF correction =     0.003207
     SCF correction compared to forces is large: reduce conv_thr to get better values

     entering subroutine stress ...

     negative rho (up, down):  7.837E-01 0.000E+00
          total   stress  (Ry/bohr**3)                   (kbar)     P=  -27.63
  -0.00027811  -0.00000000   0.00000001        -40.91     -0.00      0.00
  -0.00000000  -0.00021015  -0.00000261         -0.00    -30.91     -0.38
   0.00000001  -0.00000261  -0.00007515          0.00     -0.38    -11.05

 !ASE

     Writing output data file calc.save

     General routines

     Parallel routines

   This run was terminated on:   5:55: 6  29Dec2018

   JOB DONE.
Job  /afs/slac/g/suncat/bin/suncat-tsmpirun -x LD_LIBRARY_PATH -wdir /scratch/qe387671_e9X37 pw.x -in pw.inp

TID   HOST_NAME   COMMAND_LINE            STATUS            TERMINATION_TIME
00000 suncat0091 pw.x -in pw.inp   Done                     12/29/2018 05:55:06
00001 suncat0091 pw.x -in pw.inp   Done                     12/29/2018 05:55:06
00002 suncat0091 pw.x -in pw.inp   Done                     12/29/2018 05:55:06
00003 suncat0091 pw.x -in pw.inp   Done                     12/29/2018 05:55:06
00004 suncat0091 pw.x -in pw.inp   Done                     12/29/2018 05:55:06
00005 suncat0091 pw.x -in pw.inp   Done                     12/29/2018 05:55:06
00006 suncat0091 pw.x -in pw.inp   Done                     12/29/2018 05:55:06
00007 suncat0091 pw.x -in pw.inp   Done                     12/29/2018 05:55:06
00008 suncat0057 pw.x -in pw.inp   Done                     12/29/2018 05:55:06
00009 suncat0057 pw.x -in pw.inp   Done                     12/29/2018 05:55:06
00010 suncat0057 pw.x -in pw.inp   Done                     12/29/2018 05:55:06
00011 suncat0057 pw.x -in pw.inp   Done                     12/29/2018 05:55:06
00012 suncat0057 pw.x -in pw.inp   Done                     12/29/2018 05:55:06
00013 suncat0057 pw.x -in pw.inp   Done                     12/29/2018 05:55:06
00014 suncat0057 pw.x -in pw.inp   Done                     12/29/2018 05:55:06
00015 suncat0057 pw.x -in pw.inp   Done                     12/29/2018 05:55:06
00016 suncat0056 pw.x -in pw.inp   Done                     12/29/2018 05:55:06
00017 suncat0056 pw.x -in pw.inp   Done                     12/29/2018 05:55:06
00018 suncat0056 pw.x -in pw.inp   Done                     12/29/2018 05:55:06
00019 suncat0056 pw.x -in pw.inp   Done                     12/29/2018 05:55:06
00020 suncat0056 pw.x -in pw.inp   Done                     12/29/2018 05:55:06
00021 suncat0056 pw.x -in pw.inp   Done                     12/29/2018 05:55:06
00022 suncat0056 pw.x -in pw.inp   Done                     12/29/2018 05:55:06
00023 suncat0056 pw.x -in pw.inp   Done                     12/29/2018 05:55:06
00024 suncat0048 pw.x -in pw.inp   Done                     12/29/2018 05:55:06
00025 suncat0048 pw.x -in pw.inp   Done                     12/29/2018 05:55:06
00026 suncat0048 pw.x -in pw.inp   Done                     12/29/2018 05:55:06
00027 suncat0048 pw.x -in pw.inp   Done                     12/29/2018 05:55:06
00028 suncat0048 pw.x -in pw.inp   Done                     12/29/2018 05:55:06
00029 suncat0048 pw.x -in pw.inp   Done                     12/29/2018 05:55:06
00030 suncat0048 pw.x -in pw.inp   Done                     12/29/2018 05:55:06
00031 suncat0048 pw.x -in pw.inp   Done                     12/29/2018 05:55:06
00032 suncat0041 pw.x -in pw.inp   Done                     12/29/2018 05:55:06
00033 suncat0041 pw.x -in pw.inp   Done                     12/29/2018 05:55:06
00034 suncat0041 pw.x -in pw.inp   Done                     12/29/2018 05:55:06
00035 suncat0041 pw.x -in pw.inp   Done                     12/29/2018 05:55:06
00036 suncat0041 pw.x -in pw.inp   Done                     12/29/2018 05:55:06
00037 suncat0041 pw.x -in pw.inp   Done                     12/29/2018 05:55:06
00038 suncat0041 pw.x -in pw.inp   Done                     12/29/2018 05:55:06
00039 suncat0041 pw.x -in pw.inp   Done                     12/29/2018 05:55:06
00040 suncat0039 pw.x -in pw.inp   Done                     12/29/2018 05:55:06
00041 suncat0039 pw.x -in pw.inp   Done                     12/29/2018 05:55:06
00042 suncat0039 pw.x -in pw.inp   Done                     12/29/2018 05:55:06
00043 suncat0039 pw.x -in pw.inp   Done                     12/29/2018 05:55:06
00044 suncat0039 pw.x -in pw.inp   Done                     12/29/2018 05:55:06
00045 suncat0039 pw.x -in pw.inp   Done                     12/29/2018 05:55:06
00046 suncat0039 pw.x -in pw.inp   Done                     12/29/2018 05:55:06
00047 suncat0039 pw.x -in pw.inp   Done                     12/29/2018 05:55:06
00048 suncat0207 pw.x -in pw.inp   Done                     12/29/2018 05:55:06
00049 suncat0207 pw.x -in pw.inp   Done                     12/29/2018 05:55:06
00050 suncat0207 pw.x -in pw.inp   Done                     12/29/2018 05:55:06
00051 suncat0207 pw.x -in pw.inp   Done                     12/29/2018 05:55:06
00052 suncat0207 pw.x -in pw.inp   Done                     12/29/2018 05:55:06
00053 suncat0207 pw.x -in pw.inp   Done                     12/29/2018 05:55:06
00054 suncat0207 pw.x -in pw.inp   Done                     12/29/2018 05:55:06
00055 suncat0207 pw.x -in pw.inp   Done                     12/29/2018 05:55:06
00056 suncat0206 pw.x -in pw.inp   Done                     12/29/2018 05:55:06
00057 suncat0206 pw.x -in pw.inp   Done                     12/29/2018 05:55:06
00058 suncat0206 pw.x -in pw.inp   Done                     12/29/2018 05:55:06
00059 suncat0206 pw.x -in pw.inp   Done                     12/29/2018 05:55:06
00060 suncat0206 pw.x -in pw.inp   Done                     12/29/2018 05:55:06
00061 suncat0206 pw.x -in pw.inp   Done                     12/29/2018 05:55:06
00062 suncat0206 pw.x -in pw.inp   Done                     12/29/2018 05:55:06
00063 suncat0206 pw.x -in pw.inp   Done                     12/29/2018 05:55:06