     Program PWSCF v.5.1rc2 (svn rev. 11289) starts on 25Dec2018 at  4:41: 5

     Current dimensions of program PWSCF are:
     Max number of different atomic species (ntypx) = 10
     Max number of k-points (npk) =  40000
     Max angular momentum in pseudopotentials (lmaxx) =  3
     Presently stress not available with electric field

     IMPORTANT: XC functional enforced from input :
     Exchange-correlation      = BEEF-VDW ( 1  4 27 13 2)
     Any further DFT definition will be discarded
     Please, verify this is what you really want

     Subspace diagonalization in iterative solution of the eigenvalue problem:
     a serial algorithm will be used

     Found symmetry operation: I + ( -0.5000 -0.5000  0.0000)
     This is a supercell, fractional translations are disabled

     bravais-lattice index     =            0
     lattice parameter (alat)  =       1.8897  a.u.
     unit-cell volume          =    5128.3483 (a.u.)^3
     number of atoms/cell      =           12
     number of atomic types    =            2
     number of electrons       =       192.00
     number of Kohn-Sham states=          126
     kinetic-energy cutoff     =      36.7493  Ry
     charge density cutoff     =     367.4932  Ry
     convergence threshold     =      1.0E-06
     mixing beta               =       0.1000
     number of iterations used =           10  plain     mixing
     Exchange-correlation      = BEEF-VDW ( 1  4 27 13 2)
     nstep                     =           50

     celldm(1)=   1.889726  celldm(2)=   0.000000  celldm(3)=   0.000000
     celldm(4)=   0.000000  celldm(5)=   0.000000  celldm(6)=   0.000000

     crystal axes: (cart. coord. in units of alat)
               a(1) = (   5.716540   0.000000   0.000000 )
               a(2) = (   1.907033   5.389069   0.000000 )
               a(3) = (   0.000000   0.000000  24.668000 )

     reciprocal axes: (cart. coord. in units 2 pi/alat)
               b(1) = (  0.174931 -0.061903  0.000000 )
               b(2) = (  0.000000  0.185561  0.000000 )
               b(3) = (  0.000000  0.000000  0.040538 )

     PseudoPot. # 1 for Zn read from file:
     /afs/slac.stanford.edu/u/if/mamunm/psp/gbrv1.5pbe/Zn.UPF
     MD5 check sum: df62231357ef9e81f77b2b3087fa5675
     Pseudo is Ultrasoft, Zval = 20.0
     Generated by new atomic code, or converted to UPF format
     Using radial grid of  943 points,  6 beta functions with:
                l(1) =   0
                l(2) =   0
                l(3) =   1
                l(4) =   1
                l(5) =   2
                l(6) =   2
     Q(r) pseudized with  8 coefficients,  rinner =    1.100   1.100   1.100
                                                       1.100   1.100

     PseudoPot. # 2 for Hf read from file:
     /afs/slac.stanford.edu/u/if/mamunm/psp/gbrv1.5pbe/Hf.UPF
     MD5 check sum: 8ee9378dfe14276e333edf04c5e4aa26
     Pseudo is Ultrasoft + core correction, Zval = 12.0
     Generated by new atomic code, or converted to UPF format
     Using radial grid of  921 points,  8 beta functions with:
                l(1) =   0
                l(2) =   0
                l(3) =   0
                l(4) =   1
                l(5) =   1
                l(6) =   2
                l(7) =   2
                l(8) =   3
     Q(r) pseudized with  6 coefficients,  rinner =    1.200   1.200   1.200
                                                       1.200   1.200   1.200
                                                       1.200

     vdW kernel table read from file vdW_kernel_table
     MD5 check sum: 095c7af220d748ca6e76c0b4c6cfb241

     atomic species   valence    mass     pseudopotential
        Zn1           20.00    65.38000     Zn( 1.00)
        Hf1           12.00   178.49000     Hf( 1.00)

     No symmetry found

   Cartesian axes

     site n.     atom                  positions (alat units)
         1           Zn1 tau(   1) = (   0.0000000   0.0000000  10.0000000  )
         2           Zn1 tau(   2) = (   3.8117865   2.6945343  10.0000000  )
         3           Hf1 tau(   3) = (   2.8582702   0.0000000  10.0000000  )
         4           Hf1 tau(   4) = (   0.9535163   2.6945343  10.0000000  )
         5           Zn1 tau(   5) = (   5.7165403   4.0409960  12.3340000  )
         6           Zn1 tau(   6) = (   1.9047539   1.3464617  12.3340000  )
         7           Hf1 tau(   7) = (   2.8582702   4.0409960  12.3340000  )
         8           Hf1 tau(   8) = (   4.7630240   1.3464617  12.3340000  )
         9           Zn1 tau(   9) = (   3.8095077   2.6929234  14.6679999  )
        10           Zn1 tau(  10) = (   7.6212942   5.3874577  14.6679999  )
        11           Hf1 tau(  11) = (   6.6677779   2.6929234  14.6679999  )
        12           Hf1 tau(  12) = (   4.7630240   5.3874577  14.6679999  )

     number of k points=    20  Fermi-Dirac smearing, width (Ry)=  0.0110
                       cart. coord. in units 2pi/alat
        k(    1) = (   0.0000000   0.0000000   0.0000000), wk =   0.0555556
        k(    2) = (   0.0000000   0.0309268   0.0000000), wk =   0.1111111
        k(    3) = (   0.0000000   0.0618536   0.0000000), wk =   0.1111111
        k(    4) = (   0.0000000  -0.0927804   0.0000000), wk =   0.0555556
        k(    5) = (   0.0291552  -0.0103172   0.0000000), wk =   0.1111111
        k(    6) = (   0.0291552   0.0206097   0.0000000), wk =   0.1111111
        k(    7) = (   0.0291552   0.0515365   0.0000000), wk =   0.1111111
        k(    8) = (   0.0291552  -0.1030976   0.0000000), wk =   0.1111111
        k(    9) = (   0.0291552  -0.0721708   0.0000000), wk =   0.1111111
        k(   10) = (   0.0291552  -0.0412440   0.0000000), wk =   0.1111111
        k(   11) = (   0.0583103  -0.0206343   0.0000000), wk =   0.1111111
        k(   12) = (   0.0583103   0.0102925   0.0000000), wk =   0.1111111
        k(   13) = (   0.0583103   0.0412193   0.0000000), wk =   0.1111111
        k(   14) = (   0.0583103  -0.1134147   0.0000000), wk =   0.1111111
        k(   15) = (   0.0583103  -0.0824879   0.0000000), wk =   0.1111111
        k(   16) = (   0.0583103  -0.0515611   0.0000000), wk =   0.1111111
        k(   17) = (  -0.0874655   0.0309515   0.0000000), wk =   0.0555556
        k(   18) = (  -0.0874655   0.0618783   0.0000000), wk =   0.1111111
        k(   19) = (  -0.0874655   0.0928051   0.0000000), wk =   0.1111111
        k(   20) = (  -0.0874655  -0.0618290   0.0000000), wk =   0.0555556

     Largest allocated arrays     est. size (Mb)     dimensions
     Largest temporary arrays     est. size (Mb)     dimensions

     Check: negative/imaginary core charge=   -0.000003    0.000000

     Initial potential from superposition of free atoms
     Check: negative starting charge=   -0.644467

     starting charge  179.99914, renormalised to  192.00000

     negative rho (up, down):  6.874E-01 0.000E+00

     *
     * You are using vdW-DF for exchange-correlation in this calculation.
     * Please cite the following three references that made this development
     * possible:
     *
     *   M. Dion, H. Rydberg, E. Schroder, D. C. Langreth, and
     *   B. I. Lundqvist, Phys. Rev. Lett. 92, 246401 (2004).
     *
     *   T. Thonhauser, V. R. Cooper, S. Li, A. Puzder, P. Hyldgaard, and
     *   D. C. Langreth, Phys. Rev. B 76, 125112 (2007).
     *
     *   G. Roman-Perez and J. M. Soler, Phys. Rev. Lett. 103, 096102 (2009).
     *
     *
     * If you are using vdW-DF2, please also cite:
     *
     *   K. Lee, E. D. Murray, L. Kong, B. I. Lundqvist, and
     *   D. C. Langreth, Phys. Rev. B 82, 081101(R) (2010).
     *
     *
     * If you are calculating the stress with vdW-DF, please also cite:
     *
     *   R. Sabatini, E. Kucukbenli, B. Kolb, T. Thonhauser, and
     *   S. de Gironcoli, J. Phys.: Condens. Matter 24, 424209 (2012).
     *

     Carrying out vdW-DF run using the following parameters:

     Nqs =      20    Nr_points =    1024   r_max =   100.000
     q_mesh =
               0.00001000     0.04494208     0.09755937     0.15916263
               0.23128650     0.31572767     0.41458969     0.53033537
               0.66584808     0.82450364     1.01025438     1.22772762
               1.48234092     1.78043706     2.12944203     2.53805004
               3.01644009     3.57652955     4.23227104     5.00000000

     Gradients computed in reciprocal space

     Adding external electric field

     Computed dipole along edir(3) :
        Dipole               -0.0000 Ry au,         -0.0000 Debye
        Dipole field         -0.0000 Ry au

        Potential amp.        0.0000 Ry
        Total length         45.4504 bohr

     Starting wfc are  156 randomized atomic wfcs

     Self-consistent Calculation

     iteration #  1     ecut=    36.75 Ry     beta=0.10
     Davidson diagonalization with overlap
     ethr =  1.00E-02,  avg # of iterations =  7.3

[...]

     total energy              =   -3651.11572354 Ry
     Harris-Foulkes estimate   =   -3806.62706617 Ry
     estimated scf accuracy    <     858.85013594 Ry

[...]

     End of self-consistent calculation

          k = 0.0000 0.0000 0.0000 ( 19281 PWs)   bands (ev):

  -125.2536-125.2535-125.1091-125.1090-125.1082-125.1082 -79.4253 -79.4250
   -79.4164 -79.4156 -79.4153 -79.4152 -79.2890 -79.2888 -79.2882 -79.2880
   -79.2714 -79.2712 -79.2706 -79.2704 -79.2689 -79.2680 -79.2680 -79.2672
   -61.8590 -61.8586 -61.8481 -61.8477 -61.3272 -61.3159 -30.4873 -30.4797
   -30.4680 -30.4492 -30.3722 -30.3575 -30.3561 -30.3547 -30.3530 -30.3338
   -30.0895 -30.0887 -30.0253 -29.8665 -29.8386 -29.8354 -29.7947 -29.7427
    -7.0061  -6.4137  -6.3884  -6.3804  -6.3685  -6.3148  -6.2641  -6.2378
    -6.2215  -6.2089  -6.2078  -6.1882  -6.1871  -6.1636  -6.1613  -6.1401
    -6.0877  -6.0718  -6.0678  -6.0349  -6.0317  -6.0133  -6.0133  -6.0018
    -5.9925  -5.9247  -5.9031  -5.8768  -5.8733  -5.8464  -5.7931  -5.0316
    -3.4211  -3.2491  -2.8409  -2.7233  -0.9426  -0.7607  -0.6496   0.0026
     0.1576   0.3654   0.4216   0.4539   0.8370   0.8886   0.8970   1.5260
     1.6111   1.6179   1.6841   1.6916   1.7066   1.9653   2.3920   2.6622
     2.6898   3.0592   3.2956   3.4471   3.4824   3.5285   3.7730   3.8713
     3.9649   4.2221   4.5512   4.5540   4.6610   4.6780   4.6790   4.9184
     5.2293   5.9810   5.9889   6.0591   6.4469   6.5591

[...]

          k =-0.0875 0.0310 0.0000 ( 19300 PWs)   bands (ev):

[...]

     the Fermi energy is     1.1730 ev

!    total energy              =   -3739.98250592 Ry
     Harris-Foulkes estimate   =   -3739.98250204 Ry
     estimated scf accuracy    <       0.00000026 Ry

     The total energy is the sum of the following terms:

     one-electron contribution =  -19821.35451866 Ry
     hartree contribution      =    9894.44768716 Ry
     xc contribution           =    -724.41382526 Ry
     ewald contribution        =    6911.40218959 Ry
     electric field correction =       0.00000000 Ry
     smearing contrib. (-TS)   =      -0.06403875 Ry

     convergence has been achieved in  20 iterations

 BEEF-vdW xc energy contributions
           1 :   -651.156672051054
           2 :    600.202322753194
           3 :   -511.724300046071
[...]
                l(2) =   0
                l(3) =   1
                l(4) =   1
                l(5) =   2
                l(6) =   2
     Q(r) pseudized with  8 coefficients,  rinner =    1.100   1.100   1.100
                                                       1.100   1.100

     PseudoPot. # 2 for Hf read from file:
     /afs/slac.stanford.edu/u/if/mamunm/psp/gbrv1.5pbe/Hf.UPF
     MD5 check sum: 8ee9378dfe14276e333edf04c5e4aa26
     Pseudo is Ultrasoft + core correction, Zval = 12.0
     Generated by new atomic code, or converted to UPF format
     Using radial grid of  921 points,  8 beta functions with:
                l(1) =   0
                l(2) =   0
                l(3) =   0
                l(4) =   1
                l(5) =   1
                l(6) =   2
                l(7) =   2
                l(8) =   3
     Q(r) pseudized with  6 coefficients,  rinner =    1.200   1.200   1.200
                                                       1.200   1.200   1.200
                                                       1.200

     vdW kernel table read from file vdW_kernel_table
     MD5 check sum: 095c7af220d748ca6e76c0b4c6cfb241

     atomic species   valence    mass     pseudopotential
        Zn1           20.00    65.38000     Zn( 1.00)
        Hf1           12.00   178.49000     Hf( 1.00)

     No symmetry found

   Cartesian axes

     site n.     atom                  positions (alat units)
         1           Zn1 tau(   1) = (   0.0000000   0.0000000  10.0000000  )
         2           Zn1 tau(   2) = (   3.8117865   2.6945343  10.0000000  )
         3           Hf1 tau(   3) = (   2.8582702   0.0000000  10.0000000  )
         4           Hf1 tau(   4) = (   0.9535163   2.6945343  10.0000000  )
         5           Zn1 tau(   5) = (   5.7165403   4.0409960  12.3340000  )
         6           Zn1 tau(   6) = (   1.9047539   1.3464617  12.3340000  )
         7           Hf1 tau(   7) = (   2.8582702   4.0409960  12.3340000  )
         8           Hf1 tau(   8) = (   4.7630240   1.3464617  12.3340000  )
         9           Zn1 tau(   9) = (   3.8097746   2.6931190  14.8371445  )
        10           Zn1 tau(  10) = (   7.6215690   5.3876472  14.8371460  )
        11           Hf1 tau(  11) = (   6.6679871   2.6930684  14.5839329  )
        12           Hf1 tau(  12) = (   4.7632432   5.3876148  14.5839285  )

     number of k points=    20  Fermi-Dirac smearing, width (Ry)=  0.0110
                       cart. coord. in units 2pi/alat
        k(    1) = (   0.0000000   0.0000000   0.0000000), wk =   0.0555556
        k(    2) = (   0.0000000   0.0309268   0.0000000), wk =   0.1111111
        k(    3) = (   0.0000000   0.0618536   0.0000000), wk =   0.1111111
        k(    4) = (   0.0000000  -0.0927804   0.0000000), wk =   0.0555556
        k(    5) = (   0.0291552  -0.0103172   0.0000000), wk =   0.1111111
        k(    6) = (   0.0291552   0.0206097   0.0000000), wk =   0.1111111
        k(    7) = (   0.0291552   0.0515365   0.0000000), wk =   0.1111111
        k(    8) = (   0.0291552  -0.1030976   0.0000000), wk =   0.1111111
        k(    9) = (   0.0291552  -0.0721708   0.0000000), wk =   0.1111111
        k(   10) = (   0.0291552  -0.0412440   0.0000000), wk =   0.1111111
        k(   11) = (   0.0583103  -0.0206343   0.0000000), wk =   0.1111111
        k(   12) = (   0.0583103   0.0102925   0.0000000), wk =   0.1111111
        k(   13) = (   0.0583103   0.0412193   0.0000000), wk =   0.1111111
        k(   14) = (   0.0583103  -0.1134147   0.0000000), wk =   0.1111111
        k(   15) = (   0.0583103  -0.0824879   0.0000000), wk =   0.1111111
        k(   16) = (   0.0583103  -0.0515611   0.0000000), wk =   0.1111111
        k(   17) = (  -0.0874655   0.0309515   0.0000000), wk =   0.0555556
        k(   18) = (  -0.0874655   0.0618783   0.0000000), wk =   0.1111111
        k(   19) = (  -0.0874655   0.0928051   0.0000000), wk =   0.1111111
        k(   20) = (  -0.0874655  -0.0618290   0.0000000), wk =   0.0555556

     Largest allocated arrays     est. size (Mb)     dimensions
     Largest temporary arrays     est. size (Mb)     dimensions

     Check: negative/imaginary core charge=   -0.000003    0.000000

     Initial potential from superposition of free atoms
     Check: negative starting charge=   -0.644349

     starting charge  179.99914, renormalised to  192.00000

[...]

     *
     * You are using vdW-DF for exchange-correlation in this calculation.
     * Please cite the following three references that made this development
     * possible:
     *
     *   M. Dion, H. Rydberg, E. Schroder, D. C. Langreth, and
     *   B. I. Lundqvist, Phys. Rev. Lett. 92, 246401 (2004).
     *
     *   T. Thonhauser, V. R. Cooper, S. Li, A. Puzder, P. Hyldgaard, and
     *   D. C. Langreth, Phys. Rev. B 76, 125112 (2007).
     *
     *   G. Roman-Perez and J. M. Soler, Phys. Rev. Lett. 103, 096102 (2009).
     *
     *
     * If you are using vdW-DF2, please also cite:
     *
     *   K. Lee, E. D. Murray, L. Kong, B. I. Lundqvist, and
     *   D. C. Langreth, Phys. Rev. B 82, 081101(R) (2010).
     *
     *
     * If you are calculating the stress with vdW-DF, please also cite:
     *
     *   R. Sabatini, E. Kucukbenli, B. Kolb, T. Thonhauser, and
     *   S. de Gironcoli, J. Phys.: Condens. Matter 24, 424209 (2012).
     *

     Carrying out vdW-DF run using the following parameters:

     Nqs =      20    Nr_points =    1024   r_max =   100.000
     q_mesh =
               0.00001000     0.04494208     0.09755937     0.15916263
               0.23128650     0.31572767     0.41458969     0.53033537
               0.66584808     0.82450364     1.01025438     1.22772762
               1.48234092     1.78043706     2.12944203     2.53805004
               3.01644009     3.57652955     4.23227104     5.00000000

     Gradients computed in reciprocal space

[...]

     Starting wfc are  156 randomized atomic wfcs

     Self-consistent Calculation

[...]

     total energy              =   -3739.98940066 Ry
     Harris-Foulkes estimate   =   -3739.98939933 Ry
     estimated scf accuracy    <       0.00000262 Ry

     iteration # 21     ecut=    36.75 Ry     beta=0.10
     Davidson diagonalization with overlap
     ethr =  1.36E-09,  avg # of iterations =  2.0

[...]

     negative rho (up, down):  6.844E-01 0.000E+00

     Adding external electric field

     Computed dipole along edir(3) :
        Dipole               -0.0565 Ry au,         -0.1436 Debye
        Dipole field         -0.0001 Ry au

        Potential amp.        0.0126 Ry
        Total length         45.4504 bohr

     End of self-consistent calculation

[...]

          k = 0.0583-0.0516 0.0000 ( 19303 PWs)   bands (ev):

[...]

          k =-0.0875-0.0618 0.0000 ( 19198 PWs)   bands (ev):

  -125.3334-125.3334-125.1740-125.1739-125.0774-125.0774 -79.4997 -79.4996
   -79.4979 -79.4978 -79.4970 -79.4959 -79.3534 -79.3533 -79.3361 -79.3360
   -79.3345 -79.3334 -79.2611 -79.2610 -79.2445 -79.2434 -79.2350 -79.2349
   -61.9238 -61.9132 -61.8000 -61.7894 -61.4006 -61.3892 -30.5578 -30.5253
   -30.4418 -30.4297 -30.4214 -30.4024 -30.3951 -30.3366 -30.3251 -30.2980
   -30.1517 -30.0940 -30.0527 -29.9272 -29.8961 -29.8852 -29.8712 -29.8156
    -6.4085  -6.3772  -6.3061  -6.3043  -6.2861  -6.2857  -6.2763  -6.2214
    -6.1940  -6.1779  -6.1522  -6.1440  -6.1322  -6.1054  -6.0990  -6.0877
    -6.0628  -6.0501  -6.0223  -6.0090  -6.0057  -5.9969  -5.9834  -5.9759
    -5.9752  -5.9385  -5.9005  -5.8850  -5.8673  -5.8109  -4.8837  -4.8417
    -3.3392  -3.2849  -3.2313  -3.1162  -2.5867  -1.6299  -1.3665  -1.1984
    -1.1879  -0.9957  -0.7221  -0.0333   0.0147   0.4786   0.6533   0.6975
     1.0356   1.3836   1.8137   1.9945   2.0384   2.3465   2.4005   2.4675
     2.4818   2.5567   2.7617   3.0426   3.1786   3.6285   3.9774   4.1409
     4.5662   4.8631   4.8771   4.9469   4.9738   5.3976   5.7185   5.7425
     6.1272   6.2503   6.3288   6.4390   6.6542   6.6912

     the Fermi energy is     1.1027 ev

!    total energy              =   -3739.98940472 Ry
     Harris-Foulkes estimate   =   -3739.98940143 Ry
     estimated scf accuracy    <       0.00000079 Ry

     The total energy is the sum of the following terms:

     one-electron contribution =  -19633.13885094 Ry
     hartree contribution      =    9800.10790754 Ry
     xc contribution           =    -724.41665849 Ry
     ewald contribution        =    6817.52354956 Ry
     electric field correction =       0.00000783 Ry
     smearing contrib. (-TS)   =      -0.06536022 Ry

     convergence has been achieved in  21 iterations

 BEEF-vdW xc energy contributions
           1 :   -651.156393305142
           2 :    600.184444351651
           3 :   -511.681314403167
           4 :    406.707477853730
           5 :   -305.735585329210
           6 :    222.059140165734
           7 :   -159.632047845099
           8 :    115.344899392395
           9 :   -83.5455565695553
          10 :    59.8787560388547
          11 :   -42.6272260366749
          12 :    31.5791980882829
          13 :   -25.9851374419859
          14 :    23.4013152089118
          15 :   -20.2990054327809
          16 :    13.8870654854755
          17 :   -3.74931412105332
          18 :   -7.92031232265833
          19 :    17.6475785618193
          20 :   -22.6802478558587
          21 :    22.3816568201672
          22 :   -18.2588897498210
          23 :    12.8113117667720
          24 :   -8.10885787976406
          25 :    5.01457762237681
          26 :   -3.38124067890760
          27 :    2.81880512277166
          28 :   -3.30491503974451
          29 :    5.15452465039152
          30 :   -8.45630572984498
          31 :   -47.9628058120137
          32 :   -33.8682125060692

     Forces acting on atoms (Ry/au):

     negative rho (up, down):  6.844E-01 0.000E+00
     atom    1 type  1   force =     0.00001080    0.00000498   -0.01276109
     atom    2 type  1   force =     0.00000828    0.00000824   -0.01276159
     atom    3 type  2   force =    -0.00003127   -0.00002229    0.01340029
     atom    4 type  2   force =    -0.00003199   -0.00002278    0.01340040
     atom    5 type  1   force =     0.00000152   -0.00000028   -0.00808749
     atom    6 type  1   force =     0.00000038    0.00000185   -0.00808798
     atom    7 type  2   force =    -0.00001285   -0.00000917    0.00789466
     atom    8 type  2   force =    -0.00001266   -0.00000938    0.00789395
     atom    9 type  1   force =    -0.00000670   -0.00000308    0.00106089
     atom   10 type  1   force =    -0.00000629   -0.00000501    0.00106351
     atom   11 type  2   force =     0.00004068    0.00002942   -0.00150797
     atom   12 type  2   force =     0.00004012    0.00002753   -0.00150757

     Total force =     0.030775     Total SCF correction =     0.005207
     SCF correction compared to forces is large: reduce conv_thr to get better values

     entering subroutine stress ...

     negative rho (up, down):  6.844E-01 0.000E+00
          total   stress  (Ry/bohr**3)                   (kbar)     P=  -12.99
  -0.00011083   0.00000364   0.00000010        -16.30      0.54      0.01
   0.00000364  -0.00011341   0.00000007          0.54    -16.68      0.01
   0.00000010   0.00000007  -0.00004069          0.01      0.01     -5.99

 !ASE

     Writing output data file calc.save

     General routines

     Parallel routines

   This run was terminated on:   7:37:16  25Dec2018

   JOB DONE.
Job  /afs/slac/g/suncat/bin/suncat-tsmpirun -x LD_LIBRARY_PATH -wdir /scratch/qe109210_p4d8H pw.x -in pw.inp

TID   HOST_NAME   COMMAND_LINE            STATUS            TERMINATION_TIME
00000 suncat0073 pw.x -in pw.inp   Done                     12/25/2018 07:37:16
00001 suncat0073 pw.x -in pw.inp   Done                     12/25/2018 07:37:16
00002 suncat0073 pw.x -in pw.inp   Done                     12/25/2018 07:37:16
00003 suncat0073 pw.x -in pw.inp   Done                     12/25/2018 07:37:16
00004 suncat0073 pw.x -in pw.inp   Done                     12/25/2018 07:37:16
00005 suncat0073 pw.x -in pw.inp   Done                     12/25/2018 07:37:16
00006 suncat0073 pw.x -in pw.inp   Done                     12/25/2018 07:37:16
00007 suncat0073 pw.x -in pw.inp   Done                     12/25/2018 07:37:16
00008 suncat0072 pw.x -in pw.inp   Done                     12/25/2018 07:37:16
00009 suncat0072 pw.x -in pw.inp   Done                     12/25/2018 07:37:16
00010 suncat0072 pw.x -in pw.inp   Done                     12/25/2018 07:37:16
00011 suncat0072 pw.x -in pw.inp   Done                     12/25/2018 07:37:16
00012 suncat0072 pw.x -in pw.inp   Done                     12/25/2018 07:37:16
00013 suncat0072 pw.x -in pw.inp   Done                     12/25/2018 07:37:16
00014 suncat0072 pw.x -in pw.inp   Done                     12/25/2018 07:37:16
00015 suncat0072 pw.x -in pw.inp   Done                     12/25/2018 07:37:16
00016 suncat0008 pw.x -in pw.inp   Done                     12/25/2018 07:37:16
00017 suncat0008 pw.x -in pw.inp   Done                     12/25/2018 07:37:16
00018 suncat0008 pw.x -in pw.inp   Done                     12/25/2018 07:37:16
00019 suncat0008 pw.x -in pw.inp   Done                     12/25/2018 07:37:16
00020 suncat0008 pw.x -in pw.inp   Done                     12/25/2018 07:37:16
00021 suncat0008 pw.x -in pw.inp   Done                     12/25/2018 07:37:16
00022 suncat0008 pw.x -in pw.inp   Done                     12/25/2018 07:37:16
00023 suncat0008 pw.x -in pw.inp   Done                     12/25/2018 07:37:16
00024 suncat0184 pw.x -in pw.inp   Done                     12/25/2018 07:37:16
00025 suncat0184 pw.x -in pw.inp   Done                     12/25/2018 07:37:16
00026 suncat0184 pw.x -in pw.inp   Done                     12/25/2018 07:37:16
00027 suncat0184 pw.x -in pw.inp   Done                     12/25/2018 07:37:16
00028 suncat0184 pw.x -in pw.inp   Done                     12/25/2018 07:37:16
00029 suncat0184 pw.x -in pw.inp   Done                     12/25/2018 07:37:16
00030 suncat0184 pw.x -in pw.inp   Done                     12/25/2018 07:37:16
00031 suncat0184 pw.x -in pw.inp   Done                     12/25/2018 07:37:16
00032 suncat0256 pw.x -in pw.inp   Done                     12/25/2018 07:37:16
00033 suncat0256 pw.x -in pw.inp   Done                     12/25/2018 07:37:16
00034 suncat0256 pw.x -in pw.inp   Done                     12/25/2018 07:37:16
00035 suncat0256 pw.x -in pw.inp   Done                     12/25/2018 07:37:16
00036 suncat0256 pw.x -in pw.inp   Done                     12/25/2018 07:37:16
00037 suncat0256 pw.x -in pw.inp   Done                     12/25/2018 07:37:16
00038 suncat0256 pw.x -in pw.inp   Done                     12/25/2018 07:37:16
00039 suncat0256 pw.x -in pw.inp   Done                     12/25/2018 07:37:16
00040 suncat0255 pw.x -in pw.inp   Done                     12/25/2018 07:37:16
00041 suncat0255 pw.x -in pw.inp   Done                     12/25/2018 07:37:16
00042 suncat0255 pw.x -in pw.inp   Done                     12/25/2018 07:37:16
00043 suncat0255 pw.x -in pw.inp   Done                     12/25/2018 07:37:16
00044 suncat0255 pw.x -in pw.inp   Done                     12/25/2018 07:37:16
00045 suncat0255 pw.x -in pw.inp   Done                     12/25/2018 07:37:16
00046 suncat0255 pw.x -in pw.inp   Done                     12/25/2018 07:37:16
00047 suncat0255 pw.x -in pw.inp   Done                     12/25/2018 07:37:16
00048 suncat0222 pw.x -in pw.inp   Done                     12/25/2018 07:37:16
00049 suncat0222 pw.x -in pw.inp   Done                     12/25/2018 07:37:16
00050 suncat0222 pw.x -in pw.inp   Done                     12/25/2018 07:37:16
00051 suncat0222 pw.x -in pw.inp   Done                     12/25/2018 07:37:16
00052 suncat0222 pw.x -in pw.inp   Done                     12/25/2018 07:37:16
00053 suncat0222 pw.x -in pw.inp   Done                     12/25/2018 07:37:16
00054 suncat0222 pw.x -in pw.inp   Done                     12/25/2018 07:37:16
00055 suncat0222 pw.x -in pw.inp   Done                     12/25/2018 07:37:16
00056 suncat0221 pw.x -in pw.inp   Done                     12/25/2018 07:37:16
00057 suncat0221 pw.x -in pw.inp   Done                     12/25/2018 07:37:16
00058 suncat0221 pw.x -in pw.inp   Done                     12/25/2018 07:37:16
00059 suncat0221 pw.x -in pw.inp   Done                     12/25/2018 07:37:16
00060 suncat0221 pw.x -in pw.inp   Done                     12/25/2018 07:37:16
00061 suncat0221 pw.x -in pw.inp   Done                     12/25/2018 07:37:16
00062 suncat0221 pw.x -in pw.inp   Done                     12/25/2018 07:37:16
00063 suncat0221 pw.x -in pw.inp   Done                     12/25/2018 07:37:16