     Program PWSCF v.5.1rc2 (svn rev. 11289) starts on 24Dec2018 at 23:34:36

     Current dimensions of program PWSCF are:
     Max number of different atomic species (ntypx) = 10
     Max number of k-points (npk) =  40000
     Max angular momentum in pseudopotentials (lmaxx) =  3
     Presently stress not available with electric field

     IMPORTANT: XC functional enforced from input :
     Exchange-correlation      = BEEF-VDW ( 1  4 27 13 2)
     Any further DFT definition will be discarded
     Please, verify this is what you really want

     Subspace diagonalization in iterative solution of the eigenvalue problem:
     a serial algorithm will be used

     Found symmetry operation: I + ( -0.5000 -0.5000  0.0000)
     This is a supercell, fractional translations are disabled

     bravais-lattice index     =            0
     lattice parameter (alat)  =       1.8897  a.u.
     unit-cell volume          =    7294.5154 (a.u.)^3
     number of atoms/cell      =           12
     number of atomic types    =            2
     number of electrons       =       180.00
     number of Kohn-Sham states=          120
     kinetic-energy cutoff     =      36.7493  Ry
     charge density cutoff     =     367.4932  Ry
     convergence threshold     =      1.0E-06
     mixing beta               =       0.1000
     number of iterations used =           10  plain     mixing
     Exchange-correlation      = BEEF-VDW ( 1  4 27 13 2)
     nstep                     =           50

     celldm(1)=   1.889726  celldm(2)=   0.000000  celldm(3)=   0.000000
     celldm(4)=   0.000000  celldm(5)=   0.000000  celldm(6)=   0.000000

     crystal axes: (cart. coord. in units of alat)
               a(1) = (   6.706325   0.000000   0.000000 )
               a(2) = (   2.220564   6.328024   0.000000 )
               a(3) = (   0.000000   0.000000  25.471066 )

     reciprocal axes: (cart. coord. in units 2 pi/alat)
               b(1) = (  0.149113 -0.052325  0.000000 )
               b(2) = (  0.000000  0.158027  0.000000 )
               b(3) = (  0.000000  0.000000  0.039260 )

     PseudoPot. # 1 for La read from file:
     /afs/slac.stanford.edu/u/if/mamunm/psp/gbrv1.5pbe/La.UPF
     MD5 check sum: 5937b0c7494ba0601a847275249473aa
     Pseudo is Ultrasoft + core correction, Zval = 11.0
     Generated by new atomic code, or converted to UPF format
     Using radial grid of  995 points,  8 beta functions with:
                l(1) =   0
                l(2) =   0
                l(3) =   1
                l(4) =   1
                l(5) =   2
                l(6) =   2
                l(7) =   3
                l(8) =   3
     Q(r) pseudized with  8 coefficients,  rinner =    1.700   1.700   1.700
                                                       1.700   1.700   1.700
                                                       1.700

     PseudoPot. # 2 for Ag read from file:
     /afs/slac.stanford.edu/u/if/mamunm/psp/gbrv1.5pbe/Ag.UPF
     MD5 check sum: d66d668201baa78d5eb5b04ef7011058
     Pseudo is Ultrasoft + core correction, Zval = 19.0
     Generated by new atomic code, or converted to UPF format
     Using radial grid of  887 points,  6 beta functions with:
                l(1) =   0
                l(2) =   0
                l(3) =   1
                l(4) =   1
                l(5) =   2
                l(6) =   2
     Q(r) pseudized with  6 coefficients,  rinner =    1.300   1.300   1.300
                                                       1.300   1.300

     vdW kernel table read from file vdW_kernel_table
     MD5 check sum: 095c7af220d748ca6e76c0b4c6cfb241

     atomic species   valence    mass     pseudopotential
        La1           11.00   138.90547     La( 1.00)
        Ag1           19.00   107.86820     Ag( 1.00)

     No symmetry found

   Cartesian axes

     site n.     atom                  positions (alat units)
         1           La1 tau(   1) = (   0.0000000   0.0000000  10.0000000  )
         2           La1 tau(   2) = (   4.4634447   3.1640121  10.0000000  )
         3           Ag1 tau(   3) = (   3.3531625   0.0000000  10.0000000  )
         4           Ag1 tau(   4) = (   1.1102822   3.1640121  10.0000000  )
         5           La1 tau(   5) = (   6.7063250   4.7539277  12.7355330  )
         6           La1 tau(   6) = (   2.2428804   1.5899156  12.7355330  )
         7           Ag1 tau(   7) = (   3.3531625   4.7539277  12.7355330  )
         8           Ag1 tau(   8) = (   5.5960429   1.5899156  12.7355330  )
         9           La1 tau(   9) = (   4.4857607   3.1798313  15.4710659  )
        10           La1 tau(  10) = (   0.0223160   0.0158192  15.4710659  )
        11           Ag1 tau(  11) = (   1.1325982   3.1798313  15.4710659  )
        12           Ag1 tau(  12) = (   3.3754785   0.0158192  15.4710659  )

     number of k points=    20  Fermi-Dirac smearing, width (Ry)=  0.0110
                       cart. coord. in units 2pi/alat
        k(    1) = (   0.0000000   0.0000000   0.0000000), wk =   0.0555556
        k(    2) = (   0.0000000   0.0263379   0.0000000), wk =   0.1111111
        k(    3) = (   0.0000000   0.0526757   0.0000000), wk =   0.1111111
        k(    4) = (   0.0000000  -0.0790136   0.0000000), wk =   0.0555556
        k(    5) = (   0.0248522  -0.0087209   0.0000000), wk =   0.1111111
        k(    6) = (   0.0248522   0.0176170   0.0000000), wk =   0.1111111
        k(    7) = (   0.0248522   0.0439549   0.0000000), wk =   0.1111111
        k(    8) = (   0.0248522  -0.0877345   0.0000000), wk =   0.1111111
        k(    9) = (   0.0248522  -0.0613966   0.0000000), wk =   0.1111111
        k(   10) = (   0.0248522  -0.0350587   0.0000000), wk =   0.1111111
        k(   11) = (   0.0497043  -0.0174417   0.0000000), wk =   0.1111111
        k(   12) = (   0.0497043   0.0088961   0.0000000), wk =   0.1111111
        k(   13) = (   0.0497043   0.0352340   0.0000000), wk =   0.1111111
        k(   14) = (   0.0497043  -0.0964553   0.0000000), wk =   0.1111111
        k(   15) = (   0.0497043  -0.0701175   0.0000000), wk =   0.1111111
        k(   16) = (   0.0497043  -0.0437796   0.0000000), wk =   0.1111111
        k(   17) = (  -0.0745565   0.0261626   0.0000000), wk =   0.0555556
        k(   18) = (  -0.0745565   0.0525005   0.0000000), wk =   0.1111111
        k(   19) = (  -0.0745565   0.0788383   0.0000000), wk =   0.1111111
        k(   20) = (  -0.0745565  -0.0528510   0.0000000), wk =   0.0555556

     Largest allocated arrays     est. size (Mb)     dimensions
     Largest temporary arrays     est. size (Mb)     dimensions

     Initial potential from superposition of free atoms
     Check: negative starting charge=   -0.426704

     starting charge  176.80730, renormalised to  180.00000

     negative rho (up, down):  4.344E-01 0.000E+00

     *
     * You are using vdW-DF for exchange-correlation in this calculation.
     * Please cite the following three references that made this development
     * possible:
     *
     *   M. Dion, H. Rydberg, E. Schroder, D. C. Langreth, and
     *   B. I. Lundqvist, Phys. Rev. Lett. 92, 246401 (2004).
     *
     *   T. Thonhauser, V. R. Cooper, S. Li, A. Puzder, P. Hyldgaard, and
     *   D. C. Langreth, Phys. Rev. B 76, 125112 (2007).
     *
     *   G. Roman-Perez and J. M. Soler, Phys. Rev. Lett. 103, 096102 (2009).
     *
     *
     * If you are using vdW-DF2, please also cite:
     *
     *   K. Lee, E. D. Murray, L. Kong, B. I. Lundqvist, and
     *   D. C. Langreth, Phys. Rev. B 82, 081101(R) (2010).
     *
     *
     * If you are calculating the stress with vdW-DF, please also cite:
     *
     *   R. Sabatini, E. Kucukbenli, B. Kolb, T. Thonhauser, and
     *   S. de Gironcoli, J. Phys.: Condens. Matter 24, 424209 (2012).
     *

     Carrying out vdW-DF run using the following parameters:

     Nqs =      20    Nr_points =    1024   r_max =   100.000
     q_mesh =
               0.00001000     0.04494208     0.09755937     0.15916263
               0.23128650     0.31572767     0.41458969     0.53033537
               0.66584808     0.82450364     1.01025438     1.22772762
               1.48234092     1.78043706     2.12944203     2.53805004
               3.01644009     3.57652955     4.23227104     5.00000000

     Gradients computed in reciprocal space

     Adding external electric field

     Computed dipole along edir(3) :
        Dipole                0.0000 Ry au,          0.0000 Debye
        Dipole field          0.0000 Ry au

        Potential amp.       -0.0000 Ry
        Total length         46.9300 bohr

     Starting wfc are  198 randomized atomic wfcs

     Self-consistent Calculation

     iteration #  1     ecut=    36.75 Ry     beta=0.10
     Davidson diagonalization with overlap
     ethr =  1.00E-02,  avg # of iterations =  2.0

[...]

     total energy              =   -2402.89437102 Ry
     Harris-Foulkes estimate   =   -2406.16913976 Ry
     estimated scf accuracy    <      18.33353080 Ry

[...]

     iteration #  7     ecut=    36.75 Ry     beta=0.10
     Davidson diagonalization with overlap
     c_bands:  5 eigenvalues not converged
     ethr =  2.61E-05,  avg # of iterations = 14.1

[...]

     End of self-consistent calculation

          k = 0.0000 0.0000 0.0000 ( 27505 PWs)   bands (ev):

   -90.6406 -90.6406 -90.5812 -90.5812 -90.5812 -90.5812 -54.1253 -54.1253
   -54.1089 -54.1087 -54.1075 -54.1058 -54.0873 -54.0872 -54.0872 -54.0872
   -54.0631 -54.0631 -54.0614 -54.0614 -54.0319 -54.0318 -54.0318 -54.0317
   -32.0915 -32.0887 -32.0488 -32.0487 -31.7323 -31.6934 -15.8263 -15.8209
   -15.7789 -15.7422 -15.7290 -15.7016 -15.6897 -15.6610 -15.6356 -15.5884
   -15.5737 -15.3155 -15.3126 -15.2967 -15.2309 -15.1916 -15.1655 -15.0399
    -3.2196  -3.1682  -3.1607  -3.1535  -3.1525  -3.1211  -3.1046  -3.0946
    -3.0789  -3.0719  -3.0036  -2.9728  -2.9720  -2.9626  -2.9591  -2.9355
    -2.9347  -2.9163  -2.9031  -2.8967  -2.8330  -2.8301  -2.8225  -2.8225
    -2.6955  -2.6789  -2.6304  -2.5770  -2.5662  -2.5136  -2.5001  -1.5050
    -0.7199  -0.6002  -0.5087  -0.2740   1.5032   1.6405   1.6797   1.7111
     1.7253   1.8433   2.0445   2.2022   2.4502   2.4503   2.4787   2.4951
     2.5127   2.5460   2.5876   2.6552   2.6589   2.7183   2.7257   2.7518
     2.7662   2.7734   2.7762   2.7843   2.7969   2.8170   2.8310   2.8437
     2.8665   2.8739   2.8747   2.8937   2.9103   2.9117   2.9320   2.9491

[...]

          k =-0.0746 0.0262 0.0000 ( 27480 PWs)   bands (ev):

[...]

     the Fermi energy is     1.7518 ev

!    total energy              =   -2404.19938331 Ry
     Harris-Foulkes estimate   =   -2404.19939161 Ry
     estimated scf accuracy    <       0.00000008 Ry

     The total energy is the sum of the following terms:

     one-electron contribution =  -11483.20664114 Ry
     hartree contribution      =    5741.23357623 Ry
     xc contribution           =    -484.25768254 Ry
     ewald contribution        =    3822.12799386 Ry
     electric field correction =       0.00000000 Ry
     smearing contrib. (-TS)   =      -0.09662973 Ry

     convergence has been achieved in  20 iterations

 BEEF-vdW xc energy contributions
[...]
     Pseudo is Ultrasoft + core correction, Zval = 11.0
     Generated by new atomic code, or converted to UPF format
     Using radial grid of  995 points,  8 beta functions with:
                l(1) =   0
                l(2) =   0
                l(3) =   1
                l(4) =   1
                l(5) =   2
                l(6) =   2
                l(7) =   3
                l(8) =   3
     Q(r) pseudized with  8 coefficients,  rinner =    1.700   1.700   1.700
                                                       1.700   1.700   1.700
                                                       1.700

     PseudoPot. # 2 for Ag read from file:
     /afs/slac.stanford.edu/u/if/mamunm/psp/gbrv1.5pbe/Ag.UPF
     MD5 check sum: d66d668201baa78d5eb5b04ef7011058
     Pseudo is Ultrasoft + core correction, Zval = 19.0
     Generated by new atomic code, or converted to UPF format
     Using radial grid of  887 points,  6 beta functions with:
                l(1) =   0
                l(2) =   0
                l(3) =   1
                l(4) =   1
                l(5) =   2
                l(6) =   2
     Q(r) pseudized with  6 coefficients,  rinner =    1.300   1.300   1.300
                                                       1.300   1.300

     vdW kernel table read from file vdW_kernel_table
     MD5 check sum: 095c7af220d748ca6e76c0b4c6cfb241

     atomic species   valence    mass     pseudopotential
        La1           11.00   138.90547     La( 1.00)
        Ag1           19.00   107.86820     Ag( 1.00)

     No symmetry found

   Cartesian axes

     site n.     atom                  positions (alat units)
         1           La1 tau(   1) = (   0.0000000   0.0000000  10.0000000  )
         2           La1 tau(   2) = (   4.4634447   3.1640121  10.0000000  )
         3           Ag1 tau(   3) = (   3.3531625   0.0000000  10.0000000  )
         4           Ag1 tau(   4) = (   1.1102822   3.1640121  10.0000000  )
         5           La1 tau(   5) = (   6.7063250   4.7539277  12.7355330  )
         6           La1 tau(   6) = (   2.2428804   1.5899156  12.7355330  )
         7           Ag1 tau(   7) = (   3.3531625   4.7539277  12.7355330  )
         8           Ag1 tau(   8) = (   5.5960429   1.5899156  12.7355330  )
         9           La1 tau(   9) = (   4.4822161   3.1773119  15.4441897  )
        10           La1 tau(  10) = (   0.0188043   0.0133360  15.4442885  )
        11           Ag1 tau(  11) = (   1.1309314   3.1787279  15.3124126  )
        12           Ag1 tau(  12) = (   3.3738699   0.0146054  15.3124209  )

     number of k points=    20  Fermi-Dirac smearing, width (Ry)=  0.0110
                       cart. coord. in units 2pi/alat
        k(    1) = (   0.0000000   0.0000000   0.0000000), wk =   0.0555556
        k(    2) = (   0.0000000   0.0263379   0.0000000), wk =   0.1111111
        k(    3) = (   0.0000000   0.0526757   0.0000000), wk =   0.1111111
        k(    4) = (   0.0000000  -0.0790136   0.0000000), wk =   0.0555556
        k(    5) = (   0.0248522  -0.0087209   0.0000000), wk =   0.1111111
        k(    6) = (   0.0248522   0.0176170   0.0000000), wk =   0.1111111
        k(    7) = (   0.0248522   0.0439549   0.0000000), wk =   0.1111111
        k(    8) = (   0.0248522  -0.0877345   0.0000000), wk =   0.1111111
        k(    9) = (   0.0248522  -0.0613966   0.0000000), wk =   0.1111111
        k(   10) = (   0.0248522  -0.0350587   0.0000000), wk =   0.1111111
        k(   11) = (   0.0497043  -0.0174417   0.0000000), wk =   0.1111111
        k(   12) = (   0.0497043   0.0088961   0.0000000), wk =   0.1111111
        k(   13) = (   0.0497043   0.0352340   0.0000000), wk =   0.1111111
        k(   14) = (   0.0497043  -0.0964553   0.0000000), wk =   0.1111111
        k(   15) = (   0.0497043  -0.0701175   0.0000000), wk =   0.1111111
        k(   16) = (   0.0497043  -0.0437796   0.0000000), wk =   0.1111111
        k(   17) = (  -0.0745565   0.0261626   0.0000000), wk =   0.0555556
        k(   18) = (  -0.0745565   0.0525005   0.0000000), wk =   0.1111111
        k(   19) = (  -0.0745565   0.0788383   0.0000000), wk =   0.1111111
        k(   20) = (  -0.0745565  -0.0528510   0.0000000), wk =   0.0555556

     Largest allocated arrays     est. size (Mb)     dimensions
     Largest temporary arrays     est. size (Mb)     dimensions

     Initial potential from superposition of free atoms
     Check: negative starting charge=   -0.426637

     starting charge  176.80730, renormalised to  180.00000

[...]

     *
     * You are using vdW-DF for exchange-correlation in this calculation.
     * Please cite the following three references that made this development
     * possible:
     *
     *   M. Dion, H. Rydberg, E. Schroder, D. C. Langreth, and
     *   B. I. Lundqvist, Phys. Rev. Lett. 92, 246401 (2004).
     *
     *   T. Thonhauser, V. R. Cooper, S. Li, A. Puzder, P. Hyldgaard, and
     *   D. C. Langreth, Phys. Rev. B 76, 125112 (2007).
     *
     *   G. Roman-Perez and J. M. Soler, Phys. Rev. Lett. 103, 096102 (2009).
     *
     *
     * If you are using vdW-DF2, please also cite:
     *
     *   K. Lee, E. D. Murray, L. Kong, B. I. Lundqvist, and
     *   D. C. Langreth, Phys. Rev. B 82, 081101(R) (2010).
     *
     *
     * If you are calculating the stress with vdW-DF, please also cite:
     *
     *   R. Sabatini, E. Kucukbenli, B. Kolb, T. Thonhauser, and
     *   S. de Gironcoli, J. Phys.: Condens. Matter 24, 424209 (2012).
     *

     Carrying out vdW-DF run using the following parameters:

     Nqs =      20    Nr_points =    1024   r_max =   100.000
     q_mesh =
               0.00001000     0.04494208     0.09755937     0.15916263
               0.23128650     0.31572767     0.41458969     0.53033537
               0.66584808     0.82450364     1.01025438     1.22772762
               1.48234092     1.78043706     2.12944203     2.53805004
               3.01644009     3.57652955     4.23227104     5.00000000

     Gradients computed in reciprocal space

[...]

     Starting wfc are  198 randomized atomic wfcs

     Self-consistent Calculation

[...]

     total energy              =   -2404.20184908 Ry
     Harris-Foulkes estimate   =   -2404.20185126 Ry
     estimated scf accuracy    <       0.00000119 Ry

     iteration # 20     ecut=    36.75 Ry     beta=0.10
     Davidson diagonalization with overlap
     ethr =  6.63E-10,  avg # of iterations =  5.8

[...]

     negative rho (up, down):  2.965E-01 0.000E+00

     Adding external electric field

     Computed dipole along edir(3) :
        Dipole                0.0413 Ry au,          0.1050 Debye
        Dipole field          0.0001 Ry au

        Potential amp.       -0.0067 Ry
        Total length         46.9300 bohr

     End of self-consistent calculation

[...]

          k = 0.0497-0.0438 0.0000 ( 27460 PWs)   bands (ev):

[...]

          k =-0.0746-0.0529 0.0000 ( 27390 PWs)   bands (ev):

   -90.6437 -90.6437 -90.6113 -90.6113 -90.5493 -90.5493 -54.1313 -54.1310
   -54.1271 -54.1253 -54.1078 -54.1077 -54.0938 -54.0935 -54.0810 -54.0809
   -54.0796 -54.0778 -54.0551 -54.0548 -54.0318 -54.0300 -54.0000 -53.9999
   -32.0545 -32.0539 -32.0169 -32.0148 -31.6577 -31.6145 -15.8171 -15.7994
   -15.7889 -15.7412 -15.6894 -15.6828 -15.6316 -15.6314 -15.6141 -15.5522
   -15.5151 -15.2858 -15.2805 -15.1865 -15.1753 -15.1666 -15.1146 -14.9847
    -3.1195  -3.0904  -3.0535  -3.0204  -2.9800  -2.9514  -2.9224  -2.9205
    -2.8948  -2.8796  -2.8635  -2.8604  -2.8500  -2.8414  -2.8310  -2.8167
    -2.8100  -2.7991  -2.7986  -2.7868  -2.7682  -2.7636  -2.7636  -2.7557
    -2.7499  -2.7200  -2.6605  -2.6108  -2.5419  -2.4714  -1.2505  -1.0276
    -0.2976  -0.1990  -0.1202  -0.0235   0.2358   0.6269   0.7427   0.8569
     1.1108   1.2134   1.2785   1.4209   1.4818   1.8400   1.9213   2.1324
     2.1470   2.5014   2.6357   2.6415   2.6453   2.7245   2.7644   2.7904
     2.8471   2.8494   2.8614   2.8655   2.8674   2.8742   2.8745   2.8791
     2.8904   2.8933   2.8975   2.9022   2.9253   2.9305   2.9492   2.9741

     the Fermi energy is     1.7851 ev

!    total energy              =   -2404.20184048 Ry
     Harris-Foulkes estimate   =   -2404.20184909 Ry
     estimated scf accuracy    <       0.00000007 Ry

     The total energy is the sum of the following terms:

     one-electron contribution =  -11648.83144353 Ry
     hartree contribution      =    5824.15854165 Ry
     xc contribution           =    -484.30203560 Ry
     ewald contribution        =    3904.86777939 Ry
     electric field correction =       0.00000294 Ry
     smearing contrib. (-TS)   =      -0.09468533 Ry

     convergence has been achieved in  20 iterations

 BEEF-vdW xc energy contributions
           1 :   -425.673117265678
           2 :    389.198420144309
           3 :   -326.133456008895
           4 :    252.121044383632
           5 :   -182.699677169254
           6 :    128.474427153711
           7 :   -93.0923127148386
           8 :    74.1366299690777
           9 :   -65.8721863092350
          10 :    62.2977264829787
          11 :   -59.2173292644449
          12 :    54.7647646433509
          13 :   -48.7190543999917
          14 :    41.4775158499540
          15 :   -33.4517881897674
          16 :    25.0696416164071
          17 :   -17.0480672258493
          18 :    10.4705804571639
          19 :   -6.46014904234931
          20 :    5.59912666932973
          21 :   -7.48259929152812
          22 :    10.7417816293846
          23 :   -13.5942476394845
          24 :    14.6343934723964
          25 :   -13.4277423757703
          26 :    10.5969697958913
          27 :   -7.39744339984884
          28 :    5.04952694661040
          29 :   -4.19055954584167
          30 :    4.69674575339184
          31 :   -38.3980925614570
          32 :   -27.6268466426947

     Forces acting on atoms (Ry/au):

     negative rho (up, down):  2.965E-01 0.000E+00
     atom    1 type  1   force =     0.00025446    0.00018060    0.00074451
     atom    2 type  1   force =     0.00025243    0.00017889    0.00074546
     atom    3 type  2   force =    -0.00000440   -0.00000530    0.00753187
     atom    4 type  2   force =    -0.00000607   -0.00000158    0.00753199
     atom    5 type  1   force =    -0.00005763   -0.00004098   -0.00874852
     atom    6 type  1   force =    -0.00005286   -0.00003766   -0.00874440
     atom    7 type  2   force =    -0.00006745   -0.00003665   -0.00033788
     atom    8 type  2   force =    -0.00005648   -0.00005199   -0.00033929
     atom    9 type  1   force =     0.00002251    0.00001583   -0.00002566
     atom   10 type  1   force =     0.00002684    0.00001889   -0.00002365
     atom   11 type  2   force =    -0.00015546   -0.00010956    0.00083333
     atom   12 type  2   force =    -0.00015589   -0.00011049    0.00083224

     Total force =     0.016416     Total SCF correction =     0.001208

     entering subroutine stress ...

     negative rho (up, down):  2.965E-01 0.000E+00
          total   stress  (Ry/bohr**3)                   (kbar)     P=   -5.72
  -0.00005023  -0.00000347  -0.00000046         -7.39     -0.51     -0.07
  -0.00000347  -0.00004780  -0.00000033         -0.51     -7.03     -0.05
  -0.00000046  -0.00000033  -0.00001857         -0.07     -0.05     -2.73

 !ASE

     Writing output data file calc.save

     General routines

     Parallel routines

   This run was terminated on:   1:49:50  25Dec2018

   JOB DONE.
Job  /afs/slac/g/suncat/bin/suncat-tsmpirun -x LD_LIBRARY_PATH -wdir /scratch/qe109048_EVwTI pw.x -in pw.inp

TID   HOST_NAME   COMMAND_LINE            STATUS            TERMINATION_TIME
00000 suncat0082 pw.x -in pw.inp   Done                     12/25/2018 01:49:50
00001 suncat0082 pw.x -in pw.inp   Done                     12/25/2018 01:49:50
00002 suncat0082 pw.x -in pw.inp   Done                     12/25/2018 01:49:50
00003 suncat0082 pw.x -in pw.inp   Done                     12/25/2018 01:49:50
00004 suncat0082 pw.x -in pw.inp   Done                     12/25/2018 01:49:50
00005 suncat0082 pw.x -in pw.inp   Done                     12/25/2018 01:49:50
00006 suncat0082 pw.x -in pw.inp   Done                     12/25/2018 01:49:50
00007 suncat0082 pw.x -in pw.inp   Done                     12/25/2018 01:49:50
00008 suncat0062 pw.x -in pw.inp   Done                     12/25/2018 01:49:50
00009 suncat0062 pw.x -in pw.inp   Done                     12/25/2018 01:49:50
00010 suncat0062 pw.x -in pw.inp   Done                     12/25/2018 01:49:50
00011 suncat0062 pw.x -in pw.inp   Done                     12/25/2018 01:49:50
00012 suncat0062 pw.x -in pw.inp   Done                     12/25/2018 01:49:50
00013 suncat0062 pw.x -in pw.inp   Done                     12/25/2018 01:49:50
00014 suncat0062 pw.x -in pw.inp   Done                     12/25/2018 01:49:50
00015 suncat0062 pw.x -in pw.inp   Done                     12/25/2018 01:49:50
00016 suncat0056 pw.x -in pw.inp   Done                     12/25/2018 01:49:50
00017 suncat0056 pw.x -in pw.inp   Done                     12/25/2018 01:49:50
00018 suncat0056 pw.x -in pw.inp   Done                     12/25/2018 01:49:50
00019 suncat0056 pw.x -in pw.inp   Done                     12/25/2018 01:49:50
00020 suncat0056 pw.x -in pw.inp   Done                     12/25/2018 01:49:50
00021 suncat0056 pw.x -in pw.inp   Done                     12/25/2018 01:49:50
00022 suncat0056 pw.x -in pw.inp   Done                     12/25/2018 01:49:50
00023 suncat0056 pw.x -in pw.inp   Done                     12/25/2018 01:49:50
00024 suncat0055 pw.x -in pw.inp   Done                     12/25/2018 01:49:50
00025 suncat0055 pw.x -in pw.inp   Done                     12/25/2018 01:49:50
00026 suncat0055 pw.x -in pw.inp   Done                     12/25/2018 01:49:50
00027 suncat0055 pw.x -in pw.inp   Done                     12/25/2018 01:49:50
00028 suncat0055 pw.x -in pw.inp   Done                     12/25/2018 01:49:50
00029 suncat0055 pw.x -in pw.inp   Done                     12/25/2018 01:49:50
00030 suncat0055 pw.x -in pw.inp   Done                     12/25/2018 01:49:50
00031 suncat0055 pw.x -in pw.inp   Done                     12/25/2018 01:49:50
00032 suncat0217 pw.x -in pw.inp   Done                     12/25/2018 01:49:50
00033 suncat0217 pw.x -in pw.inp   Done                     12/25/2018 01:49:50
00034 suncat0217 pw.x -in pw.inp   Done                     12/25/2018 01:49:50
00035 suncat0217 pw.x -in pw.inp   Done                     12/25/2018 01:49:50
00036 suncat0217 pw.x -in pw.inp   Done                     12/25/2018 01:49:50
00037 suncat0217 pw.x -in pw.inp   Done                     12/25/2018 01:49:50
00038 suncat0217 pw.x -in pw.inp   Done                     12/25/2018 01:49:50
00039 suncat0217 pw.x -in pw.inp   Done                     12/25/2018 01:49:50
00040 suncat0216 pw.x -in pw.inp   Done                     12/25/2018 01:49:50
00041 suncat0216 pw.x -in pw.inp   Done                     12/25/2018 01:49:50
00042 suncat0216 pw.x -in pw.inp   Done                     12/25/2018 01:49:50
00043 suncat0216 pw.x -in pw.inp   Done                     12/25/2018 01:49:50
00044 suncat0216 pw.x -in pw.inp   Done                     12/25/2018 01:49:50
00045 suncat0216 pw.x -in pw.inp   Done                     12/25/2018 01:49:50
00046 suncat0216 pw.x -in pw.inp   Done                     12/25/2018 01:49:50
00047 suncat0216 pw.x -in pw.inp   Done                     12/25/2018 01:49:50
00048 suncat0215 pw.x -in pw.inp   Done                     12/25/2018 01:49:50
00049 suncat0215 pw.x -in pw.inp   Done                     12/25/2018 01:49:50
00050 suncat0215 pw.x -in pw.inp   Done                     12/25/2018 01:49:50
00051 suncat0215 pw.x -in pw.inp   Done                     12/25/2018 01:49:50
00052 suncat0215 pw.x -in pw.inp   Done                     12/25/2018 01:49:50
00053 suncat0215 pw.x -in pw.inp   Done                     12/25/2018 01:49:50
00054 suncat0215 pw.x -in pw.inp   Done                     12/25/2018 01:49:50
00055 suncat0215 pw.x -in pw.inp   Done                     12/25/2018 01:49:50
00056 suncat0210 pw.x -in pw.inp   Done                     12/25/2018 01:49:50
00057 suncat0210 pw.x -in pw.inp   Done                     12/25/2018 01:49:50
00058 suncat0210 pw.x -in pw.inp   Done                     12/25/2018 01:49:50
00059 suncat0210 pw.x -in pw.inp   Done                     12/25/2018 01:49:50
00060 suncat0210 pw.x -in pw.inp   Done                     12/25/2018 01:49:50
00061 suncat0210 pw.x -in pw.inp   Done                     12/25/2018 01:49:50
00062 suncat0210 pw.x -in pw.inp   Done                     12/25/2018 01:49:50
00063 suncat0210 pw.x -in pw.inp   Done                     12/25/2018 01:49:50