     Program PWSCF v.5.1rc2 (svn rev. 11289) starts on 18Dec2018 at 16:49:51

     Current dimensions of program PWSCF are:
     Max number of different atomic species (ntypx) = 10
     Max number of k-points (npk) =  40000
     Max angular momentum in pseudopotentials (lmaxx) =  3
     Presently stress not available with electric field

     IMPORTANT: XC functional enforced from input :
     Exchange-correlation      = BEEF-VDW ( 1  4 27 13 2)
     Any further DFT definition will be discarded
     Please, verify this is what you really want

     Subspace diagonalization in iterative solution of the eigenvalue problem:
     a serial algorithm will be used

     Found symmetry operation: I + (  0.5000 -0.5000  0.0000)
     This is a supercell, fractional translations are disabled

     bravais-lattice index     =            0
     lattice parameter (alat)  =       1.8897  a.u.
     unit-cell volume          =    6565.6968 (a.u.)^3
     number of atoms/cell      =           12
     number of atomic types    =            2
     number of electrons       =       192.00
     number of Kohn-Sham states=          126
     kinetic-energy cutoff     =      36.7493  Ry
     charge density cutoff     =     367.4932  Ry
     convergence threshold     =      1.0E-06
     mixing beta               =       0.1000
     number of iterations used =           10  plain     mixing
     Exchange-correlation      = BEEF-VDW ( 1  4 27 13 2)
     nstep                     =           50

     celldm(1)=   1.889726  celldm(2)=   0.000000  celldm(3)=   0.000000
     celldm(4)=   0.000000  celldm(5)=   0.000000  celldm(6)=   0.000000

     crystal axes: (cart. coord. in units of alat)
               a(1) = (   6.440547   0.000000   0.000000 )
               a(2) = (   2.425656   5.966308   0.000000 )
               a(3) = (   0.000000   0.000000  25.319539 )

     reciprocal axes: (cart. coord. in units 2 pi/alat)
               b(1) = (  0.155266 -0.063125  0.000000 )
               b(2) = (  0.000000  0.167608  0.000000 )
               b(3) = (  0.000000  0.000000  0.039495 )

     PseudoPot. # 1 for Ag read from file:
     /afs/slac.stanford.edu/u/if/mamunm/psp/gbrv1.5pbe/Ag.UPF
     MD5 check sum: d66d668201baa78d5eb5b04ef7011058
     Pseudo is Ultrasoft + core correction, Zval = 19.0
     Generated by new atomic code, or converted to UPF format
     Using radial grid of  887 points,  6 beta functions with:
                l(1) =   0
                l(2) =   0
                l(3) =   1
                l(4) =   1
                l(5) =   2
                l(6) =   2
     Q(r) pseudized with  6 coefficients,  rinner =    1.300   1.300   1.300
                                                       1.300   1.300

     PseudoPot. # 2 for Tl read from file:
     /afs/slac.stanford.edu/u/if/mamunm/psp/gbrv1.5pbe/Tl.UPF
     MD5 check sum: b76cf1f7e72655a2b2c53cf6385d7059
     Pseudo is Ultrasoft + core correction, Zval = 13.0
     Generated by new atomic code, or converted to UPF format
     Using radial grid of  899 points,  6 beta functions with:
                l(1) =   0
                l(2) =   0
                l(3) =   1
                l(4) =   1
                l(5) =   2
                l(6) =   2
     Q(r) pseudized with  6 coefficients,  rinner =    1.100   1.100   1.100
                                                       1.100   1.100

     vdW kernel table read from file vdW_kernel_table
     MD5 check sum: 095c7af220d748ca6e76c0b4c6cfb241

     atomic species   valence    mass     pseudopotential
        Ag1           19.00   107.86820     Ag( 1.00)
        Tl1           13.00   204.38000     Tl( 1.00)

     No symmetry found

   Cartesian axes

     site n.     atom                  positions (alat units)
         1           Ag1 tau(   1) = (   0.0000000   0.0000000  10.0000000  )
         2           Ag1 tau(   2) = (   4.4331016   2.9831541  10.0000000  )
         3           Tl1 tau(   3) = (   3.2202734   0.0000000  10.0000000  )
         4           Tl1 tau(   4) = (   1.2128282   2.9831541  10.0000000  )
         5           Ag1 tau(   5) = (   6.4405468   4.3340184  12.6597696  )
         6           Ag1 tau(   6) = (   2.0074452   1.3508642  12.6597696  )
         7           Tl1 tau(   7) = (   3.2202734   4.3340184  12.6597696  )
         8           Tl1 tau(   8) = (   5.2277186   1.3508642  12.6597696  )
         9           Ag1 tau(   9) = (   4.0148904   2.7017285  15.3195392  )
        10           Ag1 tau(  10) = (   8.4479920   5.6848826  15.3195392  )
        11           Tl1 tau(  11) = (   7.2351638   2.7017285  15.3195392  )
        12           Tl1 tau(  12) = (   5.2277186   5.6848826  15.3195392  )

     number of k points=    20  Fermi-Dirac smearing, width (Ry)=  0.0110
                       cart. coord. in units 2pi/alat
        k(    1) = (   0.0000000   0.0000000   0.0000000), wk =   0.0555556
        k(    2) = (   0.0000000   0.0279346   0.0000000), wk =   0.1111111
        k(    3) = (   0.0000000   0.0558693   0.0000000), wk =   0.1111111
        k(    4) = (   0.0000000  -0.0838039   0.0000000), wk =   0.0555556
        k(    5) = (   0.0258777  -0.0105208   0.0000000), wk =   0.1111111
        k(    6) = (   0.0258777   0.0174138   0.0000000), wk =   0.1111111
        k(    7) = (   0.0258777   0.0453485   0.0000000), wk =   0.1111111
        k(    8) = (   0.0258777  -0.0943247   0.0000000), wk =   0.1111111
        k(    9) = (   0.0258777  -0.0663901   0.0000000), wk =   0.1111111
        k(   10) = (   0.0258777  -0.0384555   0.0000000), wk =   0.1111111
        k(   11) = (   0.0517554  -0.0210416   0.0000000), wk =   0.1111111
        k(   12) = (   0.0517554   0.0068930   0.0000000), wk =   0.1111111
        k(   13) = (   0.0517554   0.0348276   0.0000000), wk =   0.1111111
        k(   14) = (   0.0517554  -0.1048456   0.0000000), wk =   0.1111111
        k(   15) = (   0.0517554  -0.0769109   0.0000000), wk =   0.1111111
        k(   16) = (   0.0517554  -0.0489763   0.0000000), wk =   0.1111111
        k(   17) = (  -0.0776332   0.0315625   0.0000000), wk =   0.0555556
        k(   18) = (  -0.0776332   0.0594971   0.0000000), wk =   0.1111111
        k(   19) = (  -0.0776332   0.0874317   0.0000000), wk =   0.1111111
        k(   20) = (  -0.0776332  -0.0522415   0.0000000), wk =   0.0555556

     Largest allocated arrays     est. size (Mb)     dimensions
     Largest temporary arrays     est. size (Mb)     dimensions

     Check: negative/imaginary core charge=   -0.000001    0.000000

     Initial potential from superposition of free atoms
     Check: negative starting charge=   -0.307849

     starting charge  188.97052, renormalised to  192.00000

     negative rho (up, down):  3.128E-01 0.000E+00

     *
     * You are using vdW-DF for exchange-correlation in this calculation.
     * Please cite the following three references that made this development
     * possible:
     *
     *   M. Dion, H. Rydberg, E. Schroder, D. C. Langreth, and
     *   B. I. Lundqvist, Phys. Rev. Lett. 92, 246401 (2004).
     *
     *   T. Thonhauser, V. R. Cooper, S. Li, A. Puzder, P. Hyldgaard, and
     *   D. C. Langreth, Phys. Rev. B 76, 125112 (2007).
     *
     *   G. Roman-Perez and J. M. Soler, Phys. Rev. Lett. 103, 096102 (2009).
     *
     *
     * If you are using vdW-DF2, please also cite:
     *
     *   K. Lee, E. D. Murray, L. Kong, B. I. Lundqvist, and
     *   D. C. Langreth, Phys. Rev. B 82, 081101(R) (2010).
     *
     *
     * If you are calculating the stress with vdW-DF, please also cite:
     *
     *   R. Sabatini, E. Kucukbenli, B. Kolb, T. Thonhauser, and
     *   S. de Gironcoli, J. Phys.: Condens. Matter 24, 424209 (2012).
     *

     Carrying out vdW-DF run using the following parameters:

     Nqs =      20    Nr_points =    1024   r_max =   100.000
     q_mesh =
               0.00001000     0.04494208     0.09755937     0.15916263
               0.23128650     0.31572767     0.41458969     0.53033537
               0.66584808     0.82450364     1.01025438     1.22772762
               1.48234092     1.78043706     2.12944203     2.53805004
               3.01644009     3.57652955     4.23227104     5.00000000

     Gradients computed in reciprocal space

     Adding external electric field

     Computed dipole along edir(3) :
        Dipole                0.0000 Ry au,          0.0000 Debye
        Dipole field          0.0000 Ry au

        Potential amp.       -0.0000 Ry
        Total length         46.6508 bohr

     Starting wfc are  132 randomized atomic wfcs

     Self-consistent Calculation

     iteration #  1     ecut=    36.75 Ry     beta=0.10
     Davidson diagonalization with overlap
     ethr =  1.00E-02,  avg # of iterations =  9.1

[...]

     total energy              =   -2660.86746603 Ry
     Harris-Foulkes estimate   =   -2661.31509285 Ry
     estimated scf accuracy    <       2.72052793 Ry

[...]

     End of self-consistent calculation

          k = 0.0000 0.0000 0.0000 ( 24659 PWs)   bands (ev):

   -91.3195 -91.3193 -91.0957 -91.0956 -91.0955 -91.0954 -54.8326 -54.8322
   -54.8108 -54.8104 -54.8085 -54.8040 -54.6182 -54.6181 -54.6178 -54.6177
   -54.5911 -54.5910 -54.5866 -54.5866 -54.5856 -54.5855 -54.5853 -54.5852
   -11.1264 -11.0936 -11.0562 -11.0309 -11.0297 -11.0110 -11.0080 -11.0006
   -10.9937 -10.9651 -10.9382 -10.9344 -10.9317 -10.9197 -10.9113 -10.9068
   -10.8942 -10.8861 -10.8613 -10.8601 -10.8562 -10.8538 -10.8353 -10.8175
   -10.7923 -10.7762 -10.7494 -10.7255 -10.6976 -10.6489  -7.5618  -6.5004
    -5.6557  -5.3976  -5.0513  -5.0305  -3.8613  -3.7431  -3.6560  -3.6552
    -3.6232  -3.6165  -3.5944  -3.5693  -3.4690  -3.4601  -3.4319  -3.4071
    -3.3970  -3.3966  -3.3946  -3.3351  -3.3207  -3.2852  -3.2275  -3.2068
    -3.2047  -3.2034  -3.1692  -3.1595  -3.1342  -3.0078  -2.6949  -2.4750
    -2.2875  -2.0789  -0.8759  -0.6762  -0.3230  -0.2367  -0.1104   0.0109
     0.1389   0.5799   0.8710   1.1856   1.6290   1.7121   2.4729   2.7059
     2.7796   2.9834   3.1546   3.9518   4.0351   4.2517   4.9262   5.2515
     5.2829   5.3065   5.3753   5.6207   5.9903   6.2781   6.6316   6.9071
     7.2876   7.3643   7.3677   7.4851   7.5338   7.9018

[...]

          k =-0.0776 0.0316 0.0000 ( 24700 PWs)   bands (ev):

[...]

     the Fermi energy is     0.7138 ev

!    total energy              =   -2660.63049009 Ry
     Harris-Foulkes estimate   =   -2660.63047398 Ry
     estimated scf accuracy    <       0.00000020 Ry

     The total energy is the sum of the following terms:

     one-electron contribution =  -14292.22873449 Ry
     hartree contribution      =    7179.95753792 Ry
     xc contribution           =    -564.36132028 Ry
     ewald contribution        =    5016.02931952 Ry
     electric field correction =       0.00000000 Ry
     smearing contrib. (-TS)   =      -0.02729275 Ry

     convergence has been achieved in  14 iterations

 BEEF-vdW xc energy contributions
           1 :   -498.406668642947
           2 :    458.730062544822
           3 :   -390.592271098402
           4 :    311.378300399829
           5 :   -237.656745059189
           6 :    179.650001691737
[...]
00030 suncat0025 pw.x -in pw.inp   Done                     12/18/2018 17:13:53
00031 suncat0025 pw.x -in pw.inp   Done                     12/18/2018 17:13:53

     Program PWSCF v.5.1rc2 (svn rev. 11289) starts on 18Dec2018 at 17:14: 0

[...]

   This run was terminated on:  17:37: 7  18Dec2018

[...]

     Program PWSCF v.5.1rc2 (svn rev. 11289) starts on 18Dec2018 at 17:59:52

     Current dimensions of program PWSCF are:
     Max number of different atomic species (ntypx) = 10
     Max number of k-points (npk) =  40000
     Max angular momentum in pseudopotentials (lmaxx) =  3
     Presently stress not available with electric field

     IMPORTANT: XC functional enforced from input :
     Exchange-correlation      = BEEF-VDW ( 1  4 27 13 2)
     Any further DFT definition will be discarded
     Please, verify this is what you really want

     Subspace diagonalization in iterative solution of the eigenvalue problem:
     a serial algorithm will be used

     bravais-lattice index     =            0
     lattice parameter (alat)  =       1.8897  a.u.
     unit-cell volume          =    6565.6968 (a.u.)^3
     number of atoms/cell      =           12
     number of atomic types    =            2
     number of electrons       =       192.00
     number of Kohn-Sham states=          126
     kinetic-energy cutoff     =      36.7493  Ry
     charge density cutoff     =     367.4932  Ry
     convergence threshold     =      1.0E-06
     mixing beta               =       0.1000
     number of iterations used =           10  plain     mixing
     Exchange-correlation      = BEEF-VDW ( 1  4 27 13 2)
     nstep                     =           50

     celldm(1)=   1.889726  celldm(2)=   0.000000  celldm(3)=   0.000000
     celldm(4)=   0.000000  celldm(5)=   0.000000  celldm(6)=   0.000000

     crystal axes: (cart. coord. in units of alat)
               a(1) = (   6.440547   0.000000   0.000000 )
               a(2) = (   2.425656   5.966308   0.000000 )
               a(3) = (   0.000000   0.000000  25.319539 )

     reciprocal axes: (cart. coord. in units 2 pi/alat)
               b(1) = (  0.155266 -0.063125  0.000000 )
               b(2) = (  0.000000  0.167608  0.000000 )
               b(3) = (  0.000000  0.000000  0.039495 )

     PseudoPot. # 1 for Ag read from file:
     /afs/slac.stanford.edu/u/if/mamunm/psp/gbrv1.5pbe/Ag.UPF
     MD5 check sum: d66d668201baa78d5eb5b04ef7011058
     Pseudo is Ultrasoft + core correction, Zval = 19.0
     Generated by new atomic code, or converted to UPF format
     Using radial grid of  887 points,  6 beta functions with:
                l(1) =   0
                l(2) =   0
                l(3) =   1
                l(4) =   1
                l(5) =   2
                l(6) =   2
     Q(r) pseudized with  6 coefficients,  rinner =    1.300   1.300   1.300
                                                       1.300   1.300

     PseudoPot. # 2 for Tl read from file:
     /afs/slac.stanford.edu/u/if/mamunm/psp/gbrv1.5pbe/Tl.UPF
     MD5 check sum: b76cf1f7e72655a2b2c53cf6385d7059
     Pseudo is Ultrasoft + core correction, Zval = 13.0
     Generated by new atomic code, or converted to UPF format
     Using radial grid of  899 points,  6 beta functions with:
                l(1) =   0
                l(2) =   0
                l(3) =   1
                l(4) =   1
                l(5) =   2
                l(6) =   2
     Q(r) pseudized with  6 coefficients,  rinner =    1.100   1.100   1.100
                                                       1.100   1.100

     vdW kernel table read from file vdW_kernel_table
     MD5 check sum: 095c7af220d748ca6e76c0b4c6cfb241

     atomic species   valence    mass     pseudopotential
        Ag1           19.00   107.86820     Ag( 1.00)
        Tl1           13.00   204.38000     Tl( 1.00)

     No symmetry found

   Cartesian axes

     site n.     atom                  positions (alat units)
         1           Ag1 tau(   1) = (   0.0000000   0.0000000  10.0000000  )
         2           Ag1 tau(   2) = (   4.4331016   2.9831541  10.0000000  )
         3           Tl1 tau(   3) = (   3.2202734   0.0000000  10.0000000  )
         4           Tl1 tau(   4) = (   1.2128282   2.9831541  10.0000000  )
         5           Ag1 tau(   5) = (   6.4405468   4.3340184  12.6597696  )
         6           Ag1 tau(   6) = (   2.0074452   1.3508642  12.6597696  )
         7           Tl1 tau(   7) = (   3.2202734   4.3340184  12.6597696  )
         8           Tl1 tau(   8) = (   5.2277186   1.3508642  12.6597696  )
         9           Ag1 tau(   9) = (   3.9898430   2.6848457  15.1918212  )
        10           Ag1 tau(  10) = (   8.4216463   5.6671848  15.1919449  )
        11           Tl1 tau(  11) = (   7.2639212   2.7215867  15.4676500  )
        12           Tl1 tau(  12) = (   5.2570080   5.7040984  15.4676507  )

     number of k points=    20  Fermi-Dirac smearing, width (Ry)=  0.0110
                       cart. coord. in units 2pi/alat
        k(    1) = (   0.0000000   0.0000000   0.0000000), wk =   0.0555556
        k(    2) = (   0.0000000   0.0279346   0.0000000), wk =   0.1111111
        k(    3) = (   0.0000000   0.0558693   0.0000000), wk =   0.1111111
        k(    4) = (   0.0000000  -0.0838039   0.0000000), wk =   0.0555556
        k(    5) = (   0.0258777  -0.0105208   0.0000000), wk =   0.1111111
        k(    6) = (   0.0258777   0.0174138   0.0000000), wk =   0.1111111
        k(    7) = (   0.0258777   0.0453485   0.0000000), wk =   0.1111111
        k(    8) = (   0.0258777  -0.0943247   0.0000000), wk =   0.1111111
        k(    9) = (   0.0258777  -0.0663901   0.0000000), wk =   0.1111111
        k(   10) = (   0.0258777  -0.0384555   0.0000000), wk =   0.1111111
        k(   11) = (   0.0517554  -0.0210416   0.0000000), wk =   0.1111111
        k(   12) = (   0.0517554   0.0068930   0.0000000), wk =   0.1111111
        k(   13) = (   0.0517554   0.0348276   0.0000000), wk =   0.1111111
        k(   14) = (   0.0517554  -0.1048456   0.0000000), wk =   0.1111111
        k(   15) = (   0.0517554  -0.0769109   0.0000000), wk =   0.1111111
        k(   16) = (   0.0517554  -0.0489763   0.0000000), wk =   0.1111111
        k(   17) = (  -0.0776332   0.0315625   0.0000000), wk =   0.0555556
        k(   18) = (  -0.0776332   0.0594971   0.0000000), wk =   0.1111111
        k(   19) = (  -0.0776332   0.0874317   0.0000000), wk =   0.1111111
        k(   20) = (  -0.0776332  -0.0522415   0.0000000), wk =   0.0555556

     Largest allocated arrays     est. size (Mb)     dimensions
     Largest temporary arrays     est. size (Mb)     dimensions

     Check: negative/imaginary core charge=   -0.000001    0.000000

     Initial potential from superposition of free atoms
     Check: negative starting charge=   -0.307155

     starting charge  188.97052, renormalised to  192.00000

[...]

     *
     * You are using vdW-DF for exchange-correlation in this calculation.
     * Please cite the following three references that made this development
     * possible:
     *
     *   M. Dion, H. Rydberg, E. Schroder, D. C. Langreth, and
     *   B. I. Lundqvist, Phys. Rev. Lett. 92, 246401 (2004).
     *
     *   T. Thonhauser, V. R. Cooper, S. Li, A. Puzder, P. Hyldgaard, and
     *   D. C. Langreth, Phys. Rev. B 76, 125112 (2007).
     *
     *   G. Roman-Perez and J. M. Soler, Phys. Rev. Lett. 103, 096102 (2009).
     *
     *
     * If you are using vdW-DF2, please also cite:
     *
     *   K. Lee, E. D. Murray, L. Kong, B. I. Lundqvist, and
     *   D. C. Langreth, Phys. Rev. B 82, 081101(R) (2010).
     *
     *
     * If you are calculating the stress with vdW-DF, please also cite:
     *
     *   R. Sabatini, E. Kucukbenli, B. Kolb, T. Thonhauser, and
     *   S. de Gironcoli, J. Phys.: Condens. Matter 24, 424209 (2012).
     *

     Carrying out vdW-DF run using the following parameters:

     Nqs =      20    Nr_points =    1024   r_max =   100.000
     q_mesh =
               0.00001000     0.04494208     0.09755937     0.15916263
               0.23128650     0.31572767     0.41458969     0.53033537
               0.66584808     0.82450364     1.01025438     1.22772762
               1.48234092     1.78043706     2.12944203     2.53805004
               3.01644009     3.57652955     4.23227104     5.00000000

     Gradients computed in reciprocal space

[...]

     Starting wfc are  132 randomized atomic wfcs

     Self-consistent Calculation

[...]

     total energy              =   -2660.63430664 Ry
     Harris-Foulkes estimate   =   -2660.63428051 Ry
     estimated scf accuracy    <       0.00000410 Ry

     iteration # 13     ecut=    36.75 Ry     beta=0.10
     Davidson diagonalization with overlap
     ethr =  2.14E-09,  avg # of iterations =  3.0

[...]

     negative rho (up, down):  3.194E-01 0.000E+00

     Adding external electric field

     Computed dipole along edir(3) :
        Dipole                0.0546 Ry au,          0.1389 Debye
        Dipole field          0.0001 Ry au

        Potential amp.       -0.0098 Ry
        Total length         46.6508 bohr

     End of self-consistent calculation

[...]

          k = 0.0518-0.0490 0.0000 ( 24716 PWs)   bands (ev):

[...]

          k =-0.0776-0.0522 0.0000 ( 24722 PWs)   bands (ev):

   -91.2410 -91.2407 -91.1251 -91.1249 -91.0536 -91.0534 -54.7509 -54.7505
   -54.7356 -54.7351 -54.7294 -54.7248 -54.6416 -54.6411 -54.6207 -54.6189
   -54.6186 -54.6162 -54.5775 -54.5771 -54.5490 -54.5445 -54.5429 -54.5426
   -11.0929 -11.0599 -11.0112 -11.0028 -10.9838 -10.9720 -10.9528 -10.9482
   -10.9291 -10.9183 -10.9053 -10.8990 -10.8925 -10.8853 -10.8722 -10.8720
   -10.8658 -10.8607 -10.8407 -10.8286 -10.8075 -10.8042 -10.7789 -10.7756
   -10.7590 -10.7494 -10.7313 -10.7265 -10.6881 -10.6162  -6.4345  -6.2514
    -5.7977  -5.4109  -4.8415  -3.9881  -3.9440  -3.9133  -3.8912  -3.8432
    -3.8040  -3.7411  -3.6924  -3.6820  -3.6722  -3.6494  -3.6315  -3.5736
    -3.5341  -3.5114  -3.4582  -3.4426  -3.4344  -3.4089  -3.3997  -3.3263
    -3.3069  -3.2821  -3.2463  -3.1952  -3.1463  -3.1347  -3.1074  -3.0665
    -2.9807  -2.4241  -2.1800  -1.7245  -1.3618  -0.9261  -0.7033   1.1524
     1.4786   2.1895   2.4996   2.6025   3.4661   3.5881   3.6721   4.0918
     4.4228   4.4720   4.4969   4.5377   4.8935   5.1893   5.2537   5.3061
     5.4630   5.5669   5.8165   5.9993   6.1061   6.1337   6.2499   6.4939
     6.5345   6.6545   6.6761   6.9696   7.0188   7.0527

     the Fermi energy is     0.7531 ev

!    total energy              =   -2660.63434334 Ry
     Harris-Foulkes estimate   =   -2660.63430756 Ry
     estimated scf accuracy    <       0.00000091 Ry

     The total energy is the sum of the following terms:

     one-electron contribution =  -14316.63691020 Ry
     hartree contribution      =    7192.34850761 Ry
     xc contribution           =    -564.34653546 Ry
     ewald contribution        =    5028.02794458 Ry
     electric field correction =       0.00000571 Ry
     smearing contrib. (-TS)   =      -0.02735558 Ry

     convergence has been achieved in  13 iterations

 BEEF-vdW xc energy contributions
           1 :   -498.391858360159
           2 :    458.707607055883
           3 :   -390.561521954965
           4 :    311.347062386275
           5 :   -237.636900086589
           6 :    179.648971018721
           7 :   -139.391267756203
           8 :    112.565519602814
           9 :   -92.6171759385780
          10 :    74.5692363957529
          11 :   -56.8683315522437
          12 :    40.8190574610525
          13 :   -28.5723324202238
          14 :    21.1885203284871
          15 :   -17.9078184798444
          16 :    16.7576725941066
          17 :   -15.8009070061406
          18 :    14.0932472195352
          19 :   -11.8314863992201
          20 :    9.78725266462868
          21 :   -8.55492449605435
          22 :    8.13023840554922
          23 :   -8.01479734942347
          24 :    7.64941942931137
          25 :   -6.81528237913233
          26 :    5.73592954781066
          27 :   -4.87140528941154
          28 :    4.59303487164709
          29 :   -4.96882421042005
          30 :    5.76459509591984
          31 :   -42.9696391450751
          32 :   -31.2493347825763

     Forces acting on atoms (Ry/au):

     negative rho (up, down):  3.194E-01 0.000E+00
     atom    1 type  1   force =     0.00146107    0.00098398    0.00567518
     atom    2 type  1   force =     0.00147217    0.00098989    0.00567296
     atom    3 type  2   force =    -0.00195525   -0.00129616   -0.00503935
     atom    4 type  2   force =    -0.00193951   -0.00132563   -0.00503844
     atom    5 type  1   force =    -0.00050650   -0.00034165    0.00434014
     atom    6 type  1   force =    -0.00048409   -0.00032795    0.00435925
     atom    7 type  2   force =     0.00170726    0.00114527   -0.00360413
     atom    8 type  2   force =     0.00170167    0.00115431   -0.00361721
     atom    9 type  1   force =     0.00084225    0.00057063   -0.00150944
     atom   10 type  1   force =     0.00077063    0.00051465   -0.00151917
     atom   11 type  2   force =    -0.00146416   -0.00113067    0.00014182
     atom   12 type  2   force =    -0.00160554   -0.00093667    0.00013839

     Total force =     0.014796     Total SCF correction =     0.004704
     SCF correction compared to forces is large: reduce conv_thr to get better values

     entering subroutine stress ...

     negative rho (up, down):  3.194E-01 0.000E+00
          total   stress  (Ry/bohr**3)                   (kbar)     P=   -8.77
  -0.00007330  -0.00000640  -0.00000151        -10.78     -0.94     -0.22
  -0.00000640  -0.00006810  -0.00000102         -0.94    -10.02     -0.15
  -0.00000151  -0.00000102  -0.00003744         -0.22     -0.15     -5.51

 !ASE

     Writing output data file calc.save

     General routines

     Parallel routines

   This run was terminated on:  18:21:29  18Dec2018

   JOB DONE.
Job  /afs/slac/g/suncat/bin/suncat-tsmpirun -x LD_LIBRARY_PATH -wdir /scratch/qe529566_AHekc pw.x -in pw.inp

TID   HOST_NAME   COMMAND_LINE            STATUS            TERMINATION_TIME
00000 suncat0028 pw.x -in pw.inp   Done                     12/18/2018 18:21:29
00001 suncat0028 pw.x -in pw.inp   Done                     12/18/2018 18:21:29
00002 suncat0028 pw.x -in pw.inp   Done                     12/18/2018 18:21:29
00003 suncat0028 pw.x -in pw.inp   Done                     12/18/2018 18:21:29
00004 suncat0028 pw.x -in pw.inp   Done                     12/18/2018 18:21:29
00005 suncat0028 pw.x -in pw.inp   Done                     12/18/2018 18:21:29
00006 suncat0028 pw.x -in pw.inp   Done                     12/18/2018 18:21:29
00007 suncat0028 pw.x -in pw.inp   Done                     12/18/2018 18:21:29
00008 suncat0027 pw.x -in pw.inp   Done                     12/18/2018 18:21:29
00009 suncat0027 pw.x -in pw.inp   Done                     12/18/2018 18:21:29
00010 suncat0027 pw.x -in pw.inp   Done                     12/18/2018 18:21:29
00011 suncat0027 pw.x -in pw.inp   Done                     12/18/2018 18:21:29
00012 suncat0027 pw.x -in pw.inp   Done                     12/18/2018 18:21:29
00013 suncat0027 pw.x -in pw.inp   Done                     12/18/2018 18:21:29
00014 suncat0027 pw.x -in pw.inp   Done                     12/18/2018 18:21:29
00015 suncat0027 pw.x -in pw.inp   Done                     12/18/2018 18:21:29
00016 suncat0026 pw.x -in pw.inp   Done                     12/18/2018 18:21:29
00017 suncat0026 pw.x -in pw.inp   Done                     12/18/2018 18:21:29
00018 suncat0026 pw.x -in pw.inp   Done                     12/18/2018 18:21:29
00019 suncat0026 pw.x -in pw.inp   Done                     12/18/2018 18:21:29
00020 suncat0026 pw.x -in pw.inp   Done                     12/18/2018 18:21:29
00021 suncat0026 pw.x -in pw.inp   Done                     12/18/2018 18:21:29
00022 suncat0026 pw.x -in pw.inp   Done                     12/18/2018 18:21:29
00023 suncat0026 pw.x -in pw.inp   Done                     12/18/2018 18:21:29
00024 suncat0025 pw.x -in pw.inp   Done                     12/18/2018 18:21:29
00025 suncat0025 pw.x -in pw.inp   Done                     12/18/2018 18:21:29
00026 suncat0025 pw.x -in pw.inp   Done                     12/18/2018 18:21:29
00027 suncat0025 pw.x -in pw.inp   Done                     12/18/2018 18:21:29
00028 suncat0025 pw.x -in pw.inp   Done                     12/18/2018 18:21:29
00029 suncat0025 pw.x -in pw.inp   Done                     12/18/2018 18:21:29
00030 suncat0025 pw.x -in pw.inp   Done                     12/18/2018 18:21:29
00031 suncat0025 pw.x -in pw.inp   Done                     12/18/2018 18:21:29