     Program PWSCF v.5.1rc2 (svn rev. 11289) starts on 19Dec2018 at  6:36:21

     Current dimensions of program PWSCF are:
     Max number of different atomic species (ntypx) = 10
     Max number of k-points (npk) =  40000
     Max angular momentum in pseudopotentials (lmaxx) =  3
     Presently stress not available with electric field

     IMPORTANT: XC functional enforced from input :
     Exchange-correlation      = BEEF-VDW ( 1  4 27 13 2)
     Any further DFT definition will be discarded
     Please, verify this is what you really want

     Subspace diagonalization in iterative solution of the eigenvalue problem:
     a serial algorithm will be used

     Found symmetry operation: I + ( -0.5000  0.0000  0.0000)
     This is a supercell, fractional translations are disabled

     bravais-lattice index     =            0
     lattice parameter (alat)  =       1.8897  a.u.
     unit-cell volume          =    7576.6190 (a.u.)^3
     number of atoms/cell      =           12
     number of atomic types    =            2
     number of electrons       =       162.00
     number of Kohn-Sham states=          111
     kinetic-energy cutoff     =      36.7493  Ry
     charge density cutoff     =     367.4932  Ry
     convergence threshold     =      1.0E-06
     mixing beta               =       0.1000
     number of iterations used =           10  plain     mixing
     Exchange-correlation      = BEEF-VDW ( 1  4 27 13 2)
     nstep                     =           50

     celldm(1)=   1.889726  celldm(2)=   0.000000  celldm(3)=   0.000000
     celldm(4)=   0.000000  celldm(5)=   0.000000  celldm(6)=   0.000000

     crystal axes: (cart. coord. in units of alat)
               a(1) = (   6.980954   0.000000   0.000000 )
               a(2) = (  -3.490477   6.237196   0.000000 )
               a(3) = (   0.000000   0.000000  25.785448 )

     reciprocal axes: (cart. coord. in units 2 pi/alat)
               b(1) = (  0.143247  0.080164  0.000000 )
               b(2) = (  0.000000  0.160328  0.000000 )
               b(3) = (  0.000000  0.000000  0.038782 )

     PseudoPot. # 1 for Sn read from file:
     /afs/slac.stanford.edu/u/if/mamunm/psp/gbrv1.5pbe/Sn.UPF
     MD5 check sum: 469debedee59599fedebd795477fea03
     Pseudo is Ultrasoft + core correction, Zval = 14.0
     Generated by new atomic code, or converted to UPF format
     Using radial grid of  891 points,  6 beta functions with:
                l(1) =   0
                l(2) =   0
                l(3) =   1
                l(4) =   1
                l(5) =   2
                l(6) =   2
     Q(r) pseudized with  8 coefficients,  rinner =    1.350   1.350   1.350
                                                       1.350   1.350

     PseudoPot. # 2 for Tl read from file:
     /afs/slac.stanford.edu/u/if/mamunm/psp/gbrv1.5pbe/Tl.UPF
     MD5 check sum: b76cf1f7e72655a2b2c53cf6385d7059
     Pseudo is Ultrasoft + core correction, Zval = 13.0
     Generated by new atomic code, or converted to UPF format
     Using radial grid of  899 points,  6 beta functions with:
                l(1) =   0
                l(2) =   0
                l(3) =   1
                l(4) =   1
                l(5) =   2
                l(6) =   2
     Q(r) pseudized with  6 coefficients,  rinner =    1.100   1.100   1.100
                                                       1.100   1.100

     vdW kernel table read from file vdW_kernel_table
     MD5 check sum: 095c7af220d748ca6e76c0b4c6cfb241

     atomic species   valence    mass     pseudopotential
        Sn1           14.00   118.71000     Sn( 1.00)
        Tl1           13.00   204.38000     Tl( 1.00)

     No symmetry found

   Cartesian axes

     site n.     atom                  positions (alat units)
         1           Sn1 tau(   1) = (   0.0000000   0.0000000  10.0000000  )
         2           Sn1 tau(   2) = (   3.4904768   0.0000000  10.0000000  )
         3           Tl1 tau(   3) = (   1.7452384   3.1185982  10.0000000  )
         4           Tl1 tau(   4) = (  -1.7452384   3.1185982  10.0000000  )
         5           Sn1 tau(   5) = (   3.4904768   1.9533501  12.8927239  )
         6           Sn1 tau(   6) = (   0.0000000   1.9533501  12.8927239  )
         7           Tl1 tau(   7) = (  -1.7452384   5.0719483  12.8927239  )
         8           Tl1 tau(   8) = (   1.7452384   5.0719483  12.8927239  )
         9           Sn1 tau(   9) = (   0.0000000   3.9067003  15.7854478  )
        10           Sn1 tau(  10) = (   3.4904768   3.9067003  15.7854478  )
        11           Tl1 tau(  11) = (   5.2357152   0.7881021  15.7854478  )
        12           Tl1 tau(  12) = (   1.7452384   0.7881021  15.7854478  )

     number of k points=    20  Fermi-Dirac smearing, width (Ry)=  0.0110
                       cart. coord. in units 2pi/alat
        k(    1) = (   0.0000000   0.0000000   0.0000000), wk =   0.0555556
        k(    2) = (   0.0000000   0.0267214   0.0000000), wk =   0.1111111
        k(    3) = (   0.0000000   0.0534428   0.0000000), wk =   0.1111111
        k(    4) = (   0.0000000  -0.0801642   0.0000000), wk =   0.0555556
        k(    5) = (   0.0238745   0.0133607   0.0000000), wk =   0.1111111
        k(    6) = (   0.0238745   0.0400821   0.0000000), wk =   0.1111111
        k(    7) = (   0.0238745   0.0668035   0.0000000), wk =   0.1111111
        k(    8) = (   0.0238745  -0.0668035   0.0000000), wk =   0.1111111
        k(    9) = (   0.0238745  -0.0400821   0.0000000), wk =   0.1111111
        k(   10) = (   0.0238745  -0.0133607   0.0000000), wk =   0.1111111
        k(   11) = (   0.0477490   0.0267214   0.0000000), wk =   0.1111111
        k(   12) = (   0.0477490   0.0534428   0.0000000), wk =   0.1111111
        k(   13) = (   0.0477490   0.0801642   0.0000000), wk =   0.1111111
        k(   14) = (   0.0477490  -0.0534428   0.0000000), wk =   0.1111111
        k(   15) = (   0.0477490  -0.0267214   0.0000000), wk =   0.1111111
        k(   16) = (   0.0477490   0.0000000   0.0000000), wk =   0.1111111
        k(   17) = (  -0.0716235  -0.0400821   0.0000000), wk =   0.0555556
        k(   18) = (  -0.0716235  -0.0133607   0.0000000), wk =   0.1111111
        k(   19) = (  -0.0716235   0.0133607   0.0000000), wk =   0.1111111
        k(   20) = (  -0.0716235  -0.1202463   0.0000000), wk =   0.0555556

     Largest allocated arrays     est. size (Mb)     dimensions
     Largest temporary arrays     est. size (Mb)     dimensions

     Check: negative/imaginary core charge=   -0.000001    0.000000

     Initial potential from superposition of free atoms
     Check: negative starting charge=   -0.307986

     starting charge  155.97053, renormalised to  162.00000

     negative rho (up, down):  3.199E-01 0.000E+00

     *
     * You are using vdW-DF for exchange-correlation in this calculation.
     * Please cite the following three references that made this development
     * possible:
     *
     *   M. Dion, H. Rydberg, E. Schroder, D. C. Langreth, and
     *   B. I. Lundqvist, Phys. Rev. Lett. 92, 246401 (2004).
     *
     *   T. Thonhauser, V. R. Cooper, S. Li, A. Puzder, P. Hyldgaard, and
     *   D. C. Langreth, Phys. Rev. B 76, 125112 (2007).
     *
     *   G. Roman-Perez and J. M. Soler, Phys. Rev. Lett. 103, 096102 (2009).
     *
     *
     * If you are using vdW-DF2, please also cite:
     *
     *   K. Lee, E. D. Murray, L. Kong, B. I. Lundqvist, and
     *   D. C. Langreth, Phys. Rev. B 82, 081101(R) (2010).
     *
     *
     * If you are calculating the stress with vdW-DF, please also cite:
     *
     *   R. Sabatini, E. Kucukbenli, B. Kolb, T. Thonhauser, and
     *   S. de Gironcoli, J. Phys.: Condens. Matter 24, 424209 (2012).
     *

     Carrying out vdW-DF run using the following parameters:

     Nqs =      20    Nr_points =    1024   r_max =   100.000
     q_mesh =
               0.00001000     0.04494208     0.09755937     0.15916263
               0.23128650     0.31572767     0.41458969     0.53033537
               0.66584808     0.82450364     1.01025438     1.22772762
               1.48234092     1.78043706     2.12944203     2.53805004
               3.01644009     3.57652955     4.23227104     5.00000000

     Gradients computed in reciprocal space

     Adding external electric field

     Computed dipole along edir(3) :
        Dipole                0.0000 Ry au,          0.0000 Debye
        Dipole field          0.0000 Ry au

        Potential amp.       -0.0000 Ry
        Total length         47.5092 bohr

     Starting wfc are  108 randomized atomic wfcs +    3 random wfc

     Self-consistent Calculation

     iteration #  1     ecut=    36.75 Ry     beta=0.10
     Davidson diagonalization with overlap
     ethr =  1.00E-02,  avg # of iterations =  8.8

[...]

     total energy              =   -1845.68869537 Ry
     Harris-Foulkes estimate   =   -1846.17410291 Ry
     estimated scf accuracy    <       2.97838315 Ry

[...]

     End of self-consistent calculation

          k = 0.0000 0.0000 0.0000 ( 28433 PWs)   bands (ev):

   -21.5440 -21.5433 -21.5211 -21.5207 -21.5203 -21.5170 -21.5169 -21.5161
   -21.5155 -21.5149 -21.5132 -21.5127 -21.5046 -21.5039 -21.4904 -21.4904
   -21.4735 -21.4732 -21.4449 -21.4425 -21.3673 -21.3451 -21.3171 -21.3142
   -21.3131 -21.3129 -21.3092 -21.3045 -21.2864 -21.2600 -11.5045 -11.4805
   -11.3886 -11.3730 -11.3571 -11.3498 -11.3446 -11.3293 -11.3287 -11.2948
   -11.2842 -11.2604 -11.2567 -11.2430 -11.2359 -11.2220 -11.1921 -11.1840
   -11.1798 -11.1523 -11.1502 -11.1101 -11.1035 -11.0835 -11.0583 -11.0577
   -11.0265 -11.0232 -11.0079 -10.8982  -8.9379  -7.9467  -6.4837  -5.7476
    -5.3703  -5.3249  -5.1719  -4.9896  -4.6347  -4.6125  -4.5959  -3.8165
    -2.4487  -2.2851  -1.9925  -1.7762  -1.3864  -1.3261  -1.2576  -1.1216
    -1.0509  -0.8541   0.4351   1.7197   1.7662   2.1661   2.1948   2.7249
     2.9526   2.9797   3.1910   3.5621   3.8467   3.9408   4.0714   4.0780
     4.1468   4.1921   4.3853   4.6925   4.9901   5.1734   5.3066   5.5846
     5.7377   5.8481   5.9270   5.9781   6.1314   6.4486   6.4516

[...]

          k =-0.0716-0.0401 0.0000 ( 28522 PWs)   bands (ev):

[...]

     the Fermi energy is     0.4236 ev

!    total energy              =   -1844.93687985 Ry
     Harris-Foulkes estimate   =   -1844.93685185 Ry
     estimated scf accuracy    <       0.00000020 Ry

     The total energy is the sum of the following terms:

     one-electron contribution =   -8424.09683785 Ry
     hartree contribution      =    4282.48422205 Ry
     xc contribution           =    -650.46037590 Ry
     ewald contribution        =    2947.17742864 Ry
     electric field correction =       0.00000000 Ry
     smearing contrib. (-TS)   =      -0.04131679 Ry

     convergence has been achieved in  15 iterations

 BEEF-vdW xc energy contributions
           1 :   -576.276450284672
           2 :    531.584098486420
           3 :   -454.453701312574
           4 :    364.103566842163
           5 :   -279.251619860268
           6 :    211.922219708475
           7 :   -164.973328984877
           8 :    133.772602927990
           9 :   -110.612773783238
[...]

[...]

   This run was terminated on:   7: 1:43  19Dec2018

[...]

     Program PWSCF v.5.1rc2 (svn rev. 11289) starts on 19Dec2018 at  7: 1:49

[...]

   This run was terminated on:   7: 7:53  19Dec2018

[...]

     Program PWSCF v.5.1rc2 (svn rev. 11289) starts on 19Dec2018 at  7: 7:58

[...]

   This run was terminated on:   7:14: 4  19Dec2018

[...]

     Total force =     0.036018     Total SCF correction =     0.002812

[...]

     Program PWSCF v.5.1rc2 (svn rev. 11289) starts on 19Dec2018 at  7:26:42

     Current dimensions of program PWSCF are:
     Max number of different atomic species (ntypx) = 10
     Max number of k-points (npk) =  40000
     Max angular momentum in pseudopotentials (lmaxx) =  3
     Presently stress not available with electric field

     IMPORTANT: XC functional enforced from input :
     Exchange-correlation      = BEEF-VDW ( 1  4 27 13 2)
     Any further DFT definition will be discarded
     Please, verify this is what you really want

     Subspace diagonalization in iterative solution of the eigenvalue problem:
     a serial algorithm will be used

     bravais-lattice index     =            0
     lattice parameter (alat)  =       1.8897  a.u.
     unit-cell volume          =    7576.6190 (a.u.)^3
     number of atoms/cell      =           12
     number of atomic types    =            2
     number of electrons       =       162.00
     number of Kohn-Sham states=          111
     kinetic-energy cutoff     =      36.7493  Ry
     charge density cutoff     =     367.4932  Ry
     convergence threshold     =      1.0E-06
     mixing beta               =       0.1000
     number of iterations used =           10  plain     mixing
     Exchange-correlation      = BEEF-VDW ( 1  4 27 13 2)
     nstep                     =           50

     celldm(1)=   1.889726  celldm(2)=   0.000000  celldm(3)=   0.000000
     celldm(4)=   0.000000  celldm(5)=   0.000000  celldm(6)=   0.000000

     crystal axes: (cart. coord. in units of alat)
               a(1) = (   6.980954   0.000000   0.000000 )
               a(2) = (  -3.490477   6.237196   0.000000 )
               a(3) = (   0.000000   0.000000  25.785448 )

     reciprocal axes: (cart. coord. in units 2 pi/alat)
               b(1) = (  0.143247  0.080164  0.000000 )
               b(2) = (  0.000000  0.160328  0.000000 )
               b(3) = (  0.000000  0.000000  0.038782 )

     PseudoPot. # 1 for Sn read from file:
     /afs/slac.stanford.edu/u/if/mamunm/psp/gbrv1.5pbe/Sn.UPF
     MD5 check sum: 469debedee59599fedebd795477fea03
     Pseudo is Ultrasoft + core correction, Zval = 14.0
     Generated by new atomic code, or converted to UPF format
     Using radial grid of  891 points,  6 beta functions with:
                l(1) =   0
                l(2) =   0
                l(3) =   1
                l(4) =   1
                l(5) =   2
                l(6) =   2
     Q(r) pseudized with  8 coefficients,  rinner =    1.350   1.350   1.350
                                                       1.350   1.350

     PseudoPot. # 2 for Tl read from file:
     /afs/slac.stanford.edu/u/if/mamunm/psp/gbrv1.5pbe/Tl.UPF
     MD5 check sum: b76cf1f7e72655a2b2c53cf6385d7059
     Pseudo is Ultrasoft + core correction, Zval = 13.0
     Generated by new atomic code, or converted to UPF format
     Using radial grid of  899 points,  6 beta functions with:
                l(1) =   0
                l(2) =   0
                l(3) =   1
                l(4) =   1
                l(5) =   2
                l(6) =   2
     Q(r) pseudized with  6 coefficients,  rinner =    1.100   1.100   1.100
                                                       1.100   1.100

     vdW kernel table read from file vdW_kernel_table
     MD5 check sum: 095c7af220d748ca6e76c0b4c6cfb241

     atomic species   valence    mass     pseudopotential
        Sn1           14.00   118.71000     Sn( 1.00)
        Tl1           13.00   204.38000     Tl( 1.00)

     No symmetry found

   Cartesian axes

     site n.     atom                  positions (alat units)
         1           Sn1 tau(   1) = (   0.0000000   0.0000000  10.0000000  )
         2           Sn1 tau(   2) = (   3.4904768   0.0000000  10.0000000  )
         3           Tl1 tau(   3) = (   1.7452384   3.1185982  10.0000000  )
         4           Tl1 tau(   4) = (  -1.7452384   3.1185982  10.0000000  )
         5           Sn1 tau(   5) = (   3.4904768   1.9533501  12.8927239  )
         6           Sn1 tau(   6) = (   0.0000000   1.9533501  12.8927239  )
         7           Tl1 tau(   7) = (  -1.7452384   5.0719483  12.8927239  )
         8           Tl1 tau(   8) = (   1.7452384   5.0719483  12.8927239  )
         9           Sn1 tau(   9) = (   0.0001444   3.8072408  15.4579203  )
        10           Sn1 tau(  10) = (   3.4905244   3.8072700  15.4577531  )
        11           Tl1 tau(  11) = (   5.2354355   0.8152903  15.8217084  )
        12           Tl1 tau(  12) = (   1.7451050   0.8148754  15.8210281  )

     number of k points=    20  Fermi-Dirac smearing, width (Ry)=  0.0110
                       cart. coord. in units 2pi/alat
        k(    1) = (   0.0000000   0.0000000   0.0000000), wk =   0.0555556
        k(    2) = (   0.0000000   0.0267214   0.0000000), wk =   0.1111111
        k(    3) = (   0.0000000   0.0534428   0.0000000), wk =   0.1111111
        k(    4) = (   0.0000000  -0.0801642   0.0000000), wk =   0.0555556
        k(    5) = (   0.0238745   0.0133607   0.0000000), wk =   0.1111111
        k(    6) = (   0.0238745   0.0400821   0.0000000), wk =   0.1111111
        k(    7) = (   0.0238745   0.0668035   0.0000000), wk =   0.1111111
        k(    8) = (   0.0238745  -0.0668035   0.0000000), wk =   0.1111111
        k(    9) = (   0.0238745  -0.0400821   0.0000000), wk =   0.1111111
        k(   10) = (   0.0238745  -0.0133607   0.0000000), wk =   0.1111111
        k(   11) = (   0.0477490   0.0267214   0.0000000), wk =   0.1111111
        k(   12) = (   0.0477490   0.0534428   0.0000000), wk =   0.1111111
        k(   13) = (   0.0477490   0.0801642   0.0000000), wk =   0.1111111
        k(   14) = (   0.0477490  -0.0534428   0.0000000), wk =   0.1111111
        k(   15) = (   0.0477490  -0.0267214   0.0000000), wk =   0.1111111
        k(   16) = (   0.0477490   0.0000000   0.0000000), wk =   0.1111111
        k(   17) = (  -0.0716235  -0.0400821   0.0000000), wk =   0.0555556
        k(   18) = (  -0.0716235  -0.0133607   0.0000000), wk =   0.1111111
        k(   19) = (  -0.0716235   0.0133607   0.0000000), wk =   0.1111111
        k(   20) = (  -0.0716235  -0.1202463   0.0000000), wk =   0.0555556

     Largest allocated arrays     est. size (Mb)     dimensions
     Largest temporary arrays     est. size (Mb)     dimensions

     Check: negative/imaginary core charge=   -0.000001    0.000000

     Initial potential from superposition of free atoms
     Check: negative starting charge=   -0.307031

     starting charge  155.97053, renormalised to  162.00000

[...]

     *
     * You are using vdW-DF for exchange-correlation in this calculation.
     * Please cite the following three references that made this development
     * possible:
     *
     *   M. Dion, H. Rydberg, E. Schroder, D. C. Langreth, and
     *   B. I. Lundqvist, Phys. Rev. Lett. 92, 246401 (2004).
     *
     *   T. Thonhauser, V. R. Cooper, S. Li, A. Puzder, P. Hyldgaard, and
     *   D. C. Langreth, Phys. Rev. B 76, 125112 (2007).
     *
     *   G. Roman-Perez and J. M. Soler, Phys. Rev. Lett. 103, 096102 (2009).
     *
     *
     * If you are using vdW-DF2, please also cite:
     *
     *   K. Lee, E. D. Murray, L. Kong, B. I. Lundqvist, and
     *   D. C. Langreth, Phys. Rev. B 82, 081101(R) (2010).
     *
     *
     * If you are calculating the stress with vdW-DF, please also cite:
     *
     *   R. Sabatini, E. Kucukbenli, B. Kolb, T. Thonhauser, and
     *   S. de Gironcoli, J. Phys.: Condens. Matter 24, 424209 (2012).
     *

     Carrying out vdW-DF run using the following parameters:

     Nqs =      20    Nr_points =    1024   r_max =   100.000
     q_mesh =
               0.00001000     0.04494208     0.09755937     0.15916263
               0.23128650     0.31572767     0.41458969     0.53033537
               0.66584808     0.82450364     1.01025438     1.22772762
               1.48234092     1.78043706     2.12944203     2.53805004
               3.01644009     3.57652955     4.23227104     5.00000000

     Gradients computed in reciprocal space

[...]

     Starting wfc are  108 randomized atomic wfcs +    3 random wfc

     Self-consistent Calculation

[...]

     total energy              =   -1844.94809587 Ry
     Harris-Foulkes estimate   =   -1844.94808150 Ry
     estimated scf accuracy    <       0.00000300 Ry

     iteration # 15     ecut=    36.75 Ry     beta=0.10
     Davidson diagonalization with overlap
     ethr =  1.85E-09,  avg # of iterations =  3.0

[...]

     negative rho (up, down):  3.158E-01 0.000E+00

     Adding external electric field

     Computed dipole along edir(3) :
        Dipole                0.0080 Ry au,          0.0204 Debye
        Dipole field          0.0000 Ry au

        Potential amp.       -0.0013 Ry
        Total length         47.5092 bohr

     End of self-consistent calculation

[...]

          k = 0.0477 0.0000 0.0000 ( 28467 PWs)   bands (ev):

[...]

          k =-0.0716-0.1202 0.0000 ( 28522 PWs)   bands (ev):

   -21.5444 -21.5444 -21.5393 -21.5393 -21.5256 -21.5256 -21.5061 -21.5061
   -21.5051 -21.5051 -21.3999 -21.3999 -21.3865 -21.3864 -21.3853 -21.3852
   -21.3738 -21.3737 -21.3649 -21.3649 -21.2862 -21.2862 -21.2847 -21.2847
   -21.2578 -21.2578 -21.2498 -21.2498 -21.2267 -21.2267 -11.3547 -11.3547
   -11.2955 -11.2955 -11.2904 -11.2904 -11.2729 -11.2727 -11.2672 -11.2670
   -11.2517 -11.2517 -11.2377 -11.2377 -11.2324 -11.2323 -11.2139 -11.2139
   -11.2075 -11.2074 -11.1356 -11.1356 -11.1157 -11.1157 -11.0968 -11.0968
   -11.0906 -11.0906 -11.0339 -11.0338  -8.0517  -8.0514  -6.9979  -6.9978
    -6.0021  -6.0019  -5.4436  -5.4434  -5.0226  -5.0225  -4.1132  -4.1131
    -1.0583  -1.0580  -0.6077  -0.6076  -0.3584  -0.3583   0.2741   0.2742
     0.4749   0.4750   1.1054   1.1057   1.3601   1.3603   1.7992   1.7994
     2.3305   2.3308   2.7532   2.7533   3.1600   3.1603   3.5086   3.5088
     3.8741   3.8743   4.1479   4.1481   4.5765   4.5768   4.7823   4.7825
     5.0220   5.0224   5.2078   5.2081   5.4760   5.4762   5.7038

     the Fermi energy is     0.4515 ev

!    total energy              =   -1844.94812669 Ry
     Harris-Foulkes estimate   =   -1844.94809659 Ry
     estimated scf accuracy    <       0.00000036 Ry

     The total energy is the sum of the following terms:

     one-electron contribution =   -8601.70253415 Ry
     hartree contribution      =    4371.48160562 Ry
     xc contribution           =    -650.57334500 Ry
     ewald contribution        =    3035.88551823 Ry
     electric field correction =       0.00000011 Ry
     smearing contrib. (-TS)   =      -0.03937150 Ry

     convergence has been achieved in  15 iterations

 BEEF-vdW xc energy contributions
           1 :   -576.394820912117
           2 :    531.764498463820
           3 :   -454.714159342178
           4 :    364.394635255185
           5 :   -279.476912290523
           6 :    211.996837780369
           7 :   -164.880855966627
           8 :    133.581149833233
           9 :   -110.437756858672
          10 :    89.2779162355587
          11 :   -68.0327363573938
          12 :    48.4645870593060
          13 :   -33.7827195283459
          14 :    25.9101013106208
          15 :   -24.0601276460216
          16 :    25.2245685495596
          17 :   -25.9804656566719
          18 :    24.3382662898945
          19 :   -20.5332879980987
          20 :    16.4212255727025
          21 :   -14.0157731914899
          22 :    14.1438450484122
          23 :   -16.0220713426578
          24 :    17.9015281077789
          25 :   -18.2628512416599
          26 :    16.7527157688407
          27 :   -14.3046948260194
          28 :    12.4427755756020
          29 :   -12.2755438204666
          30 :    13.8285580980397
          31 :   -47.8721339493618
          32 :   -34.8332207375412

     Forces acting on atoms (Ry/au):

     negative rho (up, down):  3.158E-01 0.000E+00
     atom    1 type  1   force =     0.00000405    0.00431989    0.01551413
     atom    2 type  1   force =    -0.00000017    0.00431118    0.01551853
     atom    3 type  2   force =     0.00000411   -0.00337456   -0.00195398
     atom    4 type  2   force =     0.00000217   -0.00337947   -0.00189017
     atom    5 type  1   force =     0.00001025   -0.00362215   -0.00630063
     atom    6 type  1   force =    -0.00000975   -0.00362858   -0.00629986
     atom    7 type  2   force =    -0.00000041    0.00457435   -0.00872134
     atom    8 type  2   force =     0.00000280    0.00459457   -0.00872547
     atom    9 type  1   force =    -0.00000443   -0.00020700    0.00083721
     atom   10 type  1   force =    -0.00000089   -0.00019090    0.00084684
     atom   11 type  2   force =    -0.00000229   -0.00170256    0.00059943
     atom   12 type  2   force =    -0.00000543   -0.00169477    0.00057531

     Total force =     0.029272     Total SCF correction =     0.003099
     SCF correction compared to forces is large: reduce conv_thr to get better values

     entering subroutine stress ...

     negative rho (up, down):  3.158E-01 0.000E+00
          total   stress  (Ry/bohr**3)                   (kbar)     P=   -7.69
  -0.00005780  -0.00000000   0.00000000         -8.50     -0.00      0.00
  -0.00000000  -0.00005278  -0.00000368         -0.00     -7.76     -0.54
   0.00000000  -0.00000368  -0.00004626          0.00     -0.54     -6.80

 !ASE

     Writing output data file calc.save

     General routines

     Parallel routines

   This run was terminated on:   7:32:49  19Dec2018

   JOB DONE.
Job  /afs/slac/g/suncat/bin/suncat-tsmpirun -x LD_LIBRARY_PATH -wdir /scratch/qe530615_yIOgA pw.x -in pw.inp

TID   HOST_NAME   COMMAND_LINE            STATUS            TERMINATION_TIME
00000 suncat2046 pw.x -in pw.inp   Done                     12/19/2018 07:32:49
00001 suncat2046 pw.x -in pw.inp   Done                     12/19/2018 07:32:49
00002 suncat2046 pw.x -in pw.inp   Done                     12/19/2018 07:32:49
00003 suncat2046 pw.x -in pw.inp   Done                     12/19/2018 07:32:49
00004 suncat2046 pw.x -in pw.inp   Done                     12/19/2018 07:32:49
00005 suncat2046 pw.x -in pw.inp   Done                     12/19/2018 07:32:49
00006 suncat2046 pw.x -in pw.inp   Done                     12/19/2018 07:32:49
00007 suncat2046 pw.x -in pw.inp   Done                     12/19/2018 07:32:49
00008 suncat2046 pw.x -in pw.inp   Done                     12/19/2018 07:32:49
00009 suncat2046 pw.x -in pw.inp   Done                     12/19/2018 07:32:49
00010 suncat2046 pw.x -in pw.inp   Done                     12/19/2018 07:32:49
00011 suncat2046 pw.x -in pw.inp   Done                     12/19/2018 07:32:49
00012 suncat2046 pw.x -in pw.inp   Done                     12/19/2018 07:32:49
00013 suncat2046 pw.x -in pw.inp   Done                     12/19/2018 07:32:49
00014 suncat2046 pw.x -in pw.inp   Done                     12/19/2018 07:32:49
00015 suncat2046 pw.x -in pw.inp   Done                     12/19/2018 07:32:49
00016 suncat2045 pw.x -in pw.inp   Done                     12/19/2018 07:32:49
00017 suncat2045 pw.x -in pw.inp   Done                     12/19/2018 07:32:49
00018 suncat2045 pw.x -in pw.inp   Done                     12/19/2018 07:32:49
00019 suncat2045 pw.x -in pw.inp   Done                     12/19/2018 07:32:49
00020 suncat2045 pw.x -in pw.inp   Done                     12/19/2018 07:32:49
00021 suncat2045 pw.x -in pw.inp   Done                     12/19/2018 07:32:49
00022 suncat2045 pw.x -in pw.inp   Done                     12/19/2018 07:32:49
00023 suncat2045 pw.x -in pw.inp   Done                     12/19/2018 07:32:49
00024 suncat2045 pw.x -in pw.inp   Done                     12/19/2018 07:32:49
00025 suncat2045 pw.x -in pw.inp   Done                     12/19/2018 07:32:49
00026 suncat2045 pw.x -in pw.inp   Done                     12/19/2018 07:32:49
00027 suncat2045 pw.x -in pw.inp   Done                     12/19/2018 07:32:49
00028 suncat2045 pw.x -in pw.inp   Done                     12/19/2018 07:32:49
00029 suncat2045 pw.x -in pw.inp   Done                     12/19/2018 07:32:49
00030 suncat2045 pw.x -in pw.inp   Done                     12/19/2018 07:32:49
00031 suncat2045 pw.x -in pw.inp   Done                     12/19/2018 07:32:49