     Program PWSCF v.5.1rc2 (svn rev. 11289) starts on 18Dec2018 at 19:33: 6

     Current dimensions of program PWSCF are:
     Max number of different atomic species (ntypx) = 10
     Max number of k-points (npk) =  40000
     Max angular momentum in pseudopotentials (lmaxx) =  3
     Presently stress not available with electric field

     IMPORTANT: XC functional enforced from input :
     Exchange-correlation      = BEEF-VDW ( 1  4 27 13 2)
     Any further DFT definition will be discarded
     Please, verify this is what you really want

     Subspace diagonalization in iterative solution of the eigenvalue problem:
     a serial algorithm will be used

     Found symmetry operation: I + ( -0.5000 -0.5000  0.0000)
     This is a supercell, fractional translations are disabled

     Generating pointlists ...
     new r_m :   0.4125 (alat units)  0.7795 (a.u.) for type    1
     new r_m :   0.4125 (alat units)  0.7795 (a.u.) for type    2

     bravais-lattice index     =            0
     lattice parameter (alat)  =       1.8897  a.u.
     unit-cell volume          =    3732.7916 (a.u.)^3
     number of atoms/cell      =           12
     number of atomic types    =            2
     number of electrons       =       120.00
     number of Kohn-Sham states=           90
     kinetic-energy cutoff     =      36.7493  Ry
     charge density cutoff     =     367.4932  Ry
     convergence threshold     =      1.0E-06
     mixing beta               =       0.1000
     number of iterations used =           10  plain     mixing
     Exchange-correlation      = BEEF-VDW ( 1  4 27 13 2)
     nstep                     =           50

     celldm(1)=   1.889726  celldm(2)=   0.000000  celldm(3)=   0.000000
     celldm(4)=   0.000000  celldm(5)=   0.000000  celldm(6)=   0.000000

     crystal axes: (cart. coord. in units of alat)
               a(1) = (   4.940904   0.000000   0.000000 )
               a(2) = (   1.648048   4.657947   0.000000 )
               a(3) = (   0.000000   0.000000  24.034561 )

     reciprocal axes: (cart. coord. in units 2 pi/alat)
               b(1) = (  0.202392 -0.071609  0.000000 )
               b(2) = (  0.000000  0.214687  0.000000 )
               b(3) = (  0.000000  0.000000  0.041607 )

     PseudoPot. # 1 for Co read from file:
     /afs/slac.stanford.edu/u/if/mamunm/psp/gbrv1.5pbe/Co.UPF
     MD5 check sum: 5f91765df6ddd3222702df6e7b74a16d
     Pseudo is Ultrasoft + core correction, Zval = 17.0
     Generated by new atomic code, or converted to UPF format
     Using radial grid of  863 points,  6 beta functions with:
                l(1) =   0
                l(2) =   0
                l(3) =   1
                l(4) =   1
                l(5) =   2
                l(6) =   2
     Q(r) pseudized with  8 coefficients,  rinner =    1.200   1.200   1.200
                                                       1.200   1.200

     PseudoPot. # 2 for Al read from file:
     /afs/slac.stanford.edu/u/if/mamunm/psp/gbrv1.5pbe/Al.UPF
     MD5 check sum: 0a6289f5291fc8f409219462bc851e1f
     Pseudo is Ultrasoft + core correction, Zval =  3.0
     Generated by new atomic code, or converted to UPF format
     Using radial grid of  893 points,  3 beta functions with:
                l(1) =   0
                l(2) =   1
                l(3) =   2
     Q(r) pseudized with  8 coefficients,  rinner =    0.900   0.900   0.900
                                                       0.900   0.900

     vdW kernel table read from file vdW_kernel_table
     MD5 check sum: 095c7af220d748ca6e76c0b4c6cfb241

     atomic species   valence    mass     pseudopotential
        Co1           17.00    58.93319     Co( 1.00)
        Al1            3.00    26.98154     Al( 1.00)

     Starting magnetic structure
     atomic species   magnetization
        Co1          0.118
        Al1          0.667

     No symmetry found

   Cartesian axes

     site n.     atom                  positions (alat units)
         1           Co1 tau(   1) = (   0.0000000   0.0000000  10.0000000  )
         2           Co1 tau(   2) = (   3.2944761   2.3289734  10.0000000  )
         3           Al1 tau(   3) = (   2.4704520   0.0000000  10.0000000  )
         4           Al1 tau(   4) = (   0.8240242   2.3289734  10.0000000  )
         5           Co1 tau(   5) = (   4.9409040   3.4928873  12.0172807  )
         6           Co1 tau(   6) = (   1.6464278   1.1639139  12.0172807  )
         7           Al1 tau(   7) = (   2.4704520   3.4928873  12.0172807  )
         8           Al1 tau(   8) = (   4.1168798   1.1639139  12.0172807  )
         9           Co1 tau(   9) = (   3.2928556   2.3278278  14.0345615  )
        10           Co1 tau(  10) = (   6.5873318   4.6568012  14.0345615  )
        11           Al1 tau(  11) = (   5.7633076   2.3278278  14.0345615  )
        12           Al1 tau(  12) = (   4.1168798   4.6568012  14.0345615  )

     number of k points=    40  Fermi-Dirac smearing, width (Ry)=  0.0110
                       cart. coord. in units 2pi/alat
        k(    1) = (   0.0000000   0.0000000   0.0000000), wk =   0.0277778
        k(    2) = (   0.0000000   0.0357811   0.0000000), wk =   0.0555556
        k(    3) = (   0.0000000   0.0715623   0.0000000), wk =   0.0555556
        k(    4) = (   0.0000000  -0.1073434   0.0000000), wk =   0.0277778
        k(    5) = (   0.0337320  -0.0119349   0.0000000), wk =   0.0555556
        k(    6) = (   0.0337320   0.0238463   0.0000000), wk =   0.0555556
        k(    7) = (   0.0337320   0.0596274   0.0000000), wk =   0.0555556
        k(    8) = (   0.0337320  -0.1192783   0.0000000), wk =   0.0555556
        k(    9) = (   0.0337320  -0.0834972   0.0000000), wk =   0.0555556
        k(   10) = (   0.0337320  -0.0477160   0.0000000), wk =   0.0555556
        k(   11) = (   0.0674640  -0.0238697   0.0000000), wk =   0.0555556
        k(   12) = (   0.0674640   0.0119114   0.0000000), wk =   0.0555556
        k(   13) = (   0.0674640   0.0476925   0.0000000), wk =   0.0555556
        k(   14) = (   0.0674640  -0.1312132   0.0000000), wk =   0.0555556
        k(   15) = (   0.0674640  -0.0954320   0.0000000), wk =   0.0555556
        k(   16) = (   0.0674640  -0.0596509   0.0000000), wk =   0.0555556
        k(   17) = (  -0.1011961   0.0358046   0.0000000), wk =   0.0277778
        k(   18) = (  -0.1011961   0.0715858   0.0000000), wk =   0.0555556
        k(   19) = (  -0.1011961   0.1073669   0.0000000), wk =   0.0555556
        k(   20) = (  -0.1011961  -0.0715388   0.0000000), wk =   0.0277778
        k(   21) = (   0.0000000   0.0000000   0.0000000), wk =   0.0277778
        k(   22) = (   0.0000000   0.0357811   0.0000000), wk =   0.0555556
        k(   23) = (   0.0000000   0.0715623   0.0000000), wk =   0.0555556
        k(   24) = (   0.0000000  -0.1073434   0.0000000), wk =   0.0277778
        k(   25) = (   0.0337320  -0.0119349   0.0000000), wk =   0.0555556
        k(   26) = (   0.0337320   0.0238463   0.0000000), wk =   0.0555556
        k(   27) = (   0.0337320   0.0596274   0.0000000), wk =   0.0555556
        k(   28) = (   0.0337320  -0.1192783   0.0000000), wk =   0.0555556
        k(   29) = (   0.0337320  -0.0834972   0.0000000), wk =   0.0555556
        k(   30) = (   0.0337320  -0.0477160   0.0000000), wk =   0.0555556
        k(   31) = (   0.0674640  -0.0238697   0.0000000), wk =   0.0555556
        k(   32) = (   0.0674640   0.0119114   0.0000000), wk =   0.0555556
        k(   33) = (   0.0674640   0.0476925   0.0000000), wk =   0.0555556
        k(   34) = (   0.0674640  -0.1312132   0.0000000), wk =   0.0555556
        k(   35) = (   0.0674640  -0.0954320   0.0000000), wk =   0.0555556
        k(   36) = (   0.0674640  -0.0596509   0.0000000), wk =   0.0555556
        k(   37) = (  -0.1011961   0.0358046   0.0000000), wk =   0.0277778
        k(   38) = (  -0.1011961   0.0715858   0.0000000), wk =   0.0555556
        k(   39) = (  -0.1011961   0.1073669   0.0000000), wk =   0.0555556
        k(   40) = (  -0.1011961  -0.0715388   0.0000000), wk =   0.0277778

     Largest allocated arrays     est. size (Mb)     dimensions
     Largest temporary arrays     est. size (Mb)     dimensions

     Check: negative/imaginary core charge=   -0.000003    0.000000

     Initial potential from superposition of free atoms
     Check: negative starting charge=(component1):   -0.000152
     Check: negative starting charge=(component2):   -0.000103

     starting charge  113.98517, renormalised to  120.00000

     negative rho (up, down):  1.603E-04 1.079E-04

     *
     * You are using vdW-DF for exchange-correlation in this calculation.
     * Please cite the following three references that made this development
     * possible:
     *
     *   M. Dion, H. Rydberg, E. Schroder, D. C. Langreth, and
     *   B. I. Lundqvist, Phys. Rev. Lett. 92, 246401 (2004).
     *
     *   T. Thonhauser, V. R. Cooper, S. Li, A. Puzder, P. Hyldgaard, and
     *   D. C. Langreth, Phys. Rev. B 76, 125112 (2007).
     *
     *   G. Roman-Perez and J. M. Soler, Phys. Rev. Lett. 103, 096102 (2009).
     *
     *
     * If you are using vdW-DF2, please also cite:
     *
     *   K. Lee, E. D. Murray, L. Kong, B. I. Lundqvist, and
     *   D. C. Langreth, Phys. Rev. B 82, 081101(R) (2010).
     *
     *
     * If you are calculating the stress with vdW-DF, please also cite:
     *
     *   R. Sabatini, E. Kucukbenli, B. Kolb, T. Thonhauser, and
     *   S. de Gironcoli, J. Phys.: Condens. Matter 24, 424209 (2012).
     *

     Carrying out vdW-DF run using the following parameters:

     Nqs =      20    Nr_points =    1024   r_max =   100.000
     q_mesh =
               0.00001000     0.04494208     0.09755937     0.15916263
               0.23128650     0.31572767     0.41458969     0.53033537
               0.66584808     0.82450364     1.01025438     1.22772762
               1.48234092     1.78043706     2.12944203     2.53805004
               3.01644009     3.57652955     4.23227104     5.00000000

     Gradients computed in reciprocal space

     Adding external electric field

     Computed dipole along edir(3) :
        Dipole                0.0000 Ry au,          0.0000 Debye
        Dipole field          0.0000 Ry au

        Potential amp.       -0.0000 Ry
        Total length         44.2833 bohr

[...]

     Starting wfc are  102 randomized atomic wfcs

     Self-consistent Calculation

     iteration #  1     ecut=    36.75 Ry     beta=0.10
     Davidson diagonalization with overlap
     ethr =  1.00E-02,  avg # of iterations =  7.0

[...]

     Magnetic moment per site:
     atom:    1    charge:    8.4138    magn:    0.9612    constr:    0.0000
     atom:    2    charge:    8.4138    magn:    0.9612    constr:    0.0000
     atom:    3    charge:    0.0992    magn:    0.0533    constr:    0.0000
     atom:    4    charge:    0.0992    magn:    0.0533    constr:    0.0000
     atom:    5    charge:    8.4414    magn:    0.9543    constr:    0.0000
     atom:    6    charge:    8.4414    magn:    0.9543    constr:    0.0000
     atom:    7    charge:    0.1034    magn:    0.0549    constr:    0.0000
[...]
     MD5 check sum: 5f91765df6ddd3222702df6e7b74a16d
     Pseudo is Ultrasoft + core correction, Zval = 17.0
     Generated by new atomic code, or converted to UPF format
     Using radial grid of  863 points,  6 beta functions with:
                l(1) =   0
                l(2) =   0
                l(3) =   1
                l(4) =   1
                l(5) =   2
                l(6) =   2
     Q(r) pseudized with  8 coefficients,  rinner =    1.200   1.200   1.200
                                                       1.200   1.200

     PseudoPot. # 2 for Al read from file:
     /afs/slac.stanford.edu/u/if/mamunm/psp/gbrv1.5pbe/Al.UPF
     MD5 check sum: 0a6289f5291fc8f409219462bc851e1f
     Pseudo is Ultrasoft + core correction, Zval =  3.0
     Generated by new atomic code, or converted to UPF format
     Using radial grid of  893 points,  3 beta functions with:
                l(1) =   0
                l(2) =   1
                l(3) =   2
     Q(r) pseudized with  8 coefficients,  rinner =    0.900   0.900   0.900
                                                       0.900   0.900

     vdW kernel table read from file vdW_kernel_table
     MD5 check sum: 095c7af220d748ca6e76c0b4c6cfb241

     atomic species   valence    mass     pseudopotential
        Co1           17.00    58.93319     Co( 1.00)
        Al1            3.00    26.98154     Al( 1.00)

     Starting magnetic structure
     atomic species   magnetization
        Co1          0.118
        Al1          0.667

     No symmetry found

   Cartesian axes

     site n.     atom                  positions (alat units)
         1           Co1 tau(   1) = (   0.0000000   0.0000000  10.0000000  )
         2           Co1 tau(   2) = (   3.2944761   2.3289734  10.0000000  )
         3           Al1 tau(   3) = (   2.4704520   0.0000000  10.0000000  )
         4           Al1 tau(   4) = (   0.8240242   2.3289734  10.0000000  )
         5           Co1 tau(   5) = (   4.9409040   3.4928873  12.0172807  )
         6           Co1 tau(   6) = (   1.6464278   1.1639139  12.0172807  )
         7           Al1 tau(   7) = (   2.4704520   3.4928873  12.0172807  )
         8           Al1 tau(   8) = (   4.1168798   1.1639139  12.0172807  )
         9           Co1 tau(   9) = (   3.2931482   2.3280385  13.9607912  )
        10           Co1 tau(  10) = (   6.5875791   4.6569723  13.9608637  )
        11           Al1 tau(  11) = (   5.7635846   2.3280247  14.1313931  )
        12           Al1 tau(  12) = (   4.1171614   4.6569994  14.1313932  )

     number of k points=    40  Fermi-Dirac smearing, width (Ry)=  0.0110
                       cart. coord. in units 2pi/alat
        k(    1) = (   0.0000000   0.0000000   0.0000000), wk =   0.0277778
        k(    2) = (   0.0000000   0.0357811   0.0000000), wk =   0.0555556
        k(    3) = (   0.0000000   0.0715623   0.0000000), wk =   0.0555556
        k(    4) = (   0.0000000  -0.1073434   0.0000000), wk =   0.0277778
        k(    5) = (   0.0337320  -0.0119349   0.0000000), wk =   0.0555556
        k(    6) = (   0.0337320   0.0238463   0.0000000), wk =   0.0555556
        k(    7) = (   0.0337320   0.0596274   0.0000000), wk =   0.0555556
        k(    8) = (   0.0337320  -0.1192783   0.0000000), wk =   0.0555556
        k(    9) = (   0.0337320  -0.0834972   0.0000000), wk =   0.0555556
        k(   10) = (   0.0337320  -0.0477160   0.0000000), wk =   0.0555556
        k(   11) = (   0.0674640  -0.0238697   0.0000000), wk =   0.0555556
        k(   12) = (   0.0674640   0.0119114   0.0000000), wk =   0.0555556
        k(   13) = (   0.0674640   0.0476925   0.0000000), wk =   0.0555556
        k(   14) = (   0.0674640  -0.1312132   0.0000000), wk =   0.0555556
        k(   15) = (   0.0674640  -0.0954320   0.0000000), wk =   0.0555556
        k(   16) = (   0.0674640  -0.0596509   0.0000000), wk =   0.0555556
        k(   17) = (  -0.1011961   0.0358046   0.0000000), wk =   0.0277778
        k(   18) = (  -0.1011961   0.0715858   0.0000000), wk =   0.0555556
        k(   19) = (  -0.1011961   0.1073669   0.0000000), wk =   0.0555556
        k(   20) = (  -0.1011961  -0.0715388   0.0000000), wk =   0.0277778
        k(   21) = (   0.0000000   0.0000000   0.0000000), wk =   0.0277778
        k(   22) = (   0.0000000   0.0357811   0.0000000), wk =   0.0555556
        k(   23) = (   0.0000000   0.0715623   0.0000000), wk =   0.0555556
        k(   24) = (   0.0000000  -0.1073434   0.0000000), wk =   0.0277778
        k(   25) = (   0.0337320  -0.0119349   0.0000000), wk =   0.0555556
        k(   26) = (   0.0337320   0.0238463   0.0000000), wk =   0.0555556
        k(   27) = (   0.0337320   0.0596274   0.0000000), wk =   0.0555556
        k(   28) = (   0.0337320  -0.1192783   0.0000000), wk =   0.0555556
        k(   29) = (   0.0337320  -0.0834972   0.0000000), wk =   0.0555556
        k(   30) = (   0.0337320  -0.0477160   0.0000000), wk =   0.0555556
        k(   31) = (   0.0674640  -0.0238697   0.0000000), wk =   0.0555556
        k(   32) = (   0.0674640   0.0119114   0.0000000), wk =   0.0555556
        k(   33) = (   0.0674640   0.0476925   0.0000000), wk =   0.0555556
        k(   34) = (   0.0674640  -0.1312132   0.0000000), wk =   0.0555556
        k(   35) = (   0.0674640  -0.0954320   0.0000000), wk =   0.0555556
        k(   36) = (   0.0674640  -0.0596509   0.0000000), wk =   0.0555556
        k(   37) = (  -0.1011961   0.0358046   0.0000000), wk =   0.0277778
        k(   38) = (  -0.1011961   0.0715858   0.0000000), wk =   0.0555556
        k(   39) = (  -0.1011961   0.1073669   0.0000000), wk =   0.0555556
        k(   40) = (  -0.1011961  -0.0715388   0.0000000), wk =   0.0277778

     Largest allocated arrays     est. size (Mb)     dimensions
     Largest temporary arrays     est. size (Mb)     dimensions

     Check: negative/imaginary core charge=   -0.000003    0.000000

     Initial potential from superposition of free atoms
     Check: negative starting charge=(component1):   -0.000154
     Check: negative starting charge=(component2):   -0.000102

     starting charge  113.98517, renormalised to  120.00000

[...]

     *
     * You are using vdW-DF for exchange-correlation in this calculation.
     * Please cite the following three references that made this development
     * possible:
     *
     *   M. Dion, H. Rydberg, E. Schroder, D. C. Langreth, and
     *   B. I. Lundqvist, Phys. Rev. Lett. 92, 246401 (2004).
     *
     *   T. Thonhauser, V. R. Cooper, S. Li, A. Puzder, P. Hyldgaard, and
     *   D. C. Langreth, Phys. Rev. B 76, 125112 (2007).
     *
     *   G. Roman-Perez and J. M. Soler, Phys. Rev. Lett. 103, 096102 (2009).
     *
     *
     * If you are using vdW-DF2, please also cite:
     *
     *   K. Lee, E. D. Murray, L. Kong, B. I. Lundqvist, and
     *   D. C. Langreth, Phys. Rev. B 82, 081101(R) (2010).
     *
     *
     * If you are calculating the stress with vdW-DF, please also cite:
     *
     *   R. Sabatini, E. Kucukbenli, B. Kolb, T. Thonhauser, and
     *   S. de Gironcoli, J. Phys.: Condens. Matter 24, 424209 (2012).
     *

     Carrying out vdW-DF run using the following parameters:

     Nqs =      20    Nr_points =    1024   r_max =   100.000
     q_mesh =
               0.00001000     0.04494208     0.09755937     0.15916263
               0.23128650     0.31572767     0.41458969     0.53033537
               0.66584808     0.82450364     1.01025438     1.22772762
               1.48234092     1.78043706     2.12944203     2.53805004
               3.01644009     3.57652955     4.23227104     5.00000000

     Gradients computed in reciprocal space

[...]

     Starting wfc are  102 randomized atomic wfcs

     Self-consistent Calculation

[...]

     total energy              =   -1838.69263546 Ry
     Harris-Foulkes estimate   =   -1838.69263682 Ry
     estimated scf accuracy    <       0.00000163 Ry

[...]

     iteration # 41     ecut=    36.75 Ry     beta=0.10
     Davidson diagonalization with overlap
     ethr =  1.36E-09,  avg # of iterations =  2.2

[...]

     negative rho (up, down):  4.007E-04 4.000E-04

[...]

     Adding external electric field

     Computed dipole along edir(3) :
        Dipole                0.0100 Ry au,          0.0254 Debye
        Dipole field          0.0000 Ry au

        Potential amp.       -0.0030 Ry
        Total length         44.2833 bohr

     Magnetic moment per site:
     atom:    1    charge:    8.2942    magn:    0.2133    constr:    0.0000
     atom:    2    charge:    8.2942    magn:    0.2133    constr:    0.0000
     atom:    3    charge:    0.0814    magn:   -0.0014    constr:    0.0000
     atom:    4    charge:    0.0814    magn:   -0.0014    constr:    0.0000
     atom:    5    charge:    8.2978    magn:    0.0437    constr:    0.0000
     atom:    6    charge:    8.2978    magn:    0.0437    constr:    0.0000
     atom:    7    charge:    0.0830    magn:   -0.0008    constr:    0.0000
     atom:    8    charge:    0.0830    magn:   -0.0008    constr:    0.0000
     atom:    9    charge:    8.2875    magn:    0.0513    constr:    0.0000
     atom:   10    charge:    8.2874    magn:    0.0514    constr:    0.0000
     atom:   11    charge:    0.0801    magn:   -0.0004    constr:    0.0000
     atom:   12    charge:    0.0801    magn:   -0.0004    constr:    0.0000

     End of self-consistent calculation

 ------ SPIN UP ------------

[...]

 ------ SPIN DOWN ----------

[...]

          k = 0.0675-0.0597 0.0000 ( 14028 PWs)   bands (ev):

[...]

          k =-0.1012-0.0715 0.0000 ( 14092 PWs)   bands (ev):

   -94.6793 -94.6764 -94.5028 -94.4999 -94.3177 -94.3148 -58.0637 -58.0229
   -57.9925 -57.9886 -57.9879 -57.9840 -57.9212 -57.8815 -57.8194 -57.8153
   -57.7604 -57.7572 -57.7290 -57.6890 -57.6635 -57.6592 -57.5788 -57.5753
    -7.8970  -7.8810  -6.1561  -6.0779  -5.7261  -5.5483  -4.7470  -3.9459
    -3.7996  -3.5120  -3.4075  -2.9729  -2.4300  -2.1433  -2.1142  -2.0191
    -1.9251  -1.8495  -1.8318  -1.7093  -1.4826  -1.3575  -1.3449  -1.3294
    -1.2184  -1.0447  -0.9047  -0.8852  -0.8339  -0.6393  -0.6296  -0.5740
    -0.4241  -0.2913  -0.1771  -0.1159   0.0230   0.5013   0.7683   0.8796
     0.9644   1.7772   1.9978   2.1426   3.4760   3.7266   4.3168   4.6210
     4.7880   5.5027   5.7360   5.8843   6.1704   6.1913   6.4715   6.5810
     6.6366   6.6621   6.7762   7.3928   7.4085   7.4205   7.6054   7.6263
     7.9470   8.3790

     the Fermi energy is    -0.2133 ev

!    total energy              =   -1838.69263827 Ry
     Harris-Foulkes estimate   =   -1838.69263772 Ry
     estimated scf accuracy    <       0.00000054 Ry

     The total energy is the sum of the following terms:

     one-electron contribution =  -10929.15430909 Ry
     hartree contribution      =    5470.43192940 Ry
     xc contribution           =    -229.89784965 Ry
     ewald contribution        =    3849.98601442 Ry
     electric field correction =       0.00000033 Ry
     smearing contrib. (-TS)   =      -0.05842368 Ry

     total magnetization       =     1.06 Bohr mag/cell
     absolute magnetization    =     1.44 Bohr mag/cell

     convergence has been achieved in  41 iterations

 BEEF-vdW xc energy contributions
           1 :   -200.932280042480
           2 :    181.313649716966
           3 :   -148.255323175795
           4 :    111.057265068825
           5 :   -78.0234936619656
           6 :    53.4808499405212
           7 :   -37.2444728329681
           8 :    26.2844591642692
           9 :   -17.2629086658312
          10 :    8.40872179790185
          11 :   5.662480411558590E-002
          12 :   -6.76524432007386
          13 :    10.4807282420380
          14 :   -10.9862849113848
          15 :    9.18481392596146
          16 :   -6.55586904289191
          17 :    4.39306813381279
          18 :   -3.26774707332996
          19 :    2.94310213493793
          20 :   -2.71876615723713
          21 :    1.96221040653316
          22 :  -0.529351446150457
          23 :   -1.15526455822624
          24 :    2.37619499641607
          25 :   -2.58739964230656
          26 :    1.76270955672416
          27 :  -0.423371906853049
          28 :  -0.681521393095977
          29 :    1.03214501744932
          30 :  -0.639927816490967
          31 :   -18.4746085797223
          32 :   -12.9694859176056

     Forces acting on atoms (Ry/au):

     negative rho (up, down):  4.007E-04 4.000E-04
     atom    1 type  1   force =    -0.00002629   -0.00002075    0.01802984
     atom    2 type  1   force =    -0.00003318   -0.00002135    0.01798800
     atom    3 type  2   force =    -0.00004042   -0.00002891   -0.01765844
     atom    4 type  2   force =    -0.00004086   -0.00002852   -0.01765844
     atom    5 type  1   force =     0.00002314    0.00001609    0.00700087
     atom    6 type  1   force =    -0.00000995   -0.00000686    0.00700578
     atom    7 type  2   force =     0.00001815    0.00001671   -0.00918114
     atom    8 type  2   force =     0.00002179    0.00001156   -0.00918035
     atom    9 type  1   force =     0.00001281    0.00001068    0.00100091
     atom   10 type  1   force =     0.00004035    0.00002696    0.00091836
     atom   11 type  2   force =     0.00002040    0.00000766    0.00086731
     atom   12 type  2   force =     0.00001407    0.00001673    0.00086730

     Total force =     0.039272     Total SCF correction =     0.003564

     entering subroutine stress ...

     negative rho (up, down):  4.007E-04 4.000E-04
          total   stress  (Ry/bohr**3)                   (kbar)     P=  -15.61
  -0.00013742   0.00003772   0.00000022        -20.22      5.55      0.03
   0.00003772  -0.00016411   0.00000015          5.55    -24.14      0.02
   0.00000022   0.00000015  -0.00001673          0.03      0.02     -2.46

 !ASE

     Writing output data file calc.save

     General routines

     Parallel routines

   This run was terminated on:  22:13:17  18Dec2018

   JOB DONE.
Job  /afs/slac/g/suncat/bin/suncat-tsmpirun -x LD_LIBRARY_PATH -wdir /scratch/qe529665_MGA9m pw.x -in pw.inp

TID   HOST_NAME   COMMAND_LINE            STATUS            TERMINATION_TIME
00000 suncat0095 pw.x -in pw.inp   Done                     12/18/2018 22:13:17
00001 suncat0095 pw.x -in pw.inp   Done                     12/18/2018 22:13:17
00002 suncat0095 pw.x -in pw.inp   Done                     12/18/2018 22:13:17
00003 suncat0095 pw.x -in pw.inp   Done                     12/18/2018 22:13:17
00004 suncat0095 pw.x -in pw.inp   Done                     12/18/2018 22:13:17
00005 suncat0095 pw.x -in pw.inp   Done                     12/18/2018 22:13:17
00006 suncat0095 pw.x -in pw.inp   Done                     12/18/2018 22:13:17
00007 suncat0095 pw.x -in pw.inp   Done                     12/18/2018 22:13:17
00008 suncat0200 pw.x -in pw.inp   Done                     12/18/2018 22:13:17
00009 suncat0200 pw.x -in pw.inp   Done                     12/18/2018 22:13:17
00010 suncat0200 pw.x -in pw.inp   Done                     12/18/2018 22:13:17
00011 suncat0200 pw.x -in pw.inp   Done                     12/18/2018 22:13:17
00012 suncat0200 pw.x -in pw.inp   Done                     12/18/2018 22:13:17
00013 suncat0200 pw.x -in pw.inp   Done                     12/18/2018 22:13:17
00014 suncat0200 pw.x -in pw.inp   Done                     12/18/2018 22:13:17
00015 suncat0200 pw.x -in pw.inp   Done                     12/18/2018 22:13:17
00016 suncat0099 pw.x -in pw.inp   Done                     12/18/2018 22:13:17
00017 suncat0099 pw.x -in pw.inp   Done                     12/18/2018 22:13:17
00018 suncat0099 pw.x -in pw.inp   Done                     12/18/2018 22:13:17
00019 suncat0099 pw.x -in pw.inp   Done                     12/18/2018 22:13:17
00020 suncat0099 pw.x -in pw.inp   Done                     12/18/2018 22:13:17
00021 suncat0099 pw.x -in pw.inp   Done                     12/18/2018 22:13:17
00022 suncat0099 pw.x -in pw.inp   Done                     12/18/2018 22:13:17
00023 suncat0099 pw.x -in pw.inp   Done                     12/18/2018 22:13:17
00024 suncat0098 pw.x -in pw.inp   Done                     12/18/2018 22:13:17
00025 suncat0098 pw.x -in pw.inp   Done                     12/18/2018 22:13:17
00026 suncat0098 pw.x -in pw.inp   Done                     12/18/2018 22:13:17
00027 suncat0098 pw.x -in pw.inp   Done                     12/18/2018 22:13:17
00028 suncat0098 pw.x -in pw.inp   Done                     12/18/2018 22:13:17
00029 suncat0098 pw.x -in pw.inp   Done                     12/18/2018 22:13:17
00030 suncat0098 pw.x -in pw.inp   Done                     12/18/2018 22:13:17
00031 suncat0098 pw.x -in pw.inp   Done                     12/18/2018 22:13:17