     Program PWSCF v.5.1rc2 (svn rev. 11289) starts on 18Dec2018 at 19:47:20

     Current dimensions of program PWSCF are:
     Max number of different atomic species (ntypx) = 10
     Max number of k-points (npk) =  40000
     Max angular momentum in pseudopotentials (lmaxx) =  3
     Presently stress not available with electric field

     IMPORTANT: XC functional enforced from input :
     Exchange-correlation      = BEEF-VDW ( 1  4 27 13 2)
     Any further DFT definition will be discarded
     Please, verify this is what you really want

     Subspace diagonalization in iterative solution of the eigenvalue problem:
     a serial algorithm will be used

     Found symmetry operation: I + ( -0.5000 -0.5000  0.0000)
     This is a supercell, fractional translations are disabled

     Generating pointlists ...
     new r_m :   0.4125 (alat units)  0.7795 (a.u.) for type    1
     new r_m :   0.4125 (alat units)  0.7795 (a.u.) for type    2

     bravais-lattice index     =            0
     lattice parameter (alat)  =       1.8897  a.u.
     unit-cell volume          =    3834.2695 (a.u.)^3
     number of atoms/cell      =           12
     number of atomic types    =            2
     number of electrons       =       216.00
     number of Kohn-Sham states=          138
     kinetic-energy cutoff     =      36.7493  Ry
     charge density cutoff     =     367.4932  Ry
     convergence threshold     =      1.0E-06
     mixing beta               =       0.1000
     number of iterations used =           10  plain     mixing
     Exchange-correlation      = BEEF-VDW ( 1  4 27 13 2)
     nstep                     =           50

     celldm(1)=   1.889726  celldm(2)=   0.000000  celldm(3)=   0.000000
     celldm(4)=   0.000000  celldm(5)=   0.000000  celldm(6)=   0.000000

     crystal axes: (cart. coord. in units of alat)
               a(1) = (   5.002450   0.000000   0.000000 )
               a(2) = (   1.668984   4.715825   0.000000 )
               a(3) = (   0.000000   0.000000  24.084942 )

     reciprocal axes: (cart. coord. in units 2 pi/alat)
               b(1) = (  0.199902 -0.070748  0.000000 )
               b(2) = (  0.000000  0.212052  0.000000 )
               b(3) = (  0.000000  0.000000  0.041520 )

     PseudoPot. # 1 for Co read from file:
     /afs/slac.stanford.edu/u/if/mamunm/psp/gbrv1.5pbe/Co.UPF
     MD5 check sum: 5f91765df6ddd3222702df6e7b74a16d
     Pseudo is Ultrasoft + core correction, Zval = 17.0
     Generated by new atomic code, or converted to UPF format
     Using radial grid of  863 points,  6 beta functions with:
                l(1) =   0
                l(2) =   0
                l(3) =   1
                l(4) =   1
                l(5) =   2
                l(6) =   2
     Q(r) pseudized with  8 coefficients,  rinner =    1.200   1.200   1.200
                                                       1.200   1.200

     PseudoPot. # 2 for Ga read from file:
     /afs/slac.stanford.edu/u/if/mamunm/psp/gbrv1.5pbe/Ga.UPF
     MD5 check sum: ccd671392a58a050fbb373893b4fcd66
     Pseudo is Ultrasoft + core correction, Zval = 19.0
     Generated by new atomic code, or converted to UPF format
     Using radial grid of  871 points,  6 beta functions with:
                l(1) =   0
                l(2) =   0
                l(3) =   1
                l(4) =   1
                l(5) =   2
                l(6) =   2
     Q(r) pseudized with  8 coefficients,  rinner =    1.250   1.250   1.250
                                                       1.250   1.250

     vdW kernel table read from file vdW_kernel_table
     MD5 check sum: 095c7af220d748ca6e76c0b4c6cfb241

     atomic species   valence    mass     pseudopotential
        Co1           17.00    58.93319     Co( 1.00)
        Ga1           19.00    69.72300     Ga( 1.00)

     Starting magnetic structure
     atomic species   magnetization
        Co1          0.118
        Ga1          0.105

     No symmetry found

   Cartesian axes

     site n.     atom                  positions (alat units)
         1           Co1 tau(   1) = (   0.0000000   0.0000000  10.0000000  )
         2           Co1 tau(   2) = (   3.3357174   2.3579123  10.0000000  )
         3           Ga1 tau(   3) = (   2.5012252   0.0000000  10.0000000  )
         4           Ga1 tau(   4) = (   0.8344922   2.3579123  10.0000000  )
         5           Co1 tau(   5) = (   5.0024504   3.5360727  12.0424711  )
         6           Co1 tau(   6) = (   1.6667330   1.1781604  12.0424711  )
         7           Ga1 tau(   7) = (   2.5012252   3.5360727  12.0424711  )
         8           Ga1 tau(   8) = (   4.1679582   1.1781604  12.0424711  )
         9           Co1 tau(   9) = (   3.3334660   2.3563209  14.0849422  )
        10           Co1 tau(  10) = (   6.6691834   4.7142331  14.0849422  )
        11           Ga1 tau(  11) = (   5.8346912   2.3563209  14.0849422  )
        12           Ga1 tau(  12) = (   4.1679582   4.7142331  14.0849422  )

     number of k points=    40  Fermi-Dirac smearing, width (Ry)=  0.0110
                       cart. coord. in units 2pi/alat
        k(    1) = (   0.0000000   0.0000000   0.0000000), wk =   0.0277778
        k(    2) = (   0.0000000   0.0353420   0.0000000), wk =   0.0555556
        k(    3) = (   0.0000000   0.0706840   0.0000000), wk =   0.0555556
        k(    4) = (   0.0000000  -0.1060260   0.0000000), wk =   0.0277778
        k(    5) = (   0.0333170  -0.0117913   0.0000000), wk =   0.0555556
        k(    6) = (   0.0333170   0.0235507   0.0000000), wk =   0.0555556
        k(    7) = (   0.0333170   0.0588927   0.0000000), wk =   0.0555556
        k(    8) = (   0.0333170  -0.1178173   0.0000000), wk =   0.0555556
        k(    9) = (   0.0333170  -0.0824753   0.0000000), wk =   0.0555556
        k(   10) = (   0.0333170  -0.0471333   0.0000000), wk =   0.0555556
        k(   11) = (   0.0666340  -0.0235825   0.0000000), wk =   0.0555556
        k(   12) = (   0.0666340   0.0117595   0.0000000), wk =   0.0555556
        k(   13) = (   0.0666340   0.0471015   0.0000000), wk =   0.0555556
        k(   14) = (   0.0666340  -0.1296085   0.0000000), wk =   0.0555556
        k(   15) = (   0.0666340  -0.0942665   0.0000000), wk =   0.0555556
        k(   16) = (   0.0666340  -0.0589245   0.0000000), wk =   0.0555556
        k(   17) = (  -0.0999510   0.0353738   0.0000000), wk =   0.0277778
        k(   18) = (  -0.0999510   0.0707158   0.0000000), wk =   0.0555556
        k(   19) = (  -0.0999510   0.1060578   0.0000000), wk =   0.0555556
        k(   20) = (  -0.0999510  -0.0706522   0.0000000), wk =   0.0277778
        k(   21) = (   0.0000000   0.0000000   0.0000000), wk =   0.0277778
        k(   22) = (   0.0000000   0.0353420   0.0000000), wk =   0.0555556
        k(   23) = (   0.0000000   0.0706840   0.0000000), wk =   0.0555556
        k(   24) = (   0.0000000  -0.1060260   0.0000000), wk =   0.0277778
        k(   25) = (   0.0333170  -0.0117913   0.0000000), wk =   0.0555556
        k(   26) = (   0.0333170   0.0235507   0.0000000), wk =   0.0555556
        k(   27) = (   0.0333170   0.0588927   0.0000000), wk =   0.0555556
        k(   28) = (   0.0333170  -0.1178173   0.0000000), wk =   0.0555556
        k(   29) = (   0.0333170  -0.0824753   0.0000000), wk =   0.0555556
        k(   30) = (   0.0333170  -0.0471333   0.0000000), wk =   0.0555556
        k(   31) = (   0.0666340  -0.0235825   0.0000000), wk =   0.0555556
        k(   32) = (   0.0666340   0.0117595   0.0000000), wk =   0.0555556
        k(   33) = (   0.0666340   0.0471015   0.0000000), wk =   0.0555556
        k(   34) = (   0.0666340  -0.1296085   0.0000000), wk =   0.0555556
        k(   35) = (   0.0666340  -0.0942665   0.0000000), wk =   0.0555556
        k(   36) = (   0.0666340  -0.0589245   0.0000000), wk =   0.0555556
        k(   37) = (  -0.0999510   0.0353738   0.0000000), wk =   0.0277778
        k(   38) = (  -0.0999510   0.0707158   0.0000000), wk =   0.0555556
        k(   39) = (  -0.0999510   0.1060578   0.0000000), wk =   0.0555556
        k(   40) = (  -0.0999510  -0.0706522   0.0000000), wk =   0.0277778

     Largest allocated arrays     est. size (Mb)     dimensions
     Largest temporary arrays     est. size (Mb)     dimensions

     Check: negative/imaginary core charge=   -0.000004    0.000000

     Initial potential from superposition of free atoms
     Check: negative starting charge=(component1):   -0.000430
     Check: negative starting charge=(component2):   -0.000348

     starting charge  203.99995, renormalised to  216.00000

     negative rho (up, down):  4.556E-04 3.685E-04

     *
     * You are using vdW-DF for exchange-correlation in this calculation.
     * Please cite the following three references that made this development
     * possible:
     *
     *   M. Dion, H. Rydberg, E. Schroder, D. C. Langreth, and
     *   B. I. Lundqvist, Phys. Rev. Lett. 92, 246401 (2004).
     *
     *   T. Thonhauser, V. R. Cooper, S. Li, A. Puzder, P. Hyldgaard, and
     *   D. C. Langreth, Phys. Rev. B 76, 125112 (2007).
     *
     *   G. Roman-Perez and J. M. Soler, Phys. Rev. Lett. 103, 096102 (2009).
     *
     *
     * If you are using vdW-DF2, please also cite:
     *
     *   K. Lee, E. D. Murray, L. Kong, B. I. Lundqvist, and
     *   D. C. Langreth, Phys. Rev. B 82, 081101(R) (2010).
     *
     *
     * If you are calculating the stress with vdW-DF, please also cite:
     *
     *   R. Sabatini, E. Kucukbenli, B. Kolb, T. Thonhauser, and
     *   S. de Gironcoli, J. Phys.: Condens. Matter 24, 424209 (2012).
     *

     Carrying out vdW-DF run using the following parameters:

     Nqs =      20    Nr_points =    1024   r_max =   100.000
     q_mesh =
               0.00001000     0.04494208     0.09755937     0.15916263
               0.23128650     0.31572767     0.41458969     0.53033537
               0.66584808     0.82450364     1.01025438     1.22772762
               1.48234092     1.78043706     2.12944203     2.53805004
               3.01644009     3.57652955     4.23227104     5.00000000

     Gradients computed in reciprocal space

     Adding external electric field

     Computed dipole along edir(3) :
        Dipole                0.0000 Ry au,          0.0000 Debye
        Dipole field          0.0000 Ry au

        Potential amp.       -0.0000 Ry
        Total length         44.3761 bohr

[...]

     Starting wfc are  150 randomized atomic wfcs

     Self-consistent Calculation

     iteration #  1     ecut=    36.75 Ry     beta=0.10
     Davidson diagonalization with overlap
     ethr =  1.00E-02,  avg # of iterations =  7.2

[...]

     Magnetic moment per site:
     atom:    1    charge:    8.4481    magn:    0.9683    constr:    0.0000
     atom:    2    charge:    8.4480    magn:    0.9683    constr:    0.0000
     atom:    3    charge:   11.3873    magn:    1.1526    constr:    0.0000
     atom:    4    charge:   11.3873    magn:    1.1526    constr:    0.0000
     atom:    5    charge:    8.4583    magn:    0.9657    constr:    0.0000
     atom:    6    charge:    8.4583    magn:    0.9657    constr:    0.0000
[...]
     Pseudo is Ultrasoft + core correction, Zval = 19.0
     Generated by new atomic code, or converted to UPF format
     Using radial grid of  871 points,  6 beta functions with:
                l(1) =   0
                l(2) =   0
                l(3) =   1
                l(4) =   1
                l(5) =   2
                l(6) =   2
     Q(r) pseudized with  8 coefficients,  rinner =    1.250   1.250   1.250
                                                       1.250   1.250

     vdW kernel table read from file vdW_kernel_table
     MD5 check sum: 095c7af220d748ca6e76c0b4c6cfb241

     atomic species   valence    mass     pseudopotential
        Co1           17.00    58.93319     Co( 1.00)
        Ga1           19.00    69.72300     Ga( 1.00)

     Starting magnetic structure
     atomic species   magnetization
        Co1          0.118
        Ga1          0.105

     No symmetry found

   Cartesian axes

     site n.     atom                  positions (alat units)
         1           Co1 tau(   1) = (   0.0000000   0.0000000  10.0000000  )
         2           Co1 tau(   2) = (   3.3357174   2.3579123  10.0000000  )
         3           Ga1 tau(   3) = (   2.5012252   0.0000000  10.0000000  )
         4           Ga1 tau(   4) = (   0.8344922   2.3579123  10.0000000  )
         5           Co1 tau(   5) = (   5.0024504   3.5360727  12.0424711  )
         6           Co1 tau(   6) = (   1.6667330   1.1781604  12.0424711  )
         7           Ga1 tau(   7) = (   2.5012252   3.5360727  12.0424711  )
         8           Ga1 tau(   8) = (   4.1679582   1.1781604  12.0424711  )
         9           Co1 tau(   9) = (   3.3339543   2.3566656  13.9881021  )
        10           Co1 tau(  10) = (   6.6692001   4.7142451  13.9881097  )
        11           Ga1 tau(  11) = (   5.8348158   2.3567058  14.2778467  )
        12           Ga1 tau(  12) = (   4.1683626   4.7142223  14.2778451  )

     number of k points=    40  Fermi-Dirac smearing, width (Ry)=  0.0110
                       cart. coord. in units 2pi/alat
        k(    1) = (   0.0000000   0.0000000   0.0000000), wk =   0.0277778
        k(    2) = (   0.0000000   0.0353420   0.0000000), wk =   0.0555556
        k(    3) = (   0.0000000   0.0706840   0.0000000), wk =   0.0555556
        k(    4) = (   0.0000000  -0.1060260   0.0000000), wk =   0.0277778
        k(    5) = (   0.0333170  -0.0117913   0.0000000), wk =   0.0555556
        k(    6) = (   0.0333170   0.0235507   0.0000000), wk =   0.0555556
        k(    7) = (   0.0333170   0.0588927   0.0000000), wk =   0.0555556
        k(    8) = (   0.0333170  -0.1178173   0.0000000), wk =   0.0555556
        k(    9) = (   0.0333170  -0.0824753   0.0000000), wk =   0.0555556
        k(   10) = (   0.0333170  -0.0471333   0.0000000), wk =   0.0555556
        k(   11) = (   0.0666340  -0.0235825   0.0000000), wk =   0.0555556
        k(   12) = (   0.0666340   0.0117595   0.0000000), wk =   0.0555556
        k(   13) = (   0.0666340   0.0471015   0.0000000), wk =   0.0555556
        k(   14) = (   0.0666340  -0.1296085   0.0000000), wk =   0.0555556
        k(   15) = (   0.0666340  -0.0942665   0.0000000), wk =   0.0555556
        k(   16) = (   0.0666340  -0.0589245   0.0000000), wk =   0.0555556
        k(   17) = (  -0.0999510   0.0353738   0.0000000), wk =   0.0277778
        k(   18) = (  -0.0999510   0.0707158   0.0000000), wk =   0.0555556
        k(   19) = (  -0.0999510   0.1060578   0.0000000), wk =   0.0555556
        k(   20) = (  -0.0999510  -0.0706522   0.0000000), wk =   0.0277778
        k(   21) = (   0.0000000   0.0000000   0.0000000), wk =   0.0277778
        k(   22) = (   0.0000000   0.0353420   0.0000000), wk =   0.0555556
        k(   23) = (   0.0000000   0.0706840   0.0000000), wk =   0.0555556
        k(   24) = (   0.0000000  -0.1060260   0.0000000), wk =   0.0277778
        k(   25) = (   0.0333170  -0.0117913   0.0000000), wk =   0.0555556
        k(   26) = (   0.0333170   0.0235507   0.0000000), wk =   0.0555556
        k(   27) = (   0.0333170   0.0588927   0.0000000), wk =   0.0555556
        k(   28) = (   0.0333170  -0.1178173   0.0000000), wk =   0.0555556
        k(   29) = (   0.0333170  -0.0824753   0.0000000), wk =   0.0555556
        k(   30) = (   0.0333170  -0.0471333   0.0000000), wk =   0.0555556
        k(   31) = (   0.0666340  -0.0235825   0.0000000), wk =   0.0555556
        k(   32) = (   0.0666340   0.0117595   0.0000000), wk =   0.0555556
        k(   33) = (   0.0666340   0.0471015   0.0000000), wk =   0.0555556
        k(   34) = (   0.0666340  -0.1296085   0.0000000), wk =   0.0555556
        k(   35) = (   0.0666340  -0.0942665   0.0000000), wk =   0.0555556
        k(   36) = (   0.0666340  -0.0589245   0.0000000), wk =   0.0555556
        k(   37) = (  -0.0999510   0.0353738   0.0000000), wk =   0.0277778
        k(   38) = (  -0.0999510   0.0707158   0.0000000), wk =   0.0555556
        k(   39) = (  -0.0999510   0.1060578   0.0000000), wk =   0.0555556
        k(   40) = (  -0.0999510  -0.0706522   0.0000000), wk =   0.0277778

     Largest allocated arrays     est. size (Mb)     dimensions
     Largest temporary arrays     est. size (Mb)     dimensions

     Check: negative/imaginary core charge=   -0.000004    0.000000

     Initial potential from superposition of free atoms
     Check: negative starting charge=(component1):   -0.000447
     Check: negative starting charge=(component2):   -0.000361

     starting charge  203.99995, renormalised to  216.00000

[...]

     *
     * You are using vdW-DF for exchange-correlation in this calculation.
     * Please cite the following three references that made this development
     * possible:
     *
     *   M. Dion, H. Rydberg, E. Schroder, D. C. Langreth, and
     *   B. I. Lundqvist, Phys. Rev. Lett. 92, 246401 (2004).
     *
     *   T. Thonhauser, V. R. Cooper, S. Li, A. Puzder, P. Hyldgaard, and
     *   D. C. Langreth, Phys. Rev. B 76, 125112 (2007).
     *
     *   G. Roman-Perez and J. M. Soler, Phys. Rev. Lett. 103, 096102 (2009).
     *
     *
     * If you are using vdW-DF2, please also cite:
     *
     *   K. Lee, E. D. Murray, L. Kong, B. I. Lundqvist, and
     *   D. C. Langreth, Phys. Rev. B 82, 081101(R) (2010).
     *
     *
     * If you are calculating the stress with vdW-DF, please also cite:
     *
     *   R. Sabatini, E. Kucukbenli, B. Kolb, T. Thonhauser, and
     *   S. de Gironcoli, J. Phys.: Condens. Matter 24, 424209 (2012).
     *

     Carrying out vdW-DF run using the following parameters:

     Nqs =      20    Nr_points =    1024   r_max =   100.000
     q_mesh =
               0.00001000     0.04494208     0.09755937     0.15916263
               0.23128650     0.31572767     0.41458969     0.53033537
               0.66584808     0.82450364     1.01025438     1.22772762
               1.48234092     1.78043706     2.12944203     2.53805004
               3.01644009     3.57652955     4.23227104     5.00000000

     Gradients computed in reciprocal space

[...]

     Starting wfc are  150 randomized atomic wfcs

     Self-consistent Calculation

[...]

     iteration # 19     ecut=    36.75 Ry     beta=0.10
     Davidson diagonalization with overlap
     c_bands:  1 eigenvalues not converged
     ethr =  8.26E-06,  avg # of iterations =  1.5

[...]

     total energy              =   -4296.81224672 Ry
     Harris-Foulkes estimate   =   -4296.81224637 Ry
     estimated scf accuracy    <       0.00000155 Ry

[...]

     iteration # 46     ecut=    36.75 Ry     beta=0.10
     Davidson diagonalization with overlap
     ethr =  7.18E-10,  avg # of iterations =  1.6

[...]

     negative rho (up, down):  4.765E-04 4.486E-04

[...]

     Adding external electric field

     Computed dipole along edir(3) :
        Dipole                0.0055 Ry au,          0.0139 Debye
        Dipole field          0.0000 Ry au

        Potential amp.       -0.0016 Ry
        Total length         44.3761 bohr

     Magnetic moment per site:
     atom:    1    charge:    8.2915    magn:    0.4241    constr:    0.0000
     atom:    2    charge:    8.2915    magn:    0.4241    constr:    0.0000
     atom:    3    charge:   11.0375    magn:   -0.0010    constr:    0.0000
     atom:    4    charge:   11.0375    magn:   -0.0010    constr:    0.0000
     atom:    5    charge:    8.3025    magn:    0.0959    constr:    0.0000
     atom:    6    charge:    8.3025    magn:    0.0958    constr:    0.0000
     atom:    7    charge:   11.0498    magn:   -0.0019    constr:    0.0000
     atom:    8    charge:   11.0498    magn:   -0.0019    constr:    0.0000
     atom:    9    charge:    8.2944    magn:    0.1602    constr:    0.0000
     atom:   10    charge:    8.2943    magn:    0.1601    constr:    0.0000
     atom:   11    charge:   11.0414    magn:   -0.0004    constr:    0.0000
     atom:   12    charge:   11.0414    magn:   -0.0004    constr:    0.0000

     End of self-consistent calculation

 ------ SPIN UP ------------

[...]

 ------ SPIN DOWN ----------

[...]

          k = 0.0666-0.0589 0.0000 ( 14400 PWs)   bands (ev):

[...]

          k =-0.1000-0.0707 0.0000 ( 14428 PWs)   bands (ev):

   -93.6754 -93.6729 -93.6689 -93.6654 -93.6637 -93.6624 -93.6311 -93.6299
   -93.6260 -93.6242 -93.5970 -93.5953 -93.5933 -93.5897 -93.5772 -93.5749
   -93.5559 -93.5516 -93.5465 -93.5455 -93.5008 -93.4997 -93.2471 -93.2453
   -57.0519 -57.0167 -56.9489 -56.9458 -56.9392 -56.9343 -56.9241 -56.8895
   -56.8629 -56.8600 -56.7489 -56.7462 -56.6500 -56.6405 -56.6369 -56.6149
   -56.5198 -56.5169 -14.2241 -14.1793 -14.1534 -14.1384 -14.1193 -14.1124
   -14.0970 -14.0746 -14.0369 -14.0281 -14.0246 -14.0130 -14.0056 -14.0023
   -13.9891 -13.9614 -13.9429 -13.9424 -13.9421 -13.9411 -13.9305 -13.9168
   -13.9062 -13.9016 -13.8846 -13.8735 -13.8661 -13.8192 -13.8021 -13.7704
    -7.8826  -7.6403  -6.2987  -6.1697  -4.8260  -4.6477  -4.5525  -3.2053
    -2.9695  -2.5979  -2.4180  -2.0741  -1.9944  -1.3972  -1.2007  -1.0976
    -0.9428  -0.8669  -0.7652  -0.7400  -0.5065  -0.4087  -0.3763  -0.2958
    -0.2500   0.0262   0.0424   0.0583   0.3409   0.4064   0.4167   0.4265
     0.5557   0.6739   0.8462   0.8752   1.0354   1.4142   1.5522   1.7102
     1.7271   2.7295   2.7968   3.1401   4.2962   4.7398   5.4020   5.6261
     6.0144   6.3381   6.4037   6.8648   6.9535   7.0360   7.3872   7.4626
     7.4719   7.5088   7.7154   8.1832   8.3486   8.4267   8.4402   8.7418
     8.9468   9.2784

     the Fermi energy is     0.7124 ev

!    total energy              =   -4296.81224712 Ry
     Harris-Foulkes estimate   =   -4296.81224704 Ry
     estimated scf accuracy    <       0.00000093 Ry

     The total energy is the sum of the following terms:

     one-electron contribution =  -32638.14786352 Ry
     hartree contribution      =   16330.14956353 Ry
     xc contribution           =    -501.86080440 Ry
     ewald contribution        =   12513.11108593 Ry
     electric field correction =       0.00000010 Ry
     smearing contrib. (-TS)   =      -0.06422875 Ry

     total magnetization       =     2.38 Bohr mag/cell
     absolute magnetization    =     3.07 Bohr mag/cell

     convergence has been achieved in  46 iterations

 BEEF-vdW xc energy contributions
           1 :   -446.164913867718
           2 :    405.456045928198
           3 :   -336.558389293326
           4 :    258.607258179206
           5 :   -189.037213598386
           6 :    137.179097740449
           7 :   -102.702641436553
           8 :    78.9132770523074
           9 :   -58.3624249603509
          10 :    37.3165819128855
          11 :   -16.8530648714844
          12 :   0.658840678400566
          13 :    8.41437644423962
          14 :   -10.6023516055255
          15 :    9.00427301962941
          16 :   -7.43069760777871
          17 :    8.04373322531671
          18 :   -10.4142873499491
          19 :    12.4297738836433
          20 :   -12.1941309100951
          21 :    9.48517971715421
          22 :   -5.82975833197122
          23 :    3.31020155458509
          24 :   -3.09275694563155
          25 :    4.73434734464126
          26 :   -6.67210416668195
          27 :    7.41827456500675
          28 :   -6.55534814018915
          29 :    4.85639210137936
          30 :   -3.55660628134308
          31 :   -34.8472564202114
          32 :   -24.0425151676421

     Forces acting on atoms (Ry/au):

     negative rho (up, down):  4.765E-04 4.486E-04
     atom    1 type  1   force =    -0.00002772   -0.00001972    0.02191297
     atom    2 type  1   force =    -0.00000395   -0.00000274    0.02191625
     atom    3 type  2   force =    -0.00001697   -0.00006322   -0.02878732
     atom    4 type  2   force =    -0.00006504    0.00000532   -0.02878671
     atom    5 type  1   force =    -0.00001042   -0.00000750    0.01255505
     atom    6 type  1   force =    -0.00001609   -0.00001118    0.01259719
     atom    7 type  2   force =     0.00002403    0.00003071   -0.00796311
     atom    8 type  2   force =     0.00003731    0.00001250   -0.00796301
     atom    9 type  1   force =    -0.00006551   -0.00004612    0.00112450
     atom   10 type  1   force =     0.00010250    0.00007248    0.00112036
     atom   11 type  2   force =     0.00007090   -0.00005582    0.00113669
     atom   12 type  2   force =    -0.00002903    0.00008529    0.00113714

     Total force =     0.055373     Total SCF correction =     0.004143

     entering subroutine stress ...

     negative rho (up, down):  4.765E-04 4.486E-04
          total   stress  (Ry/bohr**3)                   (kbar)     P=  -18.15
  -0.00017842   0.00000911   0.00000017        -26.25      1.34      0.02
   0.00000911  -0.00018487   0.00000012          1.34    -27.20      0.02
   0.00000017   0.00000012  -0.00000694          0.02      0.02     -1.02

 !ASE

     Writing output data file calc.save

     General routines

     Parallel routines

   This run was terminated on:   1: 6:26  19Dec2018

   JOB DONE.
Job  /afs/slac/g/suncat/bin/suncat-tsmpirun -x LD_LIBRARY_PATH -wdir /scratch/qe529675_zxbAn pw.x -in pw.inp

TID   HOST_NAME   COMMAND_LINE            STATUS            TERMINATION_TIME
00000 suncat0115 pw.x -in pw.inp   Done                     12/19/2018 01:06:26
00001 suncat0115 pw.x -in pw.inp   Done                     12/19/2018 01:06:26
00002 suncat0115 pw.x -in pw.inp   Done                     12/19/2018 01:06:26
00003 suncat0115 pw.x -in pw.inp   Done                     12/19/2018 01:06:26
00004 suncat0115 pw.x -in pw.inp   Done                     12/19/2018 01:06:26
00005 suncat0115 pw.x -in pw.inp   Done                     12/19/2018 01:06:26
00006 suncat0115 pw.x -in pw.inp   Done                     12/19/2018 01:06:26
00007 suncat0115 pw.x -in pw.inp   Done                     12/19/2018 01:06:26
00008 suncat0114 pw.x -in pw.inp   Done                     12/19/2018 01:06:26
00009 suncat0114 pw.x -in pw.inp   Done                     12/19/2018 01:06:26
00010 suncat0114 pw.x -in pw.inp   Done                     12/19/2018 01:06:26
00011 suncat0114 pw.x -in pw.inp   Done                     12/19/2018 01:06:26
00012 suncat0114 pw.x -in pw.inp   Done                     12/19/2018 01:06:26
00013 suncat0114 pw.x -in pw.inp   Done                     12/19/2018 01:06:26
00014 suncat0114 pw.x -in pw.inp   Done                     12/19/2018 01:06:26
00015 suncat0114 pw.x -in pw.inp   Done                     12/19/2018 01:06:26
00016 suncat0113 pw.x -in pw.inp   Done                     12/19/2018 01:06:26
00017 suncat0113 pw.x -in pw.inp   Done                     12/19/2018 01:06:26
00018 suncat0113 pw.x -in pw.inp   Done                     12/19/2018 01:06:26
00019 suncat0113 pw.x -in pw.inp   Done                     12/19/2018 01:06:26
00020 suncat0113 pw.x -in pw.inp   Done                     12/19/2018 01:06:26
00021 suncat0113 pw.x -in pw.inp   Done                     12/19/2018 01:06:26
00022 suncat0113 pw.x -in pw.inp   Done                     12/19/2018 01:06:26
00023 suncat0113 pw.x -in pw.inp   Done                     12/19/2018 01:06:26
00024 suncat0110 pw.x -in pw.inp   Done                     12/19/2018 01:06:26
00025 suncat0110 pw.x -in pw.inp   Done                     12/19/2018 01:06:26
00026 suncat0110 pw.x -in pw.inp   Done                     12/19/2018 01:06:26
00027 suncat0110 pw.x -in pw.inp   Done                     12/19/2018 01:06:26
00028 suncat0110 pw.x -in pw.inp   Done                     12/19/2018 01:06:26
00029 suncat0110 pw.x -in pw.inp   Done                     12/19/2018 01:06:26
00030 suncat0110 pw.x -in pw.inp   Done                     12/19/2018 01:06:26
00031 suncat0110 pw.x -in pw.inp   Done                     12/19/2018 01:06:26