     Program PWSCF v.5.1rc2 (svn rev. 11289) starts on 18Dec2018 at 22:23: 5

     Current dimensions of program PWSCF are:
     Max number of different atomic species (ntypx) = 10
     Max number of k-points (npk) =  40000
     Max angular momentum in pseudopotentials (lmaxx) =  3
     Presently stress not available with electric field

     IMPORTANT: XC functional enforced from input :
     Exchange-correlation      = BEEF-VDW ( 1  4 27 13 2)
     Any further DFT definition will be discarded
     Please, verify this is what you really want

     Subspace diagonalization in iterative solution of the eigenvalue problem:
     a serial algorithm will be used

     Found symmetry operation: I + ( -0.5000 -0.5000  0.0000)
     This is a supercell, fractional translations are disabled

     Generating pointlists ...
     new r_m :   0.4125 (alat units)  0.7795 (a.u.) for type    1
     new r_m :   0.4125 (alat units)  0.7795 (a.u.) for type    2

     bravais-lattice index     =            0
     lattice parameter (alat)  =       1.8897  a.u.
     unit-cell volume          =    4098.4779 (a.u.)^3
     number of atoms/cell      =           12
     number of atomic types    =            2
     number of electrons       =       204.00
     number of Kohn-Sham states=          132
     kinetic-energy cutoff     =      36.7493  Ry
     charge density cutoff     =     367.4932  Ry
     convergence threshold     =      1.0E-06
     mixing beta               =       0.1000
     number of iterations used =           10  plain     mixing
     Exchange-correlation      = BEEF-VDW ( 1  4 27 13 2)
     nstep                     =           50

     celldm(1)=   1.889726  celldm(2)=   0.000000  celldm(3)=   0.000000
     celldm(4)=   0.000000  celldm(5)=   0.000000  celldm(6)=   0.000000

     crystal axes: (cart. coord. in units of alat)
               a(1) = (   5.313559   0.000000   0.000000 )
               a(2) = (   2.498898   4.689288   0.000000 )
               a(3) = (   0.000000   0.000000  24.374378 )

     reciprocal axes: (cart. coord. in units 2 pi/alat)
               b(1) = (  0.188198 -0.100290  0.000000 )
               b(2) = (  0.000000  0.213252  0.000000 )
               b(3) = (  0.000000  0.000000  0.041027 )

     PseudoPot. # 1 for Ni read from file:
     /afs/slac.stanford.edu/u/if/mamunm/psp/gbrv1.5pbe/Ni.UPF
     MD5 check sum: 1ee80287db30b12d2bc1f57a5b5d6409
     Pseudo is Ultrasoft + core correction, Zval = 18.0
     Generated by new atomic code, or converted to UPF format
     Using radial grid of  865 points,  6 beta functions with:
                l(1) =   0
                l(2) =   0
                l(3) =   1
                l(4) =   1
                l(5) =   2
                l(6) =   2
     Q(r) pseudized with 10 coefficients,  rinner =    0.980   0.980   0.980
                                                       0.980   0.980

     PseudoPot. # 2 for Pt read from file:
     /afs/slac.stanford.edu/u/if/mamunm/psp/gbrv1.5pbe/Pt.UPF
     MD5 check sum: f09d6de1a584b5a045c4fc126da2d0c4
     Pseudo is Ultrasoft + core correction, Zval = 16.0
     Generated by new atomic code, or converted to UPF format
     Using radial grid of  985 points,  6 beta functions with:
                l(1) =   0
                l(2) =   0
                l(3) =   1
                l(4) =   1
                l(5) =   2
                l(6) =   2
     Q(r) pseudized with  8 coefficients,  rinner =    1.300   1.300   1.300
                                                       1.300   1.300

     vdW kernel table read from file vdW_kernel_table
     MD5 check sum: 095c7af220d748ca6e76c0b4c6cfb241

     atomic species   valence    mass     pseudopotential
        Ni1           18.00    58.69340     Ni( 1.00)
        Pt1           16.00   195.08400     Pt( 1.00)

     Starting magnetic structure
     atomic species   magnetization
        Ni1          0.111
        Pt1          0.125

     No symmetry found

   Cartesian axes

     site n.     atom                  positions (alat units)
         1           Ni1 tau(   1) = (   0.0000000   0.0000000  10.0000000  )
         2           Ni1 tau(   2) = (   3.9062289   2.3446440  10.0000000  )
         3           Pt1 tau(   3) = (   2.6567797   0.0000000  10.0000000  )
         4           Pt1 tau(   4) = (   1.2494491   2.3446440  10.0000000  )
         5           Ni1 tau(   5) = (   5.3135595   3.1893690  12.1871889  )
         6           Ni1 tau(   6) = (   1.4073306   0.8447250  12.1871889  )
         7           Pt1 tau(   7) = (   2.6567797   3.1893690  12.1871889  )
         8           Pt1 tau(   8) = (   4.0641104   0.8447250  12.1871889  )
         9           Ni1 tau(   9) = (   2.8146613   1.6894501  14.3743777  )
        10           Ni1 tau(  10) = (   6.7208901   4.0340941  14.3743777  )
        11           Pt1 tau(  11) = (   5.4714410   1.6894501  14.3743777  )
        12           Pt1 tau(  12) = (   4.0641104   4.0340941  14.3743777  )

     number of k points=    40  Fermi-Dirac smearing, width (Ry)=  0.0110
                       cart. coord. in units 2pi/alat
        k(    1) = (   0.0000000   0.0000000   0.0000000), wk =   0.0277778
        k(    2) = (   0.0000000   0.0355420   0.0000000), wk =   0.0555556
        k(    3) = (   0.0000000   0.0710840   0.0000000), wk =   0.0555556
        k(    4) = (   0.0000000  -0.1066260   0.0000000), wk =   0.0277778
        k(    5) = (   0.0313663  -0.0167149   0.0000000), wk =   0.0555556
        k(    6) = (   0.0313663   0.0188271   0.0000000), wk =   0.0555556
        k(    7) = (   0.0313663   0.0543691   0.0000000), wk =   0.0555556
        k(    8) = (   0.0313663  -0.1233409   0.0000000), wk =   0.0555556
        k(    9) = (   0.0313663  -0.0877989   0.0000000), wk =   0.0555556
        k(   10) = (   0.0313663  -0.0522569   0.0000000), wk =   0.0555556
        k(   11) = (   0.0627326  -0.0334299   0.0000000), wk =   0.0555556
        k(   12) = (   0.0627326   0.0021121   0.0000000), wk =   0.0555556
        k(   13) = (   0.0627326   0.0376541   0.0000000), wk =   0.0555556
        k(   14) = (   0.0627326  -0.1400559   0.0000000), wk =   0.0555556
        k(   15) = (   0.0627326  -0.1045139   0.0000000), wk =   0.0555556
        k(   16) = (   0.0627326  -0.0689719   0.0000000), wk =   0.0555556
        k(   17) = (  -0.0940989   0.0501448   0.0000000), wk =   0.0277778
        k(   18) = (  -0.0940989   0.0856868   0.0000000), wk =   0.0555556
        k(   19) = (  -0.0940989   0.1212288   0.0000000), wk =   0.0555556
        k(   20) = (  -0.0940989  -0.0564812   0.0000000), wk =   0.0277778
        k(   21) = (   0.0000000   0.0000000   0.0000000), wk =   0.0277778
        k(   22) = (   0.0000000   0.0355420   0.0000000), wk =   0.0555556
        k(   23) = (   0.0000000   0.0710840   0.0000000), wk =   0.0555556
        k(   24) = (   0.0000000  -0.1066260   0.0000000), wk =   0.0277778
        k(   25) = (   0.0313663  -0.0167149   0.0000000), wk =   0.0555556
        k(   26) = (   0.0313663   0.0188271   0.0000000), wk =   0.0555556
        k(   27) = (   0.0313663   0.0543691   0.0000000), wk =   0.0555556
        k(   28) = (   0.0313663  -0.1233409   0.0000000), wk =   0.0555556
        k(   29) = (   0.0313663  -0.0877989   0.0000000), wk =   0.0555556
        k(   30) = (   0.0313663  -0.0522569   0.0000000), wk =   0.0555556
        k(   31) = (   0.0627326  -0.0334299   0.0000000), wk =   0.0555556
        k(   32) = (   0.0627326   0.0021121   0.0000000), wk =   0.0555556
        k(   33) = (   0.0627326   0.0376541   0.0000000), wk =   0.0555556
        k(   34) = (   0.0627326  -0.1400559   0.0000000), wk =   0.0555556
        k(   35) = (   0.0627326  -0.1045139   0.0000000), wk =   0.0555556
        k(   36) = (   0.0627326  -0.0689719   0.0000000), wk =   0.0555556
        k(   37) = (  -0.0940989   0.0501448   0.0000000), wk =   0.0277778
        k(   38) = (  -0.0940989   0.0856868   0.0000000), wk =   0.0555556
        k(   39) = (  -0.0940989   0.1212288   0.0000000), wk =   0.0555556
        k(   40) = (  -0.0940989  -0.0564812   0.0000000), wk =   0.0277778

     Largest allocated arrays     est. size (Mb)     dimensions
     Largest temporary arrays     est. size (Mb)     dimensions

     Check: negative/imaginary core charge=   -0.000002    0.000000

     Initial potential from superposition of free atoms
     Check: negative starting charge=(component1):   -0.621721
     Check: negative starting charge=(component2):   -0.483567

     starting charge  188.99993, renormalised to  204.00000

     negative rho (up, down):  6.711E-01 5.219E-01

     *
     * You are using vdW-DF for exchange-correlation in this calculation.
     * Please cite the following three references that made this development
     * possible:
     *
     *   M. Dion, H. Rydberg, E. Schroder, D. C. Langreth, and
     *   B. I. Lundqvist, Phys. Rev. Lett. 92, 246401 (2004).
     *
     *   T. Thonhauser, V. R. Cooper, S. Li, A. Puzder, P. Hyldgaard, and
     *   D. C. Langreth, Phys. Rev. B 76, 125112 (2007).
     *
     *   G. Roman-Perez and J. M. Soler, Phys. Rev. Lett. 103, 096102 (2009).
     *
     *
     * If you are using vdW-DF2, please also cite:
     *
     *   K. Lee, E. D. Murray, L. Kong, B. I. Lundqvist, and
     *   D. C. Langreth, Phys. Rev. B 82, 081101(R) (2010).
     *
     *
     * If you are calculating the stress with vdW-DF, please also cite:
     *
     *   R. Sabatini, E. Kucukbenli, B. Kolb, T. Thonhauser, and
     *   S. de Gironcoli, J. Phys.: Condens. Matter 24, 424209 (2012).
     *

     Carrying out vdW-DF run using the following parameters:

     Nqs =      20    Nr_points =    1024   r_max =   100.000
     q_mesh =
               0.00001000     0.04494208     0.09755937     0.15916263
               0.23128650     0.31572767     0.41458969     0.53033537
               0.66584808     0.82450364     1.01025438     1.22772762
               1.48234092     1.78043706     2.12944203     2.53805004
               3.01644009     3.57652955     4.23227104     5.00000000

     Gradients computed in reciprocal space

     Adding external electric field

     Computed dipole along edir(3) :
        Dipole                0.0000 Ry au,          0.0000 Debye
        Dipole field          0.0000 Ry au

        Potential amp.       -0.0000 Ry
        Total length         44.9094 bohr

[...]

     Starting wfc are  150 randomized atomic wfcs

     Self-consistent Calculation

     iteration #  1     ecut=    36.75 Ry     beta=0.10
     Davidson diagonalization with overlap
     ethr =  1.00E-02,  avg # of iterations =  8.2

[...]

     Magnetic moment per site:
     atom:    1    charge:    9.6210    magn:    1.0213    constr:    0.0000
     atom:    2    charge:    9.6210    magn:    1.0213    constr:    0.0000
     atom:    3    charge:    2.1839    magn:    0.2531    constr:    0.0000
     atom:    4    charge:    2.1839    magn:    0.2531    constr:    0.0000
     atom:    5    charge:    9.6083    magn:    1.0186    constr:    0.0000
     atom:    6    charge:    9.6083    magn:    1.0186    constr:    0.0000
[...]

     PseudoPot. # 2 for Pt read from file:
     /afs/slac.stanford.edu/u/if/mamunm/psp/gbrv1.5pbe/Pt.UPF
     MD5 check sum: f09d6de1a584b5a045c4fc126da2d0c4
     Pseudo is Ultrasoft + core correction, Zval = 16.0
     Generated by new atomic code, or converted to UPF format
     Using radial grid of  985 points,  6 beta functions with:
                l(1) =   0
                l(2) =   0
                l(3) =   1
                l(4) =   1
                l(5) =   2
                l(6) =   2
     Q(r) pseudized with  8 coefficients,  rinner =    1.300   1.300   1.300
                                                       1.300   1.300

     vdW kernel table read from file vdW_kernel_table
     MD5 check sum: 095c7af220d748ca6e76c0b4c6cfb241

     atomic species   valence    mass     pseudopotential
        Ni1           18.00    58.69340     Ni( 1.00)
        Pt1           16.00   195.08400     Pt( 1.00)

     Starting magnetic structure
     atomic species   magnetization
        Ni1          0.111
        Pt1          0.125

     No symmetry found

   Cartesian axes

     site n.     atom                  positions (alat units)
         1           Ni1 tau(   1) = (   0.0000000   0.0000000  10.0000000  )
         2           Ni1 tau(   2) = (   3.9062289   2.3446440  10.0000000  )
         3           Pt1 tau(   3) = (   2.6567797   0.0000000  10.0000000  )
         4           Pt1 tau(   4) = (   1.2494491   2.3446440  10.0000000  )
         5           Ni1 tau(   5) = (   5.3135595   3.1893690  12.1871889  )
         6           Ni1 tau(   6) = (   1.4073306   0.8447250  12.1871889  )
         7           Pt1 tau(   7) = (   2.6567797   3.1893690  12.1871889  )
         8           Pt1 tau(   8) = (   4.0641104   0.8447250  12.1871889  )
         9           Ni1 tau(   9) = (   2.7980536   1.6794818  14.3530740  )
        10           Ni1 tau(  10) = (   6.7042097   4.0240823  14.3530644  )
        11           Pt1 tau(  11) = (   5.4909302   1.7011383  14.3703136  )
        12           Pt1 tau(  12) = (   4.0835909   4.0457967  14.3703133  )

     number of k points=    40  Fermi-Dirac smearing, width (Ry)=  0.0110
                       cart. coord. in units 2pi/alat
        k(    1) = (   0.0000000   0.0000000   0.0000000), wk =   0.0277778
        k(    2) = (   0.0000000   0.0355420   0.0000000), wk =   0.0555556
        k(    3) = (   0.0000000   0.0710840   0.0000000), wk =   0.0555556
        k(    4) = (   0.0000000  -0.1066260   0.0000000), wk =   0.0277778
        k(    5) = (   0.0313663  -0.0167149   0.0000000), wk =   0.0555556
        k(    6) = (   0.0313663   0.0188271   0.0000000), wk =   0.0555556
        k(    7) = (   0.0313663   0.0543691   0.0000000), wk =   0.0555556
        k(    8) = (   0.0313663  -0.1233409   0.0000000), wk =   0.0555556
        k(    9) = (   0.0313663  -0.0877989   0.0000000), wk =   0.0555556
        k(   10) = (   0.0313663  -0.0522569   0.0000000), wk =   0.0555556
        k(   11) = (   0.0627326  -0.0334299   0.0000000), wk =   0.0555556
        k(   12) = (   0.0627326   0.0021121   0.0000000), wk =   0.0555556
        k(   13) = (   0.0627326   0.0376541   0.0000000), wk =   0.0555556
        k(   14) = (   0.0627326  -0.1400559   0.0000000), wk =   0.0555556
        k(   15) = (   0.0627326  -0.1045139   0.0000000), wk =   0.0555556
        k(   16) = (   0.0627326  -0.0689719   0.0000000), wk =   0.0555556
        k(   17) = (  -0.0940989   0.0501448   0.0000000), wk =   0.0277778
        k(   18) = (  -0.0940989   0.0856868   0.0000000), wk =   0.0555556
        k(   19) = (  -0.0940989   0.1212288   0.0000000), wk =   0.0555556
        k(   20) = (  -0.0940989  -0.0564812   0.0000000), wk =   0.0277778
        k(   21) = (   0.0000000   0.0000000   0.0000000), wk =   0.0277778
        k(   22) = (   0.0000000   0.0355420   0.0000000), wk =   0.0555556
        k(   23) = (   0.0000000   0.0710840   0.0000000), wk =   0.0555556
        k(   24) = (   0.0000000  -0.1066260   0.0000000), wk =   0.0277778
        k(   25) = (   0.0313663  -0.0167149   0.0000000), wk =   0.0555556
        k(   26) = (   0.0313663   0.0188271   0.0000000), wk =   0.0555556
        k(   27) = (   0.0313663   0.0543691   0.0000000), wk =   0.0555556
        k(   28) = (   0.0313663  -0.1233409   0.0000000), wk =   0.0555556
        k(   29) = (   0.0313663  -0.0877989   0.0000000), wk =   0.0555556
        k(   30) = (   0.0313663  -0.0522569   0.0000000), wk =   0.0555556
        k(   31) = (   0.0627326  -0.0334299   0.0000000), wk =   0.0555556
        k(   32) = (   0.0627326   0.0021121   0.0000000), wk =   0.0555556
        k(   33) = (   0.0627326   0.0376541   0.0000000), wk =   0.0555556
        k(   34) = (   0.0627326  -0.1400559   0.0000000), wk =   0.0555556
        k(   35) = (   0.0627326  -0.1045139   0.0000000), wk =   0.0555556
        k(   36) = (   0.0627326  -0.0689719   0.0000000), wk =   0.0555556
        k(   37) = (  -0.0940989   0.0501448   0.0000000), wk =   0.0277778
        k(   38) = (  -0.0940989   0.0856868   0.0000000), wk =   0.0555556
        k(   39) = (  -0.0940989   0.1212288   0.0000000), wk =   0.0555556
        k(   40) = (  -0.0940989  -0.0564812   0.0000000), wk =   0.0277778

     Largest allocated arrays     est. size (Mb)     dimensions
     Largest temporary arrays     est. size (Mb)     dimensions

     Check: negative/imaginary core charge=   -0.000002    0.000000

     Initial potential from superposition of free atoms
     Check: negative starting charge=(component1):   -0.623244
     Check: negative starting charge=(component2):   -0.484752

     starting charge  188.99993, renormalised to  204.00000

[...]

     *
     * You are using vdW-DF for exchange-correlation in this calculation.
     * Please cite the following three references that made this development
     * possible:
     *
     *   M. Dion, H. Rydberg, E. Schroder, D. C. Langreth, and
     *   B. I. Lundqvist, Phys. Rev. Lett. 92, 246401 (2004).
     *
     *   T. Thonhauser, V. R. Cooper, S. Li, A. Puzder, P. Hyldgaard, and
     *   D. C. Langreth, Phys. Rev. B 76, 125112 (2007).
     *
     *   G. Roman-Perez and J. M. Soler, Phys. Rev. Lett. 103, 096102 (2009).
     *
     *
     * If you are using vdW-DF2, please also cite:
     *
     *   K. Lee, E. D. Murray, L. Kong, B. I. Lundqvist, and
     *   D. C. Langreth, Phys. Rev. B 82, 081101(R) (2010).
     *
     *
     * If you are calculating the stress with vdW-DF, please also cite:
     *
     *   R. Sabatini, E. Kucukbenli, B. Kolb, T. Thonhauser, and
     *   S. de Gironcoli, J. Phys.: Condens. Matter 24, 424209 (2012).
     *

     Carrying out vdW-DF run using the following parameters:

     Nqs =      20    Nr_points =    1024   r_max =   100.000
     q_mesh =
               0.00001000     0.04494208     0.09755937     0.15916263
               0.23128650     0.31572767     0.41458969     0.53033537
               0.66584808     0.82450364     1.01025438     1.22772762
               1.48234092     1.78043706     2.12944203     2.53805004
               3.01644009     3.57652955     4.23227104     5.00000000

     Gradients computed in reciprocal space

[...]

     Starting wfc are  150 randomized atomic wfcs

     Self-consistent Calculation

[...]

     total energy              =   -3340.65143296 Ry
     Harris-Foulkes estimate   =   -3340.65143006 Ry
     estimated scf accuracy    <       0.00000143 Ry

[...]

     iteration # 35     ecut=    36.75 Ry     beta=0.10
     Davidson diagonalization with overlap
     ethr =  7.03E-10,  avg # of iterations =  1.6

[...]

     negative rho (up, down):  5.387E-01 5.229E-01

[...]

     Adding external electric field

     Computed dipole along edir(3) :
        Dipole               -0.0009 Ry au,         -0.0022 Debye
        Dipole field         -0.0000 Ry au

        Potential amp.        0.0002 Ry
        Total length         44.9094 bohr

     Magnetic moment per site:
     atom:    1    charge:    9.3552    magn:    0.4573    constr:    0.0000
     atom:    2    charge:    9.3552    magn:    0.4573    constr:    0.0000
     atom:    3    charge:    2.1007    magn:    0.0267    constr:    0.0000
     atom:    4    charge:    2.1007    magn:    0.0267    constr:    0.0000
     atom:    5    charge:    9.3463    magn:    0.5148    constr:    0.0000
     atom:    6    charge:    9.3463    magn:    0.5149    constr:    0.0000
     atom:    7    charge:    2.0983    magn:    0.0351    constr:    0.0000
     atom:    8    charge:    2.0983    magn:    0.0351    constr:    0.0000
     atom:    9    charge:    9.3523    magn:    0.4580    constr:    0.0000
     atom:   10    charge:    9.3525    magn:    0.4579    constr:    0.0000
     atom:   11    charge:    2.1004    magn:    0.0270    constr:    0.0000
     atom:   12    charge:    2.1004    magn:    0.0270    constr:    0.0000

     End of self-consistent calculation

 ------ SPIN UP ------------

[...]

 ------ SPIN DOWN ----------

[...]

          k = 0.0627-0.0690 0.0000 ( 15444 PWs)   bands (ev):

[...]

          k =-0.0941-0.0565 0.0000 ( 15398 PWs)   bands (ev):

  -101.5579-101.5549-101.4011-101.3981-101.3879-101.3849 -61.9806 -61.9765
   -61.9669 -61.9583 -61.9543 -61.9260 -61.8714 -61.8674 -61.8592 -61.8551
   -61.8530 -61.8401 -61.8127 -61.7998 -61.7028 -61.6992 -61.6885 -61.6849
   -51.7278 -51.6076 -51.5800 -51.4999 -51.4726 -51.4467 -51.3967 -51.3949
   -51.2239 -51.2094 -51.1968 -51.1832 -51.1163 -51.1147 -51.0525 -51.0447
   -51.0266 -51.0188  -5.7760  -5.1823  -4.4985  -4.0909  -3.7528  -3.6994
    -3.6043  -3.4866  -3.3916  -3.2282  -2.9128  -2.8228  -2.7188  -2.6841
    -2.6398  -2.4656  -2.2150  -1.8752  -1.7890  -1.7263  -1.6443  -1.5331
    -1.4211  -1.1730  -1.0592  -1.0575  -0.9355  -0.7151  -0.5833  -0.5353
    -0.5297  -0.5290  -0.5155  -0.4193  -0.4013  -0.3675  -0.3621  -0.2984
    -0.2523  -0.1922  -0.1403  -0.0930   0.0138   0.0715   0.1365   0.1668
     0.3078   0.3777   0.3837   0.4722   0.4809   0.5094   0.6675   0.7425
     0.7460   0.7665   0.8877   0.9417   1.1089   1.1256   1.2518   1.3311
     1.3520   1.7340   2.2748   2.5771   3.1136   3.5028   3.7601   4.3747
     5.4134   5.5249   5.9170   6.0213   7.3232   7.3489   7.9127   7.9305
     8.0521   8.0579   8.4072   9.0057   9.1136   9.1541   9.1934   9.4211
     9.5925   9.6011   9.6167  10.1737

     the Fermi energy is     1.1303 ev

!    total energy              =   -3340.65144152 Ry
     Harris-Foulkes estimate   =   -3340.65143309 Ry
     estimated scf accuracy    <       0.00000088 Ry

     The total energy is the sum of the following terms:

     one-electron contribution =  -26276.39655188 Ry
     hartree contribution      =   13162.01180037 Ry
     xc contribution           =    -572.30621639 Ry
     ewald contribution        =   10346.14946267 Ry
     electric field correction =       0.00000000 Ry
     smearing contrib. (-TS)   =      -0.10993627 Ry

     total magnetization       =     6.61 Bohr mag/cell
     absolute magnetization    =     7.32 Bohr mag/cell

     convergence has been achieved in  35 iterations

 BEEF-vdW xc energy contributions
           1 :   -507.562349595641
           2 :    467.600511624995
           3 :   -398.059811712761
           4 :    315.325730686188
           5 :   -235.604560950821
           6 :    169.827561158324
           7 :   -121.636470265066
           8 :    88.6444245028487
           9 :   -65.6766609951862
          10 :    48.0005729246129
          11 :   -33.0804878283645
          12 :    20.5015414932984
          13 :   -10.8076869736044
          14 :    4.32913488466056
          15 :  -0.726998912621411
          16 :  -0.758894375121713
          17 :   0.827030922886138
          18 :   0.102148477234095
          19 :   -1.72420352826066
          20 :    3.55104228489563
          21 :   -4.84630006998123
          22 :    4.91930925122369
          23 :   -3.58277729705276
          24 :    1.38095075770525
          25 :   0.639889065481157
          26 :   -1.52633473976539
          27 :   0.986416537581135
          28 :   0.443743473702170
          29 :   -1.75936843323484
          30 :    2.12532395195126
          31 :   -41.7202192015993
          32 :   -30.1759296503317

     Forces acting on atoms (Ry/au):

     negative rho (up, down):  5.387E-01 5.229E-01
     atom    1 type  1   force =     0.00776318    0.00465956    0.00472261
     atom    2 type  1   force =     0.00776516    0.00466108    0.00467810
     atom    3 type  2   force =    -0.00856038   -0.00513730   -0.00012294
     atom    4 type  2   force =    -0.00855965   -0.00513869   -0.00012278
     atom    5 type  1   force =    -0.00040581   -0.00024353   -0.00162882
     atom    6 type  1   force =    -0.00035368   -0.00021233   -0.00157238
     atom    7 type  2   force =     0.00160341    0.00095885   -0.00075568
     atom    8 type  2   force =     0.00160028    0.00096405   -0.00075560
     atom    9 type  1   force =    -0.00002814   -0.00001697   -0.00171149
     atom   10 type  1   force =    -0.00001325   -0.00000792   -0.00172878
     atom   11 type  2   force =    -0.00040498   -0.00024437   -0.00050116
     atom   12 type  2   force =    -0.00040614   -0.00024244   -0.00050107

     Total force =     0.020690     Total SCF correction =     0.003835
     SCF correction compared to forces is large: reduce conv_thr to get better values

     entering subroutine stress ...

     negative rho (up, down):  5.387E-01 5.229E-01
          total   stress  (Ry/bohr**3)                   (kbar)     P=  -43.41
  -0.00033142   0.00000937   0.00000112        -48.75      1.38      0.16
   0.00000937  -0.00034141   0.00000067          1.38    -50.22      0.10
   0.00000112   0.00000067  -0.00021235          0.16      0.10    -31.24

 !ASE

     Writing output data file calc.save

     General routines

     Parallel routines

   This run was terminated on:   1:17:25  19Dec2018

   JOB DONE.
Job  /afs/slac/g/suncat/bin/suncat-tsmpirun -x LD_LIBRARY_PATH -wdir /scratch/qe530372_bfydd pw.x -in pw.inp

TID   HOST_NAME   COMMAND_LINE            STATUS            TERMINATION_TIME
00000 suncat2069 pw.x -in pw.inp   Done                     12/19/2018 01:17:25
00001 suncat2069 pw.x -in pw.inp   Done                     12/19/2018 01:17:25
00002 suncat2069 pw.x -in pw.inp   Done                     12/19/2018 01:17:25
00003 suncat2069 pw.x -in pw.inp   Done                     12/19/2018 01:17:25
00004 suncat2069 pw.x -in pw.inp   Done                     12/19/2018 01:17:25
00005 suncat2069 pw.x -in pw.inp   Done                     12/19/2018 01:17:25
00006 suncat2069 pw.x -in pw.inp   Done                     12/19/2018 01:17:25
00007 suncat2069 pw.x -in pw.inp   Done                     12/19/2018 01:17:25
00008 suncat2069 pw.x -in pw.inp   Done                     12/19/2018 01:17:25
00009 suncat2069 pw.x -in pw.inp   Done                     12/19/2018 01:17:25
00010 suncat2069 pw.x -in pw.inp   Done                     12/19/2018 01:17:25
00011 suncat2069 pw.x -in pw.inp   Done                     12/19/2018 01:17:25
00012 suncat2069 pw.x -in pw.inp   Done                     12/19/2018 01:17:25
00013 suncat2069 pw.x -in pw.inp   Done                     12/19/2018 01:17:25
00014 suncat2069 pw.x -in pw.inp   Done                     12/19/2018 01:17:25
00015 suncat2069 pw.x -in pw.inp   Done                     12/19/2018 01:17:25
00016 suncat2064 pw.x -in pw.inp   Done                     12/19/2018 01:17:25
00017 suncat2064 pw.x -in pw.inp   Done                     12/19/2018 01:17:25
00018 suncat2064 pw.x -in pw.inp   Done                     12/19/2018 01:17:25
00019 suncat2064 pw.x -in pw.inp   Done                     12/19/2018 01:17:25
00020 suncat2064 pw.x -in pw.inp   Done                     12/19/2018 01:17:25
00021 suncat2064 pw.x -in pw.inp   Done                     12/19/2018 01:17:25
00022 suncat2064 pw.x -in pw.inp   Done                     12/19/2018 01:17:25
00023 suncat2064 pw.x -in pw.inp   Done                     12/19/2018 01:17:25
00024 suncat2064 pw.x -in pw.inp   Done                     12/19/2018 01:17:25
00025 suncat2064 pw.x -in pw.inp   Done                     12/19/2018 01:17:25
00026 suncat2064 pw.x -in pw.inp   Done                     12/19/2018 01:17:25
00027 suncat2064 pw.x -in pw.inp   Done                     12/19/2018 01:17:25
00028 suncat2064 pw.x -in pw.inp   Done                     12/19/2018 01:17:25
00029 suncat2064 pw.x -in pw.inp   Done                     12/19/2018 01:17:25
00030 suncat2064 pw.x -in pw.inp   Done                     12/19/2018 01:17:25
00031 suncat2064 pw.x -in pw.inp   Done                     12/19/2018 01:17:25