     Program PWSCF v.5.1rc2 (svn rev. 11289) starts on 19Dec2018 at  1:47: 1

     Current dimensions of program PWSCF are:
     Max number of different atomic species (ntypx) = 10
     Max number of k-points (npk) =  40000
     Max angular momentum in pseudopotentials (lmaxx) =  3
     Presently stress not available with electric field

     IMPORTANT: XC functional enforced from input :
     Exchange-correlation      = BEEF-VDW ( 1  4 27 13 2)
     Any further DFT definition will be discarded
     Please, verify this is what you really want

     Subspace diagonalization in iterative solution of the eigenvalue problem:
     a serial algorithm will be used

     Found symmetry operation: I + (  0.5000  0.0000  0.0000)
     This is a supercell, fractional translations are disabled

     bravais-lattice index     =            0
     lattice parameter (alat)  =       1.8897  a.u.
     unit-cell volume          =    4557.7822 (a.u.)^3
     number of atoms/cell      =           12
     number of atomic types    =            2
     number of electrons       =       192.00
     number of Kohn-Sham states=          126
     kinetic-energy cutoff     =      36.7493  Ry
     charge density cutoff     =     367.4932  Ry
     convergence threshold     =      1.0E-06
     mixing beta               =       0.1000
     number of iterations used =           10  plain     mixing
     Exchange-correlation      = BEEF-VDW ( 1  4 27 13 2)
     nstep                     =           50

     celldm(1)=   1.889726  celldm(2)=   0.000000  celldm(3)=   0.000000
     celldm(4)=   0.000000  celldm(5)=   0.000000  celldm(6)=   0.000000

     crystal axes: (cart. coord. in units of alat)
               a(1) = (   5.622628   0.000000   0.000000 )
               a(2) = (  -2.811314   4.883454   0.000000 )
               a(3) = (   0.000000   0.000000  24.597477 )

     reciprocal axes: (cart. coord. in units 2 pi/alat)
               b(1) = (  0.177853  0.102387  0.000000 )
               b(2) = (  0.000000  0.204773  0.000000 )
               b(3) = (  0.000000  0.000000  0.040655 )

     PseudoPot. # 1 for Pd read from file:
     /afs/slac.stanford.edu/u/if/mamunm/psp/gbrv1.5pbe/Pd.UPF
     MD5 check sum: 2d733d2bc2cbfd217af676df1668a4bc
     Pseudo is Ultrasoft + core correction, Zval = 16.0
     Generated by new atomic code, or converted to UPF format
     Using radial grid of  887 points,  6 beta functions with:
                l(1) =   0
                l(2) =   0
                l(3) =   1
                l(4) =   1
                l(5) =   2
                l(6) =   2
     Q(r) pseudized with  8 coefficients,  rinner =    1.130   1.130   1.130
                                                       1.130   1.130

     PseudoPot. # 2 for Pt read from file:
     /afs/slac.stanford.edu/u/if/mamunm/psp/gbrv1.5pbe/Pt.UPF
     MD5 check sum: f09d6de1a584b5a045c4fc126da2d0c4
     Pseudo is Ultrasoft + core correction, Zval = 16.0
     Generated by new atomic code, or converted to UPF format
     Using radial grid of  985 points,  6 beta functions with:
                l(1) =   0
                l(2) =   0
                l(3) =   1
                l(4) =   1
                l(5) =   2
                l(6) =   2
     Q(r) pseudized with  8 coefficients,  rinner =    1.300   1.300   1.300
                                                       1.300   1.300

     vdW kernel table read from file vdW_kernel_table
     MD5 check sum: 095c7af220d748ca6e76c0b4c6cfb241

     atomic species   valence    mass     pseudopotential
        Pd1           16.00   106.42000     Pd( 1.00)
        Pt1           16.00   195.08400     Pt( 1.00)

     No symmetry found

   Cartesian axes

     site n.     atom                  positions (alat units)
         1           Pd1 tau(   1) = (   0.0000000   0.0000000  10.0000000  )
         2           Pd1 tau(   2) = (   2.8113138   0.0000000  10.0000000  )
         3           Pt1 tau(   3) = (   1.4056569   2.4417270  10.0000000  )
         4           Pt1 tau(   4) = (  -1.4056569   2.4417270  10.0000000  )
         5           Pd1 tau(   5) = (   2.8113138   1.6184212  12.2987384  )
         6           Pd1 tau(   6) = (  -0.0000000   1.6184212  12.2987384  )
         7           Pt1 tau(   7) = (  -1.4056569   4.0601481  12.2987384  )
         8           Pt1 tau(   8) = (   1.4056569   4.0601481  12.2987384  )
         9           Pd1 tau(   9) = (  -0.0000000   3.2368423  14.5974767  )
        10           Pd1 tau(  10) = (   2.8113138   3.2368423  14.5974767  )
        11           Pt1 tau(  11) = (   4.2169707   0.7951154  14.5974767  )
        12           Pt1 tau(  12) = (   1.4056569   0.7951154  14.5974767  )

     number of k points=    20  Fermi-Dirac smearing, width (Ry)=  0.0110
                       cart. coord. in units 2pi/alat
        k(    1) = (   0.0000000   0.0000000   0.0000000), wk =   0.0555556
        k(    2) = (   0.0000000   0.0341289   0.0000000), wk =   0.1111111
        k(    3) = (   0.0000000   0.0682577   0.0000000), wk =   0.1111111
        k(    4) = (   0.0000000  -0.1023866   0.0000000), wk =   0.0555556
        k(    5) = (   0.0296421   0.0170644   0.0000000), wk =   0.1111111
        k(    6) = (   0.0296421   0.0511933   0.0000000), wk =   0.1111111
        k(    7) = (   0.0296421   0.0853221   0.0000000), wk =   0.1111111
        k(    8) = (   0.0296421  -0.0853221   0.0000000), wk =   0.1111111
        k(    9) = (   0.0296421  -0.0511933   0.0000000), wk =   0.1111111
        k(   10) = (   0.0296421  -0.0170644   0.0000000), wk =   0.1111111
        k(   11) = (   0.0592843   0.0341289   0.0000000), wk =   0.1111111
        k(   12) = (   0.0592843   0.0682577   0.0000000), wk =   0.1111111
        k(   13) = (   0.0592843   0.1023866   0.0000000), wk =   0.1111111
        k(   14) = (   0.0592843  -0.0682577   0.0000000), wk =   0.1111111
        k(   15) = (   0.0592843  -0.0341289   0.0000000), wk =   0.1111111
        k(   16) = (   0.0592843   0.0000000   0.0000000), wk =   0.1111111
        k(   17) = (  -0.0889264  -0.0511933   0.0000000), wk =   0.0555556
        k(   18) = (  -0.0889264  -0.0170644   0.0000000), wk =   0.1111111
        k(   19) = (  -0.0889264   0.0170644   0.0000000), wk =   0.1111111
        k(   20) = (  -0.0889264  -0.1535798   0.0000000), wk =   0.0555556

     Largest allocated arrays     est. size (Mb)     dimensions
     Largest temporary arrays     est. size (Mb)     dimensions

     Initial potential from superposition of free atoms
     Check: negative starting charge=   -1.547396

     starting charge  185.99989, renormalised to  192.00000

     negative rho (up, down):  1.597E+00 0.000E+00

     *
     * You are using vdW-DF for exchange-correlation in this calculation.
     * Please cite the following three references that made this development
     * possible:
     *
     *   M. Dion, H. Rydberg, E. Schroder, D. C. Langreth, and
     *   B. I. Lundqvist, Phys. Rev. Lett. 92, 246401 (2004).
     *
     *   T. Thonhauser, V. R. Cooper, S. Li, A. Puzder, P. Hyldgaard, and
     *   D. C. Langreth, Phys. Rev. B 76, 125112 (2007).
     *
     *   G. Roman-Perez and J. M. Soler, Phys. Rev. Lett. 103, 096102 (2009).
     *
     *
     * If you are using vdW-DF2, please also cite:
     *
     *   K. Lee, E. D. Murray, L. Kong, B. I. Lundqvist, and
     *   D. C. Langreth, Phys. Rev. B 82, 081101(R) (2010).
     *
     *
     * If you are calculating the stress with vdW-DF, please also cite:
     *
     *   R. Sabatini, E. Kucukbenli, B. Kolb, T. Thonhauser, and
     *   S. de Gironcoli, J. Phys.: Condens. Matter 24, 424209 (2012).
     *

     Carrying out vdW-DF run using the following parameters:

     Nqs =      20    Nr_points =    1024   r_max =   100.000
     q_mesh =
               0.00001000     0.04494208     0.09755937     0.15916263
               0.23128650     0.31572767     0.41458969     0.53033537
               0.66584808     0.82450364     1.01025438     1.22772762
               1.48234092     1.78043706     2.12944203     2.53805004
               3.01644009     3.57652955     4.23227104     5.00000000

     Gradients computed in reciprocal space

     Adding external electric field

     Computed dipole along edir(3) :
        Dipole               -0.0000 Ry au,         -0.0000 Debye
        Dipole field         -0.0000 Ry au

        Potential amp.        0.0000 Ry
        Total length         45.3204 bohr

     Starting wfc are  144 randomized atomic wfcs

     Self-consistent Calculation

     iteration #  1     ecut=    36.75 Ry     beta=0.10
     Davidson diagonalization with overlap
     ethr =  1.00E-02,  avg # of iterations =  7.3

[...]

     total energy              =   -2472.16357349 Ry
     Harris-Foulkes estimate   =   -2476.49122009 Ry
     estimated scf accuracy    <      26.00511389 Ry

[...]

     End of self-consistent calculation

          k = 0.0000 0.0000 0.0000 ( 17155 PWs)   bands (ev):

   -51.4129 -51.3300 -51.3089 -51.2489 -51.2265 -51.2045 -51.0944 -51.0933
   -50.9578 -50.9512 -50.9352 -50.9286 -50.8857 -50.8856 -50.7481 -50.7460
   -50.7292 -50.7252 -48.8349 -48.8238 -48.8132 -48.7812 -48.7681 -48.6728
   -48.6203 -48.6187 -48.5823 -48.5773 -48.5713 -48.5667 -48.4569 -48.4565
   -48.3427 -48.3340 -48.3273 -48.3204  -6.0419  -4.5723  -4.3534  -4.0378
    -4.0099  -3.8854  -3.7566  -3.7442  -3.6908  -3.5112  -3.4754  -3.4181
    -3.3098  -3.2560  -3.2084  -2.2784  -2.1534  -2.0331  -1.8686  -1.8336
    -1.8241  -1.6544  -1.5775  -1.5657  -1.3508  -1.3406  -1.2988  -1.2615
    -1.1941  -1.1807  -1.1758  -1.1551  -0.6772  -0.5555  -0.4980  -0.0374
    -0.0093   0.0080   0.0243   0.0463   0.1569   0.2135   0.2668   0.5145
     0.5615   0.8183   0.9128   0.9367   0.9615   1.0152   1.0667   1.1069
     1.1097   1.1312   1.1396   1.2921   1.3437   1.4070   1.4366   1.5310
     1.5855   1.6908   1.7658   2.5210   2.9200   3.0872   3.2360   4.4121
     4.4386   4.4865   4.5987   4.6189   4.6675   5.9111   6.2346   6.4960
     6.7881   7.1845   7.4502   7.5617   7.8773   8.2243   8.3289   8.4001
     8.4560   8.8679   9.5644   9.8328  10.5671  10.9656

[...]

          k =-0.0889-0.0512 0.0000 ( 17196 PWs)   bands (ev):

[...]

     the Fermi energy is     1.2117 ev

!    total energy              =   -2472.77042772 Ry
     Harris-Foulkes estimate   =   -2472.77042293 Ry
     estimated scf accuracy    <       0.00000026 Ry

     The total energy is the sum of the following terms:

     one-electron contribution =  -19974.09910675 Ry
     hartree contribution      =   10029.44274811 Ry
     xc contribution           =    -546.62757435 Ry
     ewald contribution        =    8018.63215059 Ry
     electric field correction =       0.00000000 Ry
     smearing contrib. (-TS)   =      -0.11864533 Ry

     convergence has been achieved in  18 iterations

 BEEF-vdW xc energy contributions
           1 :   -482.935874196008
           2 :    446.608765294461
           3 :   -382.722374071685
           4 :    305.402912247603
           5 :   -229.291018466105
           6 :    165.278246442081
           7 :   -118.250016103731
           8 :    87.2561200660433
[...]

     Program PWSCF v.5.1rc2 (svn rev. 11289) starts on 19Dec2018 at  1:52: 9

[...]

   This run was terminated on:   1:57:13  19Dec2018

[...]

     Program PWSCF v.5.1rc2 (svn rev. 11289) starts on 19Dec2018 at  1:57:19

[...]

   This run was terminated on:   2: 2:32  19Dec2018

[...]

     Program PWSCF v.5.1rc2 (svn rev. 11289) starts on 19Dec2018 at  2: 2:39

     Current dimensions of program PWSCF are:
     Max number of different atomic species (ntypx) = 10
     Max number of k-points (npk) =  40000
     Max angular momentum in pseudopotentials (lmaxx) =  3
     Presently stress not available with electric field

     IMPORTANT: XC functional enforced from input :
     Exchange-correlation      = BEEF-VDW ( 1  4 27 13 2)
     Any further DFT definition will be discarded
     Please, verify this is what you really want

     Subspace diagonalization in iterative solution of the eigenvalue problem:
     a serial algorithm will be used

     Found symmetry operation: I + (  0.5000  0.0000  0.0000)
     This is a supercell, fractional translations are disabled

     bravais-lattice index     =            0
     lattice parameter (alat)  =       1.8897  a.u.
     unit-cell volume          =    4557.7822 (a.u.)^3
     number of atoms/cell      =           12
     number of atomic types    =            2
     number of electrons       =       192.00
     number of Kohn-Sham states=          126
     kinetic-energy cutoff     =      36.7493  Ry
     charge density cutoff     =     367.4932  Ry
     convergence threshold     =      1.0E-06
     mixing beta               =       0.1000
     number of iterations used =           10  plain     mixing
     Exchange-correlation      = BEEF-VDW ( 1  4 27 13 2)
     nstep                     =           50

     celldm(1)=   1.889726  celldm(2)=   0.000000  celldm(3)=   0.000000
     celldm(4)=   0.000000  celldm(5)=   0.000000  celldm(6)=   0.000000

     crystal axes: (cart. coord. in units of alat)
               a(1) = (   5.622628   0.000000   0.000000 )
               a(2) = (  -2.811314   4.883454   0.000000 )
               a(3) = (   0.000000   0.000000  24.597477 )

     reciprocal axes: (cart. coord. in units 2 pi/alat)
               b(1) = (  0.177853  0.102387  0.000000 )
               b(2) = (  0.000000  0.204773  0.000000 )
               b(3) = (  0.000000  0.000000  0.040655 )

     PseudoPot. # 1 for Pd read from file:
     /afs/slac.stanford.edu/u/if/mamunm/psp/gbrv1.5pbe/Pd.UPF
     MD5 check sum: 2d733d2bc2cbfd217af676df1668a4bc
     Pseudo is Ultrasoft + core correction, Zval = 16.0
     Generated by new atomic code, or converted to UPF format
     Using radial grid of  887 points,  6 beta functions with:
                l(1) =   0
                l(2) =   0
                l(3) =   1
                l(4) =   1
                l(5) =   2
                l(6) =   2
     Q(r) pseudized with  8 coefficients,  rinner =    1.130   1.130   1.130
                                                       1.130   1.130

     PseudoPot. # 2 for Pt read from file:
     /afs/slac.stanford.edu/u/if/mamunm/psp/gbrv1.5pbe/Pt.UPF
     MD5 check sum: f09d6de1a584b5a045c4fc126da2d0c4
     Pseudo is Ultrasoft + core correction, Zval = 16.0
     Generated by new atomic code, or converted to UPF format
     Using radial grid of  985 points,  6 beta functions with:
                l(1) =   0
                l(2) =   0
                l(3) =   1
                l(4) =   1
                l(5) =   2
                l(6) =   2
     Q(r) pseudized with  8 coefficients,  rinner =    1.300   1.300   1.300
                                                       1.300   1.300

     vdW kernel table read from file vdW_kernel_table
     MD5 check sum: 095c7af220d748ca6e76c0b4c6cfb241

     atomic species   valence    mass     pseudopotential
        Pd1           16.00   106.42000     Pd( 1.00)
        Pt1           16.00   195.08400     Pt( 1.00)

     No symmetry found

   Cartesian axes

     site n.     atom                  positions (alat units)
         1           Pd1 tau(   1) = (   0.0000000   0.0000000  10.0000000  )
         2           Pd1 tau(   2) = (   2.8113138   0.0000000  10.0000000  )
         3           Pt1 tau(   3) = (   1.4056569   2.4417270  10.0000000  )
         4           Pt1 tau(   4) = (  -1.4056569   2.4417270  10.0000000  )
         5           Pd1 tau(   5) = (   2.8113138   1.6184212  12.2987384  )
         6           Pd1 tau(   6) = (  -0.0000000   1.6184212  12.2987384  )
         7           Pt1 tau(   7) = (  -1.4056569   4.0601481  12.2987384  )
         8           Pt1 tau(   8) = (   1.4056569   4.0601481  12.2987384  )
         9           Pd1 tau(   9) = (   0.0000003   3.2295804  14.6533096  )
        10           Pd1 tau(  10) = (   2.8113139   3.2295779  14.6533113  )
        11           Pt1 tau(  11) = (   4.2169706   0.7821502  14.5607349  )
        12           Pt1 tau(  12) = (   1.4056573   0.7821501  14.5607349  )

     number of k points=    20  Fermi-Dirac smearing, width (Ry)=  0.0110
                       cart. coord. in units 2pi/alat
        k(    1) = (   0.0000000   0.0000000   0.0000000), wk =   0.0555556
        k(    2) = (   0.0000000   0.0341289   0.0000000), wk =   0.1111111
        k(    3) = (   0.0000000   0.0682577   0.0000000), wk =   0.1111111
        k(    4) = (   0.0000000  -0.1023866   0.0000000), wk =   0.0555556
        k(    5) = (   0.0296421   0.0170644   0.0000000), wk =   0.1111111
        k(    6) = (   0.0296421   0.0511933   0.0000000), wk =   0.1111111
        k(    7) = (   0.0296421   0.0853221   0.0000000), wk =   0.1111111
        k(    8) = (   0.0296421  -0.0853221   0.0000000), wk =   0.1111111
        k(    9) = (   0.0296421  -0.0511933   0.0000000), wk =   0.1111111
        k(   10) = (   0.0296421  -0.0170644   0.0000000), wk =   0.1111111
        k(   11) = (   0.0592843   0.0341289   0.0000000), wk =   0.1111111
        k(   12) = (   0.0592843   0.0682577   0.0000000), wk =   0.1111111
        k(   13) = (   0.0592843   0.1023866   0.0000000), wk =   0.1111111
        k(   14) = (   0.0592843  -0.0682577   0.0000000), wk =   0.1111111
        k(   15) = (   0.0592843  -0.0341289   0.0000000), wk =   0.1111111
        k(   16) = (   0.0592843   0.0000000   0.0000000), wk =   0.1111111
        k(   17) = (  -0.0889264  -0.0511933   0.0000000), wk =   0.0555556
        k(   18) = (  -0.0889264  -0.0170644   0.0000000), wk =   0.1111111
        k(   19) = (  -0.0889264   0.0170644   0.0000000), wk =   0.1111111
        k(   20) = (  -0.0889264  -0.1535798   0.0000000), wk =   0.0555556

     Largest allocated arrays     est. size (Mb)     dimensions
     Largest temporary arrays     est. size (Mb)     dimensions

     Initial potential from superposition of free atoms
     Check: negative starting charge=   -1.548442

     starting charge  185.99989, renormalised to  192.00000

[...]

     *
     * You are using vdW-DF for exchange-correlation in this calculation.
     * Please cite the following three references that made this development
     * possible:
     *
     *   M. Dion, H. Rydberg, E. Schroder, D. C. Langreth, and
     *   B. I. Lundqvist, Phys. Rev. Lett. 92, 246401 (2004).
     *
     *   T. Thonhauser, V. R. Cooper, S. Li, A. Puzder, P. Hyldgaard, and
     *   D. C. Langreth, Phys. Rev. B 76, 125112 (2007).
     *
     *   G. Roman-Perez and J. M. Soler, Phys. Rev. Lett. 103, 096102 (2009).
     *
     *
     * If you are using vdW-DF2, please also cite:
     *
     *   K. Lee, E. D. Murray, L. Kong, B. I. Lundqvist, and
     *   D. C. Langreth, Phys. Rev. B 82, 081101(R) (2010).
     *
     *
     * If you are calculating the stress with vdW-DF, please also cite:
     *
     *   R. Sabatini, E. Kucukbenli, B. Kolb, T. Thonhauser, and
     *   S. de Gironcoli, J. Phys.: Condens. Matter 24, 424209 (2012).
     *

     Carrying out vdW-DF run using the following parameters:

     Nqs =      20    Nr_points =    1024   r_max =   100.000
     q_mesh =
               0.00001000     0.04494208     0.09755937     0.15916263
               0.23128650     0.31572767     0.41458969     0.53033537
               0.66584808     0.82450364     1.01025438     1.22772762
               1.48234092     1.78043706     2.12944203     2.53805004
               3.01644009     3.57652955     4.23227104     5.00000000

     Gradients computed in reciprocal space

[...]

     Starting wfc are  144 randomized atomic wfcs

     Self-consistent Calculation

[...]

     total energy              =   -2472.77211030 Ry
     Harris-Foulkes estimate   =   -2472.77210958 Ry
     estimated scf accuracy    <       0.00000113 Ry

     iteration # 19     ecut=    36.75 Ry     beta=0.10
     Davidson diagonalization with overlap
     ethr =  5.90E-10,  avg # of iterations =  1.3

[...]

     negative rho (up, down):  1.526E+00 0.000E+00

     Adding external electric field

     Computed dipole along edir(3) :
        Dipole                0.0043 Ry au,          0.0109 Debye
        Dipole field          0.0000 Ry au

        Potential amp.       -0.0011 Ry
        Total length         45.3204 bohr

     End of self-consistent calculation

[...]

          k = 0.0593 0.0000 0.0000 ( 17126 PWs)   bands (ev):

[...]

          k =-0.0889-0.1536 0.0000 ( 17196 PWs)   bands (ev):

   -51.3156 -51.3156 -51.2847 -51.2847 -51.2065 -51.2065 -51.0212 -51.0212
   -50.9830 -50.9830 -50.9705 -50.9705 -50.9341 -50.9341 -50.7832 -50.7832
   -50.7311 -50.7311 -48.8251 -48.8251 -48.7687 -48.7687 -48.7569 -48.7569
   -48.5645 -48.5645 -48.5258 -48.5258 -48.5227 -48.5227 -48.4793 -48.4793
   -48.3165 -48.3165 -48.2543 -48.2542  -4.4496  -4.4496  -3.4205  -3.4205
    -3.1424  -3.1424  -3.1187  -3.1187  -2.9699  -2.9699  -2.7345  -2.7345
    -2.5190  -2.5190  -2.4034  -2.4034  -2.0943  -2.0943  -2.0180  -2.0180
    -1.9499  -1.9499  -1.6029  -1.6029  -1.3606  -1.3605  -1.2530  -1.2530
    -1.2027  -1.2027  -1.1040  -1.1040  -0.9366  -0.9366  -0.8843  -0.8843
    -0.8507  -0.8507  -0.7663  -0.7663  -0.4469  -0.4469  -0.2695  -0.2695
    -0.1857  -0.1857  -0.0277  -0.0277   0.0289   0.0289   0.1392   0.1392
     0.4593   0.4593   0.5042   0.5042   0.8304   0.8304   0.9843   0.9843
     1.1534   1.1534   1.3578   1.3578   3.0030   3.0030   3.6804   3.6804
     4.5001   4.5001   5.7809   5.7809   6.5669   6.5669   7.3987   7.3987
     7.9876   7.9876   8.0275   8.0275   9.1742   9.1742   9.1972   9.1972
     9.5385   9.5385   9.6945   9.6945  10.0624  10.0624

     the Fermi energy is     1.2208 ev

!    total energy              =   -2472.77211446 Ry
     Harris-Foulkes estimate   =   -2472.77211043 Ry
     estimated scf accuracy    <       0.00000018 Ry

     The total energy is the sum of the following terms:

     one-electron contribution =  -19946.30888011 Ry
     hartree contribution      =   10015.62086580 Ry
     xc contribution           =    -546.62335760 Ry
     ewald contribution        =    8004.65700900 Ry
     electric field correction =       0.00000005 Ry
     smearing contrib. (-TS)   =      -0.11775161 Ry

     convergence has been achieved in  19 iterations

 BEEF-vdW xc energy contributions
           1 :   -482.930297944284
           2 :    446.596318335838
           3 :   -382.701988321525
           4 :    305.380716678962
           5 :   -229.275610649381
           6 :    165.274307071739
           7 :   -118.254884872119
           8 :    87.2615080331012
           9 :   -67.6186996191254
          10 :    53.8104070588867
          11 :   -41.8540776361397
          12 :    30.3243507323244
          13 :   -19.9419378117185
          14 :    12.2819358953061
          15 :   -8.43420701963191
          16 :    8.25975535276552
          17 :   -10.4669042502923
          18 :    13.2787703424896
          19 :   -15.2311208952153
          20 :    15.6738826256038
          21 :   -14.8017169363525
          22 :    13.3044339751141
          23 :   -11.8965519339597
          24 :    10.9760969273755
          25 :   -10.5449414396891
          26 :    10.3547149887252
          27 :   -10.1375664852111
          28 :    9.76857672680126
          29 :   -9.28862147636266
          30 :    8.81461805911545
          31 :   -42.1367865550664
          32 :   -31.1290615618426

     Forces acting on atoms (Ry/au):

     negative rho (up, down):  1.526E+00 0.000E+00
     atom    1 type  1   force =     0.00000001   -0.00004407   -0.01089698
     atom    2 type  1   force =     0.00000003   -0.00004418   -0.01089694
     atom    3 type  2   force =    -0.00000008    0.00281726    0.00791129
     atom    4 type  2   force =    -0.00000007    0.00281718    0.00791152
     atom    5 type  1   force =     0.00000010    0.00447219   -0.00103377
     atom    6 type  1   force =     0.00000004    0.00447204   -0.00103382
     atom    7 type  2   force =    -0.00000023   -0.00465947    0.00346979
     atom    8 type  2   force =     0.00000019   -0.00465959    0.00346983
     atom    9 type  1   force =     0.00000005   -0.00113084    0.00005750
     atom   10 type  1   force =     0.00000001   -0.00113013    0.00005717
     atom   11 type  2   force =     0.00000020   -0.00145528    0.00049222
     atom   12 type  2   force =    -0.00000024   -0.00145511    0.00049218

     Total force =     0.022259     Total SCF correction =     0.002714
     SCF correction compared to forces is large: reduce conv_thr to get better values

     entering subroutine stress ...

     negative rho (up, down):  1.526E+00 0.000E+00
          total   stress  (Ry/bohr**3)                   (kbar)     P=  -15.50
  -0.00015727   0.00000000  -0.00000000        -23.13      0.00     -0.00
   0.00000000  -0.00014813  -0.00001023          0.00    -21.79     -1.50
  -0.00000000  -0.00001023  -0.00001065         -0.00     -1.50     -1.57

 !ASE

     Writing output data file calc.save

     General routines

     Parallel routines

   This run was terminated on:   2: 7:47  19Dec2018

   JOB DONE.
Job  /afs/slac/g/suncat/bin/suncat-tsmpirun -x LD_LIBRARY_PATH -wdir /scratch/qe530425_u5XIh pw.x -in pw.inp

TID   HOST_NAME   COMMAND_LINE            STATUS            TERMINATION_TIME
00000 suncat2048 pw.x -in pw.inp   Done                     12/19/2018 02:07:47
00001 suncat2048 pw.x -in pw.inp   Done                     12/19/2018 02:07:47
00002 suncat2048 pw.x -in pw.inp   Done                     12/19/2018 02:07:47
00003 suncat2048 pw.x -in pw.inp   Done                     12/19/2018 02:07:47
00004 suncat2048 pw.x -in pw.inp   Done                     12/19/2018 02:07:47
00005 suncat2048 pw.x -in pw.inp   Done                     12/19/2018 02:07:47
00006 suncat2048 pw.x -in pw.inp   Done                     12/19/2018 02:07:47
00007 suncat2048 pw.x -in pw.inp   Done                     12/19/2018 02:07:47
00008 suncat2048 pw.x -in pw.inp   Done                     12/19/2018 02:07:47
00009 suncat2048 pw.x -in pw.inp   Done                     12/19/2018 02:07:47
00010 suncat2048 pw.x -in pw.inp   Done                     12/19/2018 02:07:47
00011 suncat2048 pw.x -in pw.inp   Done                     12/19/2018 02:07:47
00012 suncat2048 pw.x -in pw.inp   Done                     12/19/2018 02:07:47
00013 suncat2048 pw.x -in pw.inp   Done                     12/19/2018 02:07:47
00014 suncat2048 pw.x -in pw.inp   Done                     12/19/2018 02:07:47
00015 suncat2048 pw.x -in pw.inp   Done                     12/19/2018 02:07:47
00016 suncat2047 pw.x -in pw.inp   Done                     12/19/2018 02:07:47
00017 suncat2047 pw.x -in pw.inp   Done                     12/19/2018 02:07:47
00018 suncat2047 pw.x -in pw.inp   Done                     12/19/2018 02:07:47
00019 suncat2047 pw.x -in pw.inp   Done                     12/19/2018 02:07:47
00020 suncat2047 pw.x -in pw.inp   Done                     12/19/2018 02:07:47
00021 suncat2047 pw.x -in pw.inp   Done                     12/19/2018 02:07:47
00022 suncat2047 pw.x -in pw.inp   Done                     12/19/2018 02:07:47
00023 suncat2047 pw.x -in pw.inp   Done                     12/19/2018 02:07:47
00024 suncat2047 pw.x -in pw.inp   Done                     12/19/2018 02:07:47
00025 suncat2047 pw.x -in pw.inp   Done                     12/19/2018 02:07:47
00026 suncat2047 pw.x -in pw.inp   Done                     12/19/2018 02:07:47
00027 suncat2047 pw.x -in pw.inp   Done                     12/19/2018 02:07:47
00028 suncat2047 pw.x -in pw.inp   Done                     12/19/2018 02:07:47
00029 suncat2047 pw.x -in pw.inp   Done                     12/19/2018 02:07:47
00030 suncat2047 pw.x -in pw.inp   Done                     12/19/2018 02:07:47
00031 suncat2047 pw.x -in pw.inp   Done                     12/19/2018 02:07:47