     Program PWSCF v.5.1rc2 (svn rev. 11289) starts on 19Dec2018 at  1:17:42

     Current dimensions of program PWSCF are:
     Max number of different atomic species (ntypx) = 10
     Max number of k-points (npk) =  40000
     Max angular momentum in pseudopotentials (lmaxx) =  3
     Presently stress not available with electric field

     IMPORTANT: XC functional enforced from input :
     Exchange-correlation      = BEEF-VDW ( 1  4 27 13 2)
     Any further DFT definition will be discarded
     Please, verify this is what you really want

     Subspace diagonalization in iterative solution of the eigenvalue problem:
     a serial algorithm will be used

     Found symmetry operation: I + ( -0.5000  0.5000  0.0000)
     This is a supercell, fractional translations are disabled

     bravais-lattice index     =            0
     lattice parameter (alat)  =       1.8897  a.u.
     unit-cell volume          =    5240.4429 (a.u.)^3
     number of atoms/cell      =           12
     number of atomic types    =            2
     number of electrons       =       174.00
     number of Kohn-Sham states=          117
     kinetic-energy cutoff     =      36.7493  Ry
     charge density cutoff     =     367.4932  Ry
     convergence threshold     =      1.0E-06
     mixing beta               =       0.1000
     number of iterations used =           10  plain     mixing
     Exchange-correlation      = BEEF-VDW ( 1  4 27 13 2)
     nstep                     =           50

     celldm(1)=   1.889726  celldm(2)=   0.000000  celldm(3)=   0.000000
     celldm(4)=   0.000000  celldm(5)=   0.000000  celldm(6)=   0.000000

     crystal axes: (cart. coord. in units of alat)
               a(1) = (   5.773750   0.000000   0.000000 )
               a(2) = (   1.929636   5.441755   0.000000 )
               a(3) = (   0.000000   0.000000  24.715785 )

     reciprocal axes: (cart. coord. in units 2 pi/alat)
               b(1) = (  0.173198 -0.061416  0.000000 )
               b(2) = (  0.000000  0.183764  0.000000 )
               b(3) = (  0.000000  0.000000  0.040460 )

     PseudoPot. # 1 for Os read from file:
     /afs/slac.stanford.edu/u/if/mamunm/psp/gbrv1.5pbe/Os.UPF
     MD5 check sum: a3fb40a04f0c37c25c34bbc47164c9a8
     Pseudo is Ultrasoft + core correction, Zval = 16.0
     Generated by new atomic code, or converted to UPF format
     Using radial grid of  983 points,  8 beta functions with:
                l(1) =   0
                l(2) =   0
                l(3) =   1
                l(4) =   1
                l(5) =   2
                l(6) =   2
                l(7) =   3
                l(8) =   3
     Q(r) pseudized with  8 coefficients,  rinner =    1.150   1.150   1.150
                                                       1.150   1.150   1.150
                                                       1.150

     PseudoPot. # 2 for Tl read from file:
     /afs/slac.stanford.edu/u/if/mamunm/psp/gbrv1.5pbe/Tl.UPF
     MD5 check sum: b76cf1f7e72655a2b2c53cf6385d7059
     Pseudo is Ultrasoft + core correction, Zval = 13.0
     Generated by new atomic code, or converted to UPF format
     Using radial grid of  899 points,  6 beta functions with:
                l(1) =   0
                l(2) =   0
                l(3) =   1
                l(4) =   1
                l(5) =   2
                l(6) =   2
     Q(r) pseudized with  6 coefficients,  rinner =    1.100   1.100   1.100
                                                       1.100   1.100

     vdW kernel table read from file vdW_kernel_table
     MD5 check sum: 095c7af220d748ca6e76c0b4c6cfb241

     atomic species   valence    mass     pseudopotential
        Os1           16.00   190.23000     Os( 1.00)
        Tl1           13.00   204.38000     Tl( 1.00)

     No symmetry found

   Cartesian axes

     site n.     atom                  positions (alat units)
         1           Os1 tau(   1) = (   0.0000000   0.0000000  10.0000000  )
         2           Os1 tau(   2) = (   3.8516934   2.7208775  10.0000000  )
         3           Tl1 tau(   3) = (   2.8868752   0.0000000  10.0000000  )
         4           Tl1 tau(   4) = (   0.9648182   2.7208775  10.0000000  )
         5           Os1 tau(   5) = (   5.7737504   4.0786391  12.3578926  )
         6           Os1 tau(   6) = (   1.9220570   1.3577616  12.3578926  )
         7           Tl1 tau(   7) = (   2.8868752   4.0786391  12.3578926  )
         8           Tl1 tau(   8) = (   4.8089321   1.3577616  12.3578926  )
         9           Os1 tau(   9) = (   3.8441139   2.7155232  14.7157852  )
        10           Os1 tau(  10) = (   7.6958073   5.4364007  14.7157852  )
        11           Tl1 tau(  11) = (   6.7309891   2.7155232  14.7157852  )
        12           Tl1 tau(  12) = (   4.8089321   5.4364007  14.7157852  )

     number of k points=    20  Fermi-Dirac smearing, width (Ry)=  0.0110
                       cart. coord. in units 2pi/alat
        k(    1) = (   0.0000000   0.0000000   0.0000000), wk =   0.0555556
        k(    2) = (   0.0000000   0.0306274   0.0000000), wk =   0.1111111
        k(    3) = (   0.0000000   0.0612547   0.0000000), wk =   0.1111111
        k(    4) = (   0.0000000  -0.0918821   0.0000000), wk =   0.0555556
        k(    5) = (   0.0288663  -0.0102359   0.0000000), wk =   0.1111111
        k(    6) = (   0.0288663   0.0203914   0.0000000), wk =   0.1111111
        k(    7) = (   0.0288663   0.0510188   0.0000000), wk =   0.1111111
        k(    8) = (   0.0288663  -0.1021181   0.0000000), wk =   0.1111111
        k(    9) = (   0.0288663  -0.0714907   0.0000000), wk =   0.1111111
        k(   10) = (   0.0288663  -0.0408633   0.0000000), wk =   0.1111111
        k(   11) = (   0.0577326  -0.0204719   0.0000000), wk =   0.1111111
        k(   12) = (   0.0577326   0.0101555   0.0000000), wk =   0.1111111
        k(   13) = (   0.0577326   0.0407829   0.0000000), wk =   0.1111111
        k(   14) = (   0.0577326  -0.1123540   0.0000000), wk =   0.1111111
        k(   15) = (   0.0577326  -0.0817266   0.0000000), wk =   0.1111111
        k(   16) = (   0.0577326  -0.0510992   0.0000000), wk =   0.1111111
        k(   17) = (  -0.0865988   0.0307078   0.0000000), wk =   0.0555556
        k(   18) = (  -0.0865988   0.0613352   0.0000000), wk =   0.1111111
        k(   19) = (  -0.0865988   0.0919625   0.0000000), wk =   0.1111111
        k(   20) = (  -0.0865988  -0.0611743   0.0000000), wk =   0.0555556

     Largest allocated arrays     est. size (Mb)     dimensions
     Largest temporary arrays     est. size (Mb)     dimensions

     Check: negative/imaginary core charge=   -0.000001    0.000000

     Initial potential from superposition of free atoms
     Check: negative starting charge=   -1.060564

     starting charge  170.97059, renormalised to  174.00000

     negative rho (up, down):  1.079E+00 0.000E+00

     *
     * You are using vdW-DF for exchange-correlation in this calculation.
     * Please cite the following three references that made this development
     * possible:
     *
     *   M. Dion, H. Rydberg, E. Schroder, D. C. Langreth, and
     *   B. I. Lundqvist, Phys. Rev. Lett. 92, 246401 (2004).
     *
     *   T. Thonhauser, V. R. Cooper, S. Li, A. Puzder, P. Hyldgaard, and
     *   D. C. Langreth, Phys. Rev. B 76, 125112 (2007).
     *
     *   G. Roman-Perez and J. M. Soler, Phys. Rev. Lett. 103, 096102 (2009).
     *
     *
     * If you are using vdW-DF2, please also cite:
     *
     *   K. Lee, E. D. Murray, L. Kong, B. I. Lundqvist, and
     *   D. C. Langreth, Phys. Rev. B 82, 081101(R) (2010).
     *
     *
     * If you are calculating the stress with vdW-DF, please also cite:
     *
     *   R. Sabatini, E. Kucukbenli, B. Kolb, T. Thonhauser, and
     *   S. de Gironcoli, J. Phys.: Condens. Matter 24, 424209 (2012).
     *

     Carrying out vdW-DF run using the following parameters:

     Nqs =      20    Nr_points =    1024   r_max =   100.000
     q_mesh =
               0.00001000     0.04494208     0.09755937     0.15916263
               0.23128650     0.31572767     0.41458969     0.53033537
               0.66584808     0.82450364     1.01025438     1.22772762
               1.48234092     1.78043706     2.12944203     2.53805004
               3.01644009     3.57652955     4.23227104     5.00000000

     Gradients computed in reciprocal space

     Adding external electric field

     Computed dipole along edir(3) :
        Dipole                0.0000 Ry au,          0.0000 Debye
        Dipole field          0.0000 Ry au

        Potential amp.       -0.0000 Ry
        Total length         45.5384 bohr

     Starting wfc are  132 randomized atomic wfcs

     Self-consistent Calculation

     iteration #  1     ecut=    36.75 Ry     beta=0.10
     Davidson diagonalization with overlap
     ethr =  1.00E-02,  avg # of iterations =  9.4

     Threshold (ethr) on eigenvalues was too large:
     Diagonalizing with lowered threshold

     Davidson diagonalization with overlap
     ethr =  9.47E-04,  avg # of iterations =  2.8

[...]

     total energy              =   -2078.48852112 Ry
     Harris-Foulkes estimate   =   -2078.75624880 Ry
     estimated scf accuracy    <       1.58176592 Ry

[...]

     End of self-consistent calculation

          k = 0.0000 0.0000 0.0000 ( 19751 PWs)   bands (ev):

   -84.0813 -84.0797 -84.0211 -84.0210 -84.0196 -84.0195 -43.4685 -43.4641
   -43.4335 -43.4332 -43.4229 -43.4197 -43.4179 -43.3769 -43.3764 -43.3579
   -43.3271 -43.3246 -43.3226 -43.3174 -43.2979 -43.2943 -43.2927 -43.2896
   -10.3513 -10.3476 -10.2762 -10.2653 -10.2277 -10.0723 -10.0675 -10.0541
   -10.0531 -10.0250  -9.9557  -9.9391  -9.9304  -9.8786  -9.8764  -9.8503
    -9.8253  -9.7766  -9.7575  -9.7063  -9.7037  -9.6896  -9.6655  -9.6652
    -9.5874  -9.5784  -9.4073  -9.4017  -9.3918  -9.2905  -8.4961  -6.5847
    -4.9040  -4.7569  -4.2677  -4.2504  -1.6007  -1.4536  -1.1047  -0.8634
    -0.6964  -0.5921  -0.5259  -0.3316  -0.1732   0.1574   0.2184   0.2491
     0.4291   0.5711   0.7077   0.9015   0.9858   1.1056   1.1238   1.2247
     1.2779   1.3024   1.3044   1.3110   1.3988   1.4437   1.5817   1.6407
     1.6585   1.6613   1.7302   2.1316   2.2141   2.8020   2.9549   3.4641
     3.5720   3.8643   4.3637   4.6333   4.7414   4.7955   4.9431   5.3385
     5.4364   5.6995   5.9583   6.0764   6.0766   7.0092   7.2656   7.4741
     7.5166   7.5570   8.3448   8.5437   9.0544

[...]

          k =-0.0866 0.0307 0.0000 ( 19746 PWs)   bands (ev):

[...]

     the Fermi energy is     1.5907 ev

!    total energy              =   -2078.38682873 Ry
     Harris-Foulkes estimate   =   -2078.38685140 Ry
     estimated scf accuracy    <       0.00000030 Ry

     The total energy is the sum of the following terms:

     one-electron contribution =  -14116.20357504 Ry
     hartree contribution      =    7092.16165648 Ry
     xc contribution           =    -616.58687213 Ry
     ewald contribution        =    5562.33105791 Ry
     electric field correction =       0.00000000 Ry
     smearing contrib. (-TS)   =      -0.08909595 Ry

     convergence has been achieved in  19 iterations

[...]
00031 suncat2047 pw.x -in pw.inp   Done                     12/19/2018 01:23:41

[...]

     iteration # 17     ecut=    36.75 Ry     beta=0.10
     Davidson diagonalization with overlap
     c_bands:  1 eigenvalues not converged
     ethr =  7.14E-10,  avg # of iterations =  3.2

[...]

   This run was terminated on:   1:35: 5  19Dec2018

[...]

     Program PWSCF v.5.1rc2 (svn rev. 11289) starts on 19Dec2018 at  1:40:57

     Current dimensions of program PWSCF are:
     Max number of different atomic species (ntypx) = 10
     Max number of k-points (npk) =  40000
     Max angular momentum in pseudopotentials (lmaxx) =  3
     Presently stress not available with electric field

     IMPORTANT: XC functional enforced from input :
     Exchange-correlation      = BEEF-VDW ( 1  4 27 13 2)
     Any further DFT definition will be discarded
     Please, verify this is what you really want

     Subspace diagonalization in iterative solution of the eigenvalue problem:
     a serial algorithm will be used

     bravais-lattice index     =            0
     lattice parameter (alat)  =       1.8897  a.u.
     unit-cell volume          =    5240.4429 (a.u.)^3
     number of atoms/cell      =           12
     number of atomic types    =            2
     number of electrons       =       174.00
     number of Kohn-Sham states=          117
     kinetic-energy cutoff     =      36.7493  Ry
     charge density cutoff     =     367.4932  Ry
     convergence threshold     =      1.0E-06
     mixing beta               =       0.1000
     number of iterations used =           10  plain     mixing
     Exchange-correlation      = BEEF-VDW ( 1  4 27 13 2)
     nstep                     =           50

     celldm(1)=   1.889726  celldm(2)=   0.000000  celldm(3)=   0.000000
     celldm(4)=   0.000000  celldm(5)=   0.000000  celldm(6)=   0.000000

     crystal axes: (cart. coord. in units of alat)
               a(1) = (   5.773750   0.000000   0.000000 )
               a(2) = (   1.929636   5.441755   0.000000 )
               a(3) = (   0.000000   0.000000  24.715785 )

     reciprocal axes: (cart. coord. in units 2 pi/alat)
               b(1) = (  0.173198 -0.061416  0.000000 )
               b(2) = (  0.000000  0.183764  0.000000 )
               b(3) = (  0.000000  0.000000  0.040460 )

     PseudoPot. # 1 for Os read from file:
     /afs/slac.stanford.edu/u/if/mamunm/psp/gbrv1.5pbe/Os.UPF
     MD5 check sum: a3fb40a04f0c37c25c34bbc47164c9a8
     Pseudo is Ultrasoft + core correction, Zval = 16.0
     Generated by new atomic code, or converted to UPF format
     Using radial grid of  983 points,  8 beta functions with:
                l(1) =   0
                l(2) =   0
                l(3) =   1
                l(4) =   1
                l(5) =   2
                l(6) =   2
                l(7) =   3
                l(8) =   3
     Q(r) pseudized with  8 coefficients,  rinner =    1.150   1.150   1.150
                                                       1.150   1.150   1.150
                                                       1.150

     PseudoPot. # 2 for Tl read from file:
     /afs/slac.stanford.edu/u/if/mamunm/psp/gbrv1.5pbe/Tl.UPF
     MD5 check sum: b76cf1f7e72655a2b2c53cf6385d7059
     Pseudo is Ultrasoft + core correction, Zval = 13.0
     Generated by new atomic code, or converted to UPF format
     Using radial grid of  899 points,  6 beta functions with:
                l(1) =   0
                l(2) =   0
                l(3) =   1
                l(4) =   1
                l(5) =   2
                l(6) =   2
     Q(r) pseudized with  6 coefficients,  rinner =    1.100   1.100   1.100
                                                       1.100   1.100

     vdW kernel table read from file vdW_kernel_table
     MD5 check sum: 095c7af220d748ca6e76c0b4c6cfb241

     atomic species   valence    mass     pseudopotential
        Os1           16.00   190.23000     Os( 1.00)
        Tl1           13.00   204.38000     Tl( 1.00)

     No symmetry found

   Cartesian axes

     site n.     atom                  positions (alat units)
         1           Os1 tau(   1) = (   0.0000000   0.0000000  10.0000000  )
         2           Os1 tau(   2) = (   3.8516934   2.7208775  10.0000000  )
         3           Tl1 tau(   3) = (   2.8868752   0.0000000  10.0000000  )
         4           Tl1 tau(   4) = (   0.9648182   2.7208775  10.0000000  )
         5           Os1 tau(   5) = (   5.7737504   4.0786391  12.3578926  )
         6           Os1 tau(   6) = (   1.9220570   1.3577616  12.3578926  )
         7           Tl1 tau(   7) = (   2.8868752   4.0786391  12.3578926  )
         8           Tl1 tau(   8) = (   4.8089321   1.3577616  12.3578926  )
         9           Os1 tau(   9) = (   3.8432275   2.7148639  14.5138224  )
        10           Os1 tau(  10) = (   7.6950305   5.4358711  14.5137513  )
        11           Tl1 tau(  11) = (   6.7310559   2.7156898  15.0450387  )
        12           Tl1 tau(  12) = (   4.8090530   5.4364121  15.0449833  )

     number of k points=    20  Fermi-Dirac smearing, width (Ry)=  0.0110
                       cart. coord. in units 2pi/alat
        k(    1) = (   0.0000000   0.0000000   0.0000000), wk =   0.0555556
        k(    2) = (   0.0000000   0.0306274   0.0000000), wk =   0.1111111
        k(    3) = (   0.0000000   0.0612547   0.0000000), wk =   0.1111111
        k(    4) = (   0.0000000  -0.0918821   0.0000000), wk =   0.0555556
        k(    5) = (   0.0288663  -0.0102359   0.0000000), wk =   0.1111111
        k(    6) = (   0.0288663   0.0203914   0.0000000), wk =   0.1111111
        k(    7) = (   0.0288663   0.0510188   0.0000000), wk =   0.1111111
        k(    8) = (   0.0288663  -0.1021181   0.0000000), wk =   0.1111111
        k(    9) = (   0.0288663  -0.0714907   0.0000000), wk =   0.1111111
        k(   10) = (   0.0288663  -0.0408633   0.0000000), wk =   0.1111111
        k(   11) = (   0.0577326  -0.0204719   0.0000000), wk =   0.1111111
        k(   12) = (   0.0577326   0.0101555   0.0000000), wk =   0.1111111
        k(   13) = (   0.0577326   0.0407829   0.0000000), wk =   0.1111111
        k(   14) = (   0.0577326  -0.1123540   0.0000000), wk =   0.1111111
        k(   15) = (   0.0577326  -0.0817266   0.0000000), wk =   0.1111111
        k(   16) = (   0.0577326  -0.0510992   0.0000000), wk =   0.1111111
        k(   17) = (  -0.0865988   0.0307078   0.0000000), wk =   0.0555556
        k(   18) = (  -0.0865988   0.0613352   0.0000000), wk =   0.1111111
        k(   19) = (  -0.0865988   0.0919625   0.0000000), wk =   0.1111111
        k(   20) = (  -0.0865988  -0.0611743   0.0000000), wk =   0.0555556

     Largest allocated arrays     est. size (Mb)     dimensions
     Largest temporary arrays     est. size (Mb)     dimensions

     Check: negative/imaginary core charge=   -0.000001    0.000000

     Initial potential from superposition of free atoms
     Check: negative starting charge=   -1.061670

     starting charge  170.97059, renormalised to  174.00000

[...]

     *
     * You are using vdW-DF for exchange-correlation in this calculation.
     * Please cite the following three references that made this development
     * possible:
     *
     *   M. Dion, H. Rydberg, E. Schroder, D. C. Langreth, and
     *   B. I. Lundqvist, Phys. Rev. Lett. 92, 246401 (2004).
     *
     *   T. Thonhauser, V. R. Cooper, S. Li, A. Puzder, P. Hyldgaard, and
     *   D. C. Langreth, Phys. Rev. B 76, 125112 (2007).
     *
     *   G. Roman-Perez and J. M. Soler, Phys. Rev. Lett. 103, 096102 (2009).
     *
     *
     * If you are using vdW-DF2, please also cite:
     *
     *   K. Lee, E. D. Murray, L. Kong, B. I. Lundqvist, and
     *   D. C. Langreth, Phys. Rev. B 82, 081101(R) (2010).
     *
     *
     * If you are calculating the stress with vdW-DF, please also cite:
     *
     *   R. Sabatini, E. Kucukbenli, B. Kolb, T. Thonhauser, and
     *   S. de Gironcoli, J. Phys.: Condens. Matter 24, 424209 (2012).
     *

     Carrying out vdW-DF run using the following parameters:

     Nqs =      20    Nr_points =    1024   r_max =   100.000
     q_mesh =
               0.00001000     0.04494208     0.09755937     0.15916263
               0.23128650     0.31572767     0.41458969     0.53033537
               0.66584808     0.82450364     1.01025438     1.22772762
               1.48234092     1.78043706     2.12944203     2.53805004
               3.01644009     3.57652955     4.23227104     5.00000000

     Gradients computed in reciprocal space

[...]

     Starting wfc are  132 randomized atomic wfcs

     Self-consistent Calculation

[...]

     total energy              =   -2078.44294330 Ry
     Harris-Foulkes estimate   =   -2078.44294433 Ry
     estimated scf accuracy    <       0.00000109 Ry

     iteration # 18     ecut=    36.75 Ry     beta=0.10
     Davidson diagonalization with overlap
     ethr =  6.26E-10,  avg # of iterations =  1.9

[...]

     negative rho (up, down):  1.041E+00 0.000E+00

     Adding external electric field

     Computed dipole along edir(3) :
        Dipole                0.0624 Ry au,          0.1587 Debye
        Dipole field          0.0001 Ry au

        Potential amp.       -0.0136 Ry
        Total length         45.5384 bohr

     End of self-consistent calculation

[...]

          k = 0.0577-0.0511 0.0000 ( 19724 PWs)   bands (ev):

[...]

          k =-0.0866-0.0612 0.0000 ( 19594 PWs)   bands (ev):

   -84.0315 -84.0301 -84.0136 -84.0120 -83.9411 -83.9396 -43.4429 -43.4300
   -43.4237 -43.3846 -43.3557 -43.3525 -43.3422 -43.3363 -43.3027 -43.2976
   -43.2974 -43.2846 -43.2819 -43.2752 -43.2472 -43.2438 -43.2105 -43.2053
   -10.2028 -10.1317 -10.0241 -10.0084  -9.9607  -9.9575  -9.9223  -9.9171
    -9.8253  -9.7993  -9.7935  -9.7654  -9.7395  -9.7321  -9.7064  -9.6351
    -9.6288  -9.6279  -9.5936  -9.5840  -9.5652  -9.5398  -9.5394  -9.5067
    -9.4962  -9.4746  -9.4375  -9.3292  -9.3020  -9.2233  -6.3860  -6.0711
    -4.9604  -4.9541  -3.7449  -3.5868  -3.5256  -2.5174  -2.3543  -1.9186
    -1.8036  -1.7008  -1.4333  -0.8141  -0.7609  -0.6312  -0.6103  -0.4807
    -0.0778  -0.0700   0.1701   0.2589   0.3147   0.3578   0.5156   0.8190
     0.9047   1.0902   1.3020   1.5820   1.6100   1.6386   1.6809   1.7097
     1.8693   2.2266   2.2539   2.4353   2.9353   3.1060   3.2243   3.8514
     4.0910   4.5578   4.6877   5.6993   6.1943   6.3654   6.8628   6.8679
     7.3153   7.4708   7.4767   7.5293   7.5738   7.6839   8.0478   8.4021
     8.5782   8.6330   8.6399   8.7259   8.9447

     the Fermi energy is     1.6605 ev

!    total energy              =   -2078.44292578 Ry
     Harris-Foulkes estimate   =   -2078.44294232 Ry
     estimated scf accuracy    <       0.00000076 Ry

     The total energy is the sum of the following terms:

     one-electron contribution =  -14022.59366964 Ry
     hartree contribution      =    7045.77618778 Ry
     xc contribution           =    -616.46396046 Ry
     ewald contribution        =    5514.92772043 Ry
     electric field correction =       0.00000935 Ry
     smearing contrib. (-TS)   =      -0.08921325 Ry

     convergence has been achieved in  18 iterations

 BEEF-vdW xc energy contributions
           1 :   -545.930909477015
           2 :    506.624895028553
           3 :   -437.226092839690
           4 :    352.739828732784
           5 :   -268.997666637304
           6 :    198.085028578612
           7 :   -145.706090894750
           8 :    111.078549203825
           9 :   -89.0294984053778
          10 :    73.1452137336275
          11 :   -58.5868770986290
          12 :    43.5055708593113
          13 :   -28.7864200014392
          14 :    16.6090197191515
          15 :   -8.75442183978771
          16 :    5.49775075706930
          17 :   -5.50205328438642
          18 :    6.57444448381602
          19 :   -6.77148081935320
          20 :    5.23825010051587
          21 :   -2.39005715219878
          22 :  -0.573373258637844
          23 :    2.47338958644059
          24 :   -2.81477403774682
          25 :    1.97329528979913
          26 :  -0.879423198305403
          27 :   0.434426679712033
          28 :   -1.01218516725976
          29 :    2.30747030419843
          30 :   -3.57891253448201
          31 :   -46.7057361234014
          32 :   -34.7808938468817

     Forces acting on atoms (Ry/au):

     negative rho (up, down):  1.041E+00 0.000E+00
     atom    1 type  1   force =     0.00011462    0.00007798    0.05453121
     atom    2 type  1   force =     0.00011786    0.00008560    0.05452548
     atom    3 type  2   force =    -0.00014567   -0.00009695   -0.05153779
     atom    4 type  2   force =    -0.00014063   -0.00010674   -0.05153713
     atom    5 type  1   force =    -0.00005201   -0.00003962    0.02856356
     atom    6 type  1   force =    -0.00004463   -0.00002871    0.02858356
     atom    7 type  2   force =     0.00019741    0.00016335   -0.03158860
     atom    8 type  2   force =     0.00021826    0.00013130   -0.03160332
     atom    9 type  1   force =    -0.00005501   -0.00003649   -0.00162036
     atom   10 type  1   force =    -0.00005862   -0.00003575   -0.00159420
     atom   11 type  2   force =    -0.00006680   -0.00006932    0.00163903
     atom   12 type  2   force =    -0.00008479   -0.00004463    0.00163857

     Total force =     0.122062     Total SCF correction =     0.003667

     entering subroutine stress ...

     negative rho (up, down):  1.041E+00 0.000E+00
          total   stress  (Ry/bohr**3)                   (kbar)     P=  -22.90
  -0.00022547  -0.00003354  -0.00000023        -33.17     -4.93     -0.03
  -0.00003354  -0.00020168  -0.00000017         -4.93    -29.67     -0.02
  -0.00000023  -0.00000017  -0.00003985         -0.03     -0.02     -5.86

 !ASE

     Writing output data file calc.save

     General routines

     Parallel routines

   This run was terminated on:   1:46:39  19Dec2018

   JOB DONE.
Job  /afs/slac/g/suncat/bin/suncat-tsmpirun -x LD_LIBRARY_PATH -wdir /scratch/qe530406_jUBvl pw.x -in pw.inp

TID   HOST_NAME   COMMAND_LINE            STATUS            TERMINATION_TIME
00000 suncat2048 pw.x -in pw.inp   Done                     12/19/2018 01:46:39
00001 suncat2048 pw.x -in pw.inp   Done                     12/19/2018 01:46:39
00002 suncat2048 pw.x -in pw.inp   Done                     12/19/2018 01:46:39
00003 suncat2048 pw.x -in pw.inp   Done                     12/19/2018 01:46:39
00004 suncat2048 pw.x -in pw.inp   Done                     12/19/2018 01:46:39
00005 suncat2048 pw.x -in pw.inp   Done                     12/19/2018 01:46:39
00006 suncat2048 pw.x -in pw.inp   Done                     12/19/2018 01:46:39
00007 suncat2048 pw.x -in pw.inp   Done                     12/19/2018 01:46:39
00008 suncat2048 pw.x -in pw.inp   Done                     12/19/2018 01:46:39
00009 suncat2048 pw.x -in pw.inp   Done                     12/19/2018 01:46:39
00010 suncat2048 pw.x -in pw.inp   Done                     12/19/2018 01:46:39
00011 suncat2048 pw.x -in pw.inp   Done                     12/19/2018 01:46:39
00012 suncat2048 pw.x -in pw.inp   Done                     12/19/2018 01:46:39
00013 suncat2048 pw.x -in pw.inp   Done                     12/19/2018 01:46:39
00014 suncat2048 pw.x -in pw.inp   Done                     12/19/2018 01:46:39
00015 suncat2048 pw.x -in pw.inp   Done                     12/19/2018 01:46:39
00016 suncat2047 pw.x -in pw.inp   Done                     12/19/2018 01:46:39
00017 suncat2047 pw.x -in pw.inp   Done                     12/19/2018 01:46:39
00018 suncat2047 pw.x -in pw.inp   Done                     12/19/2018 01:46:39
00019 suncat2047 pw.x -in pw.inp   Done                     12/19/2018 01:46:39
00020 suncat2047 pw.x -in pw.inp   Done                     12/19/2018 01:46:39
00021 suncat2047 pw.x -in pw.inp   Done                     12/19/2018 01:46:39
00022 suncat2047 pw.x -in pw.inp   Done                     12/19/2018 01:46:39
00023 suncat2047 pw.x -in pw.inp   Done                     12/19/2018 01:46:39
00024 suncat2047 pw.x -in pw.inp   Done                     12/19/2018 01:46:39
00025 suncat2047 pw.x -in pw.inp   Done                     12/19/2018 01:46:39
00026 suncat2047 pw.x -in pw.inp   Done                     12/19/2018 01:46:39
00027 suncat2047 pw.x -in pw.inp   Done                     12/19/2018 01:46:39
00028 suncat2047 pw.x -in pw.inp   Done                     12/19/2018 01:46:39
00029 suncat2047 pw.x -in pw.inp   Done                     12/19/2018 01:46:39
00030 suncat2047 pw.x -in pw.inp   Done                     12/19/2018 01:46:39
00031 suncat2047 pw.x -in pw.inp   Done                     12/19/2018 01:46:39