     Program PWSCF v.5.1rc2 (svn rev. 11289) starts on 18Dec2018 at 16:49:45

     Current dimensions of program PWSCF are:
     Max number of different atomic species (ntypx) = 10
     Max number of k-points (npk) =  40000
     Max angular momentum in pseudopotentials (lmaxx) =  3
     Presently stress not available with electric field

     IMPORTANT: XC functional enforced from input :
     Exchange-correlation      = BEEF-VDW ( 1  4 27 13 2)
     Any further DFT definition will be discarded
     Please, verify this is what you really want

     Subspace diagonalization in iterative solution of the eigenvalue problem:
     a serial algorithm will be used

     Found symmetry operation: I + ( -0.5000  0.0000  0.0000)
     This is a supercell, fractional translations are disabled

     bravais-lattice index     =            0
     lattice parameter (alat)  =       1.8897  a.u.
     unit-cell volume          =    4895.5403 (a.u.)^3
     number of atoms/cell      =           12
     number of atomic types    =            2
     number of electrons       =       132.00
     number of Kohn-Sham states=           96
     kinetic-energy cutoff     =      36.7493  Ry
     charge density cutoff     =     367.4932  Ry
     convergence threshold     =      1.0E-06
     mixing beta               =       0.1000
     number of iterations used =           10  plain     mixing
     Exchange-correlation      = BEEF-VDW ( 1  4 27 13 2)
     nstep                     =           50

     celldm(1)=   1.889726  celldm(2)=   0.000000  celldm(3)=   0.000000
     celldm(4)=   0.000000  celldm(5)=   0.000000  celldm(6)=   0.000000

     crystal axes: (cart. coord. in units of alat)
               a(1) = (   5.817469   0.000000   0.000000 )
               a(2) = (  -2.908734   5.038405   0.000000 )
               a(3) = (   0.000000   0.000000  24.750098 )

     reciprocal axes: (cart. coord. in units 2 pi/alat)
               b(1) = (  0.171896  0.099238  0.000000 )
               b(2) = (  0.000000  0.198476  0.000000 )
               b(3) = (  0.000000  0.000000  0.040404 )

     PseudoPot. # 1 for Al read from file:
     /afs/slac.stanford.edu/u/if/mamunm/psp/gbrv1.5pbe/Al.UPF
     MD5 check sum: 0a6289f5291fc8f409219462bc851e1f
     Pseudo is Ultrasoft + core correction, Zval =  3.0
     Generated by new atomic code, or converted to UPF format
     Using radial grid of  893 points,  3 beta functions with:
                l(1) =   0
                l(2) =   1
                l(3) =   2
     Q(r) pseudized with  8 coefficients,  rinner =    0.900   0.900   0.900
                                                       0.900   0.900

     PseudoPot. # 2 for Ag read from file:
     /afs/slac.stanford.edu/u/if/mamunm/psp/gbrv1.5pbe/Ag.UPF
     MD5 check sum: d66d668201baa78d5eb5b04ef7011058
     Pseudo is Ultrasoft + core correction, Zval = 19.0
     Generated by new atomic code, or converted to UPF format
     Using radial grid of  887 points,  6 beta functions with:
                l(1) =   0
                l(2) =   0
                l(3) =   1
                l(4) =   1
                l(5) =   2
                l(6) =   2
     Q(r) pseudized with  6 coefficients,  rinner =    1.300   1.300   1.300
                                                       1.300   1.300

     vdW kernel table read from file vdW_kernel_table
     MD5 check sum: 095c7af220d748ca6e76c0b4c6cfb241

     atomic species   valence    mass     pseudopotential
        Al1            3.00    26.98154     Al( 1.00)
        Ag1           19.00   107.86820     Ag( 1.00)

     No symmetry found

   Cartesian axes

     site n.     atom                  positions (alat units)
         1           Al1 tau(   1) = (   0.0000000   0.0000000  10.0000000  )
         2           Al1 tau(   2) = (   2.9087343   0.0000000  10.0000000  )
         3           Ag1 tau(   3) = (   1.4543671   2.5192024  10.0000000  )
         4           Ag1 tau(   4) = (  -1.4543671   2.5192024  10.0000000  )
         5           Al1 tau(   5) = (   2.9087343   1.6792488  12.3750492  )
         6           Al1 tau(   6) = (  -0.0000000   1.6792488  12.3750492  )
         7           Ag1 tau(   7) = (  -1.4543671   4.1984512  12.3750492  )
         8           Ag1 tau(   8) = (   1.4543671   4.1984512  12.3750492  )
         9           Al1 tau(   9) = (  -0.0000000   3.3584977  14.7500983  )
        10           Al1 tau(  10) = (   2.9087343   3.3584977  14.7500983  )
        11           Ag1 tau(  11) = (   4.3631014   0.8392953  14.7500983  )
        12           Ag1 tau(  12) = (   1.4543671   0.8392953  14.7500983  )

     number of k points=    20  Fermi-Dirac smearing, width (Ry)=  0.0110
                       cart. coord. in units 2pi/alat
        k(    1) = (   0.0000000   0.0000000   0.0000000), wk =   0.0555556
        k(    2) = (   0.0000000   0.0330793   0.0000000), wk =   0.1111111
        k(    3) = (   0.0000000   0.0661585   0.0000000), wk =   0.1111111
        k(    4) = (   0.0000000  -0.0992378   0.0000000), wk =   0.0555556
        k(    5) = (   0.0286493   0.0165396   0.0000000), wk =   0.1111111
        k(    6) = (   0.0286493   0.0496189   0.0000000), wk =   0.1111111
        k(    7) = (   0.0286493   0.0826981   0.0000000), wk =   0.1111111
        k(    8) = (   0.0286493  -0.0826981   0.0000000), wk =   0.1111111
        k(    9) = (   0.0286493  -0.0496189   0.0000000), wk =   0.1111111
        k(   10) = (   0.0286493  -0.0165396   0.0000000), wk =   0.1111111
        k(   11) = (   0.0572987   0.0330793   0.0000000), wk =   0.1111111
        k(   12) = (   0.0572987   0.0661585   0.0000000), wk =   0.1111111
        k(   13) = (   0.0572987   0.0992378   0.0000000), wk =   0.1111111
        k(   14) = (   0.0572987  -0.0661585   0.0000000), wk =   0.1111111
        k(   15) = (   0.0572987  -0.0330793   0.0000000), wk =   0.1111111
        k(   16) = (   0.0572987   0.0000000   0.0000000), wk =   0.1111111
        k(   17) = (  -0.0859480  -0.0496189   0.0000000), wk =   0.0555556
        k(   18) = (  -0.0859480  -0.0165396   0.0000000), wk =   0.1111111
        k(   19) = (  -0.0859480   0.0165396   0.0000000), wk =   0.1111111
        k(   20) = (  -0.0859480  -0.1488566   0.0000000), wk =   0.0555556

     Largest allocated arrays     est. size (Mb)     dimensions
     Largest temporary arrays     est. size (Mb)     dimensions

     Initial potential from superposition of free atoms
     Check: negative starting charge=   -0.001358

     starting charge  128.98492, renormalised to  132.00000

     negative rho (up, down):  1.389E-03 0.000E+00

     *
     * You are using vdW-DF for exchange-correlation in this calculation.
     * Please cite the following three references that made this development
     * possible:
     *
     *   M. Dion, H. Rydberg, E. Schroder, D. C. Langreth, and
     *   B. I. Lundqvist, Phys. Rev. Lett. 92, 246401 (2004).
     *
     *   T. Thonhauser, V. R. Cooper, S. Li, A. Puzder, P. Hyldgaard, and
     *   D. C. Langreth, Phys. Rev. B 76, 125112 (2007).
     *
     *   G. Roman-Perez and J. M. Soler, Phys. Rev. Lett. 103, 096102 (2009).
     *
     *
     * If you are using vdW-DF2, please also cite:
     *
     *   K. Lee, E. D. Murray, L. Kong, B. I. Lundqvist, and
     *   D. C. Langreth, Phys. Rev. B 82, 081101(R) (2010).
     *
     *
     * If you are calculating the stress with vdW-DF, please also cite:
     *
     *   R. Sabatini, E. Kucukbenli, B. Kolb, T. Thonhauser, and
     *   S. de Gironcoli, J. Phys.: Condens. Matter 24, 424209 (2012).
     *

     Carrying out vdW-DF run using the following parameters:

     Nqs =      20    Nr_points =    1024   r_max =   100.000
     q_mesh =
               0.00001000     0.04494208     0.09755937     0.15916263
               0.23128650     0.31572767     0.41458969     0.53033537
               0.66584808     0.82450364     1.01025438     1.22772762
               1.48234092     1.78043706     2.12944203     2.53805004
               3.01644009     3.57652955     4.23227104     5.00000000

     Gradients computed in reciprocal space

     Adding external electric field

     Computed dipole along edir(3) :
        Dipole                0.0000 Ry au,          0.0000 Debye
        Dipole field          0.0000 Ry au

        Potential amp.       -0.0000 Ry
        Total length         45.6016 bohr

     Starting wfc are  102 randomized atomic wfcs

     Self-consistent Calculation

     iteration #  1     ecut=    36.75 Ry     beta=0.10
     Davidson diagonalization with overlap
     ethr =  1.00E-02,  avg # of iterations =  7.3

[...]

     total energy              =   -1821.02326787 Ry
     Harris-Foulkes estimate   =   -1823.53490726 Ry
     estimated scf accuracy    <      14.55486364 Ry

[...]

     End of self-consistent calculation

          k = 0.0000 0.0000 0.0000 ( 18487 PWs)   bands (ev):

   -92.6459 -92.6408 -92.2300 -92.2300 -92.2249 -92.2249 -56.1539 -56.1496
   -56.1429 -56.1157 -56.1091 -56.0781 -55.7553 -55.7552 -55.7436 -55.7430
   -55.7369 -55.7364 -55.6795 -55.6794 -55.6760 -55.6746 -55.6694 -55.6682
    -8.7992  -7.2784  -6.6162  -6.4970  -6.1279  -5.8776  -5.7070  -5.5471
    -5.4412  -5.4288  -5.2548  -5.2241  -5.1973  -5.0944  -4.7791  -4.6710
    -4.6607  -4.6234  -4.5532  -4.5186  -4.4458  -4.4134  -4.3924  -4.2730
    -4.2448  -4.1372  -4.0965  -3.9985  -3.9821  -3.8859  -3.7687  -3.3716
    -2.9617  -2.3317  -2.1892  -1.9765  -1.5579  -1.4698  -1.3896  -1.2216
    -1.0370  -0.8089  -0.6550   0.2728   0.7275   1.3176   1.4203   2.1485
     2.2352   2.3234   3.0018   3.0100   3.2500   3.8707   4.3708   4.7307
     4.7861   4.9127   4.9623   5.3936   5.5457   5.6978   5.7097   6.8892
     6.9708   7.1540   7.8166   7.9635   8.0629   8.0735   8.2811   8.3639

[...]

          k =-0.0859-0.0496 0.0000 ( 18380 PWs)   bands (ev):

[...]

     the Fermi energy is     0.2936 ev

!    total energy              =   -1821.10291925 Ry
     Harris-Foulkes estimate   =   -1821.10292127 Ry
     estimated scf accuracy    <       0.00000009 Ry

     The total energy is the sum of the following terms:

     one-electron contribution =   -9717.24880275 Ry
     hartree contribution      =    4851.00552204 Ry
     xc contribution           =    -206.64039647 Ry
     ewald contribution        =    3251.80394439 Ry
     electric field correction =       0.00000000 Ry
     smearing contrib. (-TS)   =      -0.02318646 Ry

     convergence has been achieved in  14 iterations

 BEEF-vdW xc energy contributions
           1 :   -177.937766567159
           2 :    160.304383948635
           3 :   -131.167965929324
           4 :    99.6158060486727
           5 :   -73.5281515480703
           6 :    56.7278551617819
           7 :   -48.6035499653937
           8 :    45.7926543292547
           9 :   -44.5462765893049
          10 :    42.4221390563277
          11 :   -38.7492954936863
          12 :    34.1333446460818
          13 :   -29.6349806695372
          14 :    26.1006790969158
          15 :   -23.8238246128713
          16 :    22.5202722434591
          17 :   -21.5616444720874
          18 :    20.3606081068280
[...]
00029 suncat0037 pw.x -in pw.inp   Done                     12/18/2018 17:00:36
00030 suncat0037 pw.x -in pw.inp   Done                     12/18/2018 17:00:36
00031 suncat0037 pw.x -in pw.inp   Done                     12/18/2018 17:00:36

     Program PWSCF v.5.1rc2 (svn rev. 11289) starts on 18Dec2018 at 17: 0:42

[...]

     Total force =     0.019762     Total SCF correction =     0.001571

[...]

   This run was terminated on:  17:11:32  18Dec2018

[...]

     Total force =     0.021223     Total SCF correction =     0.006143
     SCF correction compared to forces is large: reduce conv_thr to get better values

[...]

     Program PWSCF v.5.1rc2 (svn rev. 11289) starts on 18Dec2018 at 17:33:20

     Current dimensions of program PWSCF are:
     Max number of different atomic species (ntypx) = 10
     Max number of k-points (npk) =  40000
     Max angular momentum in pseudopotentials (lmaxx) =  3
     Presently stress not available with electric field

     IMPORTANT: XC functional enforced from input :
     Exchange-correlation      = BEEF-VDW ( 1  4 27 13 2)
     Any further DFT definition will be discarded
     Please, verify this is what you really want

     Subspace diagonalization in iterative solution of the eigenvalue problem:
     a serial algorithm will be used

     Found symmetry operation: I + ( -0.5000  0.0000  0.0000)
     This is a supercell, fractional translations are disabled

     bravais-lattice index     =            0
     lattice parameter (alat)  =       1.8897  a.u.
     unit-cell volume          =    4895.5403 (a.u.)^3
     number of atoms/cell      =           12
     number of atomic types    =            2
     number of electrons       =       132.00
     number of Kohn-Sham states=           96
     kinetic-energy cutoff     =      36.7493  Ry
     charge density cutoff     =     367.4932  Ry
     convergence threshold     =      1.0E-06
     mixing beta               =       0.1000
     number of iterations used =           10  plain     mixing
     Exchange-correlation      = BEEF-VDW ( 1  4 27 13 2)
     nstep                     =           50

     celldm(1)=   1.889726  celldm(2)=   0.000000  celldm(3)=   0.000000
     celldm(4)=   0.000000  celldm(5)=   0.000000  celldm(6)=   0.000000

     crystal axes: (cart. coord. in units of alat)
               a(1) = (   5.817469   0.000000   0.000000 )
               a(2) = (  -2.908734   5.038405   0.000000 )
               a(3) = (   0.000000   0.000000  24.750098 )

     reciprocal axes: (cart. coord. in units 2 pi/alat)
               b(1) = (  0.171896  0.099238  0.000000 )
               b(2) = (  0.000000  0.198476  0.000000 )
               b(3) = (  0.000000  0.000000  0.040404 )

     PseudoPot. # 1 for Al read from file:
     /afs/slac.stanford.edu/u/if/mamunm/psp/gbrv1.5pbe/Al.UPF
     MD5 check sum: 0a6289f5291fc8f409219462bc851e1f
     Pseudo is Ultrasoft + core correction, Zval =  3.0
     Generated by new atomic code, or converted to UPF format
     Using radial grid of  893 points,  3 beta functions with:
                l(1) =   0
                l(2) =   1
                l(3) =   2
     Q(r) pseudized with  8 coefficients,  rinner =    0.900   0.900   0.900
                                                       0.900   0.900

     PseudoPot. # 2 for Ag read from file:
     /afs/slac.stanford.edu/u/if/mamunm/psp/gbrv1.5pbe/Ag.UPF
     MD5 check sum: d66d668201baa78d5eb5b04ef7011058
     Pseudo is Ultrasoft + core correction, Zval = 19.0
     Generated by new atomic code, or converted to UPF format
     Using radial grid of  887 points,  6 beta functions with:
                l(1) =   0
                l(2) =   0
                l(3) =   1
                l(4) =   1
                l(5) =   2
                l(6) =   2
     Q(r) pseudized with  6 coefficients,  rinner =    1.300   1.300   1.300
                                                       1.300   1.300

     vdW kernel table read from file vdW_kernel_table
     MD5 check sum: 095c7af220d748ca6e76c0b4c6cfb241

     atomic species   valence    mass     pseudopotential
        Al1            3.00    26.98154     Al( 1.00)
        Ag1           19.00   107.86820     Ag( 1.00)

     No symmetry found

   Cartesian axes

     site n.     atom                  positions (alat units)
         1           Al1 tau(   1) = (   0.0000000   0.0000000  10.0000000  )
         2           Al1 tau(   2) = (   2.9087343   0.0000000  10.0000000  )
         3           Ag1 tau(   3) = (   1.4543671   2.5192024  10.0000000  )
         4           Ag1 tau(   4) = (  -1.4543671   2.5192024  10.0000000  )
         5           Al1 tau(   5) = (   2.9087343   1.6792488  12.3750492  )
         6           Al1 tau(   6) = (  -0.0000000   1.6792488  12.3750492  )
         7           Ag1 tau(   7) = (  -1.4543671   4.1984512  12.3750492  )
         8           Ag1 tau(   8) = (   1.4543671   4.1984512  12.3750492  )
         9           Al1 tau(   9) = (  -0.0000005   3.3454912  14.7776766  )
        10           Al1 tau(  10) = (   2.9087349   3.3454920  14.7776767  )
        11           Ag1 tau(  11) = (   4.3631027   0.8594508  14.8438374  )
        12           Ag1 tau(  12) = (   1.4543659   0.8594521  14.8438363  )

     number of k points=    20  Fermi-Dirac smearing, width (Ry)=  0.0110
                       cart. coord. in units 2pi/alat
        k(    1) = (   0.0000000   0.0000000   0.0000000), wk =   0.0555556
        k(    2) = (   0.0000000   0.0330793   0.0000000), wk =   0.1111111
        k(    3) = (   0.0000000   0.0661585   0.0000000), wk =   0.1111111
        k(    4) = (   0.0000000  -0.0992378   0.0000000), wk =   0.0555556
        k(    5) = (   0.0286493   0.0165396   0.0000000), wk =   0.1111111
        k(    6) = (   0.0286493   0.0496189   0.0000000), wk =   0.1111111
        k(    7) = (   0.0286493   0.0826981   0.0000000), wk =   0.1111111
        k(    8) = (   0.0286493  -0.0826981   0.0000000), wk =   0.1111111
        k(    9) = (   0.0286493  -0.0496189   0.0000000), wk =   0.1111111
        k(   10) = (   0.0286493  -0.0165396   0.0000000), wk =   0.1111111
        k(   11) = (   0.0572987   0.0330793   0.0000000), wk =   0.1111111
        k(   12) = (   0.0572987   0.0661585   0.0000000), wk =   0.1111111
        k(   13) = (   0.0572987   0.0992378   0.0000000), wk =   0.1111111
        k(   14) = (   0.0572987  -0.0661585   0.0000000), wk =   0.1111111
        k(   15) = (   0.0572987  -0.0330793   0.0000000), wk =   0.1111111
        k(   16) = (   0.0572987   0.0000000   0.0000000), wk =   0.1111111
        k(   17) = (  -0.0859480  -0.0496189   0.0000000), wk =   0.0555556
        k(   18) = (  -0.0859480  -0.0165396   0.0000000), wk =   0.1111111
        k(   19) = (  -0.0859480   0.0165396   0.0000000), wk =   0.1111111
        k(   20) = (  -0.0859480  -0.1488566   0.0000000), wk =   0.0555556

     Largest allocated arrays     est. size (Mb)     dimensions
     Largest temporary arrays     est. size (Mb)     dimensions

     Initial potential from superposition of free atoms
     Check: negative starting charge=   -0.001376

     starting charge  128.98492, renormalised to  132.00000

[...]

     *
     * You are using vdW-DF for exchange-correlation in this calculation.
     * Please cite the following three references that made this development
     * possible:
     *
     *   M. Dion, H. Rydberg, E. Schroder, D. C. Langreth, and
     *   B. I. Lundqvist, Phys. Rev. Lett. 92, 246401 (2004).
     *
     *   T. Thonhauser, V. R. Cooper, S. Li, A. Puzder, P. Hyldgaard, and
     *   D. C. Langreth, Phys. Rev. B 76, 125112 (2007).
     *
     *   G. Roman-Perez and J. M. Soler, Phys. Rev. Lett. 103, 096102 (2009).
     *
     *
     * If you are using vdW-DF2, please also cite:
     *
     *   K. Lee, E. D. Murray, L. Kong, B. I. Lundqvist, and
     *   D. C. Langreth, Phys. Rev. B 82, 081101(R) (2010).
     *
     *
     * If you are calculating the stress with vdW-DF, please also cite:
     *
     *   R. Sabatini, E. Kucukbenli, B. Kolb, T. Thonhauser, and
     *   S. de Gironcoli, J. Phys.: Condens. Matter 24, 424209 (2012).
     *

     Carrying out vdW-DF run using the following parameters:

     Nqs =      20    Nr_points =    1024   r_max =   100.000
     q_mesh =
               0.00001000     0.04494208     0.09755937     0.15916263
               0.23128650     0.31572767     0.41458969     0.53033537
               0.66584808     0.82450364     1.01025438     1.22772762
               1.48234092     1.78043706     2.12944203     2.53805004
               3.01644009     3.57652955     4.23227104     5.00000000

     Gradients computed in reciprocal space

[...]

     Starting wfc are  102 randomized atomic wfcs

     Self-consistent Calculation

[...]

     total energy              =   -1821.10517612 Ry
     Harris-Foulkes estimate   =   -1821.10517929 Ry
     estimated scf accuracy    <       0.00000763 Ry

     iteration # 14     ecut=    36.75 Ry     beta=0.10
     Davidson diagonalization with overlap
     ethr =  2.89E-09,  avg # of iterations =  2.0

[...]

     negative rho (up, down):  1.531E-03 0.000E+00

     Adding external electric field

     Computed dipole along edir(3) :
        Dipole               -0.0048 Ry au,         -0.0122 Debye
        Dipole field         -0.0000 Ry au

        Potential amp.        0.0011 Ry
        Total length         45.6016 bohr

     End of self-consistent calculation

[...]

          k = 0.0573 0.0000 0.0000 ( 18421 PWs)   bands (ev):

[...]

          k =-0.0859-0.1489 0.0000 ( 18380 PWs)   bands (ev):

   -92.6161 -92.6161 -92.2298 -92.2298 -92.1455 -92.1455 -56.1200 -56.1200
   -56.0890 -56.0890 -56.0813 -56.0813 -55.7422 -55.7422 -55.7192 -55.7192
   -55.6746 -55.6746 -55.6627 -55.6627 -55.6371 -55.6371 -55.5836 -55.5836
    -7.3938  -7.3938  -6.3582  -6.3582  -5.8971  -5.8971  -5.3946  -5.3946
    -5.3074  -5.3074  -5.0555  -5.0555  -4.9173  -4.9173  -4.7668  -4.7668
    -4.6761  -4.6761  -4.5737  -4.5737  -4.5086  -4.5086  -4.4496  -4.4496
    -4.3785  -4.3785  -4.2772  -4.2772  -4.2480  -4.2480  -4.1891  -4.1891
    -3.8739  -3.8739  -2.7961  -2.7961  -2.1257  -2.1257  -1.2604  -1.2604
     0.2389   0.2389   1.0068   1.0068   2.3030   2.3030   2.8004   2.8005
     3.4462   3.4462   3.7530   3.7530   4.1013   4.1013   4.7399   4.7399
     4.9346   4.9346   5.2917   5.2917   5.8214   5.8214   6.2965   6.2965
     6.4947   6.4947   6.7447   6.7447   6.9679   6.9679   7.0343   7.0343

     the Fermi energy is     0.2929 ev

!    total energy              =   -1821.10517496 Ry
     Harris-Foulkes estimate   =   -1821.10517738 Ry
     estimated scf accuracy    <       0.00000052 Ry

     The total energy is the sum of the following terms:

     one-electron contribution =   -9613.75097888 Ry
     hartree contribution      =    4799.42127379 Ry
     xc contribution           =    -206.60315588 Ry
     ewald contribution        =    3199.85086578 Ry
     electric field correction =       0.00000006 Ry
     smearing contrib. (-TS)   =      -0.02317982 Ry

     convergence has been achieved in  14 iterations

 BEEF-vdW xc energy contributions
           1 :   -177.896396019440
           2 :    160.232025425022
           3 :   -131.060601600812
           4 :    99.5002867095399
           5 :   -73.4412052198131
           6 :    56.6879083231143
           7 :   -48.5967503110351
           8 :    45.7819858464778
           9 :   -44.4955636084277
          10 :    42.3180036364035
          11 :   -38.6080441096811
          12 :    33.9898436915888
          13 :   -29.5214000400093
          14 :    26.0280006405814
          15 :   -23.7766063944539
          16 :    22.4677963538595
          17 :   -21.4792214997159
          18 :    20.2479174814395
          19 :   -18.5996636785379
          20 :    16.8102297261565
          21 :   -15.3441696046980
          22 :    14.4615854409153
          23 :   -14.0078123217793
          24 :    13.5548051738936
          25 :   -12.7687577751085
          26 :    11.6858095990969
          27 :   -10.6683536631964
          28 :    10.0926182304786
          29 :   -10.0424913238160
          30 :    10.2562673572185
          31 :   -18.8135557183791
          32 :   -13.7333935132904

     Forces acting on atoms (Ry/au):

     negative rho (up, down):  1.531E-03 0.000E+00
     atom    1 type  1   force =    -0.00000003    0.00346833   -0.00210621
     atom    2 type  1   force =    -0.00000002    0.00346833   -0.00210622
     atom    3 type  2   force =    -0.00000005   -0.00495152   -0.00973711
     atom    4 type  2   force =     0.00000012   -0.00495136   -0.00973724
     atom    5 type  1   force =    -0.00000001   -0.00089819    0.00359445
     atom    6 type  1   force =    -0.00000004   -0.00089819    0.00359437
     atom    7 type  2   force =     0.00000016    0.00266167    0.00636508
     atom    8 type  2   force =    -0.00000014    0.00266170    0.00636499
     atom    9 type  1   force =     0.00000004   -0.00047759    0.00069524
     atom   10 type  1   force =    -0.00000009   -0.00047779    0.00069523
     atom   11 type  2   force =    -0.00000036    0.00019728    0.00118864
     atom   12 type  2   force =     0.00000042    0.00019733    0.00118877

     Total force =     0.019964     Total SCF correction =     0.006548
     SCF correction compared to forces is large: reduce conv_thr to get better values

     entering subroutine stress ...

     negative rho (up, down):  1.531E-03 0.000E+00
          total   stress  (Ry/bohr**3)                   (kbar)     P=  -14.61
  -0.00012616   0.00000000  -0.00000000        -18.56      0.00     -0.00
   0.00000000  -0.00018953   0.00000029          0.00    -27.88      0.04
  -0.00000000   0.00000029   0.00001769         -0.00      0.04      2.60

 !ASE

     Writing output data file calc.save

     General routines

     Parallel routines

   This run was terminated on:  17:43:54  18Dec2018

   JOB DONE.
Job  /afs/slac/g/suncat/bin/suncat-tsmpirun -x LD_LIBRARY_PATH -wdir /scratch/qe529572_CQkVQ pw.x -in pw.inp

TID   HOST_NAME   COMMAND_LINE            STATUS            TERMINATION_TIME
00000 suncat0040 pw.x -in pw.inp   Done                     12/18/2018 17:43:54
00001 suncat0040 pw.x -in pw.inp   Done                     12/18/2018 17:43:54
00002 suncat0040 pw.x -in pw.inp   Done                     12/18/2018 17:43:54
00003 suncat0040 pw.x -in pw.inp   Done                     12/18/2018 17:43:54
00004 suncat0040 pw.x -in pw.inp   Done                     12/18/2018 17:43:54
00005 suncat0040 pw.x -in pw.inp   Done                     12/18/2018 17:43:54
00006 suncat0040 pw.x -in pw.inp   Done                     12/18/2018 17:43:54
00007 suncat0040 pw.x -in pw.inp   Done                     12/18/2018 17:43:54
00008 suncat0039 pw.x -in pw.inp   Done                     12/18/2018 17:43:54
00009 suncat0039 pw.x -in pw.inp   Done                     12/18/2018 17:43:54
00010 suncat0039 pw.x -in pw.inp   Done                     12/18/2018 17:43:54
00011 suncat0039 pw.x -in pw.inp   Done                     12/18/2018 17:43:54
00012 suncat0039 pw.x -in pw.inp   Done                     12/18/2018 17:43:54
00013 suncat0039 pw.x -in pw.inp   Done                     12/18/2018 17:43:54
00014 suncat0039 pw.x -in pw.inp   Done                     12/18/2018 17:43:54
00015 suncat0039 pw.x -in pw.inp   Done                     12/18/2018 17:43:54
00016 suncat0038 pw.x -in pw.inp   Done                     12/18/2018 17:43:54
00017 suncat0038 pw.x -in pw.inp   Done                     12/18/2018 17:43:54
00018 suncat0038 pw.x -in pw.inp   Done                     12/18/2018 17:43:54
00019 suncat0038 pw.x -in pw.inp   Done                     12/18/2018 17:43:54
00020 suncat0038 pw.x -in pw.inp   Done                     12/18/2018 17:43:54
00021 suncat0038 pw.x -in pw.inp   Done                     12/18/2018 17:43:54
00022 suncat0038 pw.x -in pw.inp   Done                     12/18/2018 17:43:54
00023 suncat0038 pw.x -in pw.inp   Done                     12/18/2018 17:43:54
00024 suncat0037 pw.x -in pw.inp   Done                     12/18/2018 17:43:54
00025 suncat0037 pw.x -in pw.inp   Done                     12/18/2018 17:43:54
00026 suncat0037 pw.x -in pw.inp   Done                     12/18/2018 17:43:54
00027 suncat0037 pw.x -in pw.inp   Done                     12/18/2018 17:43:54
00028 suncat0037 pw.x -in pw.inp   Done                     12/18/2018 17:43:54
00029 suncat0037 pw.x -in pw.inp   Done                     12/18/2018 17:43:54
00030 suncat0037 pw.x -in pw.inp   Done                     12/18/2018 17:43:54
00031 suncat0037 pw.x -in pw.inp   Done                     12/18/2018 17:43:54