     Program PWSCF v.5.1rc2 (svn rev. 11289) starts on 19Dec2018 at  6:55:22

     Current dimensions of program PWSCF are:
     Max number of different atomic species (ntypx) = 10
     Max number of k-points (npk) =  40000
     Max angular momentum in pseudopotentials (lmaxx) =  3
     Presently stress not available with electric field

     IMPORTANT: XC functional enforced from input :
     Exchange-correlation      = BEEF-VDW ( 1  4 27 13 2)
     Any further DFT definition will be discarded
     Please, verify this is what you really want

     Subspace diagonalization in iterative solution of the eigenvalue problem:
     a serial algorithm will be used

     Found symmetry operation: I + ( -0.5000 -0.5000  0.0000)
     This is a supercell, fractional translations are disabled

     bravais-lattice index     =            0
     lattice parameter (alat)  =       1.8897  a.u.
     unit-cell volume          =    5242.7270 (a.u.)^3
     number of atoms/cell      =           12
     number of atomic types    =            2
     number of electrons       =       168.00
     number of Kohn-Sham states=          114
     kinetic-energy cutoff     =      36.7493  Ry
     charge density cutoff     =     367.4932  Ry
     convergence threshold     =      1.0E-06
     mixing beta               =       0.1000
     number of iterations used =           10  plain     mixing
     Exchange-correlation      = BEEF-VDW ( 1  4 27 13 2)
     nstep                     =           50

     celldm(1)=   1.889726  celldm(2)=   0.000000  celldm(3)=   0.000000
     celldm(4)=   0.000000  celldm(5)=   0.000000  celldm(6)=   0.000000

     crystal axes: (cart. coord. in units of alat)
               a(1) = (   5.774196   0.000000   0.000000 )
               a(2) = (   1.924729   5.443965   0.000000 )
               a(3) = (   0.000000   0.000000  24.714610 )

     reciprocal axes: (cart. coord. in units 2 pi/alat)
               b(1) = (  0.173184 -0.061230  0.000000 )
               b(2) = (  0.000000  0.183690  0.000000 )
               b(3) = (  0.000000  0.000000  0.040462 )

     PseudoPot. # 1 for Cr read from file:
     /afs/slac.stanford.edu/u/if/mamunm/psp/gbrv1.5pbe/Cr.UPF
     MD5 check sum: 0d52af634a40206e4dee301ad30da4bf
     Pseudo is Ultrasoft + core correction, Zval = 14.0
     Generated by new atomic code, or converted to UPF format
     Using radial grid of  857 points,  6 beta functions with:
                l(1) =   0
                l(2) =   0
                l(3) =   1
                l(4) =   1
                l(5) =   2
                l(6) =   2
     Q(r) pseudized with  8 coefficients,  rinner =    0.950   0.950   0.950
                                                       0.950   0.950

     PseudoPot. # 2 for Pb read from file:
     /afs/slac.stanford.edu/u/if/mamunm/psp/gbrv1.5pbe/Pb.UPF
     MD5 check sum: 3d1c1779aa92214d1e8f3a7db79003e2
     Pseudo is Ultrasoft + core correction, Zval = 14.0
     Generated by new atomic code, or converted to UPF format
     Using radial grid of  899 points,  6 beta functions with:
                l(1) =   0
                l(2) =   0
                l(3) =   1
                l(4) =   1
                l(5) =   2
                l(6) =   2
     Q(r) pseudized with  6 coefficients,  rinner =    1.000   1.000   1.000
                                                       1.000   1.000

     vdW kernel table read from file vdW_kernel_table
     MD5 check sum: 095c7af220d748ca6e76c0b4c6cfb241

     atomic species   valence    mass     pseudopotential
        Cr1           14.00    51.99610     Cr( 1.00)
        Pb1           14.00   207.20000     Pb( 1.00)

     No symmetry found

   Cartesian axes

     site n.     atom                  positions (alat units)
         1           Cr1 tau(   1) = (   0.0000000   0.0000000  10.0000000  )
         2           Cr1 tau(   2) = (   3.8494626   2.7219826  10.0000000  )
         3           Pb1 tau(   3) = (   2.8870980   0.0000000  10.0000000  )
         4           Pb1 tau(   4) = (   0.9623646   2.7219826  10.0000000  )
         5           Cr1 tau(   5) = (   5.7741961   4.0829754  12.3573052  )
         6           Cr1 tau(   6) = (   1.9247334   1.3609928  12.3573052  )
         7           Pb1 tau(   7) = (   2.8870980   4.0829754  12.3573052  )
         8           Pb1 tau(   8) = (   4.8118315   1.3609928  12.3573052  )
         9           Cr1 tau(   9) = (   3.8494669   2.7219856  14.7146105  )
        10           Cr1 tau(  10) = (   0.0000043   0.0000030  14.7146105  )
        11           Pb1 tau(  11) = (   0.9623688   2.7219856  14.7146105  )
        12           Pb1 tau(  12) = (   2.8871023   0.0000030  14.7146105  )

     number of k points=    20  Fermi-Dirac smearing, width (Ry)=  0.0110
                       cart. coord. in units 2pi/alat
        k(    1) = (   0.0000000   0.0000000   0.0000000), wk =   0.0555556
        k(    2) = (   0.0000000   0.0306149   0.0000000), wk =   0.1111111
        k(    3) = (   0.0000000   0.0612299   0.0000000), wk =   0.1111111
        k(    4) = (   0.0000000  -0.0918448   0.0000000), wk =   0.0555556
        k(    5) = (   0.0288640  -0.0102050   0.0000000), wk =   0.1111111
        k(    6) = (   0.0288640   0.0204100   0.0000000), wk =   0.1111111
        k(    7) = (   0.0288640   0.0510249   0.0000000), wk =   0.1111111
        k(    8) = (   0.0288640  -0.1020498   0.0000000), wk =   0.1111111
        k(    9) = (   0.0288640  -0.0714348   0.0000000), wk =   0.1111111
        k(   10) = (   0.0288640  -0.0408199   0.0000000), wk =   0.1111111
        k(   11) = (   0.0577281  -0.0204099   0.0000000), wk =   0.1111111
        k(   12) = (   0.0577281   0.0102050   0.0000000), wk =   0.1111111
        k(   13) = (   0.0577281   0.0408199   0.0000000), wk =   0.1111111
        k(   14) = (   0.0577281  -0.1122547   0.0000000), wk =   0.1111111
        k(   15) = (   0.0577281  -0.0816398   0.0000000), wk =   0.1111111
        k(   16) = (   0.0577281  -0.0510249   0.0000000), wk =   0.1111111
        k(   17) = (  -0.0865921   0.0306149   0.0000000), wk =   0.0555556
        k(   18) = (  -0.0865921   0.0612298   0.0000000), wk =   0.1111111
        k(   19) = (  -0.0865921   0.0918448   0.0000000), wk =   0.1111111
        k(   20) = (  -0.0865921  -0.0612299   0.0000000), wk =   0.0555556

     Largest allocated arrays     est. size (Mb)     dimensions
     Largest temporary arrays     est. size (Mb)     dimensions

     Check: negative/imaginary core charge=   -0.000002    0.000000

     Initial potential from superposition of free atoms
     Check: negative starting charge=   -0.103166

     starting charge  161.98580, renormalised to  168.00000

     negative rho (up, down):  1.070E-01 0.000E+00

     *
     * You are using vdW-DF for exchange-correlation in this calculation.
     * Please cite the following three references that made this development
     * possible:
     *
     *   M. Dion, H. Rydberg, E. Schroder, D. C. Langreth, and
     *   B. I. Lundqvist, Phys. Rev. Lett. 92, 246401 (2004).
     *
     *   T. Thonhauser, V. R. Cooper, S. Li, A. Puzder, P. Hyldgaard, and
     *   D. C. Langreth, Phys. Rev. B 76, 125112 (2007).
     *
     *   G. Roman-Perez and J. M. Soler, Phys. Rev. Lett. 103, 096102 (2009).
     *
     *
     * If you are using vdW-DF2, please also cite:
     *
     *   K. Lee, E. D. Murray, L. Kong, B. I. Lundqvist, and
     *   D. C. Langreth, Phys. Rev. B 82, 081101(R) (2010).
     *
     *
     * If you are calculating the stress with vdW-DF, please also cite:
     *
     *   R. Sabatini, E. Kucukbenli, B. Kolb, T. Thonhauser, and
     *   S. de Gironcoli, J. Phys.: Condens. Matter 24, 424209 (2012).
     *

     Carrying out vdW-DF run using the following parameters:

     Nqs =      20    Nr_points =    1024   r_max =   100.000
     q_mesh =
               0.00001000     0.04494208     0.09755937     0.15916263
               0.23128650     0.31572767     0.41458969     0.53033537
               0.66584808     0.82450364     1.01025438     1.22772762
               1.48234092     1.78043706     2.12944203     2.53805004
               3.01644009     3.57652955     4.23227104     5.00000000

     Gradients computed in reciprocal space

     Adding external electric field

     Computed dipole along edir(3) :
        Dipole               -0.0000 Ry au,         -0.0000 Debye
        Dipole field         -0.0000 Ry au

        Potential amp.        0.0000 Ry
        Total length         45.5362 bohr

     Starting wfc are  114 randomized atomic wfcs

     Self-consistent Calculation

     iteration #  1     ecut=    36.75 Ry     beta=0.10
     Davidson diagonalization with overlap
     ethr =  1.00E-02,  avg # of iterations =  6.8

[...]

     total energy              =   -2053.35765886 Ry
     Harris-Foulkes estimate   =   -2053.72144179 Ry
     estimated scf accuracy    <       2.23250589 Ry

[...]

     End of self-consistent calculation

          k = 0.0000 0.0000 0.0000 ( 19783 PWs)   bands (ev):

   -70.1490 -70.1490 -70.1472 -70.1471 -70.0779 -70.0760 -41.5307 -41.5305
   -41.5161 -41.5158 -41.5158 -41.5130 -41.5018 -41.5017 -41.4738 -41.4667
   -41.4228 -41.4208 -41.4190 -41.4184 -41.3947 -41.3913 -41.3881 -41.3609
   -15.9414 -15.8643 -15.8458 -15.8422 -15.8102 -15.7475 -15.7314 -15.7299
   -15.7136 -15.6868 -15.6722 -15.6379 -15.6365 -15.6138 -15.6111 -15.6062
   -15.5285 -15.5133 -15.5100 -15.4992 -15.4883 -15.4822 -15.4748 -15.4728
   -15.4688 -15.4656 -15.3728 -15.3563 -15.3322 -15.2879  -9.9741  -8.4186
    -6.8715  -6.6286  -6.2722  -6.0299  -2.3774  -2.0240  -1.3402  -1.3204
    -1.2622  -1.1941  -0.8965  -0.2756  -0.2555   0.1423   0.3699   0.4348
     0.5063   0.7119   0.7785   0.8445   0.8638   0.9630   1.1982   1.2012
     1.2104   1.3370   1.3493   1.4503   1.4790   1.5129   1.5755   1.6041
     1.6301   1.6575   1.7198   1.7960   2.0503   2.1552   2.2067   2.2254
     2.4772   2.5835   2.7746   3.0520   3.2773   3.5590   4.1845   4.3214
     4.6459   4.7098   4.9815   5.0309   5.2459   5.2714   5.4181   6.0811
     6.4394   6.4449

[...]

          k =-0.0866 0.0306 0.0000 ( 19766 PWs)   bands (ev):

[...]

     the Fermi energy is     1.4226 ev

!    total energy              =   -2052.87829210 Ry
     Harris-Foulkes estimate   =   -2052.87832500 Ry
     estimated scf accuracy    <       0.00000059 Ry

     The total energy is the sum of the following terms:

     one-electron contribution =  -13489.47588244 Ry
     hartree contribution      =    6777.96322969 Ry
     xc contribution           =    -531.98107407 Ry
     ewald contribution        =    5190.76606545 Ry
     electric field correction =       0.00000000 Ry
     smearing contrib. (-TS)   =      -0.15063072 Ry

     convergence has been achieved in  24 iterations

 BEEF-vdW xc energy contributions
           1 :   -470.757965433879
           2 :    434.040948160888
           3 :   -370.516759382080
           4 :    295.746686685348
           5 :   -224.892617704580
           6 :    167.800421809430
           7 :   -127.139154524152
           8 :    99.7780890420322
           9 :   -80.0793360221560
[...]
00029 suncat0087 pw.x -in pw.inp   Done                     12/19/2018 07:15:39
00030 suncat0087 pw.x -in pw.inp   Done                     12/19/2018 07:15:39
00031 suncat0087 pw.x -in pw.inp   Done                     12/19/2018 07:15:39

[...]

     Program PWSCF v.5.1rc2 (svn rev. 11289) starts on 19Dec2018 at  8:22: 0

[...]

     Found symmetry operation: I + ( -0.5000 -0.5000  0.0000)
     This is a supercell, fractional translations are disabled

[...]

   This run was terminated on:   8:45:21  19Dec2018

[...]

     Program PWSCF v.5.1rc2 (svn rev. 11289) starts on 19Dec2018 at  8:45:27

     Current dimensions of program PWSCF are:
     Max number of different atomic species (ntypx) = 10
     Max number of k-points (npk) =  40000
     Max angular momentum in pseudopotentials (lmaxx) =  3
     Presently stress not available with electric field

     IMPORTANT: XC functional enforced from input :
     Exchange-correlation      = BEEF-VDW ( 1  4 27 13 2)
     Any further DFT definition will be discarded
     Please, verify this is what you really want

     Subspace diagonalization in iterative solution of the eigenvalue problem:
     a serial algorithm will be used

     bravais-lattice index     =            0
     lattice parameter (alat)  =       1.8897  a.u.
     unit-cell volume          =    5242.7270 (a.u.)^3
     number of atoms/cell      =           12
     number of atomic types    =            2
     number of electrons       =       168.00
     number of Kohn-Sham states=          114
     kinetic-energy cutoff     =      36.7493  Ry
     charge density cutoff     =     367.4932  Ry
     convergence threshold     =      1.0E-06
     mixing beta               =       0.1000
     number of iterations used =           10  plain     mixing
     Exchange-correlation      = BEEF-VDW ( 1  4 27 13 2)
     nstep                     =           50

     celldm(1)=   1.889726  celldm(2)=   0.000000  celldm(3)=   0.000000
     celldm(4)=   0.000000  celldm(5)=   0.000000  celldm(6)=   0.000000

     crystal axes: (cart. coord. in units of alat)
               a(1) = (   5.774196   0.000000   0.000000 )
               a(2) = (   1.924729   5.443965   0.000000 )
               a(3) = (   0.000000   0.000000  24.714610 )

     reciprocal axes: (cart. coord. in units 2 pi/alat)
               b(1) = (  0.173184 -0.061230  0.000000 )
               b(2) = (  0.000000  0.183690  0.000000 )
               b(3) = (  0.000000  0.000000  0.040462 )

     PseudoPot. # 1 for Cr read from file:
     /afs/slac.stanford.edu/u/if/mamunm/psp/gbrv1.5pbe/Cr.UPF
     MD5 check sum: 0d52af634a40206e4dee301ad30da4bf
     Pseudo is Ultrasoft + core correction, Zval = 14.0
     Generated by new atomic code, or converted to UPF format
     Using radial grid of  857 points,  6 beta functions with:
                l(1) =   0
                l(2) =   0
                l(3) =   1
                l(4) =   1
                l(5) =   2
                l(6) =   2
     Q(r) pseudized with  8 coefficients,  rinner =    0.950   0.950   0.950
                                                       0.950   0.950

     PseudoPot. # 2 for Pb read from file:
     /afs/slac.stanford.edu/u/if/mamunm/psp/gbrv1.5pbe/Pb.UPF
     MD5 check sum: 3d1c1779aa92214d1e8f3a7db79003e2
     Pseudo is Ultrasoft + core correction, Zval = 14.0
     Generated by new atomic code, or converted to UPF format
     Using radial grid of  899 points,  6 beta functions with:
                l(1) =   0
                l(2) =   0
                l(3) =   1
                l(4) =   1
                l(5) =   2
                l(6) =   2
     Q(r) pseudized with  6 coefficients,  rinner =    1.000   1.000   1.000
                                                       1.000   1.000

     vdW kernel table read from file vdW_kernel_table
     MD5 check sum: 095c7af220d748ca6e76c0b4c6cfb241

     atomic species   valence    mass     pseudopotential
        Cr1           14.00    51.99610     Cr( 1.00)
        Pb1           14.00   207.20000     Pb( 1.00)

     No symmetry found

   Cartesian axes

     site n.     atom                  positions (alat units)
         1           Cr1 tau(   1) = (   0.0000000   0.0000000  10.0000000  )
         2           Cr1 tau(   2) = (   3.8494626   2.7219826  10.0000000  )
         3           Pb1 tau(   3) = (   2.8870980   0.0000000  10.0000000  )
         4           Pb1 tau(   4) = (   0.9623646   2.7219826  10.0000000  )
         5           Cr1 tau(   5) = (   5.7741961   4.0829754  12.3573052  )
         6           Cr1 tau(   6) = (   1.9247334   1.3609928  12.3573052  )
         7           Pb1 tau(   7) = (   2.8870980   4.0829754  12.3573052  )
         8           Pb1 tau(   8) = (   4.8118315   1.3609928  12.3573052  )
         9           Cr1 tau(   9) = (   3.8494354   2.7219655  14.4630552  )
        10           Cr1 tau(  10) = (   0.0000334   0.0000199  14.4630139  )
        11           Pb1 tau(  11) = (   0.9624081   2.7219288  15.0091563  )
        12           Pb1 tau(  12) = (   2.8870610   0.0000540  15.0091597  )

     number of k points=    20  Fermi-Dirac smearing, width (Ry)=  0.0110
                       cart. coord. in units 2pi/alat
        k(    1) = (   0.0000000   0.0000000   0.0000000), wk =   0.0555556
        k(    2) = (   0.0000000   0.0306149   0.0000000), wk =   0.1111111
        k(    3) = (   0.0000000   0.0612299   0.0000000), wk =   0.1111111
        k(    4) = (   0.0000000  -0.0918448   0.0000000), wk =   0.0555556
        k(    5) = (   0.0288640  -0.0102050   0.0000000), wk =   0.1111111
        k(    6) = (   0.0288640   0.0204100   0.0000000), wk =   0.1111111
        k(    7) = (   0.0288640   0.0510249   0.0000000), wk =   0.1111111
        k(    8) = (   0.0288640  -0.1020498   0.0000000), wk =   0.1111111
        k(    9) = (   0.0288640  -0.0714348   0.0000000), wk =   0.1111111
        k(   10) = (   0.0288640  -0.0408199   0.0000000), wk =   0.1111111
        k(   11) = (   0.0577281  -0.0204099   0.0000000), wk =   0.1111111
        k(   12) = (   0.0577281   0.0102050   0.0000000), wk =   0.1111111
        k(   13) = (   0.0577281   0.0408199   0.0000000), wk =   0.1111111
        k(   14) = (   0.0577281  -0.1122547   0.0000000), wk =   0.1111111
        k(   15) = (   0.0577281  -0.0816398   0.0000000), wk =   0.1111111
        k(   16) = (   0.0577281  -0.0510249   0.0000000), wk =   0.1111111
        k(   17) = (  -0.0865921   0.0306149   0.0000000), wk =   0.0555556
        k(   18) = (  -0.0865921   0.0612298   0.0000000), wk =   0.1111111
        k(   19) = (  -0.0865921   0.0918448   0.0000000), wk =   0.1111111
        k(   20) = (  -0.0865921  -0.0612299   0.0000000), wk =   0.0555556

     Largest allocated arrays     est. size (Mb)     dimensions
     Largest temporary arrays     est. size (Mb)     dimensions

     Check: negative/imaginary core charge=   -0.000002    0.000000

     Initial potential from superposition of free atoms
     Check: negative starting charge=   -0.104771

     starting charge  161.98580, renormalised to  168.00000

[...]

     *
     * You are using vdW-DF for exchange-correlation in this calculation.
     * Please cite the following three references that made this development
     * possible:
     *
     *   M. Dion, H. Rydberg, E. Schroder, D. C. Langreth, and
     *   B. I. Lundqvist, Phys. Rev. Lett. 92, 246401 (2004).
     *
     *   T. Thonhauser, V. R. Cooper, S. Li, A. Puzder, P. Hyldgaard, and
     *   D. C. Langreth, Phys. Rev. B 76, 125112 (2007).
     *
     *   G. Roman-Perez and J. M. Soler, Phys. Rev. Lett. 103, 096102 (2009).
     *
     *
     * If you are using vdW-DF2, please also cite:
     *
     *   K. Lee, E. D. Murray, L. Kong, B. I. Lundqvist, and
     *   D. C. Langreth, Phys. Rev. B 82, 081101(R) (2010).
     *
     *
     * If you are calculating the stress with vdW-DF, please also cite:
     *
     *   R. Sabatini, E. Kucukbenli, B. Kolb, T. Thonhauser, and
     *   S. de Gironcoli, J. Phys.: Condens. Matter 24, 424209 (2012).
     *

     Carrying out vdW-DF run using the following parameters:

     Nqs =      20    Nr_points =    1024   r_max =   100.000
     q_mesh =
               0.00001000     0.04494208     0.09755937     0.15916263
               0.23128650     0.31572767     0.41458969     0.53033537
               0.66584808     0.82450364     1.01025438     1.22772762
               1.48234092     1.78043706     2.12944203     2.53805004
               3.01644009     3.57652955     4.23227104     5.00000000

     Gradients computed in reciprocal space

[...]

     Starting wfc are  114 randomized atomic wfcs

     Self-consistent Calculation

[...]

     total energy              =   -2052.92601754 Ry
     Harris-Foulkes estimate   =   -2052.92602110 Ry
     estimated scf accuracy    <       0.00000231 Ry

     iteration # 26     ecut=    36.75 Ry     beta=0.10
     Davidson diagonalization with overlap
     ethr =  1.34E-09,  avg # of iterations =  1.9

[...]

     negative rho (up, down):  1.158E-01 0.000E+00

     Adding external electric field

     Computed dipole along edir(3) :
        Dipole                0.0016 Ry au,          0.0040 Debye
        Dipole field          0.0000 Ry au

        Potential amp.       -0.0003 Ry
        Total length         45.5362 bohr

     End of self-consistent calculation

[...]

          k = 0.0577-0.0510 0.0000 ( 19732 PWs)   bands (ev):

[...]

          k =-0.0866-0.0612 0.0000 ( 19618 PWs)   bands (ev):

   -70.1704 -70.1688 -70.1657 -70.1639 -70.1458 -70.1438 -41.5524 -41.5488
   -41.5456 -41.5327 -41.5278 -41.5269 -41.5233 -41.5189 -41.5161 -41.5070
   -41.4786 -41.4639 -41.4523 -41.4486 -41.4480 -41.4321 -41.4313 -41.4226
   -15.9266 -15.8523 -15.8123 -15.8055 -15.7741 -15.7605 -15.7431 -15.7362
   -15.6983 -15.6622 -15.6420 -15.6374 -15.6188 -15.6186 -15.5981 -15.5534
   -15.5269 -15.5209 -15.5137 -15.5078 -15.5052 -15.4953 -15.4919 -15.4907
   -15.4797 -15.4765 -15.4564 -15.3850 -15.3511 -15.3247  -8.5520  -8.1307
    -7.6565  -7.4803  -6.0998  -4.7985  -3.8077  -3.5793  -2.9820  -2.2771
    -1.7909  -1.6069  -1.3802  -0.8343  -0.3164  -0.2559   0.3334   0.3897
     0.4733   0.4786   0.6406   0.6435   0.7183   0.8123   0.9448   1.0863
     1.1540   1.2147   1.4451   1.4561   1.6404   1.6594   1.7137   1.7280
     1.7426   1.7986   1.9960   2.0088   2.3807   2.3864   2.5287   2.5984
     2.6168   2.9791   3.2074   3.6047   4.6532   4.8418   5.0189   5.5468
     5.5815   5.7402   6.0481   6.1663   6.2973   6.3577   6.5246   6.7804
     7.0563   7.2891

     the Fermi energy is     1.4083 ev

!    total energy              =   -2052.92599656 Ry
     Harris-Foulkes estimate   =   -2052.92601761 Ry
     estimated scf accuracy    <       0.00000076 Ry

     The total energy is the sum of the following terms:

     one-electron contribution =  -13429.11961019 Ry
     hartree contribution      =    6747.60746199 Ry
     xc contribution           =    -531.88060269 Ry
     ewald contribution        =    5160.61241059 Ry
     electric field correction =       0.00000001 Ry
     smearing contrib. (-TS)   =      -0.14565627 Ry

     convergence has been achieved in  26 iterations

 BEEF-vdW xc energy contributions
           1 :   -470.658726496251
           2 :    433.905359272675
           3 :   -370.334430420391
           4 :    295.541774102597
           5 :   -224.713272634677
           6 :    167.691649707447
           7 :   -127.107991559488
           8 :    99.7768856246338
           9 :   -80.0300344133657
          10 :    63.0268579304775
          11 :   -46.5593003419598
          12 :    30.9735395701496
          13 :   -17.8635299344164
          14 :    8.59525503827524
          15 :   -3.46367223903690
          16 :    1.68310265891864
          17 :   -1.91401041068582
          18 :    2.86392228496442
          19 :   -3.65600942894923
          20 :    3.91227688456422
          21 :   -3.66579440550260
          22 :    3.22045362532998
          23 :   -2.99873434143859
          24 :    3.35922019548866
          25 :   -4.39800093984837
          26 :    5.82638436177768
          27 :   -7.04516402281195
          28 :    7.43841881434309
          29 :   -6.74698146538890
          30 :    5.27946763735645
          31 :   -39.8327446443817
          32 :   -29.0886472234969

     Forces acting on atoms (Ry/au):

     negative rho (up, down):  1.158E-01 0.000E+00
     atom    1 type  1   force =    -0.00000152   -0.00000149    0.04859752
     atom    2 type  1   force =     0.00000232    0.00000184    0.04859922
     atom    3 type  2   force =     0.00002429   -0.00003425   -0.04657913
     atom    4 type  2   force =    -0.00002640    0.00003224   -0.04658223
     atom    5 type  1   force =     0.00000205    0.00000176    0.02247435
     atom    6 type  1   force =    -0.00000195   -0.00000163    0.02247805
     atom    7 type  2   force =    -0.00001766    0.00002738   -0.02499807
     atom    8 type  2   force =     0.00001835   -0.00002601   -0.02499701
     atom    9 type  1   force =     0.00001139    0.00000741    0.00022853
     atom   10 type  1   force =    -0.00001073   -0.00000693    0.00023860
     atom   11 type  2   force =    -0.00002967    0.00004120    0.00026923
     atom   12 type  2   force =     0.00002953   -0.00004151    0.00027096

     Total force =     0.106412     Total SCF correction =     0.001834

     entering subroutine stress ...

     negative rho (up, down):  1.158E-01 0.000E+00
          total   stress  (Ry/bohr**3)                   (kbar)     P=  -14.45
  -0.00015862  -0.00004246  -0.00000000        -23.33     -6.25     -0.00
  -0.00004246  -0.00012860   0.00000000         -6.25    -18.92      0.00
  -0.00000000   0.00000000  -0.00000752         -0.00      0.00     -1.11

 !ASE

     Writing output data file calc.save

     General routines

     Parallel routines

   This run was terminated on:   9: 7:38  19Dec2018

   JOB DONE.
Job  /afs/slac/g/suncat/bin/suncat-tsmpirun -x LD_LIBRARY_PATH -wdir /scratch/qe529752_zzaCh pw.x -in pw.inp

TID   HOST_NAME   COMMAND_LINE            STATUS            TERMINATION_TIME
00000 suncat0090 pw.x -in pw.inp   Done                     12/19/2018 09:07:38
00001 suncat0090 pw.x -in pw.inp   Done                     12/19/2018 09:07:38
00002 suncat0090 pw.x -in pw.inp   Done                     12/19/2018 09:07:38
00003 suncat0090 pw.x -in pw.inp   Done                     12/19/2018 09:07:38
00004 suncat0090 pw.x -in pw.inp   Done                     12/19/2018 09:07:38
00005 suncat0090 pw.x -in pw.inp   Done                     12/19/2018 09:07:38
00006 suncat0090 pw.x -in pw.inp   Done                     12/19/2018 09:07:38
00007 suncat0090 pw.x -in pw.inp   Done                     12/19/2018 09:07:38
00008 suncat0089 pw.x -in pw.inp   Done                     12/19/2018 09:07:38
00009 suncat0089 pw.x -in pw.inp   Done                     12/19/2018 09:07:38
00010 suncat0089 pw.x -in pw.inp   Done                     12/19/2018 09:07:38
00011 suncat0089 pw.x -in pw.inp   Done                     12/19/2018 09:07:38
00012 suncat0089 pw.x -in pw.inp   Done                     12/19/2018 09:07:38
00013 suncat0089 pw.x -in pw.inp   Done                     12/19/2018 09:07:38
00014 suncat0089 pw.x -in pw.inp   Done                     12/19/2018 09:07:38
00015 suncat0089 pw.x -in pw.inp   Done                     12/19/2018 09:07:38
00016 suncat0088 pw.x -in pw.inp   Done                     12/19/2018 09:07:38
00017 suncat0088 pw.x -in pw.inp   Done                     12/19/2018 09:07:38
00018 suncat0088 pw.x -in pw.inp   Done                     12/19/2018 09:07:38
00019 suncat0088 pw.x -in pw.inp   Done                     12/19/2018 09:07:38
00020 suncat0088 pw.x -in pw.inp   Done                     12/19/2018 09:07:38
00021 suncat0088 pw.x -in pw.inp   Done                     12/19/2018 09:07:38
00022 suncat0088 pw.x -in pw.inp   Done                     12/19/2018 09:07:38
00023 suncat0088 pw.x -in pw.inp   Done                     12/19/2018 09:07:38
00024 suncat0087 pw.x -in pw.inp   Done                     12/19/2018 09:07:38
00025 suncat0087 pw.x -in pw.inp   Done                     12/19/2018 09:07:38
00026 suncat0087 pw.x -in pw.inp   Done                     12/19/2018 09:07:38
00027 suncat0087 pw.x -in pw.inp   Done                     12/19/2018 09:07:38
00028 suncat0087 pw.x -in pw.inp   Done                     12/19/2018 09:07:38
00029 suncat0087 pw.x -in pw.inp   Done                     12/19/2018 09:07:38
00030 suncat0087 pw.x -in pw.inp   Done                     12/19/2018 09:07:38
00031 suncat0087 pw.x -in pw.inp   Done                     12/19/2018 09:07:38