     Program PWSCF v.5.1rc2 (svn rev. 11289) starts on 18Dec2018 at 21:55:12

     Current dimensions of program PWSCF are:
     Max number of different atomic species (ntypx) = 10
     Max number of k-points (npk) =  40000
     Max angular momentum in pseudopotentials (lmaxx) =  3
     Presently stress not available with electric field

     IMPORTANT: XC functional enforced from input :
     Exchange-correlation      = BEEF-VDW ( 1  4 27 13 2)
     Any further DFT definition will be discarded
     Please, verify this is what you really want

     Subspace diagonalization in iterative solution of the eigenvalue problem:
     a serial algorithm will be used

     Found symmetry operation: I + ( -0.5000 -0.5000  0.0000)
     This is a supercell, fractional translations are disabled

     Generating pointlists ...
     new r_m :   0.4125 (alat units)  0.7795 (a.u.) for type    1
     new r_m :   0.4125 (alat units)  0.7795 (a.u.) for type    2

     bravais-lattice index     =            0
     lattice parameter (alat)  =       1.8897  a.u.
     unit-cell volume          =    5380.0102 (a.u.)^3
     number of atoms/cell      =           12
     number of atomic types    =            2
     number of electrons       =       192.00
     number of Kohn-Sham states=          126
     kinetic-energy cutoff     =      36.7493  Ry
     charge density cutoff     =     367.4932  Ry
     convergence threshold     =      1.0E-06
     mixing beta               =       0.1000
     number of iterations used =           10  plain     mixing
     Exchange-correlation      = BEEF-VDW ( 1  4 27 13 2)
     nstep                     =           50

     celldm(1)=   1.889726  celldm(2)=   0.000000  celldm(3)=   0.000000
     celldm(4)=   0.000000  celldm(5)=   0.000000  celldm(6)=   0.000000

     crystal axes: (cart. coord. in units of alat)
               a(1) = (   5.851092   0.000000   0.000000 )
               a(2) = (   2.008865   5.495429   0.000000 )
               a(3) = (   0.000000   0.000000  24.794080 )

     reciprocal axes: (cart. coord. in units 2 pi/alat)
               b(1) = (  0.170908 -0.062476  0.000000 )
               b(2) = (  0.000000  0.181969  0.000000 )
               b(3) = (  0.000000  0.000000  0.040332 )

     PseudoPot. # 1 for Ni read from file:
     /afs/slac.stanford.edu/u/if/mamunm/psp/gbrv1.5pbe/Ni.UPF
     MD5 check sum: 1ee80287db30b12d2bc1f57a5b5d6409
     Pseudo is Ultrasoft + core correction, Zval = 18.0
     Generated by new atomic code, or converted to UPF format
     Using radial grid of  865 points,  6 beta functions with:
                l(1) =   0
                l(2) =   0
                l(3) =   1
                l(4) =   1
                l(5) =   2
                l(6) =   2
     Q(r) pseudized with 10 coefficients,  rinner =    0.980   0.980   0.980
                                                       0.980   0.980

     PseudoPot. # 2 for Pb read from file:
     /afs/slac.stanford.edu/u/if/mamunm/psp/gbrv1.5pbe/Pb.UPF
     MD5 check sum: 3d1c1779aa92214d1e8f3a7db79003e2
     Pseudo is Ultrasoft + core correction, Zval = 14.0
     Generated by new atomic code, or converted to UPF format
     Using radial grid of  899 points,  6 beta functions with:
                l(1) =   0
                l(2) =   0
                l(3) =   1
                l(4) =   1
                l(5) =   2
                l(6) =   2
     Q(r) pseudized with  6 coefficients,  rinner =    1.000   1.000   1.000
                                                       1.000   1.000

     vdW kernel table read from file vdW_kernel_table
     MD5 check sum: 095c7af220d748ca6e76c0b4c6cfb241

     atomic species   valence    mass     pseudopotential
        Ni1           18.00    58.69340     Ni( 1.00)
        Pb1           14.00   207.20000     Pb( 1.00)

     Starting magnetic structure
     atomic species   magnetization
        Ni1          0.111
        Pb1          0.143

     No symmetry found

   Cartesian axes

     site n.     atom                  positions (alat units)
         1           Ni1 tau(   1) = (   0.0000000   0.0000000  10.0000000  )
         2           Ni1 tau(   2) = (   3.9299784   2.7477144  10.0000000  )
         3           Pb1 tau(   3) = (   2.9255459   0.0000000  10.0000000  )
         4           Pb1 tau(   4) = (   1.0044325   2.7477144  10.0000000  )
         5           Ni1 tau(   5) = (   5.8510919   4.0908951  12.3970399  )
         6           Ni1 tau(   6) = (   1.9211135   1.3431807  12.3970399  )
         7           Pb1 tau(   7) = (   2.9255459   4.0908951  12.3970399  )
         8           Pb1 tau(   8) = (   4.8466594   1.3431807  12.3970399  )
         9           Ni1 tau(   9) = (   3.8422269   2.6863614  14.7940797  )
        10           Ni1 tau(  10) = (   7.7722053   5.4340758  14.7940797  )
        11           Pb1 tau(  11) = (   6.7677729   2.6863614  14.7940797  )
        12           Pb1 tau(  12) = (   4.8466594   5.4340758  14.7940797  )

     number of k points=    40  Fermi-Dirac smearing, width (Ry)=  0.0110
                       cart. coord. in units 2pi/alat
        k(    1) = (   0.0000000   0.0000000   0.0000000), wk =   0.0277778
        k(    2) = (   0.0000000   0.0303282   0.0000000), wk =   0.0555556
        k(    3) = (   0.0000000   0.0606565   0.0000000), wk =   0.0555556
        k(    4) = (   0.0000000  -0.0909847   0.0000000), wk =   0.0277778
        k(    5) = (   0.0284847  -0.0104126   0.0000000), wk =   0.0555556
        k(    6) = (   0.0284847   0.0199156   0.0000000), wk =   0.0555556
        k(    7) = (   0.0284847   0.0502438   0.0000000), wk =   0.0555556
        k(    8) = (   0.0284847  -0.1013974   0.0000000), wk =   0.0555556
        k(    9) = (   0.0284847  -0.0710691   0.0000000), wk =   0.0555556
        k(   10) = (   0.0284847  -0.0407409   0.0000000), wk =   0.0555556
        k(   11) = (   0.0569694  -0.0208253   0.0000000), wk =   0.0555556
        k(   12) = (   0.0569694   0.0095030   0.0000000), wk =   0.0555556
        k(   13) = (   0.0569694   0.0398312   0.0000000), wk =   0.0555556
        k(   14) = (   0.0569694  -0.1118100   0.0000000), wk =   0.0555556
        k(   15) = (   0.0569694  -0.0814818   0.0000000), wk =   0.0555556
        k(   16) = (   0.0569694  -0.0511535   0.0000000), wk =   0.0555556
        k(   17) = (  -0.0854541   0.0312379   0.0000000), wk =   0.0277778
        k(   18) = (  -0.0854541   0.0615662   0.0000000), wk =   0.0555556
        k(   19) = (  -0.0854541   0.0918944   0.0000000), wk =   0.0555556
        k(   20) = (  -0.0854541  -0.0597468   0.0000000), wk =   0.0277778
        k(   21) = (   0.0000000   0.0000000   0.0000000), wk =   0.0277778
        k(   22) = (   0.0000000   0.0303282   0.0000000), wk =   0.0555556
        k(   23) = (   0.0000000   0.0606565   0.0000000), wk =   0.0555556
        k(   24) = (   0.0000000  -0.0909847   0.0000000), wk =   0.0277778
        k(   25) = (   0.0284847  -0.0104126   0.0000000), wk =   0.0555556
        k(   26) = (   0.0284847   0.0199156   0.0000000), wk =   0.0555556
        k(   27) = (   0.0284847   0.0502438   0.0000000), wk =   0.0555556
        k(   28) = (   0.0284847  -0.1013974   0.0000000), wk =   0.0555556
        k(   29) = (   0.0284847  -0.0710691   0.0000000), wk =   0.0555556
        k(   30) = (   0.0284847  -0.0407409   0.0000000), wk =   0.0555556
        k(   31) = (   0.0569694  -0.0208253   0.0000000), wk =   0.0555556
        k(   32) = (   0.0569694   0.0095030   0.0000000), wk =   0.0555556
        k(   33) = (   0.0569694   0.0398312   0.0000000), wk =   0.0555556
        k(   34) = (   0.0569694  -0.1118100   0.0000000), wk =   0.0555556
        k(   35) = (   0.0569694  -0.0814818   0.0000000), wk =   0.0555556
        k(   36) = (   0.0569694  -0.0511535   0.0000000), wk =   0.0555556
        k(   37) = (  -0.0854541   0.0312379   0.0000000), wk =   0.0277778
        k(   38) = (  -0.0854541   0.0615662   0.0000000), wk =   0.0555556
        k(   39) = (  -0.0854541   0.0918944   0.0000000), wk =   0.0555556
        k(   40) = (  -0.0854541  -0.0597468   0.0000000), wk =   0.0277778

     Largest allocated arrays     est. size (Mb)     dimensions
     Largest temporary arrays     est. size (Mb)     dimensions

     Check: negative/imaginary core charge=   -0.000002    0.000000

     Initial potential from superposition of free atoms
     Check: negative starting charge=(component1):   -0.057922
     Check: negative starting charge=(component2):   -0.043443

     starting charge  179.98589, renormalised to  192.00000

     negative rho (up, down):  6.179E-02 4.634E-02

     *
     * You are using vdW-DF for exchange-correlation in this calculation.
     * Please cite the following three references that made this development
     * possible:
     *
     *   M. Dion, H. Rydberg, E. Schroder, D. C. Langreth, and
     *   B. I. Lundqvist, Phys. Rev. Lett. 92, 246401 (2004).
     *
     *   T. Thonhauser, V. R. Cooper, S. Li, A. Puzder, P. Hyldgaard, and
     *   D. C. Langreth, Phys. Rev. B 76, 125112 (2007).
     *
     *   G. Roman-Perez and J. M. Soler, Phys. Rev. Lett. 103, 096102 (2009).
     *
     *
     * If you are using vdW-DF2, please also cite:
     *
     *   K. Lee, E. D. Murray, L. Kong, B. I. Lundqvist, and
     *   D. C. Langreth, Phys. Rev. B 82, 081101(R) (2010).
     *
     *
     * If you are calculating the stress with vdW-DF, please also cite:
     *
     *   R. Sabatini, E. Kucukbenli, B. Kolb, T. Thonhauser, and
     *   S. de Gironcoli, J. Phys.: Condens. Matter 24, 424209 (2012).
     *

     Carrying out vdW-DF run using the following parameters:

     Nqs =      20    Nr_points =    1024   r_max =   100.000
     q_mesh =
               0.00001000     0.04494208     0.09755937     0.15916263
               0.23128650     0.31572767     0.41458969     0.53033537
               0.66584808     0.82450364     1.01025438     1.22772762
               1.48234092     1.78043706     2.12944203     2.53805004
               3.01644009     3.57652955     4.23227104     5.00000000

     Gradients computed in reciprocal space

     Adding external electric field

     Computed dipole along edir(3) :
        Dipole                0.0000 Ry au,          0.0000 Debye
        Dipole field          0.0000 Ry au

        Potential amp.       -0.0000 Ry
        Total length         45.6827 bohr

[...]

     Starting wfc are  132 randomized atomic wfcs

     Self-consistent Calculation

     iteration #  1     ecut=    36.75 Ry     beta=0.10
     Davidson diagonalization with overlap
     ethr =  1.00E-02,  avg # of iterations =  7.7

[...]

     Magnetic moment per site:
     atom:    1    charge:    9.5410    magn:    1.0186    constr:    0.0000
     atom:    2    charge:    9.5410    magn:    1.0186    constr:    0.0000
     atom:    3    charge:    1.8429    magn:    0.2403    constr:    0.0000
     atom:    4    charge:    1.8429    magn:    0.2403    constr:    0.0000
     atom:    5    charge:    9.5163    magn:    1.0112    constr:    0.0000
     atom:    6    charge:    9.5163    magn:    1.0112    constr:    0.0000
[...]
                l(6) =   2
     Q(r) pseudized with 10 coefficients,  rinner =    0.980   0.980   0.980
                                                       0.980   0.980

     PseudoPot. # 2 for Pb read from file:
     /afs/slac.stanford.edu/u/if/mamunm/psp/gbrv1.5pbe/Pb.UPF
     MD5 check sum: 3d1c1779aa92214d1e8f3a7db79003e2
     Pseudo is Ultrasoft + core correction, Zval = 14.0
     Generated by new atomic code, or converted to UPF format
     Using radial grid of  899 points,  6 beta functions with:
                l(1) =   0
                l(2) =   0
                l(3) =   1
                l(4) =   1
                l(5) =   2
                l(6) =   2
     Q(r) pseudized with  6 coefficients,  rinner =    1.000   1.000   1.000
                                                       1.000   1.000

     vdW kernel table read from file vdW_kernel_table
     MD5 check sum: 095c7af220d748ca6e76c0b4c6cfb241

     atomic species   valence    mass     pseudopotential
        Ni1           18.00    58.69340     Ni( 1.00)
        Pb1           14.00   207.20000     Pb( 1.00)

     Starting magnetic structure
     atomic species   magnetization
        Ni1          0.111
        Pb1          0.143

     No symmetry found

   Cartesian axes

     site n.     atom                  positions (alat units)
         1           Ni1 tau(   1) = (   0.0000000   0.0000000  10.0000000  )
         2           Ni1 tau(   2) = (   3.9299784   2.7477144  10.0000000  )
         3           Pb1 tau(   3) = (   2.9255459   0.0000000  10.0000000  )
         4           Pb1 tau(   4) = (   1.0044325   2.7477144  10.0000000  )
         5           Ni1 tau(   5) = (   5.8510919   4.0908951  12.3970399  )
         6           Ni1 tau(   6) = (   1.9211135   1.3431807  12.3970399  )
         7           Pb1 tau(   7) = (   2.9255459   4.0908951  12.3970399  )
         8           Pb1 tau(   8) = (   4.8466594   1.3431807  12.3970399  )
         9           Ni1 tau(   9) = (   3.8399956   2.6848134  14.4609626  )
        10           Ni1 tau(  10) = (   7.7698911   5.4324538  14.4612804  )
        11           Pb1 tau(  11) = (   6.7859748   2.6991402  14.9740220  )
        12           Pb1 tau(  12) = (   4.8648994   5.4467902  14.9740145  )

     number of k points=    40  Fermi-Dirac smearing, width (Ry)=  0.0110
                       cart. coord. in units 2pi/alat
        k(    1) = (   0.0000000   0.0000000   0.0000000), wk =   0.0277778
        k(    2) = (   0.0000000   0.0303282   0.0000000), wk =   0.0555556
        k(    3) = (   0.0000000   0.0606565   0.0000000), wk =   0.0555556
        k(    4) = (   0.0000000  -0.0909847   0.0000000), wk =   0.0277778
        k(    5) = (   0.0284847  -0.0104126   0.0000000), wk =   0.0555556
        k(    6) = (   0.0284847   0.0199156   0.0000000), wk =   0.0555556
        k(    7) = (   0.0284847   0.0502438   0.0000000), wk =   0.0555556
        k(    8) = (   0.0284847  -0.1013974   0.0000000), wk =   0.0555556
        k(    9) = (   0.0284847  -0.0710691   0.0000000), wk =   0.0555556
        k(   10) = (   0.0284847  -0.0407409   0.0000000), wk =   0.0555556
        k(   11) = (   0.0569694  -0.0208253   0.0000000), wk =   0.0555556
        k(   12) = (   0.0569694   0.0095030   0.0000000), wk =   0.0555556
        k(   13) = (   0.0569694   0.0398312   0.0000000), wk =   0.0555556
        k(   14) = (   0.0569694  -0.1118100   0.0000000), wk =   0.0555556
        k(   15) = (   0.0569694  -0.0814818   0.0000000), wk =   0.0555556
        k(   16) = (   0.0569694  -0.0511535   0.0000000), wk =   0.0555556
        k(   17) = (  -0.0854541   0.0312379   0.0000000), wk =   0.0277778
        k(   18) = (  -0.0854541   0.0615662   0.0000000), wk =   0.0555556
        k(   19) = (  -0.0854541   0.0918944   0.0000000), wk =   0.0555556
        k(   20) = (  -0.0854541  -0.0597468   0.0000000), wk =   0.0277778
        k(   21) = (   0.0000000   0.0000000   0.0000000), wk =   0.0277778
        k(   22) = (   0.0000000   0.0303282   0.0000000), wk =   0.0555556
        k(   23) = (   0.0000000   0.0606565   0.0000000), wk =   0.0555556
        k(   24) = (   0.0000000  -0.0909847   0.0000000), wk =   0.0277778
        k(   25) = (   0.0284847  -0.0104126   0.0000000), wk =   0.0555556
        k(   26) = (   0.0284847   0.0199156   0.0000000), wk =   0.0555556
        k(   27) = (   0.0284847   0.0502438   0.0000000), wk =   0.0555556
        k(   28) = (   0.0284847  -0.1013974   0.0000000), wk =   0.0555556
        k(   29) = (   0.0284847  -0.0710691   0.0000000), wk =   0.0555556
        k(   30) = (   0.0284847  -0.0407409   0.0000000), wk =   0.0555556
        k(   31) = (   0.0569694  -0.0208253   0.0000000), wk =   0.0555556
        k(   32) = (   0.0569694   0.0095030   0.0000000), wk =   0.0555556
        k(   33) = (   0.0569694   0.0398312   0.0000000), wk =   0.0555556
        k(   34) = (   0.0569694  -0.1118100   0.0000000), wk =   0.0555556
        k(   35) = (   0.0569694  -0.0814818   0.0000000), wk =   0.0555556
        k(   36) = (   0.0569694  -0.0511535   0.0000000), wk =   0.0555556
        k(   37) = (  -0.0854541   0.0312379   0.0000000), wk =   0.0277778
        k(   38) = (  -0.0854541   0.0615662   0.0000000), wk =   0.0555556
        k(   39) = (  -0.0854541   0.0918944   0.0000000), wk =   0.0555556
        k(   40) = (  -0.0854541  -0.0597468   0.0000000), wk =   0.0277778

     Largest allocated arrays     est. size (Mb)     dimensions
     Largest temporary arrays     est. size (Mb)     dimensions

     Check: negative/imaginary core charge=   -0.000002    0.000000

     Initial potential from superposition of free atoms
     Check: negative starting charge=(component1):   -0.057790
     Check: negative starting charge=(component2):   -0.043344

     starting charge  179.98589, renormalised to  192.00000

[...]

     *
     * You are using vdW-DF for exchange-correlation in this calculation.
     * Please cite the following three references that made this development
     * possible:
     *
     *   M. Dion, H. Rydberg, E. Schroder, D. C. Langreth, and
     *   B. I. Lundqvist, Phys. Rev. Lett. 92, 246401 (2004).
     *
     *   T. Thonhauser, V. R. Cooper, S. Li, A. Puzder, P. Hyldgaard, and
     *   D. C. Langreth, Phys. Rev. B 76, 125112 (2007).
     *
     *   G. Roman-Perez and J. M. Soler, Phys. Rev. Lett. 103, 096102 (2009).
     *
     *
     * If you are using vdW-DF2, please also cite:
     *
     *   K. Lee, E. D. Murray, L. Kong, B. I. Lundqvist, and
     *   D. C. Langreth, Phys. Rev. B 82, 081101(R) (2010).
     *
     *
     * If you are calculating the stress with vdW-DF, please also cite:
     *
     *   R. Sabatini, E. Kucukbenli, B. Kolb, T. Thonhauser, and
     *   S. de Gironcoli, J. Phys.: Condens. Matter 24, 424209 (2012).
     *

     Carrying out vdW-DF run using the following parameters:

     Nqs =      20    Nr_points =    1024   r_max =   100.000
     q_mesh =
               0.00001000     0.04494208     0.09755937     0.15916263
               0.23128650     0.31572767     0.41458969     0.53033537
               0.66584808     0.82450364     1.01025438     1.22772762
               1.48234092     1.78043706     2.12944203     2.53805004
               3.01644009     3.57652955     4.23227104     5.00000000

     Gradients computed in reciprocal space

[...]

     Starting wfc are  132 randomized atomic wfcs

     Self-consistent Calculation

[...]

     total energy              =   -3062.44188465 Ry
     Harris-Foulkes estimate   =   -3062.44188443 Ry
     estimated scf accuracy    <       0.00000157 Ry

[...]

     iteration # 40     ecut=    36.75 Ry     beta=0.10
     Davidson diagonalization with overlap
     ethr =  8.17E-10,  avg # of iterations =  2.1

[...]

     negative rho (up, down):  5.488E-02 5.488E-02

[...]

     Adding external electric field

     Computed dipole along edir(3) :
        Dipole                0.0931 Ry au,          0.2366 Debye
        Dipole field          0.0002 Ry au

        Potential amp.       -0.0199 Ry
        Total length         45.6827 bohr

     Magnetic moment per site:
     atom:    1    charge:    9.3799    magn:   -0.0008    constr:    0.0000
     atom:    2    charge:    9.3798    magn:   -0.0008    constr:    0.0000
     atom:    3    charge:    1.7510    magn:   -0.0000    constr:    0.0000
     atom:    4    charge:    1.7510    magn:   -0.0000    constr:    0.0000
     atom:    5    charge:    9.3537    magn:   -0.0008    constr:    0.0000
     atom:    6    charge:    9.3537    magn:   -0.0009    constr:    0.0000
     atom:    7    charge:    1.7460    magn:    0.0000    constr:    0.0000
     atom:    8    charge:    1.7460    magn:    0.0000    constr:    0.0000
     atom:    9    charge:    9.3717    magn:   -0.0019    constr:    0.0000
     atom:   10    charge:    9.3718    magn:   -0.0019    constr:    0.0000
     atom:   11    charge:    1.7442    magn:    0.0000    constr:    0.0000
     atom:   12    charge:    1.7442    magn:    0.0000    constr:    0.0000

     End of self-consistent calculation

 ------ SPIN UP ------------

[...]

 ------ SPIN DOWN ----------

[...]

          k = 0.0570-0.0512 0.0000 ( 20246 PWs)   bands (ev):

[...]

          k =-0.0855-0.0597 0.0000 ( 20202 PWs)   bands (ev):

  -101.7155-101.7154-101.6508-101.6505-101.5134-101.5132 -62.1425 -62.1420
   -62.1273 -62.1241 -62.1121 -62.1116 -62.0892 -62.0887 -62.0612 -62.0579
   -62.0536 -62.0531 -62.0169 -62.0163 -61.9253 -61.9221 -61.8527 -61.8523
   -16.4099 -16.3687 -16.3239 -16.3220 -16.2894 -16.2866 -16.2394 -16.2392
   -16.2022 -16.2004 -16.1842 -16.1664 -16.1640 -16.1633 -16.1507 -16.1455
   -16.1452 -16.1405 -16.1187 -16.1062 -16.1020 -16.0944 -16.0776 -16.0700
   -16.0590 -16.0501 -16.0313 -15.9810 -15.9714 -15.9151  -8.8688  -8.4929
    -8.0806  -7.7591  -6.4792  -5.1429  -4.2439  -4.0297  -3.4124  -2.6722
    -2.0511  -2.0285  -1.6922  -1.2279  -0.9548  -0.8050  -0.6263  -0.5924
    -0.5900  -0.5563  -0.5025  -0.4645  -0.4141  -0.3456  -0.3444  -0.2545
    -0.1689  -0.1487   0.0015   0.0170   0.0260   0.0377   0.0961   0.1823
     0.2067   0.2295   0.2598   0.3134   0.4158   0.4790   0.5728   1.1796
     1.3225   1.9754   2.1234   2.2809   3.5049   3.7116   4.0048   4.1566
     4.4408   4.4676   4.5510   5.1010   5.4574   5.5771   5.6858   5.8578
     6.0066   6.1636   6.2472   6.5061   6.7554   6.7693   6.8463   6.8596
     6.9203   7.3297   7.3433   7.3826   7.5070   7.5935

     the Fermi energy is     0.9230 ev

!    total energy              =   -3062.44188568 Ry
     Harris-Foulkes estimate   =   -3062.44188618 Ry
     estimated scf accuracy    <       0.00000053 Ry

     The total energy is the sum of the following terms:

     one-electron contribution =  -18299.23230376 Ry
     hartree contribution      =    9193.54603601 Ry
     xc contribution           =    -612.98301284 Ry
     ewald contribution        =    6656.28630232 Ry
     electric field correction =       0.00002024 Ry
     smearing contrib. (-TS)   =      -0.05892766 Ry

     total magnetization       =    -0.01 Bohr mag/cell
     absolute magnetization    =     0.02 Bohr mag/cell

     convergence has been achieved in  40 iterations

 BEEF-vdW xc energy contributions
           1 :   -544.163158232698
           2 :    501.014581024150
           3 :   -426.609305336021
           4 :    339.566985050023
           5 :   -257.884546378708
           6 :    192.944059063101
           7 :   -147.304834354061
           8 :    116.565016355732
           9 :   -93.6483356640782
          10 :    72.9724407338114
          11 :   -52.5462109056638
          12 :    33.5237529293587
          13 :   -18.2100234875516
          14 :    8.06753400036234
          15 :   -2.84766029998684
          16 :   0.983238898632521
          17 :  -0.614278263515757
          18 :   0.438498266389274
          19 :   2.725182383869651E-002
          20 :  -0.691407530400738
          21 :    1.27235165687091
          22 :   -1.54122132836778
          23 :    1.37138997659588
          24 :  -0.731991824239913
          25 :  -0.268265230857992
          26 :    1.31540959180631
          27 :   -1.93987912588807
          28 :    1.74214749141129
          29 :  -0.687980219369706
          30 :  -0.762062224025044
          31 :   -44.0226230264165
          32 :   -31.7071693689372

     Forces acting on atoms (Ry/au):

     negative rho (up, down):  5.488E-02 5.488E-02
     atom    1 type  1   force =     0.00067238    0.00046989    0.02775149
     atom    2 type  1   force =     0.00066772    0.00046626    0.02769912
     atom    3 type  2   force =    -0.00192976   -0.00134371   -0.02052341
     atom    4 type  2   force =    -0.00192456   -0.00135214   -0.02052376
     atom    5 type  1   force =    -0.00038658   -0.00026890    0.00993257
     atom    6 type  1   force =    -0.00040950   -0.00028691    0.00993213
     atom    7 type  2   force =     0.00170130    0.00122402   -0.01763322
     atom    8 type  2   force =     0.00173369    0.00117931   -0.01762968
     atom    9 type  1   force =    -0.00012590   -0.00008849    0.00068159
     atom   10 type  1   force =    -0.00011552   -0.00008084    0.00061801
     atom   11 type  2   force =     0.00006385    0.00003217   -0.00015204
     atom   12 type  2   force =     0.00005287    0.00004932   -0.00015278

     Total force =     0.056758     Total SCF correction =     0.001540

     entering subroutine stress ...

     negative rho (up, down):  5.488E-02 5.488E-02
          total   stress  (Ry/bohr**3)                   (kbar)     P=  -32.93
  -0.00027182  -0.00004335   0.00000199        -39.99     -6.38      0.29
  -0.00004335  -0.00024012   0.00000139         -6.38    -35.32      0.20
   0.00000199   0.00000139  -0.00015956          0.29      0.20    -23.47

 !ASE

     Writing output data file calc.save

     General routines

     Parallel routines

   This run was terminated on:   5:11:21  19Dec2018

   JOB DONE.
Job  /afs/slac/g/suncat/bin/suncat-tsmpirun -x LD_LIBRARY_PATH -wdir /scratch/qe530368_6c0by pw.x -in pw.inp

TID   HOST_NAME   COMMAND_LINE            STATUS            TERMINATION_TIME
00000 suncat2022 pw.x -in pw.inp   Done                     12/19/2018 05:11:21
00001 suncat2022 pw.x -in pw.inp   Done                     12/19/2018 05:11:21
00002 suncat2022 pw.x -in pw.inp   Done                     12/19/2018 05:11:21
00003 suncat2022 pw.x -in pw.inp   Done                     12/19/2018 05:11:21
00004 suncat2022 pw.x -in pw.inp   Done                     12/19/2018 05:11:21
00005 suncat2022 pw.x -in pw.inp   Done                     12/19/2018 05:11:21
00006 suncat2022 pw.x -in pw.inp   Done                     12/19/2018 05:11:21
00007 suncat2022 pw.x -in pw.inp   Done                     12/19/2018 05:11:21
00008 suncat2022 pw.x -in pw.inp   Done                     12/19/2018 05:11:21
00009 suncat2022 pw.x -in pw.inp   Done                     12/19/2018 05:11:21
00010 suncat2022 pw.x -in pw.inp   Done                     12/19/2018 05:11:21
00011 suncat2022 pw.x -in pw.inp   Done                     12/19/2018 05:11:21
00012 suncat2022 pw.x -in pw.inp   Done                     12/19/2018 05:11:21
00013 suncat2022 pw.x -in pw.inp   Done                     12/19/2018 05:11:21
00014 suncat2022 pw.x -in pw.inp   Done                     12/19/2018 05:11:21
00015 suncat2022 pw.x -in pw.inp   Done                     12/19/2018 05:11:21
00016 suncat2021 pw.x -in pw.inp   Done                     12/19/2018 05:11:21
00017 suncat2021 pw.x -in pw.inp   Done                     12/19/2018 05:11:21
00018 suncat2021 pw.x -in pw.inp   Done                     12/19/2018 05:11:21
00019 suncat2021 pw.x -in pw.inp   Done                     12/19/2018 05:11:21
00020 suncat2021 pw.x -in pw.inp   Done                     12/19/2018 05:11:21
00021 suncat2021 pw.x -in pw.inp   Done                     12/19/2018 05:11:21
00022 suncat2021 pw.x -in pw.inp   Done                     12/19/2018 05:11:21
00023 suncat2021 pw.x -in pw.inp   Done                     12/19/2018 05:11:21
00024 suncat2021 pw.x -in pw.inp   Done                     12/19/2018 05:11:21
00025 suncat2021 pw.x -in pw.inp   Done                     12/19/2018 05:11:21
00026 suncat2021 pw.x -in pw.inp   Done                     12/19/2018 05:11:21
00027 suncat2021 pw.x -in pw.inp   Done                     12/19/2018 05:11:21
00028 suncat2021 pw.x -in pw.inp   Done                     12/19/2018 05:11:21
00029 suncat2021 pw.x -in pw.inp   Done                     12/19/2018 05:11:21
00030 suncat2021 pw.x -in pw.inp   Done                     12/19/2018 05:11:21
00031 suncat2021 pw.x -in pw.inp   Done                     12/19/2018 05:11:21