     Program PWSCF v.5.1rc2 (svn rev. 11289) starts on 18Dec2018 at 18: 5:30

     Current dimensions of program PWSCF are:
     Max number of different atomic species (ntypx) = 10
     Max number of k-points (npk) =  40000
     Max angular momentum in pseudopotentials (lmaxx) =  3
     Presently stress not available with electric field

     IMPORTANT: XC functional enforced from input :
     Exchange-correlation      = BEEF-VDW ( 1  4 27 13 2)
     Any further DFT definition will be discarded
     Please, verify this is what you really want

     Subspace diagonalization in iterative solution of the eigenvalue problem:
     a serial algorithm will be used

     Found symmetry operation: I + ( -0.5000 -0.5000  0.0000)
     This is a supercell, fractional translations are disabled

     bravais-lattice index     =            0
     lattice parameter (alat)  =       1.8897  a.u.
     unit-cell volume          =    6032.3654 (a.u.)^3
     number of atoms/cell      =           12
     number of atomic types    =            2
     number of electrons       =       102.00
     number of Kohn-Sham states=           81
     kinetic-energy cutoff     =      36.7493  Ry
     charge density cutoff     =     367.4932  Ry
     convergence threshold     =      1.0E-06
     mixing beta               =       0.1000
     number of iterations used =           10  plain     mixing
     Exchange-correlation      = BEEF-VDW ( 1  4 27 13 2)
     nstep                     =           50

     celldm(1)=   1.889726  celldm(2)=   0.000000  celldm(3)=   0.000000
     celldm(4)=   0.000000  celldm(5)=   0.000000  celldm(6)=   0.000000

     crystal axes: (cart. coord. in units of alat)
               a(1) = (   6.233823   0.000000   0.000000 )
               a(2) = (   2.527200   5.698580   0.000000 )
               a(3) = (   0.000000   0.000000  25.163436 )

     reciprocal axes: (cart. coord. in units 2 pi/alat)
               b(1) = (  0.160415 -0.071141  0.000000 )
               b(2) = (  0.000000  0.175482  0.000000 )
               b(3) = (  0.000000  0.000000  0.039740 )

     PseudoPot. # 1 for Al read from file:
     /afs/slac.stanford.edu/u/if/mamunm/psp/gbrv1.5pbe/Al.UPF
     MD5 check sum: 0a6289f5291fc8f409219462bc851e1f
     Pseudo is Ultrasoft + core correction, Zval =  3.0
     Generated by new atomic code, or converted to UPF format
     Using radial grid of  893 points,  3 beta functions with:
                l(1) =   0
                l(2) =   1
                l(3) =   2
     Q(r) pseudized with  8 coefficients,  rinner =    0.900   0.900   0.900
                                                       0.900   0.900

     PseudoPot. # 2 for Sn read from file:
     /afs/slac.stanford.edu/u/if/mamunm/psp/gbrv1.5pbe/Sn.UPF
     MD5 check sum: 469debedee59599fedebd795477fea03
     Pseudo is Ultrasoft + core correction, Zval = 14.0
     Generated by new atomic code, or converted to UPF format
     Using radial grid of  891 points,  6 beta functions with:
                l(1) =   0
                l(2) =   0
                l(3) =   1
                l(4) =   1
                l(5) =   2
                l(6) =   2
     Q(r) pseudized with  8 coefficients,  rinner =    1.350   1.350   1.350
                                                       1.350   1.350

     vdW kernel table read from file vdW_kernel_table
     MD5 check sum: 095c7af220d748ca6e76c0b4c6cfb241

     atomic species   valence    mass     pseudopotential
        Al1            3.00    26.98154     Al( 1.00)
        Sn1           14.00   118.71000     Sn( 1.00)

     No symmetry found

   Cartesian axes

     site n.     atom                  positions (alat units)
         1           Al1 tau(   1) = (   0.0000000   0.0000000  10.0000000  )
         2           Al1 tau(   2) = (   4.3805117   2.8492898  10.0000000  )
         3           Sn1 tau(   3) = (   3.1169115   0.0000000  10.0000000  )
         4           Sn1 tau(   4) = (   1.2636002   2.8492898  10.0000000  )
         5           Al1 tau(   5) = (   6.2338231   4.0547702  12.5817182  )
         6           Al1 tau(   6) = (   1.8533114   1.2054804  12.5817182  )
         7           Sn1 tau(   7) = (   3.1169115   4.0547702  12.5817182  )
         8           Sn1 tau(   8) = (   4.9702229   1.2054804  12.5817182  )
         9           Al1 tau(   9) = (   3.7066228   2.4109609  15.1634365  )
        10           Al1 tau(  10) = (   8.0871345   5.2602506  15.1634365  )
        11           Sn1 tau(  11) = (   6.8235343   2.4109609  15.1634365  )
        12           Sn1 tau(  12) = (   4.9702229   5.2602506  15.1634365  )

     number of k points=    20  Fermi-Dirac smearing, width (Ry)=  0.0110
                       cart. coord. in units 2pi/alat
        k(    1) = (   0.0000000   0.0000000   0.0000000), wk =   0.0555556
        k(    2) = (   0.0000000   0.0292471   0.0000000), wk =   0.1111111
        k(    3) = (   0.0000000   0.0584941   0.0000000), wk =   0.1111111
        k(    4) = (   0.0000000  -0.0877412   0.0000000), wk =   0.0555556
        k(    5) = (   0.0267359  -0.0118568   0.0000000), wk =   0.1111111
        k(    6) = (   0.0267359   0.0173903   0.0000000), wk =   0.1111111
        k(    7) = (   0.0267359   0.0466373   0.0000000), wk =   0.1111111
        k(    8) = (   0.0267359  -0.0995980   0.0000000), wk =   0.1111111
        k(    9) = (   0.0267359  -0.0703509   0.0000000), wk =   0.1111111
        k(   10) = (   0.0267359  -0.0411039   0.0000000), wk =   0.1111111
        k(   11) = (   0.0534717  -0.0237136   0.0000000), wk =   0.1111111
        k(   12) = (   0.0534717   0.0055335   0.0000000), wk =   0.1111111
        k(   13) = (   0.0534717   0.0347805   0.0000000), wk =   0.1111111
        k(   14) = (   0.0534717  -0.1114548   0.0000000), wk =   0.1111111
        k(   15) = (   0.0534717  -0.0822077   0.0000000), wk =   0.1111111
        k(   16) = (   0.0534717  -0.0529606   0.0000000), wk =   0.1111111
        k(   17) = (  -0.0802076   0.0355704   0.0000000), wk =   0.0555556
        k(   18) = (  -0.0802076   0.0648174   0.0000000), wk =   0.1111111
        k(   19) = (  -0.0802076   0.0940645   0.0000000), wk =   0.1111111
        k(   20) = (  -0.0802076  -0.0521708   0.0000000), wk =   0.0555556

     Largest allocated arrays     est. size (Mb)     dimensions
     Largest temporary arrays     est. size (Mb)     dimensions

     Initial potential from superposition of free atoms
     Check: negative starting charge=   -0.000881

     starting charge   95.98494, renormalised to  102.00000

     negative rho (up, down):  9.363E-04 0.000E+00

     *
     * You are using vdW-DF for exchange-correlation in this calculation.
     * Please cite the following three references that made this development
     * possible:
     *
     *   M. Dion, H. Rydberg, E. Schroder, D. C. Langreth, and
     *   B. I. Lundqvist, Phys. Rev. Lett. 92, 246401 (2004).
     *
     *   T. Thonhauser, V. R. Cooper, S. Li, A. Puzder, P. Hyldgaard, and
     *   D. C. Langreth, Phys. Rev. B 76, 125112 (2007).
     *
     *   G. Roman-Perez and J. M. Soler, Phys. Rev. Lett. 103, 096102 (2009).
     *
     *
     * If you are using vdW-DF2, please also cite:
     *
     *   K. Lee, E. D. Murray, L. Kong, B. I. Lundqvist, and
     *   D. C. Langreth, Phys. Rev. B 82, 081101(R) (2010).
     *
     *
     * If you are calculating the stress with vdW-DF, please also cite:
     *
     *   R. Sabatini, E. Kucukbenli, B. Kolb, T. Thonhauser, and
     *   S. de Gironcoli, J. Phys.: Condens. Matter 24, 424209 (2012).
     *

     Carrying out vdW-DF run using the following parameters:

     Nqs =      20    Nr_points =    1024   r_max =   100.000
     q_mesh =
               0.00001000     0.04494208     0.09755937     0.15916263
               0.23128650     0.31572767     0.41458969     0.53033537
               0.66584808     0.82450364     1.01025438     1.22772762
               1.48234092     1.78043706     2.12944203     2.53805004
               3.01644009     3.57652955     4.23227104     5.00000000

     Gradients computed in reciprocal space

     Adding external electric field

     Computed dipole along edir(3) :
        Dipole               -0.0000 Ry au,         -0.0000 Debye
        Dipole field         -0.0000 Ry au

        Potential amp.        0.0000 Ry
        Total length         46.3632 bohr

     Starting wfc are   78 randomized atomic wfcs +    3 random wfc

     Self-consistent Calculation

     iteration #  1     ecut=    36.75 Ry     beta=0.10
     Davidson diagonalization with overlap
     ethr =  1.00E-02,  avg # of iterations =  9.1

[...]

     total energy              =   -1006.49819589 Ry
     Harris-Foulkes estimate   =   -1007.51443513 Ry
     estimated scf accuracy    <       5.78193551 Ry

[...]

     End of self-consistent calculation

          k = 0.0000 0.0000 0.0000 ( 22721 PWs)   bands (ev):

   -21.9442 -21.9326 -21.9063 -21.8979 -21.8901 -21.8792 -21.8772 -21.8763
   -21.8708 -21.8633 -21.8583 -21.8582 -21.8569 -21.8562 -21.8551 -21.8546
   -21.8486 -21.8484 -21.8385 -21.8313 -21.8307 -21.8147 -21.8134 -21.8111
   -21.8065 -21.7957 -21.7928 -21.7826 -21.7770 -21.7496 -10.4225  -9.0944
    -7.3192  -6.6806  -6.3828  -5.6814  -4.9435  -4.7962  -4.4980  -4.1481
    -3.6916  -3.5848  -3.5355  -3.2715  -2.8865  -2.7674  -2.5265  -1.7799
    -1.5777  -1.3167  -1.2542  -1.0523   0.1213   0.7617   1.5188   1.6514
     1.6698   2.0655   2.2117   2.4501   3.1769   3.2947   3.3697   3.4931
     3.9544   4.0515   4.2199   4.7080   4.9864   4.9911   5.0968   5.4933
     5.5361   5.6337   5.6415   5.6740   5.7136   5.7678   5.7691   6.2167
     6.5595

[...]

          k =-0.0802 0.0356 0.0000 ( 22700 PWs)   bands (ev):

[...]

     the Fermi energy is     0.0380 ev

!    total energy              =   -1005.19923551 Ry
     Harris-Foulkes estimate   =   -1005.19923582 Ry
     estimated scf accuracy    <       0.00000007 Ry

     The total energy is the sum of the following terms:

     one-electron contribution =   -4463.11755698 Ry
     hartree contribution      =    2264.87378705 Ry
     xc contribution           =    -293.00592795 Ry
     ewald contribution        =    1486.08383610 Ry
     electric field correction =       0.00000000 Ry
     smearing contrib. (-TS)   =      -0.03337373 Ry

     convergence has been achieved in  15 iterations

 BEEF-vdW xc energy contributions
           1 :   -255.983108147724
           2 :    233.077038645041
           3 :   -194.698349843348
           4 :    152.043902498951
           5 :   -115.158714668935
           6 :    89.3600179580589
           7 :   -74.4498159392620
           8 :    66.5162394381207
           9 :   -60.8913656383313
          10 :    54.5510260710367
          11 :   -46.9598373884688
          12 :    39.4120093797302
          13 :   -33.6516424508490
          14 :    30.6505171285457
          15 :   -30.0882978935909
          16 :    30.6165854956582
          17 :   -30.6497649676651
          18 :    29.2351510663863
          19 :   -26.5386771031282
          20 :    23.6606166627089
          21 :   -21.8761798340917
          22 :    21.7728624426962
[...]

[...]

   This run was terminated on:  19: 8:12  18Dec2018

[...]

     Program PWSCF v.5.1rc2 (svn rev. 11289) starts on 18Dec2018 at 19: 8:18

[...]

     iteration #  7     ecut=    36.75 Ry     beta=0.10
     Davidson diagonalization with overlap
     c_bands:  1 eigenvalues not converged
     ethr =  1.02E-05,  avg # of iterations =  5.8

[...]

     iteration #  9     ecut=    36.75 Ry     beta=0.10
     Davidson diagonalization with overlap
     c_bands:  1 eigenvalues not converged
     ethr =  1.20E-06,  avg # of iterations =  3.3

[...]

     Program PWSCF v.5.1rc2 (svn rev. 11289) starts on 18Dec2018 at 21: 0: 2

[...]

     Program PWSCF v.5.1rc2 (svn rev. 11289) starts on 18Dec2018 at 21:24: 8

[...]

   This run was terminated on:  21:36: 6  18Dec2018

[...]

   This run was terminated on:  21:48:12  18Dec2018

[...]

     Program PWSCF v.5.1rc2 (svn rev. 11289) starts on 18Dec2018 at 21:48:19

     Current dimensions of program PWSCF are:
     Max number of different atomic species (ntypx) = 10
     Max number of k-points (npk) =  40000
     Max angular momentum in pseudopotentials (lmaxx) =  3
     Presently stress not available with electric field

     IMPORTANT: XC functional enforced from input :
     Exchange-correlation      = BEEF-VDW ( 1  4 27 13 2)
     Any further DFT definition will be discarded
     Please, verify this is what you really want

     Subspace diagonalization in iterative solution of the eigenvalue problem:
     a serial algorithm will be used

     Found symmetry operation: I + ( -0.5000 -0.5000  0.0000)
     This is a supercell, fractional translations are disabled

     bravais-lattice index     =            0
     lattice parameter (alat)  =       1.8897  a.u.
     unit-cell volume          =    6032.3654 (a.u.)^3
     number of atoms/cell      =           12
     number of atomic types    =            2
     number of electrons       =       102.00
     number of Kohn-Sham states=           81
     kinetic-energy cutoff     =      36.7493  Ry
     charge density cutoff     =     367.4932  Ry
     convergence threshold     =      1.0E-06
     mixing beta               =       0.1000
     number of iterations used =           10  plain     mixing
     Exchange-correlation      = BEEF-VDW ( 1  4 27 13 2)
     nstep                     =           50

     celldm(1)=   1.889726  celldm(2)=   0.000000  celldm(3)=   0.000000
     celldm(4)=   0.000000  celldm(5)=   0.000000  celldm(6)=   0.000000

     crystal axes: (cart. coord. in units of alat)
               a(1) = (   6.233823   0.000000   0.000000 )
               a(2) = (   2.527200   5.698580   0.000000 )
               a(3) = (   0.000000   0.000000  25.163436 )

     reciprocal axes: (cart. coord. in units 2 pi/alat)
               b(1) = (  0.160415 -0.071141  0.000000 )
               b(2) = (  0.000000  0.175482  0.000000 )
               b(3) = (  0.000000  0.000000  0.039740 )

     PseudoPot. # 1 for Al read from file:
     /afs/slac.stanford.edu/u/if/mamunm/psp/gbrv1.5pbe/Al.UPF
     MD5 check sum: 0a6289f5291fc8f409219462bc851e1f
     Pseudo is Ultrasoft + core correction, Zval =  3.0
     Generated by new atomic code, or converted to UPF format
     Using radial grid of  893 points,  3 beta functions with:
                l(1) =   0
                l(2) =   1
                l(3) =   2
     Q(r) pseudized with  8 coefficients,  rinner =    0.900   0.900   0.900
                                                       0.900   0.900

     PseudoPot. # 2 for Sn read from file:
     /afs/slac.stanford.edu/u/if/mamunm/psp/gbrv1.5pbe/Sn.UPF
     MD5 check sum: 469debedee59599fedebd795477fea03
     Pseudo is Ultrasoft + core correction, Zval = 14.0
     Generated by new atomic code, or converted to UPF format
     Using radial grid of  891 points,  6 beta functions with:
                l(1) =   0
                l(2) =   0
                l(3) =   1
                l(4) =   1
                l(5) =   2
                l(6) =   2
     Q(r) pseudized with  8 coefficients,  rinner =    1.350   1.350   1.350
                                                       1.350   1.350

     vdW kernel table read from file vdW_kernel_table
     MD5 check sum: 095c7af220d748ca6e76c0b4c6cfb241

     atomic species   valence    mass     pseudopotential
        Al1            3.00    26.98154     Al( 1.00)
        Sn1           14.00   118.71000     Sn( 1.00)

     No symmetry found

   Cartesian axes

     site n.     atom                  positions (alat units)
         1           Al1 tau(   1) = (   0.0000000   0.0000000  10.0000000  )
         2           Al1 tau(   2) = (   4.3805117   2.8492898  10.0000000  )
         3           Sn1 tau(   3) = (   3.1169115   0.0000000  10.0000000  )
         4           Sn1 tau(   4) = (   1.2636002   2.8492898  10.0000000  )
         5           Al1 tau(   5) = (   6.2338231   4.0547702  12.5817182  )
         6           Al1 tau(   6) = (   1.8533114   1.2054804  12.5817182  )
         7           Sn1 tau(   7) = (   3.1169115   4.0547702  12.5817182  )
         8           Sn1 tau(   8) = (   4.9702229   1.2054804  12.5817182  )
         9           Al1 tau(   9) = (   3.2286703   2.1000646  14.8777932  )
        10           Al1 tau(  10) = (   7.6092013   4.9493461  14.8777954  )
        11           Sn1 tau(  11) = (   6.4179164   2.1470936  15.2698960  )
        12           Sn1 tau(  12) = (   4.5646320   4.9963958  15.2699621  )

     number of k points=    20  Fermi-Dirac smearing, width (Ry)=  0.0110
                       cart. coord. in units 2pi/alat
        k(    1) = (   0.0000000   0.0000000   0.0000000), wk =   0.0555556
        k(    2) = (   0.0000000   0.0292471   0.0000000), wk =   0.1111111
        k(    3) = (   0.0000000   0.0584941   0.0000000), wk =   0.1111111
        k(    4) = (   0.0000000  -0.0877412   0.0000000), wk =   0.0555556
        k(    5) = (   0.0267359  -0.0118568   0.0000000), wk =   0.1111111
        k(    6) = (   0.0267359   0.0173903   0.0000000), wk =   0.1111111
        k(    7) = (   0.0267359   0.0466373   0.0000000), wk =   0.1111111
        k(    8) = (   0.0267359  -0.0995980   0.0000000), wk =   0.1111111
        k(    9) = (   0.0267359  -0.0703509   0.0000000), wk =   0.1111111
        k(   10) = (   0.0267359  -0.0411039   0.0000000), wk =   0.1111111
        k(   11) = (   0.0534717  -0.0237136   0.0000000), wk =   0.1111111
        k(   12) = (   0.0534717   0.0055335   0.0000000), wk =   0.1111111
        k(   13) = (   0.0534717   0.0347805   0.0000000), wk =   0.1111111
        k(   14) = (   0.0534717  -0.1114548   0.0000000), wk =   0.1111111
        k(   15) = (   0.0534717  -0.0822077   0.0000000), wk =   0.1111111
        k(   16) = (   0.0534717  -0.0529606   0.0000000), wk =   0.1111111
        k(   17) = (  -0.0802076   0.0355704   0.0000000), wk =   0.0555556
        k(   18) = (  -0.0802076   0.0648174   0.0000000), wk =   0.1111111
        k(   19) = (  -0.0802076   0.0940645   0.0000000), wk =   0.1111111
        k(   20) = (  -0.0802076  -0.0521708   0.0000000), wk =   0.0555556

     Largest allocated arrays     est. size (Mb)     dimensions
     Largest temporary arrays     est. size (Mb)     dimensions

     Initial potential from superposition of free atoms
     Check: negative starting charge=   -0.000921

     starting charge   95.98494, renormalised to  102.00000

[...]

     *
     * You are using vdW-DF for exchange-correlation in this calculation.
     * Please cite the following three references that made this development
     * possible:
     *
     *   M. Dion, H. Rydberg, E. Schroder, D. C. Langreth, and
     *   B. I. Lundqvist, Phys. Rev. Lett. 92, 246401 (2004).
     *
     *   T. Thonhauser, V. R. Cooper, S. Li, A. Puzder, P. Hyldgaard, and
     *   D. C. Langreth, Phys. Rev. B 76, 125112 (2007).
     *
     *   G. Roman-Perez and J. M. Soler, Phys. Rev. Lett. 103, 096102 (2009).
     *
     *
     * If you are using vdW-DF2, please also cite:
     *
     *   K. Lee, E. D. Murray, L. Kong, B. I. Lundqvist, and
     *   D. C. Langreth, Phys. Rev. B 82, 081101(R) (2010).
     *
     *
     * If you are calculating the stress with vdW-DF, please also cite:
     *
     *   R. Sabatini, E. Kucukbenli, B. Kolb, T. Thonhauser, and
     *   S. de Gironcoli, J. Phys.: Condens. Matter 24, 424209 (2012).
     *

     Carrying out vdW-DF run using the following parameters:

     Nqs =      20    Nr_points =    1024   r_max =   100.000
     q_mesh =
               0.00001000     0.04494208     0.09755937     0.15916263
               0.23128650     0.31572767     0.41458969     0.53033537
               0.66584808     0.82450364     1.01025438     1.22772762
               1.48234092     1.78043706     2.12944203     2.53805004
               3.01644009     3.57652955     4.23227104     5.00000000

     Gradients computed in reciprocal space

[...]

     Starting wfc are   78 randomized atomic wfcs +    3 random wfc

     Self-consistent Calculation

[...]

     total energy              =   -1005.20936506 Ry
     Harris-Foulkes estimate   =   -1005.20936784 Ry
     estimated scf accuracy    <       0.00000516 Ry

     iteration # 15     ecut=    36.75 Ry     beta=0.10
     Davidson diagonalization with overlap
     ethr =  5.06E-09,  avg # of iterations =  2.0

[...]

     negative rho (up, down):  4.030E-04 0.000E+00

     Adding external electric field

     Computed dipole along edir(3) :
        Dipole               -0.0194 Ry au,         -0.0492 Debye
        Dipole field         -0.0000 Ry au

        Potential amp.        0.0037 Ry
        Total length         46.3632 bohr

     End of self-consistent calculation

[...]

          k = 0.0535-0.0530 0.0000 ( 22668 PWs)   bands (ev):

[...]

          k =-0.0802-0.0522 0.0000 ( 22688 PWs)   bands (ev):

   -22.0249 -21.9771 -21.9721 -21.9706 -21.9536 -21.9429 -21.9365 -21.9339
   -21.9337 -21.9318 -21.9264 -21.9160 -21.9070 -21.9033 -21.8980 -21.8957
   -21.8894 -21.8882 -21.8867 -21.8814 -21.8698 -21.8690 -21.8683 -21.8640
   -21.8620 -21.8571 -21.8444 -21.8343 -21.8290 -21.8064  -9.4832  -8.9998
    -8.1770  -7.7995  -6.9453  -6.5134  -6.4895  -5.3777  -4.9531  -4.9105
    -4.8710  -2.9242  -1.9075  -1.5974  -1.3681  -1.2536  -1.1626  -1.0863
    -0.7279   0.1394   0.2399   0.4066   0.7720   0.9724   1.0816   1.6988
     1.7777   2.1783   2.1792   2.3554   2.5482   2.7636   3.0773   3.1021
     3.3122   3.5275   3.5350   3.5461   3.8316   3.9203   4.3342   4.5666
     4.5906   4.6758   4.9861   5.0577   5.1843   5.3338   5.3611   5.3660
     5.5200

     the Fermi energy is    -0.0090 ev

!    total energy              =   -1005.20936544 Ry
     Harris-Foulkes estimate   =   -1005.20936634 Ry
     estimated scf accuracy    <       0.00000027 Ry

     The total energy is the sum of the following terms:

     one-electron contribution =   -4444.79346244 Ry
     hartree contribution      =    2255.53931252 Ry
     xc contribution           =    -293.07772563 Ry
     ewald contribution        =    1477.15407824 Ry
     electric field correction =       0.00000078 Ry
     smearing contrib. (-TS)   =      -0.03156891 Ry

     convergence has been achieved in  15 iterations

 BEEF-vdW xc energy contributions
           1 :   -256.048055613353
           2 :    233.150397329397
           3 :   -194.789765496263
           4 :    152.161360768148
           5 :   -115.305613017221
           6 :    89.5344085662984
           7 :   -74.6430501973763
           8 :    66.7111168967710
           9 :   -61.0644659894116
          10 :    54.6818670702699
          11 :   -47.0422680491978
          12 :    39.4583767349166
          13 :   -33.6845670996726
          14 :    30.6877743384036
          15 :   -30.1323144385135
          16 :    30.6564627008741
          17 :   -30.6727105354064
          18 :    29.2364167257986
          19 :   -26.5222485989361
          20 :    23.6321662760493
          21 :   -21.8367544846475
          22 :    21.7195929326288
          23 :   -22.7954533347871
          24 :    23.8647555219184
          25 :   -23.8510388516037
          26 :    22.5162122011833
          27 :   -20.5527009601580
          28 :    19.0220891201379
          29 :   -18.5887578123874
          30 :    19.1093426825747
          31 :   -23.7137916134341
          32 :   -17.2569776686552

     Forces acting on atoms (Ry/au):

     negative rho (up, down):  4.030E-04 0.000E+00
     atom    1 type  1   force =     0.00166503    0.00108328    0.01060765
     atom    2 type  1   force =     0.00166527    0.00108289    0.01060765
     atom    3 type  2   force =     0.00015452    0.00009957    0.00435721
     atom    4 type  2   force =     0.00015395    0.00010065    0.00435795
     atom    5 type  1   force =    -0.00397963   -0.00258783   -0.00218854
     atom    6 type  1   force =    -0.00397920   -0.00258898   -0.00218903
     atom    7 type  2   force =     0.00251287    0.00163352   -0.01240473
     atom    8 type  2   force =     0.00251071    0.00163464   -0.01240935
     atom    9 type  1   force =     0.00004540    0.00003021    0.00105220
     atom   10 type  1   force =     0.00004528    0.00002906    0.00105205
     atom   11 type  2   force =    -0.00039628   -0.00025761   -0.00142008
     atom   12 type  2   force =    -0.00039792   -0.00025941   -0.00142298

     Total force =     0.025655     Total SCF correction =     0.001906

     entering subroutine stress ...

     negative rho (up, down):  4.030E-04 0.000E+00
          total   stress  (Ry/bohr**3)                   (kbar)     P=   -6.58
  -0.00004958  -0.00000209  -0.00000275         -7.29     -0.31     -0.40
  -0.00000209  -0.00004773  -0.00000179         -0.31     -7.02     -0.26
  -0.00000275  -0.00000179  -0.00003697         -0.40     -0.26     -5.44

 !ASE

     Writing output data file calc.save

     General routines

     Parallel routines

   This run was terminated on:  22: 0: 9  18Dec2018

   JOB DONE.
Job  /afs/slac/g/suncat/bin/suncat-tsmpirun -x LD_LIBRARY_PATH -wdir /scratch/qe529613_x2LDd pw.x -in pw.inp

TID   HOST_NAME   COMMAND_LINE            STATUS            TERMINATION_TIME
00000 suncat0065 pw.x -in pw.inp   Done                     12/18/2018 22:00:09
00001 suncat0065 pw.x -in pw.inp   Done                     12/18/2018 22:00:09
00002 suncat0065 pw.x -in pw.inp   Done                     12/18/2018 22:00:09
00003 suncat0065 pw.x -in pw.inp   Done                     12/18/2018 22:00:09
00004 suncat0065 pw.x -in pw.inp   Done                     12/18/2018 22:00:09
00005 suncat0065 pw.x -in pw.inp   Done                     12/18/2018 22:00:09
00006 suncat0065 pw.x -in pw.inp   Done                     12/18/2018 22:00:09
00007 suncat0065 pw.x -in pw.inp   Done                     12/18/2018 22:00:09
00008 suncat0064 pw.x -in pw.inp   Done                     12/18/2018 22:00:09
00009 suncat0064 pw.x -in pw.inp   Done                     12/18/2018 22:00:09
00010 suncat0064 pw.x -in pw.inp   Done                     12/18/2018 22:00:09
00011 suncat0064 pw.x -in pw.inp   Done                     12/18/2018 22:00:09
00012 suncat0064 pw.x -in pw.inp   Done                     12/18/2018 22:00:09
00013 suncat0064 pw.x -in pw.inp   Done                     12/18/2018 22:00:09
00014 suncat0064 pw.x -in pw.inp   Done                     12/18/2018 22:00:09
00015 suncat0064 pw.x -in pw.inp   Done                     12/18/2018 22:00:09
00016 suncat0063 pw.x -in pw.inp   Done                     12/18/2018 22:00:09
00017 suncat0063 pw.x -in pw.inp   Done                     12/18/2018 22:00:09
00018 suncat0063 pw.x -in pw.inp   Done                     12/18/2018 22:00:09
00019 suncat0063 pw.x -in pw.inp   Done                     12/18/2018 22:00:09
00020 suncat0063 pw.x -in pw.inp   Done                     12/18/2018 22:00:09
00021 suncat0063 pw.x -in pw.inp   Done                     12/18/2018 22:00:09
00022 suncat0063 pw.x -in pw.inp   Done                     12/18/2018 22:00:09
00023 suncat0063 pw.x -in pw.inp   Done                     12/18/2018 22:00:09
00024 suncat0062 pw.x -in pw.inp   Done                     12/18/2018 22:00:09
00025 suncat0062 pw.x -in pw.inp   Done                     12/18/2018 22:00:09
00026 suncat0062 pw.x -in pw.inp   Done                     12/18/2018 22:00:09
00027 suncat0062 pw.x -in pw.inp   Done                     12/18/2018 22:00:09
00028 suncat0062 pw.x -in pw.inp   Done                     12/18/2018 22:00:09
00029 suncat0062 pw.x -in pw.inp   Done                     12/18/2018 22:00:09
00030 suncat0062 pw.x -in pw.inp   Done                     12/18/2018 22:00:09
00031 suncat0062 pw.x -in pw.inp   Done                     12/18/2018 22:00:09