     Program PWSCF v.5.1rc2 (svn rev. 11289) starts on 29Dec2018 at 11:29:52

     Current dimensions of program PWSCF are:
     Max number of different atomic species (ntypx) = 10
     Max number of k-points (npk) =  40000
     Max angular momentum in pseudopotentials (lmaxx) =  3
     Presently stress not available with electric field

     IMPORTANT: XC functional enforced from input :
     Exchange-correlation      = BEEF-VDW ( 1  4 27 13 2)
     Any further DFT definition will be discarded
     Please, verify this is what you really want

     Subspace diagonalization in iterative solution of the eigenvalue problem:
     a serial algorithm will be used

     Found symmetry operation: I + ( -0.5000 -0.5000  0.0000)
     This is a supercell, fractional translations are disabled

     bravais-lattice index     =            0
     lattice parameter (alat)  =       1.8897  a.u.
     unit-cell volume          =    6148.4672 (a.u.)^3
     number of atoms/cell      =           12
     number of atomic types    =            2
     number of electrons       =       156.00
     number of Kohn-Sham states=          108
     kinetic-energy cutoff     =      36.7493  Ry
     charge density cutoff     =     367.4932  Ry
     convergence threshold     =      1.0E-06
     mixing beta               =       0.1000
     number of iterations used =           10  plain     mixing
     Exchange-correlation      = BEEF-VDW ( 1  4 27 13 2)
     nstep                     =           50

     celldm(1)=   1.889726  celldm(2)=   0.000000  celldm(3)=   0.000000
     celldm(4)=   0.000000  celldm(5)=   0.000000  celldm(6)=   0.000000

     crystal axes: (cart. coord. in units of alat)
               a(1) = (   6.208390   0.000000   0.000000 )
               a(2) = (   2.067103   5.854160   0.000000 )
               a(3) = (   0.000000   0.000000  25.068405 )

     reciprocal axes: (cart. coord. in units 2 pi/alat)
               b(1) = (  0.161072 -0.056875  0.000000 )
               b(2) = (  0.000000  0.170819  0.000000 )
               b(3) = (  0.000000  0.000000  0.039891 )

     PseudoPot. # 1 for La read from file:
     /afs/slac.stanford.edu/u/if/mamunm/psp/gbrv1.5pbe/La.UPF
     MD5 check sum: 5937b0c7494ba0601a847275249473aa
     Pseudo is Ultrasoft + core correction, Zval = 11.0
     Generated by new atomic code, or converted to UPF format
     Using radial grid of  995 points,  8 beta functions with:
                l(1) =   0
                l(2) =   0
                l(3) =   1
                l(4) =   1
                l(5) =   2
                l(6) =   2
                l(7) =   3
                l(8) =   3
     Q(r) pseudized with  8 coefficients,  rinner =    1.700   1.700   1.700
                                                       1.700   1.700   1.700
                                                       1.700

     PseudoPot. # 2 for Tc read from file:
     /afs/slac.stanford.edu/u/if/mamunm/psp/gbrv1.5pbe/Tc.UPF
     MD5 check sum: 9eb49e5b028550b2339a02317eb7b844
     Pseudo is Ultrasoft + core correction, Zval = 15.0
     Generated by new atomic code, or converted to UPF format
     Using radial grid of  965 points,  6 beta functions with:
                l(1) =   0
                l(2) =   0
                l(3) =   1
                l(4) =   1
                l(5) =   2
                l(6) =   2
     Q(r) pseudized with  8 coefficients,  rinner =    1.300   1.300   1.300
                                                       1.300   1.300

     vdW kernel table read from file vdW_kernel_table
     MD5 check sum: 095c7af220d748ca6e76c0b4c6cfb241

     atomic species   valence    mass     pseudopotential
        La1           11.00   138.90547     La( 1.00)
        Tc1           15.00    97.90721     Tc( 1.00)

     No symmetry found

   Cartesian axes

     site n.     atom                  positions (alat units)
         1           La1 tau(   1) = (   0.0000000   0.0000000  10.0000000  )
         2           La1 tau(   2) = (   4.1377465   2.9270800  10.0000000  )
         3           Tc1 tau(   3) = (   3.1041949   0.0000000  10.0000000  )
         4           Tc1 tau(   4) = (   1.0335516   2.9270800  10.0000000  )
         5           La1 tau(   5) = (   6.2083898   4.3918721  12.5342023  )
         6           La1 tau(   6) = (   2.0706433   1.4647921  12.5342023  )
         7           Tc1 tau(   7) = (   3.1041949   4.3918721  12.5342023  )
         8           Tc1 tau(   8) = (   5.1748382   1.4647921  12.5342023  )
         9           La1 tau(   9) = (   4.1412866   2.9295842  15.0684046  )
        10           La1 tau(  10) = (   0.0035401   0.0025043  15.0684046  )
        11           Tc1 tau(  11) = (   1.0370917   2.9295842  15.0684046  )
        12           Tc1 tau(  12) = (   3.1077350   0.0025043  15.0684046  )

     number of k points=    20  Fermi-Dirac smearing, width (Ry)=  0.0110
                       cart. coord. in units 2pi/alat
        k(    1) = (   0.0000000   0.0000000   0.0000000), wk =   0.0555556
        k(    2) = (   0.0000000   0.0284698   0.0000000), wk =   0.1111111
        k(    3) = (   0.0000000   0.0569396   0.0000000), wk =   0.1111111
        k(    4) = (   0.0000000  -0.0854094   0.0000000), wk =   0.0555556
        k(    5) = (   0.0268454  -0.0094791   0.0000000), wk =   0.1111111
        k(    6) = (   0.0268454   0.0189907   0.0000000), wk =   0.1111111
        k(    7) = (   0.0268454   0.0474605   0.0000000), wk =   0.1111111
        k(    8) = (   0.0268454  -0.0948885   0.0000000), wk =   0.1111111
        k(    9) = (   0.0268454  -0.0664187   0.0000000), wk =   0.1111111
        k(   10) = (   0.0268454  -0.0379489   0.0000000), wk =   0.1111111
        k(   11) = (   0.0536908  -0.0189582   0.0000000), wk =   0.1111111
        k(   12) = (   0.0536908   0.0095116   0.0000000), wk =   0.1111111
        k(   13) = (   0.0536908   0.0379814   0.0000000), wk =   0.1111111
        k(   14) = (   0.0536908  -0.1043676   0.0000000), wk =   0.1111111
        k(   15) = (   0.0536908  -0.0758978   0.0000000), wk =   0.1111111
        k(   16) = (   0.0536908  -0.0474280   0.0000000), wk =   0.1111111
        k(   17) = (  -0.0805362   0.0284373   0.0000000), wk =   0.0555556
        k(   18) = (  -0.0805362   0.0569071   0.0000000), wk =   0.1111111
        k(   19) = (  -0.0805362   0.0853769   0.0000000), wk =   0.1111111
        k(   20) = (  -0.0805362  -0.0569720   0.0000000), wk =   0.0555556

     Largest allocated arrays     est. size (Mb)     dimensions
     Largest temporary arrays     est. size (Mb)     dimensions

     Check: negative/imaginary core charge=   -0.000012    0.000000

     Initial potential from superposition of free atoms
     Check: negative starting charge=   -1.173664

     starting charge  149.80742, renormalised to  156.00000

     negative rho (up, down):  1.222E+00 0.000E+00

     *
     * You are using vdW-DF for exchange-correlation in this calculation.
     * Please cite the following three references that made this development
     * possible:
     *
     *   M. Dion, H. Rydberg, E. Schroder, D. C. Langreth, and
     *   B. I. Lundqvist, Phys. Rev. Lett. 92, 246401 (2004).
     *
     *   T. Thonhauser, V. R. Cooper, S. Li, A. Puzder, P. Hyldgaard, and
     *   D. C. Langreth, Phys. Rev. B 76, 125112 (2007).
     *
     *   G. Roman-Perez and J. M. Soler, Phys. Rev. Lett. 103, 096102 (2009).
     *
     *
     * If you are using vdW-DF2, please also cite:
     *
     *   K. Lee, E. D. Murray, L. Kong, B. I. Lundqvist, and
     *   D. C. Langreth, Phys. Rev. B 82, 081101(R) (2010).
     *
     *
     * If you are calculating the stress with vdW-DF, please also cite:
     *
     *   R. Sabatini, E. Kucukbenli, B. Kolb, T. Thonhauser, and
     *   S. de Gironcoli, J. Phys.: Condens. Matter 24, 424209 (2012).
     *

     Carrying out vdW-DF run using the following parameters:

     Nqs =      20    Nr_points =    1024   r_max =   100.000
     q_mesh =
               0.00001000     0.04494208     0.09755937     0.15916263
               0.23128650     0.31572767     0.41458969     0.53033537
               0.66584808     0.82450364     1.01025438     1.22772762
               1.48234092     1.78043706     2.12944203     2.53805004
               3.01644009     3.57652955     4.23227104     5.00000000

     Gradients computed in reciprocal space

     Adding external electric field

     Computed dipole along edir(3) :
        Dipole                0.0000 Ry au,          0.0000 Debye
        Dipole field          0.0000 Ry au

        Potential amp.       -0.0000 Ry
        Total length         46.1881 bohr

     Starting wfc are  198 randomized atomic wfcs

     Self-consistent Calculation

     iteration #  1     ecut=    36.75 Ry     beta=0.10
     Davidson diagonalization with overlap
     ethr =  1.00E-02,  avg # of iterations =  2.0

[...]

     total energy              =   -1674.77548782 Ry
     Harris-Foulkes estimate   =   -1677.12624626 Ry
     estimated scf accuracy    <      13.60416735 Ry

[...]

     iteration # 14     ecut=    36.75 Ry     beta=0.10
     Davidson diagonalization with overlap
     c_bands:  1 eigenvalues not converged
     c_bands:  1 eigenvalues not converged
     ethr =  8.42E-07,  avg # of iterations = 10.3

[...]

     End of self-consistent calculation

          k = 0.0000 0.0000 0.0000 ( 23149 PWs)   bands (ev):

   -63.9754 -63.9736 -63.8706 -63.8706 -63.8688 -63.8687 -36.0536 -36.0516
   -36.0488 -36.0470 -36.0178 -35.9754 -35.9607 -35.9599 -35.9424 -35.9387
   -35.9362 -35.9344 -35.9201 -35.9200 -35.9154 -35.9142 -35.9117 -35.9097
   -30.2663 -30.2512 -30.1502 -30.1471 -29.5696 -29.4710 -14.4716 -14.4429
   -14.1308 -14.0641 -14.0452 -14.0365 -14.0003 -13.8953 -13.8880 -13.8476
   -13.7889 -13.4158 -13.4124 -13.2617 -13.2011 -13.0511 -13.0488 -12.7553
    -1.3029  -0.7877  -0.7837  -0.7258  -0.5162  -0.4341  -0.3197   0.0023
     0.0310   0.0494   0.1788   0.3079   0.6169   0.7544   0.7555   0.8143
     0.8167   0.8287   0.9263   1.0504   1.1446   1.2485   1.3366   1.5853
     1.6924   1.7169   2.1542   2.1652   2.1811   2.3898   2.4968   2.6517
     2.7611   3.4163   3.4682   3.5334   3.6099   3.6668   3.6910   3.7643
     4.3765   4.4053   4.4066   4.4110   4.4336   4.4819   4.5355   4.5890
     4.5953   4.6197   4.6501   4.6611   4.7357   4.7588   4.7664   4.7748
     4.8356   4.8491   4.8643   4.9140

[...]

          k =-0.0805 0.0284 0.0000 ( 23102 PWs)   bands (ev):

[...]

     the Fermi energy is     2.1455 ev

!    total energy              =   -1675.48515056 Ry
     Harris-Foulkes estimate   =   -1675.48514817 Ry
     estimated scf accuracy    <       0.00000071 Ry

     The total energy is the sum of the following terms:

     one-electron contribution =   -9630.18030270 Ry
     hartree contribution      =    4825.24167912 Ry
     xc contribution           =    -503.85749503 Ry
     ewald contribution        =    3633.43198613 Ry
     electric field correction =       0.00000002 Ry
     smearing contrib. (-TS)   =      -0.12101811 Ry

     convergence has been achieved in  24 iterations

 BEEF-vdW xc energy contributions
[...]
     Pseudo is Ultrasoft + core correction, Zval = 11.0
     Generated by new atomic code, or converted to UPF format
     Using radial grid of  995 points,  8 beta functions with:
                l(1) =   0
                l(2) =   0
                l(3) =   1
                l(4) =   1
                l(5) =   2
                l(6) =   2
                l(7) =   3
                l(8) =   3
     Q(r) pseudized with  8 coefficients,  rinner =    1.700   1.700   1.700
                                                       1.700   1.700   1.700
                                                       1.700

     PseudoPot. # 2 for Tc read from file:
     /afs/slac.stanford.edu/u/if/mamunm/psp/gbrv1.5pbe/Tc.UPF
     MD5 check sum: 9eb49e5b028550b2339a02317eb7b844
     Pseudo is Ultrasoft + core correction, Zval = 15.0
     Generated by new atomic code, or converted to UPF format
     Using radial grid of  965 points,  6 beta functions with:
                l(1) =   0
                l(2) =   0
                l(3) =   1
                l(4) =   1
                l(5) =   2
                l(6) =   2
     Q(r) pseudized with  8 coefficients,  rinner =    1.300   1.300   1.300
                                                       1.300   1.300

     vdW kernel table read from file vdW_kernel_table
     MD5 check sum: 095c7af220d748ca6e76c0b4c6cfb241

     atomic species   valence    mass     pseudopotential
        La1           11.00   138.90547     La( 1.00)
        Tc1           15.00    97.90721     Tc( 1.00)

     No symmetry found

   Cartesian axes

     site n.     atom                  positions (alat units)
         1           La1 tau(   1) = (   0.0000000   0.0000000  10.0000000  )
         2           La1 tau(   2) = (   4.1377465   2.9270800  10.0000000  )
         3           Tc1 tau(   3) = (   3.1041949   0.0000000  10.0000000  )
         4           Tc1 tau(   4) = (   1.0335516   2.9270800  10.0000000  )
         5           La1 tau(   5) = (   6.2083898   4.3918721  12.5342023  )
         6           La1 tau(   6) = (   2.0706433   1.4647921  12.5342023  )
         7           Tc1 tau(   7) = (   3.1041949   4.3918721  12.5342023  )
         8           Tc1 tau(   8) = (   5.1748382   1.4647921  12.5342023  )
         9           La1 tau(   9) = (   4.1393002   2.9281929  15.1012074  )
        10           La1 tau(  10) = (   0.0015674   0.0010952  15.1012229  )
        11           Tc1 tau(  11) = (   1.0380748   2.9302664  14.5332517  )
        12           Tc1 tau(  12) = (   3.1087832   0.0032528  14.5332608  )

     number of k points=    20  Fermi-Dirac smearing, width (Ry)=  0.0110
                       cart. coord. in units 2pi/alat
        k(    1) = (   0.0000000   0.0000000   0.0000000), wk =   0.0555556
        k(    2) = (   0.0000000   0.0284698   0.0000000), wk =   0.1111111
        k(    3) = (   0.0000000   0.0569396   0.0000000), wk =   0.1111111
        k(    4) = (   0.0000000  -0.0854094   0.0000000), wk =   0.0555556
        k(    5) = (   0.0268454  -0.0094791   0.0000000), wk =   0.1111111
        k(    6) = (   0.0268454   0.0189907   0.0000000), wk =   0.1111111
        k(    7) = (   0.0268454   0.0474605   0.0000000), wk =   0.1111111
        k(    8) = (   0.0268454  -0.0948885   0.0000000), wk =   0.1111111
        k(    9) = (   0.0268454  -0.0664187   0.0000000), wk =   0.1111111
        k(   10) = (   0.0268454  -0.0379489   0.0000000), wk =   0.1111111
        k(   11) = (   0.0536908  -0.0189582   0.0000000), wk =   0.1111111
        k(   12) = (   0.0536908   0.0095116   0.0000000), wk =   0.1111111
        k(   13) = (   0.0536908   0.0379814   0.0000000), wk =   0.1111111
        k(   14) = (   0.0536908  -0.1043676   0.0000000), wk =   0.1111111
        k(   15) = (   0.0536908  -0.0758978   0.0000000), wk =   0.1111111
        k(   16) = (   0.0536908  -0.0474280   0.0000000), wk =   0.1111111
        k(   17) = (  -0.0805362   0.0284373   0.0000000), wk =   0.0555556
        k(   18) = (  -0.0805362   0.0569071   0.0000000), wk =   0.1111111
        k(   19) = (  -0.0805362   0.0853769   0.0000000), wk =   0.1111111
        k(   20) = (  -0.0805362  -0.0569720   0.0000000), wk =   0.0555556

     Largest allocated arrays     est. size (Mb)     dimensions
     Largest temporary arrays     est. size (Mb)     dimensions

     Check: negative/imaginary core charge=   -0.000012    0.000000

     Initial potential from superposition of free atoms
     Check: negative starting charge=   -1.175007

     starting charge  149.80742, renormalised to  156.00000

[...]

     *
     * You are using vdW-DF for exchange-correlation in this calculation.
     * Please cite the following three references that made this development
     * possible:
     *
     *   M. Dion, H. Rydberg, E. Schroder, D. C. Langreth, and
     *   B. I. Lundqvist, Phys. Rev. Lett. 92, 246401 (2004).
     *
     *   T. Thonhauser, V. R. Cooper, S. Li, A. Puzder, P. Hyldgaard, and
     *   D. C. Langreth, Phys. Rev. B 76, 125112 (2007).
     *
     *   G. Roman-Perez and J. M. Soler, Phys. Rev. Lett. 103, 096102 (2009).
     *
     *
     * If you are using vdW-DF2, please also cite:
     *
     *   K. Lee, E. D. Murray, L. Kong, B. I. Lundqvist, and
     *   D. C. Langreth, Phys. Rev. B 82, 081101(R) (2010).
     *
     *
     * If you are calculating the stress with vdW-DF, please also cite:
     *
     *   R. Sabatini, E. Kucukbenli, B. Kolb, T. Thonhauser, and
     *   S. de Gironcoli, J. Phys.: Condens. Matter 24, 424209 (2012).
     *

     Carrying out vdW-DF run using the following parameters:

     Nqs =      20    Nr_points =    1024   r_max =   100.000
     q_mesh =
               0.00001000     0.04494208     0.09755937     0.15916263
               0.23128650     0.31572767     0.41458969     0.53033537
               0.66584808     0.82450364     1.01025438     1.22772762
               1.48234092     1.78043706     2.12944203     2.53805004
               3.01644009     3.57652955     4.23227104     5.00000000

     Gradients computed in reciprocal space

[...]

     Starting wfc are  198 randomized atomic wfcs

     Self-consistent Calculation

[...]

     total energy              =   -1675.53340264 Ry
     Harris-Foulkes estimate   =   -1675.53340212 Ry
     estimated scf accuracy    <       0.00000162 Ry

     iteration # 24     ecut=    36.75 Ry     beta=0.10
     Davidson diagonalization with overlap
     ethr =  8.63E-10,  avg # of iterations =  3.1

[...]

     negative rho (up, down):  1.003E+00 0.000E+00

     Adding external electric field

     Computed dipole along edir(3) :
        Dipole                0.1821 Ry au,          0.4630 Debye
        Dipole field          0.0004 Ry au

        Potential amp.       -0.0344 Ry
        Total length         46.1881 bohr

     End of self-consistent calculation

[...]

          k = 0.0537-0.0474 0.0000 ( 23146 PWs)   bands (ev):

[...]

          k =-0.0805-0.0570 0.0000 ( 23044 PWs)   bands (ev):

   -63.8602 -63.8586 -63.7803 -63.7780 -63.7226 -63.7208 -35.9803 -35.9706
   -35.9475 -35.9288 -35.9196 -35.8727 -35.8710 -35.8700 -35.8660 -35.8467
   -35.8399 -35.8325 -35.8168 -35.8019 -35.7975 -35.7752 -35.7512 -35.7419
   -30.3627 -30.2647 -30.0550 -29.9595 -29.1192 -29.0210 -14.5979 -14.3368
   -14.2175 -14.1894 -14.0346 -13.9565 -13.8971 -13.8870 -13.7559 -13.6901
   -13.5992 -13.5257 -13.2470 -12.9446 -12.9160 -12.8892 -12.7764 -12.5062
    -0.1469   0.2623   0.3001   0.4144   0.4450   0.4497   0.5639   0.7963
     0.8300   0.9863   1.0165   1.0275   1.0514   1.2040   1.2440   1.3488
     1.3518   1.3813   1.6102   1.6217   1.7097   1.7516   1.8553   1.9243
     1.9862   2.0091   2.0468   2.0859   2.1123   2.1990   2.2127   2.2745
     2.3573   2.3740   2.3861   2.4032   2.6377   2.9072   2.9680   3.2704
     3.5917   3.6388   3.7511   3.9788   4.0597   4.1330   4.1380   4.2325
     4.2461   4.4584   4.4881   4.5949   4.6723   4.7707   4.7723   4.7784
     4.7883   4.7991   4.8766   4.8913

     the Fermi energy is     2.3263 ev

!    total energy              =   -1675.53340558 Ry
     Harris-Foulkes estimate   =   -1675.53340415 Ry
     estimated scf accuracy    <       0.00000034 Ry

     The total energy is the sum of the following terms:

     one-electron contribution =  -10020.68323974 Ry
     hartree contribution      =    5021.27282450 Ry
     xc contribution           =    -504.19815139 Ry
     ewald contribution        =    3828.18667819 Ry
     electric field correction =       0.00006781 Ry
     smearing contrib. (-TS)   =      -0.11158495 Ry

     convergence has been achieved in  24 iterations

 BEEF-vdW xc energy contributions
           1 :   -444.949433310836
           2 :    409.256877614712
           3 :   -345.846471100767
           4 :    267.727022847795
           5 :   -188.931965383775
           6 :    120.732643433547
           7 :   -69.4363722336685
           8 :    35.9971498925744
           9 :   -17.2518585254963
          10 :    8.01982139006645
          11 :   -3.27198632279931
          12 :  -0.418089613603001
          13 :    4.42305042244868
          14 :   -8.49691772036988
          15 :    11.6199910439611
          16 :   -12.8221751137272
          17 :    11.6746448469073
          18 :   -8.40922065834059
          19 :    3.75184418730760
          20 :    1.33508575402607
          21 :   -5.87888387283760
          22 :    9.03133736738340
          23 :   -10.1607582866221
          24 :    8.93758098651352
          25 :   -5.43026714507539
          26 :   0.158917220283911
          27 :    5.94661022617265
          28 :   -11.7241682093365
          29 :    16.0605514385619
          30 :   -18.1944250597520
          31 :   -39.4505611651081
          32 :   -28.5212460143210

     Forces acting on atoms (Ry/au):

     negative rho (up, down):  1.003E+00 0.000E+00
     atom    1 type  1   force =     0.00013448    0.00011092   -0.02689331
     atom    2 type  1   force =     0.00014988    0.00008990   -0.02689394
     atom    3 type  2   force =    -0.00000415   -0.00000190    0.04632787
     atom    4 type  2   force =    -0.00001415   -0.00000984    0.04633124
     atom    5 type  1   force =    -0.00008698   -0.00007534   -0.03198046
     atom    6 type  1   force =    -0.00010075   -0.00005805   -0.03198100
     atom    7 type  2   force =     0.00000505    0.00000392    0.01273374
     atom    8 type  2   force =     0.00001316    0.00000845    0.01273361
     atom    9 type  1   force =     0.00007110    0.00003316    0.00016552
     atom   10 type  1   force =     0.00005502    0.00005579    0.00016358
     atom   11 type  2   force =    -0.00011501   -0.00008098   -0.00035644
     atom   12 type  2   force =    -0.00010765   -0.00007601   -0.00035042

     Total force =     0.090054     Total SCF correction =     0.001112

     entering subroutine stress ...

     negative rho (up, down):  1.003E+00 0.000E+00
          total   stress  (Ry/bohr**3)                   (kbar)     P=  -10.73
  -0.00010395  -0.00003282  -0.00000011        -15.29     -4.83     -0.02
  -0.00003282  -0.00008077  -0.00000008         -4.83    -11.88     -0.01
  -0.00000011  -0.00000008  -0.00003408         -0.02     -0.01     -5.01

 !ASE

     Writing output data file calc.save

     General routines

     Parallel routines

   This run was terminated on:  14:24:34  29Dec2018

   JOB DONE.
Job  /afs/slac/g/suncat/bin/suncat-tsmpirun -x LD_LIBRARY_PATH -wdir /scratch/qe387687_CA3Jx pw.x -in pw.inp

TID   HOST_NAME   COMMAND_LINE            STATUS            TERMINATION_TIME
00000 suncat0183 pw.x -in pw.inp   Done                     12/29/2018 14:24:34
00001 suncat0183 pw.x -in pw.inp   Done                     12/29/2018 14:24:34
00002 suncat0183 pw.x -in pw.inp   Done                     12/29/2018 14:24:34
00003 suncat0183 pw.x -in pw.inp   Done                     12/29/2018 14:24:34
00004 suncat0183 pw.x -in pw.inp   Done                     12/29/2018 14:24:34
00005 suncat0183 pw.x -in pw.inp   Done                     12/29/2018 14:24:34
00006 suncat0183 pw.x -in pw.inp   Done                     12/29/2018 14:24:34
00007 suncat0183 pw.x -in pw.inp   Done                     12/29/2018 14:24:34
00008 suncat0182 pw.x -in pw.inp   Done                     12/29/2018 14:24:34
00009 suncat0182 pw.x -in pw.inp   Done                     12/29/2018 14:24:34
00010 suncat0182 pw.x -in pw.inp   Done                     12/29/2018 14:24:34
00011 suncat0182 pw.x -in pw.inp   Done                     12/29/2018 14:24:34
00012 suncat0182 pw.x -in pw.inp   Done                     12/29/2018 14:24:34
00013 suncat0182 pw.x -in pw.inp   Done                     12/29/2018 14:24:34
00014 suncat0182 pw.x -in pw.inp   Done                     12/29/2018 14:24:34
00015 suncat0182 pw.x -in pw.inp   Done                     12/29/2018 14:24:34
00016 suncat0181 pw.x -in pw.inp   Done                     12/29/2018 14:24:34
00017 suncat0181 pw.x -in pw.inp   Done                     12/29/2018 14:24:34
00018 suncat0181 pw.x -in pw.inp   Done                     12/29/2018 14:24:34
00019 suncat0181 pw.x -in pw.inp   Done                     12/29/2018 14:24:34
00020 suncat0181 pw.x -in pw.inp   Done                     12/29/2018 14:24:34
00021 suncat0181 pw.x -in pw.inp   Done                     12/29/2018 14:24:34
00022 suncat0181 pw.x -in pw.inp   Done                     12/29/2018 14:24:34
00023 suncat0181 pw.x -in pw.inp   Done                     12/29/2018 14:24:34
00024 suncat0252 pw.x -in pw.inp   Done                     12/29/2018 14:24:34
00025 suncat0252 pw.x -in pw.inp   Done                     12/29/2018 14:24:34
00026 suncat0252 pw.x -in pw.inp   Done                     12/29/2018 14:24:34
00027 suncat0252 pw.x -in pw.inp   Done                     12/29/2018 14:24:34
00028 suncat0252 pw.x -in pw.inp   Done                     12/29/2018 14:24:34
00029 suncat0252 pw.x -in pw.inp   Done                     12/29/2018 14:24:34
00030 suncat0252 pw.x -in pw.inp   Done                     12/29/2018 14:24:34
00031 suncat0252 pw.x -in pw.inp   Done                     12/29/2018 14:24:34
00032 suncat0226 pw.x -in pw.inp   Done                     12/29/2018 14:24:34
00033 suncat0226 pw.x -in pw.inp   Done                     12/29/2018 14:24:34
00034 suncat0226 pw.x -in pw.inp   Done                     12/29/2018 14:24:34
00035 suncat0226 pw.x -in pw.inp   Done                     12/29/2018 14:24:34
00036 suncat0226 pw.x -in pw.inp   Done                     12/29/2018 14:24:34
00037 suncat0226 pw.x -in pw.inp   Done                     12/29/2018 14:24:34
00038 suncat0226 pw.x -in pw.inp   Done                     12/29/2018 14:24:34
00039 suncat0226 pw.x -in pw.inp   Done                     12/29/2018 14:24:34
00040 suncat0225 pw.x -in pw.inp   Done                     12/29/2018 14:24:34
00041 suncat0225 pw.x -in pw.inp   Done                     12/29/2018 14:24:34
00042 suncat0225 pw.x -in pw.inp   Done                     12/29/2018 14:24:34
00043 suncat0225 pw.x -in pw.inp   Done                     12/29/2018 14:24:34
00044 suncat0225 pw.x -in pw.inp   Done                     12/29/2018 14:24:34
00045 suncat0225 pw.x -in pw.inp   Done                     12/29/2018 14:24:34
00046 suncat0225 pw.x -in pw.inp   Done                     12/29/2018 14:24:34
00047 suncat0225 pw.x -in pw.inp   Done                     12/29/2018 14:24:34
00048 suncat0224 pw.x -in pw.inp   Done                     12/29/2018 14:24:34
00049 suncat0224 pw.x -in pw.inp   Done                     12/29/2018 14:24:34
00050 suncat0224 pw.x -in pw.inp   Done                     12/29/2018 14:24:34
00051 suncat0224 pw.x -in pw.inp   Done                     12/29/2018 14:24:34
00052 suncat0224 pw.x -in pw.inp   Done                     12/29/2018 14:24:34
00053 suncat0224 pw.x -in pw.inp   Done                     12/29/2018 14:24:34
00054 suncat0224 pw.x -in pw.inp   Done                     12/29/2018 14:24:34
00055 suncat0224 pw.x -in pw.inp   Done                     12/29/2018 14:24:34
00056 suncat0223 pw.x -in pw.inp   Done                     12/29/2018 14:24:34
00057 suncat0223 pw.x -in pw.inp   Done                     12/29/2018 14:24:34
00058 suncat0223 pw.x -in pw.inp   Done                     12/29/2018 14:24:34
00059 suncat0223 pw.x -in pw.inp   Done                     12/29/2018 14:24:34
00060 suncat0223 pw.x -in pw.inp   Done                     12/29/2018 14:24:34
00061 suncat0223 pw.x -in pw.inp   Done                     12/29/2018 14:24:34
00062 suncat0223 pw.x -in pw.inp   Done                     12/29/2018 14:24:34
00063 suncat0223 pw.x -in pw.inp   Done                     12/29/2018 14:24:34