     Program PWSCF v.5.1rc2 (svn rev. 11289) starts on 24Dec2018 at 15:13: 8

     Current dimensions of program PWSCF are:
     Max number of different atomic species (ntypx) = 10
     Max number of k-points (npk) =  40000
     Max angular momentum in pseudopotentials (lmaxx) =  3
     Presently stress not available with electric field

     IMPORTANT: XC functional enforced from input :
     Exchange-correlation      = BEEF-VDW ( 1  4 27 13 2)
     Any further DFT definition will be discarded
     Please, verify this is what you really want

     Subspace diagonalization in iterative solution of the eigenvalue problem:
     a serial algorithm will be used

     Found symmetry operation: I + ( -0.5000 -0.5000  0.0000)
     This is a supercell, fractional translations are disabled

     Generating pointlists ...
     new r_m :   0.4125 (alat units)  0.7795 (a.u.) for type    1
     new r_m :   0.4125 (alat units)  0.7795 (a.u.) for type    2

     bravais-lattice index     =            0
     lattice parameter (alat)  =       1.8897  a.u.
     unit-cell volume          =    3936.2922 (a.u.)^3
     number of atoms/cell      =           12
     number of atomic types    =            2
     number of electrons       =       192.00
     number of Kohn-Sham states=          126
     kinetic-energy cutoff     =      36.7493  Ry
     charge density cutoff     =     367.4932  Ry
     convergence threshold     =      1.0E-06
     mixing beta               =       0.1000
     number of iterations used =           10  plain     mixing
     Exchange-correlation      = BEEF-VDW ( 1  4 27 13 2)
     nstep                     =           50

     celldm(1)=   1.889726  celldm(2)=   0.000000  celldm(3)=   0.000000
     celldm(4)=   0.000000  celldm(5)=   0.000000  celldm(6)=   0.000000

     crystal axes: (cart. coord. in units of alat)
               a(1) = (   5.257692   0.000000   0.000000 )
               a(2) = (   2.607134   4.565761   0.000000 )
               a(3) = (   0.000000   0.000000  24.298662 )

     reciprocal axes: (cart. coord. in units 2 pi/alat)
               b(1) = (  0.190198 -0.108606  0.000000 )
               b(2) = (  0.000000  0.219022  0.000000 )
               b(3) = (  0.000000  0.000000  0.041155 )

     PseudoPot. # 1 for Fe read from file:
     /afs/slac.stanford.edu/u/if/mamunm/psp/gbrv1.5pbe/Fe.UPF
     MD5 check sum: a130daea23fe5165f5d574ae7f82ed95
     Pseudo is Ultrasoft + core correction, Zval = 16.0
     Generated by new atomic code, or converted to UPF format
     Using radial grid of  861 points,  6 beta functions with:
                l(1) =   0
                l(2) =   0
                l(3) =   1
                l(4) =   1
                l(5) =   2
                l(6) =   2
     Q(r) pseudized with  8 coefficients,  rinner =    1.000   1.000   1.000
                                                       1.000   1.000

     PseudoPot. # 2 for Ru read from file:
     /afs/slac.stanford.edu/u/if/mamunm/psp/gbrv1.5pbe/Ru.UPF
     MD5 check sum: 7158a806dd851261a58e6920c40ebe78
     Pseudo is Ultrasoft + core correction, Zval = 16.0
     Generated by new atomic code, or converted to UPF format
     Using radial grid of  967 points,  6 beta functions with:
                l(1) =   0
                l(2) =   0
                l(3) =   1
                l(4) =   1
                l(5) =   2
                l(6) =   2
     Q(r) pseudized with  8 coefficients,  rinner =    1.300   1.300   1.300
                                                       1.300   1.300

     vdW kernel table read from file vdW_kernel_table
     MD5 check sum: 095c7af220d748ca6e76c0b4c6cfb241

     atomic species   valence    mass     pseudopotential
        Fe1           16.00    55.84500     Fe( 1.00)
        Ru1           16.00   101.07000     Ru( 1.00)

     Starting magnetic structure
     atomic species   magnetization
        Fe1          0.125
        Ru1          0.125

     No symmetry found

   Cartesian axes

     site n.     atom                  positions (alat units)
         1           Fe1 tau(   1) = (   0.0000000   0.0000000  10.0000000  )
         2           Fe1 tau(   2) = (   3.9324133   2.2828807  10.0000000  )
         3           Ru1 tau(   3) = (   2.6288461   0.0000000  10.0000000  )
         4           Ru1 tau(   4) = (   1.3035672   2.2828807  10.0000000  )
         5           Fe1 tau(   5) = (   5.2576921   3.0522437  12.1493312  )
         6           Fe1 tau(   6) = (   1.3252788   0.7693630  12.1493312  )
         7           Ru1 tau(   7) = (   2.6288461   3.0522437  12.1493312  )
         8           Ru1 tau(   8) = (   3.9541249   0.7693630  12.1493312  )
         9           Fe1 tau(   9) = (   2.6505576   1.5387260  14.2986624  )
        10           Fe1 tau(  10) = (   6.5829710   3.8216067  14.2986624  )
        11           Ru1 tau(  11) = (   5.2794037   1.5387260  14.2986624  )
        12           Ru1 tau(  12) = (   3.9541249   3.8216067  14.2986624  )

     number of k points=    40  Fermi-Dirac smearing, width (Ry)=  0.0110
                       cart. coord. in units 2pi/alat
        k(    1) = (   0.0000000   0.0000000   0.0000000), wk =   0.0277778
        k(    2) = (   0.0000000   0.0365036   0.0000000), wk =   0.0555556
        k(    3) = (   0.0000000   0.0730072   0.0000000), wk =   0.0555556
        k(    4) = (   0.0000000  -0.1095108   0.0000000), wk =   0.0277778
        k(    5) = (   0.0316996  -0.0181011   0.0000000), wk =   0.0555556
        k(    6) = (   0.0316996   0.0184025   0.0000000), wk =   0.0555556
        k(    7) = (   0.0316996   0.0549061   0.0000000), wk =   0.0555556
        k(    8) = (   0.0316996  -0.1276118   0.0000000), wk =   0.0555556
        k(    9) = (   0.0316996  -0.0911082   0.0000000), wk =   0.0555556
        k(   10) = (   0.0316996  -0.0546046   0.0000000), wk =   0.0555556
        k(   11) = (   0.0633992  -0.0362021   0.0000000), wk =   0.0555556
        k(   12) = (   0.0633992   0.0003015   0.0000000), wk =   0.0555556
        k(   13) = (   0.0633992   0.0368051   0.0000000), wk =   0.0555556
        k(   14) = (   0.0633992  -0.1457129   0.0000000), wk =   0.0555556
        k(   15) = (   0.0633992  -0.1092093   0.0000000), wk =   0.0555556
        k(   16) = (   0.0633992  -0.0727057   0.0000000), wk =   0.0555556
        k(   17) = (  -0.0950988   0.0543032   0.0000000), wk =   0.0277778
        k(   18) = (  -0.0950988   0.0908067   0.0000000), wk =   0.0555556
        k(   19) = (  -0.0950988   0.1273103   0.0000000), wk =   0.0555556
        k(   20) = (  -0.0950988  -0.0552076   0.0000000), wk =   0.0277778
        k(   21) = (   0.0000000   0.0000000   0.0000000), wk =   0.0277778
        k(   22) = (   0.0000000   0.0365036   0.0000000), wk =   0.0555556
        k(   23) = (   0.0000000   0.0730072   0.0000000), wk =   0.0555556
        k(   24) = (   0.0000000  -0.1095108   0.0000000), wk =   0.0277778
        k(   25) = (   0.0316996  -0.0181011   0.0000000), wk =   0.0555556
        k(   26) = (   0.0316996   0.0184025   0.0000000), wk =   0.0555556
        k(   27) = (   0.0316996   0.0549061   0.0000000), wk =   0.0555556
        k(   28) = (   0.0316996  -0.1276118   0.0000000), wk =   0.0555556
        k(   29) = (   0.0316996  -0.0911082   0.0000000), wk =   0.0555556
        k(   30) = (   0.0316996  -0.0546046   0.0000000), wk =   0.0555556
        k(   31) = (   0.0633992  -0.0362021   0.0000000), wk =   0.0555556
        k(   32) = (   0.0633992   0.0003015   0.0000000), wk =   0.0555556
        k(   33) = (   0.0633992   0.0368051   0.0000000), wk =   0.0555556
        k(   34) = (   0.0633992  -0.1457129   0.0000000), wk =   0.0555556
        k(   35) = (   0.0633992  -0.1092093   0.0000000), wk =   0.0555556
        k(   36) = (   0.0633992  -0.0727057   0.0000000), wk =   0.0555556
        k(   37) = (  -0.0950988   0.0543032   0.0000000), wk =   0.0277778
        k(   38) = (  -0.0950988   0.0908067   0.0000000), wk =   0.0555556
        k(   39) = (  -0.0950988   0.1273103   0.0000000), wk =   0.0555556
        k(   40) = (  -0.0950988  -0.0552076   0.0000000), wk =   0.0277778

     Largest allocated arrays     est. size (Mb)     dimensions
     Largest temporary arrays     est. size (Mb)     dimensions

     Check: negative/imaginary core charge=   -0.000005    0.000000

     Initial potential from superposition of free atoms
     Check: negative starting charge=(component1):   -0.248647
     Check: negative starting charge=(component2):   -0.193392

     starting charge  179.99987, renormalised to  192.00000

     negative rho (up, down):  2.652E-01 2.063E-01

     *
     * You are using vdW-DF for exchange-correlation in this calculation.
     * Please cite the following three references that made this development
     * possible:
     *
     *   M. Dion, H. Rydberg, E. Schroder, D. C. Langreth, and
     *   B. I. Lundqvist, Phys. Rev. Lett. 92, 246401 (2004).
     *
     *   T. Thonhauser, V. R. Cooper, S. Li, A. Puzder, P. Hyldgaard, and
     *   D. C. Langreth, Phys. Rev. B 76, 125112 (2007).
     *
     *   G. Roman-Perez and J. M. Soler, Phys. Rev. Lett. 103, 096102 (2009).
     *
     *
     * If you are using vdW-DF2, please also cite:
     *
     *   K. Lee, E. D. Murray, L. Kong, B. I. Lundqvist, and
     *   D. C. Langreth, Phys. Rev. B 82, 081101(R) (2010).
     *
     *
     * If you are calculating the stress with vdW-DF, please also cite:
     *
     *   R. Sabatini, E. Kucukbenli, B. Kolb, T. Thonhauser, and
     *   S. de Gironcoli, J. Phys.: Condens. Matter 24, 424209 (2012).
     *

     Carrying out vdW-DF run using the following parameters:

     Nqs =      20    Nr_points =    1024   r_max =   100.000
     q_mesh =
               0.00001000     0.04494208     0.09755937     0.15916263
               0.23128650     0.31572767     0.41458969     0.53033537
               0.66584808     0.82450364     1.01025438     1.22772762
               1.48234092     1.78043706     2.12944203     2.53805004
               3.01644009     3.57652955     4.23227104     5.00000000

     Gradients computed in reciprocal space

     Adding external electric field

     Computed dipole along edir(3) :
        Dipole                0.0000 Ry au,          0.0000 Debye
        Dipole field          0.0000 Ry au

        Potential amp.       -0.0000 Ry
        Total length         44.7699 bohr

[...]

     Starting wfc are  156 randomized atomic wfcs

     Self-consistent Calculation

     iteration #  1     ecut=    36.75 Ry     beta=0.10
     Davidson diagonalization with overlap
     ethr =  1.00E-02,  avg # of iterations =  8.8

[...]

     Magnetic moment per site:
     atom:    1    charge:    7.3078    magn:    0.8934    constr:    0.0000
     atom:    2    charge:    7.3078    magn:    0.8934    constr:    0.0000
     atom:    3    charge:    2.9811    magn:    0.3483    constr:    0.0000
     atom:    4    charge:    2.9811    magn:    0.3483    constr:    0.0000
     atom:    5    charge:    7.3046    magn:    0.8822    constr:    0.0000
     atom:    6    charge:    7.3046    magn:    0.8822    constr:    0.0000
[...]
        k(    5) = (   0.0316996  -0.0181011   0.0000000), wk =   0.0555556
        k(    6) = (   0.0316996   0.0184025   0.0000000), wk =   0.0555556
        k(    7) = (   0.0316996   0.0549061   0.0000000), wk =   0.0555556
        k(    8) = (   0.0316996  -0.1276118   0.0000000), wk =   0.0555556
        k(    9) = (   0.0316996  -0.0911082   0.0000000), wk =   0.0555556
        k(   10) = (   0.0316996  -0.0546046   0.0000000), wk =   0.0555556
        k(   11) = (   0.0633992  -0.0362021   0.0000000), wk =   0.0555556
        k(   12) = (   0.0633992   0.0003015   0.0000000), wk =   0.0555556
        k(   13) = (   0.0633992   0.0368051   0.0000000), wk =   0.0555556
        k(   14) = (   0.0633992  -0.1457129   0.0000000), wk =   0.0555556
        k(   15) = (   0.0633992  -0.1092093   0.0000000), wk =   0.0555556
        k(   16) = (   0.0633992  -0.0727057   0.0000000), wk =   0.0555556
        k(   17) = (  -0.0950988   0.0543032   0.0000000), wk =   0.0277778
        k(   18) = (  -0.0950988   0.0908067   0.0000000), wk =   0.0555556
        k(   19) = (  -0.0950988   0.1273103   0.0000000), wk =   0.0555556
        k(   20) = (  -0.0950988  -0.0552076   0.0000000), wk =   0.0277778
        k(   21) = (   0.0000000   0.0000000   0.0000000), wk =   0.0277778
        k(   22) = (   0.0000000   0.0365036   0.0000000), wk =   0.0555556
        k(   23) = (   0.0000000   0.0730072   0.0000000), wk =   0.0555556
        k(   24) = (   0.0000000  -0.1095108   0.0000000), wk =   0.0277778
        k(   25) = (   0.0316996  -0.0181011   0.0000000), wk =   0.0555556
        k(   26) = (   0.0316996   0.0184025   0.0000000), wk =   0.0555556
        k(   27) = (   0.0316996   0.0549061   0.0000000), wk =   0.0555556
        k(   28) = (   0.0316996  -0.1276118   0.0000000), wk =   0.0555556
        k(   29) = (   0.0316996  -0.0911082   0.0000000), wk =   0.0555556
        k(   30) = (   0.0316996  -0.0546046   0.0000000), wk =   0.0555556
        k(   31) = (   0.0633992  -0.0362021   0.0000000), wk =   0.0555556
        k(   32) = (   0.0633992   0.0003015   0.0000000), wk =   0.0555556
        k(   33) = (   0.0633992   0.0368051   0.0000000), wk =   0.0555556
        k(   34) = (   0.0633992  -0.1457129   0.0000000), wk =   0.0555556
        k(   35) = (   0.0633992  -0.1092093   0.0000000), wk =   0.0555556
        k(   36) = (   0.0633992  -0.0727057   0.0000000), wk =   0.0555556
        k(   37) = (  -0.0950988   0.0543032   0.0000000), wk =   0.0277778
        k(   38) = (  -0.0950988   0.0908067   0.0000000), wk =   0.0555556
        k(   39) = (  -0.0950988   0.1273103   0.0000000), wk =   0.0555556
        k(   40) = (  -0.0950988  -0.0552076   0.0000000), wk =   0.0277778

     Largest allocated arrays     est. size (Mb)     dimensions
     Largest temporary arrays     est. size (Mb)     dimensions

     Check: negative/imaginary core charge=   -0.000005    0.000000

     Initial potential from superposition of free atoms
     Check: negative starting charge=(component1):   -0.248484
     Check: negative starting charge=(component2):   -0.193265

     starting charge  179.99987, renormalised to  192.00000

[...]

     *
     * You are using vdW-DF for exchange-correlation in this calculation.
     * Please cite the following three references that made this development
     * possible:
     *
     *   M. Dion, H. Rydberg, E. Schroder, D. C. Langreth, and
     *   B. I. Lundqvist, Phys. Rev. Lett. 92, 246401 (2004).
     *
     *   T. Thonhauser, V. R. Cooper, S. Li, A. Puzder, P. Hyldgaard, and
     *   D. C. Langreth, Phys. Rev. B 76, 125112 (2007).
     *
     *   G. Roman-Perez and J. M. Soler, Phys. Rev. Lett. 103, 096102 (2009).
     *
     *
     * If you are using vdW-DF2, please also cite:
     *
     *   K. Lee, E. D. Murray, L. Kong, B. I. Lundqvist, and
     *   D. C. Langreth, Phys. Rev. B 82, 081101(R) (2010).
     *
     *
     * If you are calculating the stress with vdW-DF, please also cite:
     *
     *   R. Sabatini, E. Kucukbenli, B. Kolb, T. Thonhauser, and
     *   S. de Gironcoli, J. Phys.: Condens. Matter 24, 424209 (2012).
     *

     Carrying out vdW-DF run using the following parameters:

     Nqs =      20    Nr_points =    1024   r_max =   100.000
     q_mesh =
               0.00001000     0.04494208     0.09755937     0.15916263
               0.23128650     0.31572767     0.41458969     0.53033537
               0.66584808     0.82450364     1.01025438     1.22772762
               1.48234092     1.78043706     2.12944203     2.53805004
               3.01644009     3.57652955     4.23227104     5.00000000

     Gradients computed in reciprocal space

[...]

     Starting wfc are  156 randomized atomic wfcs

     Self-consistent Calculation

[...]

     total energy              =   -2678.54408458 Ry
     Harris-Foulkes estimate   =   -2678.54408452 Ry
     estimated scf accuracy    <       0.00000100 Ry

[...]

     iteration # 37     ecut=    36.75 Ry     beta=0.10
     Davidson diagonalization with overlap
     ethr =  5.21E-10,  avg # of iterations =  1.2

[...]

     negative rho (up, down):  2.295E-01 2.290E-01

[...]

     Adding external electric field

     Computed dipole along edir(3) :
        Dipole                0.0100 Ry au,          0.0254 Debye
        Dipole field          0.0000 Ry au

        Potential amp.       -0.0029 Ry
        Total length         44.7699 bohr

     Magnetic moment per site:
     atom:    1    charge:    7.0926    magn:    1.2662    constr:    0.0000
     atom:    2    charge:    7.0926    magn:    1.2663    constr:    0.0000
     atom:    3    charge:    2.8507    magn:    0.0002    constr:    0.0000
     atom:    4    charge:    2.8507    magn:    0.0002    constr:    0.0000
     atom:    5    charge:    7.0815    magn:    1.0830    constr:    0.0000
     atom:    6    charge:    7.0816    magn:    1.0830    constr:    0.0000
     atom:    7    charge:    2.8501    magn:   -0.0197    constr:    0.0000
     atom:    8    charge:    2.8501    magn:   -0.0197    constr:    0.0000
     atom:    9    charge:    7.0896    magn:    1.2194    constr:    0.0000
     atom:   10    charge:    7.0895    magn:    1.2193    constr:    0.0000
     atom:   11    charge:    2.8462    magn:   -0.0087    constr:    0.0000
     atom:   12    charge:    2.8462    magn:   -0.0087    constr:    0.0000

     End of self-consistent calculation

 ------ SPIN UP ------------

[...]

 ------ SPIN DOWN ----------

[...]

          k = 0.0634-0.0727 0.0000 ( 14803 PWs)   bands (ev):

[...]

          k =-0.0951-0.0552 0.0000 ( 14786 PWs)   bands (ev):

   -84.1213 -84.1066 -83.9009 -83.8889 -83.8862 -83.8742 -71.4472 -71.3775
   -71.0017 -70.9331 -70.9313 -70.8627 -50.2859 -50.2774 -50.2620 -50.1568
   -50.1413 -50.1367 -50.0429 -50.0412 -50.0284 -50.0269 -50.0256 -50.0126
   -49.9614 -49.9460 -49.9426 -49.9291 -49.8919 -49.8765 -41.6436 -41.5879
   -41.5141 -41.3892 -41.3251 -41.3186 -41.2758 -41.0148 -40.9391 -40.9036
   -40.8697 -40.8588 -40.8370 -40.7903 -40.7886 -40.7254 -40.6983 -40.6486
    -3.8920  -3.6675  -3.1793  -2.8433  -2.4908  -2.4717  -2.4625  -2.3326
    -2.0588  -2.0521  -1.7869  -1.6875  -1.5843  -1.5593  -1.5208  -1.2915
    -1.0192  -0.7729  -0.6924  -0.4686  -0.4190  -0.2244   0.0435   0.1254
     0.2857   0.3563   0.4373   0.6126   0.7375   0.7592   0.8707   0.9408
     0.9541   0.9795   0.9839   1.0712   1.0794   1.2176   1.2669   1.2797
     1.3065   1.4471   1.6871   1.8080   1.8083   1.8741   2.0790   2.2371
     2.3040   2.3403   2.4232   2.4380   2.4743   2.5934   2.6784   2.6796
     2.7404   2.8782   3.1301   3.2546   3.3663   3.4087   3.4752   3.8026
     4.4091   4.6744   4.8790   5.7059   6.0749   6.3416   6.3784   6.6196
     7.7074   7.7273   7.7438   7.8140   8.2594   8.2987

     the Fermi energy is     1.7165 ev

!    total energy              =   -2678.54408515 Ry
     Harris-Foulkes estimate   =   -2678.54408451 Ry
     estimated scf accuracy    <       0.00000077 Ry

     The total energy is the sum of the following terms:

     one-electron contribution =  -24077.67539797 Ry
     hartree contribution      =   12038.13311418 Ry
     xc contribution           =    -342.71115465 Ry
     ewald contribution        =    9703.80962885 Ry
     electric field correction =       0.00000032 Ry
     smearing contrib. (-TS)   =      -0.10027588 Ry

     total magnetization       =    14.30 Bohr mag/cell
     absolute magnetization    =    16.71 Bohr mag/cell

     convergence has been achieved in  37 iterations

 BEEF-vdW xc energy contributions
           1 :   -298.751631206339
           2 :    272.200943302767
           3 :   -227.068224090294
           4 :    175.683364003647
           5 :   -129.716586488088
           6 :    96.2039671036392
           7 :   -76.2121949766898
           8 :    66.1649085195825
           9 :   -60.6782278545095
          10 :    55.3109489913259
          11 :   -48.0751543619220
          12 :    39.3740374472550
          13 :   -30.8688511361412
          14 :    24.1319303343203
          15 :   -19.8184527978765
          16 :    17.5831532105293
          17 :   -16.5240130655814
          18 :    15.7285320237497
          19 :   -14.6264150710972
          20 :    13.0607810977286
          21 :   -11.1772626917471
          22 :    9.25577116026102
          23 :   -7.57777219795094
          24 :    6.33950151183865
          25 :   -5.60366278727560
          26 :    5.27821400746205
          27 :   -5.14736415045172
          28 :    4.95738720109108
          29 :   -4.53099283963491
          30 :    3.84034936881585
          31 :   -28.4895917056562
          32 :   -20.8826280778698

     Forces acting on atoms (Ry/au):

     negative rho (up, down):  2.295E-01 2.290E-01
     atom    1 type  1   force =     0.00349221    0.00202729    0.00452329
     atom    2 type  1   force =     0.00350837    0.00203672    0.00453390
     atom    3 type  2   force =    -0.00066104   -0.00037526    0.01071800
     atom    4 type  2   force =    -0.00065368   -0.00038794    0.01071810
     atom    5 type  1   force =     0.00181265    0.00105227   -0.00684031
     atom    6 type  1   force =     0.00179435    0.00104174   -0.00686854
     atom    7 type  2   force =    -0.00267584   -0.00157666   -0.00895182
     atom    8 type  2   force =    -0.00269620   -0.00154196   -0.00895185
     atom    9 type  1   force =    -0.00091462   -0.00053129    0.00088412
     atom   10 type  1   force =    -0.00090169   -0.00052318    0.00091216
     atom   11 type  2   force =    -0.00105359   -0.00060799   -0.00033851
     atom   12 type  2   force =    -0.00105093   -0.00061374   -0.00033855

     Total force =     0.024371     Total SCF correction =     0.004868
     SCF correction compared to forces is large: reduce conv_thr to get better values

     entering subroutine stress ...

     negative rho (up, down):  2.295E-01 2.290E-01
          total   stress  (Ry/bohr**3)                   (kbar)     P=  -14.56
  -0.00012194   0.00001367  -0.00000938        -17.94      2.01     -1.38
   0.00001367  -0.00013755  -0.00000545          2.01    -20.23     -0.80
  -0.00000938  -0.00000545  -0.00003746         -1.38     -0.80     -5.51

 !ASE

     Writing output data file calc.save

     General routines

     Parallel routines

   This run was terminated on:  21: 1:56  24Dec2018

   JOB DONE.
Job  /afs/slac/g/suncat/bin/suncat-tsmpirun -x LD_LIBRARY_PATH -wdir /scratch/qe108934_fjeIR pw.x -in pw.inp

TID   HOST_NAME   COMMAND_LINE            STATUS            TERMINATION_TIME
00000 suncat0060 pw.x -in pw.inp   Done                     12/24/2018 21:01:56
00001 suncat0060 pw.x -in pw.inp   Done                     12/24/2018 21:01:56
00002 suncat0060 pw.x -in pw.inp   Done                     12/24/2018 21:01:56
00003 suncat0060 pw.x -in pw.inp   Done                     12/24/2018 21:01:56
00004 suncat0060 pw.x -in pw.inp   Done                     12/24/2018 21:01:56
00005 suncat0060 pw.x -in pw.inp   Done                     12/24/2018 21:01:56
00006 suncat0060 pw.x -in pw.inp   Done                     12/24/2018 21:01:56
00007 suncat0060 pw.x -in pw.inp   Done                     12/24/2018 21:01:56
00008 suncat0059 pw.x -in pw.inp   Done                     12/24/2018 21:01:56
00009 suncat0059 pw.x -in pw.inp   Done                     12/24/2018 21:01:56
00010 suncat0059 pw.x -in pw.inp   Done                     12/24/2018 21:01:56
00011 suncat0059 pw.x -in pw.inp   Done                     12/24/2018 21:01:56
00012 suncat0059 pw.x -in pw.inp   Done                     12/24/2018 21:01:56
00013 suncat0059 pw.x -in pw.inp   Done                     12/24/2018 21:01:56
00014 suncat0059 pw.x -in pw.inp   Done                     12/24/2018 21:01:56
00015 suncat0059 pw.x -in pw.inp   Done                     12/24/2018 21:01:56
00016 suncat0058 pw.x -in pw.inp   Done                     12/24/2018 21:01:56
00017 suncat0058 pw.x -in pw.inp   Done                     12/24/2018 21:01:56
00018 suncat0058 pw.x -in pw.inp   Done                     12/24/2018 21:01:56
00019 suncat0058 pw.x -in pw.inp   Done                     12/24/2018 21:01:56
00020 suncat0058 pw.x -in pw.inp   Done                     12/24/2018 21:01:56
00021 suncat0058 pw.x -in pw.inp   Done                     12/24/2018 21:01:56
00022 suncat0058 pw.x -in pw.inp   Done                     12/24/2018 21:01:56
00023 suncat0058 pw.x -in pw.inp   Done                     12/24/2018 21:01:56
00024 suncat0195 pw.x -in pw.inp   Done                     12/24/2018 21:01:56
00025 suncat0195 pw.x -in pw.inp   Done                     12/24/2018 21:01:56
00026 suncat0195 pw.x -in pw.inp   Done                     12/24/2018 21:01:56
00027 suncat0195 pw.x -in pw.inp   Done                     12/24/2018 21:01:56
00028 suncat0195 pw.x -in pw.inp   Done                     12/24/2018 21:01:56
00029 suncat0195 pw.x -in pw.inp   Done                     12/24/2018 21:01:56
00030 suncat0195 pw.x -in pw.inp   Done                     12/24/2018 21:01:56
00031 suncat0195 pw.x -in pw.inp   Done                     12/24/2018 21:01:56
00032 suncat0003 pw.x -in pw.inp   Done                     12/24/2018 21:01:56
00033 suncat0003 pw.x -in pw.inp   Done                     12/24/2018 21:01:56
00034 suncat0003 pw.x -in pw.inp   Done                     12/24/2018 21:01:56
00035 suncat0003 pw.x -in pw.inp   Done                     12/24/2018 21:01:56
00036 suncat0003 pw.x -in pw.inp   Done                     12/24/2018 21:01:56
00037 suncat0003 pw.x -in pw.inp   Done                     12/24/2018 21:01:56
00038 suncat0003 pw.x -in pw.inp   Done                     12/24/2018 21:01:56
00039 suncat0003 pw.x -in pw.inp   Done                     12/24/2018 21:01:56
00040 suncat0002 pw.x -in pw.inp   Done                     12/24/2018 21:01:56
00041 suncat0002 pw.x -in pw.inp   Done                     12/24/2018 21:01:56
00042 suncat0002 pw.x -in pw.inp   Done                     12/24/2018 21:01:56
00043 suncat0002 pw.x -in pw.inp   Done                     12/24/2018 21:01:56
00044 suncat0002 pw.x -in pw.inp   Done                     12/24/2018 21:01:56
00045 suncat0002 pw.x -in pw.inp   Done                     12/24/2018 21:01:56
00046 suncat0002 pw.x -in pw.inp   Done                     12/24/2018 21:01:56
00047 suncat0002 pw.x -in pw.inp   Done                     12/24/2018 21:01:56
00048 suncat0283 pw.x -in pw.inp   Done                     12/24/2018 21:01:56
00049 suncat0283 pw.x -in pw.inp   Done                     12/24/2018 21:01:56
00050 suncat0283 pw.x -in pw.inp   Done                     12/24/2018 21:01:56
00051 suncat0283 pw.x -in pw.inp   Done                     12/24/2018 21:01:56
00052 suncat0283 pw.x -in pw.inp   Done                     12/24/2018 21:01:56
00053 suncat0283 pw.x -in pw.inp   Done                     12/24/2018 21:01:56
00054 suncat0283 pw.x -in pw.inp   Done                     12/24/2018 21:01:56
00055 suncat0283 pw.x -in pw.inp   Done                     12/24/2018 21:01:56
00056 suncat0282 pw.x -in pw.inp   Done                     12/24/2018 21:01:56
00057 suncat0282 pw.x -in pw.inp   Done                     12/24/2018 21:01:56
00058 suncat0282 pw.x -in pw.inp   Done                     12/24/2018 21:01:56
00059 suncat0282 pw.x -in pw.inp   Done                     12/24/2018 21:01:56
00060 suncat0282 pw.x -in pw.inp   Done                     12/24/2018 21:01:56
00061 suncat0282 pw.x -in pw.inp   Done                     12/24/2018 21:01:56
00062 suncat0282 pw.x -in pw.inp   Done                     12/24/2018 21:01:56
00063 suncat0282 pw.x -in pw.inp   Done                     12/24/2018 21:01:56