     Program PWSCF v.5.1rc2 (svn rev. 11289) starts on 19Dec2018 at  5:52:56

     Current dimensions of program PWSCF are:
     Max number of different atomic species (ntypx) = 10
     Max number of k-points (npk) =  40000
     Max angular momentum in pseudopotentials (lmaxx) =  3
     Presently stress not available with electric field

     IMPORTANT: XC functional enforced from input :
     Exchange-correlation      = BEEF-VDW ( 1  4 27 13 2)
     Any further DFT definition will be discarded
     Please, verify this is what you really want

     Subspace diagonalization in iterative solution of the eigenvalue problem:
     a serial algorithm will be used

     Found symmetry operation: I + ( -0.5000  0.0000  0.0000)
     This is a supercell, fractional translations are disabled

     Generating pointlists ...
     new r_m :   0.4125 (alat units)  0.7795 (a.u.) for type    1
     new r_m :   0.4125 (alat units)  0.7795 (a.u.) for type    2

     bravais-lattice index     =            0
     lattice parameter (alat)  =       1.8897  a.u.
     unit-cell volume          =    3894.1424 (a.u.)^3
     number of atoms/cell      =           12
     number of atomic types    =            2
     number of electrons       =       192.00
     number of Kohn-Sham states=          126
     kinetic-energy cutoff     =      36.7493  Ry
     charge density cutoff     =     367.4932  Ry
     convergence threshold     =      1.0E-06
     mixing beta               =       0.1000
     number of iterations used =           10  plain     mixing
     Exchange-correlation      = BEEF-VDW ( 1  4 27 13 2)
     nstep                     =           50

     celldm(1)=   1.889726  celldm(2)=   0.000000  celldm(3)=   0.000000
     celldm(4)=   0.000000  celldm(5)=   0.000000  celldm(6)=   0.000000

     crystal axes: (cart. coord. in units of alat)
               a(1) = (   5.236372   0.000000   0.000000 )
               a(2) = (  -2.618186   4.539208   0.000000 )
               a(3) = (   0.000000   0.000000  24.277540 )

     reciprocal axes: (cart. coord. in units 2 pi/alat)
               b(1) = (  0.190972  0.110151  0.000000 )
               b(2) = (  0.000000  0.220303  0.000000 )
               b(3) = (  0.000000  0.000000  0.041190 )

     PseudoPot. # 1 for Co read from file:
     /afs/slac.stanford.edu/u/if/mamunm/psp/gbrv1.5pbe/Co.UPF
     MD5 check sum: 5f91765df6ddd3222702df6e7b74a16d
     Pseudo is Ultrasoft + core correction, Zval = 17.0
     Generated by new atomic code, or converted to UPF format
     Using radial grid of  863 points,  6 beta functions with:
                l(1) =   0
                l(2) =   0
                l(3) =   1
                l(4) =   1
                l(5) =   2
                l(6) =   2
     Q(r) pseudized with  8 coefficients,  rinner =    1.200   1.200   1.200
                                                       1.200   1.200

     PseudoPot. # 2 for Re read from file:
     /afs/slac.stanford.edu/u/if/mamunm/psp/gbrv1.5pbe/Re.UPF
     MD5 check sum: 85f993410f3e006da9d71c142b4ad953
     Pseudo is Ultrasoft + core correction, Zval = 15.0
     Generated by new atomic code, or converted to UPF format
     Using radial grid of  981 points,  8 beta functions with:
                l(1) =   0
                l(2) =   0
                l(3) =   1
                l(4) =   1
                l(5) =   2
                l(6) =   2
                l(7) =   3
                l(8) =   3
     Q(r) pseudized with  8 coefficients,  rinner =    1.150   1.150   1.150
                                                       1.150   1.150   1.150
                                                       1.150

     vdW kernel table read from file vdW_kernel_table
     MD5 check sum: 095c7af220d748ca6e76c0b4c6cfb241

     atomic species   valence    mass     pseudopotential
        Co1           17.00    58.93319     Co( 1.00)
        Re1           15.00   186.20700     Re( 1.00)

     Starting magnetic structure
     atomic species   magnetization
        Co1          0.118
        Re1          0.133

     No symmetry found

   Cartesian axes

     site n.     atom                  positions (alat units)
         1           Co1 tau(   1) = (   0.0000000   0.0000000  10.0000000  )
         2           Co1 tau(   2) = (   2.6181861   0.0000000  10.0000000  )
         3           Re1 tau(   3) = (   1.3090930   2.2696038  10.0000000  )
         4           Re1 tau(   4) = (  -1.3090930   2.2696038  10.0000000  )
         5           Co1 tau(   5) = (   2.6181861   1.5101530  12.1387698  )
         6           Co1 tau(   6) = (   0.0000000   1.5101530  12.1387698  )
         7           Re1 tau(   7) = (  -1.3090930   3.7797569  12.1387698  )
         8           Re1 tau(   8) = (   1.3090930   3.7797569  12.1387698  )
         9           Co1 tau(   9) = (  -0.0000000   3.0203061  14.2775395  )
        10           Co1 tau(  10) = (   2.6181861   3.0203061  14.2775395  )
        11           Re1 tau(  11) = (   3.9272791   0.7507023  14.2775395  )
        12           Re1 tau(  12) = (   1.3090930   0.7507023  14.2775395  )

     number of k points=    40  Fermi-Dirac smearing, width (Ry)=  0.0110
                       cart. coord. in units 2pi/alat
        k(    1) = (   0.0000000   0.0000000   0.0000000), wk =   0.0277778
        k(    2) = (   0.0000000   0.0367171   0.0000000), wk =   0.0555556
        k(    3) = (   0.0000000   0.0734343   0.0000000), wk =   0.0555556
        k(    4) = (   0.0000000  -0.1101514   0.0000000), wk =   0.0277778
        k(    5) = (   0.0318287   0.0183586   0.0000000), wk =   0.0555556
        k(    6) = (   0.0318287   0.0550757   0.0000000), wk =   0.0555556
        k(    7) = (   0.0318287   0.0917928   0.0000000), wk =   0.0555556
        k(    8) = (   0.0318287  -0.0917928   0.0000000), wk =   0.0555556
        k(    9) = (   0.0318287  -0.0550757   0.0000000), wk =   0.0555556
        k(   10) = (   0.0318287  -0.0183586   0.0000000), wk =   0.0555556
        k(   11) = (   0.0636573   0.0367171   0.0000000), wk =   0.0555556
        k(   12) = (   0.0636573   0.0734343   0.0000000), wk =   0.0555556
        k(   13) = (   0.0636573   0.1101514   0.0000000), wk =   0.0555556
        k(   14) = (   0.0636573  -0.0734343   0.0000000), wk =   0.0555556
        k(   15) = (   0.0636573  -0.0367171   0.0000000), wk =   0.0555556
        k(   16) = (   0.0636573   0.0000000   0.0000000), wk =   0.0555556
        k(   17) = (  -0.0954860  -0.0550757   0.0000000), wk =   0.0277778
        k(   18) = (  -0.0954860  -0.0183586   0.0000000), wk =   0.0555556
        k(   19) = (  -0.0954860   0.0183586   0.0000000), wk =   0.0555556
        k(   20) = (  -0.0954860  -0.1652271   0.0000000), wk =   0.0277778
        k(   21) = (   0.0000000   0.0000000   0.0000000), wk =   0.0277778
        k(   22) = (   0.0000000   0.0367171   0.0000000), wk =   0.0555556
        k(   23) = (   0.0000000   0.0734343   0.0000000), wk =   0.0555556
        k(   24) = (   0.0000000  -0.1101514   0.0000000), wk =   0.0277778
        k(   25) = (   0.0318287   0.0183586   0.0000000), wk =   0.0555556
        k(   26) = (   0.0318287   0.0550757   0.0000000), wk =   0.0555556
        k(   27) = (   0.0318287   0.0917928   0.0000000), wk =   0.0555556
        k(   28) = (   0.0318287  -0.0917928   0.0000000), wk =   0.0555556
        k(   29) = (   0.0318287  -0.0550757   0.0000000), wk =   0.0555556
        k(   30) = (   0.0318287  -0.0183586   0.0000000), wk =   0.0555556
        k(   31) = (   0.0636573   0.0367171   0.0000000), wk =   0.0555556
        k(   32) = (   0.0636573   0.0734343   0.0000000), wk =   0.0555556
        k(   33) = (   0.0636573   0.1101514   0.0000000), wk =   0.0555556
        k(   34) = (   0.0636573  -0.0734343   0.0000000), wk =   0.0555556
        k(   35) = (   0.0636573  -0.0367171   0.0000000), wk =   0.0555556
        k(   36) = (   0.0636573   0.0000000   0.0000000), wk =   0.0555556
        k(   37) = (  -0.0954860  -0.0550757   0.0000000), wk =   0.0277778
        k(   38) = (  -0.0954860  -0.0183586   0.0000000), wk =   0.0555556
        k(   39) = (  -0.0954860   0.0183586   0.0000000), wk =   0.0555556
        k(   40) = (  -0.0954860  -0.1652271   0.0000000), wk =   0.0277778

     Largest allocated arrays     est. size (Mb)     dimensions
     Largest temporary arrays     est. size (Mb)     dimensions

     Check: negative/imaginary core charge=   -0.000003    0.000000

     Initial potential from superposition of free atoms
     Check: negative starting charge=(component1):   -0.437440
     Check: negative starting charge=(component2):   -0.334494

     starting charge  182.99969, renormalised to  192.00000

     negative rho (up, down):  4.590E-01 3.509E-01

     *
     * You are using vdW-DF for exchange-correlation in this calculation.
     * Please cite the following three references that made this development
     * possible:
     *
     *   M. Dion, H. Rydberg, E. Schroder, D. C. Langreth, and
     *   B. I. Lundqvist, Phys. Rev. Lett. 92, 246401 (2004).
     *
     *   T. Thonhauser, V. R. Cooper, S. Li, A. Puzder, P. Hyldgaard, and
     *   D. C. Langreth, Phys. Rev. B 76, 125112 (2007).
     *
     *   G. Roman-Perez and J. M. Soler, Phys. Rev. Lett. 103, 096102 (2009).
     *
     *
     * If you are using vdW-DF2, please also cite:
     *
     *   K. Lee, E. D. Murray, L. Kong, B. I. Lundqvist, and
     *   D. C. Langreth, Phys. Rev. B 82, 081101(R) (2010).
     *
     *
     * If you are calculating the stress with vdW-DF, please also cite:
     *
     *   R. Sabatini, E. Kucukbenli, B. Kolb, T. Thonhauser, and
     *   S. de Gironcoli, J. Phys.: Condens. Matter 24, 424209 (2012).
     *

     Carrying out vdW-DF run using the following parameters:

     Nqs =      20    Nr_points =    1024   r_max =   100.000
     q_mesh =
               0.00001000     0.04494208     0.09755937     0.15916263
               0.23128650     0.31572767     0.41458969     0.53033537
               0.66584808     0.82450364     1.01025438     1.22772762
               1.48234092     1.78043706     2.12944203     2.53805004
               3.01644009     3.57652955     4.23227104     5.00000000

     Gradients computed in reciprocal space

     Adding external electric field

     Computed dipole along edir(3) :
        Dipole                0.0000 Ry au,          0.0000 Debye
        Dipole field          0.0000 Ry au

        Potential amp.       -0.0000 Ry
        Total length         44.7310 bohr

[...]

     Starting wfc are  156 randomized atomic wfcs

     Self-consistent Calculation

     iteration #  1     ecut=    36.75 Ry     beta=0.10
     Davidson diagonalization with overlap
     ethr =  1.00E-02,  avg # of iterations =  8.4

[...]

     Magnetic moment per site:
     atom:    1    charge:    8.3692    magn:    0.9498    constr:    0.0000
     atom:    2    charge:    8.3692    magn:    0.9498    constr:    0.0000
     atom:    3    charge:    1.9566    magn:    0.2367    constr:    0.0000
     atom:    4    charge:    1.9566    magn:    0.2367    constr:    0.0000
[...]
     Pseudo is Ultrasoft + core correction, Zval = 15.0
     Generated by new atomic code, or converted to UPF format
     Using radial grid of  981 points,  8 beta functions with:
                l(1) =   0
                l(2) =   0
                l(3) =   1
                l(4) =   1
                l(5) =   2
                l(6) =   2
                l(7) =   3
                l(8) =   3
     Q(r) pseudized with  8 coefficients,  rinner =    1.150   1.150   1.150
                                                       1.150   1.150   1.150
                                                       1.150

     vdW kernel table read from file vdW_kernel_table
     MD5 check sum: 095c7af220d748ca6e76c0b4c6cfb241

     atomic species   valence    mass     pseudopotential
        Co1           17.00    58.93319     Co( 1.00)
        Re1           15.00   186.20700     Re( 1.00)

     Starting magnetic structure
     atomic species   magnetization
        Co1          0.118
        Re1          0.133

     No symmetry found

   Cartesian axes

     site n.     atom                  positions (alat units)
         1           Co1 tau(   1) = (   0.0000000   0.0000000  10.0000000  )
         2           Co1 tau(   2) = (   2.6181861   0.0000000  10.0000000  )
         3           Re1 tau(   3) = (   1.3090930   2.2696038  10.0000000  )
         4           Re1 tau(   4) = (  -1.3090930   2.2696038  10.0000000  )
         5           Co1 tau(   5) = (   2.6181861   1.5101530  12.1387698  )
         6           Co1 tau(   6) = (   0.0000000   1.5101530  12.1387698  )
         7           Re1 tau(   7) = (  -1.3090930   3.7797569  12.1387698  )
         8           Re1 tau(   8) = (   1.3090930   3.7797569  12.1387698  )
         9           Co1 tau(   9) = (  -0.0000020   3.0502408  14.1869540  )
        10           Co1 tau(  10) = (   2.6181875   3.0502363  14.1869834  )
        11           Re1 tau(  11) = (   3.9272821   0.7737371  14.2161394  )
        12           Re1 tau(  12) = (   1.3090900   0.7737382  14.2161404  )

     number of k points=    40  Fermi-Dirac smearing, width (Ry)=  0.0110
                       cart. coord. in units 2pi/alat
        k(    1) = (   0.0000000   0.0000000   0.0000000), wk =   0.0277778
        k(    2) = (   0.0000000   0.0367171   0.0000000), wk =   0.0555556
        k(    3) = (   0.0000000   0.0734343   0.0000000), wk =   0.0555556
        k(    4) = (   0.0000000  -0.1101514   0.0000000), wk =   0.0277778
        k(    5) = (   0.0318287   0.0183586   0.0000000), wk =   0.0555556
        k(    6) = (   0.0318287   0.0550757   0.0000000), wk =   0.0555556
        k(    7) = (   0.0318287   0.0917928   0.0000000), wk =   0.0555556
        k(    8) = (   0.0318287  -0.0917928   0.0000000), wk =   0.0555556
        k(    9) = (   0.0318287  -0.0550757   0.0000000), wk =   0.0555556
        k(   10) = (   0.0318287  -0.0183586   0.0000000), wk =   0.0555556
        k(   11) = (   0.0636573   0.0367171   0.0000000), wk =   0.0555556
        k(   12) = (   0.0636573   0.0734343   0.0000000), wk =   0.0555556
        k(   13) = (   0.0636573   0.1101514   0.0000000), wk =   0.0555556
        k(   14) = (   0.0636573  -0.0734343   0.0000000), wk =   0.0555556
        k(   15) = (   0.0636573  -0.0367171   0.0000000), wk =   0.0555556
        k(   16) = (   0.0636573   0.0000000   0.0000000), wk =   0.0555556
        k(   17) = (  -0.0954860  -0.0550757   0.0000000), wk =   0.0277778
        k(   18) = (  -0.0954860  -0.0183586   0.0000000), wk =   0.0555556
        k(   19) = (  -0.0954860   0.0183586   0.0000000), wk =   0.0555556
        k(   20) = (  -0.0954860  -0.1652271   0.0000000), wk =   0.0277778
        k(   21) = (   0.0000000   0.0000000   0.0000000), wk =   0.0277778
        k(   22) = (   0.0000000   0.0367171   0.0000000), wk =   0.0555556
        k(   23) = (   0.0000000   0.0734343   0.0000000), wk =   0.0555556
        k(   24) = (   0.0000000  -0.1101514   0.0000000), wk =   0.0277778
        k(   25) = (   0.0318287   0.0183586   0.0000000), wk =   0.0555556
        k(   26) = (   0.0318287   0.0550757   0.0000000), wk =   0.0555556
        k(   27) = (   0.0318287   0.0917928   0.0000000), wk =   0.0555556
        k(   28) = (   0.0318287  -0.0917928   0.0000000), wk =   0.0555556
        k(   29) = (   0.0318287  -0.0550757   0.0000000), wk =   0.0555556
        k(   30) = (   0.0318287  -0.0183586   0.0000000), wk =   0.0555556
        k(   31) = (   0.0636573   0.0367171   0.0000000), wk =   0.0555556
        k(   32) = (   0.0636573   0.0734343   0.0000000), wk =   0.0555556
        k(   33) = (   0.0636573   0.1101514   0.0000000), wk =   0.0555556
        k(   34) = (   0.0636573  -0.0734343   0.0000000), wk =   0.0555556
        k(   35) = (   0.0636573  -0.0367171   0.0000000), wk =   0.0555556
        k(   36) = (   0.0636573   0.0000000   0.0000000), wk =   0.0555556
        k(   37) = (  -0.0954860  -0.0550757   0.0000000), wk =   0.0277778
        k(   38) = (  -0.0954860  -0.0183586   0.0000000), wk =   0.0555556
        k(   39) = (  -0.0954860   0.0183586   0.0000000), wk =   0.0555556
        k(   40) = (  -0.0954860  -0.1652271   0.0000000), wk =   0.0277778

     Largest allocated arrays     est. size (Mb)     dimensions
     Largest temporary arrays     est. size (Mb)     dimensions

     Check: negative/imaginary core charge=   -0.000003    0.000000

     Initial potential from superposition of free atoms
     Check: negative starting charge=(component1):   -0.437790
     Check: negative starting charge=(component2):   -0.334760

     starting charge  182.99969, renormalised to  192.00000

[...]

     *
     * You are using vdW-DF for exchange-correlation in this calculation.
     * Please cite the following three references that made this development
     * possible:
     *
     *   M. Dion, H. Rydberg, E. Schroder, D. C. Langreth, and
     *   B. I. Lundqvist, Phys. Rev. Lett. 92, 246401 (2004).
     *
     *   T. Thonhauser, V. R. Cooper, S. Li, A. Puzder, P. Hyldgaard, and
     *   D. C. Langreth, Phys. Rev. B 76, 125112 (2007).
     *
     *   G. Roman-Perez and J. M. Soler, Phys. Rev. Lett. 103, 096102 (2009).
     *
     *
     * If you are using vdW-DF2, please also cite:
     *
     *   K. Lee, E. D. Murray, L. Kong, B. I. Lundqvist, and
     *   D. C. Langreth, Phys. Rev. B 82, 081101(R) (2010).
     *
     *
     * If you are calculating the stress with vdW-DF, please also cite:
     *
     *   R. Sabatini, E. Kucukbenli, B. Kolb, T. Thonhauser, and
     *   S. de Gironcoli, J. Phys.: Condens. Matter 24, 424209 (2012).
     *

     Carrying out vdW-DF run using the following parameters:

     Nqs =      20    Nr_points =    1024   r_max =   100.000
     q_mesh =
               0.00001000     0.04494208     0.09755937     0.15916263
               0.23128650     0.31572767     0.41458969     0.53033537
               0.66584808     0.82450364     1.01025438     1.22772762
               1.48234092     1.78043706     2.12944203     2.53805004
               3.01644009     3.57652955     4.23227104     5.00000000

     Gradients computed in reciprocal space

[...]

     Starting wfc are  156 randomized atomic wfcs

     Self-consistent Calculation

[...]

     iteration # 20     ecut=    36.75 Ry     beta=0.10
     Davidson diagonalization with overlap
     c_bands:  1 eigenvalues not converged
     ethr =  1.32E-06,  avg # of iterations =  2.8

[...]

     total energy              =   -2949.96940478 Ry
     Harris-Foulkes estimate   =   -2949.96940685 Ry
     estimated scf accuracy    <       0.00000155 Ry

[...]

     iteration # 81     ecut=    36.75 Ry     beta=0.10
     Davidson diagonalization with overlap
     ethr =  5.69E-10,  avg # of iterations =  3.0

[...]

     negative rho (up, down):  4.028E-01 4.043E-01

[...]

     Adding external electric field

     Computed dipole along edir(3) :
        Dipole                0.0114 Ry au,          0.0290 Debye
        Dipole field          0.0000 Ry au

        Potential amp.       -0.0033 Ry
        Total length         44.7310 bohr

     Magnetic moment per site:
     atom:    1    charge:    8.2774    magn:    0.3350    constr:    0.0000
     atom:    2    charge:    8.2774    magn:    0.3350    constr:    0.0000
     atom:    3    charge:    1.8666    magn:   -0.0004    constr:    0.0000
     atom:    4    charge:    1.8666    magn:   -0.0004    constr:    0.0000
     atom:    5    charge:    8.2840    magn:    0.3207    constr:    0.0000
     atom:    6    charge:    8.2839    magn:    0.3207    constr:    0.0000
     atom:    7    charge:    1.8768    magn:   -0.0016    constr:    0.0000
     atom:    8    charge:    1.8768    magn:   -0.0016    constr:    0.0000
     atom:    9    charge:    8.2808    magn:    0.0422    constr:    0.0000
     atom:   10    charge:    8.2807    magn:    0.0421    constr:    0.0000
     atom:   11    charge:    1.8679    magn:    0.0009    constr:    0.0000
     atom:   12    charge:    1.8679    magn:    0.0009    constr:    0.0000

     End of self-consistent calculation

 ------ SPIN UP ------------

[...]

 ------ SPIN DOWN ----------

[...]

          k = 0.0637 0.0000 0.0000 ( 14639 PWs)   bands (ev):

[...]

          k =-0.0955-0.1652 0.0000 ( 14630 PWs)   bands (ev):

   -92.9948 -92.9948 -92.9646 -92.9645 -92.6228 -92.6228 -78.9949 -78.9949
   -78.6688 -78.6688 -78.6646 -78.6646 -56.4084 -56.4084 -56.3571 -56.3571
   -56.2682 -56.2681 -56.2549 -56.2549 -56.2472 -56.2472 -56.1916 -56.1915
   -56.0613 -56.0613 -55.8904 -55.8904 -55.8497 -55.8497 -40.9552 -40.9552
   -40.7290 -40.7290 -40.6929 -40.6929 -40.4074 -40.4074 -40.3782 -40.3782
   -40.3465 -40.3465 -40.3349 -40.3349 -40.3234 -40.3234 -40.1331 -40.1331
    -4.9346  -4.9346  -3.3265  -3.3265  -2.9133  -2.9133  -2.6298  -2.6298
    -2.2522  -2.2522  -1.7948  -1.7948  -1.6022  -1.6022  -1.3372  -1.3372
    -0.9764  -0.9763  -0.8963  -0.8963  -0.6772  -0.6772  -0.1985  -0.1985
    -0.0929  -0.0929   0.0170   0.0170   0.1755   0.1755   0.2833   0.2833
     0.4582   0.4582   0.5212   0.5213   0.6255   0.6255   0.7245   0.7245
     1.1214   1.1214   1.3833   1.3833   1.6458   1.6458   1.8438   1.8438
     1.9466   1.9466   2.1147   2.1147   2.2652   2.2652   2.3969   2.3969
     2.7444   2.7445   3.0231   3.0231   3.6312   3.6312   3.9175   3.9176
     4.7724   4.7724   5.5745   5.5745   6.2477   6.2477   6.9092   6.9093
     8.1280   8.1280   8.3187   8.3187   8.7451   8.7451

     the Fermi energy is     1.8568 ev

!    total energy              =   -2949.96940911 Ry
     Harris-Foulkes estimate   =   -2949.96940874 Ry
     estimated scf accuracy    <       0.00000088 Ry

     The total energy is the sum of the following terms:

     one-electron contribution =  -24560.08166698 Ry
     hartree contribution      =   12275.68674127 Ry
     xc contribution           =    -526.97605653 Ry
     ewald contribution        =    9861.48885375 Ry
     electric field correction =       0.00000042 Ry
     smearing contrib. (-TS)   =      -0.08728105 Ry

     total magnetization       =     2.41 Bohr mag/cell
     absolute magnetization    =     3.03 Bohr mag/cell

     convergence has been achieved in  81 iterations

 BEEF-vdW xc energy contributions
           1 :   -466.939381666713
           2 :    430.182307348284
           3 :   -365.562359448953
           4 :    287.380337367102
           5 :   -210.278460232879
           6 :    144.814924179049
           7 :   -95.3514902597279
           8 :    60.6605226595386
           9 :   -36.4518863801101
          10 :    18.2873245058790
          11 :   -3.51490751536812
          12 :   -8.38613696483299
          13 :    16.7102921416629
          14 :   -20.8217216021568
          15 :    21.0014111574442
          16 :   -18.4969795278413
          17 :    14.9488588775857
          18 :   -11.6877622256296
          19 :    9.33168024205474
          20 :   -7.84459227632499
          21 :    6.89688651898291
          22 :   -6.23550642971236
          23 :    5.82294178091996
          24 :   -5.72478437860980
          25 :    5.89932738976802
          26 :   -6.10163660448882
          27 :    5.98986453691253
          28 :   -5.36105972074529
          29 :    4.32654779291721
          30 :   -3.28600117203518
          31 :   -39.0979141978208
          32 :   -28.3028886259995

     Forces acting on atoms (Ry/au):

     negative rho (up, down):  4.028E-01 4.043E-01
     atom    1 type  1   force =    -0.00000093   -0.00423573    0.01709748
     atom    2 type  1   force =     0.00000089   -0.00425088    0.01708772
     atom    3 type  2   force =     0.00000737   -0.00012956    0.01288106
     atom    4 type  2   force =    -0.00000751   -0.00012867    0.01288109
     atom    5 type  1   force =     0.00000066    0.00117544   -0.01132094
     atom    6 type  1   force =    -0.00000067    0.00116866   -0.01132551
     atom    7 type  2   force =    -0.00000017    0.00016686   -0.01955429
     atom    8 type  2   force =    -0.00000001    0.00016596   -0.01955362
     atom    9 type  1   force =     0.00000001    0.00169953    0.00086856
     atom   10 type  1   force =     0.00000030    0.00172574    0.00086872
     atom   11 type  2   force =    -0.00001262    0.00132124    0.00003520
     atom   12 type  2   force =     0.00001269    0.00132141    0.00003453

     Total force =     0.044576     Total SCF correction =     0.002908

     entering subroutine stress ...

     negative rho (up, down):  4.028E-01 4.043E-01
          total   stress  (Ry/bohr**3)                   (kbar)     P=  -29.81
  -0.00024519  -0.00000000   0.00000000        -36.07     -0.00      0.00
  -0.00000000  -0.00026338   0.00001759         -0.00    -38.74      2.59
   0.00000000   0.00001759  -0.00009933          0.00      2.59    -14.61

 !ASE

     Writing output data file calc.save

     General routines

     Parallel routines

   This run was terminated on:  12: 4:54  19Dec2018

   JOB DONE.
Job  /afs/slac/g/suncat/bin/suncat-tsmpirun -x LD_LIBRARY_PATH -wdir /scratch/qe529694_rlfSp pw.x -in pw.inp

TID   HOST_NAME   COMMAND_LINE            STATUS            TERMINATION_TIME
00000 suncat0115 pw.x -in pw.inp   Done                     12/19/2018 12:04:54
00001 suncat0115 pw.x -in pw.inp   Done                     12/19/2018 12:04:54
00002 suncat0115 pw.x -in pw.inp   Done                     12/19/2018 12:04:54
00003 suncat0115 pw.x -in pw.inp   Done                     12/19/2018 12:04:54
00004 suncat0115 pw.x -in pw.inp   Done                     12/19/2018 12:04:54
00005 suncat0115 pw.x -in pw.inp   Done                     12/19/2018 12:04:54
00006 suncat0115 pw.x -in pw.inp   Done                     12/19/2018 12:04:54
00007 suncat0115 pw.x -in pw.inp   Done                     12/19/2018 12:04:54
00008 suncat0114 pw.x -in pw.inp   Done                     12/19/2018 12:04:54
00009 suncat0114 pw.x -in pw.inp   Done                     12/19/2018 12:04:54
00010 suncat0114 pw.x -in pw.inp   Done                     12/19/2018 12:04:54
00011 suncat0114 pw.x -in pw.inp   Done                     12/19/2018 12:04:54
00012 suncat0114 pw.x -in pw.inp   Done                     12/19/2018 12:04:54
00013 suncat0114 pw.x -in pw.inp   Done                     12/19/2018 12:04:54
00014 suncat0114 pw.x -in pw.inp   Done                     12/19/2018 12:04:54
00015 suncat0114 pw.x -in pw.inp   Done                     12/19/2018 12:04:54
00016 suncat0113 pw.x -in pw.inp   Done                     12/19/2018 12:04:54
00017 suncat0113 pw.x -in pw.inp   Done                     12/19/2018 12:04:54
00018 suncat0113 pw.x -in pw.inp   Done                     12/19/2018 12:04:54
00019 suncat0113 pw.x -in pw.inp   Done                     12/19/2018 12:04:54
00020 suncat0113 pw.x -in pw.inp   Done                     12/19/2018 12:04:54
00021 suncat0113 pw.x -in pw.inp   Done                     12/19/2018 12:04:54
00022 suncat0113 pw.x -in pw.inp   Done                     12/19/2018 12:04:54
00023 suncat0113 pw.x -in pw.inp   Done                     12/19/2018 12:04:54
00024 suncat0110 pw.x -in pw.inp   Done                     12/19/2018 12:04:54
00025 suncat0110 pw.x -in pw.inp   Done                     12/19/2018 12:04:54
00026 suncat0110 pw.x -in pw.inp   Done                     12/19/2018 12:04:54
00027 suncat0110 pw.x -in pw.inp   Done                     12/19/2018 12:04:54
00028 suncat0110 pw.x -in pw.inp   Done                     12/19/2018 12:04:54
00029 suncat0110 pw.x -in pw.inp   Done                     12/19/2018 12:04:54
00030 suncat0110 pw.x -in pw.inp   Done                     12/19/2018 12:04:54
00031 suncat0110 pw.x -in pw.inp   Done                     12/19/2018 12:04:54