     Program PWSCF v.5.1rc2 (svn rev. 11289) starts on 18Dec2018 at 19:41:40

     Current dimensions of program PWSCF are:
     Max number of different atomic species (ntypx) = 10
     Max number of k-points (npk) =  40000
     Max angular momentum in pseudopotentials (lmaxx) =  3
     Presently stress not available with electric field

     IMPORTANT: XC functional enforced from input :
     Exchange-correlation      = BEEF-VDW ( 1  4 27 13 2)
     Any further DFT definition will be discarded
     Please, verify this is what you really want

     Subspace diagonalization in iterative solution of the eigenvalue problem:
     a serial algorithm will be used

     Found symmetry operation: I + (  0.5000  0.0000  0.0000)
     This is a supercell, fractional translations are disabled

     Generating pointlists ...
     new r_m :   0.4125 (alat units)  0.7795 (a.u.) for type    1
     new r_m :   0.4125 (alat units)  0.7795 (a.u.) for type    2

     bravais-lattice index     =            0
     lattice parameter (alat)  =       1.8897  a.u.
     unit-cell volume          =    3672.8173 (a.u.)^3
     number of atoms/cell      =           12
     number of atomic types    =            2
     number of electrons       =       216.00
     number of Kohn-Sham states=          138
     kinetic-energy cutoff     =      36.7493  Ry
     charge density cutoff     =     367.4932  Ry
     convergence threshold     =      1.0E-06
     mixing beta               =       0.1000
     number of iterations used =           10  plain     mixing
     Exchange-correlation      = BEEF-VDW ( 1  4 27 13 2)
     nstep                     =           50

     celldm(1)=   1.889726  celldm(2)=   0.000000  celldm(3)=   0.000000
     celldm(4)=   0.000000  celldm(5)=   0.000000  celldm(6)=   0.000000

     crystal axes: (cart. coord. in units of alat)
               a(1) = (   4.952079   0.000000   0.000000 )
               a(2) = (  -2.476040   4.550034   0.000000 )
               a(3) = (   0.000000   0.000000  24.154637 )

     reciprocal axes: (cart. coord. in units 2 pi/alat)
               b(1) = (  0.201935  0.109889  0.000000 )
               b(2) = (  0.000000  0.219779  0.000000 )
               b(3) = (  0.000000  0.000000  0.041400 )

     PseudoPot. # 1 for Co read from file:
     /afs/slac.stanford.edu/u/if/mamunm/psp/gbrv1.5pbe/Co.UPF
     MD5 check sum: 5f91765df6ddd3222702df6e7b74a16d
     Pseudo is Ultrasoft + core correction, Zval = 17.0
     Generated by new atomic code, or converted to UPF format
     Using radial grid of  863 points,  6 beta functions with:
                l(1) =   0
                l(2) =   0
                l(3) =   1
                l(4) =   1
                l(5) =   2
                l(6) =   2
     Q(r) pseudized with  8 coefficients,  rinner =    1.200   1.200   1.200
                                                       1.200   1.200

     PseudoPot. # 2 for Cu read from file:
     /afs/slac.stanford.edu/u/if/mamunm/psp/gbrv1.5pbe/Cu.UPF
     MD5 check sum: 6e991ff952a84172a2a52a1c1e996048
     Pseudo is Ultrasoft + core correction, Zval = 19.0
     Generated by new atomic code, or converted to UPF format
     Using radial grid of  867 points,  6 beta functions with:
                l(1) =   0
                l(2) =   0
                l(3) =   1
                l(4) =   1
                l(5) =   2
                l(6) =   2
     Q(r) pseudized with  8 coefficients,  rinner =    1.150   1.150   1.150
                                                       1.150   1.150

     vdW kernel table read from file vdW_kernel_table
     MD5 check sum: 095c7af220d748ca6e76c0b4c6cfb241

     atomic species   valence    mass     pseudopotential
        Co1           17.00    58.93319     Co( 1.00)
        Cu1           19.00    63.54600     Cu( 1.00)

     Starting magnetic structure
     atomic species   magnetization
        Co1          0.118
        Cu1          0.105

     No symmetry found

   Cartesian axes

     site n.     atom                  positions (alat units)
         1           Co1 tau(   1) = (   0.0000000   0.0000000  10.0000000  )
         2           Co1 tau(   2) = (   2.4760396   0.0000000  10.0000000  )
         3           Cu1 tau(   3) = (   1.2380198   2.2750170  10.0000000  )
         4           Cu1 tau(   4) = (  -1.2380198   2.2750170  10.0000000  )
         5           Co1 tau(   5) = (   2.4760396   1.3474124  12.0773184  )
         6           Co1 tau(   6) = (   0.0000000   1.3474124  12.0773184  )
         7           Cu1 tau(   7) = (  -1.2380198   3.6224293  12.0773184  )
         8           Cu1 tau(   8) = (   1.2380198   3.6224293  12.0773184  )
         9           Co1 tau(   9) = (   0.0000000   2.6948247  14.1546369  )
        10           Co1 tau(  10) = (   2.4760396   2.6948247  14.1546369  )
        11           Cu1 tau(  11) = (   3.7140594   0.4198078  14.1546369  )
        12           Cu1 tau(  12) = (   1.2380198   0.4198078  14.1546369  )

     number of k points=    40  Fermi-Dirac smearing, width (Ry)=  0.0110
                       cart. coord. in units 2pi/alat
        k(    1) = (   0.0000000   0.0000000   0.0000000), wk =   0.0277778
        k(    2) = (   0.0000000   0.0366298   0.0000000), wk =   0.0555556
        k(    3) = (   0.0000000   0.0732595   0.0000000), wk =   0.0555556
        k(    4) = (   0.0000000  -0.1098893   0.0000000), wk =   0.0277778
        k(    5) = (   0.0336559   0.0183149   0.0000000), wk =   0.0555556
        k(    6) = (   0.0336559   0.0549446   0.0000000), wk =   0.0555556
        k(    7) = (   0.0336559   0.0915744   0.0000000), wk =   0.0555556
        k(    8) = (   0.0336559  -0.0915744   0.0000000), wk =   0.0555556
        k(    9) = (   0.0336559  -0.0549446   0.0000000), wk =   0.0555556
        k(   10) = (   0.0336559  -0.0183149   0.0000000), wk =   0.0555556
        k(   11) = (   0.0673118   0.0366298   0.0000000), wk =   0.0555556
        k(   12) = (   0.0673118   0.0732595   0.0000000), wk =   0.0555556
        k(   13) = (   0.0673118   0.1098893   0.0000000), wk =   0.0555556
        k(   14) = (   0.0673118  -0.0732595   0.0000000), wk =   0.0555556
        k(   15) = (   0.0673118  -0.0366298   0.0000000), wk =   0.0555556
        k(   16) = (   0.0673118   0.0000000   0.0000000), wk =   0.0555556
        k(   17) = (  -0.1009677  -0.0549446   0.0000000), wk =   0.0277778
        k(   18) = (  -0.1009677  -0.0183149   0.0000000), wk =   0.0555556
        k(   19) = (  -0.1009677   0.0183149   0.0000000), wk =   0.0555556
        k(   20) = (  -0.1009677  -0.1648339   0.0000000), wk =   0.0277778
        k(   21) = (   0.0000000   0.0000000   0.0000000), wk =   0.0277778
        k(   22) = (   0.0000000   0.0366298   0.0000000), wk =   0.0555556
        k(   23) = (   0.0000000   0.0732595   0.0000000), wk =   0.0555556
        k(   24) = (   0.0000000  -0.1098893   0.0000000), wk =   0.0277778
        k(   25) = (   0.0336559   0.0183149   0.0000000), wk =   0.0555556
        k(   26) = (   0.0336559   0.0549446   0.0000000), wk =   0.0555556
        k(   27) = (   0.0336559   0.0915744   0.0000000), wk =   0.0555556
        k(   28) = (   0.0336559  -0.0915744   0.0000000), wk =   0.0555556
        k(   29) = (   0.0336559  -0.0549446   0.0000000), wk =   0.0555556
        k(   30) = (   0.0336559  -0.0183149   0.0000000), wk =   0.0555556
        k(   31) = (   0.0673118   0.0366298   0.0000000), wk =   0.0555556
        k(   32) = (   0.0673118   0.0732595   0.0000000), wk =   0.0555556
        k(   33) = (   0.0673118   0.1098893   0.0000000), wk =   0.0555556
        k(   34) = (   0.0673118  -0.0732595   0.0000000), wk =   0.0555556
        k(   35) = (   0.0673118  -0.0366298   0.0000000), wk =   0.0555556
        k(   36) = (   0.0673118   0.0000000   0.0000000), wk =   0.0555556
        k(   37) = (  -0.1009677  -0.0549446   0.0000000), wk =   0.0277778
        k(   38) = (  -0.1009677  -0.0183149   0.0000000), wk =   0.0555556
        k(   39) = (  -0.1009677   0.0183149   0.0000000), wk =   0.0555556
        k(   40) = (  -0.1009677  -0.1648339   0.0000000), wk =   0.0277778

     Largest allocated arrays     est. size (Mb)     dimensions
     Largest temporary arrays     est. size (Mb)     dimensions

     Check: negative/imaginary core charge=   -0.000004    0.000000

     Initial potential from superposition of free atoms
     Check: negative starting charge=(component1):   -0.000167
     Check: negative starting charge=(component2):   -0.000132

     starting charge  203.99995, renormalised to  216.00000

     negative rho (up, down):  1.771E-04 1.402E-04

     *
     * You are using vdW-DF for exchange-correlation in this calculation.
     * Please cite the following three references that made this development
     * possible:
     *
     *   M. Dion, H. Rydberg, E. Schroder, D. C. Langreth, and
     *   B. I. Lundqvist, Phys. Rev. Lett. 92, 246401 (2004).
     *
     *   T. Thonhauser, V. R. Cooper, S. Li, A. Puzder, P. Hyldgaard, and
     *   D. C. Langreth, Phys. Rev. B 76, 125112 (2007).
     *
     *   G. Roman-Perez and J. M. Soler, Phys. Rev. Lett. 103, 096102 (2009).
     *
     *
     * If you are using vdW-DF2, please also cite:
     *
     *   K. Lee, E. D. Murray, L. Kong, B. I. Lundqvist, and
     *   D. C. Langreth, Phys. Rev. B 82, 081101(R) (2010).
     *
     *
     * If you are calculating the stress with vdW-DF, please also cite:
     *
     *   R. Sabatini, E. Kucukbenli, B. Kolb, T. Thonhauser, and
     *   S. de Gironcoli, J. Phys.: Condens. Matter 24, 424209 (2012).
     *

     Carrying out vdW-DF run using the following parameters:

     Nqs =      20    Nr_points =    1024   r_max =   100.000
     q_mesh =
               0.00001000     0.04494208     0.09755937     0.15916263
               0.23128650     0.31572767     0.41458969     0.53033537
               0.66584808     0.82450364     1.01025438     1.22772762
               1.48234092     1.78043706     2.12944203     2.53805004
               3.01644009     3.57652955     4.23227104     5.00000000

     Gradients computed in reciprocal space

     Adding external electric field

     Computed dipole along edir(3) :
        Dipole                0.0000 Ry au,          0.0000 Debye
        Dipole field          0.0000 Ry au

        Potential amp.       -0.0000 Ry
        Total length         44.5045 bohr

[...]

     Starting wfc are  156 randomized atomic wfcs

     Self-consistent Calculation

     iteration #  1     ecut=    36.75 Ry     beta=0.10
     Davidson diagonalization with overlap
     ethr =  1.00E-02,  avg # of iterations =  6.9

[...]

     Magnetic moment per site:
     atom:    1    charge:    8.4446    magn:    0.9596    constr:    0.0000
     atom:    2    charge:    8.4446    magn:    0.9596    constr:    0.0000
     atom:    3    charge:   10.8120    magn:    1.1035    constr:    0.0000
     atom:    4    charge:   10.8120    magn:    1.1035    constr:    0.0000
     atom:    5    charge:    8.4480    magn:    0.9502    constr:    0.0000
     atom:    6    charge:    8.4480    magn:    0.9502    constr:    0.0000
[...]
     /afs/slac.stanford.edu/u/if/mamunm/psp/gbrv1.5pbe/Cu.UPF
     MD5 check sum: 6e991ff952a84172a2a52a1c1e996048
     Pseudo is Ultrasoft + core correction, Zval = 19.0
     Generated by new atomic code, or converted to UPF format
     Using radial grid of  867 points,  6 beta functions with:
                l(1) =   0
                l(2) =   0
                l(3) =   1
                l(4) =   1
                l(5) =   2
                l(6) =   2
     Q(r) pseudized with  8 coefficients,  rinner =    1.150   1.150   1.150
                                                       1.150   1.150

     vdW kernel table read from file vdW_kernel_table
     MD5 check sum: 095c7af220d748ca6e76c0b4c6cfb241

     atomic species   valence    mass     pseudopotential
        Co1           17.00    58.93319     Co( 1.00)
        Cu1           19.00    63.54600     Cu( 1.00)

     Starting magnetic structure
     atomic species   magnetization
        Co1          0.118
        Cu1          0.105

     No symmetry found

   Cartesian axes

     site n.     atom                  positions (alat units)
         1           Co1 tau(   1) = (   0.0000000   0.0000000  10.0000000  )
         2           Co1 tau(   2) = (   2.4760396   0.0000000  10.0000000  )
         3           Cu1 tau(   3) = (   1.2380198   2.2750170  10.0000000  )
         4           Cu1 tau(   4) = (  -1.2380198   2.2750170  10.0000000  )
         5           Co1 tau(   5) = (   2.4760396   1.3474124  12.0773184  )
         6           Co1 tau(   6) = (   0.0000000   1.3474124  12.0773184  )
         7           Cu1 tau(   7) = (  -1.2380198   3.6224293  12.0773184  )
         8           Cu1 tau(   8) = (   1.2380198   3.6224293  12.0773184  )
         9           Co1 tau(   9) = (   0.0000010   2.6480668  14.0826092  )
        10           Co1 tau(  10) = (   2.4760390   2.6480062  14.0828274  )
        11           Cu1 tau(  11) = (   3.7137326   0.3967044  14.2048148  )
        12           Cu1 tau(  12) = (   1.2383495   0.3967075  14.2048156  )

     number of k points=    40  Fermi-Dirac smearing, width (Ry)=  0.0110
                       cart. coord. in units 2pi/alat
        k(    1) = (   0.0000000   0.0000000   0.0000000), wk =   0.0277778
        k(    2) = (   0.0000000   0.0366298   0.0000000), wk =   0.0555556
        k(    3) = (   0.0000000   0.0732595   0.0000000), wk =   0.0555556
        k(    4) = (   0.0000000  -0.1098893   0.0000000), wk =   0.0277778
        k(    5) = (   0.0336559   0.0183149   0.0000000), wk =   0.0555556
        k(    6) = (   0.0336559   0.0549446   0.0000000), wk =   0.0555556
        k(    7) = (   0.0336559   0.0915744   0.0000000), wk =   0.0555556
        k(    8) = (   0.0336559  -0.0915744   0.0000000), wk =   0.0555556
        k(    9) = (   0.0336559  -0.0549446   0.0000000), wk =   0.0555556
        k(   10) = (   0.0336559  -0.0183149   0.0000000), wk =   0.0555556
        k(   11) = (   0.0673118   0.0366298   0.0000000), wk =   0.0555556
        k(   12) = (   0.0673118   0.0732595   0.0000000), wk =   0.0555556
        k(   13) = (   0.0673118   0.1098893   0.0000000), wk =   0.0555556
        k(   14) = (   0.0673118  -0.0732595   0.0000000), wk =   0.0555556
        k(   15) = (   0.0673118  -0.0366298   0.0000000), wk =   0.0555556
        k(   16) = (   0.0673118   0.0000000   0.0000000), wk =   0.0555556
        k(   17) = (  -0.1009677  -0.0549446   0.0000000), wk =   0.0277778
        k(   18) = (  -0.1009677  -0.0183149   0.0000000), wk =   0.0555556
        k(   19) = (  -0.1009677   0.0183149   0.0000000), wk =   0.0555556
        k(   20) = (  -0.1009677  -0.1648339   0.0000000), wk =   0.0277778
        k(   21) = (   0.0000000   0.0000000   0.0000000), wk =   0.0277778
        k(   22) = (   0.0000000   0.0366298   0.0000000), wk =   0.0555556
        k(   23) = (   0.0000000   0.0732595   0.0000000), wk =   0.0555556
        k(   24) = (   0.0000000  -0.1098893   0.0000000), wk =   0.0277778
        k(   25) = (   0.0336559   0.0183149   0.0000000), wk =   0.0555556
        k(   26) = (   0.0336559   0.0549446   0.0000000), wk =   0.0555556
        k(   27) = (   0.0336559   0.0915744   0.0000000), wk =   0.0555556
        k(   28) = (   0.0336559  -0.0915744   0.0000000), wk =   0.0555556
        k(   29) = (   0.0336559  -0.0549446   0.0000000), wk =   0.0555556
        k(   30) = (   0.0336559  -0.0183149   0.0000000), wk =   0.0555556
        k(   31) = (   0.0673118   0.0366298   0.0000000), wk =   0.0555556
        k(   32) = (   0.0673118   0.0732595   0.0000000), wk =   0.0555556
        k(   33) = (   0.0673118   0.1098893   0.0000000), wk =   0.0555556
        k(   34) = (   0.0673118  -0.0732595   0.0000000), wk =   0.0555556
        k(   35) = (   0.0673118  -0.0366298   0.0000000), wk =   0.0555556
        k(   36) = (   0.0673118   0.0000000   0.0000000), wk =   0.0555556
        k(   37) = (  -0.1009677  -0.0549446   0.0000000), wk =   0.0277778
        k(   38) = (  -0.1009677  -0.0183149   0.0000000), wk =   0.0555556
        k(   39) = (  -0.1009677   0.0183149   0.0000000), wk =   0.0555556
        k(   40) = (  -0.1009677  -0.1648339   0.0000000), wk =   0.0277778

     Largest allocated arrays     est. size (Mb)     dimensions
     Largest temporary arrays     est. size (Mb)     dimensions

     Check: negative/imaginary core charge=   -0.000004    0.000000

     Initial potential from superposition of free atoms
     Check: negative starting charge=(component1):   -0.000163
     Check: negative starting charge=(component2):   -0.000129

     starting charge  203.99995, renormalised to  216.00000

[...]

     *
     * You are using vdW-DF for exchange-correlation in this calculation.
     * Please cite the following three references that made this development
     * possible:
     *
     *   M. Dion, H. Rydberg, E. Schroder, D. C. Langreth, and
     *   B. I. Lundqvist, Phys. Rev. Lett. 92, 246401 (2004).
     *
     *   T. Thonhauser, V. R. Cooper, S. Li, A. Puzder, P. Hyldgaard, and
     *   D. C. Langreth, Phys. Rev. B 76, 125112 (2007).
     *
     *   G. Roman-Perez and J. M. Soler, Phys. Rev. Lett. 103, 096102 (2009).
     *
     *
     * If you are using vdW-DF2, please also cite:
     *
     *   K. Lee, E. D. Murray, L. Kong, B. I. Lundqvist, and
     *   D. C. Langreth, Phys. Rev. B 82, 081101(R) (2010).
     *
     *
     * If you are calculating the stress with vdW-DF, please also cite:
     *
     *   R. Sabatini, E. Kucukbenli, B. Kolb, T. Thonhauser, and
     *   S. de Gironcoli, J. Phys.: Condens. Matter 24, 424209 (2012).
     *

     Carrying out vdW-DF run using the following parameters:

     Nqs =      20    Nr_points =    1024   r_max =   100.000
     q_mesh =
               0.00001000     0.04494208     0.09755937     0.15916263
               0.23128650     0.31572767     0.41458969     0.53033537
               0.66584808     0.82450364     1.01025438     1.22772762
               1.48234092     1.78043706     2.12944203     2.53805004
               3.01644009     3.57652955     4.23227104     5.00000000

     Gradients computed in reciprocal space

[...]

     Starting wfc are  156 randomized atomic wfcs

     Self-consistent Calculation

[...]

     total energy              =   -4226.61532495 Ry
     Harris-Foulkes estimate   =   -4226.61532460 Ry
     estimated scf accuracy    <       0.00000170 Ry

[...]

     iteration # 34     ecut=    36.75 Ry     beta=0.10
     Davidson diagonalization with overlap
     ethr =  5.14E-10,  avg # of iterations =  1.0

[...]

     negative rho (up, down):  6.061E-04 5.125E-04

[...]

     Adding external electric field

     Computed dipole along edir(3) :
        Dipole               -0.0077 Ry au,         -0.0195 Debye
        Dipole field         -0.0000 Ry au

        Potential amp.        0.0023 Ry
        Total length         44.5045 bohr

     Magnetic moment per site:
     atom:    1    charge:    8.2914    magn:    0.9485    constr:    0.0000
     atom:    2    charge:    8.2914    magn:    0.9485    constr:    0.0000
     atom:    3    charge:   10.5958    magn:    0.0525    constr:    0.0000
     atom:    4    charge:   10.5958    magn:    0.0525    constr:    0.0000
     atom:    5    charge:    8.2934    magn:    0.9618    constr:    0.0000
     atom:    6    charge:    8.2934    magn:    0.9618    constr:    0.0000
     atom:    7    charge:   10.5995    magn:    0.0615    constr:    0.0000
     atom:    8    charge:   10.5995    magn:    0.0615    constr:    0.0000
     atom:    9    charge:    8.3003    magn:    0.9456    constr:    0.0000
     atom:   10    charge:    8.3003    magn:    0.9457    constr:    0.0000
     atom:   11    charge:   10.5998    magn:    0.0489    constr:    0.0000
     atom:   12    charge:   10.5998    magn:    0.0489    constr:    0.0000

     End of self-consistent calculation

 ------ SPIN UP ------------

[...]

 ------ SPIN DOWN ----------

[...]

          k = 0.0673 0.0000 0.0000 ( 13865 PWs)   bands (ev):

[...]

          k =-0.1010-0.1648 0.0000 ( 13804 PWs)   bands (ev):

  -112.2396-112.2396-111.9282-111.9282-111.8758-111.8758 -93.4770 -93.4769
   -93.2707 -93.2706 -93.2461 -93.2460 -69.6457 -69.6457 -69.6322 -69.6322
   -69.6196 -69.6196 -69.3552 -69.3552 -69.3463 -69.3463 -69.3086 -69.3083
   -69.2963 -69.2963 -69.2635 -69.2635 -69.2058 -69.2058 -56.8870 -56.8869
   -56.8164 -56.8163 -56.8158 -56.8157 -56.6455 -56.6454 -56.6303 -56.6302
   -56.6266 -56.6266 -56.6041 -56.6041 -56.5988 -56.5987 -56.5650 -56.5650
    -5.8517  -5.8514  -4.1821  -4.1817  -3.6313  -3.6313  -3.3110  -3.3109
    -3.1695  -3.1694  -2.9683  -2.9682  -2.8492  -2.8491  -2.6722  -2.6719
    -2.4443  -2.4441  -2.3933  -2.3927  -2.2939  -2.2935  -2.2378  -2.2378
    -2.1932  -2.1918  -2.0987  -2.0987  -2.0476  -2.0466  -1.8568  -1.8566
    -1.7512  -1.7509  -1.3732  -1.3731  -0.9456  -0.9454  -0.8301  -0.8299
    -0.7570  -0.7568  -0.3887  -0.3886  -0.1471  -0.1470  -0.0502  -0.0501
     0.0639   0.0641   0.0856   0.0857   0.1490   0.1493   0.2500   0.2500
     0.4855   0.4856   0.7877   0.7878   0.9213   0.9214   0.9727   0.9727
     1.9010   1.9011   2.0073   2.0075   2.7135   2.7137   4.0222   4.0227
     4.8281   4.8283   6.3953   6.3953   6.9497   6.9497   7.2182   7.2183
     7.6758   7.6760   8.0965   8.0967   8.2373   8.2373   8.7071   8.7071
     9.2149   9.2155

     the Fermi energy is     0.5485 ev

!    total energy              =   -4226.61532597 Ry
     Harris-Foulkes estimate   =   -4226.61532491 Ry
     estimated scf accuracy    <       0.00000084 Ry

     The total energy is the sum of the following terms:

     one-electron contribution =  -34083.99939788 Ry
     hartree contribution      =   17051.29220942 Ry
     xc contribution           =    -442.57881223 Ry
     ewald contribution        =   13248.74483125 Ry
     electric field correction =       0.00000020 Ry
     smearing contrib. (-TS)   =      -0.07415674 Ry

     total magnetization       =    10.28 Bohr mag/cell
     absolute magnetization    =    12.16 Bohr mag/cell

     convergence has been achieved in  34 iterations

 BEEF-vdW xc energy contributions
           1 :   -391.218360667402
           2 :    354.677407435196
           3 :   -292.641405847433
           4 :    222.022777466268
           5 :   -158.337308236044
           6 :    110.116152564255
           7 :   -77.5083506213792
           8 :    55.0468397244707
           9 :   -36.4076796040225
          10 :    18.2472063299624
          11 :   -1.23896783624599
          12 :   -11.6691907754063
          13 :    18.1203584381228
          14 :   -18.3225458669024
          15 :    14.9936837476562
          16 :   -11.6234347360671
          17 :    10.4083678037937
          18 :   -11.2583395609461
          19 :    12.3804886093411
          20 :   -11.8729898401510
          21 :    9.15278549345157
          22 :   -5.30037190722595
          23 :    2.21065501108575
          24 :   -1.25669544274496
          25 :    2.40930354345221
          26 :   -4.36812165777388
          27 :    5.52066418152896
          28 :   -5.02398885845759
          29 :    3.27478103557900
          30 :   -1.51394267901412
          31 :   -31.9681684944949
          32 :   -21.9755690783306

     Forces acting on atoms (Ry/au):

     negative rho (up, down):  6.061E-04 5.125E-04
     atom    1 type  1   force =    -0.00000001    0.00647334    0.01420839
     atom    2 type  1   force =    -0.00000004    0.00646971    0.01421241
     atom    3 type  2   force =    -0.00000435   -0.00469899   -0.00875551
     atom    4 type  2   force =     0.00000434   -0.00469885   -0.00875585
     atom    5 type  1   force =     0.00000001   -0.00553753   -0.00129973
     atom    6 type  1   force =     0.00000014   -0.00557718   -0.00131253
     atom    7 type  2   force =    -0.00003904    0.00475306   -0.00278187
     atom    8 type  2   force =     0.00003910    0.00475256   -0.00278190
     atom    9 type  1   force =    -0.00000010   -0.00141830   -0.00086208
     atom   10 type  1   force =     0.00000014   -0.00134887   -0.00091745
     atom   11 type  2   force =     0.00017496    0.00041588   -0.00047702
     atom   12 type  2   force =    -0.00017514    0.00041519   -0.00047687

     Total force =     0.028587     Total SCF correction =     0.004982
     SCF correction compared to forces is large: reduce conv_thr to get better values

     entering subroutine stress ...

     negative rho (up, down):  6.061E-04 5.125E-04
          total   stress  (Ry/bohr**3)                   (kbar)     P=  -18.22
  -0.00014604   0.00000000  -0.00000000        -21.48      0.00     -0.00
   0.00000000  -0.00016247  -0.00000612          0.00    -23.90     -0.90
  -0.00000000  -0.00000612  -0.00006309         -0.00     -0.90     -9.28

 !ASE

     Writing output data file calc.save

     General routines

     Parallel routines

   This run was terminated on:   0:41:21  19Dec2018

   JOB DONE.
Job  /afs/slac/g/suncat/bin/suncat-tsmpirun -x LD_LIBRARY_PATH -wdir /scratch/qe529672_5uFoO pw.x -in pw.inp

TID   HOST_NAME   COMMAND_LINE            STATUS            TERMINATION_TIME
00000 suncat0007 pw.x -in pw.inp   Done                     12/19/2018 00:41:21
00001 suncat0007 pw.x -in pw.inp   Done                     12/19/2018 00:41:21
00002 suncat0007 pw.x -in pw.inp   Done                     12/19/2018 00:41:21
00003 suncat0007 pw.x -in pw.inp   Done                     12/19/2018 00:41:21
00004 suncat0007 pw.x -in pw.inp   Done                     12/19/2018 00:41:21
00005 suncat0007 pw.x -in pw.inp   Done                     12/19/2018 00:41:21
00006 suncat0007 pw.x -in pw.inp   Done                     12/19/2018 00:41:21
00007 suncat0007 pw.x -in pw.inp   Done                     12/19/2018 00:41:21
00008 suncat0006 pw.x -in pw.inp   Done                     12/19/2018 00:41:21
00009 suncat0006 pw.x -in pw.inp   Done                     12/19/2018 00:41:21
00010 suncat0006 pw.x -in pw.inp   Done                     12/19/2018 00:41:21
00011 suncat0006 pw.x -in pw.inp   Done                     12/19/2018 00:41:21
00012 suncat0006 pw.x -in pw.inp   Done                     12/19/2018 00:41:21
00013 suncat0006 pw.x -in pw.inp   Done                     12/19/2018 00:41:21
00014 suncat0006 pw.x -in pw.inp   Done                     12/19/2018 00:41:21
00015 suncat0006 pw.x -in pw.inp   Done                     12/19/2018 00:41:21
00016 suncat0005 pw.x -in pw.inp   Done                     12/19/2018 00:41:21
00017 suncat0005 pw.x -in pw.inp   Done                     12/19/2018 00:41:21
00018 suncat0005 pw.x -in pw.inp   Done                     12/19/2018 00:41:21
00019 suncat0005 pw.x -in pw.inp   Done                     12/19/2018 00:41:21
00020 suncat0005 pw.x -in pw.inp   Done                     12/19/2018 00:41:21
00021 suncat0005 pw.x -in pw.inp   Done                     12/19/2018 00:41:21
00022 suncat0005 pw.x -in pw.inp   Done                     12/19/2018 00:41:21
00023 suncat0005 pw.x -in pw.inp   Done                     12/19/2018 00:41:21
00024 suncat0004 pw.x -in pw.inp   Done                     12/19/2018 00:41:21
00025 suncat0004 pw.x -in pw.inp   Done                     12/19/2018 00:41:21
00026 suncat0004 pw.x -in pw.inp   Done                     12/19/2018 00:41:21
00027 suncat0004 pw.x -in pw.inp   Done                     12/19/2018 00:41:21
00028 suncat0004 pw.x -in pw.inp   Done                     12/19/2018 00:41:21
00029 suncat0004 pw.x -in pw.inp   Done                     12/19/2018 00:41:21
00030 suncat0004 pw.x -in pw.inp   Done                     12/19/2018 00:41:21
00031 suncat0004 pw.x -in pw.inp   Done                     12/19/2018 00:41:21