     Program PWSCF v.5.1rc2 (svn rev. 11289) starts on 19Dec2018 at  0: 8:37

     Current dimensions of program PWSCF are:
     Max number of different atomic species (ntypx) = 10
     Max number of k-points (npk) =  40000
     Max angular momentum in pseudopotentials (lmaxx) =  3
     Presently stress not available with electric field

     IMPORTANT: XC functional enforced from input :
     Exchange-correlation      = BEEF-VDW ( 1  4 27 13 2)
     Any further DFT definition will be discarded
     Please, verify this is what you really want

     Subspace diagonalization in iterative solution of the eigenvalue problem:
     a serial algorithm will be used

     Found symmetry operation: I + (  0.5000 -0.5000  0.0000)
     This is a supercell, fractional translations are disabled

     Generating pointlists ...
     new r_m :   0.4125 (alat units)  0.7795 (a.u.) for type    1
     new r_m :   0.4125 (alat units)  0.7795 (a.u.) for type    2

     bravais-lattice index     =            0
     lattice parameter (alat)  =       1.8897  a.u.
     unit-cell volume          =    4851.5334 (a.u.)^3
     number of atoms/cell      =           12
     number of atomic types    =            2
     number of electrons       =       180.00
     number of Kohn-Sham states=          120
     kinetic-energy cutoff     =      36.7493  Ry
     charge density cutoff     =     367.4932  Ry
     convergence threshold     =      1.0E-06
     mixing beta               =       0.1000
     number of iterations used =           10  plain     mixing
     Exchange-correlation      = BEEF-VDW ( 1  4 27 13 2)
     nstep                     =           50

     celldm(1)=   1.889726  celldm(2)=   0.000000  celldm(3)=   0.000000
     celldm(4)=   0.000000  celldm(5)=   0.000000  celldm(6)=   0.000000

     crystal axes: (cart. coord. in units of alat)
               a(1) = (   5.571733   0.000000   0.000000 )
               a(2) = (   1.847137   5.256643   0.000000 )
               a(3) = (   0.000000   0.000000  24.546167 )

     reciprocal axes: (cart. coord. in units 2 pi/alat)
               b(1) = (  0.179477 -0.063067  0.000000 )
               b(2) = (  0.000000  0.190235  0.000000 )
               b(3) = (  0.000000  0.000000  0.040740 )

     PseudoPot. # 1 for Ni read from file:
     /afs/slac.stanford.edu/u/if/mamunm/psp/gbrv1.5pbe/Ni.UPF
     MD5 check sum: 1ee80287db30b12d2bc1f57a5b5d6409
     Pseudo is Ultrasoft + core correction, Zval = 18.0
     Generated by new atomic code, or converted to UPF format
     Using radial grid of  865 points,  6 beta functions with:
                l(1) =   0
                l(2) =   0
                l(3) =   1
                l(4) =   1
                l(5) =   2
                l(6) =   2
     Q(r) pseudized with 10 coefficients,  rinner =    0.980   0.980   0.980
                                                       0.980   0.980

     PseudoPot. # 2 for Zr read from file:
     /afs/slac.stanford.edu/u/if/mamunm/psp/gbrv1.5pbe/Zr.UPF
     MD5 check sum: 5db81b1e868ab7776c4564c113de050b
     Pseudo is Ultrasoft + core correction, Zval = 12.0
     Generated by new atomic code, or converted to UPF format
     Using radial grid of  887 points,  6 beta functions with:
                l(1) =   0
                l(2) =   0
                l(3) =   1
                l(4) =   1
                l(5) =   2
                l(6) =   2
     Q(r) pseudized with  6 coefficients,  rinner =    1.200   1.200   1.200
                                                       1.200   1.200

     vdW kernel table read from file vdW_kernel_table
     MD5 check sum: 095c7af220d748ca6e76c0b4c6cfb241

     atomic species   valence    mass     pseudopotential
        Ni1           18.00    58.69340     Ni( 1.00)
        Zr1           12.00    91.22400     Zr( 1.00)

     Starting magnetic structure
     atomic species   magnetization
        Ni1          0.111
        Zr1          0.167

     No symmetry found

   Cartesian axes

     site n.     atom                  positions (alat units)
         1           Ni1 tau(   1) = (   0.0000000   0.0000000  10.0000000  )
         2           Ni1 tau(   2) = (   3.7094350   2.6283213  10.0000000  )
         3           Zr1 tau(   3) = (   2.7858664   0.0000000  10.0000000  )
         4           Zr1 tau(   4) = (   0.9235686   2.6283213  10.0000000  )
         5           Ni1 tau(   5) = (   5.5717328   3.9478530  12.2730836  )
         6           Ni1 tau(   6) = (   1.8622979   1.3195317  12.2730836  )
         7           Zr1 tau(   7) = (   2.7858664   3.9478530  12.2730836  )
         8           Zr1 tau(   8) = (   4.6481643   1.3195317  12.2730836  )
         9           Ni1 tau(   9) = (   3.7245957   2.6390635  14.5461671  )
        10           Ni1 tau(  10) = (   0.0151607   0.0107422  14.5461671  )
        11           Zr1 tau(  11) = (   0.9387293   2.6390635  14.5461671  )
        12           Zr1 tau(  12) = (   2.8010272   0.0107422  14.5461671  )

     number of k points=    40  Fermi-Dirac smearing, width (Ry)=  0.0110
                       cart. coord. in units 2pi/alat
        k(    1) = (   0.0000000   0.0000000   0.0000000), wk =   0.0277778
        k(    2) = (   0.0000000   0.0317059   0.0000000), wk =   0.0555556
        k(    3) = (   0.0000000   0.0634118   0.0000000), wk =   0.0555556
        k(    4) = (   0.0000000  -0.0951177   0.0000000), wk =   0.0277778
        k(    5) = (   0.0299129  -0.0105111   0.0000000), wk =   0.0555556
        k(    6) = (   0.0299129   0.0211948   0.0000000), wk =   0.0555556
        k(    7) = (   0.0299129   0.0529007   0.0000000), wk =   0.0555556
        k(    8) = (   0.0299129  -0.1056289   0.0000000), wk =   0.0555556
        k(    9) = (   0.0299129  -0.0739230   0.0000000), wk =   0.0555556
        k(   10) = (   0.0299129  -0.0422170   0.0000000), wk =   0.0555556
        k(   11) = (   0.0598258  -0.0210222   0.0000000), wk =   0.0555556
        k(   12) = (   0.0598258   0.0106837   0.0000000), wk =   0.0555556
        k(   13) = (   0.0598258   0.0423896   0.0000000), wk =   0.0555556
        k(   14) = (   0.0598258  -0.1161400   0.0000000), wk =   0.0555556
        k(   15) = (   0.0598258  -0.0844341   0.0000000), wk =   0.0555556
        k(   16) = (   0.0598258  -0.0527282   0.0000000), wk =   0.0555556
        k(   17) = (  -0.0897387   0.0315334   0.0000000), wk =   0.0277778
        k(   18) = (  -0.0897387   0.0632393   0.0000000), wk =   0.0555556
        k(   19) = (  -0.0897387   0.0949452   0.0000000), wk =   0.0555556
        k(   20) = (  -0.0897387  -0.0635844   0.0000000), wk =   0.0277778
        k(   21) = (   0.0000000   0.0000000   0.0000000), wk =   0.0277778
        k(   22) = (   0.0000000   0.0317059   0.0000000), wk =   0.0555556
        k(   23) = (   0.0000000   0.0634118   0.0000000), wk =   0.0555556
        k(   24) = (   0.0000000  -0.0951177   0.0000000), wk =   0.0277778
        k(   25) = (   0.0299129  -0.0105111   0.0000000), wk =   0.0555556
        k(   26) = (   0.0299129   0.0211948   0.0000000), wk =   0.0555556
        k(   27) = (   0.0299129   0.0529007   0.0000000), wk =   0.0555556
        k(   28) = (   0.0299129  -0.1056289   0.0000000), wk =   0.0555556
        k(   29) = (   0.0299129  -0.0739230   0.0000000), wk =   0.0555556
        k(   30) = (   0.0299129  -0.0422170   0.0000000), wk =   0.0555556
        k(   31) = (   0.0598258  -0.0210222   0.0000000), wk =   0.0555556
        k(   32) = (   0.0598258   0.0106837   0.0000000), wk =   0.0555556
        k(   33) = (   0.0598258   0.0423896   0.0000000), wk =   0.0555556
        k(   34) = (   0.0598258  -0.1161400   0.0000000), wk =   0.0555556
        k(   35) = (   0.0598258  -0.0844341   0.0000000), wk =   0.0555556
        k(   36) = (   0.0598258  -0.0527282   0.0000000), wk =   0.0555556
        k(   37) = (  -0.0897387   0.0315334   0.0000000), wk =   0.0277778
        k(   38) = (  -0.0897387   0.0632393   0.0000000), wk =   0.0555556
        k(   39) = (  -0.0897387   0.0949452   0.0000000), wk =   0.0555556
        k(   40) = (  -0.0897387  -0.0635844   0.0000000), wk =   0.0277778

     Largest allocated arrays     est. size (Mb)     dimensions
     Largest temporary arrays     est. size (Mb)     dimensions

     Check: negative/imaginary core charge=   -0.000001    0.000000

     Initial potential from superposition of free atoms
     Check: negative starting charge=(component1):   -0.214780
     Check: negative starting charge=(component2):   -0.153436

     starting charge  167.98710, renormalised to  180.00000

     negative rho (up, down):  2.301E-01 1.644E-01

     *
     * You are using vdW-DF for exchange-correlation in this calculation.
     * Please cite the following three references that made this development
     * possible:
     *
     *   M. Dion, H. Rydberg, E. Schroder, D. C. Langreth, and
     *   B. I. Lundqvist, Phys. Rev. Lett. 92, 246401 (2004).
     *
     *   T. Thonhauser, V. R. Cooper, S. Li, A. Puzder, P. Hyldgaard, and
     *   D. C. Langreth, Phys. Rev. B 76, 125112 (2007).
     *
     *   G. Roman-Perez and J. M. Soler, Phys. Rev. Lett. 103, 096102 (2009).
     *
     *
     * If you are using vdW-DF2, please also cite:
     *
     *   K. Lee, E. D. Murray, L. Kong, B. I. Lundqvist, and
     *   D. C. Langreth, Phys. Rev. B 82, 081101(R) (2010).
     *
     *
     * If you are calculating the stress with vdW-DF, please also cite:
     *
     *   R. Sabatini, E. Kucukbenli, B. Kolb, T. Thonhauser, and
     *   S. de Gironcoli, J. Phys.: Condens. Matter 24, 424209 (2012).
     *

     Carrying out vdW-DF run using the following parameters:

     Nqs =      20    Nr_points =    1024   r_max =   100.000
     q_mesh =
               0.00001000     0.04494208     0.09755937     0.15916263
               0.23128650     0.31572767     0.41458969     0.53033537
               0.66584808     0.82450364     1.01025438     1.22772762
               1.48234092     1.78043706     2.12944203     2.53805004
               3.01644009     3.57652955     4.23227104     5.00000000

     Gradients computed in reciprocal space

     Adding external electric field

     Computed dipole along edir(3) :
        Dipole                0.0000 Ry au,          0.0000 Debye
        Dipole field          0.0000 Ry au

        Potential amp.       -0.0000 Ry
        Total length         45.2259 bohr

[...]

     Starting wfc are  156 randomized atomic wfcs

     Self-consistent Calculation

     iteration #  1     ecut=    36.75 Ry     beta=0.10
     Davidson diagonalization with overlap
     ethr =  1.00E-02,  avg # of iterations =  7.4

[...]

     Magnetic moment per site:
     atom:    1    charge:    9.5504    magn:    1.0091    constr:    0.0000
     atom:    2    charge:    9.5504    magn:    1.0091    constr:    0.0000
     atom:    3    charge:    1.1870    magn:    0.1798    constr:    0.0000
     atom:    4    charge:    1.1870    magn:    0.1798    constr:    0.0000
     atom:    5    charge:    9.5666    magn:    1.0104    constr:    0.0000
     atom:    6    charge:    9.5666    magn:    1.0104    constr:    0.0000
[...]
                l(4) =   1
                l(5) =   2
                l(6) =   2
     Q(r) pseudized with 10 coefficients,  rinner =    0.980   0.980   0.980
                                                       0.980   0.980

     PseudoPot. # 2 for Zr read from file:
     /afs/slac.stanford.edu/u/if/mamunm/psp/gbrv1.5pbe/Zr.UPF
     MD5 check sum: 5db81b1e868ab7776c4564c113de050b
     Pseudo is Ultrasoft + core correction, Zval = 12.0
     Generated by new atomic code, or converted to UPF format
     Using radial grid of  887 points,  6 beta functions with:
                l(1) =   0
                l(2) =   0
                l(3) =   1
                l(4) =   1
                l(5) =   2
                l(6) =   2
     Q(r) pseudized with  6 coefficients,  rinner =    1.200   1.200   1.200
                                                       1.200   1.200

     vdW kernel table read from file vdW_kernel_table
     MD5 check sum: 095c7af220d748ca6e76c0b4c6cfb241

     atomic species   valence    mass     pseudopotential
        Ni1           18.00    58.69340     Ni( 1.00)
        Zr1           12.00    91.22400     Zr( 1.00)

     Starting magnetic structure
     atomic species   magnetization
        Ni1          0.111
        Zr1          0.167

     No symmetry found

   Cartesian axes

     site n.     atom                  positions (alat units)
         1           Ni1 tau(   1) = (   0.0000000   0.0000000  10.0000000  )
         2           Ni1 tau(   2) = (   3.7094350   2.6283213  10.0000000  )
         3           Zr1 tau(   3) = (   2.7858664   0.0000000  10.0000000  )
         4           Zr1 tau(   4) = (   0.9235686   2.6283213  10.0000000  )
         5           Ni1 tau(   5) = (   5.5717328   3.9478530  12.2730836  )
         6           Ni1 tau(   6) = (   1.8622979   1.3195317  12.2730836  )
         7           Zr1 tau(   7) = (   2.7858664   3.9478530  12.2730836  )
         8           Zr1 tau(   8) = (   4.6481643   1.3195317  12.2730836  )
         9           Ni1 tau(   9) = (   3.7237472   2.6384525  14.3088550  )
        10           Ni1 tau(  10) = (   0.0142417   0.0101001  14.3088297  )
        11           Zr1 tau(  11) = (   0.9357924   2.6369773  14.5694475  )
        12           Zr1 tau(  12) = (   2.7980796   0.0086581  14.5694474  )

     number of k points=    40  Fermi-Dirac smearing, width (Ry)=  0.0110
                       cart. coord. in units 2pi/alat
        k(    1) = (   0.0000000   0.0000000   0.0000000), wk =   0.0277778
        k(    2) = (   0.0000000   0.0317059   0.0000000), wk =   0.0555556
        k(    3) = (   0.0000000   0.0634118   0.0000000), wk =   0.0555556
        k(    4) = (   0.0000000  -0.0951177   0.0000000), wk =   0.0277778
        k(    5) = (   0.0299129  -0.0105111   0.0000000), wk =   0.0555556
        k(    6) = (   0.0299129   0.0211948   0.0000000), wk =   0.0555556
        k(    7) = (   0.0299129   0.0529007   0.0000000), wk =   0.0555556
        k(    8) = (   0.0299129  -0.1056289   0.0000000), wk =   0.0555556
        k(    9) = (   0.0299129  -0.0739230   0.0000000), wk =   0.0555556
        k(   10) = (   0.0299129  -0.0422170   0.0000000), wk =   0.0555556
        k(   11) = (   0.0598258  -0.0210222   0.0000000), wk =   0.0555556
        k(   12) = (   0.0598258   0.0106837   0.0000000), wk =   0.0555556
        k(   13) = (   0.0598258   0.0423896   0.0000000), wk =   0.0555556
        k(   14) = (   0.0598258  -0.1161400   0.0000000), wk =   0.0555556
        k(   15) = (   0.0598258  -0.0844341   0.0000000), wk =   0.0555556
        k(   16) = (   0.0598258  -0.0527282   0.0000000), wk =   0.0555556
        k(   17) = (  -0.0897387   0.0315334   0.0000000), wk =   0.0277778
        k(   18) = (  -0.0897387   0.0632393   0.0000000), wk =   0.0555556
        k(   19) = (  -0.0897387   0.0949452   0.0000000), wk =   0.0555556
        k(   20) = (  -0.0897387  -0.0635844   0.0000000), wk =   0.0277778
        k(   21) = (   0.0000000   0.0000000   0.0000000), wk =   0.0277778
        k(   22) = (   0.0000000   0.0317059   0.0000000), wk =   0.0555556
        k(   23) = (   0.0000000   0.0634118   0.0000000), wk =   0.0555556
        k(   24) = (   0.0000000  -0.0951177   0.0000000), wk =   0.0277778
        k(   25) = (   0.0299129  -0.0105111   0.0000000), wk =   0.0555556
        k(   26) = (   0.0299129   0.0211948   0.0000000), wk =   0.0555556
        k(   27) = (   0.0299129   0.0529007   0.0000000), wk =   0.0555556
        k(   28) = (   0.0299129  -0.1056289   0.0000000), wk =   0.0555556
        k(   29) = (   0.0299129  -0.0739230   0.0000000), wk =   0.0555556
        k(   30) = (   0.0299129  -0.0422170   0.0000000), wk =   0.0555556
        k(   31) = (   0.0598258  -0.0210222   0.0000000), wk =   0.0555556
        k(   32) = (   0.0598258   0.0106837   0.0000000), wk =   0.0555556
        k(   33) = (   0.0598258   0.0423896   0.0000000), wk =   0.0555556
        k(   34) = (   0.0598258  -0.1161400   0.0000000), wk =   0.0555556
        k(   35) = (   0.0598258  -0.0844341   0.0000000), wk =   0.0555556
        k(   36) = (   0.0598258  -0.0527282   0.0000000), wk =   0.0555556
        k(   37) = (  -0.0897387   0.0315334   0.0000000), wk =   0.0277778
        k(   38) = (  -0.0897387   0.0632393   0.0000000), wk =   0.0555556
        k(   39) = (  -0.0897387   0.0949452   0.0000000), wk =   0.0555556
        k(   40) = (  -0.0897387  -0.0635844   0.0000000), wk =   0.0277778

     Largest allocated arrays     est. size (Mb)     dimensions
     Largest temporary arrays     est. size (Mb)     dimensions

     Check: negative/imaginary core charge=   -0.000001    0.000000

     Initial potential from superposition of free atoms
     Check: negative starting charge=(component1):   -0.215570
     Check: negative starting charge=(component2):   -0.153999

     starting charge  167.98710, renormalised to  180.00000

[...]

     *
     * You are using vdW-DF for exchange-correlation in this calculation.
     * Please cite the following three references that made this development
     * possible:
     *
     *   M. Dion, H. Rydberg, E. Schroder, D. C. Langreth, and
     *   B. I. Lundqvist, Phys. Rev. Lett. 92, 246401 (2004).
     *
     *   T. Thonhauser, V. R. Cooper, S. Li, A. Puzder, P. Hyldgaard, and
     *   D. C. Langreth, Phys. Rev. B 76, 125112 (2007).
     *
     *   G. Roman-Perez and J. M. Soler, Phys. Rev. Lett. 103, 096102 (2009).
     *
     *
     * If you are using vdW-DF2, please also cite:
     *
     *   K. Lee, E. D. Murray, L. Kong, B. I. Lundqvist, and
     *   D. C. Langreth, Phys. Rev. B 82, 081101(R) (2010).
     *
     *
     * If you are calculating the stress with vdW-DF, please also cite:
     *
     *   R. Sabatini, E. Kucukbenli, B. Kolb, T. Thonhauser, and
     *   S. de Gironcoli, J. Phys.: Condens. Matter 24, 424209 (2012).
     *

     Carrying out vdW-DF run using the following parameters:

     Nqs =      20    Nr_points =    1024   r_max =   100.000
     q_mesh =
               0.00001000     0.04494208     0.09755937     0.15916263
               0.23128650     0.31572767     0.41458969     0.53033537
               0.66584808     0.82450364     1.01025438     1.22772762
               1.48234092     1.78043706     2.12944203     2.53805004
               3.01644009     3.57652955     4.23227104     5.00000000

     Gradients computed in reciprocal space

[...]

     Starting wfc are  156 randomized atomic wfcs

     Self-consistent Calculation

[...]

     total energy              =   -2665.26057843 Ry
     Harris-Foulkes estimate   =   -2665.26057596 Ry
     estimated scf accuracy    <       0.00000111 Ry

[...]

     iteration # 37     ecut=    36.75 Ry     beta=0.10
     Davidson diagonalization with overlap
     ethr =  6.18E-10,  avg # of iterations =  2.0

[...]

     negative rho (up, down):  1.902E-01 1.902E-01

[...]

     Adding external electric field

     Computed dipole along edir(3) :
        Dipole                0.0821 Ry au,          0.2088 Debye
        Dipole field          0.0002 Ry au

        Potential amp.       -0.0192 Ry
        Total length         45.2259 bohr

     Magnetic moment per site:
     atom:    1    charge:    9.3442    magn:   -0.0017    constr:    0.0000
     atom:    2    charge:    9.3442    magn:   -0.0017    constr:    0.0000
     atom:    3    charge:    1.1076    magn:    0.0001    constr:    0.0000
     atom:    4    charge:    1.1076    magn:    0.0001    constr:    0.0000
     atom:    5    charge:    9.3477    magn:    0.0011    constr:    0.0000
     atom:    6    charge:    9.3478    magn:    0.0011    constr:    0.0000
     atom:    7    charge:    1.1151    magn:    0.0000    constr:    0.0000
     atom:    8    charge:    1.1151    magn:    0.0000    constr:    0.0000
     atom:    9    charge:    9.3452    magn:   -0.0015    constr:    0.0000
     atom:   10    charge:    9.3452    magn:   -0.0015    constr:    0.0000
     atom:   11    charge:    1.1109    magn:    0.0001    constr:    0.0000
     atom:   12    charge:    1.1109    magn:    0.0001    constr:    0.0000

     End of self-consistent calculation

 ------ SPIN UP ------------

[...]

 ------ SPIN DOWN ----------

[...]

          k = 0.0598-0.0527 0.0000 ( 18252 PWs)   bands (ev):

[...]

          k =-0.0897-0.0636 0.0000 ( 18252 PWs)   bands (ev):

  -101.9577-101.9574-101.9424-101.9421-101.7297-101.7295 -62.3523 -62.3521
   -62.3512 -62.3473 -62.3233 -62.3232 -62.3210 -62.3196 -62.3075 -62.3061
   -62.3060 -62.3026 -62.2004 -62.1996 -62.1270 -62.1221 -62.0076 -62.0074
   -48.1830 -48.1433 -48.1112 -48.0716 -47.6965 -47.6520 -26.2826 -26.2662
   -26.2125 -26.2058 -26.1862 -26.1801 -26.1264 -26.0967 -26.0937 -26.0260
   -25.9455 -25.8031 -25.7404 -25.6325 -25.6260 -25.6087 -25.5806 -25.4676
    -3.0176  -2.8638  -1.9913  -1.6685  -1.6661  -1.5627  -1.5379  -1.4418
    -1.3040  -1.0373  -0.9565  -0.9038  -0.9003  -0.8302  -0.8029  -0.7605
    -0.6374  -0.6261  -0.5038  -0.5027  -0.5007  -0.4651  -0.4425  -0.4031
    -0.3181  -0.2368  -0.2232  -0.2167  -0.1919  -0.1517  -0.1344  -0.0653
    -0.0268   0.0950   0.1415   0.1804   0.2623   0.2991   0.3515   0.4498
     0.5636   1.1202   1.1388   1.2299   1.3416   1.4610   1.5466   1.5581
     1.8978   2.3252   2.3400   2.4459   2.7908   2.9386   2.9973   3.0418
     3.0752   3.5135   3.5713   3.6650   4.1986   4.2485   4.4354   4.8215
     5.2292   5.2435   5.3693   5.9399   6.1204   6.1719   6.5055   6.7050

     the Fermi energy is     1.5323 ev

!    total energy              =   -2665.26058598 Ry
     Harris-Foulkes estimate   =   -2665.26057877 Ry
     estimated scf accuracy    <       0.00000068 Ry

     The total energy is the sum of the following terms:

     one-electron contribution =  -18052.09495377 Ry
     hartree contribution      =    9028.62794337 Ry
     xc contribution           =    -330.83165777 Ry
     ewald contribution        =    6689.12115866 Ry
     electric field correction =       0.00001747 Ry
     smearing contrib. (-TS)   =      -0.08309394 Ry

     total magnetization       =     0.02 Bohr mag/cell
     absolute magnetization    =     0.04 Bohr mag/cell

     convergence has been achieved in  37 iterations

 BEEF-vdW xc energy contributions
           1 :   -288.810904187267
           2 :    261.689273197718
           3 :   -215.956211393991
           4 :    164.652392012834
           5 :   -119.767727271443
           6 :    87.9142192062258
           7 :   -69.1207218018806
           8 :    58.7519184776800
           9 :   -51.0479888737442
          10 :    42.2456600472326
          11 :   -31.8480269027857
          12 :    21.8015208574338
          13 :   -14.4955712678247
          14 :    10.9685096144495
          15 :   -10.3511866302619
          16 :    10.6465814898231
          17 :   -10.1109697635920
          18 :    8.23988675291025
          19 :   -5.79554262128738
          20 :    4.01547546530696
          21 :   -3.65338241316181
          22 :    4.49639837222503
          23 :   -5.60491934763394
          24 :    6.01130068373504
          25 :   -5.35878394385793
          26 :    4.05838182683283
          27 :   -2.91726004453039
          28 :    2.54471390795368
          29 :   -2.96459080714141
          30 :    3.66818568305155
          31 :   -27.0408236576006
          32 :   -19.3944922945713

     Forces acting on atoms (Ry/au):

     negative rho (up, down):  1.902E-01 1.902E-01
     atom    1 type  1   force =    -0.00007368   -0.00005211    0.02873671
     atom    2 type  1   force =    -0.00006537   -0.00004637    0.02878290
     atom    3 type  2   force =     0.00049167    0.00035149   -0.01110942
     atom    4 type  2   force =     0.00049482    0.00034746   -0.01110937
     atom    5 type  1   force =     0.00002067    0.00001485    0.00763865
     atom    6 type  1   force =     0.00005362    0.00003787    0.00763647
     atom    7 type  2   force =    -0.00028304   -0.00018597   -0.02432199
     atom    8 type  2   force =    -0.00026919   -0.00020541   -0.02432279
     atom    9 type  1   force =    -0.00009174   -0.00006399    0.00035115
     atom   10 type  1   force =    -0.00009915   -0.00007124    0.00038266
     atom   11 type  2   force =    -0.00008774   -0.00006576   -0.00133250
     atom   12 type  2   force =    -0.00009087   -0.00006083   -0.00133248

     Total force =     0.056619     Total SCF correction =     0.002230

     entering subroutine stress ...

     negative rho (up, down):  1.902E-01 1.902E-01
          total   stress  (Ry/bohr**3)                   (kbar)     P=  -38.79
  -0.00030232  -0.00001985  -0.00000116        -44.47     -2.92     -0.17
  -0.00001985  -0.00028837  -0.00000082         -2.92    -42.42     -0.12
  -0.00000116  -0.00000082  -0.00020036         -0.17     -0.12    -29.47

 !ASE

     Writing output data file calc.save

     General routines

     Parallel routines

   This run was terminated on:   2:12:32  19Dec2018

   JOB DONE.
Job  /afs/slac/g/suncat/bin/suncat-tsmpirun -x LD_LIBRARY_PATH -wdir /scratch/qe530395_V403E pw.x -in pw.inp

TID   HOST_NAME   COMMAND_LINE            STATUS            TERMINATION_TIME
00000 suncat2052 pw.x -in pw.inp   Done                     12/19/2018 02:12:32
00001 suncat2052 pw.x -in pw.inp   Done                     12/19/2018 02:12:32
00002 suncat2052 pw.x -in pw.inp   Done                     12/19/2018 02:12:32
00003 suncat2052 pw.x -in pw.inp   Done                     12/19/2018 02:12:32
00004 suncat2052 pw.x -in pw.inp   Done                     12/19/2018 02:12:32
00005 suncat2052 pw.x -in pw.inp   Done                     12/19/2018 02:12:32
00006 suncat2052 pw.x -in pw.inp   Done                     12/19/2018 02:12:32
00007 suncat2052 pw.x -in pw.inp   Done                     12/19/2018 02:12:32
00008 suncat2052 pw.x -in pw.inp   Done                     12/19/2018 02:12:32
00009 suncat2052 pw.x -in pw.inp   Done                     12/19/2018 02:12:32
00010 suncat2052 pw.x -in pw.inp   Done                     12/19/2018 02:12:32
00011 suncat2052 pw.x -in pw.inp   Done                     12/19/2018 02:12:32
00012 suncat2052 pw.x -in pw.inp   Done                     12/19/2018 02:12:32
00013 suncat2052 pw.x -in pw.inp   Done                     12/19/2018 02:12:32
00014 suncat2052 pw.x -in pw.inp   Done                     12/19/2018 02:12:32
00015 suncat2052 pw.x -in pw.inp   Done                     12/19/2018 02:12:32
00016 suncat2051 pw.x -in pw.inp   Done                     12/19/2018 02:12:32
00017 suncat2051 pw.x -in pw.inp   Done                     12/19/2018 02:12:32
00018 suncat2051 pw.x -in pw.inp   Done                     12/19/2018 02:12:32
00019 suncat2051 pw.x -in pw.inp   Done                     12/19/2018 02:12:32
00020 suncat2051 pw.x -in pw.inp   Done                     12/19/2018 02:12:32
00021 suncat2051 pw.x -in pw.inp   Done                     12/19/2018 02:12:32
00022 suncat2051 pw.x -in pw.inp   Done                     12/19/2018 02:12:32
00023 suncat2051 pw.x -in pw.inp   Done                     12/19/2018 02:12:32
00024 suncat2051 pw.x -in pw.inp   Done                     12/19/2018 02:12:32
00025 suncat2051 pw.x -in pw.inp   Done                     12/19/2018 02:12:32
00026 suncat2051 pw.x -in pw.inp   Done                     12/19/2018 02:12:32
00027 suncat2051 pw.x -in pw.inp   Done                     12/19/2018 02:12:32
00028 suncat2051 pw.x -in pw.inp   Done                     12/19/2018 02:12:32
00029 suncat2051 pw.x -in pw.inp   Done                     12/19/2018 02:12:32
00030 suncat2051 pw.x -in pw.inp   Done                     12/19/2018 02:12:32
00031 suncat2051 pw.x -in pw.inp   Done                     12/19/2018 02:12:32