     Program PWSCF v.5.1rc2 (svn rev. 11289) starts on 24Dec2018 at 22:20: 1

     Current dimensions of program PWSCF are:
     Max number of different atomic species (ntypx) = 10
     Max number of k-points (npk) =  40000
     Max angular momentum in pseudopotentials (lmaxx) =  3
     Presently stress not available with electric field

     IMPORTANT: XC functional enforced from input :
     Exchange-correlation      = BEEF-VDW ( 1  4 27 13 2)
     Any further DFT definition will be discarded
     Please, verify this is what you really want

     Subspace diagonalization in iterative solution of the eigenvalue problem:
     a serial algorithm will be used

     Found symmetry operation: I + ( -0.5000  0.5000  0.0000)
     This is a supercell, fractional translations are disabled

     bravais-lattice index     =            0
     lattice parameter (alat)  =       1.8897  a.u.
     unit-cell volume          =    4929.2786 (a.u.)^3
     number of atoms/cell      =           12
     number of atomic types    =            2
     number of electrons       =       168.00
     number of Kohn-Sham states=          114
     kinetic-energy cutoff     =      36.7493  Ry
     charge density cutoff     =     367.4932  Ry
     convergence threshold     =      1.0E-06
     mixing beta               =       0.1000
     number of iterations used =           10  plain     mixing
     Exchange-correlation      = BEEF-VDW ( 1  4 27 13 2)
     nstep                     =           50

     celldm(1)=   1.889726  celldm(2)=   0.000000  celldm(3)=   0.000000
     celldm(4)=   0.000000  celldm(5)=   0.000000  celldm(6)=   0.000000

     crystal axes: (cart. coord. in units of alat)
               a(1) = (   5.679974   0.000000   0.000000 )
               a(2) = (   2.272085   5.205740   0.000000 )
               a(3) = (   0.000000   0.000000  24.703470 )

     reciprocal axes: (cart. coord. in units 2 pi/alat)
               b(1) = (  0.176057 -0.076841  0.000000 )
               b(2) = (  0.000000  0.192096  0.000000 )
               b(3) = (  0.000000  0.000000  0.040480 )

     PseudoPot. # 1 for In read from file:
     /afs/slac.stanford.edu/u/if/mamunm/psp/gbrv1.5pbe/In.UPF
     MD5 check sum: 90777abd96fbb83f2e67db2a40c566b9
     Pseudo is Ultrasoft + core correction, Zval = 13.0
     Generated by new atomic code, or converted to UPF format
     Using radial grid of  889 points,  6 beta functions with:
                l(1) =   0
                l(2) =   0
                l(3) =   1
                l(4) =   1
                l(5) =   2
                l(6) =   2
     Q(r) pseudized with  6 coefficients,  rinner =    1.400   1.400   1.400
                                                       1.400   1.400

     PseudoPot. # 2 for Ir read from file:
     /afs/slac.stanford.edu/u/if/mamunm/psp/gbrv1.5pbe/Ir.UPF
     MD5 check sum: 8836f839c3459d2b385c504ce6d91f2c
     Pseudo is Ultrasoft + core correction, Zval = 15.0
     Generated by new atomic code, or converted to UPF format
     Using radial grid of  983 points,  7 beta functions with:
                l(1) =   0
                l(2) =   0
                l(3) =   1
                l(4) =   1
                l(5) =   1
                l(6) =   2
                l(7) =   2
     Q(r) pseudized with  8 coefficients,  rinner =    1.400   1.400   1.400
                                                       1.400   1.400

     vdW kernel table read from file vdW_kernel_table
     MD5 check sum: 095c7af220d748ca6e76c0b4c6cfb241

     atomic species   valence    mass     pseudopotential
        In1           13.00   114.81800     In( 1.00)
        Ir1           15.00   192.21700     Ir( 1.00)

     No symmetry found

   Cartesian axes

     site n.     atom                  positions (alat units)
         1           In1 tau(   1) = (   0.0000000   0.0000000  10.0000000  )
         2           In1 tau(   2) = (   3.9760294   2.6028701  10.0000000  )
         3           Ir1 tau(   3) = (   2.8399868   0.0000000  10.0000000  )
         4           Ir1 tau(   4) = (   1.1360425   2.6028701  10.0000000  )
         5           In1 tau(   5) = (   5.6799737   3.7183411  12.3517349  )
         6           In1 tau(   6) = (   1.7039443   1.1154710  12.3517349  )
         7           Ir1 tau(   7) = (   2.8399868   3.7183411  12.3517349  )
         8           Ir1 tau(   8) = (   4.5439311   1.1154710  12.3517349  )
         9           In1 tau(   9) = (   3.4078886   2.2309421  14.7034698  )
        10           In1 tau(  10) = (   7.3839180   4.8338122  14.7034698  )
        11           Ir1 tau(  11) = (   6.2478755   2.2309421  14.7034698  )
        12           Ir1 tau(  12) = (   4.5439311   4.8338122  14.7034698  )

     number of k points=    20  Fermi-Dirac smearing, width (Ry)=  0.0110
                       cart. coord. in units 2pi/alat
        k(    1) = (   0.0000000   0.0000000   0.0000000), wk =   0.0555556
        k(    2) = (   0.0000000   0.0320159   0.0000000), wk =   0.1111111
        k(    3) = (   0.0000000   0.0640319   0.0000000), wk =   0.1111111
        k(    4) = (   0.0000000  -0.0960478   0.0000000), wk =   0.0555556
        k(    5) = (   0.0293429  -0.0128069   0.0000000), wk =   0.1111111
        k(    6) = (   0.0293429   0.0192090   0.0000000), wk =   0.1111111
        k(    7) = (   0.0293429   0.0512250   0.0000000), wk =   0.1111111
        k(    8) = (   0.0293429  -0.1088547   0.0000000), wk =   0.1111111
        k(    9) = (   0.0293429  -0.0768388   0.0000000), wk =   0.1111111
        k(   10) = (   0.0293429  -0.0448229   0.0000000), wk =   0.1111111
        k(   11) = (   0.0586857  -0.0256138   0.0000000), wk =   0.1111111
        k(   12) = (   0.0586857   0.0064021   0.0000000), wk =   0.1111111
        k(   13) = (   0.0586857   0.0384181   0.0000000), wk =   0.1111111
        k(   14) = (   0.0586857  -0.1216617   0.0000000), wk =   0.1111111
        k(   15) = (   0.0586857  -0.0896457   0.0000000), wk =   0.1111111
        k(   16) = (   0.0586857  -0.0576298   0.0000000), wk =   0.1111111
        k(   17) = (  -0.0880286   0.0384207   0.0000000), wk =   0.0555556
        k(   18) = (  -0.0880286   0.0704367   0.0000000), wk =   0.1111111
        k(   19) = (  -0.0880286   0.1024526   0.0000000), wk =   0.1111111
        k(   20) = (  -0.0880286  -0.0576271   0.0000000), wk =   0.0555556

     Largest allocated arrays     est. size (Mb)     dimensions
     Largest temporary arrays     est. size (Mb)     dimensions

     Initial potential from superposition of free atoms
     Check: negative starting charge=   -2.182490

     starting charge  155.99981, renormalised to  168.00000

     negative rho (up, down):  2.350E+00 0.000E+00

     *
     * You are using vdW-DF for exchange-correlation in this calculation.
     * Please cite the following three references that made this development
     * possible:
     *
     *   M. Dion, H. Rydberg, E. Schroder, D. C. Langreth, and
     *   B. I. Lundqvist, Phys. Rev. Lett. 92, 246401 (2004).
     *
     *   T. Thonhauser, V. R. Cooper, S. Li, A. Puzder, P. Hyldgaard, and
     *   D. C. Langreth, Phys. Rev. B 76, 125112 (2007).
     *
     *   G. Roman-Perez and J. M. Soler, Phys. Rev. Lett. 103, 096102 (2009).
     *
     *
     * If you are using vdW-DF2, please also cite:
     *
     *   K. Lee, E. D. Murray, L. Kong, B. I. Lundqvist, and
     *   D. C. Langreth, Phys. Rev. B 82, 081101(R) (2010).
     *
     *
     * If you are calculating the stress with vdW-DF, please also cite:
     *
     *   R. Sabatini, E. Kucukbenli, B. Kolb, T. Thonhauser, and
     *   S. de Gironcoli, J. Phys.: Condens. Matter 24, 424209 (2012).
     *

     Carrying out vdW-DF run using the following parameters:

     Nqs =      20    Nr_points =    1024   r_max =   100.000
     q_mesh =
               0.00001000     0.04494208     0.09755937     0.15916263
               0.23128650     0.31572767     0.41458969     0.53033537
               0.66584808     0.82450364     1.01025438     1.22772762
               1.48234092     1.78043706     2.12944203     2.53805004
               3.01644009     3.57652955     4.23227104     5.00000000

     Gradients computed in reciprocal space

     Adding external electric field

     Computed dipole along edir(3) :
        Dipole                0.0000 Ry au,          0.0000 Debye
        Dipole field          0.0000 Ry au

        Potential amp.       -0.0000 Ry
        Total length         45.5157 bohr

     Starting wfc are  126 randomized atomic wfcs

     Self-consistent Calculation

     iteration #  1     ecut=    36.75 Ry     beta=0.10
     Davidson diagonalization with overlap
     ethr =  1.00E-02,  avg # of iterations =  7.5

[...]

     total energy              =   -1898.25819442 Ry
     Harris-Foulkes estimate   =   -1917.77462191 Ry
     estimated scf accuracy    <     115.02128537 Ry

[...]

     End of self-consistent calculation

          k = 0.0000 0.0000 0.0000 ( 18617 PWs)   bands (ev):

   -47.1368 -47.0881 -47.0798 -47.0431 -47.0217 -47.0133 -46.9292 -46.9289
   -46.8855 -46.8813 -46.8775 -46.8729 -46.8383 -46.8381 -46.7636 -46.7625
   -46.7554 -46.7543 -13.5527 -13.4703 -13.3807 -13.3683 -13.3665 -13.3427
   -13.3081 -13.2880 -13.2515 -13.2373 -13.2309 -13.2071 -13.1790 -13.1786
   -13.1095 -13.0967 -13.0761 -13.0728 -13.0535 -13.0497 -13.0404 -13.0216
   -12.9955 -12.9913 -12.9706 -12.9570 -12.9013 -12.8726 -12.8230 -12.7708
    -8.2923  -6.4215  -4.8215  -4.4530  -3.7354  -3.6302  -2.2917  -2.2140
    -2.1248  -1.8374  -1.6702  -1.6066  -1.4660  -1.1833  -1.1231  -0.8863
    -0.7001  -0.4535  -0.3891  -0.3219  -0.2149   0.1702   0.1712   0.2338
     0.2874   0.3757   0.4583   0.5638   0.6550   0.6780   0.7323   0.7430
     0.7551   0.8457   1.0017   1.0743   1.1743   1.4290   1.6960   2.3793
     2.3946   2.6542   3.4459   3.6816   3.6903   4.2942   4.4504   4.9064
     5.1405   5.1631   5.4130   5.4819   5.5511   5.8155   5.9896   6.8910
     7.2836   7.2887   7.4787   8.1283   8.3179   8.4265   8.7806   8.9198
     9.1050   9.6588

[...]

          k =-0.0880 0.0384 0.0000 ( 18516 PWs)   bands (ev):

[...]

     the Fermi energy is     1.3226 ev

!    total energy              =   -1908.55001694 Ry
     Harris-Foulkes estimate   =   -1908.55002020 Ry
     estimated scf accuracy    <       0.00000030 Ry

     The total energy is the sum of the following terms:

     one-electron contribution =  -13992.27097532 Ry
     hartree contribution      =    7054.25611955 Ry
     xc contribution           =    -547.40978987 Ry
     ewald contribution        =    5576.92071370 Ry
     electric field correction =       0.00000000 Ry
     smearing contrib. (-TS)   =      -0.04608500 Ry

     convergence has been achieved in  18 iterations

 BEEF-vdW xc energy contributions
           1 :   -482.707895799898
           2 :    445.950753132440
           3 :   -381.864032947342
           4 :    305.457228749254
           5 :   -231.799411138453
           6 :    171.302272844946
           7 :   -127.560356297957
           8 :    98.1698756430329
           9 :   -77.6251939924134
          10 :    60.6125063705708
[...]
     PseudoPot. # 1 for In read from file:
     /afs/slac.stanford.edu/u/if/mamunm/psp/gbrv1.5pbe/In.UPF
     MD5 check sum: 90777abd96fbb83f2e67db2a40c566b9
     Pseudo is Ultrasoft + core correction, Zval = 13.0
     Generated by new atomic code, or converted to UPF format
     Using radial grid of  889 points,  6 beta functions with:
                l(1) =   0
                l(2) =   0
                l(3) =   1
                l(4) =   1
                l(5) =   2
                l(6) =   2
     Q(r) pseudized with  6 coefficients,  rinner =    1.400   1.400   1.400
                                                       1.400   1.400

     PseudoPot. # 2 for Ir read from file:
     /afs/slac.stanford.edu/u/if/mamunm/psp/gbrv1.5pbe/Ir.UPF
     MD5 check sum: 8836f839c3459d2b385c504ce6d91f2c
     Pseudo is Ultrasoft + core correction, Zval = 15.0
     Generated by new atomic code, or converted to UPF format
     Using radial grid of  983 points,  7 beta functions with:
                l(1) =   0
                l(2) =   0
                l(3) =   1
                l(4) =   1
                l(5) =   1
                l(6) =   2
                l(7) =   2
     Q(r) pseudized with  8 coefficients,  rinner =    1.400   1.400   1.400
                                                       1.400   1.400

     vdW kernel table read from file vdW_kernel_table
     MD5 check sum: 095c7af220d748ca6e76c0b4c6cfb241

     atomic species   valence    mass     pseudopotential
        In1           13.00   114.81800     In( 1.00)
        Ir1           15.00   192.21700     Ir( 1.00)

     No symmetry found

   Cartesian axes

     site n.     atom                  positions (alat units)
         1           In1 tau(   1) = (   0.0000000   0.0000000  10.0000000  )
         2           In1 tau(   2) = (   3.9760294   2.6028701  10.0000000  )
         3           Ir1 tau(   3) = (   2.8399868   0.0000000  10.0000000  )
         4           Ir1 tau(   4) = (   1.1360425   2.6028701  10.0000000  )
         5           In1 tau(   5) = (   5.6799737   3.7183411  12.3517349  )
         6           In1 tau(   6) = (   1.7039443   1.1154710  12.3517349  )
         7           Ir1 tau(   7) = (   2.8399868   3.7183411  12.3517349  )
         8           Ir1 tau(   8) = (   4.5439311   1.1154710  12.3517349  )
         9           In1 tau(   9) = (   3.4186097   2.2379602  14.8830141  )
        10           In1 tau(  10) = (   7.3946432   4.8408337  14.8830163  )
        11           Ir1 tau(  11) = (   6.2296012   2.2189800  14.5609262  )
        12           Ir1 tau(  12) = (   4.5256567   4.8218474  14.5609207  )

     number of k points=    20  Fermi-Dirac smearing, width (Ry)=  0.0110
                       cart. coord. in units 2pi/alat
        k(    1) = (   0.0000000   0.0000000   0.0000000), wk =   0.0555556
        k(    2) = (   0.0000000   0.0320159   0.0000000), wk =   0.1111111
        k(    3) = (   0.0000000   0.0640319   0.0000000), wk =   0.1111111
        k(    4) = (   0.0000000  -0.0960478   0.0000000), wk =   0.0555556
        k(    5) = (   0.0293429  -0.0128069   0.0000000), wk =   0.1111111
        k(    6) = (   0.0293429   0.0192090   0.0000000), wk =   0.1111111
        k(    7) = (   0.0293429   0.0512250   0.0000000), wk =   0.1111111
        k(    8) = (   0.0293429  -0.1088547   0.0000000), wk =   0.1111111
        k(    9) = (   0.0293429  -0.0768388   0.0000000), wk =   0.1111111
        k(   10) = (   0.0293429  -0.0448229   0.0000000), wk =   0.1111111
        k(   11) = (   0.0586857  -0.0256138   0.0000000), wk =   0.1111111
        k(   12) = (   0.0586857   0.0064021   0.0000000), wk =   0.1111111
        k(   13) = (   0.0586857   0.0384181   0.0000000), wk =   0.1111111
        k(   14) = (   0.0586857  -0.1216617   0.0000000), wk =   0.1111111
        k(   15) = (   0.0586857  -0.0896457   0.0000000), wk =   0.1111111
        k(   16) = (   0.0586857  -0.0576298   0.0000000), wk =   0.1111111
        k(   17) = (  -0.0880286   0.0384207   0.0000000), wk =   0.0555556
        k(   18) = (  -0.0880286   0.0704367   0.0000000), wk =   0.1111111
        k(   19) = (  -0.0880286   0.1024526   0.0000000), wk =   0.1111111
        k(   20) = (  -0.0880286  -0.0576271   0.0000000), wk =   0.0555556

     Largest allocated arrays     est. size (Mb)     dimensions
     Largest temporary arrays     est. size (Mb)     dimensions

     Initial potential from superposition of free atoms
     Check: negative starting charge=   -2.182981

     starting charge  155.99981, renormalised to  168.00000

[...]

     *
     * You are using vdW-DF for exchange-correlation in this calculation.
     * Please cite the following three references that made this development
     * possible:
     *
     *   M. Dion, H. Rydberg, E. Schroder, D. C. Langreth, and
     *   B. I. Lundqvist, Phys. Rev. Lett. 92, 246401 (2004).
     *
     *   T. Thonhauser, V. R. Cooper, S. Li, A. Puzder, P. Hyldgaard, and
     *   D. C. Langreth, Phys. Rev. B 76, 125112 (2007).
     *
     *   G. Roman-Perez and J. M. Soler, Phys. Rev. Lett. 103, 096102 (2009).
     *
     *
     * If you are using vdW-DF2, please also cite:
     *
     *   K. Lee, E. D. Murray, L. Kong, B. I. Lundqvist, and
     *   D. C. Langreth, Phys. Rev. B 82, 081101(R) (2010).
     *
     *
     * If you are calculating the stress with vdW-DF, please also cite:
     *
     *   R. Sabatini, E. Kucukbenli, B. Kolb, T. Thonhauser, and
     *   S. de Gironcoli, J. Phys.: Condens. Matter 24, 424209 (2012).
     *

     Carrying out vdW-DF run using the following parameters:

     Nqs =      20    Nr_points =    1024   r_max =   100.000
     q_mesh =
               0.00001000     0.04494208     0.09755937     0.15916263
               0.23128650     0.31572767     0.41458969     0.53033537
               0.66584808     0.82450364     1.01025438     1.22772762
               1.48234092     1.78043706     2.12944203     2.53805004
               3.01644009     3.57652955     4.23227104     5.00000000

     Gradients computed in reciprocal space

[...]

     Starting wfc are  126 randomized atomic wfcs

     Self-consistent Calculation

[...]

     total energy              =   -1908.57327171 Ry
     Harris-Foulkes estimate   =   -1908.57326642 Ry
     estimated scf accuracy    <       0.00000175 Ry

     iteration # 19     ecut=    36.75 Ry     beta=0.10
     Davidson diagonalization with overlap
     ethr =  1.04E-09,  avg # of iterations =  2.9

[...]

     negative rho (up, down):  2.003E+00 0.000E+00

     Adding external electric field

     Computed dipole along edir(3) :
        Dipole                0.0760 Ry au,          0.1932 Debye
        Dipole field          0.0002 Ry au

        Potential amp.       -0.0176 Ry
        Total length         45.5157 bohr

     End of self-consistent calculation

[...]

          k = 0.0587-0.0576 0.0000 ( 18517 PWs)   bands (ev):

[...]

          k =-0.0880-0.0576 0.0000 ( 18562 PWs)   bands (ev):

   -46.9715 -46.9626 -46.9534 -46.9346 -46.8784 -46.8782 -46.8639 -46.8581
   -46.8545 -46.8430 -46.8429 -46.7851 -46.7774 -46.7772 -46.7694 -46.7519
   -46.6666 -46.6585 -13.3587 -13.2967 -13.2441 -13.2327 -13.1677 -13.1607
   -13.1343 -13.0915 -13.0823 -13.0746 -13.0692 -13.0415 -13.0270 -12.9956
   -12.9943 -12.9813 -12.9775 -12.9429 -12.9392 -12.9290 -12.9253 -12.8984
   -12.8860 -12.8748 -12.8619 -12.8242 -12.8179 -12.7773 -12.7431 -12.6586
    -6.2769  -6.0629  -4.5322  -4.1979  -4.0536  -4.0130  -3.3998  -2.8831
    -2.6086  -2.5001  -2.4138  -2.2202  -1.7329  -1.6643  -1.5481  -1.3254
    -1.2060  -1.1651  -1.0700  -0.9185  -0.8230  -0.7503  -0.1446  -0.1073
     0.0389   0.0481   0.4112   0.4696   0.6450   0.6891   0.7877   0.8131
     0.9655   1.0149   1.1582   1.3134   1.7245   2.2246   2.5010   2.7956
     3.0233   3.5112   3.7979   4.1734   4.6910   5.8153   5.9895   6.0354
     6.5929   6.6348   6.9154   7.0416   7.1249   7.2696   7.4732   7.5691
     7.7324   7.7476   8.4004   8.4617   8.6031   8.6277   8.6582   8.8311
     8.8830   8.9064

     the Fermi energy is     1.4069 ev

!    total energy              =   -1908.57327671 Ry
     Harris-Foulkes estimate   =   -1908.57327001 Ry
     estimated scf accuracy    <       0.00000091 Ry

     The total energy is the sum of the following terms:

     one-electron contribution =  -13971.31748363 Ry
     hartree contribution      =    7044.36830631 Ry
     xc contribution           =    -547.37713770 Ry
     ewald contribution        =    5565.79924223 Ry
     electric field correction =       0.00001474 Ry
     smearing contrib. (-TS)   =      -0.04621867 Ry

     convergence has been achieved in  19 iterations

 BEEF-vdW xc energy contributions
           1 :   -482.677615065008
           2 :    445.913341135751
           3 :   -381.812876444818
           4 :    305.390302047812
           5 :   -231.720693579162
           6 :    171.217101420763
           7 :   -127.470744062985
           8 :    98.0754131616507
           9 :   -77.5282329769311
          10 :    60.5210968963432
          11 :   -44.0941510842068
          12 :    27.9888541693254
          13 :   -13.5800143935464
          14 :    2.36349876423640
          15 :    5.07533973041927
          16 :   -9.23234761050162
          17 :    11.2003483300692
          18 :   -12.0345375931996
          19 :    12.3808416898590
          20 :   -12.4851271797768
          21 :    12.4183769560813
          22 :   -12.2675196891515
          23 :    12.1518797193102
          24 :   -12.1148506128081
          25 :    12.0393168401800
          26 :   -11.6949999034855
          27 :    10.8962669144933
          28 :   -9.65471687258673
          29 :    8.21124672767314
          30 :   -6.92259645122658
          31 :   -42.3219812852644
          32 :   -31.3323965563231

     Forces acting on atoms (Ry/au):

     negative rho (up, down):  2.003E+00 0.000E+00
     atom    1 type  1   force =    -0.00749318   -0.00490545   -0.03014811
     atom    2 type  1   force =    -0.00749354   -0.00490537   -0.03014820
     atom    3 type  2   force =     0.00682077    0.00446613    0.03827993
     atom    4 type  2   force =     0.00682151    0.00446497    0.03827963
     atom    5 type  1   force =     0.00769676    0.00503701   -0.02003270
     atom    6 type  1   force =     0.00769499    0.00503928   -0.02003256
     atom    7 type  2   force =    -0.00620400   -0.00406143    0.01077860
     atom    8 type  2   force =    -0.00620370   -0.00406131    0.01077859
     atom    9 type  1   force =    -0.00052454   -0.00034369    0.00105419
     atom   10 type  1   force =    -0.00052551   -0.00034394    0.00105356
     atom   11 type  2   force =    -0.00029523   -0.00019252    0.00006736
     atom   12 type  2   force =    -0.00029434   -0.00019367    0.00006972

     Total force =     0.079745     Total SCF correction =     0.004340

     entering subroutine stress ...

     negative rho (up, down):  2.003E+00 0.000E+00
          total   stress  (Ry/bohr**3)                   (kbar)     P=  -19.49
  -0.00019418  -0.00002839  -0.00000025        -28.56     -4.18     -0.04
  -0.00002839  -0.00016940  -0.00000016         -4.18    -24.92     -0.02
  -0.00000025  -0.00000016  -0.00003399         -0.04     -0.02     -5.00

 !ASE

     Writing output data file calc.save

     General routines

     Parallel routines

   This run was terminated on:  23:32:58  24Dec2018

   JOB DONE.
Job  /afs/slac/g/suncat/bin/suncat-tsmpirun -x LD_LIBRARY_PATH -wdir /scratch/qe109021_XNcer pw.x -in pw.inp

TID   HOST_NAME   COMMAND_LINE            STATUS            TERMINATION_TIME
00000 suncat0169 pw.x -in pw.inp   Done                     12/24/2018 23:32:58
00001 suncat0169 pw.x -in pw.inp   Done                     12/24/2018 23:32:58
00002 suncat0169 pw.x -in pw.inp   Done                     12/24/2018 23:32:58
00003 suncat0169 pw.x -in pw.inp   Done                     12/24/2018 23:32:58
00004 suncat0169 pw.x -in pw.inp   Done                     12/24/2018 23:32:58
00005 suncat0169 pw.x -in pw.inp   Done                     12/24/2018 23:32:58
00006 suncat0169 pw.x -in pw.inp   Done                     12/24/2018 23:32:58
00007 suncat0169 pw.x -in pw.inp   Done                     12/24/2018 23:32:58
00008 suncat0168 pw.x -in pw.inp   Done                     12/24/2018 23:32:58
00009 suncat0168 pw.x -in pw.inp   Done                     12/24/2018 23:32:58
00010 suncat0168 pw.x -in pw.inp   Done                     12/24/2018 23:32:58
00011 suncat0168 pw.x -in pw.inp   Done                     12/24/2018 23:32:58
00012 suncat0168 pw.x -in pw.inp   Done                     12/24/2018 23:32:58
00013 suncat0168 pw.x -in pw.inp   Done                     12/24/2018 23:32:58
00014 suncat0168 pw.x -in pw.inp   Done                     12/24/2018 23:32:58
00015 suncat0168 pw.x -in pw.inp   Done                     12/24/2018 23:32:58
00016 suncat0110 pw.x -in pw.inp   Done                     12/24/2018 23:32:58
00017 suncat0110 pw.x -in pw.inp   Done                     12/24/2018 23:32:58
00018 suncat0110 pw.x -in pw.inp   Done                     12/24/2018 23:32:58
00019 suncat0110 pw.x -in pw.inp   Done                     12/24/2018 23:32:58
00020 suncat0110 pw.x -in pw.inp   Done                     12/24/2018 23:32:58
00021 suncat0110 pw.x -in pw.inp   Done                     12/24/2018 23:32:58
00022 suncat0110 pw.x -in pw.inp   Done                     12/24/2018 23:32:58
00023 suncat0110 pw.x -in pw.inp   Done                     12/24/2018 23:32:58
00024 suncat0109 pw.x -in pw.inp   Done                     12/24/2018 23:32:58
00025 suncat0109 pw.x -in pw.inp   Done                     12/24/2018 23:32:58
00026 suncat0109 pw.x -in pw.inp   Done                     12/24/2018 23:32:58
00027 suncat0109 pw.x -in pw.inp   Done                     12/24/2018 23:32:58
00028 suncat0109 pw.x -in pw.inp   Done                     12/24/2018 23:32:58
00029 suncat0109 pw.x -in pw.inp   Done                     12/24/2018 23:32:58
00030 suncat0109 pw.x -in pw.inp   Done                     12/24/2018 23:32:58
00031 suncat0109 pw.x -in pw.inp   Done                     12/24/2018 23:32:58
00032 suncat0277 pw.x -in pw.inp   Done                     12/24/2018 23:32:58
00033 suncat0277 pw.x -in pw.inp   Done                     12/24/2018 23:32:58
00034 suncat0277 pw.x -in pw.inp   Done                     12/24/2018 23:32:58
00035 suncat0277 pw.x -in pw.inp   Done                     12/24/2018 23:32:58
00036 suncat0277 pw.x -in pw.inp   Done                     12/24/2018 23:32:58
00037 suncat0277 pw.x -in pw.inp   Done                     12/24/2018 23:32:58
00038 suncat0277 pw.x -in pw.inp   Done                     12/24/2018 23:32:58
00039 suncat0277 pw.x -in pw.inp   Done                     12/24/2018 23:32:58
00040 suncat0276 pw.x -in pw.inp   Done                     12/24/2018 23:32:58
00041 suncat0276 pw.x -in pw.inp   Done                     12/24/2018 23:32:58
00042 suncat0276 pw.x -in pw.inp   Done                     12/24/2018 23:32:58
00043 suncat0276 pw.x -in pw.inp   Done                     12/24/2018 23:32:58
00044 suncat0276 pw.x -in pw.inp   Done                     12/24/2018 23:32:58
00045 suncat0276 pw.x -in pw.inp   Done                     12/24/2018 23:32:58
00046 suncat0276 pw.x -in pw.inp   Done                     12/24/2018 23:32:58
00047 suncat0276 pw.x -in pw.inp   Done                     12/24/2018 23:32:58
00048 suncat0274 pw.x -in pw.inp   Done                     12/24/2018 23:32:58
00049 suncat0274 pw.x -in pw.inp   Done                     12/24/2018 23:32:58
00050 suncat0274 pw.x -in pw.inp   Done                     12/24/2018 23:32:58
00051 suncat0274 pw.x -in pw.inp   Done                     12/24/2018 23:32:58
00052 suncat0274 pw.x -in pw.inp   Done                     12/24/2018 23:32:58
00053 suncat0274 pw.x -in pw.inp   Done                     12/24/2018 23:32:58
00054 suncat0274 pw.x -in pw.inp   Done                     12/24/2018 23:32:58
00055 suncat0274 pw.x -in pw.inp   Done                     12/24/2018 23:32:58
00056 suncat0273 pw.x -in pw.inp   Done                     12/24/2018 23:32:58
00057 suncat0273 pw.x -in pw.inp   Done                     12/24/2018 23:32:58
00058 suncat0273 pw.x -in pw.inp   Done                     12/24/2018 23:32:58
00059 suncat0273 pw.x -in pw.inp   Done                     12/24/2018 23:32:58
00060 suncat0273 pw.x -in pw.inp   Done                     12/24/2018 23:32:58
00061 suncat0273 pw.x -in pw.inp   Done                     12/24/2018 23:32:58
00062 suncat0273 pw.x -in pw.inp   Done                     12/24/2018 23:32:58
00063 suncat0273 pw.x -in pw.inp   Done                     12/24/2018 23:32:58