     Program PWSCF v.5.1rc2 (svn rev. 11289) starts on 25Dec2018 at  5:10:33

     Current dimensions of program PWSCF are:
     Max number of different atomic species (ntypx) = 10
     Max number of k-points (npk) =  40000
     Max angular momentum in pseudopotentials (lmaxx) =  3
     Presently stress not available with electric field

     IMPORTANT: XC functional enforced from input :
     Exchange-correlation      = BEEF-VDW ( 1  4 27 13 2)
     Any further DFT definition will be discarded
     Please, verify this is what you really want

     Subspace diagonalization in iterative solution of the eigenvalue problem:
     a serial algorithm will be used

     Found symmetry operation: I + ( -0.5000 -0.5000  0.0000)
     This is a supercell, fractional translations are disabled

     bravais-lattice index     =            0
     lattice parameter (alat)  =       1.8897  a.u.
     unit-cell volume          =    4657.2888 (a.u.)^3
     number of atoms/cell      =           12
     number of atomic types    =            2
     number of electrons       =       198.00
     number of Kohn-Sham states=          129
     kinetic-energy cutoff     =      36.7493  Ry
     charge density cutoff     =     367.4932  Ry
     convergence threshold     =      1.0E-06
     mixing beta               =       0.1000
     number of iterations used =           10  plain     mixing
     Exchange-correlation      = BEEF-VDW ( 1  4 27 13 2)
     nstep                     =           50

     celldm(1)=   1.889726  celldm(2)=   0.000000  celldm(3)=   0.000000
     celldm(4)=   0.000000  celldm(5)=   0.000000  celldm(6)=   0.000000

     crystal axes: (cart. coord. in units of alat)
               a(1) = (   5.678513   0.000000   0.000000 )
               a(2) = (   2.814702   4.931831   0.000000 )
               a(3) = (   0.000000   0.000000  24.643010 )

     reciprocal axes: (cart. coord. in units 2 pi/alat)
               b(1) = (  0.176102 -0.100505  0.000000 )
               b(2) = (  0.000000  0.202764  0.000000 )
               b(3) = (  0.000000  0.000000  0.040579 )

     PseudoPot. # 1 for Zn read from file:
     /afs/slac.stanford.edu/u/if/mamunm/psp/gbrv1.5pbe/Zn.UPF
     MD5 check sum: df62231357ef9e81f77b2b3087fa5675
     Pseudo is Ultrasoft, Zval = 20.0
     Generated by new atomic code, or converted to UPF format
     Using radial grid of  943 points,  6 beta functions with:
                l(1) =   0
                l(2) =   0
                l(3) =   1
                l(4) =   1
                l(5) =   2
                l(6) =   2
     Q(r) pseudized with  8 coefficients,  rinner =    1.100   1.100   1.100
                                                       1.100   1.100

     PseudoPot. # 2 for Nb read from file:
     /afs/slac.stanford.edu/u/if/mamunm/psp/gbrv1.5pbe/Nb.UPF
     MD5 check sum: 573aab8a2fa660278ed4a62cd769473f
     Pseudo is Ultrasoft + core correction, Zval = 13.0
     Generated by new atomic code, or converted to UPF format
     Using radial grid of  887 points,  6 beta functions with:
                l(1) =   0
                l(2) =   0
                l(3) =   1
                l(4) =   1
                l(5) =   2
                l(6) =   2
     Q(r) pseudized with  6 coefficients,  rinner =    1.000   1.000   1.000
                                                       1.000   1.000

     vdW kernel table read from file vdW_kernel_table
     MD5 check sum: 095c7af220d748ca6e76c0b4c6cfb241

     atomic species   valence    mass     pseudopotential
        Zn1           20.00    65.38000     Zn( 1.00)
        Nb1           13.00    92.90637     Nb( 1.00)

     No symmetry found

   Cartesian axes

     site n.     atom                  positions (alat units)
         1           Zn1 tau(   1) = (   0.0000000   0.0000000  10.0000000  )
         2           Zn1 tau(   2) = (   4.2466075   2.4659156  10.0000000  )
         3           Nb1 tau(   3) = (   2.8392564   0.0000000  10.0000000  )
         4           Nb1 tau(   4) = (   1.4073511   2.4659156  10.0000000  )
         5           Zn1 tau(   5) = (   5.6785128   3.2973929  12.3215050  )
         6           Zn1 tau(   6) = (   1.4319053   0.8314773  12.3215050  )
         7           Nb1 tau(   7) = (   2.8392564   3.2973929  12.3215050  )
         8           Nb1 tau(   8) = (   4.2711617   0.8314773  12.3215050  )
         9           Zn1 tau(   9) = (   2.8638106   1.6629545  14.6430100  )
        10           Zn1 tau(  10) = (   7.1104181   4.1288702  14.6430100  )
        11           Nb1 tau(  11) = (   5.7030670   1.6629545  14.6430100  )
        12           Nb1 tau(  12) = (   4.2711617   4.1288702  14.6430100  )

     number of k points=    20  Fermi-Dirac smearing, width (Ry)=  0.0110
                       cart. coord. in units 2pi/alat
        k(    1) = (   0.0000000   0.0000000   0.0000000), wk =   0.0555556
        k(    2) = (   0.0000000   0.0337941   0.0000000), wk =   0.1111111
        k(    3) = (   0.0000000   0.0675881   0.0000000), wk =   0.1111111
        k(    4) = (   0.0000000  -0.1013822   0.0000000), wk =   0.0555556
        k(    5) = (   0.0293504  -0.0167509   0.0000000), wk =   0.1111111
        k(    6) = (   0.0293504   0.0170432   0.0000000), wk =   0.1111111
        k(    7) = (   0.0293504   0.0508372   0.0000000), wk =   0.1111111
        k(    8) = (   0.0293504  -0.1181331   0.0000000), wk =   0.1111111
        k(    9) = (   0.0293504  -0.0843391   0.0000000), wk =   0.1111111
        k(   10) = (   0.0293504  -0.0505450   0.0000000), wk =   0.1111111
        k(   11) = (   0.0587008  -0.0335018   0.0000000), wk =   0.1111111
        k(   12) = (   0.0587008   0.0002923   0.0000000), wk =   0.1111111
        k(   13) = (   0.0587008   0.0340863   0.0000000), wk =   0.1111111
        k(   14) = (   0.0587008  -0.1348840   0.0000000), wk =   0.1111111
        k(   15) = (   0.0587008  -0.1010900   0.0000000), wk =   0.1111111
        k(   16) = (   0.0587008  -0.0672959   0.0000000), wk =   0.1111111
        k(   17) = (  -0.0880512   0.0502527   0.0000000), wk =   0.0555556
        k(   18) = (  -0.0880512   0.0840468   0.0000000), wk =   0.1111111
        k(   19) = (  -0.0880512   0.1178409   0.0000000), wk =   0.1111111
        k(   20) = (  -0.0880512  -0.0511295   0.0000000), wk =   0.0555556

     Largest allocated arrays     est. size (Mb)     dimensions
     Largest temporary arrays     est. size (Mb)     dimensions

     Initial potential from superposition of free atoms
     Check: negative starting charge=   -0.003864

     starting charge  197.98275, renormalised to  198.00000

     negative rho (up, down):  3.864E-03 0.000E+00

     *
     * You are using vdW-DF for exchange-correlation in this calculation.
     * Please cite the following three references that made this development
     * possible:
     *
     *   M. Dion, H. Rydberg, E. Schroder, D. C. Langreth, and
     *   B. I. Lundqvist, Phys. Rev. Lett. 92, 246401 (2004).
     *
     *   T. Thonhauser, V. R. Cooper, S. Li, A. Puzder, P. Hyldgaard, and
     *   D. C. Langreth, Phys. Rev. B 76, 125112 (2007).
     *
     *   G. Roman-Perez and J. M. Soler, Phys. Rev. Lett. 103, 096102 (2009).
     *
     *
     * If you are using vdW-DF2, please also cite:
     *
     *   K. Lee, E. D. Murray, L. Kong, B. I. Lundqvist, and
     *   D. C. Langreth, Phys. Rev. B 82, 081101(R) (2010).
     *
     *
     * If you are calculating the stress with vdW-DF, please also cite:
     *
     *   R. Sabatini, E. Kucukbenli, B. Kolb, T. Thonhauser, and
     *   S. de Gironcoli, J. Phys.: Condens. Matter 24, 424209 (2012).
     *

     Carrying out vdW-DF run using the following parameters:

     Nqs =      20    Nr_points =    1024   r_max =   100.000
     q_mesh =
               0.00001000     0.04494208     0.09755937     0.15916263
               0.23128650     0.31572767     0.41458969     0.53033537
               0.66584808     0.82450364     1.01025438     1.22772762
               1.48234092     1.78043706     2.12944203     2.53805004
               3.01644009     3.57652955     4.23227104     5.00000000

     Gradients computed in reciprocal space

     Adding external electric field

     Computed dipole along edir(3) :
        Dipole               -0.0000 Ry au,         -0.0000 Debye
        Dipole field         -0.0000 Ry au

        Potential amp.        0.0000 Ry
        Total length         45.4043 bohr

     Starting wfc are  156 randomized atomic wfcs

     Self-consistent Calculation

     iteration #  1     ecut=    36.75 Ry     beta=0.10
     Davidson diagonalization with overlap
     ethr =  1.00E-02,  avg # of iterations =  5.3

     Threshold (ethr) on eigenvalues was too large:
     Diagonalizing with lowered threshold

     Davidson diagonalization with overlap
     ethr =  7.83E-04,  avg # of iterations =  4.0

[...]

     total energy              =   -3487.74255367 Ry
     Harris-Foulkes estimate   =   -3487.98572204 Ry
     estimated scf accuracy    <       1.60081282 Ry

[...]

     End of self-consistent calculation

          k = 0.0000 0.0000 0.0000 ( 17599 PWs)   bands (ev):

  -124.8868-124.8863-124.7316-124.7315-124.7311-124.7310 -79.0614 -79.0613
   -79.0607 -79.0535 -79.0423 -79.0417 -78.9066 -78.9065 -78.9017 -78.9017
   -78.9012 -78.9010 -78.8989 -78.8989 -78.8960 -78.8958 -78.8953 -78.8953
   -53.8991 -53.8921 -53.7958 -53.7897 -53.6915 -53.5875 -30.2189 -30.2014
   -30.1728 -30.0953 -30.0576 -30.0289 -29.9912 -29.9230 -29.9193 -29.8937
   -29.8397 -29.8150 -29.7208 -29.4691 -29.3757 -29.3234 -29.3156 -29.2031
    -6.5080  -6.1776  -6.1608  -6.0900  -6.0535  -6.0293  -6.0165  -6.0062
    -5.9662  -5.9596  -5.9422  -5.9308  -5.8253  -5.7738  -5.7647  -5.7244
    -5.6985  -5.6786  -5.6724  -5.6475  -5.6348  -5.6203  -5.6004  -5.5903
    -5.5359  -5.5052  -5.5028  -5.4312  -5.4096  -5.4050  -5.2585  -4.6080
    -3.3171  -2.8372  -2.0639  -1.8567  -0.7968  -0.7754  -0.5768  -0.3938
    -0.3279  -0.3089  -0.0224   0.4245   0.6209   0.6430   0.6449   0.8670
     1.3845   1.4715   1.6573   1.8396   2.0431   2.1503   2.2012   2.4639
     2.6485   2.6928   2.7836   3.2096   3.3131   3.4922   3.7511   3.8627
     3.9346   3.9502   4.0813   4.0938   4.2466   4.4757   4.9849   5.0048
     5.0104   5.2018   5.6030   5.6196   5.6329   6.1914   6.4787   7.0880
     7.1452

[...]

          k =-0.0881 0.0503 0.0000 ( 17508 PWs)   bands (ev):

[...]

     the Fermi energy is     1.3620 ev

!    total energy              =   -3487.73918027 Ry
     Harris-Foulkes estimate   =   -3487.73917681 Ry
     estimated scf accuracy    <       0.00000045 Ry

     The total energy is the sum of the following terms:

     one-electron contribution =  -22722.35460150 Ry
     hartree contribution      =   11350.69599915 Ry
     xc contribution           =    -374.73235416 Ry
     ewald contribution        =    8258.70998495 Ry
     electric field correction =       0.00000000 Ry
     smearing contrib. (-TS)   =      -0.05820871 Ry

     convergence has been achieved in  15 iterations

 BEEF-vdW xc energy contributions
           1 :   -329.541908740697
           2 :    299.231756319756
[...]
                l(4) =   1
                l(5) =   2
                l(6) =   2
     Q(r) pseudized with  8 coefficients,  rinner =    1.100   1.100   1.100
                                                       1.100   1.100

     PseudoPot. # 2 for Nb read from file:
     /afs/slac.stanford.edu/u/if/mamunm/psp/gbrv1.5pbe/Nb.UPF
     MD5 check sum: 573aab8a2fa660278ed4a62cd769473f
     Pseudo is Ultrasoft + core correction, Zval = 13.0
     Generated by new atomic code, or converted to UPF format
     Using radial grid of  887 points,  6 beta functions with:
                l(1) =   0
                l(2) =   0
                l(3) =   1
                l(4) =   1
                l(5) =   2
                l(6) =   2
     Q(r) pseudized with  6 coefficients,  rinner =    1.000   1.000   1.000
                                                       1.000   1.000

     vdW kernel table read from file vdW_kernel_table
     MD5 check sum: 095c7af220d748ca6e76c0b4c6cfb241

     atomic species   valence    mass     pseudopotential
        Zn1           20.00    65.38000     Zn( 1.00)
        Nb1           13.00    92.90637     Nb( 1.00)

     No symmetry found

   Cartesian axes

     site n.     atom                  positions (alat units)
         1           Zn1 tau(   1) = (   0.0000000   0.0000000  10.0000000  )
         2           Zn1 tau(   2) = (   4.2466075   2.4659156  10.0000000  )
         3           Nb1 tau(   3) = (   2.8392564   0.0000000  10.0000000  )
         4           Nb1 tau(   4) = (   1.4073511   2.4659156  10.0000000  )
         5           Zn1 tau(   5) = (   5.6785128   3.2973929  12.3215050  )
         6           Zn1 tau(   6) = (   1.4319053   0.8314773  12.3215050  )
         7           Nb1 tau(   7) = (   2.8392564   3.2973929  12.3215050  )
         8           Nb1 tau(   8) = (   4.2711617   0.8314773  12.3215050  )
         9           Zn1 tau(   9) = (   2.8371832   1.6475077  14.7490688  )
        10           Zn1 tau(  10) = (   7.0837991   4.1134006  14.7490683  )
        11           Nb1 tau(  11) = (   5.6831693   1.6514008  14.5508556  )
        12           Nb1 tau(  12) = (   4.2512514   4.1173095  14.5508576  )

     number of k points=    20  Fermi-Dirac smearing, width (Ry)=  0.0110
                       cart. coord. in units 2pi/alat
        k(    1) = (   0.0000000   0.0000000   0.0000000), wk =   0.0555556
        k(    2) = (   0.0000000   0.0337941   0.0000000), wk =   0.1111111
        k(    3) = (   0.0000000   0.0675881   0.0000000), wk =   0.1111111
        k(    4) = (   0.0000000  -0.1013822   0.0000000), wk =   0.0555556
        k(    5) = (   0.0293504  -0.0167509   0.0000000), wk =   0.1111111
        k(    6) = (   0.0293504   0.0170432   0.0000000), wk =   0.1111111
        k(    7) = (   0.0293504   0.0508372   0.0000000), wk =   0.1111111
        k(    8) = (   0.0293504  -0.1181331   0.0000000), wk =   0.1111111
        k(    9) = (   0.0293504  -0.0843391   0.0000000), wk =   0.1111111
        k(   10) = (   0.0293504  -0.0505450   0.0000000), wk =   0.1111111
        k(   11) = (   0.0587008  -0.0335018   0.0000000), wk =   0.1111111
        k(   12) = (   0.0587008   0.0002923   0.0000000), wk =   0.1111111
        k(   13) = (   0.0587008   0.0340863   0.0000000), wk =   0.1111111
        k(   14) = (   0.0587008  -0.1348840   0.0000000), wk =   0.1111111
        k(   15) = (   0.0587008  -0.1010900   0.0000000), wk =   0.1111111
        k(   16) = (   0.0587008  -0.0672959   0.0000000), wk =   0.1111111
        k(   17) = (  -0.0880512   0.0502527   0.0000000), wk =   0.0555556
        k(   18) = (  -0.0880512   0.0840468   0.0000000), wk =   0.1111111
        k(   19) = (  -0.0880512   0.1178409   0.0000000), wk =   0.1111111
        k(   20) = (  -0.0880512  -0.0511295   0.0000000), wk =   0.0555556

     Largest allocated arrays     est. size (Mb)     dimensions
     Largest temporary arrays     est. size (Mb)     dimensions

     Initial potential from superposition of free atoms
     Check: negative starting charge=   -0.003852

     starting charge  197.98275, renormalised to  198.00000

[...]

     *
     * You are using vdW-DF for exchange-correlation in this calculation.
     * Please cite the following three references that made this development
     * possible:
     *
     *   M. Dion, H. Rydberg, E. Schroder, D. C. Langreth, and
     *   B. I. Lundqvist, Phys. Rev. Lett. 92, 246401 (2004).
     *
     *   T. Thonhauser, V. R. Cooper, S. Li, A. Puzder, P. Hyldgaard, and
     *   D. C. Langreth, Phys. Rev. B 76, 125112 (2007).
     *
     *   G. Roman-Perez and J. M. Soler, Phys. Rev. Lett. 103, 096102 (2009).
     *
     *
     * If you are using vdW-DF2, please also cite:
     *
     *   K. Lee, E. D. Murray, L. Kong, B. I. Lundqvist, and
     *   D. C. Langreth, Phys. Rev. B 82, 081101(R) (2010).
     *
     *
     * If you are calculating the stress with vdW-DF, please also cite:
     *
     *   R. Sabatini, E. Kucukbenli, B. Kolb, T. Thonhauser, and
     *   S. de Gironcoli, J. Phys.: Condens. Matter 24, 424209 (2012).
     *

     Carrying out vdW-DF run using the following parameters:

     Nqs =      20    Nr_points =    1024   r_max =   100.000
     q_mesh =
               0.00001000     0.04494208     0.09755937     0.15916263
               0.23128650     0.31572767     0.41458969     0.53033537
               0.66584808     0.82450364     1.01025438     1.22772762
               1.48234092     1.78043706     2.12944203     2.53805004
               3.01644009     3.57652955     4.23227104     5.00000000

     Gradients computed in reciprocal space

[...]

     Starting wfc are  156 randomized atomic wfcs

     Self-consistent Calculation

[...]

     Threshold (ethr) on eigenvalues was too large:
     Diagonalizing with lowered threshold

     Davidson diagonalization with overlap
     ethr =  7.86E-04,  avg # of iterations =  3.2

[...]

     total energy              =   -3487.74639380 Ry
     Harris-Foulkes estimate   =   -3487.74639289 Ry
     estimated scf accuracy    <       0.00000128 Ry

     iteration # 16     ecut=    36.75 Ry     beta=0.10
     Davidson diagonalization with overlap
     ethr =  6.45E-10,  avg # of iterations =  2.0

[...]

     negative rho (up, down):  3.637E-03 0.000E+00

     Adding external electric field

     Computed dipole along edir(3) :
        Dipole               -0.0270 Ry au,         -0.0686 Debye
        Dipole field         -0.0001 Ry au

        Potential amp.        0.0066 Ry
        Total length         45.4043 bohr

     End of self-consistent calculation

[...]

          k = 0.0587-0.0673 0.0000 ( 17508 PWs)   bands (ev):

[...]

          k =-0.0881-0.0511 0.0000 ( 17488 PWs)   bands (ev):

  -124.9287-124.9283-124.7582-124.7577-124.7029-124.7025 -79.1036 -79.0987
   -79.0981 -79.0955 -79.0869 -79.0863 -78.9329 -78.9279 -78.9273 -78.9248
   -78.9230 -78.9224 -78.8824 -78.8744 -78.8743 -78.8737 -78.8651 -78.8646
   -53.9323 -53.8504 -53.8299 -53.7473 -53.7004 -53.5962 -30.2486 -30.2289
   -30.1955 -30.1042 -30.0973 -30.0491 -29.9895 -29.9392 -29.9262 -29.8686
   -29.8309 -29.8133 -29.7350 -29.4287 -29.3533 -29.3392 -29.2946 -29.2135
    -6.2228  -6.0912  -6.0304  -6.0230  -6.0049  -5.9426  -5.9331  -5.9294
    -5.8999  -5.8412  -5.7951  -5.7627  -5.7089  -5.6908  -5.6902  -5.6822
    -5.6779  -5.6704  -5.6400  -5.6274  -5.5932  -5.5819  -5.5542  -5.4949
    -5.4871  -5.4534  -5.4416  -5.4084  -5.3917  -5.2700  -4.7805  -4.4253
    -2.8323  -2.6683  -2.1158  -2.0302  -1.8767  -1.5416  -1.4435  -1.1326
    -0.8458  -0.7946  -0.6938  -0.5444  -0.4836  -0.3282  -0.0047   0.2538
     0.4238   0.5186   0.7219   0.7869   1.7284   2.2318   2.2573   2.5523
     2.5798   2.9825   3.1446   3.3039   3.3540   3.5791   3.6877   3.7721
     4.0200   4.1855   4.2626   4.7959   4.8103   5.0917   5.9532   6.3537
     6.3582   6.5912   6.7552   6.7864   6.9804   7.0128   7.0385   7.1601
     7.2039

     the Fermi energy is     1.3300 ev

!    total energy              =   -3487.74639622 Ry
     Harris-Foulkes estimate   =   -3487.74639416 Ry
     estimated scf accuracy    <       0.00000065 Ry

     The total energy is the sum of the following terms:

     one-electron contribution =  -22637.98756402 Ry
     hartree contribution      =   11308.45134543 Ry
     xc contribution           =    -374.77176115 Ry
     ewald contribution        =    8216.62086092 Ry
     electric field correction =       0.00000197 Ry
     smearing contrib. (-TS)   =      -0.05927936 Ry

     convergence has been achieved in  16 iterations

 BEEF-vdW xc energy contributions
           1 :   -329.579859871471
           2 :    299.271105031012
           3 :   -248.025405726786
           4 :    190.190678462714
           5 :   -138.948785219008
           6 :    101.531528268629
           7 :   -77.9456595614740
           8 :    63.2138358006255
           9 :   -51.3684842692363
          10 :    38.7916983954339
          11 :   -25.3207459679921
          12 :    13.0567206309582
          13 :   -4.14280829203369
          14 :  -0.902808104669987
          15 :    3.36899282200312
          16 :   -5.25253930039116
          17 :    7.86191789238023
          18 :   -11.1349087101688
          19 :    14.0129036033031
          20 :   -15.4394643813757
          21 :    15.1771478180129
          22 :   -13.8961238070211
          23 :    12.5838478732321
          24 :   -11.8133119373183
          25 :    11.4273971065491
          26 :   -10.8199970715043
          27 :    9.52431624516186
          28 :   -7.62864329267825
          29 :    5.71606312134219
          30 :   -4.41661283795315
          31 :   -29.1527705967179
          32 :   -20.7540148448425

     Forces acting on atoms (Ry/au):

     negative rho (up, down):  3.637E-03 0.000E+00
     atom    1 type  1   force =     0.00441395    0.00256105   -0.01217542
     atom    2 type  1   force =     0.00441175    0.00256382   -0.01217564
     atom    3 type  2   force =     0.00119371    0.00069316    0.02054146
     atom    4 type  2   force =     0.00119332    0.00069291    0.02054126
     atom    5 type  1   force =     0.00298189    0.00172899   -0.00910173
     atom    6 type  1   force =     0.00298070    0.00173356   -0.00910161
     atom    7 type  2   force =    -0.00778366   -0.00451969    0.00099044
     atom    8 type  2   force =    -0.00778362   -0.00451976    0.00099159
     atom    9 type  1   force =    -0.00007512   -0.00004515   -0.00009966
     atom   10 type  1   force =    -0.00007577   -0.00004302   -0.00009965
     atom   11 type  2   force =    -0.00073156   -0.00042481   -0.00015538
     atom   12 type  2   force =    -0.00072560   -0.00042107   -0.00015564

     Total force =     0.039385     Total SCF correction =     0.004900
     SCF correction compared to forces is large: reduce conv_thr to get better values

     entering subroutine stress ...

     negative rho (up, down):  3.637E-03 0.000E+00
          total   stress  (Ry/bohr**3)                   (kbar)     P=  -14.85
  -0.00011914   0.00002167  -0.00001359        -17.53      3.19     -2.00
   0.00002167  -0.00014388  -0.00000789          3.19    -21.16     -1.16
  -0.00001359  -0.00000789  -0.00003984         -2.00     -1.16     -5.86

 !ASE

     Writing output data file calc.save

     General routines

     Parallel routines

   This run was terminated on:   6:35:35  25Dec2018

   JOB DONE.
Job  /afs/slac/g/suncat/bin/suncat-tsmpirun -x LD_LIBRARY_PATH -wdir /scratch/qe109225_MQH9R pw.x -in pw.inp

TID   HOST_NAME   COMMAND_LINE            STATUS            TERMINATION_TIME
00000 suncat0190 pw.x -in pw.inp   Done                     12/25/2018 06:35:35
00001 suncat0190 pw.x -in pw.inp   Done                     12/25/2018 06:35:35
00002 suncat0190 pw.x -in pw.inp   Done                     12/25/2018 06:35:35
00003 suncat0190 pw.x -in pw.inp   Done                     12/25/2018 06:35:35
00004 suncat0190 pw.x -in pw.inp   Done                     12/25/2018 06:35:35
00005 suncat0190 pw.x -in pw.inp   Done                     12/25/2018 06:35:35
00006 suncat0190 pw.x -in pw.inp   Done                     12/25/2018 06:35:35
00007 suncat0190 pw.x -in pw.inp   Done                     12/25/2018 06:35:35
00008 suncat0009 pw.x -in pw.inp   Done                     12/25/2018 06:35:35
00009 suncat0009 pw.x -in pw.inp   Done                     12/25/2018 06:35:35
00010 suncat0009 pw.x -in pw.inp   Done                     12/25/2018 06:35:35
00011 suncat0009 pw.x -in pw.inp   Done                     12/25/2018 06:35:35
00012 suncat0009 pw.x -in pw.inp   Done                     12/25/2018 06:35:35
00013 suncat0009 pw.x -in pw.inp   Done                     12/25/2018 06:35:35
00014 suncat0009 pw.x -in pw.inp   Done                     12/25/2018 06:35:35
00015 suncat0009 pw.x -in pw.inp   Done                     12/25/2018 06:35:35
00016 suncat0114 pw.x -in pw.inp   Done                     12/25/2018 06:35:35
00017 suncat0114 pw.x -in pw.inp   Done                     12/25/2018 06:35:35
00018 suncat0114 pw.x -in pw.inp   Done                     12/25/2018 06:35:35
00019 suncat0114 pw.x -in pw.inp   Done                     12/25/2018 06:35:35
00020 suncat0114 pw.x -in pw.inp   Done                     12/25/2018 06:35:35
00021 suncat0114 pw.x -in pw.inp   Done                     12/25/2018 06:35:35
00022 suncat0114 pw.x -in pw.inp   Done                     12/25/2018 06:35:35
00023 suncat0114 pw.x -in pw.inp   Done                     12/25/2018 06:35:35
00024 suncat0113 pw.x -in pw.inp   Done                     12/25/2018 06:35:35
00025 suncat0113 pw.x -in pw.inp   Done                     12/25/2018 06:35:35
00026 suncat0113 pw.x -in pw.inp   Done                     12/25/2018 06:35:35
00027 suncat0113 pw.x -in pw.inp   Done                     12/25/2018 06:35:35
00028 suncat0113 pw.x -in pw.inp   Done                     12/25/2018 06:35:35
00029 suncat0113 pw.x -in pw.inp   Done                     12/25/2018 06:35:35
00030 suncat0113 pw.x -in pw.inp   Done                     12/25/2018 06:35:35
00031 suncat0113 pw.x -in pw.inp   Done                     12/25/2018 06:35:35
00032 suncat0230 pw.x -in pw.inp   Done                     12/25/2018 06:35:35
00033 suncat0230 pw.x -in pw.inp   Done                     12/25/2018 06:35:35
00034 suncat0230 pw.x -in pw.inp   Done                     12/25/2018 06:35:35
00035 suncat0230 pw.x -in pw.inp   Done                     12/25/2018 06:35:35
00036 suncat0230 pw.x -in pw.inp   Done                     12/25/2018 06:35:35
00037 suncat0230 pw.x -in pw.inp   Done                     12/25/2018 06:35:35
00038 suncat0230 pw.x -in pw.inp   Done                     12/25/2018 06:35:35
00039 suncat0230 pw.x -in pw.inp   Done                     12/25/2018 06:35:35
00040 suncat0229 pw.x -in pw.inp   Done                     12/25/2018 06:35:35
00041 suncat0229 pw.x -in pw.inp   Done                     12/25/2018 06:35:35
00042 suncat0229 pw.x -in pw.inp   Done                     12/25/2018 06:35:35
00043 suncat0229 pw.x -in pw.inp   Done                     12/25/2018 06:35:35
00044 suncat0229 pw.x -in pw.inp   Done                     12/25/2018 06:35:35
00045 suncat0229 pw.x -in pw.inp   Done                     12/25/2018 06:35:35
00046 suncat0229 pw.x -in pw.inp   Done                     12/25/2018 06:35:35
00047 suncat0229 pw.x -in pw.inp   Done                     12/25/2018 06:35:35
00048 suncat0205 pw.x -in pw.inp   Done                     12/25/2018 06:35:35
00049 suncat0205 pw.x -in pw.inp   Done                     12/25/2018 06:35:35
00050 suncat0205 pw.x -in pw.inp   Done                     12/25/2018 06:35:35
00051 suncat0205 pw.x -in pw.inp   Done                     12/25/2018 06:35:35
00052 suncat0205 pw.x -in pw.inp   Done                     12/25/2018 06:35:35
00053 suncat0205 pw.x -in pw.inp   Done                     12/25/2018 06:35:35
00054 suncat0205 pw.x -in pw.inp   Done                     12/25/2018 06:35:35
00055 suncat0205 pw.x -in pw.inp   Done                     12/25/2018 06:35:35
00056 suncat0204 pw.x -in pw.inp   Done                     12/25/2018 06:35:35
00057 suncat0204 pw.x -in pw.inp   Done                     12/25/2018 06:35:35
00058 suncat0204 pw.x -in pw.inp   Done                     12/25/2018 06:35:35
00059 suncat0204 pw.x -in pw.inp   Done                     12/25/2018 06:35:35
00060 suncat0204 pw.x -in pw.inp   Done                     12/25/2018 06:35:35
00061 suncat0204 pw.x -in pw.inp   Done                     12/25/2018 06:35:35
00062 suncat0204 pw.x -in pw.inp   Done                     12/25/2018 06:35:35
00063 suncat0204 pw.x -in pw.inp   Done                     12/25/2018 06:35:35