     Program PWSCF v.5.1rc2 (svn rev. 11289) starts on 18Dec2018 at 16:52: 1

     Current dimensions of program PWSCF are:
     Max number of different atomic species (ntypx) = 10
     Max number of k-points (npk) =  40000
     Max angular momentum in pseudopotentials (lmaxx) =  3
     Presently stress not available with electric field

     IMPORTANT: XC functional enforced from input :
     Exchange-correlation      = BEEF-VDW ( 1  4 27 13 2)
     Any further DFT definition will be discarded
     Please, verify this is what you really want

     Subspace diagonalization in iterative solution of the eigenvalue problem:
     a serial algorithm will be used

     Found symmetry operation: I + ( -0.5000 -0.5000  0.0000)
     This is a supercell, fractional translations are disabled

     Generating pointlists ...
     new r_m :   0.4125 (alat units)  0.7795 (a.u.) for type    1
     new r_m :   0.4125 (alat units)  0.7795 (a.u.) for type    2

     bravais-lattice index     =            0
     lattice parameter (alat)  =       1.8897  a.u.
     unit-cell volume          =    4180.3334 (a.u.)^3
     number of atoms/cell      =           12
     number of atomic types    =            2
     number of electrons       =       186.00
     number of Kohn-Sham states=          123
     kinetic-energy cutoff     =      36.7493  Ry
     charge density cutoff     =     367.4932  Ry
     convergence threshold     =      1.0E-06
     mixing beta               =       0.1000
     number of iterations used =           10  plain     mixing
     Exchange-correlation      = BEEF-VDW ( 1  4 27 13 2)
     nstep                     =           50

     celldm(1)=   1.889726  celldm(2)=   0.000000  celldm(3)=   0.000000
     celldm(4)=   0.000000  celldm(5)=   0.000000  celldm(6)=   0.000000

     crystal axes: (cart. coord. in units of alat)
               a(1) = (   5.204047   0.000000   0.000000 )
               a(2) = (   1.726393   4.909346   0.000000 )
               a(3) = (   0.000000   0.000000  24.246521 )

     reciprocal axes: (cart. coord. in units 2 pi/alat)
               b(1) = (  0.192158 -0.067573  0.000000 )
               b(2) = (  0.000000  0.203693  0.000000 )
               b(3) = (  0.000000  0.000000  0.041243 )

     PseudoPot. # 1 for Mn read from file:
     /afs/slac.stanford.edu/u/if/mamunm/psp/gbrv1.5pbe/Mn.UPF
     MD5 check sum: 82ef2b46521d7a7d9e736dc3972e4928
     Pseudo is Ultrasoft + core correction, Zval = 15.0
     Generated by new atomic code, or converted to UPF format
     Using radial grid of  859 points,  6 beta functions with:
                l(1) =   0
                l(2) =   0
                l(3) =   1
                l(4) =   1
                l(5) =   2
                l(6) =   2
     Q(r) pseudized with  8 coefficients,  rinner =    0.950   0.950   0.950
                                                       0.950   0.950

     PseudoPot. # 2 for Ru read from file:
     /afs/slac.stanford.edu/u/if/mamunm/psp/gbrv1.5pbe/Ru.UPF
     MD5 check sum: 7158a806dd851261a58e6920c40ebe78
     Pseudo is Ultrasoft + core correction, Zval = 16.0
     Generated by new atomic code, or converted to UPF format
     Using radial grid of  967 points,  6 beta functions with:
                l(1) =   0
                l(2) =   0
                l(3) =   1
                l(4) =   1
                l(5) =   2
                l(6) =   2
     Q(r) pseudized with  8 coefficients,  rinner =    1.300   1.300   1.300
                                                       1.300   1.300

     vdW kernel table read from file vdW_kernel_table
     MD5 check sum: 095c7af220d748ca6e76c0b4c6cfb241

     atomic species   valence    mass     pseudopotential
        Mn1           15.00    54.93804     Mn( 1.00)
        Ru1           16.00   101.07000     Ru( 1.00)

     Starting magnetic structure
     atomic species   magnetization
        Mn1          0.133
        Ru1          0.125

     No symmetry found

   Cartesian axes

     site n.     atom                  positions (alat units)
         1           Mn1 tau(   1) = (   0.0000000   0.0000000  10.0000000  )
         2           Mn1 tau(   2) = (   3.4652201   2.4546730  10.0000000  )
         3           Ru1 tau(   3) = (   2.6020237   0.0000000  10.0000000  )
         4           Ru1 tau(   4) = (   0.8631964   2.4546730  10.0000000  )
         5           Mn1 tau(   5) = (   5.2040475   3.6864137  12.1232603  )
         6           Mn1 tau(   6) = (   1.7388274   1.2317407  12.1232603  )
         7           Ru1 tau(   7) = (   2.6020237   3.6864137  12.1232603  )
         8           Ru1 tau(   8) = (   4.3408511   1.2317407  12.1232603  )
         9           Mn1 tau(   9) = (   3.4776548   2.4634814  14.2465207  )
        10           Mn1 tau(  10) = (   0.0124347   0.0088084  14.2465207  )
        11           Ru1 tau(  11) = (   0.8756310   2.4634814  14.2465207  )
        12           Ru1 tau(  12) = (   2.6144584   0.0088084  14.2465207  )

     number of k points=    40  Fermi-Dirac smearing, width (Ry)=  0.0110
                       cart. coord. in units 2pi/alat
        k(    1) = (   0.0000000   0.0000000   0.0000000), wk =   0.0277778
        k(    2) = (   0.0000000   0.0339489   0.0000000), wk =   0.0555556
        k(    3) = (   0.0000000   0.0678977   0.0000000), wk =   0.0555556
        k(    4) = (   0.0000000  -0.1018466   0.0000000), wk =   0.0277778
        k(    5) = (   0.0320264  -0.0112622   0.0000000), wk =   0.0555556
        k(    6) = (   0.0320264   0.0226866   0.0000000), wk =   0.0555556
        k(    7) = (   0.0320264   0.0566355   0.0000000), wk =   0.0555556
        k(    8) = (   0.0320264  -0.1131088   0.0000000), wk =   0.0555556
        k(    9) = (   0.0320264  -0.0791599   0.0000000), wk =   0.0555556
        k(   10) = (   0.0320264  -0.0452111   0.0000000), wk =   0.0555556
        k(   11) = (   0.0640527  -0.0225244   0.0000000), wk =   0.0555556
        k(   12) = (   0.0640527   0.0114244   0.0000000), wk =   0.0555556
        k(   13) = (   0.0640527   0.0453733   0.0000000), wk =   0.0555556
        k(   14) = (   0.0640527  -0.1243710   0.0000000), wk =   0.0555556
        k(   15) = (   0.0640527  -0.0904221   0.0000000), wk =   0.0555556
        k(   16) = (   0.0640527  -0.0564733   0.0000000), wk =   0.0555556
        k(   17) = (  -0.0960791   0.0337866   0.0000000), wk =   0.0277778
        k(   18) = (  -0.0960791   0.0677355   0.0000000), wk =   0.0555556
        k(   19) = (  -0.0960791   0.1016843   0.0000000), wk =   0.0555556
        k(   20) = (  -0.0960791  -0.0680599   0.0000000), wk =   0.0277778
        k(   21) = (   0.0000000   0.0000000   0.0000000), wk =   0.0277778
        k(   22) = (   0.0000000   0.0339489   0.0000000), wk =   0.0555556
        k(   23) = (   0.0000000   0.0678977   0.0000000), wk =   0.0555556
        k(   24) = (   0.0000000  -0.1018466   0.0000000), wk =   0.0277778
        k(   25) = (   0.0320264  -0.0112622   0.0000000), wk =   0.0555556
        k(   26) = (   0.0320264   0.0226866   0.0000000), wk =   0.0555556
        k(   27) = (   0.0320264   0.0566355   0.0000000), wk =   0.0555556
        k(   28) = (   0.0320264  -0.1131088   0.0000000), wk =   0.0555556
        k(   29) = (   0.0320264  -0.0791599   0.0000000), wk =   0.0555556
        k(   30) = (   0.0320264  -0.0452111   0.0000000), wk =   0.0555556
        k(   31) = (   0.0640527  -0.0225244   0.0000000), wk =   0.0555556
        k(   32) = (   0.0640527   0.0114244   0.0000000), wk =   0.0555556
        k(   33) = (   0.0640527   0.0453733   0.0000000), wk =   0.0555556
        k(   34) = (   0.0640527  -0.1243710   0.0000000), wk =   0.0555556
        k(   35) = (   0.0640527  -0.0904221   0.0000000), wk =   0.0555556
        k(   36) = (   0.0640527  -0.0564733   0.0000000), wk =   0.0555556
        k(   37) = (  -0.0960791   0.0337866   0.0000000), wk =   0.0277778
        k(   38) = (  -0.0960791   0.0677355   0.0000000), wk =   0.0555556
        k(   39) = (  -0.0960791   0.1016843   0.0000000), wk =   0.0555556
        k(   40) = (  -0.0960791  -0.0680599   0.0000000), wk =   0.0277778

     Largest allocated arrays     est. size (Mb)     dimensions
     Largest temporary arrays     est. size (Mb)     dimensions

     Check: negative/imaginary core charge=   -0.000006    0.000000

     Initial potential from superposition of free atoms
     Check: negative starting charge=(component1):   -0.244376
     Check: negative starting charge=(component2):   -0.190073

     starting charge  176.99940, renormalised to  186.00000

     negative rho (up, down):  2.568E-01 1.997E-01

     *
     * You are using vdW-DF for exchange-correlation in this calculation.
     * Please cite the following three references that made this development
     * possible:
     *
     *   M. Dion, H. Rydberg, E. Schroder, D. C. Langreth, and
     *   B. I. Lundqvist, Phys. Rev. Lett. 92, 246401 (2004).
     *
     *   T. Thonhauser, V. R. Cooper, S. Li, A. Puzder, P. Hyldgaard, and
     *   D. C. Langreth, Phys. Rev. B 76, 125112 (2007).
     *
     *   G. Roman-Perez and J. M. Soler, Phys. Rev. Lett. 103, 096102 (2009).
     *
     *
     * If you are using vdW-DF2, please also cite:
     *
     *   K. Lee, E. D. Murray, L. Kong, B. I. Lundqvist, and
     *   D. C. Langreth, Phys. Rev. B 82, 081101(R) (2010).
     *
     *
     * If you are calculating the stress with vdW-DF, please also cite:
     *
     *   R. Sabatini, E. Kucukbenli, B. Kolb, T. Thonhauser, and
     *   S. de Gironcoli, J. Phys.: Condens. Matter 24, 424209 (2012).
     *

     Carrying out vdW-DF run using the following parameters:

     Nqs =      20    Nr_points =    1024   r_max =   100.000
     q_mesh =
               0.00001000     0.04494208     0.09755937     0.15916263
               0.23128650     0.31572767     0.41458969     0.53033537
               0.66584808     0.82450364     1.01025438     1.22772762
               1.48234092     1.78043706     2.12944203     2.53805004
               3.01644009     3.57652955     4.23227104     5.00000000

     Gradients computed in reciprocal space

     Adding external electric field

     Computed dipole along edir(3) :
        Dipole                0.0000 Ry au,          0.0000 Debye
        Dipole field          0.0000 Ry au

        Potential amp.       -0.0000 Ry
        Total length         44.6738 bohr

[...]

     Starting wfc are  156 randomized atomic wfcs

     Self-consistent Calculation

     iteration #  1     ecut=    36.75 Ry     beta=0.10
     Davidson diagonalization with overlap
     ethr =  1.00E-02,  avg # of iterations =  7.4

[...]

     Magnetic moment per site:
     atom:    1    charge:    6.1129    magn:    0.7819    constr:    0.0000
     atom:    2    charge:    6.1129    magn:    0.7819    constr:    0.0000
     atom:    3    charge:    2.9661    magn:    0.3427    constr:    0.0000
     atom:    4    charge:    2.9661    magn:    0.3427    constr:    0.0000
     atom:    5    charge:    6.1334    magn:    0.7907    constr:    0.0000
     atom:    6    charge:    6.1334    magn:    0.7907    constr:    0.0000
[...]
                l(5) =   2
                l(6) =   2
     Q(r) pseudized with  8 coefficients,  rinner =    0.950   0.950   0.950
                                                       0.950   0.950

     PseudoPot. # 2 for Ru read from file:
     /afs/slac.stanford.edu/u/if/mamunm/psp/gbrv1.5pbe/Ru.UPF
     MD5 check sum: 7158a806dd851261a58e6920c40ebe78
     Pseudo is Ultrasoft + core correction, Zval = 16.0
     Generated by new atomic code, or converted to UPF format
     Using radial grid of  967 points,  6 beta functions with:
                l(1) =   0
                l(2) =   0
                l(3) =   1
                l(4) =   1
                l(5) =   2
                l(6) =   2
     Q(r) pseudized with  8 coefficients,  rinner =    1.300   1.300   1.300
                                                       1.300   1.300

     vdW kernel table read from file vdW_kernel_table
     MD5 check sum: 095c7af220d748ca6e76c0b4c6cfb241

     atomic species   valence    mass     pseudopotential
        Mn1           15.00    54.93804     Mn( 1.00)
        Ru1           16.00   101.07000     Ru( 1.00)

     Starting magnetic structure
     atomic species   magnetization
        Mn1          0.133
        Ru1          0.125

     No symmetry found

   Cartesian axes

     site n.     atom                  positions (alat units)
         1           Mn1 tau(   1) = (   0.0000000   0.0000000  10.0000000  )
         2           Mn1 tau(   2) = (   3.4652201   2.4546730  10.0000000  )
         3           Ru1 tau(   3) = (   2.6020237   0.0000000  10.0000000  )
         4           Ru1 tau(   4) = (   0.8631964   2.4546730  10.0000000  )
         5           Mn1 tau(   5) = (   5.2040475   3.6864137  12.1232603  )
         6           Mn1 tau(   6) = (   1.7388274   1.2317407  12.1232603  )
         7           Ru1 tau(   7) = (   2.6020237   3.6864137  12.1232603  )
         8           Ru1 tau(   8) = (   4.3408511   1.2317407  12.1232603  )
         9           Mn1 tau(   9) = (   3.4765452   2.4626954  14.3281684  )
        10           Mn1 tau(  10) = (   0.0113645   0.0080503  14.3281635  )
        11           Ru1 tau(  11) = (   0.8746946   2.4628448  14.0991141  )
        12           Ru1 tau(  12) = (   2.6135472   0.0081363  14.0991142  )

     number of k points=    40  Fermi-Dirac smearing, width (Ry)=  0.0110
                       cart. coord. in units 2pi/alat
        k(    1) = (   0.0000000   0.0000000   0.0000000), wk =   0.0277778
        k(    2) = (   0.0000000   0.0339489   0.0000000), wk =   0.0555556
        k(    3) = (   0.0000000   0.0678977   0.0000000), wk =   0.0555556
        k(    4) = (   0.0000000  -0.1018466   0.0000000), wk =   0.0277778
        k(    5) = (   0.0320264  -0.0112622   0.0000000), wk =   0.0555556
        k(    6) = (   0.0320264   0.0226866   0.0000000), wk =   0.0555556
        k(    7) = (   0.0320264   0.0566355   0.0000000), wk =   0.0555556
        k(    8) = (   0.0320264  -0.1131088   0.0000000), wk =   0.0555556
        k(    9) = (   0.0320264  -0.0791599   0.0000000), wk =   0.0555556
        k(   10) = (   0.0320264  -0.0452111   0.0000000), wk =   0.0555556
        k(   11) = (   0.0640527  -0.0225244   0.0000000), wk =   0.0555556
        k(   12) = (   0.0640527   0.0114244   0.0000000), wk =   0.0555556
        k(   13) = (   0.0640527   0.0453733   0.0000000), wk =   0.0555556
        k(   14) = (   0.0640527  -0.1243710   0.0000000), wk =   0.0555556
        k(   15) = (   0.0640527  -0.0904221   0.0000000), wk =   0.0555556
        k(   16) = (   0.0640527  -0.0564733   0.0000000), wk =   0.0555556
        k(   17) = (  -0.0960791   0.0337866   0.0000000), wk =   0.0277778
        k(   18) = (  -0.0960791   0.0677355   0.0000000), wk =   0.0555556
        k(   19) = (  -0.0960791   0.1016843   0.0000000), wk =   0.0555556
        k(   20) = (  -0.0960791  -0.0680599   0.0000000), wk =   0.0277778
        k(   21) = (   0.0000000   0.0000000   0.0000000), wk =   0.0277778
        k(   22) = (   0.0000000   0.0339489   0.0000000), wk =   0.0555556
        k(   23) = (   0.0000000   0.0678977   0.0000000), wk =   0.0555556
        k(   24) = (   0.0000000  -0.1018466   0.0000000), wk =   0.0277778
        k(   25) = (   0.0320264  -0.0112622   0.0000000), wk =   0.0555556
        k(   26) = (   0.0320264   0.0226866   0.0000000), wk =   0.0555556
        k(   27) = (   0.0320264   0.0566355   0.0000000), wk =   0.0555556
        k(   28) = (   0.0320264  -0.1131088   0.0000000), wk =   0.0555556
        k(   29) = (   0.0320264  -0.0791599   0.0000000), wk =   0.0555556
        k(   30) = (   0.0320264  -0.0452111   0.0000000), wk =   0.0555556
        k(   31) = (   0.0640527  -0.0225244   0.0000000), wk =   0.0555556
        k(   32) = (   0.0640527   0.0114244   0.0000000), wk =   0.0555556
        k(   33) = (   0.0640527   0.0453733   0.0000000), wk =   0.0555556
        k(   34) = (   0.0640527  -0.1243710   0.0000000), wk =   0.0555556
        k(   35) = (   0.0640527  -0.0904221   0.0000000), wk =   0.0555556
        k(   36) = (   0.0640527  -0.0564733   0.0000000), wk =   0.0555556
        k(   37) = (  -0.0960791   0.0337866   0.0000000), wk =   0.0277778
        k(   38) = (  -0.0960791   0.0677355   0.0000000), wk =   0.0555556
        k(   39) = (  -0.0960791   0.1016843   0.0000000), wk =   0.0555556
        k(   40) = (  -0.0960791  -0.0680599   0.0000000), wk =   0.0277778

     Largest allocated arrays     est. size (Mb)     dimensions
     Largest temporary arrays     est. size (Mb)     dimensions

     Check: negative/imaginary core charge=   -0.000006    0.000000

     Initial potential from superposition of free atoms
     Check: negative starting charge=(component1):   -0.246608
     Check: negative starting charge=(component2):   -0.191809

     starting charge  176.99940, renormalised to  186.00000

[...]

     *
     * You are using vdW-DF for exchange-correlation in this calculation.
     * Please cite the following three references that made this development
     * possible:
     *
     *   M. Dion, H. Rydberg, E. Schroder, D. C. Langreth, and
     *   B. I. Lundqvist, Phys. Rev. Lett. 92, 246401 (2004).
     *
     *   T. Thonhauser, V. R. Cooper, S. Li, A. Puzder, P. Hyldgaard, and
     *   D. C. Langreth, Phys. Rev. B 76, 125112 (2007).
     *
     *   G. Roman-Perez and J. M. Soler, Phys. Rev. Lett. 103, 096102 (2009).
     *
     *
     * If you are using vdW-DF2, please also cite:
     *
     *   K. Lee, E. D. Murray, L. Kong, B. I. Lundqvist, and
     *   D. C. Langreth, Phys. Rev. B 82, 081101(R) (2010).
     *
     *
     * If you are calculating the stress with vdW-DF, please also cite:
     *
     *   R. Sabatini, E. Kucukbenli, B. Kolb, T. Thonhauser, and
     *   S. de Gironcoli, J. Phys.: Condens. Matter 24, 424209 (2012).
     *

     Carrying out vdW-DF run using the following parameters:

     Nqs =      20    Nr_points =    1024   r_max =   100.000
     q_mesh =
               0.00001000     0.04494208     0.09755937     0.15916263
               0.23128650     0.31572767     0.41458969     0.53033537
               0.66584808     0.82450364     1.01025438     1.22772762
               1.48234092     1.78043706     2.12944203     2.53805004
               3.01644009     3.57652955     4.23227104     5.00000000

     Gradients computed in reciprocal space

[...]

     Starting wfc are  156 randomized atomic wfcs

     Self-consistent Calculation

[...]

     total energy              =   -2443.29527898 Ry
     Harris-Foulkes estimate   =   -2443.29527829 Ry
     estimated scf accuracy    <       0.00000105 Ry

[...]

     iteration # 34     ecut=    36.75 Ry     beta=0.10
     Davidson diagonalization with overlap
     ethr =  5.65E-10,  avg # of iterations =  2.0

[...]

     negative rho (up, down):  2.291E-01 2.250E-01

[...]

     Adding external electric field

     Computed dipole along edir(3) :
        Dipole                0.0293 Ry au,          0.0744 Debye
        Dipole field          0.0001 Ry au

        Potential amp.       -0.0079 Ry
        Total length         44.6738 bohr

     Magnetic moment per site:
     atom:    1    charge:    6.0086    magn:    1.3860    constr:    0.0000
     atom:    2    charge:    6.0086    magn:    1.3860    constr:    0.0000
     atom:    3    charge:    2.8455    magn:   -0.0169    constr:    0.0000
     atom:    4    charge:    2.8455    magn:   -0.0169    constr:    0.0000
     atom:    5    charge:    6.0034    magn:    1.2127    constr:    0.0000
     atom:    6    charge:    6.0033    magn:    1.2127    constr:    0.0000
     atom:    7    charge:    2.8531    magn:   -0.0107    constr:    0.0000
     atom:    8    charge:    2.8531    magn:   -0.0107    constr:    0.0000
     atom:    9    charge:    6.0067    magn:    1.4194    constr:    0.0000
     atom:   10    charge:    6.0067    magn:    1.4194    constr:    0.0000
     atom:   11    charge:    2.8381    magn:   -0.0335    constr:    0.0000
     atom:   12    charge:    2.8381    magn:   -0.0335    constr:    0.0000

     End of self-consistent calculation

 ------ SPIN UP ------------

[...]

 ------ SPIN DOWN ----------

[...]

          k = 0.0641-0.0565 0.0000 ( 15741 PWs)   bands (ev):

[...]

          k =-0.0961-0.0681 0.0000 ( 15654 PWs)   bands (ev):

   -76.1035 -76.0985 -75.7489 -75.7442 -75.6862 -75.6816 -71.2754 -71.2628
   -70.9859 -70.9724 -70.8347 -70.8213 -44.9448 -44.9410 -44.9339 -44.8781
   -44.8135 -44.8084 -44.6026 -44.5977 -44.5554 -44.5516 -44.5464 -44.4931
   -44.4868 -44.4762 -44.4698 -44.4256 -44.4054 -44.3990 -41.2980 -41.2879
   -41.2755 -41.2687 -41.2472 -41.1175 -41.0566 -40.9615 -40.9546 -40.9479
   -40.9470 -40.9221 -40.8891 -40.8311 -40.8155 -40.7753 -40.7621 -40.7513
    -3.3617  -3.0661  -2.4206  -2.3625  -2.3054  -2.0770  -2.0633  -1.8816
    -1.7990  -1.7767  -1.3357  -1.2665  -1.2563  -1.2211  -1.1221  -0.8678
    -0.5712  -0.4556  -0.4324  -0.3974  -0.2791  -0.2634  -0.1440  -0.0817
    -0.0470   0.1644   0.2478   0.4356   0.6072   0.6750   1.0011   1.0045
     1.0781   1.2143   1.3255   1.4278   1.4715   1.5833   1.6282   1.7751
     1.8607   2.1469   2.3094   2.4195   2.4264   2.4585   2.4811   2.5119
     2.6190   2.7594   2.7900   2.8561   2.8649   2.9955   3.1132   3.1205
     3.1717   3.6006   3.6711   3.7260   3.8351   3.8444   3.9311   4.0442
     4.1700   4.6314   5.0088   5.0866   5.0980   5.2779   6.3322   6.6107
     6.8874   7.1782   7.6855

     the Fermi energy is     1.5874 ev

!    total energy              =   -2443.29528043 Ry
     Harris-Foulkes estimate   =   -2443.29527967 Ry
     estimated scf accuracy    <       0.00000078 Ry

     The total energy is the sum of the following terms:

     one-electron contribution =  -21204.02871086 Ry
     hartree contribution      =   10598.94122634 Ry
     xc contribution           =    -326.86204595 Ry
     ewald contribution        =    8488.73456661 Ry
     electric field correction =       0.00000257 Ry
     smearing contrib. (-TS)   =      -0.08031914 Ry

     total magnetization       =    19.07 Bohr mag/cell
     absolute magnetization    =    22.33 Bohr mag/cell

     convergence has been achieved in  34 iterations

 BEEF-vdW xc energy contributions
           1 :   -284.468890296325
           2 :    258.885199999851
           3 :   -215.628548741498
           4 :    166.698151933992
           5 :   -123.087618439992
           6 :    91.1483131382378
           7 :   -71.7112786623071
           8 :    61.5680593611411
           9 :   -56.0029271440901
          10 :    51.0484649490594
          11 :   -44.6753506781532
          12 :    36.8089529711538
          13 :   -28.5981030151314
          14 :    21.4960456469494
          15 :   -16.5335792855645
          16 :    13.9266071513201
          17 :   -13.0598777573823
          18 :    12.8249965656902
          19 :   -12.1708814006669
          20 :    10.5922976607008
          21 :   -8.29999332616705
          22 :    5.99214737705017
          23 :   -4.38222787632913
          24 :    3.77167944573739
          25 :   -3.91754450715177
          26 :    4.24295602580565
          27 :   -4.21766775840894
          28 :    3.64567071325439
          29 :   -2.70309626051011
          30 :    1.75574600993218
          31 :   -27.5255270932712
          32 :   -20.1826721268516

     Forces acting on atoms (Ry/au):

     negative rho (up, down):  2.291E-01 2.250E-01
     atom    1 type  1   force =     0.00025183    0.00017842   -0.00988815
     atom    2 type  1   force =     0.00024495    0.00017343   -0.00989206
     atom    3 type  2   force =    -0.00000228   -0.00001041    0.03204488
     atom    4 type  2   force =    -0.00001049    0.00000131    0.03204464
     atom    5 type  1   force =    -0.00013764   -0.00010126   -0.02503044
     atom    6 type  1   force =    -0.00013826   -0.00009415   -0.02502195
     atom    7 type  2   force =     0.00014073    0.00010214    0.00031276
     atom    8 type  2   force =     0.00013932    0.00009630    0.00031278
     atom    9 type  1   force =    -0.00012292   -0.00008703    0.00167004
     atom   10 type  1   force =    -0.00011844   -0.00008392    0.00167174
     atom   11 type  2   force =    -0.00012697   -0.00008237    0.00088776
     atom   12 type  2   force =    -0.00011983   -0.00009246    0.00088800

     Total force =     0.059243     Total SCF correction =     0.004442

     entering subroutine stress ...

     negative rho (up, down):  2.291E-01 2.250E-01
          total   stress  (Ry/bohr**3)                   (kbar)     P=  -13.64
  -0.00009542   0.00005595  -0.00000095        -14.04      8.23     -0.14
   0.00005595  -0.00013478  -0.00000068          8.23    -19.83     -0.10
  -0.00000095  -0.00000068  -0.00004795         -0.14     -0.10     -7.05

 !ASE

     Writing output data file calc.save

     General routines

     Parallel routines

   This run was terminated on:  17:59:41  18Dec2018

   JOB DONE.
Job  /afs/slac/g/suncat/bin/suncat-tsmpirun -x LD_LIBRARY_PATH -wdir /scratch/qe530225_PKNqZ pw.x -in pw.inp

TID   HOST_NAME   COMMAND_LINE            STATUS            TERMINATION_TIME
00000 suncat2064 pw.x -in pw.inp   Done                     12/18/2018 17:59:41
00001 suncat2064 pw.x -in pw.inp   Done                     12/18/2018 17:59:41
00002 suncat2064 pw.x -in pw.inp   Done                     12/18/2018 17:59:41
00003 suncat2064 pw.x -in pw.inp   Done                     12/18/2018 17:59:41
00004 suncat2064 pw.x -in pw.inp   Done                     12/18/2018 17:59:41
00005 suncat2064 pw.x -in pw.inp   Done                     12/18/2018 17:59:41
00006 suncat2064 pw.x -in pw.inp   Done                     12/18/2018 17:59:41
00007 suncat2064 pw.x -in pw.inp   Done                     12/18/2018 17:59:41
00008 suncat2064 pw.x -in pw.inp   Done                     12/18/2018 17:59:41
00009 suncat2064 pw.x -in pw.inp   Done                     12/18/2018 17:59:41
00010 suncat2064 pw.x -in pw.inp   Done                     12/18/2018 17:59:41
00011 suncat2064 pw.x -in pw.inp   Done                     12/18/2018 17:59:41
00012 suncat2064 pw.x -in pw.inp   Done                     12/18/2018 17:59:41
00013 suncat2064 pw.x -in pw.inp   Done                     12/18/2018 17:59:41
00014 suncat2064 pw.x -in pw.inp   Done                     12/18/2018 17:59:41
00015 suncat2064 pw.x -in pw.inp   Done                     12/18/2018 17:59:41
00016 suncat2063 pw.x -in pw.inp   Done                     12/18/2018 17:59:41
00017 suncat2063 pw.x -in pw.inp   Done                     12/18/2018 17:59:41
00018 suncat2063 pw.x -in pw.inp   Done                     12/18/2018 17:59:41
00019 suncat2063 pw.x -in pw.inp   Done                     12/18/2018 17:59:41
00020 suncat2063 pw.x -in pw.inp   Done                     12/18/2018 17:59:41
00021 suncat2063 pw.x -in pw.inp   Done                     12/18/2018 17:59:41
00022 suncat2063 pw.x -in pw.inp   Done                     12/18/2018 17:59:41
00023 suncat2063 pw.x -in pw.inp   Done                     12/18/2018 17:59:41
00024 suncat2063 pw.x -in pw.inp   Done                     12/18/2018 17:59:41
00025 suncat2063 pw.x -in pw.inp   Done                     12/18/2018 17:59:41
00026 suncat2063 pw.x -in pw.inp   Done                     12/18/2018 17:59:41
00027 suncat2063 pw.x -in pw.inp   Done                     12/18/2018 17:59:41
00028 suncat2063 pw.x -in pw.inp   Done                     12/18/2018 17:59:41
00029 suncat2063 pw.x -in pw.inp   Done                     12/18/2018 17:59:41
00030 suncat2063 pw.x -in pw.inp   Done                     12/18/2018 17:59:41
00031 suncat2063 pw.x -in pw.inp   Done                     12/18/2018 17:59:41