     Program PWSCF v.5.1rc2 (svn rev. 11289) starts on 24Dec2018 at 14:47:56

     Current dimensions of program PWSCF are:
     Max number of different atomic species (ntypx) = 10
     Max number of k-points (npk) =  40000
     Max angular momentum in pseudopotentials (lmaxx) =  3
     Presently stress not available with electric field

     IMPORTANT: XC functional enforced from input :
     Exchange-correlation      = BEEF-VDW ( 1  4 27 13 2)
     Any further DFT definition will be discarded
     Please, verify this is what you really want

     Subspace diagonalization in iterative solution of the eigenvalue problem:
     a serial algorithm will be used

     Found symmetry operation: I + ( -0.5000 -0.5000  0.0000)
     This is a supercell, fractional translations are disabled

     Generating pointlists ...
     new r_m :   0.4125 (alat units)  0.7795 (a.u.) for type    1
     new r_m :   0.4125 (alat units)  0.7795 (a.u.) for type    2

     bravais-lattice index     =            0
     lattice parameter (alat)  =       1.8897  a.u.
     unit-cell volume          =    4237.1201 (a.u.)^3
     number of atoms/cell      =           12
     number of atomic types    =            2
     number of electrons       =       186.00
     number of Kohn-Sham states=          123
     kinetic-energy cutoff     =      36.7493  Ry
     charge density cutoff     =     367.4932  Ry
     convergence threshold     =      1.0E-06
     mixing beta               =       0.1000
     number of iterations used =           10  plain     mixing
     Exchange-correlation      = BEEF-VDW ( 1  4 27 13 2)
     nstep                     =           50

     celldm(1)=   1.889726  celldm(2)=   0.000000  celldm(3)=   0.000000
     celldm(4)=   0.000000  celldm(5)=   0.000000  celldm(6)=   0.000000

     crystal axes: (cart. coord. in units of alat)
               a(1) = (   5.237860   0.000000   0.000000 )
               a(2) = (   1.747785   4.937654   0.000000 )
               a(3) = (   0.000000   0.000000  24.277255 )

     reciprocal axes: (cart. coord. in units 2 pi/alat)
               b(1) = (  0.190918 -0.067579  0.000000 )
               b(2) = (  0.000000  0.202525  0.000000 )
               b(3) = (  0.000000  0.000000  0.041191 )

     PseudoPot. # 1 for Fe read from file:
     /afs/slac.stanford.edu/u/if/mamunm/psp/gbrv1.5pbe/Fe.UPF
     MD5 check sum: a130daea23fe5165f5d574ae7f82ed95
     Pseudo is Ultrasoft + core correction, Zval = 16.0
     Generated by new atomic code, or converted to UPF format
     Using radial grid of  861 points,  6 beta functions with:
                l(1) =   0
                l(2) =   0
                l(3) =   1
                l(4) =   1
                l(5) =   2
                l(6) =   2
     Q(r) pseudized with  8 coefficients,  rinner =    1.000   1.000   1.000
                                                       1.000   1.000

     PseudoPot. # 2 for Rh read from file:
     /afs/slac.stanford.edu/u/if/mamunm/psp/gbrv1.5pbe/Rh.UPF
     MD5 check sum: 761627e959a2e3a1f56b0b5fe687810e
     Pseudo is Ultrasoft + core correction, Zval = 15.0
     Generated by new atomic code, or converted to UPF format
     Using radial grid of  969 points,  7 beta functions with:
                l(1) =   0
                l(2) =   0
                l(3) =   1
                l(4) =   1
                l(5) =   2
                l(6) =   2
                l(7) =   2
     Q(r) pseudized with  8 coefficients,  rinner =    1.200   1.200   1.200
                                                       1.200   1.200

     vdW kernel table read from file vdW_kernel_table
     MD5 check sum: 095c7af220d748ca6e76c0b4c6cfb241

     atomic species   valence    mass     pseudopotential
        Fe1           16.00    55.84500     Fe( 1.00)
        Rh1           15.00   102.90550     Rh( 1.00)

     Starting magnetic structure
     atomic species   magnetization
        Fe1          0.125
        Rh1          0.133

     No symmetry found

   Cartesian axes

     site n.     atom                  positions (alat units)
         1           Fe1 tau(   1) = (   0.0000000   0.0000000  10.0000000  )
         2           Fe1 tau(   2) = (   3.4928228   2.4688271  10.0000000  )
         3           Rh1 tau(   3) = (   2.6189302   0.0000000  10.0000000  )
         4           Rh1 tau(   4) = (   0.8738925   2.4688271  10.0000000  )
         5           Fe1 tau(   5) = (   5.2378605   3.7022697  12.1386273  )
         6           Fe1 tau(   6) = (   1.7450377   1.2334426  12.1386273  )
         7           Rh1 tau(   7) = (   2.6189302   3.7022697  12.1386273  )
         8           Rh1 tau(   8) = (   4.3639679   1.2334426  12.1386273  )
         9           Fe1 tau(   9) = (   3.4900754   2.4668852  14.2772546  )
        10           Fe1 tau(  10) = (   6.9828982   4.9357123  14.2772546  )
        11           Rh1 tau(  11) = (   6.1090056   2.4668852  14.2772546  )
        12           Rh1 tau(  12) = (   4.3639679   4.9357123  14.2772546  )

     number of k points=    40  Fermi-Dirac smearing, width (Ry)=  0.0110
                       cart. coord. in units 2pi/alat
        k(    1) = (   0.0000000   0.0000000   0.0000000), wk =   0.0277778
        k(    2) = (   0.0000000   0.0337542   0.0000000), wk =   0.0555556
        k(    3) = (   0.0000000   0.0675084   0.0000000), wk =   0.0555556
        k(    4) = (   0.0000000  -0.1012627   0.0000000), wk =   0.0277778
        k(    5) = (   0.0318196  -0.0112632   0.0000000), wk =   0.0555556
        k(    6) = (   0.0318196   0.0224910   0.0000000), wk =   0.0555556
        k(    7) = (   0.0318196   0.0562452   0.0000000), wk =   0.0555556
        k(    8) = (   0.0318196  -0.1125259   0.0000000), wk =   0.0555556
        k(    9) = (   0.0318196  -0.0787716   0.0000000), wk =   0.0555556
        k(   10) = (   0.0318196  -0.0450174   0.0000000), wk =   0.0555556
        k(   11) = (   0.0636392  -0.0225264   0.0000000), wk =   0.0555556
        k(   12) = (   0.0636392   0.0112278   0.0000000), wk =   0.0555556
        k(   13) = (   0.0636392   0.0449820   0.0000000), wk =   0.0555556
        k(   14) = (   0.0636392  -0.1237891   0.0000000), wk =   0.0555556
        k(   15) = (   0.0636392  -0.0900349   0.0000000), wk =   0.0555556
        k(   16) = (   0.0636392  -0.0562806   0.0000000), wk =   0.0555556
        k(   17) = (  -0.0954588   0.0337896   0.0000000), wk =   0.0277778
        k(   18) = (  -0.0954588   0.0675438   0.0000000), wk =   0.0555556
        k(   19) = (  -0.0954588   0.1012981   0.0000000), wk =   0.0555556
        k(   20) = (  -0.0954588  -0.0674730   0.0000000), wk =   0.0277778
        k(   21) = (   0.0000000   0.0000000   0.0000000), wk =   0.0277778
        k(   22) = (   0.0000000   0.0337542   0.0000000), wk =   0.0555556
        k(   23) = (   0.0000000   0.0675084   0.0000000), wk =   0.0555556
        k(   24) = (   0.0000000  -0.1012627   0.0000000), wk =   0.0277778
        k(   25) = (   0.0318196  -0.0112632   0.0000000), wk =   0.0555556
        k(   26) = (   0.0318196   0.0224910   0.0000000), wk =   0.0555556
        k(   27) = (   0.0318196   0.0562452   0.0000000), wk =   0.0555556
        k(   28) = (   0.0318196  -0.1125259   0.0000000), wk =   0.0555556
        k(   29) = (   0.0318196  -0.0787716   0.0000000), wk =   0.0555556
        k(   30) = (   0.0318196  -0.0450174   0.0000000), wk =   0.0555556
        k(   31) = (   0.0636392  -0.0225264   0.0000000), wk =   0.0555556
        k(   32) = (   0.0636392   0.0112278   0.0000000), wk =   0.0555556
        k(   33) = (   0.0636392   0.0449820   0.0000000), wk =   0.0555556
        k(   34) = (   0.0636392  -0.1237891   0.0000000), wk =   0.0555556
        k(   35) = (   0.0636392  -0.0900349   0.0000000), wk =   0.0555556
        k(   36) = (   0.0636392  -0.0562806   0.0000000), wk =   0.0555556
        k(   37) = (  -0.0954588   0.0337896   0.0000000), wk =   0.0277778
        k(   38) = (  -0.0954588   0.0675438   0.0000000), wk =   0.0555556
        k(   39) = (  -0.0954588   0.1012981   0.0000000), wk =   0.0555556
        k(   40) = (  -0.0954588  -0.0674730   0.0000000), wk =   0.0277778

     Largest allocated arrays     est. size (Mb)     dimensions
     Largest temporary arrays     est. size (Mb)     dimensions

     Check: negative/imaginary core charge=   -0.000004    0.000000

     Initial potential from superposition of free atoms
     Check: negative starting charge=(component1):   -0.184916
     Check: negative starting charge=(component2):   -0.141398

     starting charge  176.99937, renormalised to  186.00000

     negative rho (up, down):  1.943E-01 1.486E-01

     *
     * You are using vdW-DF for exchange-correlation in this calculation.
     * Please cite the following three references that made this development
     * possible:
     *
     *   M. Dion, H. Rydberg, E. Schroder, D. C. Langreth, and
     *   B. I. Lundqvist, Phys. Rev. Lett. 92, 246401 (2004).
     *
     *   T. Thonhauser, V. R. Cooper, S. Li, A. Puzder, P. Hyldgaard, and
     *   D. C. Langreth, Phys. Rev. B 76, 125112 (2007).
     *
     *   G. Roman-Perez and J. M. Soler, Phys. Rev. Lett. 103, 096102 (2009).
     *
     *
     * If you are using vdW-DF2, please also cite:
     *
     *   K. Lee, E. D. Murray, L. Kong, B. I. Lundqvist, and
     *   D. C. Langreth, Phys. Rev. B 82, 081101(R) (2010).
     *
     *
     * If you are calculating the stress with vdW-DF, please also cite:
     *
     *   R. Sabatini, E. Kucukbenli, B. Kolb, T. Thonhauser, and
     *   S. de Gironcoli, J. Phys.: Condens. Matter 24, 424209 (2012).
     *

     Carrying out vdW-DF run using the following parameters:

     Nqs =      20    Nr_points =    1024   r_max =   100.000
     q_mesh =
               0.00001000     0.04494208     0.09755937     0.15916263
               0.23128650     0.31572767     0.41458969     0.53033537
               0.66584808     0.82450364     1.01025438     1.22772762
               1.48234092     1.78043706     2.12944203     2.53805004
               3.01644009     3.57652955     4.23227104     5.00000000

     Gradients computed in reciprocal space

     Adding external electric field

     Computed dipole along edir(3) :
        Dipole                0.0000 Ry au,          0.0000 Debye
        Dipole field          0.0000 Ry au

        Potential amp.       -0.0000 Ry
        Total length         44.7304 bohr

[...]

     Starting wfc are  150 randomized atomic wfcs

     Self-consistent Calculation

     iteration #  1     ecut=    36.75 Ry     beta=0.10
     Davidson diagonalization with overlap
     ethr =  1.00E-02,  avg # of iterations =  8.3

[...]

     Magnetic moment per site:
     atom:    1    charge:    7.3033    magn:    0.8914    constr:    0.0000
     atom:    2    charge:    7.3033    magn:    0.8914    constr:    0.0000
     atom:    3    charge:    2.7684    magn:    0.3568    constr:    0.0000
     atom:    4    charge:    2.7684    magn:    0.3568    constr:    0.0000
     atom:    5    charge:    7.2961    magn:    0.9033    constr:    0.0000
     atom:    6    charge:    7.2961    magn:    0.9033    constr:    0.0000
[...]
        k(    7) = (   0.0318196   0.0562452   0.0000000), wk =   0.0555556
        k(    8) = (   0.0318196  -0.1125259   0.0000000), wk =   0.0555556
        k(    9) = (   0.0318196  -0.0787716   0.0000000), wk =   0.0555556
        k(   10) = (   0.0318196  -0.0450174   0.0000000), wk =   0.0555556
        k(   11) = (   0.0636392  -0.0225264   0.0000000), wk =   0.0555556
        k(   12) = (   0.0636392   0.0112278   0.0000000), wk =   0.0555556
        k(   13) = (   0.0636392   0.0449820   0.0000000), wk =   0.0555556
        k(   14) = (   0.0636392  -0.1237891   0.0000000), wk =   0.0555556
        k(   15) = (   0.0636392  -0.0900349   0.0000000), wk =   0.0555556
        k(   16) = (   0.0636392  -0.0562806   0.0000000), wk =   0.0555556
        k(   17) = (  -0.0954588   0.0337896   0.0000000), wk =   0.0277778
        k(   18) = (  -0.0954588   0.0675438   0.0000000), wk =   0.0555556
        k(   19) = (  -0.0954588   0.1012981   0.0000000), wk =   0.0555556
        k(   20) = (  -0.0954588  -0.0674730   0.0000000), wk =   0.0277778
        k(   21) = (   0.0000000   0.0000000   0.0000000), wk =   0.0277778
        k(   22) = (   0.0000000   0.0337542   0.0000000), wk =   0.0555556
        k(   23) = (   0.0000000   0.0675084   0.0000000), wk =   0.0555556
        k(   24) = (   0.0000000  -0.1012627   0.0000000), wk =   0.0277778
        k(   25) = (   0.0318196  -0.0112632   0.0000000), wk =   0.0555556
        k(   26) = (   0.0318196   0.0224910   0.0000000), wk =   0.0555556
        k(   27) = (   0.0318196   0.0562452   0.0000000), wk =   0.0555556
        k(   28) = (   0.0318196  -0.1125259   0.0000000), wk =   0.0555556
        k(   29) = (   0.0318196  -0.0787716   0.0000000), wk =   0.0555556
        k(   30) = (   0.0318196  -0.0450174   0.0000000), wk =   0.0555556
        k(   31) = (   0.0636392  -0.0225264   0.0000000), wk =   0.0555556
        k(   32) = (   0.0636392   0.0112278   0.0000000), wk =   0.0555556
        k(   33) = (   0.0636392   0.0449820   0.0000000), wk =   0.0555556
        k(   34) = (   0.0636392  -0.1237891   0.0000000), wk =   0.0555556
        k(   35) = (   0.0636392  -0.0900349   0.0000000), wk =   0.0555556
        k(   36) = (   0.0636392  -0.0562806   0.0000000), wk =   0.0555556
        k(   37) = (  -0.0954588   0.0337896   0.0000000), wk =   0.0277778
        k(   38) = (  -0.0954588   0.0675438   0.0000000), wk =   0.0555556
        k(   39) = (  -0.0954588   0.1012981   0.0000000), wk =   0.0555556
        k(   40) = (  -0.0954588  -0.0674730   0.0000000), wk =   0.0277778

     Largest allocated arrays     est. size (Mb)     dimensions
     Largest temporary arrays     est. size (Mb)     dimensions

     Check: negative/imaginary core charge=   -0.000004    0.000000

     Initial potential from superposition of free atoms
     Check: negative starting charge=(component1):   -0.183398
     Check: negative starting charge=(component2):   -0.140238

     starting charge  176.99937, renormalised to  186.00000

[...]

     *
     * You are using vdW-DF for exchange-correlation in this calculation.
     * Please cite the following three references that made this development
     * possible:
     *
     *   M. Dion, H. Rydberg, E. Schroder, D. C. Langreth, and
     *   B. I. Lundqvist, Phys. Rev. Lett. 92, 246401 (2004).
     *
     *   T. Thonhauser, V. R. Cooper, S. Li, A. Puzder, P. Hyldgaard, and
     *   D. C. Langreth, Phys. Rev. B 76, 125112 (2007).
     *
     *   G. Roman-Perez and J. M. Soler, Phys. Rev. Lett. 103, 096102 (2009).
     *
     *
     * If you are using vdW-DF2, please also cite:
     *
     *   K. Lee, E. D. Murray, L. Kong, B. I. Lundqvist, and
     *   D. C. Langreth, Phys. Rev. B 82, 081101(R) (2010).
     *
     *
     * If you are calculating the stress with vdW-DF, please also cite:
     *
     *   R. Sabatini, E. Kucukbenli, B. Kolb, T. Thonhauser, and
     *   S. de Gironcoli, J. Phys.: Condens. Matter 24, 424209 (2012).
     *

     Carrying out vdW-DF run using the following parameters:

     Nqs =      20    Nr_points =    1024   r_max =   100.000
     q_mesh =
               0.00001000     0.04494208     0.09755937     0.15916263
               0.23128650     0.31572767     0.41458969     0.53033537
               0.66584808     0.82450364     1.01025438     1.22772762
               1.48234092     1.78043706     2.12944203     2.53805004
               3.01644009     3.57652955     4.23227104     5.00000000

     Gradients computed in reciprocal space

[...]

     Starting wfc are  150 randomized atomic wfcs

     Self-consistent Calculation

[...]

     iteration # 12     ecut=    36.75 Ry     beta=0.10
     Davidson diagonalization with overlap
     c_bands:  1 eigenvalues not converged
     ethr =  1.21E-05,  avg # of iterations =  2.9

[...]

     total energy              =   -2541.25841441 Ry
     Harris-Foulkes estimate   =   -2541.25841156 Ry
     estimated scf accuracy    <       0.00000167 Ry

[...]

     iteration # 25     ecut=    36.75 Ry     beta=0.10
     Davidson diagonalization with overlap
     ethr =  8.99E-10,  avg # of iterations =  2.0

[...]

     negative rho (up, down):  1.540E-01 1.834E-01

[...]

     Adding external electric field

     Computed dipole along edir(3) :
        Dipole                0.0148 Ry au,          0.0375 Debye
        Dipole field          0.0000 Ry au

        Potential amp.       -0.0039 Ry
        Total length         44.7304 bohr

     Magnetic moment per site:
     atom:    1    charge:    7.0914    magn:    1.5428    constr:    0.0000
     atom:    2    charge:    7.0915    magn:    1.5428    constr:    0.0000
     atom:    3    charge:    2.6966    magn:    0.1507    constr:    0.0000
     atom:    4    charge:    2.6966    magn:    0.1507    constr:    0.0000
     atom:    5    charge:    7.0973    magn:    1.5650    constr:    0.0000
     atom:    6    charge:    7.0973    magn:    1.5649    constr:    0.0000
     atom:    7    charge:    2.7084    magn:    0.1713    constr:    0.0000
     atom:    8    charge:    2.7084    magn:    0.1713    constr:    0.0000
     atom:    9    charge:    7.0932    magn:    1.5434    constr:    0.0000
     atom:   10    charge:    7.0933    magn:    1.5434    constr:    0.0000
     atom:   11    charge:    2.7035    magn:    0.1503    constr:    0.0000
     atom:   12    charge:    2.7035    magn:    0.1503    constr:    0.0000

     End of self-consistent calculation

 ------ SPIN UP ------------

[...]

 ------ SPIN DOWN ----------

[...]

          k = 0.0636-0.0563 0.0000 ( 15977 PWs)   bands (ev):

[...]

          k =-0.0955-0.0675 0.0000 ( 15900 PWs)   bands (ev):

   -84.6140 -84.6117 -84.4996 -84.4994 -84.4973 -84.4971 -50.7360 -50.7255
   -50.7215 -50.7011 -50.7003 -50.6979 -50.6408 -50.6375 -50.6319 -50.6289
   -50.5975 -50.5957 -50.5946 -50.5933 -50.5781 -50.5708 -50.5439 -50.5369
   -44.9614 -44.9257 -44.9134 -44.9031 -44.8891 -44.8477 -44.6267 -44.5857
   -44.5752 -44.5628 -44.5437 -44.5331 -44.5143 -44.4768 -44.4686 -44.4503
   -44.4095 -44.4003  -4.0760  -3.8302  -2.9169  -2.9091  -2.7948  -2.7158
    -2.4807  -2.2781  -2.2630  -2.1526  -2.1441  -1.7020  -1.5974  -1.5946
    -1.4898  -1.4601  -1.0884  -0.9861  -0.9383  -0.8814  -0.8664  -0.8578
    -0.7366  -0.5978  -0.5846  -0.4469  -0.2701  -0.2370  -0.1743  -0.0083
     0.0805   0.1980   0.2054   0.3474   0.4265   0.5274   0.5463   0.6611
     0.7245   0.8113   0.9032   1.0361   1.1885   1.2012   1.2505   1.3017
     1.3308   1.3315   1.4430   1.4604   1.5284   1.6495   1.6601   1.7643
     1.7712   1.7993   1.8559   2.2409   2.2701   2.3760   2.3937   2.4206
     2.5776   2.6460   3.1074   3.1082   3.8162   3.9208   4.0972   4.1265
     5.6031   5.8005   5.9141   6.0522   7.2242   7.2409   7.7737   7.7844
     7.8887   7.9100   8.0336

     the Fermi energy is     1.1011 ev

!    total energy              =   -2541.25842458 Ry
     Harris-Foulkes estimate   =   -2541.25841485 Ry
     estimated scf accuracy    <       0.00000076 Ry

     The total energy is the sum of the following terms:

     one-electron contribution =  -21077.08735333 Ry
     hartree contribution      =   10555.84925655 Ry
     xc contribution           =    -368.09027809 Ry
     ewald contribution        =    8348.13533921 Ry
     electric field correction =       0.00000065 Ry
     smearing contrib. (-TS)   =      -0.06538956 Ry

     total magnetization       =    25.14 Bohr mag/cell
     absolute magnetization    =    26.12 Bohr mag/cell

     convergence has been achieved in  25 iterations

 BEEF-vdW xc energy contributions
           1 :   -321.471800756563
           2 :    292.756913287537
           3 :   -244.219945341972
           4 :    189.412700460672
           5 :   -140.790989070651
           6 :    105.426410943512
           7 :   -83.9075293470003
           8 :    72.1675012760518
           9 :   -64.6891504854547
          10 :    57.2797615572812
          11 :   -48.3295856516582
          12 :    38.4605078849773
          13 :   -29.2846185194661
          14 :    22.1632480379372
          15 :   -17.5526844743948
          16 :    15.0000745706486
          17 :   -13.5493026658192
          18 :    12.2403982212776
          19 :   -10.4961829636046
          20 :    8.27168834366114
          21 :   -5.94816521592458
          22 :    4.03533193455110
          23 :   -2.85078421457132
          24 :    2.34287851308477
          25 :   -2.15449688957563
          26 :    1.86623311300889
          27 :   -1.25884047178675
          28 :   0.416119553756005
          29 :   0.380359038991514
          30 :  -0.876190360855560
          31 :   -29.8781829251575
          32 :   -21.7209063709094

     Forces acting on atoms (Ry/au):

     negative rho (up, down):  1.540E-01 1.834E-01
     atom    1 type  1   force =    -0.00003158   -0.00002135   -0.00555392
     atom    2 type  1   force =    -0.00001846   -0.00001385   -0.00555096
     atom    3 type  2   force =    -0.00002131   -0.00001248    0.02184931
     atom    4 type  2   force =    -0.00001880   -0.00001587    0.02184954
     atom    5 type  1   force =     0.00000343    0.00000171   -0.01654129
     atom    6 type  1   force =    -0.00000973   -0.00000614   -0.01653744
     atom    7 type  2   force =    -0.00001676   -0.00000941   -0.00221835
     atom    8 type  2   force =    -0.00001444   -0.00001274   -0.00221803
     atom    9 type  1   force =     0.00004174    0.00003009    0.00053483
     atom   10 type  1   force =     0.00002610    0.00001772    0.00051609
     atom   11 type  2   force =     0.00002811    0.00002305    0.00193474
     atom   12 type  2   force =     0.00003170    0.00001925    0.00193547

     Total force =     0.039767     Total SCF correction =     0.004694
     SCF correction compared to forces is large: reduce conv_thr to get better values

     entering subroutine stress ...

     negative rho (up, down):  1.540E-01 1.834E-01
          total   stress  (Ry/bohr**3)                   (kbar)     P=  -26.34
  -0.00020004   0.00003290   0.00000027        -29.43      4.84      0.04
   0.00003290  -0.00022333   0.00000019          4.84    -32.85      0.03
   0.00000027   0.00000019  -0.00011387          0.04      0.03    -16.75

 !ASE

     Writing output data file calc.save

     General routines

     Parallel routines

   This run was terminated on:  16:26:11  24Dec2018

   JOB DONE.
Job  /afs/slac/g/suncat/bin/suncat-tsmpirun -x LD_LIBRARY_PATH -wdir /scratch/qe108932_XkVEH pw.x -in pw.inp

TID   HOST_NAME   COMMAND_LINE            STATUS            TERMINATION_TIME
00000 suncat0016 pw.x -in pw.inp   Done                     12/24/2018 16:26:11
00001 suncat0016 pw.x -in pw.inp   Done                     12/24/2018 16:26:11
00002 suncat0016 pw.x -in pw.inp   Done                     12/24/2018 16:26:11
00003 suncat0016 pw.x -in pw.inp   Done                     12/24/2018 16:26:11
00004 suncat0016 pw.x -in pw.inp   Done                     12/24/2018 16:26:11
00005 suncat0016 pw.x -in pw.inp   Done                     12/24/2018 16:26:11
00006 suncat0016 pw.x -in pw.inp   Done                     12/24/2018 16:26:11
00007 suncat0016 pw.x -in pw.inp   Done                     12/24/2018 16:26:11
00008 suncat0015 pw.x -in pw.inp   Done                     12/24/2018 16:26:11
00009 suncat0015 pw.x -in pw.inp   Done                     12/24/2018 16:26:11
00010 suncat0015 pw.x -in pw.inp   Done                     12/24/2018 16:26:11
00011 suncat0015 pw.x -in pw.inp   Done                     12/24/2018 16:26:11
00012 suncat0015 pw.x -in pw.inp   Done                     12/24/2018 16:26:11
00013 suncat0015 pw.x -in pw.inp   Done                     12/24/2018 16:26:11
00014 suncat0015 pw.x -in pw.inp   Done                     12/24/2018 16:26:11
00015 suncat0015 pw.x -in pw.inp   Done                     12/24/2018 16:26:11
00016 suncat0188 pw.x -in pw.inp   Done                     12/24/2018 16:26:11
00017 suncat0188 pw.x -in pw.inp   Done                     12/24/2018 16:26:11
00018 suncat0188 pw.x -in pw.inp   Done                     12/24/2018 16:26:11
00019 suncat0188 pw.x -in pw.inp   Done                     12/24/2018 16:26:11
00020 suncat0188 pw.x -in pw.inp   Done                     12/24/2018 16:26:11
00021 suncat0188 pw.x -in pw.inp   Done                     12/24/2018 16:26:11
00022 suncat0188 pw.x -in pw.inp   Done                     12/24/2018 16:26:11
00023 suncat0188 pw.x -in pw.inp   Done                     12/24/2018 16:26:11
00024 suncat0138 pw.x -in pw.inp   Done                     12/24/2018 16:26:11
00025 suncat0138 pw.x -in pw.inp   Done                     12/24/2018 16:26:11
00026 suncat0138 pw.x -in pw.inp   Done                     12/24/2018 16:26:11
00027 suncat0138 pw.x -in pw.inp   Done                     12/24/2018 16:26:11
00028 suncat0138 pw.x -in pw.inp   Done                     12/24/2018 16:26:11
00029 suncat0138 pw.x -in pw.inp   Done                     12/24/2018 16:26:11
00030 suncat0138 pw.x -in pw.inp   Done                     12/24/2018 16:26:11
00031 suncat0138 pw.x -in pw.inp   Done                     12/24/2018 16:26:11
00032 suncat0251 pw.x -in pw.inp   Done                     12/24/2018 16:26:11
00033 suncat0251 pw.x -in pw.inp   Done                     12/24/2018 16:26:11
00034 suncat0251 pw.x -in pw.inp   Done                     12/24/2018 16:26:11
00035 suncat0251 pw.x -in pw.inp   Done                     12/24/2018 16:26:11
00036 suncat0251 pw.x -in pw.inp   Done                     12/24/2018 16:26:11
00037 suncat0251 pw.x -in pw.inp   Done                     12/24/2018 16:26:11
00038 suncat0251 pw.x -in pw.inp   Done                     12/24/2018 16:26:11
00039 suncat0251 pw.x -in pw.inp   Done                     12/24/2018 16:26:11
00040 suncat0250 pw.x -in pw.inp   Done                     12/24/2018 16:26:11
00041 suncat0250 pw.x -in pw.inp   Done                     12/24/2018 16:26:11
00042 suncat0250 pw.x -in pw.inp   Done                     12/24/2018 16:26:11
00043 suncat0250 pw.x -in pw.inp   Done                     12/24/2018 16:26:11
00044 suncat0250 pw.x -in pw.inp   Done                     12/24/2018 16:26:11
00045 suncat0250 pw.x -in pw.inp   Done                     12/24/2018 16:26:11
00046 suncat0250 pw.x -in pw.inp   Done                     12/24/2018 16:26:11
00047 suncat0250 pw.x -in pw.inp   Done                     12/24/2018 16:26:11
00048 suncat0249 pw.x -in pw.inp   Done                     12/24/2018 16:26:11
00049 suncat0249 pw.x -in pw.inp   Done                     12/24/2018 16:26:11
00050 suncat0249 pw.x -in pw.inp   Done                     12/24/2018 16:26:11
00051 suncat0249 pw.x -in pw.inp   Done                     12/24/2018 16:26:11
00052 suncat0249 pw.x -in pw.inp   Done                     12/24/2018 16:26:11
00053 suncat0249 pw.x -in pw.inp   Done                     12/24/2018 16:26:11
00054 suncat0249 pw.x -in pw.inp   Done                     12/24/2018 16:26:11
00055 suncat0249 pw.x -in pw.inp   Done                     12/24/2018 16:26:11
00056 suncat0231 pw.x -in pw.inp   Done                     12/24/2018 16:26:11
00057 suncat0231 pw.x -in pw.inp   Done                     12/24/2018 16:26:11
00058 suncat0231 pw.x -in pw.inp   Done                     12/24/2018 16:26:11
00059 suncat0231 pw.x -in pw.inp   Done                     12/24/2018 16:26:11
00060 suncat0231 pw.x -in pw.inp   Done                     12/24/2018 16:26:11
00061 suncat0231 pw.x -in pw.inp   Done                     12/24/2018 16:26:11
00062 suncat0231 pw.x -in pw.inp   Done                     12/24/2018 16:26:11
00063 suncat0231 pw.x -in pw.inp   Done                     12/24/2018 16:26:11