     Program PWSCF v.5.1rc2 (svn rev. 11289) starts on 19Dec2018 at  4: 8:33

     Current dimensions of program PWSCF are:
     Max number of different atomic species (ntypx) = 10
     Max number of k-points (npk) =  40000
     Max angular momentum in pseudopotentials (lmaxx) =  3
     Presently stress not available with electric field

     IMPORTANT: XC functional enforced from input :
     Exchange-correlation      = BEEF-VDW ( 1  4 27 13 2)
     Any further DFT definition will be discarded
     Please, verify this is what you really want

     Subspace diagonalization in iterative solution of the eigenvalue problem:
     a serial algorithm will be used

     Found symmetry operation: I + ( -0.5000  0.0000  0.0000)
     This is a supercell, fractional translations are disabled

     bravais-lattice index     =            0
     lattice parameter (alat)  =       1.8897  a.u.
     unit-cell volume          =    4264.6028 (a.u.)^3
     number of atoms/cell      =           12
     number of atomic types    =            2
     number of electrons       =       186.00
     number of Kohn-Sham states=          123
     kinetic-energy cutoff     =      36.7493  Ry
     charge density cutoff     =     367.4932  Ry
     convergence threshold     =      1.0E-06
     mixing beta               =       0.1000
     number of iterations used =           10  plain     mixing
     Exchange-correlation      = BEEF-VDW ( 1  4 27 13 2)
     nstep                     =           50

     celldm(1)=   1.889726  celldm(2)=   0.000000  celldm(3)=   0.000000
     celldm(4)=   0.000000  celldm(5)=   0.000000  celldm(6)=   0.000000

     crystal axes: (cart. coord. in units of alat)
               a(1) = (   5.461973   0.000000   0.000000 )
               a(2) = (  -2.730986   4.730222   0.000000 )
               a(3) = (   0.000000   0.000000  24.459689 )

     reciprocal axes: (cart. coord. in units 2 pi/alat)
               b(1) = (  0.183084  0.105703  0.000000 )
               b(2) = (  0.000000  0.211407  0.000000 )
               b(3) = (  0.000000  0.000000  0.040884 )

     PseudoPot. # 1 for Ru read from file:
     /afs/slac.stanford.edu/u/if/mamunm/psp/gbrv1.5pbe/Ru.UPF
     MD5 check sum: 7158a806dd851261a58e6920c40ebe78
     Pseudo is Ultrasoft + core correction, Zval = 16.0
     Generated by new atomic code, or converted to UPF format
     Using radial grid of  967 points,  6 beta functions with:
                l(1) =   0
                l(2) =   0
                l(3) =   1
                l(4) =   1
                l(5) =   2
                l(6) =   2
     Q(r) pseudized with  8 coefficients,  rinner =    1.300   1.300   1.300
                                                       1.300   1.300

     PseudoPot. # 2 for Re read from file:
     /afs/slac.stanford.edu/u/if/mamunm/psp/gbrv1.5pbe/Re.UPF
     MD5 check sum: 85f993410f3e006da9d71c142b4ad953
     Pseudo is Ultrasoft + core correction, Zval = 15.0
     Generated by new atomic code, or converted to UPF format
     Using radial grid of  981 points,  8 beta functions with:
                l(1) =   0
                l(2) =   0
                l(3) =   1
                l(4) =   1
                l(5) =   2
                l(6) =   2
                l(7) =   3
                l(8) =   3
     Q(r) pseudized with  8 coefficients,  rinner =    1.150   1.150   1.150
                                                       1.150   1.150   1.150
                                                       1.150

     vdW kernel table read from file vdW_kernel_table
     MD5 check sum: 095c7af220d748ca6e76c0b4c6cfb241

     atomic species   valence    mass     pseudopotential
        Ru1           16.00   101.07000     Ru( 1.00)
        Re1           15.00   186.20700     Re( 1.00)

     No symmetry found

   Cartesian axes

     site n.     atom                  positions (alat units)
         1           Ru1 tau(   1) = (   0.0000000   0.0000000  10.0000000  )
         2           Ru1 tau(   2) = (   2.7309863   0.0000000  10.0000000  )
         3           Re1 tau(   3) = (   1.3654931   2.3651111  10.0000000  )
         4           Re1 tau(   4) = (   4.0964794   2.3651111  10.0000000  )
         5           Ru1 tau(   5) = (   2.7309863   1.5767306  12.2298445  )
         6           Ru1 tau(   6) = (  -0.0000000   1.5767306  12.2298445  )
         7           Re1 tau(   7) = (  -1.3654931   3.9418417  12.2298445  )
         8           Re1 tau(   8) = (   1.3654931   3.9418417  12.2298445  )
         9           Ru1 tau(   9) = (  -0.0000000   3.1534611  14.4596891  )
        10           Ru1 tau(  10) = (   2.7309863   3.1534611  14.4596891  )
        11           Re1 tau(  11) = (   4.0964794   0.7883500  14.4596891  )
        12           Re1 tau(  12) = (   1.3654931   0.7883500  14.4596891  )

     number of k points=    20  Fermi-Dirac smearing, width (Ry)=  0.0110
                       cart. coord. in units 2pi/alat
        k(    1) = (   0.0000000   0.0000000   0.0000000), wk =   0.0555556
        k(    2) = (   0.0000000   0.0352344   0.0000000), wk =   0.1111111
        k(    3) = (   0.0000000   0.0704689   0.0000000), wk =   0.1111111
        k(    4) = (   0.0000000  -0.1057033   0.0000000), wk =   0.0555556
        k(    5) = (   0.0305140   0.0176172   0.0000000), wk =   0.1111111
        k(    6) = (   0.0305140   0.0528516   0.0000000), wk =   0.1111111
        k(    7) = (   0.0305140   0.0880861   0.0000000), wk =   0.1111111
        k(    8) = (   0.0305140  -0.0880861   0.0000000), wk =   0.1111111
        k(    9) = (   0.0305140  -0.0528516   0.0000000), wk =   0.1111111
        k(   10) = (   0.0305140  -0.0176172   0.0000000), wk =   0.1111111
        k(   11) = (   0.0610280   0.0352344   0.0000000), wk =   0.1111111
        k(   12) = (   0.0610280   0.0704689   0.0000000), wk =   0.1111111
        k(   13) = (   0.0610280   0.1057033   0.0000000), wk =   0.1111111
        k(   14) = (   0.0610280  -0.0704689   0.0000000), wk =   0.1111111
        k(   15) = (   0.0610280  -0.0352344   0.0000000), wk =   0.1111111
        k(   16) = (   0.0610280   0.0000000   0.0000000), wk =   0.1111111
        k(   17) = (  -0.0915420  -0.0528516   0.0000000), wk =   0.0555556
        k(   18) = (  -0.0915420  -0.0176172   0.0000000), wk =   0.1111111
        k(   19) = (  -0.0915420   0.0176172   0.0000000), wk =   0.1111111
        k(   20) = (  -0.0915420  -0.1585549   0.0000000), wk =   0.0555556

     Largest allocated arrays     est. size (Mb)     dimensions
     Largest temporary arrays     est. size (Mb)     dimensions

     Initial potential from superposition of free atoms
     Check: negative starting charge=   -1.211941

     starting charge  176.99964, renormalised to  186.00000

     negative rho (up, down):  1.274E+00 0.000E+00

     *
     * You are using vdW-DF for exchange-correlation in this calculation.
     * Please cite the following three references that made this development
     * possible:
     *
     *   M. Dion, H. Rydberg, E. Schroder, D. C. Langreth, and
     *   B. I. Lundqvist, Phys. Rev. Lett. 92, 246401 (2004).
     *
     *   T. Thonhauser, V. R. Cooper, S. Li, A. Puzder, P. Hyldgaard, and
     *   D. C. Langreth, Phys. Rev. B 76, 125112 (2007).
     *
     *   G. Roman-Perez and J. M. Soler, Phys. Rev. Lett. 103, 096102 (2009).
     *
     *
     * If you are using vdW-DF2, please also cite:
     *
     *   K. Lee, E. D. Murray, L. Kong, B. I. Lundqvist, and
     *   D. C. Langreth, Phys. Rev. B 82, 081101(R) (2010).
     *
     *
     * If you are calculating the stress with vdW-DF, please also cite:
     *
     *   R. Sabatini, E. Kucukbenli, B. Kolb, T. Thonhauser, and
     *   S. de Gironcoli, J. Phys.: Condens. Matter 24, 424209 (2012).
     *

     Carrying out vdW-DF run using the following parameters:

     Nqs =      20    Nr_points =    1024   r_max =   100.000
     q_mesh =
               0.00001000     0.04494208     0.09755937     0.15916263
               0.23128650     0.31572767     0.41458969     0.53033537
               0.66584808     0.82450364     1.01025438     1.22772762
               1.48234092     1.78043706     2.12944203     2.53805004
               3.01644009     3.57652955     4.23227104     5.00000000

     Gradients computed in reciprocal space

     Adding external electric field

     Computed dipole along edir(3) :
        Dipole                0.0000 Ry au,          0.0000 Debye
        Dipole field          0.0000 Ry au

        Potential amp.       -0.0000 Ry
        Total length         45.0666 bohr

     Starting wfc are  156 randomized atomic wfcs

     Self-consistent Calculation

     iteration #  1     ecut=    36.75 Ry     beta=0.10
     Davidson diagonalization with overlap
     ethr =  1.00E-02,  avg # of iterations =  7.7

[...]

     total energy              =   -2324.62525188 Ry
     Harris-Foulkes estimate   =   -2325.96606497 Ry
     estimated scf accuracy    <       8.59280604 Ry

[...]

     End of self-consistent calculation

          k = 0.0000 0.0000 0.0000 ( 15989 PWs)   bands (ev):

   -78.2815 -78.2404 -78.0032 -78.0024 -77.9627 -77.9619 -70.6322 -70.5865
   -70.1598 -70.1590 -70.1141 -70.1135 -40.8797 -40.8364 -40.7520 -40.7373
   -40.6541 -40.4552 -40.4354 -40.3861 -40.3570 -40.3335 -40.2721 -40.2534
   -40.1595 -40.1212 -40.1201 -40.0644 -39.9473 -39.9303 -39.8773 -39.8647
   -39.8595 -39.8294 -39.7442 -39.7385 -39.7259 -39.7053 -39.6864 -39.6024
   -39.5898 -39.5869 -39.5190 -39.4699 -39.4473 -39.4252 -39.2484 -39.2440
    -5.5759  -3.8313  -3.6461  -3.3780  -3.3487  -3.2350  -3.0890  -2.8413
    -2.8010  -2.5462  -2.5285  -2.5174  -2.2717  -2.1636  -2.1042  -0.9387
    -0.8980  -0.8358  -0.1495  -0.1482  -0.0963   0.1400   0.2303   0.3339
     0.4036   0.6790   0.7158   0.8396   0.8893   1.0398   1.0770   1.1281
     1.2122   1.3275   1.3784   2.0095   2.4155   2.4212   2.4231   2.5960
     2.6931   2.8576   2.9427   2.9879   3.2617   3.5960   3.6618   3.9995
     4.0095   4.1246   4.3654   4.4434   4.5381   4.5989   4.6680   4.7418
     4.7423   4.9454   4.9777   4.9827   5.1196   5.3590   5.6907   5.7549
     5.8532   6.0883   6.2610   6.7500   6.8655   7.0220   7.0803   7.1290
     7.2192   7.4222   7.8275

[...]

          k =-0.0915-0.0529 0.0000 ( 16072 PWs)   bands (ev):

[...]

     the Fermi energy is     2.5656 ev

!    total energy              =   -2323.52494557 Ry
     Harris-Foulkes estimate   =   -2323.52494933 Ry
     estimated scf accuracy    <       0.00000089 Ry

     The total energy is the sum of the following terms:

     one-electron contribution =  -20001.67352140 Ry
     hartree contribution      =    9992.09105795 Ry
     xc contribution           =    -485.34530847 Ry
     ewald contribution        =    8171.48989100 Ry
     electric field correction =       0.00000000 Ry
     smearing contrib. (-TS)   =      -0.08706464 Ry

     convergence has been achieved in  16 iterations

 BEEF-vdW xc energy contributions
           1 :   -428.125013050032
           2 :    396.497121116562
           3 :   -340.372322991457
           4 :    271.488856076506
           5 :   -202.461846450707
[...]

     Program PWSCF v.5.1rc2 (svn rev. 11289) starts on 19Dec2018 at  4:13:21

[...]

     Total force =     0.061735     Total SCF correction =     0.007374
     SCF correction compared to forces is large: reduce conv_thr to get better values

[...]

     Program PWSCF v.5.1rc2 (svn rev. 11289) starts on 19Dec2018 at  4:23:45

     Current dimensions of program PWSCF are:
     Max number of different atomic species (ntypx) = 10
     Max number of k-points (npk) =  40000
     Max angular momentum in pseudopotentials (lmaxx) =  3
     Presently stress not available with electric field

     IMPORTANT: XC functional enforced from input :
     Exchange-correlation      = BEEF-VDW ( 1  4 27 13 2)
     Any further DFT definition will be discarded
     Please, verify this is what you really want

     Subspace diagonalization in iterative solution of the eigenvalue problem:
     a serial algorithm will be used

     Found symmetry operation: I + ( -0.5000  0.0000  0.0000)
     This is a supercell, fractional translations are disabled

     bravais-lattice index     =            0
     lattice parameter (alat)  =       1.8897  a.u.
     unit-cell volume          =    4264.6028 (a.u.)^3
     number of atoms/cell      =           12
     number of atomic types    =            2
     number of electrons       =       186.00
     number of Kohn-Sham states=          123
     kinetic-energy cutoff     =      36.7493  Ry
     charge density cutoff     =     367.4932  Ry
     convergence threshold     =      1.0E-06
     mixing beta               =       0.1000
     number of iterations used =           10  plain     mixing
     Exchange-correlation      = BEEF-VDW ( 1  4 27 13 2)
     nstep                     =           50

     celldm(1)=   1.889726  celldm(2)=   0.000000  celldm(3)=   0.000000
     celldm(4)=   0.000000  celldm(5)=   0.000000  celldm(6)=   0.000000

     crystal axes: (cart. coord. in units of alat)
               a(1) = (   5.461973   0.000000   0.000000 )
               a(2) = (  -2.730986   4.730222   0.000000 )
               a(3) = (   0.000000   0.000000  24.459689 )

     reciprocal axes: (cart. coord. in units 2 pi/alat)
               b(1) = (  0.183084  0.105703  0.000000 )
               b(2) = (  0.000000  0.211407  0.000000 )
               b(3) = (  0.000000  0.000000  0.040884 )

     PseudoPot. # 1 for Ru read from file:
     /afs/slac.stanford.edu/u/if/mamunm/psp/gbrv1.5pbe/Ru.UPF
     MD5 check sum: 7158a806dd851261a58e6920c40ebe78
     Pseudo is Ultrasoft + core correction, Zval = 16.0
     Generated by new atomic code, or converted to UPF format
     Using radial grid of  967 points,  6 beta functions with:
                l(1) =   0
                l(2) =   0
                l(3) =   1
                l(4) =   1
                l(5) =   2
                l(6) =   2
     Q(r) pseudized with  8 coefficients,  rinner =    1.300   1.300   1.300
                                                       1.300   1.300

     PseudoPot. # 2 for Re read from file:
     /afs/slac.stanford.edu/u/if/mamunm/psp/gbrv1.5pbe/Re.UPF
     MD5 check sum: 85f993410f3e006da9d71c142b4ad953
     Pseudo is Ultrasoft + core correction, Zval = 15.0
     Generated by new atomic code, or converted to UPF format
     Using radial grid of  981 points,  8 beta functions with:
                l(1) =   0
                l(2) =   0
                l(3) =   1
                l(4) =   1
                l(5) =   2
                l(6) =   2
                l(7) =   3
                l(8) =   3
     Q(r) pseudized with  8 coefficients,  rinner =    1.150   1.150   1.150
                                                       1.150   1.150   1.150
                                                       1.150

     vdW kernel table read from file vdW_kernel_table
     MD5 check sum: 095c7af220d748ca6e76c0b4c6cfb241

     atomic species   valence    mass     pseudopotential
        Ru1           16.00   101.07000     Ru( 1.00)
        Re1           15.00   186.20700     Re( 1.00)

     No symmetry found

   Cartesian axes

     site n.     atom                  positions (alat units)
         1           Ru1 tau(   1) = (   0.0000000   0.0000000  10.0000000  )
         2           Ru1 tau(   2) = (   2.7309863   0.0000000  10.0000000  )
         3           Re1 tau(   3) = (   1.3654931   2.3651111  10.0000000  )
         4           Re1 tau(   4) = (   4.0964794   2.3651111  10.0000000  )
         5           Ru1 tau(   5) = (   2.7309863   1.5767306  12.2298445  )
         6           Ru1 tau(   6) = (  -0.0000000   1.5767306  12.2298445  )
         7           Re1 tau(   7) = (  -1.3654931   3.9418417  12.2298445  )
         8           Re1 tau(   8) = (   1.3654931   3.9418417  12.2298445  )
         9           Ru1 tau(   9) = (  -0.0000047   3.1721029  14.3849050  )
        10           Ru1 tau(  10) = (   2.7309851   3.1721021  14.3849093  )
        11           Re1 tau(  11) = (   4.0964783   0.7854166  14.3349865  )
        12           Re1 tau(  12) = (   1.3654957   0.7854208  14.3349877  )

     number of k points=    20  Fermi-Dirac smearing, width (Ry)=  0.0110
                       cart. coord. in units 2pi/alat
        k(    1) = (   0.0000000   0.0000000   0.0000000), wk =   0.0555556
        k(    2) = (   0.0000000   0.0352344   0.0000000), wk =   0.1111111
        k(    3) = (   0.0000000   0.0704689   0.0000000), wk =   0.1111111
        k(    4) = (   0.0000000  -0.1057033   0.0000000), wk =   0.0555556
        k(    5) = (   0.0305140   0.0176172   0.0000000), wk =   0.1111111
        k(    6) = (   0.0305140   0.0528516   0.0000000), wk =   0.1111111
        k(    7) = (   0.0305140   0.0880861   0.0000000), wk =   0.1111111
        k(    8) = (   0.0305140  -0.0880861   0.0000000), wk =   0.1111111
        k(    9) = (   0.0305140  -0.0528516   0.0000000), wk =   0.1111111
        k(   10) = (   0.0305140  -0.0176172   0.0000000), wk =   0.1111111
        k(   11) = (   0.0610280   0.0352344   0.0000000), wk =   0.1111111
        k(   12) = (   0.0610280   0.0704689   0.0000000), wk =   0.1111111
        k(   13) = (   0.0610280   0.1057033   0.0000000), wk =   0.1111111
        k(   14) = (   0.0610280  -0.0704689   0.0000000), wk =   0.1111111
        k(   15) = (   0.0610280  -0.0352344   0.0000000), wk =   0.1111111
        k(   16) = (   0.0610280   0.0000000   0.0000000), wk =   0.1111111
        k(   17) = (  -0.0915420  -0.0528516   0.0000000), wk =   0.0555556
        k(   18) = (  -0.0915420  -0.0176172   0.0000000), wk =   0.1111111
        k(   19) = (  -0.0915420   0.0176172   0.0000000), wk =   0.1111111
        k(   20) = (  -0.0915420  -0.1585549   0.0000000), wk =   0.0555556

     Largest allocated arrays     est. size (Mb)     dimensions
     Largest temporary arrays     est. size (Mb)     dimensions

     Initial potential from superposition of free atoms
     Check: negative starting charge=   -1.213156

     starting charge  176.99964, renormalised to  186.00000

[...]

     *
     * You are using vdW-DF for exchange-correlation in this calculation.
     * Please cite the following three references that made this development
     * possible:
     *
     *   M. Dion, H. Rydberg, E. Schroder, D. C. Langreth, and
     *   B. I. Lundqvist, Phys. Rev. Lett. 92, 246401 (2004).
     *
     *   T. Thonhauser, V. R. Cooper, S. Li, A. Puzder, P. Hyldgaard, and
     *   D. C. Langreth, Phys. Rev. B 76, 125112 (2007).
     *
     *   G. Roman-Perez and J. M. Soler, Phys. Rev. Lett. 103, 096102 (2009).
     *
     *
     * If you are using vdW-DF2, please also cite:
     *
     *   K. Lee, E. D. Murray, L. Kong, B. I. Lundqvist, and
     *   D. C. Langreth, Phys. Rev. B 82, 081101(R) (2010).
     *
     *
     * If you are calculating the stress with vdW-DF, please also cite:
     *
     *   R. Sabatini, E. Kucukbenli, B. Kolb, T. Thonhauser, and
     *   S. de Gironcoli, J. Phys.: Condens. Matter 24, 424209 (2012).
     *

     Carrying out vdW-DF run using the following parameters:

     Nqs =      20    Nr_points =    1024   r_max =   100.000
     q_mesh =
               0.00001000     0.04494208     0.09755937     0.15916263
               0.23128650     0.31572767     0.41458969     0.53033537
               0.66584808     0.82450364     1.01025438     1.22772762
               1.48234092     1.78043706     2.12944203     2.53805004
               3.01644009     3.57652955     4.23227104     5.00000000

     Gradients computed in reciprocal space

[...]

     Starting wfc are  156 randomized atomic wfcs

     Self-consistent Calculation

[...]

     total energy              =   -2323.53906590 Ry
     Harris-Foulkes estimate   =   -2323.53906669 Ry
     estimated scf accuracy    <       0.00000101 Ry

     iteration # 18     ecut=    36.75 Ry     beta=0.10
     Davidson diagonalization with overlap
     ethr =  5.42E-10,  avg # of iterations =  2.4

[...]

     negative rho (up, down):  1.271E+00 0.000E+00

     Adding external electric field

     Computed dipole along edir(3) :
        Dipole                0.0360 Ry au,          0.0916 Debye
        Dipole field          0.0001 Ry au

        Potential amp.       -0.0096 Ry
        Total length         45.0666 bohr

     End of self-consistent calculation

[...]

          k = 0.0610 0.0000 0.0000 ( 16034 PWs)   bands (ev):

[...]

          k =-0.0915-0.1586 0.0000 ( 16072 PWs)   bands (ev):

   -78.2404 -78.2404 -77.9544 -77.9544 -77.9359 -77.9359 -70.6349 -70.6349
   -70.1264 -70.1264 -70.0886 -70.0886 -40.7674 -40.7674 -40.7141 -40.7141
   -40.6276 -40.6276 -40.3432 -40.3432 -40.2056 -40.2056 -40.1891 -40.1891
   -40.0852 -40.0852 -40.0583 -40.0583 -40.0441 -40.0441 -39.9597 -39.9597
   -39.8227 -39.8227 -39.7359 -39.7359 -39.6609 -39.6609 -39.6068 -39.6068
   -39.5628 -39.5628 -39.5016 -39.5016 -39.4700 -39.4700 -39.4219 -39.4219
    -3.8263  -3.8263  -2.5769  -2.5769  -2.3470  -2.3470  -2.2550  -2.2550
    -1.9619  -1.9619  -1.6737  -1.6737  -1.2931  -1.2931  -1.1906  -1.1906
    -0.8205  -0.8205  -0.6836  -0.6836  -0.2990  -0.2990   0.1992   0.1992
     0.4937   0.4937   0.5703   0.5703   0.6843   0.6843   0.7960   0.7960
     0.9278   0.9279   1.0171   1.0171   1.0711   1.0711   1.1676   1.1676
     1.8574   1.8574   2.1671   2.1671   2.5291   2.5291   2.6859   2.6859
     2.9952   2.9952   3.1536   3.1537   3.2223   3.2223   3.6039   3.6039
     3.8062   3.8062   4.2887   4.2887   4.9689   4.9689   5.3722   5.3722
     5.8325   5.8325   7.2517   7.2517   7.7370   7.7370   7.9104   7.9104
     8.7457   8.7458   9.2210

     the Fermi energy is     2.5922 ev

!    total energy              =   -2323.53906532 Ry
     Harris-Foulkes estimate   =   -2323.53906624 Ry
     estimated scf accuracy    <       0.00000017 Ry

     The total energy is the sum of the following terms:

     one-electron contribution =  -20285.41898742 Ry
     hartree contribution      =   10134.04921709 Ry
     xc contribution           =    -485.62052051 Ry
     ewald contribution        =    8313.53668997 Ry
     electric field correction =       0.00000383 Ry
     smearing contrib. (-TS)   =      -0.08546828 Ry

     convergence has been achieved in  18 iterations

 BEEF-vdW xc energy contributions
           1 :   -428.403508832917
           2 :    396.870452271083
           3 :   -340.877565340152
           4 :    272.077044700865
           5 :   -203.014184640634
           6 :    143.677517584632
           7 :   -99.3545710357332
           8 :    70.2968469208217
           9 :   -53.0178590247764
          10 :    42.4870941398524
          11 :   -34.2815322892680
          12 :    25.9366690871238
          13 :   -17.1886421718873
          14 :    9.27759756989980
          15 :   -3.80221669131799
          16 :    1.68068069359401
          17 :   -2.62595978154934
          18 :    5.26989205184998
          19 :   -7.79173383977115
          20 :    8.71146312349106
          21 :   -7.47330458719136
          22 :    4.57518191177479
          23 :   -1.22886661011876
          24 :   -1.25578033963166
          25 :    2.06425371682042
          26 :   -1.18835611231827
          27 :  -0.657703837398913
          28 :    2.43872227304939
          29 :   -3.30198895299691
          30 :    2.93995462997026
          31 :   -38.4259051144309
          32 :   -28.7828677279771

     Forces acting on atoms (Ry/au):

     negative rho (up, down):  1.271E+00 0.000E+00
     atom    1 type  1   force =    -0.00000047   -0.00685513    0.01202414
     atom    2 type  1   force =     0.00000013   -0.00685505    0.01202488
     atom    3 type  2   force =    -0.00000001    0.00638372    0.02749203
     atom    4 type  2   force =     0.00000058    0.00638427    0.02749190
     atom    5 type  1   force =     0.00000005   -0.00034559   -0.02070067
     atom    6 type  1   force =    -0.00000052   -0.00034539   -0.02070032
     atom    7 type  2   force =     0.00000208   -0.00048627   -0.01997142
     atom    8 type  2   force =    -0.00000237   -0.00048595   -0.01997141
     atom    9 type  1   force =     0.00000108    0.00069879    0.00049303
     atom   10 type  1   force =    -0.00000052    0.00069949    0.00049185
     atom   11 type  2   force =     0.00000080    0.00060358    0.00066312
     atom   12 type  2   force =    -0.00000082    0.00060353    0.00066288

     Total force =     0.060289     Total SCF correction =     0.001880

     entering subroutine stress ...

     negative rho (up, down):  1.271E+00 0.000E+00
          total   stress  (Ry/bohr**3)                   (kbar)     P=  -23.93
  -0.00017976  -0.00000000   0.00000000        -26.44     -0.00      0.00
  -0.00000000  -0.00021375   0.00000343         -0.00    -31.44      0.50
   0.00000000   0.00000343  -0.00009442          0.00      0.50    -13.89

 !ASE

     Writing output data file calc.save

     General routines

     Parallel routines

   This run was terminated on:   4:28:59  19Dec2018

   JOB DONE.
Job  /afs/slac/g/suncat/bin/suncat-tsmpirun -x LD_LIBRARY_PATH -wdir /scratch/qe530529_6NIN5 pw.x -in pw.inp

TID   HOST_NAME   COMMAND_LINE            STATUS            TERMINATION_TIME
00000 suncat2046 pw.x -in pw.inp   Done                     12/19/2018 04:28:59
00001 suncat2046 pw.x -in pw.inp   Done                     12/19/2018 04:28:59
00002 suncat2046 pw.x -in pw.inp   Done                     12/19/2018 04:28:59
00003 suncat2046 pw.x -in pw.inp   Done                     12/19/2018 04:28:59
00004 suncat2046 pw.x -in pw.inp   Done                     12/19/2018 04:28:59
00005 suncat2046 pw.x -in pw.inp   Done                     12/19/2018 04:28:59
00006 suncat2046 pw.x -in pw.inp   Done                     12/19/2018 04:28:59
00007 suncat2046 pw.x -in pw.inp   Done                     12/19/2018 04:28:59
00008 suncat2046 pw.x -in pw.inp   Done                     12/19/2018 04:28:59
00009 suncat2046 pw.x -in pw.inp   Done                     12/19/2018 04:28:59
00010 suncat2046 pw.x -in pw.inp   Done                     12/19/2018 04:28:59
00011 suncat2046 pw.x -in pw.inp   Done                     12/19/2018 04:28:59
00012 suncat2046 pw.x -in pw.inp   Done                     12/19/2018 04:28:59
00013 suncat2046 pw.x -in pw.inp   Done                     12/19/2018 04:28:59
00014 suncat2046 pw.x -in pw.inp   Done                     12/19/2018 04:28:59
00015 suncat2046 pw.x -in pw.inp   Done                     12/19/2018 04:28:59
00016 suncat2045 pw.x -in pw.inp   Done                     12/19/2018 04:28:59
00017 suncat2045 pw.x -in pw.inp   Done                     12/19/2018 04:28:59
00018 suncat2045 pw.x -in pw.inp   Done                     12/19/2018 04:28:59
00019 suncat2045 pw.x -in pw.inp   Done                     12/19/2018 04:28:59
00020 suncat2045 pw.x -in pw.inp   Done                     12/19/2018 04:28:59
00021 suncat2045 pw.x -in pw.inp   Done                     12/19/2018 04:28:59
00022 suncat2045 pw.x -in pw.inp   Done                     12/19/2018 04:28:59
00023 suncat2045 pw.x -in pw.inp   Done                     12/19/2018 04:28:59
00024 suncat2045 pw.x -in pw.inp   Done                     12/19/2018 04:28:59
00025 suncat2045 pw.x -in pw.inp   Done                     12/19/2018 04:28:59
00026 suncat2045 pw.x -in pw.inp   Done                     12/19/2018 04:28:59
00027 suncat2045 pw.x -in pw.inp   Done                     12/19/2018 04:28:59
00028 suncat2045 pw.x -in pw.inp   Done                     12/19/2018 04:28:59
00029 suncat2045 pw.x -in pw.inp   Done                     12/19/2018 04:28:59
00030 suncat2045 pw.x -in pw.inp   Done                     12/19/2018 04:28:59
00031 suncat2045 pw.x -in pw.inp   Done                     12/19/2018 04:28:59