     Program PWSCF v.5.1rc2 (svn rev. 11289) starts on 25Dec2018 at  0:44:51

     Current dimensions of program PWSCF are:
     Max number of different atomic species (ntypx) = 10
     Max number of k-points (npk) =  40000
     Max angular momentum in pseudopotentials (lmaxx) =  3
     Presently stress not available with electric field

     IMPORTANT: XC functional enforced from input :
     Exchange-correlation      = BEEF-VDW ( 1  4 27 13 2)
     Any further DFT definition will be discarded
     Please, verify this is what you really want

     Subspace diagonalization in iterative solution of the eigenvalue problem:
     a serial algorithm will be used

     Found symmetry operation: I + ( -0.5000  0.0000  0.0000)
     This is a supercell, fractional translations are disabled

     bravais-lattice index     =            0
     lattice parameter (alat)  =       1.8897  a.u.
     unit-cell volume          =    6077.0676 (a.u.)^3
     number of atoms/cell      =           12
     number of atomic types    =            2
     number of electrons       =       150.00
     number of Kohn-Sham states=          105
     kinetic-energy cutoff     =      36.7493  Ry
     charge density cutoff     =     367.4932  Ry
     convergence threshold     =      1.0E-06
     mixing beta               =       0.1000
     number of iterations used =           10  plain     mixing
     Exchange-correlation      = BEEF-VDW ( 1  4 27 13 2)
     nstep                     =           50

     celldm(1)=   1.889726  celldm(2)=   0.000000  celldm(3)=   0.000000
     celldm(4)=   0.000000  celldm(5)=   0.000000  celldm(6)=   0.000000

     crystal axes: (cart. coord. in units of alat)
               a(1) = (   5.929550   0.000000   0.000000 )
               a(2) = (  -2.964775   6.035087   0.000000 )
               a(3) = (   0.000000   0.000000  25.164727 )

     reciprocal axes: (cart. coord. in units 2 pi/alat)
               b(1) = (  0.168647  0.082849  0.000000 )
               b(2) = (  0.000000  0.165698  0.000000 )
               b(3) = (  0.000000  0.000000  0.039738 )

     PseudoPot. # 1 for La read from file:
     /afs/slac.stanford.edu/u/if/mamunm/psp/gbrv1.5pbe/La.UPF
     MD5 check sum: 5937b0c7494ba0601a847275249473aa
     Pseudo is Ultrasoft + core correction, Zval = 11.0
     Generated by new atomic code, or converted to UPF format
     Using radial grid of  995 points,  8 beta functions with:
                l(1) =   0
                l(2) =   0
                l(3) =   1
                l(4) =   1
                l(5) =   2
                l(6) =   2
                l(7) =   3
                l(8) =   3
     Q(r) pseudized with  8 coefficients,  rinner =    1.700   1.700   1.700
                                                       1.700   1.700   1.700
                                                       1.700

     PseudoPot. # 2 for Mo read from file:
     /afs/slac.stanford.edu/u/if/mamunm/psp/gbrv1.5pbe/Mo.UPF
     MD5 check sum: 30c4dcd161f5d35cd49bb5239c51a633
     Pseudo is Ultrasoft + core correction, Zval = 14.0
     Generated by new atomic code, or converted to UPF format
     Using radial grid of  889 points,  6 beta functions with:
                l(1) =   0
                l(2) =   0
                l(3) =   1
                l(4) =   1
                l(5) =   2
                l(6) =   2
     Q(r) pseudized with  6 coefficients,  rinner =    1.000   1.000   1.000
                                                       1.000   1.000

     vdW kernel table read from file vdW_kernel_table
     MD5 check sum: 095c7af220d748ca6e76c0b4c6cfb241

     atomic species   valence    mass     pseudopotential
        La1           11.00   138.90547     La( 1.00)
        Mo1           14.00    95.95000     Mo( 1.00)

     No symmetry found

   Cartesian axes

     site n.     atom                  positions (alat units)
         1           La1 tau(   1) = (   0.0000000   0.0000000  10.0000000  )
         2           La1 tau(   2) = (   2.9647750   0.0000000  10.0000000  )
         3           Mo1 tau(   3) = (   1.4823875   3.0175433  10.0000000  )
         4           Mo1 tau(   4) = (  -1.4823875   3.0175433  10.0000000  )
         5           La1 tau(   5) = (   2.9647750   1.4564648  12.5823635  )
         6           La1 tau(   6) = (  -0.0000000   1.4564648  12.5823635  )
         7           Mo1 tau(   7) = (  -1.4823875   4.4740081  12.5823635  )
         8           Mo1 tau(   8) = (   1.4823875   4.4740081  12.5823635  )
         9           La1 tau(   9) = (  -0.0000000   2.9129296  15.1647270  )
        10           La1 tau(  10) = (   2.9647750   2.9129296  15.1647270  )
        11           Mo1 tau(  11) = (   1.4823875   5.9304728  15.1647270  )
        12           Mo1 tau(  12) = (  -1.4823875   5.9304728  15.1647270  )

     number of k points=    20  Fermi-Dirac smearing, width (Ry)=  0.0110
                       cart. coord. in units 2pi/alat
        k(    1) = (   0.0000000   0.0000000   0.0000000), wk =   0.0555556
        k(    2) = (   0.0000000   0.0276163   0.0000000), wk =   0.1111111
        k(    3) = (   0.0000000   0.0552326   0.0000000), wk =   0.1111111
        k(    4) = (   0.0000000  -0.0828489   0.0000000), wk =   0.0555556
        k(    5) = (   0.0281078   0.0138081   0.0000000), wk =   0.1111111
        k(    6) = (   0.0281078   0.0414244   0.0000000), wk =   0.1111111
        k(    7) = (   0.0281078   0.0690407   0.0000000), wk =   0.1111111
        k(    8) = (   0.0281078  -0.0690407   0.0000000), wk =   0.1111111
        k(    9) = (   0.0281078  -0.0414244   0.0000000), wk =   0.1111111
        k(   10) = (   0.0281078  -0.0138081   0.0000000), wk =   0.1111111
        k(   11) = (   0.0562156   0.0276163   0.0000000), wk =   0.1111111
        k(   12) = (   0.0562156   0.0552326   0.0000000), wk =   0.1111111
        k(   13) = (   0.0562156   0.0828489   0.0000000), wk =   0.1111111
        k(   14) = (   0.0562156  -0.0552326   0.0000000), wk =   0.1111111
        k(   15) = (   0.0562156  -0.0276163   0.0000000), wk =   0.1111111
        k(   16) = (   0.0562156   0.0000000   0.0000000), wk =   0.1111111
        k(   17) = (  -0.0843234  -0.0414244   0.0000000), wk =   0.0555556
        k(   18) = (  -0.0843234  -0.0138081   0.0000000), wk =   0.1111111
        k(   19) = (  -0.0843234   0.0138081   0.0000000), wk =   0.1111111
        k(   20) = (  -0.0843234  -0.1242733   0.0000000), wk =   0.0555556

     Largest allocated arrays     est. size (Mb)     dimensions
     Largest temporary arrays     est. size (Mb)     dimensions

     Initial potential from superposition of free atoms
     Check: negative starting charge=   -0.411500

     starting charge  149.80121, renormalised to  150.00000

     negative rho (up, down):  4.120E-01 0.000E+00

     *
     * You are using vdW-DF for exchange-correlation in this calculation.
     * Please cite the following three references that made this development
     * possible:
     *
     *   M. Dion, H. Rydberg, E. Schroder, D. C. Langreth, and
     *   B. I. Lundqvist, Phys. Rev. Lett. 92, 246401 (2004).
     *
     *   T. Thonhauser, V. R. Cooper, S. Li, A. Puzder, P. Hyldgaard, and
     *   D. C. Langreth, Phys. Rev. B 76, 125112 (2007).
     *
     *   G. Roman-Perez and J. M. Soler, Phys. Rev. Lett. 103, 096102 (2009).
     *
     *
     * If you are using vdW-DF2, please also cite:
     *
     *   K. Lee, E. D. Murray, L. Kong, B. I. Lundqvist, and
     *   D. C. Langreth, Phys. Rev. B 82, 081101(R) (2010).
     *
     *
     * If you are calculating the stress with vdW-DF, please also cite:
     *
     *   R. Sabatini, E. Kucukbenli, B. Kolb, T. Thonhauser, and
     *   S. de Gironcoli, J. Phys.: Condens. Matter 24, 424209 (2012).
     *

     Carrying out vdW-DF run using the following parameters:

     Nqs =      20    Nr_points =    1024   r_max =   100.000
     q_mesh =
               0.00001000     0.04494208     0.09755937     0.15916263
               0.23128650     0.31572767     0.41458969     0.53033537
               0.66584808     0.82450364     1.01025438     1.22772762
               1.48234092     1.78043706     2.12944203     2.53805004
               3.01644009     3.57652955     4.23227104     5.00000000

     Gradients computed in reciprocal space

     Adding external electric field

     Computed dipole along edir(3) :
        Dipole               -0.0000 Ry au,         -0.0000 Debye
        Dipole field         -0.0000 Ry au

        Potential amp.        0.0000 Ry
        Total length         46.3656 bohr

     Starting wfc are  198 randomized atomic wfcs

     Self-consistent Calculation

     iteration #  1     ecut=    36.75 Ry     beta=0.10
     Davidson diagonalization with overlap
     ethr =  1.00E-02,  avg # of iterations =  2.0

[...]

     total energy              =   -1461.12778892 Ry
     Harris-Foulkes estimate   =   -1464.45119138 Ry
     estimated scf accuracy    <      18.24309328 Ry

[...]

     End of self-consistent calculation

          k = 0.0000 0.0000 0.0000 ( 22891 PWs)   bands (ev):

   -58.7974 -58.7573 -58.5808 -58.5798 -58.5405 -58.5396 -32.9892 -32.8910
   -32.8416 -32.7918 -32.7763 -32.7742 -32.7414 -32.6247 -32.6006 -32.5987
   -32.5790 -32.5707 -32.5523 -32.5518 -32.5375 -32.4975 -32.3569 -32.3561
   -30.9068 -30.7853 -30.3155 -30.2215 -30.1084 -29.6382 -16.3109 -16.1944
   -15.7953 -15.7459 -15.1261 -14.5805 -14.3500 -14.2569 -13.9607 -13.7968
   -13.7199 -13.6234 -13.1572 -12.9944 -12.4556 -12.3691 -12.3033 -11.8894
    -1.8904  -1.1082  -0.9193  -0.8788  -0.8080  -0.4078  -0.1351   0.0196
     0.0414   0.0771   0.1570   0.2177   0.3149   0.3455   0.5904   0.8692
     0.9505   0.9957   1.1085   1.2977   1.7514   1.7732   2.1048   2.2393
     2.5059   2.5436   2.6356   2.7465   2.8542   2.8934   2.9436   3.0677
     3.1962   3.4135   3.5100   3.5236   3.5483   3.6949   3.7420   3.7816
     3.8060   3.9014   3.9338   4.0470   4.0936   4.1816   4.2507   4.2524
     4.2834   4.3127   4.3223   4.3652   4.3681   4.3959   4.4085   4.5423
     4.6549

[...]

          k =-0.0843-0.0414 0.0000 ( 22882 PWs)   bands (ev):

[...]

     the Fermi energy is     2.2894 ev

!    total energy              =   -1463.18928625 Ry
     Harris-Foulkes estimate   =   -1463.18928644 Ry
     estimated scf accuracy    <       0.00000053 Ry

     The total energy is the sum of the following terms:

     one-electron contribution =   -8887.73870346 Ry
     hartree contribution      =    4449.12841133 Ry
     xc contribution           =    -425.20855937 Ry
     ewald contribution        =    3400.73833034 Ry
     electric field correction =       0.00000001 Ry
     smearing contrib. (-TS)   =      -0.10876509 Ry

     convergence has been achieved in  22 iterations

 BEEF-vdW xc energy contributions
           1 :   -373.643139379886
           2 :    343.244358555458
           3 :   -289.775887599013
           4 :    225.199849214171
           5 :   -162.204581855149
           6 :    110.613887384040
           7 :   -75.3200763772833
           8 :    56.0789480864787
           9 :   -48.8691974711583
          10 :    48.0514255116710
[...]
     /afs/slac.stanford.edu/u/if/mamunm/psp/gbrv1.5pbe/La.UPF
     MD5 check sum: 5937b0c7494ba0601a847275249473aa
     Pseudo is Ultrasoft + core correction, Zval = 11.0
     Generated by new atomic code, or converted to UPF format
     Using radial grid of  995 points,  8 beta functions with:
                l(1) =   0
                l(2) =   0
                l(3) =   1
                l(4) =   1
                l(5) =   2
                l(6) =   2
                l(7) =   3
                l(8) =   3
     Q(r) pseudized with  8 coefficients,  rinner =    1.700   1.700   1.700
                                                       1.700   1.700   1.700
                                                       1.700

     PseudoPot. # 2 for Mo read from file:
     /afs/slac.stanford.edu/u/if/mamunm/psp/gbrv1.5pbe/Mo.UPF
     MD5 check sum: 30c4dcd161f5d35cd49bb5239c51a633
     Pseudo is Ultrasoft + core correction, Zval = 14.0
     Generated by new atomic code, or converted to UPF format
     Using radial grid of  889 points,  6 beta functions with:
                l(1) =   0
                l(2) =   0
                l(3) =   1
                l(4) =   1
                l(5) =   2
                l(6) =   2
     Q(r) pseudized with  6 coefficients,  rinner =    1.000   1.000   1.000
                                                       1.000   1.000

     vdW kernel table read from file vdW_kernel_table
     MD5 check sum: 095c7af220d748ca6e76c0b4c6cfb241

     atomic species   valence    mass     pseudopotential
        La1           11.00   138.90547     La( 1.00)
        Mo1           14.00    95.95000     Mo( 1.00)

     No symmetry found

   Cartesian axes

     site n.     atom                  positions (alat units)
         1           La1 tau(   1) = (   0.0000000   0.0000000  10.0000000  )
         2           La1 tau(   2) = (   2.9647750   0.0000000  10.0000000  )
         3           Mo1 tau(   3) = (   1.4823875   3.0175433  10.0000000  )
         4           Mo1 tau(   4) = (  -1.4823875   3.0175433  10.0000000  )
         5           La1 tau(   5) = (   2.9647750   1.4564648  12.5823635  )
         6           La1 tau(   6) = (  -0.0000000   1.4564648  12.5823635  )
         7           Mo1 tau(   7) = (  -1.4823875   4.4740081  12.5823635  )
         8           Mo1 tau(   8) = (   1.4823875   4.4740081  12.5823635  )
         9           La1 tau(   9) = (  -0.0000513   3.0764943  15.4729062  )
        10           La1 tau(  10) = (   2.9647247   3.0765217  15.4728977  )
        11           Mo1 tau(  11) = (   1.4823486   5.6540449  14.6514215  )
        12           Mo1 tau(  12) = (  -1.4824143   5.6540860  14.6514052  )

     number of k points=    20  Fermi-Dirac smearing, width (Ry)=  0.0110
                       cart. coord. in units 2pi/alat
        k(    1) = (   0.0000000   0.0000000   0.0000000), wk =   0.0555556
        k(    2) = (   0.0000000   0.0276163   0.0000000), wk =   0.1111111
        k(    3) = (   0.0000000   0.0552326   0.0000000), wk =   0.1111111
        k(    4) = (   0.0000000  -0.0828489   0.0000000), wk =   0.0555556
        k(    5) = (   0.0281078   0.0138081   0.0000000), wk =   0.1111111
        k(    6) = (   0.0281078   0.0414244   0.0000000), wk =   0.1111111
        k(    7) = (   0.0281078   0.0690407   0.0000000), wk =   0.1111111
        k(    8) = (   0.0281078  -0.0690407   0.0000000), wk =   0.1111111
        k(    9) = (   0.0281078  -0.0414244   0.0000000), wk =   0.1111111
        k(   10) = (   0.0281078  -0.0138081   0.0000000), wk =   0.1111111
        k(   11) = (   0.0562156   0.0276163   0.0000000), wk =   0.1111111
        k(   12) = (   0.0562156   0.0552326   0.0000000), wk =   0.1111111
        k(   13) = (   0.0562156   0.0828489   0.0000000), wk =   0.1111111
        k(   14) = (   0.0562156  -0.0552326   0.0000000), wk =   0.1111111
        k(   15) = (   0.0562156  -0.0276163   0.0000000), wk =   0.1111111
        k(   16) = (   0.0562156   0.0000000   0.0000000), wk =   0.1111111
        k(   17) = (  -0.0843234  -0.0414244   0.0000000), wk =   0.0555556
        k(   18) = (  -0.0843234  -0.0138081   0.0000000), wk =   0.1111111
        k(   19) = (  -0.0843234   0.0138081   0.0000000), wk =   0.1111111
        k(   20) = (  -0.0843234  -0.1242733   0.0000000), wk =   0.0555556

     Largest allocated arrays     est. size (Mb)     dimensions
     Largest temporary arrays     est. size (Mb)     dimensions

     Initial potential from superposition of free atoms
     Check: negative starting charge=   -0.412596

     starting charge  149.80121, renormalised to  150.00000

[...]

     *
     * You are using vdW-DF for exchange-correlation in this calculation.
     * Please cite the following three references that made this development
     * possible:
     *
     *   M. Dion, H. Rydberg, E. Schroder, D. C. Langreth, and
     *   B. I. Lundqvist, Phys. Rev. Lett. 92, 246401 (2004).
     *
     *   T. Thonhauser, V. R. Cooper, S. Li, A. Puzder, P. Hyldgaard, and
     *   D. C. Langreth, Phys. Rev. B 76, 125112 (2007).
     *
     *   G. Roman-Perez and J. M. Soler, Phys. Rev. Lett. 103, 096102 (2009).
     *
     *
     * If you are using vdW-DF2, please also cite:
     *
     *   K. Lee, E. D. Murray, L. Kong, B. I. Lundqvist, and
     *   D. C. Langreth, Phys. Rev. B 82, 081101(R) (2010).
     *
     *
     * If you are calculating the stress with vdW-DF, please also cite:
     *
     *   R. Sabatini, E. Kucukbenli, B. Kolb, T. Thonhauser, and
     *   S. de Gironcoli, J. Phys.: Condens. Matter 24, 424209 (2012).
     *

     Carrying out vdW-DF run using the following parameters:

     Nqs =      20    Nr_points =    1024   r_max =   100.000
     q_mesh =
               0.00001000     0.04494208     0.09755937     0.15916263
               0.23128650     0.31572767     0.41458969     0.53033537
               0.66584808     0.82450364     1.01025438     1.22772762
               1.48234092     1.78043706     2.12944203     2.53805004
               3.01644009     3.57652955     4.23227104     5.00000000

     Gradients computed in reciprocal space

[...]

     Starting wfc are  198 randomized atomic wfcs

     Self-consistent Calculation

[...]

     total energy              =   -1463.31692204 Ry
     Harris-Foulkes estimate   =   -1463.31692057 Ry
     estimated scf accuracy    <       0.00000139 Ry

     iteration # 21     ecut=    36.75 Ry     beta=0.10
     Davidson diagonalization with overlap
     ethr =  9.28E-10,  avg # of iterations =  4.0

[...]

     negative rho (up, down):  2.094E-01 0.000E+00

     Adding external electric field

     Computed dipole along edir(3) :
        Dipole                0.3403 Ry au,          0.8649 Debye
        Dipole field          0.0007 Ry au

        Potential amp.       -0.0653 Ry
        Total length         46.3656 bohr

     End of self-consistent calculation

[...]

          k = 0.0562 0.0000 0.0000 ( 22887 PWs)   bands (ev):

[...]

          k =-0.0843-0.1243 0.0000 ( 22882 PWs)   bands (ev):

   -58.3539 -58.3539 -58.2766 -58.2765 -58.0371 -58.0371 -33.0039 -33.0038
   -32.3789 -32.3789 -32.3559 -32.3559 -32.3353 -32.3353 -32.3014 -32.3013
   -32.2624 -32.2624 -32.1224 -32.1224 -32.0838 -32.0838 -31.6054 -31.6054
   -30.3380 -30.3380 -30.2165 -30.2165 -29.6995 -29.6995 -14.8554 -14.8554
   -14.3321 -14.3321 -14.2366 -14.2366 -14.0460 -14.0459 -13.9129 -13.9129
   -13.7879 -13.7879 -13.7274 -13.7274 -13.2761 -13.2761 -12.6817 -12.6817
    -0.2765  -0.2765   0.1432   0.1432   0.3350   0.3350   0.7436   0.7436
     0.7686   0.7686   0.9378   0.9379   1.2679   1.2679   1.4185   1.4185
     1.6321   1.6321   1.7388   1.7388   2.0070   2.0070   2.0466   2.0467
     2.2017   2.2017   2.3746   2.3746   2.6453   2.6453   2.8481   2.8482
     2.9493   2.9493   3.3271   3.3271   3.4310   3.4310   3.7824   3.7824
     3.9326   3.9326   4.0757   4.0757   4.2937   4.2937   4.4192   4.4192
     4.5290   4.5291   4.6218   4.6219   4.6844   4.6845   4.7774   4.7775
     4.8307

     the Fermi energy is     2.5903 ev

!    total energy              =   -1463.31692358 Ry
     Harris-Foulkes estimate   =   -1463.31691822 Ry
     estimated scf accuracy    <       0.00000078 Ry

     The total energy is the sum of the following terms:

     one-electron contribution =   -9081.31506328 Ry
     hartree contribution      =    4547.54138583 Ry
     xc contribution           =    -425.52893866 Ry
     ewald contribution        =    3496.08694128 Ry
     electric field correction =       0.00023945 Ry
     smearing contrib. (-TS)   =      -0.10148820 Ry

     convergence has been achieved in  21 iterations

 BEEF-vdW xc energy contributions
           1 :   -373.974306023196
           2 :    343.671011875786
           3 :   -290.325422565322
           4 :    225.795565688443
           5 :   -162.676983331075
           6 :    110.766705995179
           7 :   -75.0329710055918
           8 :    55.3891413185469
           9 :   -47.9750465825905
          10 :    47.2293788599500
          11 :   -47.9590116510243
          12 :    46.7182093250541
          13 :   -42.2179734854559
          14 :    34.9085238101990
          15 :   -26.1762778373032
          16 :    17.5720112034983
          17 :   -10.3132082032420
          18 :    5.08469610739462
          19 :   -2.05804084790458
          20 :    1.00315393179886
          21 :   -1.40866253062825
          22 :    2.58161530147697
          23 :   -3.76179091823531
          24 :    4.27602279760896
          25 :   -3.71556594107523
          26 :    2.06191697889858
          27 :   0.307572302561937
          28 :   -2.76280831400788
          29 :    4.66806619412881
          30 :   -5.64019892034577
          31 :   -34.6820685612292
          32 :   -25.5009279387980

     Forces acting on atoms (Ry/au):

     negative rho (up, down):  2.094E-01 0.000E+00
     atom    1 type  1   force =    -0.00001045   -0.02131180   -0.03811987
     atom    2 type  1   force =    -0.00001209   -0.02131170   -0.03812040
     atom    3 type  2   force =    -0.00000064    0.01803547    0.05157599
     atom    4 type  2   force =    -0.00000040    0.01803328    0.05157537
     atom    5 type  1   force =     0.00001279    0.01856991   -0.00579894
     atom    6 type  1   force =     0.00000555    0.01857186   -0.00579763
     atom    7 type  2   force =     0.00000179   -0.01361745   -0.00878965
     atom    8 type  2   force =     0.00000160   -0.01362013   -0.00879054
     atom    9 type  1   force =    -0.00001674   -0.00052373    0.00067903
     atom   10 type  1   force =    -0.00001639   -0.00052190    0.00068131
     atom   11 type  2   force =     0.00001639   -0.00114786    0.00045157
     atom   12 type  2   force =     0.00001861   -0.00115595    0.00045375

     Total force =     0.105225     Total SCF correction =     0.002766

     entering subroutine stress ...

     negative rho (up, down):  2.094E-01 0.000E+00
          total   stress  (Ry/bohr**3)                   (kbar)     P=   -2.93
   0.00004489  -0.00000000   0.00000000          6.60     -0.00      0.00
  -0.00000000  -0.00008349   0.00000295         -0.00    -12.28      0.43
   0.00000000   0.00000295  -0.00002123          0.00      0.43     -3.12

 !ASE

     Writing output data file calc.save

     General routines

     Parallel routines

   This run was terminated on:   3:50:56  25Dec2018

   JOB DONE.
Job  /afs/slac/g/suncat/bin/suncat-tsmpirun -x LD_LIBRARY_PATH -wdir /scratch/qe109061_2i9WM pw.x -in pw.inp

TID   HOST_NAME   COMMAND_LINE            STATUS            TERMINATION_TIME
00000 suncat0196 pw.x -in pw.inp   Done                     12/25/2018 03:50:56
00001 suncat0196 pw.x -in pw.inp   Done                     12/25/2018 03:50:56
00002 suncat0196 pw.x -in pw.inp   Done                     12/25/2018 03:50:56
00003 suncat0196 pw.x -in pw.inp   Done                     12/25/2018 03:50:56
00004 suncat0196 pw.x -in pw.inp   Done                     12/25/2018 03:50:56
00005 suncat0196 pw.x -in pw.inp   Done                     12/25/2018 03:50:56
00006 suncat0196 pw.x -in pw.inp   Done                     12/25/2018 03:50:56
00007 suncat0196 pw.x -in pw.inp   Done                     12/25/2018 03:50:56
00008 suncat0194 pw.x -in pw.inp   Done                     12/25/2018 03:50:56
00009 suncat0194 pw.x -in pw.inp   Done                     12/25/2018 03:50:56
00010 suncat0194 pw.x -in pw.inp   Done                     12/25/2018 03:50:56
00011 suncat0194 pw.x -in pw.inp   Done                     12/25/2018 03:50:56
00012 suncat0194 pw.x -in pw.inp   Done                     12/25/2018 03:50:56
00013 suncat0194 pw.x -in pw.inp   Done                     12/25/2018 03:50:56
00014 suncat0194 pw.x -in pw.inp   Done                     12/25/2018 03:50:56
00015 suncat0194 pw.x -in pw.inp   Done                     12/25/2018 03:50:56
00016 suncat0167 pw.x -in pw.inp   Done                     12/25/2018 03:50:56
00017 suncat0167 pw.x -in pw.inp   Done                     12/25/2018 03:50:56
00018 suncat0167 pw.x -in pw.inp   Done                     12/25/2018 03:50:56
00019 suncat0167 pw.x -in pw.inp   Done                     12/25/2018 03:50:56
00020 suncat0167 pw.x -in pw.inp   Done                     12/25/2018 03:50:56
00021 suncat0167 pw.x -in pw.inp   Done                     12/25/2018 03:50:56
00022 suncat0167 pw.x -in pw.inp   Done                     12/25/2018 03:50:56
00023 suncat0167 pw.x -in pw.inp   Done                     12/25/2018 03:50:56
00024 suncat0166 pw.x -in pw.inp   Done                     12/25/2018 03:50:56
00025 suncat0166 pw.x -in pw.inp   Done                     12/25/2018 03:50:56
00026 suncat0166 pw.x -in pw.inp   Done                     12/25/2018 03:50:56
00027 suncat0166 pw.x -in pw.inp   Done                     12/25/2018 03:50:56
00028 suncat0166 pw.x -in pw.inp   Done                     12/25/2018 03:50:56
00029 suncat0166 pw.x -in pw.inp   Done                     12/25/2018 03:50:56
00030 suncat0166 pw.x -in pw.inp   Done                     12/25/2018 03:50:56
00031 suncat0166 pw.x -in pw.inp   Done                     12/25/2018 03:50:56
00032 suncat0165 pw.x -in pw.inp   Done                     12/25/2018 03:50:56
00033 suncat0165 pw.x -in pw.inp   Done                     12/25/2018 03:50:56
00034 suncat0165 pw.x -in pw.inp   Done                     12/25/2018 03:50:56
00035 suncat0165 pw.x -in pw.inp   Done                     12/25/2018 03:50:56
00036 suncat0165 pw.x -in pw.inp   Done                     12/25/2018 03:50:56
00037 suncat0165 pw.x -in pw.inp   Done                     12/25/2018 03:50:56
00038 suncat0165 pw.x -in pw.inp   Done                     12/25/2018 03:50:56
00039 suncat0165 pw.x -in pw.inp   Done                     12/25/2018 03:50:56
00040 suncat0164 pw.x -in pw.inp   Done                     12/25/2018 03:50:56
00041 suncat0164 pw.x -in pw.inp   Done                     12/25/2018 03:50:56
00042 suncat0164 pw.x -in pw.inp   Done                     12/25/2018 03:50:56
00043 suncat0164 pw.x -in pw.inp   Done                     12/25/2018 03:50:56
00044 suncat0164 pw.x -in pw.inp   Done                     12/25/2018 03:50:56
00045 suncat0164 pw.x -in pw.inp   Done                     12/25/2018 03:50:56
00046 suncat0164 pw.x -in pw.inp   Done                     12/25/2018 03:50:56
00047 suncat0164 pw.x -in pw.inp   Done                     12/25/2018 03:50:56
00048 suncat0149 pw.x -in pw.inp   Done                     12/25/2018 03:50:56
00049 suncat0149 pw.x -in pw.inp   Done                     12/25/2018 03:50:56
00050 suncat0149 pw.x -in pw.inp   Done                     12/25/2018 03:50:56
00051 suncat0149 pw.x -in pw.inp   Done                     12/25/2018 03:50:56
00052 suncat0149 pw.x -in pw.inp   Done                     12/25/2018 03:50:56
00053 suncat0149 pw.x -in pw.inp   Done                     12/25/2018 03:50:56
00054 suncat0149 pw.x -in pw.inp   Done                     12/25/2018 03:50:56
00055 suncat0149 pw.x -in pw.inp   Done                     12/25/2018 03:50:56
00056 suncat0148 pw.x -in pw.inp   Done                     12/25/2018 03:50:56
00057 suncat0148 pw.x -in pw.inp   Done                     12/25/2018 03:50:56
00058 suncat0148 pw.x -in pw.inp   Done                     12/25/2018 03:50:56
00059 suncat0148 pw.x -in pw.inp   Done                     12/25/2018 03:50:56
00060 suncat0148 pw.x -in pw.inp   Done                     12/25/2018 03:50:56
00061 suncat0148 pw.x -in pw.inp   Done                     12/25/2018 03:50:56
00062 suncat0148 pw.x -in pw.inp   Done                     12/25/2018 03:50:56
00063 suncat0148 pw.x -in pw.inp   Done                     12/25/2018 03:50:56