     Program PWSCF v.5.1rc2 (svn rev. 11289) starts on 19Dec2018 at  5:54:34

     Current dimensions of program PWSCF are:
     Max number of different atomic species (ntypx) = 10
     Max number of k-points (npk) =  40000
     Max angular momentum in pseudopotentials (lmaxx) =  3
     Presently stress not available with electric field

     IMPORTANT: XC functional enforced from input :
     Exchange-correlation      = BEEF-VDW ( 1  4 27 13 2)
     Any further DFT definition will be discarded
     Please, verify this is what you really want

     Subspace diagonalization in iterative solution of the eigenvalue problem:
     a serial algorithm will be used

     Found symmetry operation: I + (  0.5000 -0.5000  0.0000)
     This is a supercell, fractional translations are disabled

     bravais-lattice index     =            0
     lattice parameter (alat)  =       1.8897  a.u.
     unit-cell volume          =    5834.4175 (a.u.)^3
     number of atoms/cell      =           12
     number of atomic types    =            2
     number of electrons       =       156.00
     number of Kohn-Sham states=          108
     kinetic-energy cutoff     =      36.7493  Ry
     charge density cutoff     =     367.4932  Ry
     convergence threshold     =      1.0E-06
     mixing beta               =       0.1000
     number of iterations used =           10  plain     mixing
     Exchange-correlation      = BEEF-VDW ( 1  4 27 13 2)
     nstep                     =           50

     celldm(1)=   1.889726  celldm(2)=   0.000000  celldm(3)=   0.000000
     celldm(4)=   0.000000  celldm(5)=   0.000000  celldm(6)=   0.000000

     crystal axes: (cart. coord. in units of alat)
               a(1) = (   6.243799   0.000000   0.000000 )
               a(2) = (   2.940514   5.508031   0.000000 )
               a(3) = (   0.000000   0.000000  25.139440 )

     reciprocal axes: (cart. coord. in units 2 pi/alat)
               b(1) = (  0.160159 -0.085502  0.000000 )
               b(2) = (  0.000000  0.181553  0.000000 )
               b(3) = (  0.000000  0.000000  0.039778 )

     PseudoPot. # 1 for Sn read from file:
     /afs/slac.stanford.edu/u/if/mamunm/psp/gbrv1.5pbe/Sn.UPF
     MD5 check sum: 469debedee59599fedebd795477fea03
     Pseudo is Ultrasoft + core correction, Zval = 14.0
     Generated by new atomic code, or converted to UPF format
     Using radial grid of  891 points,  6 beta functions with:
                l(1) =   0
                l(2) =   0
                l(3) =   1
                l(4) =   1
                l(5) =   2
                l(6) =   2
     Q(r) pseudized with  8 coefficients,  rinner =    1.350   1.350   1.350
                                                       1.350   1.350

     PseudoPot. # 2 for Hf read from file:
     /afs/slac.stanford.edu/u/if/mamunm/psp/gbrv1.5pbe/Hf.UPF
     MD5 check sum: 8ee9378dfe14276e333edf04c5e4aa26
     Pseudo is Ultrasoft + core correction, Zval = 12.0
     Generated by new atomic code, or converted to UPF format
     Using radial grid of  921 points,  8 beta functions with:
                l(1) =   0
                l(2) =   0
                l(3) =   0
                l(4) =   1
                l(5) =   1
                l(6) =   2
                l(7) =   2
                l(8) =   3
     Q(r) pseudized with  6 coefficients,  rinner =    1.200   1.200   1.200
                                                       1.200   1.200   1.200
                                                       1.200

     vdW kernel table read from file vdW_kernel_table
     MD5 check sum: 095c7af220d748ca6e76c0b4c6cfb241

     atomic species   valence    mass     pseudopotential
        Sn1           14.00   118.71000     Sn( 1.00)
        Hf1           12.00   178.49000     Hf( 1.00)

     No symmetry found

   Cartesian axes

     site n.     atom                  positions (alat units)
         1           Sn1 tau(   1) = (   0.0000000   0.0000000  10.0000000  )
         2           Sn1 tau(   2) = (   4.5921564   2.7540155  10.0000000  )
         3           Hf1 tau(   3) = (   3.1218996   0.0000000  10.0000000  )
         4           Hf1 tau(   4) = (   1.4702569   2.7540155  10.0000000  )
         5           Sn1 tau(   5) = (   6.2437991   3.7445414  12.5697199  )
         6           Sn1 tau(   6) = (   1.6516427   0.9905258  12.5697199  )
         7           Hf1 tau(   7) = (   3.1218996   3.7445414  12.5697199  )
         8           Hf1 tau(   8) = (   4.7735423   0.9905258  12.5697199  )
         9           Sn1 tau(   9) = (   3.3032854   1.9810517  15.1394397  )
        10           Sn1 tau(  10) = (   7.8954418   4.7350672  15.1394397  )
        11           Hf1 tau(  11) = (   6.4251849   1.9810517  15.1394397  )
        12           Hf1 tau(  12) = (   4.7735423   4.7350672  15.1394397  )

     number of k points=    20  Fermi-Dirac smearing, width (Ry)=  0.0110
                       cart. coord. in units 2pi/alat
        k(    1) = (   0.0000000   0.0000000   0.0000000), wk =   0.0555556
        k(    2) = (   0.0000000   0.0302588   0.0000000), wk =   0.1111111
        k(    3) = (   0.0000000   0.0605177   0.0000000), wk =   0.1111111
        k(    4) = (   0.0000000  -0.0907765   0.0000000), wk =   0.0555556
        k(    5) = (   0.0266932  -0.0142504   0.0000000), wk =   0.1111111
        k(    6) = (   0.0266932   0.0160085   0.0000000), wk =   0.1111111
        k(    7) = (   0.0266932   0.0462673   0.0000000), wk =   0.1111111
        k(    8) = (   0.0266932  -0.1050269   0.0000000), wk =   0.1111111
        k(    9) = (   0.0266932  -0.0747681   0.0000000), wk =   0.1111111
        k(   10) = (   0.0266932  -0.0445092   0.0000000), wk =   0.1111111
        k(   11) = (   0.0533863  -0.0285008   0.0000000), wk =   0.1111111
        k(   12) = (   0.0533863   0.0017581   0.0000000), wk =   0.1111111
        k(   13) = (   0.0533863   0.0320169   0.0000000), wk =   0.1111111
        k(   14) = (   0.0533863  -0.1192773   0.0000000), wk =   0.1111111
        k(   15) = (   0.0533863  -0.0890185   0.0000000), wk =   0.1111111
        k(   16) = (   0.0533863  -0.0587596   0.0000000), wk =   0.1111111
        k(   17) = (  -0.0800795   0.0427512   0.0000000), wk =   0.0555556
        k(   18) = (  -0.0800795   0.0730100   0.0000000), wk =   0.1111111
        k(   19) = (  -0.0800795   0.1032689   0.0000000), wk =   0.1111111
        k(   20) = (  -0.0800795  -0.0480254   0.0000000), wk =   0.0555556

     Largest allocated arrays     est. size (Mb)     dimensions
     Largest temporary arrays     est. size (Mb)     dimensions

     Check: negative/imaginary core charge=   -0.000003    0.000000

     Initial potential from superposition of free atoms
     Check: negative starting charge=   -0.644408

     starting charge  137.99972, renormalised to  156.00000

     negative rho (up, down):  7.285E-01 0.000E+00

     *
     * You are using vdW-DF for exchange-correlation in this calculation.
     * Please cite the following three references that made this development
     * possible:
     *
     *   M. Dion, H. Rydberg, E. Schroder, D. C. Langreth, and
     *   B. I. Lundqvist, Phys. Rev. Lett. 92, 246401 (2004).
     *
     *   T. Thonhauser, V. R. Cooper, S. Li, A. Puzder, P. Hyldgaard, and
     *   D. C. Langreth, Phys. Rev. B 76, 125112 (2007).
     *
     *   G. Roman-Perez and J. M. Soler, Phys. Rev. Lett. 103, 096102 (2009).
     *
     *
     * If you are using vdW-DF2, please also cite:
     *
     *   K. Lee, E. D. Murray, L. Kong, B. I. Lundqvist, and
     *   D. C. Langreth, Phys. Rev. B 82, 081101(R) (2010).
     *
     *
     * If you are calculating the stress with vdW-DF, please also cite:
     *
     *   R. Sabatini, E. Kucukbenli, B. Kolb, T. Thonhauser, and
     *   S. de Gironcoli, J. Phys.: Condens. Matter 24, 424209 (2012).
     *

     Carrying out vdW-DF run using the following parameters:

     Nqs =      20    Nr_points =    1024   r_max =   100.000
     q_mesh =
               0.00001000     0.04494208     0.09755937     0.15916263
               0.23128650     0.31572767     0.41458969     0.53033537
               0.66584808     0.82450364     1.01025438     1.22772762
               1.48234092     1.78043706     2.12944203     2.53805004
               3.01644009     3.57652955     4.23227104     5.00000000

     Gradients computed in reciprocal space

     Adding external electric field

     Computed dipole along edir(3) :
        Dipole                0.0000 Ry au,          0.0000 Debye
        Dipole field          0.0000 Ry au

        Potential amp.       -0.0000 Ry
        Total length         46.3190 bohr

     Starting wfc are  132 randomized atomic wfcs

     Self-consistent Calculation

     iteration #  1     ecut=    36.75 Ry     beta=0.10
     Davidson diagonalization with overlap
     ethr =  1.00E-02,  avg # of iterations =  8.3

[...]

     total energy              =   -1926.93319054 Ry
     Harris-Foulkes estimate   =   -1940.92147346 Ry
     estimated scf accuracy    <      80.41728984 Ry

[...]

     End of self-consistent calculation

          k = 0.0000 0.0000 0.0000 ( 22007 PWs)   bands (ev):

   -61.5084 -61.5082 -61.4928 -61.4926 -60.9667 -60.9505 -30.1672 -30.1623
   -30.1314 -30.1254 -30.0306 -30.0303 -30.0191 -30.0019 -29.9811 -29.9651
   -29.6854 -29.6852 -29.6687 -29.6404 -29.6274 -29.3950 -29.3570 -29.2805
   -20.3801 -20.3283 -20.2731 -20.2456 -20.2350 -20.2300 -20.2262 -20.2076
   -20.1905 -20.1235 -20.0205 -20.0124 -19.9646 -19.9624 -19.9092 -19.9065
   -19.8876 -19.8871 -19.8673 -19.8620 -19.8494 -19.8486 -19.8337 -19.8282
   -19.8246 -19.8240 -19.8229 -19.8191 -19.7573 -19.7569  -8.7340  -7.2970
    -6.2051  -5.7100  -4.6562  -4.1203  -2.6205  -2.0772  -1.8795  -1.7455
    -1.6032  -1.0783  -0.9670  -0.8909  -0.0958   0.2463   0.2598   0.2913
     0.4015   0.8289   1.0041   1.1899   1.1937   1.2948   1.4126   1.5001
     2.0027   2.2716   2.5987   2.6968   2.7138   2.8044   3.3693   3.3946
     3.5578   3.6490   3.8405   3.9180   4.0663   4.2144   4.3383   4.4435
     4.5027   4.5274   4.7809   4.7823   4.8388   4.9278   5.0276   5.3006
     5.4971   5.5224   5.6260   5.7627

[...]

          k =-0.0801 0.0428 0.0000 ( 21940 PWs)   bands (ev):

[...]

     the Fermi energy is     1.6734 ev

!    total energy              =   -1927.66955079 Ry
     Harris-Foulkes estimate   =   -1927.66954787 Ry
     estimated scf accuracy    <       0.00000036 Ry

     The total energy is the sum of the following terms:

     one-electron contribution =  -10176.18802362 Ry
     hartree contribution      =    5114.10832418 Ry
     xc contribution           =    -731.46833855 Ry
     ewald contribution        =    3865.93096501 Ry
     electric field correction =       0.00000000 Ry
     smearing contrib. (-TS)   =      -0.05247781 Ry

     convergence has been achieved in  17 iterations

 BEEF-vdW xc energy contributions
           1 :   -654.854800553168
           2 :    605.944674708113
           3 :   -520.563208793602
           4 :    418.468928750545
           5 :   -319.447276153664
           6 :    237.161715458052
           7 :   -176.636259149026
[...]

     Program PWSCF v.5.1rc2 (svn rev. 11289) starts on 19Dec2018 at  6: 0:45

[...]

   This run was terminated on:   6: 7:26  19Dec2018

[...]

     Program PWSCF v.5.1rc2 (svn rev. 11289) starts on 19Dec2018 at  6: 7:33

[...]

   This run was terminated on:   6:14:29  19Dec2018

[...]

     Program PWSCF v.5.1rc2 (svn rev. 11289) starts on 19Dec2018 at  6:28:39

     Current dimensions of program PWSCF are:
     Max number of different atomic species (ntypx) = 10
     Max number of k-points (npk) =  40000
     Max angular momentum in pseudopotentials (lmaxx) =  3
     Presently stress not available with electric field

     IMPORTANT: XC functional enforced from input :
     Exchange-correlation      = BEEF-VDW ( 1  4 27 13 2)
     Any further DFT definition will be discarded
     Please, verify this is what you really want

     Subspace diagonalization in iterative solution of the eigenvalue problem:
     a serial algorithm will be used

     Found symmetry operation: I + (  0.5000 -0.5000  0.0000)
     This is a supercell, fractional translations are disabled

     bravais-lattice index     =            0
     lattice parameter (alat)  =       1.8897  a.u.
     unit-cell volume          =    5834.4175 (a.u.)^3
     number of atoms/cell      =           12
     number of atomic types    =            2
     number of electrons       =       156.00
     number of Kohn-Sham states=          108
     kinetic-energy cutoff     =      36.7493  Ry
     charge density cutoff     =     367.4932  Ry
     convergence threshold     =      1.0E-06
     mixing beta               =       0.1000
     number of iterations used =           10  plain     mixing
     Exchange-correlation      = BEEF-VDW ( 1  4 27 13 2)
     nstep                     =           50

     celldm(1)=   1.889726  celldm(2)=   0.000000  celldm(3)=   0.000000
     celldm(4)=   0.000000  celldm(5)=   0.000000  celldm(6)=   0.000000

     crystal axes: (cart. coord. in units of alat)
               a(1) = (   6.243799   0.000000   0.000000 )
               a(2) = (   2.940514   5.508031   0.000000 )
               a(3) = (   0.000000   0.000000  25.139440 )

     reciprocal axes: (cart. coord. in units 2 pi/alat)
               b(1) = (  0.160159 -0.085502  0.000000 )
               b(2) = (  0.000000  0.181553  0.000000 )
               b(3) = (  0.000000  0.000000  0.039778 )

     PseudoPot. # 1 for Sn read from file:
     /afs/slac.stanford.edu/u/if/mamunm/psp/gbrv1.5pbe/Sn.UPF
     MD5 check sum: 469debedee59599fedebd795477fea03
     Pseudo is Ultrasoft + core correction, Zval = 14.0
     Generated by new atomic code, or converted to UPF format
     Using radial grid of  891 points,  6 beta functions with:
                l(1) =   0
                l(2) =   0
                l(3) =   1
                l(4) =   1
                l(5) =   2
                l(6) =   2
     Q(r) pseudized with  8 coefficients,  rinner =    1.350   1.350   1.350
                                                       1.350   1.350

     PseudoPot. # 2 for Hf read from file:
     /afs/slac.stanford.edu/u/if/mamunm/psp/gbrv1.5pbe/Hf.UPF
     MD5 check sum: 8ee9378dfe14276e333edf04c5e4aa26
     Pseudo is Ultrasoft + core correction, Zval = 12.0
     Generated by new atomic code, or converted to UPF format
     Using radial grid of  921 points,  8 beta functions with:
                l(1) =   0
                l(2) =   0
                l(3) =   0
                l(4) =   1
                l(5) =   1
                l(6) =   2
                l(7) =   2
                l(8) =   3
     Q(r) pseudized with  6 coefficients,  rinner =    1.200   1.200   1.200
                                                       1.200   1.200   1.200
                                                       1.200

     vdW kernel table read from file vdW_kernel_table
     MD5 check sum: 095c7af220d748ca6e76c0b4c6cfb241

     atomic species   valence    mass     pseudopotential
        Sn1           14.00   118.71000     Sn( 1.00)
        Hf1           12.00   178.49000     Hf( 1.00)

     No symmetry found

   Cartesian axes

     site n.     atom                  positions (alat units)
         1           Sn1 tau(   1) = (   0.0000000   0.0000000  10.0000000  )
         2           Sn1 tau(   2) = (   4.5921564   2.7540155  10.0000000  )
         3           Hf1 tau(   3) = (   3.1218996   0.0000000  10.0000000  )
         4           Hf1 tau(   4) = (   1.4702569   2.7540155  10.0000000  )
         5           Sn1 tau(   5) = (   6.2437991   3.7445414  12.5697199  )
         6           Sn1 tau(   6) = (   1.6516427   0.9905258  12.5697199  )
         7           Hf1 tau(   7) = (   3.1218996   3.7445414  12.5697199  )
         8           Hf1 tau(   8) = (   4.7735423   0.9905258  12.5697199  )
         9           Sn1 tau(   9) = (   3.3265971   1.9950257  15.3997995  )
        10           Sn1 tau(  10) = (   7.9187502   4.7490629  15.3998055  )
        11           Hf1 tau(  11) = (   6.4063151   1.9697385  14.9945584  )
        12           Hf1 tau(  12) = (   4.7546661   4.7237490  14.9945777  )

     number of k points=    20  Fermi-Dirac smearing, width (Ry)=  0.0110
                       cart. coord. in units 2pi/alat
        k(    1) = (   0.0000000   0.0000000   0.0000000), wk =   0.0555556
        k(    2) = (   0.0000000   0.0302588   0.0000000), wk =   0.1111111
        k(    3) = (   0.0000000   0.0605177   0.0000000), wk =   0.1111111
        k(    4) = (   0.0000000  -0.0907765   0.0000000), wk =   0.0555556
        k(    5) = (   0.0266932  -0.0142504   0.0000000), wk =   0.1111111
        k(    6) = (   0.0266932   0.0160085   0.0000000), wk =   0.1111111
        k(    7) = (   0.0266932   0.0462673   0.0000000), wk =   0.1111111
        k(    8) = (   0.0266932  -0.1050269   0.0000000), wk =   0.1111111
        k(    9) = (   0.0266932  -0.0747681   0.0000000), wk =   0.1111111
        k(   10) = (   0.0266932  -0.0445092   0.0000000), wk =   0.1111111
        k(   11) = (   0.0533863  -0.0285008   0.0000000), wk =   0.1111111
        k(   12) = (   0.0533863   0.0017581   0.0000000), wk =   0.1111111
        k(   13) = (   0.0533863   0.0320169   0.0000000), wk =   0.1111111
        k(   14) = (   0.0533863  -0.1192773   0.0000000), wk =   0.1111111
        k(   15) = (   0.0533863  -0.0890185   0.0000000), wk =   0.1111111
        k(   16) = (   0.0533863  -0.0587596   0.0000000), wk =   0.1111111
        k(   17) = (  -0.0800795   0.0427512   0.0000000), wk =   0.0555556
        k(   18) = (  -0.0800795   0.0730100   0.0000000), wk =   0.1111111
        k(   19) = (  -0.0800795   0.1032689   0.0000000), wk =   0.1111111
        k(   20) = (  -0.0800795  -0.0480254   0.0000000), wk =   0.0555556

     Largest allocated arrays     est. size (Mb)     dimensions
     Largest temporary arrays     est. size (Mb)     dimensions

     Check: negative/imaginary core charge=   -0.000003    0.000000

     Initial potential from superposition of free atoms
     Check: negative starting charge=   -0.647206

     starting charge  137.99972, renormalised to  156.00000

[...]

     *
     * You are using vdW-DF for exchange-correlation in this calculation.
     * Please cite the following three references that made this development
     * possible:
     *
     *   M. Dion, H. Rydberg, E. Schroder, D. C. Langreth, and
     *   B. I. Lundqvist, Phys. Rev. Lett. 92, 246401 (2004).
     *
     *   T. Thonhauser, V. R. Cooper, S. Li, A. Puzder, P. Hyldgaard, and
     *   D. C. Langreth, Phys. Rev. B 76, 125112 (2007).
     *
     *   G. Roman-Perez and J. M. Soler, Phys. Rev. Lett. 103, 096102 (2009).
     *
     *
     * If you are using vdW-DF2, please also cite:
     *
     *   K. Lee, E. D. Murray, L. Kong, B. I. Lundqvist, and
     *   D. C. Langreth, Phys. Rev. B 82, 081101(R) (2010).
     *
     *
     * If you are calculating the stress with vdW-DF, please also cite:
     *
     *   R. Sabatini, E. Kucukbenli, B. Kolb, T. Thonhauser, and
     *   S. de Gironcoli, J. Phys.: Condens. Matter 24, 424209 (2012).
     *

     Carrying out vdW-DF run using the following parameters:

     Nqs =      20    Nr_points =    1024   r_max =   100.000
     q_mesh =
               0.00001000     0.04494208     0.09755937     0.15916263
               0.23128650     0.31572767     0.41458969     0.53033537
               0.66584808     0.82450364     1.01025438     1.22772762
               1.48234092     1.78043706     2.12944203     2.53805004
               3.01644009     3.57652955     4.23227104     5.00000000

     Gradients computed in reciprocal space

[...]

     Starting wfc are  132 randomized atomic wfcs

     Self-consistent Calculation

[...]

     total energy              =   -1927.69671202 Ry
     Harris-Foulkes estimate   =   -1927.69671210 Ry
     estimated scf accuracy    <       0.00000306 Ry

     iteration # 19     ecut=    36.75 Ry     beta=0.10
     Davidson diagonalization with overlap
     ethr =  1.96E-09,  avg # of iterations =  2.0

[...]

     negative rho (up, down):  6.816E-01 0.000E+00

     Adding external electric field

     Computed dipole along edir(3) :
        Dipole               -0.0516 Ry au,         -0.1312 Debye
        Dipole field         -0.0001 Ry au

        Potential amp.        0.0103 Ry
        Total length         46.3190 bohr

     End of self-consistent calculation

[...]

          k = 0.0534-0.0588 0.0000 ( 21971 PWs)   bands (ev):

[...]

          k =-0.0801-0.0480 0.0000 ( 21956 PWs)   bands (ev):

   -61.5814 -61.5658 -61.4044 -61.3886 -61.0255 -61.0094 -30.2388 -30.2014
   -30.1069 -30.0877 -30.0657 -30.0479 -30.0267 -29.9600 -29.9395 -29.8994
   -29.7609 -29.7214 -29.6981 -29.6813 -29.6097 -29.4205 -29.3846 -29.3405
   -20.3915 -20.3322 -20.2882 -20.2556 -20.2385 -20.2341 -20.2296 -20.2146
   -20.2128 -20.1402 -20.0744 -20.0613 -20.0217 -20.0038 -19.9552 -19.9467
   -19.9298 -19.9249 -19.9218 -19.9141 -19.9024 -19.8860 -19.8825 -19.8817
   -19.8782 -19.8680 -19.8666 -19.8516 -19.8149 -19.7887  -7.7717  -6.9713
    -6.2153  -5.5228  -4.3873  -4.1915  -3.8101  -3.2722  -3.1639  -2.4892
    -2.3660  -2.0041  -1.6509  -1.0397  -0.7396  -0.6745  -0.2528  -0.2486
     0.6390   0.7338   1.1015   1.2349   1.5570   2.1409   2.2425   2.2554
     2.6237   2.6386   2.7464   2.8342   2.9165   2.9637   3.2782   3.3351
     3.7733   3.8027   4.0138   4.2589   4.4282   4.5149   4.7273   4.8623
     5.1559   5.3189   5.5431   5.5736   5.6766   5.9249   5.9909   6.0201
     6.0937   6.1826   6.2966   6.3019

     the Fermi energy is     1.6031 ev

!    total energy              =   -1927.69671398 Ry
     Harris-Foulkes estimate   =   -1927.69671271 Ry
     estimated scf accuracy    <       0.00000075 Ry

     The total energy is the sum of the following terms:

     one-electron contribution =  -10064.15246799 Ry
     hartree contribution      =    5057.92581524 Ry
     xc contribution           =    -731.42832015 Ry
     ewald contribution        =    3810.00792626 Ry
     electric field correction =       0.00000574 Ry
     smearing contrib. (-TS)   =      -0.04967308 Ry

     convergence has been achieved in  19 iterations

 BEEF-vdW xc energy contributions
           1 :   -654.812514649023
           2 :    605.870243461266
           3 :   -520.445627517650
           4 :    418.323372502678
           5 :   -319.302692399177
           6 :    237.043177191171
           7 :   -176.550191889766
           8 :    135.569720070433
           9 :   -108.347952126648
          10 :    89.3815286547070
          11 :   -75.4239504276692
          12 :    65.3311083696183
          13 :   -58.6418471965761
          14 :    54.2470274934578
          15 :   -50.1230908011838
          16 :    44.1702499019800
          17 :   -35.4402781735065
          18 :    24.8178507489898
          19 :   -14.6649894841278
          20 :    7.62312695767753
          21 :   -5.29245621271582
          22 :    7.51453140080400
          23 :   -12.5793947029325
          24 :    18.1206959525815
          25 :   -22.1412145193688
          26 :    23.6441601795622
          27 :   -22.6752601447261
          28 :    19.9296265735657
          29 :   -16.2706483371690
          30 :    12.4396581345362
          31 :   -50.6226877648688
          32 :   -36.7133582293586

     Forces acting on atoms (Ry/au):

     negative rho (up, down):  6.816E-01 0.000E+00
     atom    1 type  1   force =    -0.00421532   -0.00253378   -0.03242139
     atom    2 type  1   force =    -0.00422072   -0.00252389   -0.03242338
     atom    3 type  2   force =     0.00689636    0.00413486    0.03228789
     atom    4 type  2   force =     0.00689535    0.00413388    0.03228601
     atom    5 type  1   force =     0.00891524    0.00535139   -0.00701214
     atom    6 type  1   force =     0.00892317    0.00534957   -0.00701073
     atom    7 type  2   force =    -0.01310309   -0.00785826    0.00718443
     atom    8 type  2   force =    -0.01310073   -0.00785717    0.00718318
     atom    9 type  1   force =     0.00128273    0.00077342    0.00002486
     atom   10 type  1   force =     0.00128375    0.00076523    0.00002456
     atom   11 type  2   force =     0.00022103    0.00013169   -0.00005956
     atom   12 type  2   force =     0.00022224    0.00013306   -0.00006372

     Total force =     0.072487     Total SCF correction =     0.004560

     entering subroutine stress ...

     negative rho (up, down):  6.816E-01 0.000E+00
          total   stress  (Ry/bohr**3)                   (kbar)     P=  -16.31
  -0.00017360  -0.00003710  -0.00000365        -25.54     -5.46     -0.54
  -0.00003710  -0.00013398  -0.00000219         -5.46    -19.71     -0.32
  -0.00000365  -0.00000219  -0.00002508         -0.54     -0.32     -3.69

 !ASE

     Writing output data file calc.save

     General routines

     Parallel routines

   This run was terminated on:   6:36:10  19Dec2018

   JOB DONE.
Job  /afs/slac/g/suncat/bin/suncat-tsmpirun -x LD_LIBRARY_PATH -wdir /scratch/qe530601_hID0P pw.x -in pw.inp

TID   HOST_NAME   COMMAND_LINE            STATUS            TERMINATION_TIME
00000 suncat2063 pw.x -in pw.inp   Done                     12/19/2018 06:36:10
00001 suncat2063 pw.x -in pw.inp   Done                     12/19/2018 06:36:10
00002 suncat2063 pw.x -in pw.inp   Done                     12/19/2018 06:36:10
00003 suncat2063 pw.x -in pw.inp   Done                     12/19/2018 06:36:10
00004 suncat2063 pw.x -in pw.inp   Done                     12/19/2018 06:36:10
00005 suncat2063 pw.x -in pw.inp   Done                     12/19/2018 06:36:10
00006 suncat2063 pw.x -in pw.inp   Done                     12/19/2018 06:36:10
00007 suncat2063 pw.x -in pw.inp   Done                     12/19/2018 06:36:10
00008 suncat2063 pw.x -in pw.inp   Done                     12/19/2018 06:36:10
00009 suncat2063 pw.x -in pw.inp   Done                     12/19/2018 06:36:10
00010 suncat2063 pw.x -in pw.inp   Done                     12/19/2018 06:36:10
00011 suncat2063 pw.x -in pw.inp   Done                     12/19/2018 06:36:10
00012 suncat2063 pw.x -in pw.inp   Done                     12/19/2018 06:36:10
00013 suncat2063 pw.x -in pw.inp   Done                     12/19/2018 06:36:10
00014 suncat2063 pw.x -in pw.inp   Done                     12/19/2018 06:36:10
00015 suncat2063 pw.x -in pw.inp   Done                     12/19/2018 06:36:10
00016 suncat2042 pw.x -in pw.inp   Done                     12/19/2018 06:36:10
00017 suncat2042 pw.x -in pw.inp   Done                     12/19/2018 06:36:10
00018 suncat2042 pw.x -in pw.inp   Done                     12/19/2018 06:36:10
00019 suncat2042 pw.x -in pw.inp   Done                     12/19/2018 06:36:10
00020 suncat2042 pw.x -in pw.inp   Done                     12/19/2018 06:36:10
00021 suncat2042 pw.x -in pw.inp   Done                     12/19/2018 06:36:10
00022 suncat2042 pw.x -in pw.inp   Done                     12/19/2018 06:36:10
00023 suncat2042 pw.x -in pw.inp   Done                     12/19/2018 06:36:10
00024 suncat2042 pw.x -in pw.inp   Done                     12/19/2018 06:36:10
00025 suncat2042 pw.x -in pw.inp   Done                     12/19/2018 06:36:10
00026 suncat2042 pw.x -in pw.inp   Done                     12/19/2018 06:36:10
00027 suncat2042 pw.x -in pw.inp   Done                     12/19/2018 06:36:10
00028 suncat2042 pw.x -in pw.inp   Done                     12/19/2018 06:36:10
00029 suncat2042 pw.x -in pw.inp   Done                     12/19/2018 06:36:10
00030 suncat2042 pw.x -in pw.inp   Done                     12/19/2018 06:36:10
00031 suncat2042 pw.x -in pw.inp   Done                     12/19/2018 06:36:10