     Program PWSCF v.5.1rc2 (svn rev. 11289) starts on 18Dec2018 at 19:24:22

     Current dimensions of program PWSCF are:
     Max number of different atomic species (ntypx) = 10
     Max number of k-points (npk) =  40000
     Max angular momentum in pseudopotentials (lmaxx) =  3
     Presently stress not available with electric field

     IMPORTANT: XC functional enforced from input :
     Exchange-correlation      = BEEF-VDW ( 1  4 27 13 2)
     Any further DFT definition will be discarded
     Please, verify this is what you really want

     Subspace diagonalization in iterative solution of the eigenvalue problem:
     a serial algorithm will be used

     Found symmetry operation: I + ( -0.5000 -0.5000  0.0000)
     This is a supercell, fractional translations are disabled

     bravais-lattice index     =            0
     lattice parameter (alat)  =       1.8897  a.u.
     unit-cell volume          =    5247.3111 (a.u.)^3
     number of atoms/cell      =           12
     number of atomic types    =            2
     number of electrons       =       168.00
     number of Kohn-Sham states=          114
     kinetic-energy cutoff     =      36.7493  Ry
     charge density cutoff     =     367.4932  Ry
     convergence threshold     =      1.0E-06
     mixing beta               =       0.1000
     number of iterations used =           10  plain     mixing
     Exchange-correlation      = BEEF-VDW ( 1  4 27 13 2)
     nstep                     =           50

     celldm(1)=   1.889726  celldm(2)=   0.000000  celldm(3)=   0.000000
     celldm(4)=   0.000000  celldm(5)=   0.000000  celldm(6)=   0.000000

     crystal axes: (cart. coord. in units of alat)
               a(1) = (   5.775918   0.000000   0.000000 )
               a(2) = (   1.921089   5.447077   0.000000 )
               a(3) = (   0.000000   0.000000  24.714720 )

     reciprocal axes: (cart. coord. in units 2 pi/alat)
               b(1) = (  0.173133 -0.061061  0.000000 )
               b(2) = (  0.000000  0.183585  0.000000 )
               b(3) = (  0.000000  0.000000  0.040462 )

     PseudoPot. # 1 for Mo read from file:
     /afs/slac.stanford.edu/u/if/mamunm/psp/gbrv1.5pbe/Mo.UPF
     MD5 check sum: 30c4dcd161f5d35cd49bb5239c51a633
     Pseudo is Ultrasoft + core correction, Zval = 14.0
     Generated by new atomic code, or converted to UPF format
     Using radial grid of  889 points,  6 beta functions with:
                l(1) =   0
                l(2) =   0
                l(3) =   1
                l(4) =   1
                l(5) =   2
                l(6) =   2
     Q(r) pseudized with  6 coefficients,  rinner =    1.000   1.000   1.000
                                                       1.000   1.000

     PseudoPot. # 2 for Sn read from file:
     /afs/slac.stanford.edu/u/if/mamunm/psp/gbrv1.5pbe/Sn.UPF
     MD5 check sum: 469debedee59599fedebd795477fea03
     Pseudo is Ultrasoft + core correction, Zval = 14.0
     Generated by new atomic code, or converted to UPF format
     Using radial grid of  891 points,  6 beta functions with:
                l(1) =   0
                l(2) =   0
                l(3) =   1
                l(4) =   1
                l(5) =   2
                l(6) =   2
     Q(r) pseudized with  8 coefficients,  rinner =    1.350   1.350   1.350
                                                       1.350   1.350

     vdW kernel table read from file vdW_kernel_table
     MD5 check sum: 095c7af220d748ca6e76c0b4c6cfb241

     atomic species   valence    mass     pseudopotential
        Mo1           14.00    95.95000     Mo( 1.00)
        Sn1           14.00   118.71000     Sn( 1.00)

     No symmetry found

   Cartesian axes

     site n.     atom                  positions (alat units)
         1           Mo1 tau(   1) = (   0.0000000   0.0000000  10.0000000  )
         2           Mo1 tau(   2) = (   3.8485036   2.7235384  10.0000000  )
         3           Sn1 tau(   3) = (   2.8879590   0.0000000  10.0000000  )
         4           Sn1 tau(   4) = (   0.9605446   2.7235384  10.0000000  )
         5           Mo1 tau(   5) = (   5.7759181   4.0875458  12.3573598  )
         6           Mo1 tau(   6) = (   1.9274145   1.3640074  12.3573598  )
         7           Sn1 tau(   7) = (   2.8879590   4.0875458  12.3573598  )
         8           Sn1 tau(   8) = (   4.8153735   1.3640074  12.3573598  )
         9           Mo1 tau(   9) = (   3.8548290   2.7280148  14.7147196  )
        10           Mo1 tau(  10) = (   0.0063254   0.0044764  14.7147196  )
        11           Sn1 tau(  11) = (   0.9668699   2.7280148  14.7147196  )
        12           Sn1 tau(  12) = (   2.8942844   0.0044764  14.7147196  )

     number of k points=    20  Fermi-Dirac smearing, width (Ry)=  0.0110
                       cart. coord. in units 2pi/alat
        k(    1) = (   0.0000000   0.0000000   0.0000000), wk =   0.0555556
        k(    2) = (   0.0000000   0.0305975   0.0000000), wk =   0.1111111
        k(    3) = (   0.0000000   0.0611949   0.0000000), wk =   0.1111111
        k(    4) = (   0.0000000  -0.0917924   0.0000000), wk =   0.0555556
        k(    5) = (   0.0288554  -0.0101768   0.0000000), wk =   0.1111111
        k(    6) = (   0.0288554   0.0204206   0.0000000), wk =   0.1111111
        k(    7) = (   0.0288554   0.0510181   0.0000000), wk =   0.1111111
        k(    8) = (   0.0288554  -0.1019692   0.0000000), wk =   0.1111111
        k(    9) = (   0.0288554  -0.0713717   0.0000000), wk =   0.1111111
        k(   10) = (   0.0288554  -0.0407743   0.0000000), wk =   0.1111111
        k(   11) = (   0.0577109  -0.0203536   0.0000000), wk =   0.1111111
        k(   12) = (   0.0577109   0.0102438   0.0000000), wk =   0.1111111
        k(   13) = (   0.0577109   0.0408413   0.0000000), wk =   0.1111111
        k(   14) = (   0.0577109  -0.1121460   0.0000000), wk =   0.1111111
        k(   15) = (   0.0577109  -0.0815485   0.0000000), wk =   0.1111111
        k(   16) = (   0.0577109  -0.0509511   0.0000000), wk =   0.1111111
        k(   17) = (  -0.0865663   0.0305304   0.0000000), wk =   0.0555556
        k(   18) = (  -0.0865663   0.0611279   0.0000000), wk =   0.1111111
        k(   19) = (  -0.0865663   0.0917253   0.0000000), wk =   0.1111111
        k(   20) = (  -0.0865663  -0.0612619   0.0000000), wk =   0.0555556

     Largest allocated arrays     est. size (Mb)     dimensions
     Largest temporary arrays     est. size (Mb)     dimensions

     Initial potential from superposition of free atoms
     Check: negative starting charge=   -0.004097

     starting charge  161.99335, renormalised to  168.00000

     negative rho (up, down):  4.249E-03 0.000E+00

     *
     * You are using vdW-DF for exchange-correlation in this calculation.
     * Please cite the following three references that made this development
     * possible:
     *
     *   M. Dion, H. Rydberg, E. Schroder, D. C. Langreth, and
     *   B. I. Lundqvist, Phys. Rev. Lett. 92, 246401 (2004).
     *
     *   T. Thonhauser, V. R. Cooper, S. Li, A. Puzder, P. Hyldgaard, and
     *   D. C. Langreth, Phys. Rev. B 76, 125112 (2007).
     *
     *   G. Roman-Perez and J. M. Soler, Phys. Rev. Lett. 103, 096102 (2009).
     *
     *
     * If you are using vdW-DF2, please also cite:
     *
     *   K. Lee, E. D. Murray, L. Kong, B. I. Lundqvist, and
     *   D. C. Langreth, Phys. Rev. B 82, 081101(R) (2010).
     *
     *
     * If you are calculating the stress with vdW-DF, please also cite:
     *
     *   R. Sabatini, E. Kucukbenli, B. Kolb, T. Thonhauser, and
     *   S. de Gironcoli, J. Phys.: Condens. Matter 24, 424209 (2012).
     *

     Carrying out vdW-DF run using the following parameters:

     Nqs =      20    Nr_points =    1024   r_max =   100.000
     q_mesh =
               0.00001000     0.04494208     0.09755937     0.15916263
               0.23128650     0.31572767     0.41458969     0.53033537
               0.66584808     0.82450364     1.01025438     1.22772762
               1.48234092     1.78043706     2.12944203     2.53805004
               3.01644009     3.57652955     4.23227104     5.00000000

     Gradients computed in reciprocal space

     Adding external electric field

     Computed dipole along edir(3) :
        Dipole               -0.0000 Ry au,         -0.0000 Debye
        Dipole field         -0.0000 Ry au

        Potential amp.        0.0000 Ry
        Total length         45.5365 bohr

     Starting wfc are  132 randomized atomic wfcs

     Self-consistent Calculation

     iteration #  1     ecut=    36.75 Ry     beta=0.10
     Davidson diagonalization with overlap
     ethr =  1.00E-02,  avg # of iterations =  7.2

[...]

     total energy              =   -1804.14478463 Ry
     Harris-Foulkes estimate   =   -1804.65190189 Ry
     estimated scf accuracy    <       3.17418255 Ry

[...]

     End of self-consistent calculation

          k = 0.0000 0.0000 0.0000 ( 19799 PWs)   bands (ev):

   -59.2720 -59.2713 -59.2623 -59.2623 -59.2014 -59.1927 -33.4149 -33.4137
   -33.3860 -33.3786 -33.3614 -33.3494 -33.3469 -33.3128 -33.2846 -33.2795
   -33.2795 -33.2716 -33.2666 -33.2567 -33.2543 -33.2414 -33.2031 -33.1415
   -19.9440 -19.9313 -19.8897 -19.8882 -19.8832 -19.8788 -19.8720 -19.8554
   -19.8380 -19.7857 -19.7676 -19.7637 -19.7395 -19.7278 -19.6992 -19.6970
   -19.6851 -19.6802 -19.6772 -19.6752 -19.6447 -19.6436 -19.6422 -19.6408
   -19.6391 -19.6338 -19.6169 -19.6036 -19.5682 -19.5597  -8.5592  -6.9855
    -5.7540  -5.6224  -5.1017  -5.0374  -2.0849  -1.9202  -1.2626  -1.1659
    -1.1260  -1.0126  -0.8216  -0.6813  -0.2779   0.0473   0.1010   0.1556
     0.2352   0.5872   0.7451   0.8421   0.9177   0.9583   1.2892   1.4345
     1.4366   1.4520   1.6310   1.6662   1.6683   1.7176   1.9790   2.0180
     2.0486   2.1175   2.4036   2.4649   3.1087   3.3704   3.3878   3.4503
     3.8681   3.9230   4.3089   4.4983   4.9166   4.9646   5.1532   5.1924
     5.7063   5.7192   5.7358   5.8649   6.2610   6.4250   6.4464   6.6220
     6.8791   7.0239

[...]

          k =-0.0866 0.0305 0.0000 ( 19774 PWs)   bands (ev):

[...]

     the Fermi energy is     1.7225 ev

!    total energy              =   -1803.60309954 Ry
     Harris-Foulkes estimate   =   -1803.60309863 Ry
     estimated scf accuracy    <       0.00000062 Ry

     The total energy is the sum of the following terms:

     one-electron contribution =  -13264.97908039 Ry
     hartree contribution      =    6663.63188611 Ry
     xc contribution           =    -387.60225356 Ry
     ewald contribution        =    5185.43253684 Ry
     electric field correction =       0.00000000 Ry
     smearing contrib. (-TS)   =      -0.08618854 Ry

     convergence has been achieved in  17 iterations

 BEEF-vdW xc energy contributions
           1 :   -338.324847173733
           2 :    309.881864642465
           3 :   -261.438306616004
           4 :    206.216172773865
           5 :   -157.007918039706
           6 :    121.767949696676
           7 :   -101.804437545146
           8 :    92.9401110296508
           9 :   -88.6907581896504
          10 :    83.6894588150617
          11 :   -75.7638081075377
[...]
00031 suncat2057 pw.x -in pw.inp   Done                     12/18/2018 19:29:21

[...]

     iteration #  8     ecut=    36.75 Ry     beta=0.10
     Davidson diagonalization with overlap
     c_bands:  3 eigenvalues not converged
     ethr =  1.64E-05,  avg # of iterations =  7.8

[...]

   This run was terminated on:  19:46: 9  18Dec2018

[...]

     Program PWSCF v.5.1rc2 (svn rev. 11289) starts on 18Dec2018 at 19:46:16

     Current dimensions of program PWSCF are:
     Max number of different atomic species (ntypx) = 10
     Max number of k-points (npk) =  40000
     Max angular momentum in pseudopotentials (lmaxx) =  3
     Presently stress not available with electric field

     IMPORTANT: XC functional enforced from input :
     Exchange-correlation      = BEEF-VDW ( 1  4 27 13 2)
     Any further DFT definition will be discarded
     Please, verify this is what you really want

     Subspace diagonalization in iterative solution of the eigenvalue problem:
     a serial algorithm will be used

     bravais-lattice index     =            0
     lattice parameter (alat)  =       1.8897  a.u.
     unit-cell volume          =    5247.3111 (a.u.)^3
     number of atoms/cell      =           12
     number of atomic types    =            2
     number of electrons       =       168.00
     number of Kohn-Sham states=          114
     kinetic-energy cutoff     =      36.7493  Ry
     charge density cutoff     =     367.4932  Ry
     convergence threshold     =      1.0E-06
     mixing beta               =       0.1000
     number of iterations used =           10  plain     mixing
     Exchange-correlation      = BEEF-VDW ( 1  4 27 13 2)
     nstep                     =           50

     celldm(1)=   1.889726  celldm(2)=   0.000000  celldm(3)=   0.000000
     celldm(4)=   0.000000  celldm(5)=   0.000000  celldm(6)=   0.000000

     crystal axes: (cart. coord. in units of alat)
               a(1) = (   5.775918   0.000000   0.000000 )
               a(2) = (   1.921089   5.447077   0.000000 )
               a(3) = (   0.000000   0.000000  24.714720 )

     reciprocal axes: (cart. coord. in units 2 pi/alat)
               b(1) = (  0.173133 -0.061061  0.000000 )
               b(2) = (  0.000000  0.183585  0.000000 )
               b(3) = (  0.000000  0.000000  0.040462 )

     PseudoPot. # 1 for Mo read from file:
     /afs/slac.stanford.edu/u/if/mamunm/psp/gbrv1.5pbe/Mo.UPF
     MD5 check sum: 30c4dcd161f5d35cd49bb5239c51a633
     Pseudo is Ultrasoft + core correction, Zval = 14.0
     Generated by new atomic code, or converted to UPF format
     Using radial grid of  889 points,  6 beta functions with:
                l(1) =   0
                l(2) =   0
                l(3) =   1
                l(4) =   1
                l(5) =   2
                l(6) =   2
     Q(r) pseudized with  6 coefficients,  rinner =    1.000   1.000   1.000
                                                       1.000   1.000

     PseudoPot. # 2 for Sn read from file:
     /afs/slac.stanford.edu/u/if/mamunm/psp/gbrv1.5pbe/Sn.UPF
     MD5 check sum: 469debedee59599fedebd795477fea03
     Pseudo is Ultrasoft + core correction, Zval = 14.0
     Generated by new atomic code, or converted to UPF format
     Using radial grid of  891 points,  6 beta functions with:
                l(1) =   0
                l(2) =   0
                l(3) =   1
                l(4) =   1
                l(5) =   2
                l(6) =   2
     Q(r) pseudized with  8 coefficients,  rinner =    1.350   1.350   1.350
                                                       1.350   1.350

     vdW kernel table read from file vdW_kernel_table
     MD5 check sum: 095c7af220d748ca6e76c0b4c6cfb241

     atomic species   valence    mass     pseudopotential
        Mo1           14.00    95.95000     Mo( 1.00)
        Sn1           14.00   118.71000     Sn( 1.00)

     No symmetry found

   Cartesian axes

     site n.     atom                  positions (alat units)
         1           Mo1 tau(   1) = (   0.0000000   0.0000000  10.0000000  )
         2           Mo1 tau(   2) = (   3.8485036   2.7235384  10.0000000  )
         3           Sn1 tau(   3) = (   2.8879590   0.0000000  10.0000000  )
         4           Sn1 tau(   4) = (   0.9605446   2.7235384  10.0000000  )
         5           Mo1 tau(   5) = (   5.7759181   4.0875458  12.3573598  )
         6           Mo1 tau(   6) = (   1.9274145   1.3640074  12.3573598  )
         7           Sn1 tau(   7) = (   2.8879590   4.0875458  12.3573598  )
         8           Sn1 tau(   8) = (   4.8153735   1.3640074  12.3573598  )
         9           Mo1 tau(   9) = (   3.8549744   2.7281163  14.5198769  )
        10           Mo1 tau(  10) = (   0.0063755   0.0045125  14.5198837  )
        11           Sn1 tau(  11) = (   0.9667572   2.7276079  14.8802912  )
        12           Sn1 tau(  12) = (   2.8938611   0.0044998  14.8802771  )

     number of k points=    20  Fermi-Dirac smearing, width (Ry)=  0.0110
                       cart. coord. in units 2pi/alat
        k(    1) = (   0.0000000   0.0000000   0.0000000), wk =   0.0555556
        k(    2) = (   0.0000000   0.0305975   0.0000000), wk =   0.1111111
        k(    3) = (   0.0000000   0.0611949   0.0000000), wk =   0.1111111
        k(    4) = (   0.0000000  -0.0917924   0.0000000), wk =   0.0555556
        k(    5) = (   0.0288554  -0.0101768   0.0000000), wk =   0.1111111
        k(    6) = (   0.0288554   0.0204206   0.0000000), wk =   0.1111111
        k(    7) = (   0.0288554   0.0510181   0.0000000), wk =   0.1111111
        k(    8) = (   0.0288554  -0.1019692   0.0000000), wk =   0.1111111
        k(    9) = (   0.0288554  -0.0713717   0.0000000), wk =   0.1111111
        k(   10) = (   0.0288554  -0.0407743   0.0000000), wk =   0.1111111
        k(   11) = (   0.0577109  -0.0203536   0.0000000), wk =   0.1111111
        k(   12) = (   0.0577109   0.0102438   0.0000000), wk =   0.1111111
        k(   13) = (   0.0577109   0.0408413   0.0000000), wk =   0.1111111
        k(   14) = (   0.0577109  -0.1121460   0.0000000), wk =   0.1111111
        k(   15) = (   0.0577109  -0.0815485   0.0000000), wk =   0.1111111
        k(   16) = (   0.0577109  -0.0509511   0.0000000), wk =   0.1111111
        k(   17) = (  -0.0865663   0.0305304   0.0000000), wk =   0.0555556
        k(   18) = (  -0.0865663   0.0611279   0.0000000), wk =   0.1111111
        k(   19) = (  -0.0865663   0.0917253   0.0000000), wk =   0.1111111
        k(   20) = (  -0.0865663  -0.0612619   0.0000000), wk =   0.0555556

     Largest allocated arrays     est. size (Mb)     dimensions
     Largest temporary arrays     est. size (Mb)     dimensions

     Initial potential from superposition of free atoms
     Check: negative starting charge=   -0.004115

     starting charge  161.99335, renormalised to  168.00000

[...]

     *
     * You are using vdW-DF for exchange-correlation in this calculation.
     * Please cite the following three references that made this development
     * possible:
     *
     *   M. Dion, H. Rydberg, E. Schroder, D. C. Langreth, and
     *   B. I. Lundqvist, Phys. Rev. Lett. 92, 246401 (2004).
     *
     *   T. Thonhauser, V. R. Cooper, S. Li, A. Puzder, P. Hyldgaard, and
     *   D. C. Langreth, Phys. Rev. B 76, 125112 (2007).
     *
     *   G. Roman-Perez and J. M. Soler, Phys. Rev. Lett. 103, 096102 (2009).
     *
     *
     * If you are using vdW-DF2, please also cite:
     *
     *   K. Lee, E. D. Murray, L. Kong, B. I. Lundqvist, and
     *   D. C. Langreth, Phys. Rev. B 82, 081101(R) (2010).
     *
     *
     * If you are calculating the stress with vdW-DF, please also cite:
     *
     *   R. Sabatini, E. Kucukbenli, B. Kolb, T. Thonhauser, and
     *   S. de Gironcoli, J. Phys.: Condens. Matter 24, 424209 (2012).
     *

     Carrying out vdW-DF run using the following parameters:

     Nqs =      20    Nr_points =    1024   r_max =   100.000
     q_mesh =
               0.00001000     0.04494208     0.09755937     0.15916263
               0.23128650     0.31572767     0.41458969     0.53033537
               0.66584808     0.82450364     1.01025438     1.22772762
               1.48234092     1.78043706     2.12944203     2.53805004
               3.01644009     3.57652955     4.23227104     5.00000000

     Gradients computed in reciprocal space

[...]

     Starting wfc are  132 randomized atomic wfcs

     Self-consistent Calculation

[...]

     iteration # 11     ecut=    36.75 Ry     beta=0.10
     Davidson diagonalization with overlap
     c_bands:  1 eigenvalues not converged
     ethr =  1.44E-06,  avg # of iterations =  3.1

[...]

     total energy              =   -1803.63494351 Ry
     Harris-Foulkes estimate   =   -1803.63494287 Ry
     estimated scf accuracy    <       0.00000142 Ry

     iteration # 19     ecut=    36.75 Ry     beta=0.10
     Davidson diagonalization with overlap
     ethr =  8.48E-10,  avg # of iterations =  2.1

[...]

     negative rho (up, down):  3.680E-03 0.000E+00

     Adding external electric field

     Computed dipole along edir(3) :
        Dipole               -0.0068 Ry au,         -0.0172 Debye
        Dipole field         -0.0000 Ry au

        Potential amp.        0.0015 Ry
        Total length         45.5365 bohr

     End of self-consistent calculation

[...]

          k = 0.0577-0.0510 0.0000 ( 19746 PWs)   bands (ev):

[...]

          k =-0.0866-0.0613 0.0000 ( 19634 PWs)   bands (ev):

   -59.3081 -59.3073 -59.3067 -59.3049 -59.2964 -59.2888 -33.4937 -33.4692
   -33.4531 -33.4460 -33.4206 -33.4116 -33.3884 -33.3792 -33.3766 -33.3414
   -33.3272 -33.3162 -33.3153 -33.3053 -33.2985 -33.2751 -33.2628 -33.2410
   -19.9282 -19.8873 -19.8845 -19.8770 -19.8659 -19.8608 -19.8598 -19.8432
   -19.8389 -19.8352 -19.8233 -19.7784 -19.7715 -19.7712 -19.7678 -19.7512
   -19.7468 -19.7222 -19.7183 -19.7099 -19.7092 -19.7083 -19.7021 -19.7019
   -19.6715 -19.6693 -19.6651 -19.6416 -19.6394 -19.5994  -7.0134  -6.7145
    -5.9981  -5.9913  -4.8356  -3.7238  -3.5367  -3.2011  -2.8713  -2.4824
    -2.3776  -2.3448  -1.6599  -1.2480  -1.1522  -0.5024  -0.1329  -0.0810
    -0.0105   0.0866   0.3894   0.4788   0.5060   0.6658   0.7762   1.1481
     1.2621   1.3071   1.7057   1.9102   2.1554   2.2172   2.2915   2.3774
     2.4985   2.5049   2.8326   2.9233   3.0656   3.6784   3.8628   3.8648
     4.1131   4.4585   4.4805   4.8729   5.5007   5.7600   6.0399   6.4066
     6.5861   6.7037   6.9204   6.9869   7.1958   7.3679   7.9816   8.0105
     8.1276   8.1674

     the Fermi energy is     1.6822 ev

!    total energy              =   -1803.63494410 Ry
     Harris-Foulkes estimate   =   -1803.63494386 Ry
     estimated scf accuracy    <       0.00000072 Ry

     The total energy is the sum of the following terms:

     one-electron contribution =  -13282.98648037 Ry
     hartree contribution      =    6672.31871989 Ry
     xc contribution           =    -387.60230747 Ry
     ewald contribution        =    5194.71904230 Ry
     electric field correction =       0.00000011 Ry
     smearing contrib. (-TS)   =      -0.08391856 Ry

     convergence has been achieved in  19 iterations

 BEEF-vdW xc energy contributions
           1 :   -338.329275710222
           2 :    309.895158503154
           3 :   -261.453223022433
           4 :    206.208870280455
           5 :   -156.954414660484
           6 :    121.663545910461
           7 :   -101.667255380235
           8 :    92.7968856815045
           9 :   -88.5596226928610
          10 :    83.5743439113330
          11 :   -75.6606734221866
          12 :    65.8560277881862
          13 :   -56.8092759548815
          14 :    50.7200185690921
          15 :   -48.0206412509762
          16 :    47.3604428371913
          17 :   -46.6515151721142
          18 :    44.3793890118082
          19 :   -40.3774191955765
          20 :    35.6906257852878
          21 :   -31.7493637858946
          22 :    29.4382133241670
          23 :   -28.6333124935381
          24 :    28.4160915355039
          25 :   -27.7405016550509
          26 :    26.0790629232300
          27 :   -23.6562049371672
          28 :    21.1806064490529
          29 :   -19.3179311110834
          30 :    18.2720837897137
          31 :   -32.2810968804780
          32 :   -24.0671365584101

     Forces acting on atoms (Ry/au):

     negative rho (up, down):  3.680E-03 0.000E+00
     atom    1 type  1   force =    -0.00001912   -0.00001370    0.05253031
     atom    2 type  1   force =    -0.00001314   -0.00000965    0.05253028
     atom    3 type  2   force =     0.00010381    0.00004972   -0.03308107
     atom    4 type  2   force =     0.00008603    0.00008512   -0.03307977
     atom    5 type  1   force =     0.00002452    0.00001646    0.01846120
     atom    6 type  1   force =     0.00002345    0.00001670    0.01842837
     atom    7 type  2   force =    -0.00014781   -0.00008022   -0.03871266
     atom    8 type  2   force =    -0.00012520   -0.00011363   -0.03871470
     atom    9 type  1   force =     0.00004836    0.00003351   -0.00022875
     atom   10 type  1   force =    -0.00000810   -0.00000585   -0.00022961
     atom   11 type  2   force =    -0.00003079    0.00006986    0.00104628
     atom   12 type  2   force =     0.00005800   -0.00004832    0.00105013

     Total force =     0.106714     Total SCF correction =     0.006240

     entering subroutine stress ...

     negative rho (up, down):  3.680E-03 0.000E+00
          total   stress  (Ry/bohr**3)                   (kbar)     P=  -18.19
  -0.00017265  -0.00002347  -0.00000009        -25.40     -3.45     -0.01
  -0.00002347  -0.00015609  -0.00000007         -3.45    -22.96     -0.01
  -0.00000009  -0.00000007  -0.00004218         -0.01     -0.01     -6.21

 !ASE

     Writing output data file calc.save

     General routines

     Parallel routines

   This run was terminated on:  19:51:53  18Dec2018

   JOB DONE.
Job  /afs/slac/g/suncat/bin/suncat-tsmpirun -x LD_LIBRARY_PATH -wdir /scratch/qe530278_8hUvN pw.x -in pw.inp

TID   HOST_NAME   COMMAND_LINE            STATUS            TERMINATION_TIME
00000 suncat2058 pw.x -in pw.inp   Done                     12/18/2018 19:51:53
00001 suncat2058 pw.x -in pw.inp   Done                     12/18/2018 19:51:53
00002 suncat2058 pw.x -in pw.inp   Done                     12/18/2018 19:51:53
00003 suncat2058 pw.x -in pw.inp   Done                     12/18/2018 19:51:53
00004 suncat2058 pw.x -in pw.inp   Done                     12/18/2018 19:51:53
00005 suncat2058 pw.x -in pw.inp   Done                     12/18/2018 19:51:53
00006 suncat2058 pw.x -in pw.inp   Done                     12/18/2018 19:51:53
00007 suncat2058 pw.x -in pw.inp   Done                     12/18/2018 19:51:53
00008 suncat2058 pw.x -in pw.inp   Done                     12/18/2018 19:51:53
00009 suncat2058 pw.x -in pw.inp   Done                     12/18/2018 19:51:53
00010 suncat2058 pw.x -in pw.inp   Done                     12/18/2018 19:51:53
00011 suncat2058 pw.x -in pw.inp   Done                     12/18/2018 19:51:53
00012 suncat2058 pw.x -in pw.inp   Done                     12/18/2018 19:51:53
00013 suncat2058 pw.x -in pw.inp   Done                     12/18/2018 19:51:53
00014 suncat2058 pw.x -in pw.inp   Done                     12/18/2018 19:51:53
00015 suncat2058 pw.x -in pw.inp   Done                     12/18/2018 19:51:53
00016 suncat2057 pw.x -in pw.inp   Done                     12/18/2018 19:51:53
00017 suncat2057 pw.x -in pw.inp   Done                     12/18/2018 19:51:53
00018 suncat2057 pw.x -in pw.inp   Done                     12/18/2018 19:51:53
00019 suncat2057 pw.x -in pw.inp   Done                     12/18/2018 19:51:53
00020 suncat2057 pw.x -in pw.inp   Done                     12/18/2018 19:51:53
00021 suncat2057 pw.x -in pw.inp   Done                     12/18/2018 19:51:53
00022 suncat2057 pw.x -in pw.inp   Done                     12/18/2018 19:51:53
00023 suncat2057 pw.x -in pw.inp   Done                     12/18/2018 19:51:53
00024 suncat2057 pw.x -in pw.inp   Done                     12/18/2018 19:51:53
00025 suncat2057 pw.x -in pw.inp   Done                     12/18/2018 19:51:53
00026 suncat2057 pw.x -in pw.inp   Done                     12/18/2018 19:51:53
00027 suncat2057 pw.x -in pw.inp   Done                     12/18/2018 19:51:53
00028 suncat2057 pw.x -in pw.inp   Done                     12/18/2018 19:51:53
00029 suncat2057 pw.x -in pw.inp   Done                     12/18/2018 19:51:53
00030 suncat2057 pw.x -in pw.inp   Done                     12/18/2018 19:51:53
00031 suncat2057 pw.x -in pw.inp   Done                     12/18/2018 19:51:53