     Program PWSCF v.5.1rc2 (svn rev. 11289) starts on 18Dec2018 at 21: 8:10

     Current dimensions of program PWSCF are:
     Max number of different atomic species (ntypx) = 10
     Max number of k-points (npk) =  40000
     Max angular momentum in pseudopotentials (lmaxx) =  3
     Presently stress not available with electric field

     IMPORTANT: XC functional enforced from input :
     Exchange-correlation      = BEEF-VDW ( 1  4 27 13 2)
     Any further DFT definition will be discarded
     Please, verify this is what you really want

     Subspace diagonalization in iterative solution of the eigenvalue problem:
     a serial algorithm will be used

     Found symmetry operation: I + (  0.5000 -0.5000  0.0000)
     This is a supercell, fractional translations are disabled

     Generating pointlists ...
     new r_m :   0.4125 (alat units)  0.7795 (a.u.) for type    1
     new r_m :   0.4125 (alat units)  0.7795 (a.u.) for type    2

     bravais-lattice index     =            0
     lattice parameter (alat)  =       1.8897  a.u.
     unit-cell volume          =    3932.9710 (a.u.)^3
     number of atoms/cell      =           12
     number of atomic types    =            2
     number of electrons       =       198.00
     number of Kohn-Sham states=          129
     kinetic-energy cutoff     =      36.7493  Ry
     charge density cutoff     =     367.4932  Ry
     convergence threshold     =      1.0E-06
     mixing beta               =       0.1000
     number of iterations used =           10  plain     mixing
     Exchange-correlation      = BEEF-VDW ( 1  4 27 13 2)
     nstep                     =           50

     celldm(1)=   1.889726  celldm(2)=   0.000000  celldm(3)=   0.000000
     celldm(4)=   0.000000  celldm(5)=   0.000000  celldm(6)=   0.000000

     crystal axes: (cart. coord. in units of alat)
               a(1) = (   5.220414   0.000000   0.000000 )
               a(2) = (   2.476821   4.595441   0.000000 )
               a(3) = (   0.000000   0.000000  24.293607 )

     reciprocal axes: (cart. coord. in units 2 pi/alat)
               b(1) = (  0.191556 -0.103243  0.000000 )
               b(2) = (  0.000000  0.217607  0.000000 )
               b(3) = (  0.000000  0.000000  0.041163 )

     PseudoPot. # 1 for Ni read from file:
     /afs/slac.stanford.edu/u/if/mamunm/psp/gbrv1.5pbe/Ni.UPF
     MD5 check sum: 1ee80287db30b12d2bc1f57a5b5d6409
     Pseudo is Ultrasoft + core correction, Zval = 18.0
     Generated by new atomic code, or converted to UPF format
     Using radial grid of  865 points,  6 beta functions with:
                l(1) =   0
                l(2) =   0
                l(3) =   1
                l(4) =   1
                l(5) =   2
                l(6) =   2
     Q(r) pseudized with 10 coefficients,  rinner =    0.980   0.980   0.980
                                                       0.980   0.980

     PseudoPot. # 2 for Ir read from file:
     /afs/slac.stanford.edu/u/if/mamunm/psp/gbrv1.5pbe/Ir.UPF
     MD5 check sum: 8836f839c3459d2b385c504ce6d91f2c
     Pseudo is Ultrasoft + core correction, Zval = 15.0
     Generated by new atomic code, or converted to UPF format
     Using radial grid of  983 points,  7 beta functions with:
                l(1) =   0
                l(2) =   0
                l(3) =   1
                l(4) =   1
                l(5) =   1
                l(6) =   2
                l(7) =   2
     Q(r) pseudized with  8 coefficients,  rinner =    1.400   1.400   1.400
                                                       1.400   1.400

     vdW kernel table read from file vdW_kernel_table
     MD5 check sum: 095c7af220d748ca6e76c0b4c6cfb241

     atomic species   valence    mass     pseudopotential
        Ni1           18.00    58.69340     Ni( 1.00)
        Ir1           15.00   192.21700     Ir( 1.00)

     Starting magnetic structure
     atomic species   magnetization
        Ni1          0.111
        Ir1          0.133

     No symmetry found

   Cartesian axes

     site n.     atom                  positions (alat units)
         1           Ni1 tau(   1) = (   0.0000000   0.0000000  10.0000000  )
         2           Ni1 tau(   2) = (   3.8486176   2.2977206  10.0000000  )
         3           Ir1 tau(   3) = (   2.6102070   0.0000000  10.0000000  )
         4           Ir1 tau(   4) = (   1.2384106   2.2977206  10.0000000  )
         5           Ni1 tau(   5) = (   5.2204140   3.1167172  12.1468033  )
         6           Ni1 tau(   6) = (   1.3717964   0.8189966  12.1468033  )
         7           Ir1 tau(   7) = (   2.6102070   3.1167172  12.1468033  )
         8           Ir1 tau(   8) = (   3.9820034   0.8189966  12.1468033  )
         9           Ni1 tau(   9) = (   2.7435928   1.6379933  14.2936065  )
        10           Ni1 tau(  10) = (   6.5922104   3.9357139  14.2936065  )
        11           Ir1 tau(  11) = (   5.3537998   1.6379933  14.2936065  )
        12           Ir1 tau(  12) = (   3.9820034   3.9357139  14.2936065  )

     number of k points=    40  Fermi-Dirac smearing, width (Ry)=  0.0110
                       cart. coord. in units 2pi/alat
        k(    1) = (   0.0000000   0.0000000   0.0000000), wk =   0.0277778
        k(    2) = (   0.0000000   0.0362678   0.0000000), wk =   0.0555556
        k(    3) = (   0.0000000   0.0725357   0.0000000), wk =   0.0555556
        k(    4) = (   0.0000000  -0.1088035   0.0000000), wk =   0.0277778
        k(    5) = (   0.0319259  -0.0172072   0.0000000), wk =   0.0555556
        k(    6) = (   0.0319259   0.0190606   0.0000000), wk =   0.0555556
        k(    7) = (   0.0319259   0.0553284   0.0000000), wk =   0.0555556
        k(    8) = (   0.0319259  -0.1260107   0.0000000), wk =   0.0555556
        k(    9) = (   0.0319259  -0.0897429   0.0000000), wk =   0.0555556
        k(   10) = (   0.0319259  -0.0534751   0.0000000), wk =   0.0555556
        k(   11) = (   0.0638519  -0.0344145   0.0000000), wk =   0.0555556
        k(   12) = (   0.0638519   0.0018533   0.0000000), wk =   0.0555556
        k(   13) = (   0.0638519   0.0381212   0.0000000), wk =   0.0555556
        k(   14) = (   0.0638519  -0.1432180   0.0000000), wk =   0.0555556
        k(   15) = (   0.0638519  -0.1069501   0.0000000), wk =   0.0555556
        k(   16) = (   0.0638519  -0.0706823   0.0000000), wk =   0.0555556
        k(   17) = (  -0.0957778   0.0516217   0.0000000), wk =   0.0277778
        k(   18) = (  -0.0957778   0.0878896   0.0000000), wk =   0.0555556
        k(   19) = (  -0.0957778   0.1241574   0.0000000), wk =   0.0555556
        k(   20) = (  -0.0957778  -0.0571818   0.0000000), wk =   0.0277778
        k(   21) = (   0.0000000   0.0000000   0.0000000), wk =   0.0277778
        k(   22) = (   0.0000000   0.0362678   0.0000000), wk =   0.0555556
        k(   23) = (   0.0000000   0.0725357   0.0000000), wk =   0.0555556
        k(   24) = (   0.0000000  -0.1088035   0.0000000), wk =   0.0277778
        k(   25) = (   0.0319259  -0.0172072   0.0000000), wk =   0.0555556
        k(   26) = (   0.0319259   0.0190606   0.0000000), wk =   0.0555556
        k(   27) = (   0.0319259   0.0553284   0.0000000), wk =   0.0555556
        k(   28) = (   0.0319259  -0.1260107   0.0000000), wk =   0.0555556
        k(   29) = (   0.0319259  -0.0897429   0.0000000), wk =   0.0555556
        k(   30) = (   0.0319259  -0.0534751   0.0000000), wk =   0.0555556
        k(   31) = (   0.0638519  -0.0344145   0.0000000), wk =   0.0555556
        k(   32) = (   0.0638519   0.0018533   0.0000000), wk =   0.0555556
        k(   33) = (   0.0638519   0.0381212   0.0000000), wk =   0.0555556
        k(   34) = (   0.0638519  -0.1432180   0.0000000), wk =   0.0555556
        k(   35) = (   0.0638519  -0.1069501   0.0000000), wk =   0.0555556
        k(   36) = (   0.0638519  -0.0706823   0.0000000), wk =   0.0555556
        k(   37) = (  -0.0957778   0.0516217   0.0000000), wk =   0.0277778
        k(   38) = (  -0.0957778   0.0878896   0.0000000), wk =   0.0555556
        k(   39) = (  -0.0957778   0.1241574   0.0000000), wk =   0.0555556
        k(   40) = (  -0.0957778  -0.0571818   0.0000000), wk =   0.0277778

     Largest allocated arrays     est. size (Mb)     dimensions
     Largest temporary arrays     est. size (Mb)     dimensions

     Check: negative/imaginary core charge=   -0.000001    0.000000

     Initial potential from superposition of free atoms
     Check: negative starting charge=(component1):   -1.233687
     Check: negative starting charge=(component2):   -0.943409

     starting charge  182.99981, renormalised to  198.00000

     negative rho (up, down):  1.335E+00 1.021E+00

     *
     * You are using vdW-DF for exchange-correlation in this calculation.
     * Please cite the following three references that made this development
     * possible:
     *
     *   M. Dion, H. Rydberg, E. Schroder, D. C. Langreth, and
     *   B. I. Lundqvist, Phys. Rev. Lett. 92, 246401 (2004).
     *
     *   T. Thonhauser, V. R. Cooper, S. Li, A. Puzder, P. Hyldgaard, and
     *   D. C. Langreth, Phys. Rev. B 76, 125112 (2007).
     *
     *   G. Roman-Perez and J. M. Soler, Phys. Rev. Lett. 103, 096102 (2009).
     *
     *
     * If you are using vdW-DF2, please also cite:
     *
     *   K. Lee, E. D. Murray, L. Kong, B. I. Lundqvist, and
     *   D. C. Langreth, Phys. Rev. B 82, 081101(R) (2010).
     *
     *
     * If you are calculating the stress with vdW-DF, please also cite:
     *
     *   R. Sabatini, E. Kucukbenli, B. Kolb, T. Thonhauser, and
     *   S. de Gironcoli, J. Phys.: Condens. Matter 24, 424209 (2012).
     *

     Carrying out vdW-DF run using the following parameters:

     Nqs =      20    Nr_points =    1024   r_max =   100.000
     q_mesh =
               0.00001000     0.04494208     0.09755937     0.15916263
               0.23128650     0.31572767     0.41458969     0.53033537
               0.66584808     0.82450364     1.01025438     1.22772762
               1.48234092     1.78043706     2.12944203     2.53805004
               3.01644009     3.57652955     4.23227104     5.00000000

     Gradients computed in reciprocal space

     Adding external electric field

     Computed dipole along edir(3) :
        Dipole                0.0000 Ry au,          0.0000 Debye
        Dipole field          0.0000 Ry au

        Potential amp.       -0.0000 Ry
        Total length         44.7606 bohr

[...]

     Starting wfc are  150 randomized atomic wfcs

     Self-consistent Calculation

     iteration #  1     ecut=    36.75 Ry     beta=0.10
     Davidson diagonalization with overlap
     ethr =  1.00E-02,  avg # of iterations =  8.3

[...]

     Magnetic moment per site:
     atom:    1    charge:    9.6399    magn:    1.0200    constr:    0.0000
     atom:    2    charge:    9.6399    magn:    1.0200    constr:    0.0000
     atom:    3    charge:    1.6595    magn:    0.2029    constr:    0.0000
     atom:    4    charge:    1.6595    magn:    0.2029    constr:    0.0000
     atom:    5    charge:    9.6350    magn:    1.0187    constr:    0.0000
     atom:    6    charge:    9.6350    magn:    1.0187    constr:    0.0000
[...]
     MD5 check sum: 8836f839c3459d2b385c504ce6d91f2c
     Pseudo is Ultrasoft + core correction, Zval = 15.0
     Generated by new atomic code, or converted to UPF format
     Using radial grid of  983 points,  7 beta functions with:
                l(1) =   0
                l(2) =   0
                l(3) =   1
                l(4) =   1
                l(5) =   1
                l(6) =   2
                l(7) =   2
     Q(r) pseudized with  8 coefficients,  rinner =    1.400   1.400   1.400
                                                       1.400   1.400

     vdW kernel table read from file vdW_kernel_table
     MD5 check sum: 095c7af220d748ca6e76c0b4c6cfb241

     atomic species   valence    mass     pseudopotential
        Ni1           18.00    58.69340     Ni( 1.00)
        Ir1           15.00   192.21700     Ir( 1.00)

     Starting magnetic structure
     atomic species   magnetization
        Ni1          0.111
        Ir1          0.133

     No symmetry found

   Cartesian axes

     site n.     atom                  positions (alat units)
         1           Ni1 tau(   1) = (   0.0000000   0.0000000  10.0000000  )
         2           Ni1 tau(   2) = (   3.8486176   2.2977206  10.0000000  )
         3           Ir1 tau(   3) = (   2.6102070   0.0000000  10.0000000  )
         4           Ir1 tau(   4) = (   1.2384106   2.2977206  10.0000000  )
         5           Ni1 tau(   5) = (   5.2204140   3.1167172  12.1468033  )
         6           Ni1 tau(   6) = (   1.3717964   0.8189966  12.1468033  )
         7           Ir1 tau(   7) = (   2.6102070   3.1167172  12.1468033  )
         8           Ir1 tau(   8) = (   3.9820034   0.8189966  12.1468033  )
         9           Ni1 tau(   9) = (   2.6499037   1.5820596  14.2533437  )
        10           Ni1 tau(  10) = (   6.4986699   3.8798672  14.2534270  )
        11           Ir1 tau(  11) = (   5.2775344   1.5924016  14.2595159  )
        12           Ir1 tau(  12) = (   3.9056860   3.8902100  14.2595158  )

     number of k points=    40  Fermi-Dirac smearing, width (Ry)=  0.0110
                       cart. coord. in units 2pi/alat
        k(    1) = (   0.0000000   0.0000000   0.0000000), wk =   0.0277778
        k(    2) = (   0.0000000   0.0362678   0.0000000), wk =   0.0555556
        k(    3) = (   0.0000000   0.0725357   0.0000000), wk =   0.0555556
        k(    4) = (   0.0000000  -0.1088035   0.0000000), wk =   0.0277778
        k(    5) = (   0.0319259  -0.0172072   0.0000000), wk =   0.0555556
        k(    6) = (   0.0319259   0.0190606   0.0000000), wk =   0.0555556
        k(    7) = (   0.0319259   0.0553284   0.0000000), wk =   0.0555556
        k(    8) = (   0.0319259  -0.1260107   0.0000000), wk =   0.0555556
        k(    9) = (   0.0319259  -0.0897429   0.0000000), wk =   0.0555556
        k(   10) = (   0.0319259  -0.0534751   0.0000000), wk =   0.0555556
        k(   11) = (   0.0638519  -0.0344145   0.0000000), wk =   0.0555556
        k(   12) = (   0.0638519   0.0018533   0.0000000), wk =   0.0555556
        k(   13) = (   0.0638519   0.0381212   0.0000000), wk =   0.0555556
        k(   14) = (   0.0638519  -0.1432180   0.0000000), wk =   0.0555556
        k(   15) = (   0.0638519  -0.1069501   0.0000000), wk =   0.0555556
        k(   16) = (   0.0638519  -0.0706823   0.0000000), wk =   0.0555556
        k(   17) = (  -0.0957778   0.0516217   0.0000000), wk =   0.0277778
        k(   18) = (  -0.0957778   0.0878896   0.0000000), wk =   0.0555556
        k(   19) = (  -0.0957778   0.1241574   0.0000000), wk =   0.0555556
        k(   20) = (  -0.0957778  -0.0571818   0.0000000), wk =   0.0277778
        k(   21) = (   0.0000000   0.0000000   0.0000000), wk =   0.0277778
        k(   22) = (   0.0000000   0.0362678   0.0000000), wk =   0.0555556
        k(   23) = (   0.0000000   0.0725357   0.0000000), wk =   0.0555556
        k(   24) = (   0.0000000  -0.1088035   0.0000000), wk =   0.0277778
        k(   25) = (   0.0319259  -0.0172072   0.0000000), wk =   0.0555556
        k(   26) = (   0.0319259   0.0190606   0.0000000), wk =   0.0555556
        k(   27) = (   0.0319259   0.0553284   0.0000000), wk =   0.0555556
        k(   28) = (   0.0319259  -0.1260107   0.0000000), wk =   0.0555556
        k(   29) = (   0.0319259  -0.0897429   0.0000000), wk =   0.0555556
        k(   30) = (   0.0319259  -0.0534751   0.0000000), wk =   0.0555556
        k(   31) = (   0.0638519  -0.0344145   0.0000000), wk =   0.0555556
        k(   32) = (   0.0638519   0.0018533   0.0000000), wk =   0.0555556
        k(   33) = (   0.0638519   0.0381212   0.0000000), wk =   0.0555556
        k(   34) = (   0.0638519  -0.1432180   0.0000000), wk =   0.0555556
        k(   35) = (   0.0638519  -0.1069501   0.0000000), wk =   0.0555556
        k(   36) = (   0.0638519  -0.0706823   0.0000000), wk =   0.0555556
        k(   37) = (  -0.0957778   0.0516217   0.0000000), wk =   0.0277778
        k(   38) = (  -0.0957778   0.0878896   0.0000000), wk =   0.0555556
        k(   39) = (  -0.0957778   0.1241574   0.0000000), wk =   0.0555556
        k(   40) = (  -0.0957778  -0.0571818   0.0000000), wk =   0.0277778

     Largest allocated arrays     est. size (Mb)     dimensions
     Largest temporary arrays     est. size (Mb)     dimensions

     Check: negative/imaginary core charge=   -0.000001    0.000000

     Initial potential from superposition of free atoms
     Check: negative starting charge=(component1):   -1.233148
     Check: negative starting charge=(component2):   -0.942997

     starting charge  182.99981, renormalised to  198.00000

[...]

     *
     * You are using vdW-DF for exchange-correlation in this calculation.
     * Please cite the following three references that made this development
     * possible:
     *
     *   M. Dion, H. Rydberg, E. Schroder, D. C. Langreth, and
     *   B. I. Lundqvist, Phys. Rev. Lett. 92, 246401 (2004).
     *
     *   T. Thonhauser, V. R. Cooper, S. Li, A. Puzder, P. Hyldgaard, and
     *   D. C. Langreth, Phys. Rev. B 76, 125112 (2007).
     *
     *   G. Roman-Perez and J. M. Soler, Phys. Rev. Lett. 103, 096102 (2009).
     *
     *
     * If you are using vdW-DF2, please also cite:
     *
     *   K. Lee, E. D. Murray, L. Kong, B. I. Lundqvist, and
     *   D. C. Langreth, Phys. Rev. B 82, 081101(R) (2010).
     *
     *
     * If you are calculating the stress with vdW-DF, please also cite:
     *
     *   R. Sabatini, E. Kucukbenli, B. Kolb, T. Thonhauser, and
     *   S. de Gironcoli, J. Phys.: Condens. Matter 24, 424209 (2012).
     *

     Carrying out vdW-DF run using the following parameters:

     Nqs =      20    Nr_points =    1024   r_max =   100.000
     q_mesh =
               0.00001000     0.04494208     0.09755937     0.15916263
               0.23128650     0.31572767     0.41458969     0.53033537
               0.66584808     0.82450364     1.01025438     1.22772762
               1.48234092     1.78043706     2.12944203     2.53805004
               3.01644009     3.57652955     4.23227104     5.00000000

     Gradients computed in reciprocal space

[...]

     Starting wfc are  150 randomized atomic wfcs

     Self-consistent Calculation

[...]

     iteration # 21     ecut=    36.75 Ry     beta=0.10
     Davidson diagonalization with overlap
     c_bands:  1 eigenvalues not converged
     ethr =  2.48E-06,  avg # of iterations =  4.7

[...]

     total energy              =   -3166.36003435 Ry
     Harris-Foulkes estimate   =   -3166.36003323 Ry
     estimated scf accuracy    <       0.00000168 Ry

[...]

     iteration # 50     ecut=    36.75 Ry     beta=0.10
     Davidson diagonalization with overlap
     ethr =  7.89E-10,  avg # of iterations =  1.1

[...]

     negative rho (up, down):  9.907E-01 9.451E-01

[...]

     Adding external electric field

     Computed dipole along edir(3) :
        Dipole                0.0056 Ry au,          0.0142 Debye
        Dipole field          0.0000 Ry au

        Potential amp.       -0.0016 Ry
        Total length         44.7606 bohr

     Magnetic moment per site:
     atom:    1    charge:    9.3541    magn:    0.1659    constr:    0.0000
     atom:    2    charge:    9.3541    magn:    0.1659    constr:    0.0000
     atom:    3    charge:    1.6133    magn:    0.0092    constr:    0.0000
     atom:    4    charge:    1.6133    magn:    0.0092    constr:    0.0000
     atom:    5    charge:    9.3489    magn:    0.1537    constr:    0.0000
     atom:    6    charge:    9.3489    magn:    0.1537    constr:    0.0000
     atom:    7    charge:    1.6173    magn:    0.0095    constr:    0.0000
     atom:    8    charge:    1.6173    magn:    0.0095    constr:    0.0000
     atom:    9    charge:    9.3404    magn:    0.1428    constr:    0.0000
     atom:   10    charge:    9.3402    magn:    0.1429    constr:    0.0000
     atom:   11    charge:    1.6111    magn:    0.0077    constr:    0.0000
     atom:   12    charge:    1.6111    magn:    0.0077    constr:    0.0000

     End of self-consistent calculation

 ------ SPIN UP ------------

[...]

 ------ SPIN DOWN ----------

[...]

          k = 0.0639-0.0707 0.0000 ( 14802 PWs)   bands (ev):

[...]

          k =-0.0958-0.0572 0.0000 ( 14750 PWs)   bands (ev):

  -101.8339-101.8298-101.5663-101.5623-101.5350-101.5309 -62.2832 -62.2784
   -62.2097 -62.2049 -62.1955 -62.1444 -62.0655 -62.0608 -62.0294 -62.0248
   -62.0019 -61.9791 -61.9514 -61.9286 -61.8129 -61.8081 -61.7788 -61.7740
   -48.1530 -48.1282 -48.0785 -47.8988 -47.8503 -47.7978 -47.7399 -47.6860
   -47.5036 -47.4572 -47.4145 -47.3722 -47.3680 -47.3328 -47.3265 -47.2942
   -47.2745 -47.2484  -5.8180  -5.1489  -4.3702  -4.1468  -3.6438  -3.5904
    -3.5407  -3.3416  -3.3040  -3.0800  -2.6721  -2.6240  -2.5587  -2.3809
    -2.3570  -2.2514  -2.1424  -1.7367  -1.5193  -1.3696  -1.1803  -1.1400
    -1.1223  -1.0850  -0.8404  -0.7578  -0.6636  -0.5825  -0.5787  -0.5109
    -0.4439  -0.3891  -0.3665  -0.3532  -0.3511  -0.3171  -0.2658  -0.2612
    -0.1836  -0.1229   0.0725   0.1103   0.2593   0.3942   0.3985   0.4264
     0.4305   0.4308   0.4904   0.7222   0.7293   1.0242   1.0481   1.0789
     1.1390   1.1597   1.2447   1.4101   1.5825   1.5963   1.8446   2.0149
     2.1263   2.5232   2.9821   3.0278   3.7907   4.0384   5.3049   5.7514
     5.9607   6.3909   6.6203   6.9535   7.7511   7.7659   8.3428   8.3850
     8.5306   8.5350   8.9804   9.5637   9.5973   9.7526   9.8397  10.1096
    10.1342

     the Fermi energy is     1.4699 ev

!    total energy              =   -3166.36004051 Ry
     Harris-Foulkes estimate   =   -3166.36003460 Ry
     estimated scf accuracy    <       0.00000098 Ry

     The total energy is the sum of the following terms:

     one-electron contribution =  -25886.79953041 Ry
     hartree contribution      =   12964.36580262 Ry
     xc contribution           =    -532.42260272 Ry
     ewald contribution        =   10288.61275845 Ry
     electric field correction =       0.00000010 Ry
     smearing contrib. (-TS)   =      -0.11646855 Ry

     total magnetization       =     2.68 Bohr mag/cell
     absolute magnetization    =     3.01 Bohr mag/cell

     convergence has been achieved in  50 iterations

 BEEF-vdW xc energy contributions
           1 :   -470.610839672664
           2 :    433.191718796972
           3 :   -368.197122195186
           4 :    291.244471395450
           5 :   -217.891857351332
           6 :    158.717608001711
           7 :   -117.194938489212
           8 :    90.7023287722687
           9 :   -73.5854775483184
          10 :    60.4417840136123
          11 :   -48.1268132415499
          12 :    35.9713836810387
          13 :   -24.7555756198103
          14 :    15.4424998232693
          15 :   -8.46366769378631
          16 :    3.71059526279714
          17 :  -0.886398242681082
          18 :  -0.252961142503466
          19 :  -3.379523529167727E-002
          20 :    1.23700568786660
          21 :   -2.51362067582886
          22 :    2.94046161752419
          23 :   -1.99559803095087
          24 :  -7.909007629393727E-002
          25 :    2.33337917454799
          26 :   -3.61621335035869
          27 :    3.24224088169558
          28 :   -1.40842334322758
          29 :  -0.908446523749490
          30 :    2.50968805554578
          31 :   -39.7406230355663
          32 :   -28.9673592127835

     Forces acting on atoms (Ry/au):

     negative rho (up, down):  9.907E-01 9.451E-01
     atom    1 type  1   force =     0.00587273    0.00350608    0.00367245
     atom    2 type  1   force =     0.00588036    0.00351085    0.00367863
     atom    3 type  2   force =     0.00265921    0.00158692    0.01087103
     atom    4 type  2   force =     0.00265854    0.00158796    0.01087116
     atom    5 type  1   force =    -0.00186124   -0.00111116   -0.00641564
     atom    6 type  1   force =    -0.00193749   -0.00115689   -0.00651063
     atom    7 type  2   force =    -0.00668837   -0.00398471   -0.01043603
     atom    8 type  2   force =    -0.00668093   -0.00399724   -0.01043601
     atom    9 type  1   force =     0.00038428    0.00022929    0.00184055
     atom   10 type  1   force =     0.00030876    0.00018454    0.00184188
     atom   11 type  2   force =    -0.00032188   -0.00013775    0.00051121
     atom   12 type  2   force =    -0.00027397   -0.00021789    0.00051138

     Total force =     0.028575     Total SCF correction =     0.002400

     entering subroutine stress ...

     negative rho (up, down):  9.907E-01 9.451E-01
          total   stress  (Ry/bohr**3)                   (kbar)     P=  -50.26
  -0.00036355   0.00003943  -0.00001777        -53.48      5.80     -2.61
   0.00003943  -0.00040605  -0.00001061          5.80    -59.73     -1.56
  -0.00001777  -0.00001061  -0.00025530         -2.61     -1.56    -37.56

 !ASE

     Writing output data file calc.save

     General routines

     Parallel routines

   This run was terminated on:  23:38:37  18Dec2018

   JOB DONE.
Job  /afs/slac/g/suncat/bin/suncat-tsmpirun -x LD_LIBRARY_PATH -wdir /scratch/qe530353_d7d6C pw.x -in pw.inp

TID   HOST_NAME   COMMAND_LINE            STATUS            TERMINATION_TIME
00000 suncat2050 pw.x -in pw.inp   Done                     12/18/2018 23:38:37
00001 suncat2050 pw.x -in pw.inp   Done                     12/18/2018 23:38:37
00002 suncat2050 pw.x -in pw.inp   Done                     12/18/2018 23:38:37
00003 suncat2050 pw.x -in pw.inp   Done                     12/18/2018 23:38:37
00004 suncat2050 pw.x -in pw.inp   Done                     12/18/2018 23:38:37
00005 suncat2050 pw.x -in pw.inp   Done                     12/18/2018 23:38:37
00006 suncat2050 pw.x -in pw.inp   Done                     12/18/2018 23:38:37
00007 suncat2050 pw.x -in pw.inp   Done                     12/18/2018 23:38:37
00008 suncat2050 pw.x -in pw.inp   Done                     12/18/2018 23:38:37
00009 suncat2050 pw.x -in pw.inp   Done                     12/18/2018 23:38:37
00010 suncat2050 pw.x -in pw.inp   Done                     12/18/2018 23:38:37
00011 suncat2050 pw.x -in pw.inp   Done                     12/18/2018 23:38:37
00012 suncat2050 pw.x -in pw.inp   Done                     12/18/2018 23:38:37
00013 suncat2050 pw.x -in pw.inp   Done                     12/18/2018 23:38:37
00014 suncat2050 pw.x -in pw.inp   Done                     12/18/2018 23:38:37
00015 suncat2050 pw.x -in pw.inp   Done                     12/18/2018 23:38:37
00016 suncat2049 pw.x -in pw.inp   Done                     12/18/2018 23:38:37
00017 suncat2049 pw.x -in pw.inp   Done                     12/18/2018 23:38:37
00018 suncat2049 pw.x -in pw.inp   Done                     12/18/2018 23:38:37
00019 suncat2049 pw.x -in pw.inp   Done                     12/18/2018 23:38:37
00020 suncat2049 pw.x -in pw.inp   Done                     12/18/2018 23:38:37
00021 suncat2049 pw.x -in pw.inp   Done                     12/18/2018 23:38:37
00022 suncat2049 pw.x -in pw.inp   Done                     12/18/2018 23:38:37
00023 suncat2049 pw.x -in pw.inp   Done                     12/18/2018 23:38:37
00024 suncat2049 pw.x -in pw.inp   Done                     12/18/2018 23:38:37
00025 suncat2049 pw.x -in pw.inp   Done                     12/18/2018 23:38:37
00026 suncat2049 pw.x -in pw.inp   Done                     12/18/2018 23:38:37
00027 suncat2049 pw.x -in pw.inp   Done                     12/18/2018 23:38:37
00028 suncat2049 pw.x -in pw.inp   Done                     12/18/2018 23:38:37
00029 suncat2049 pw.x -in pw.inp   Done                     12/18/2018 23:38:37
00030 suncat2049 pw.x -in pw.inp   Done                     12/18/2018 23:38:37
00031 suncat2049 pw.x -in pw.inp   Done                     12/18/2018 23:38:37