     Program PWSCF v.5.1rc2 (svn rev. 11289) starts on 19Dec2018 at  6:47:55

     Current dimensions of program PWSCF are:
     Max number of different atomic species (ntypx) = 10
     Max number of k-points (npk) =  40000
     Max angular momentum in pseudopotentials (lmaxx) =  3
     Presently stress not available with electric field

     IMPORTANT: XC functional enforced from input :
     Exchange-correlation      = BEEF-VDW ( 1  4 27 13 2)
     Any further DFT definition will be discarded
     Please, verify this is what you really want

     Subspace diagonalization in iterative solution of the eigenvalue problem:
     a serial algorithm will be used

     Found symmetry operation: I + ( -0.5000  0.5000  0.0000)
     This is a supercell, fractional translations are disabled

     bravais-lattice index     =            0
     lattice parameter (alat)  =       1.8897  a.u.
     unit-cell volume          =    4479.1650 (a.u.)^3
     number of atoms/cell      =           12
     number of atomic types    =            2
     number of electrons       =       162.00
     number of Kohn-Sham states=          111
     kinetic-energy cutoff     =      36.7493  Ry
     charge density cutoff     =     367.4932  Ry
     convergence threshold     =      1.0E-06
     mixing beta               =       0.1000
     number of iterations used =           10  plain     mixing
     Exchange-correlation      = BEEF-VDW ( 1  4 27 13 2)
     nstep                     =           50

     celldm(1)=   1.889726  celldm(2)=   0.000000  celldm(3)=   0.000000
     celldm(4)=   0.000000  celldm(5)=   0.000000  celldm(6)=   0.000000

     crystal axes: (cart. coord. in units of alat)
               a(1) = (   5.372669   0.000000   0.000000 )
               a(2) = (   1.789182   5.066004   0.000000 )
               a(3) = (   0.000000   0.000000  24.386241 )

     reciprocal axes: (cart. coord. in units 2 pi/alat)
               b(1) = (  0.186127 -0.065735  0.000000 )
               b(2) = (  0.000000  0.197394  0.000000 )
               b(3) = (  0.000000  0.000000  0.041007 )

     PseudoPot. # 1 for Cr read from file:
     /afs/slac.stanford.edu/u/if/mamunm/psp/gbrv1.5pbe/Cr.UPF
     MD5 check sum: 0d52af634a40206e4dee301ad30da4bf
     Pseudo is Ultrasoft + core correction, Zval = 14.0
     Generated by new atomic code, or converted to UPF format
     Using radial grid of  857 points,  6 beta functions with:
                l(1) =   0
                l(2) =   0
                l(3) =   1
                l(4) =   1
                l(5) =   2
                l(6) =   2
     Q(r) pseudized with  8 coefficients,  rinner =    0.950   0.950   0.950
                                                       0.950   0.950

     PseudoPot. # 2 for Nb read from file:
     /afs/slac.stanford.edu/u/if/mamunm/psp/gbrv1.5pbe/Nb.UPF
     MD5 check sum: 573aab8a2fa660278ed4a62cd769473f
     Pseudo is Ultrasoft + core correction, Zval = 13.0
     Generated by new atomic code, or converted to UPF format
     Using radial grid of  887 points,  6 beta functions with:
                l(1) =   0
                l(2) =   0
                l(3) =   1
                l(4) =   1
                l(5) =   2
                l(6) =   2
     Q(r) pseudized with  6 coefficients,  rinner =    1.000   1.000   1.000
                                                       1.000   1.000

     vdW kernel table read from file vdW_kernel_table
     MD5 check sum: 095c7af220d748ca6e76c0b4c6cfb241

     atomic species   valence    mass     pseudopotential
        Cr1           14.00    51.99610     Cr( 1.00)
        Nb1           13.00    92.90637     Nb( 1.00)

     No symmetry found

   Cartesian axes

     site n.     atom                  positions (alat units)
         1           Cr1 tau(   1) = (   0.0000000   0.0000000  10.0000000  )
         2           Cr1 tau(   2) = (   3.5809251   2.5330020  10.0000000  )
         3           Nb1 tau(   3) = (   2.6863343   0.0000000  10.0000000  )
         4           Nb1 tau(   4) = (   0.8945908   2.5330020  10.0000000  )
         5           Cr1 tau(   5) = (   5.3726686   3.8004091  12.1931207  )
         6           Cr1 tau(   6) = (   1.7917435   1.2674071  12.1931207  )
         7           Nb1 tau(   7) = (   2.6863343   3.8004091  12.1931207  )
         8           Nb1 tau(   8) = (   4.4780778   1.2674071  12.1931207  )
         9           Cr1 tau(   9) = (   3.5834870   2.5348142  14.3862415  )
        10           Cr1 tau(  10) = (   0.0025619   0.0018122  14.3862415  )
        11           Nb1 tau(  11) = (   0.8971527   2.5348142  14.3862415  )
        12           Nb1 tau(  12) = (   2.6888962   0.0018122  14.3862415  )

     number of k points=    20  Fermi-Dirac smearing, width (Ry)=  0.0110
                       cart. coord. in units 2pi/alat
        k(    1) = (   0.0000000   0.0000000   0.0000000), wk =   0.0555556
        k(    2) = (   0.0000000   0.0328990   0.0000000), wk =   0.1111111
        k(    3) = (   0.0000000   0.0657981   0.0000000), wk =   0.1111111
        k(    4) = (   0.0000000  -0.0986971   0.0000000), wk =   0.0555556
        k(    5) = (   0.0310212  -0.0109559   0.0000000), wk =   0.1111111
        k(    6) = (   0.0310212   0.0219432   0.0000000), wk =   0.1111111
        k(    7) = (   0.0310212   0.0548422   0.0000000), wk =   0.1111111
        k(    8) = (   0.0310212  -0.1096530   0.0000000), wk =   0.1111111
        k(    9) = (   0.0310212  -0.0767540   0.0000000), wk =   0.1111111
        k(   10) = (   0.0310212  -0.0438549   0.0000000), wk =   0.1111111
        k(   11) = (   0.0620424  -0.0219118   0.0000000), wk =   0.1111111
        k(   12) = (   0.0620424   0.0109873   0.0000000), wk =   0.1111111
        k(   13) = (   0.0620424   0.0438863   0.0000000), wk =   0.1111111
        k(   14) = (   0.0620424  -0.1206089   0.0000000), wk =   0.1111111
        k(   15) = (   0.0620424  -0.0877099   0.0000000), wk =   0.1111111
        k(   16) = (   0.0620424  -0.0548108   0.0000000), wk =   0.1111111
        k(   17) = (  -0.0930636   0.0328677   0.0000000), wk =   0.0555556
        k(   18) = (  -0.0930636   0.0657667   0.0000000), wk =   0.1111111
        k(   19) = (  -0.0930636   0.0986657   0.0000000), wk =   0.1111111
        k(   20) = (  -0.0930636  -0.0658295   0.0000000), wk =   0.0555556

     Largest allocated arrays     est. size (Mb)     dimensions
     Largest temporary arrays     est. size (Mb)     dimensions

     Check: negative/imaginary core charge=   -0.000003    0.000000

     Initial potential from superposition of free atoms
     Check: negative starting charge=   -0.010914

     starting charge  155.98351, renormalised to  162.00000

     negative rho (up, down):  1.134E-02 0.000E+00

     *
     * You are using vdW-DF for exchange-correlation in this calculation.
     * Please cite the following three references that made this development
     * possible:
     *
     *   M. Dion, H. Rydberg, E. Schroder, D. C. Langreth, and
     *   B. I. Lundqvist, Phys. Rev. Lett. 92, 246401 (2004).
     *
     *   T. Thonhauser, V. R. Cooper, S. Li, A. Puzder, P. Hyldgaard, and
     *   D. C. Langreth, Phys. Rev. B 76, 125112 (2007).
     *
     *   G. Roman-Perez and J. M. Soler, Phys. Rev. Lett. 103, 096102 (2009).
     *
     *
     * If you are using vdW-DF2, please also cite:
     *
     *   K. Lee, E. D. Murray, L. Kong, B. I. Lundqvist, and
     *   D. C. Langreth, Phys. Rev. B 82, 081101(R) (2010).
     *
     *
     * If you are calculating the stress with vdW-DF, please also cite:
     *
     *   R. Sabatini, E. Kucukbenli, B. Kolb, T. Thonhauser, and
     *   S. de Gironcoli, J. Phys.: Condens. Matter 24, 424209 (2012).
     *

     Carrying out vdW-DF run using the following parameters:

     Nqs =      20    Nr_points =    1024   r_max =   100.000
     q_mesh =
               0.00001000     0.04494208     0.09755937     0.15916263
               0.23128650     0.31572767     0.41458969     0.53033537
               0.66584808     0.82450364     1.01025438     1.22772762
               1.48234092     1.78043706     2.12944203     2.53805004
               3.01644009     3.57652955     4.23227104     5.00000000

     Gradients computed in reciprocal space

     Adding external electric field

     Computed dipole along edir(3) :
        Dipole               -0.0000 Ry au,         -0.0000 Debye
        Dipole field         -0.0000 Ry au

        Potential amp.        0.0000 Ry
        Total length         44.9312 bohr

     Starting wfc are  138 randomized atomic wfcs

     Self-consistent Calculation

     iteration #  1     ecut=    36.75 Ry     beta=0.10
     Davidson diagonalization with overlap
     ethr =  1.00E-02,  avg # of iterations =  3.0

[...]

     total energy              =   -1769.12072656 Ry
     Harris-Foulkes estimate   =   -1770.66176913 Ry
     estimated scf accuracy    <       9.30510385 Ry

[...]

     End of self-consistent calculation

          k = 0.0000 0.0000 0.0000 ( 16873 PWs)   bands (ev):

   -70.0214 -70.0158 -69.9115 -69.9114 -69.9062 -69.9061 -53.4117 -53.4077
   -53.3685 -53.3680 -53.2547 -53.2198 -41.3596 -41.3557 -41.3442 -41.3441
   -41.3361 -41.3015 -41.2976 -41.2955 -41.2878 -41.2799 -41.2420 -41.2383
   -41.1804 -41.1768 -41.1724 -41.1697 -41.1695 -41.1671 -29.5799 -29.5794
   -29.5702 -29.5603 -29.5316 -29.4914 -29.4897 -29.4831 -29.4775 -29.3945
   -29.3619 -29.2414 -29.2060 -29.1830 -29.1642 -29.1612 -29.1462 -29.0614
    -4.4042  -2.8728  -2.4175  -2.3323  -2.2241  -1.9184  -1.7552  -1.7275
    -1.5562  -1.3772  -1.3709  -1.2616  -0.5517  -0.3370  -0.2616  -0.2511
    -0.2374  -0.1814  -0.1357  -0.1286   0.1462   0.2449   0.4622   0.7825
     0.9879   0.9978   1.0753   1.2090   1.3860   1.6545   1.7575   1.9438
     1.9806   2.0124   2.4797   2.5082   2.8321   2.8430   2.9760   3.0210
     3.1163   3.1926   3.2387   3.2563   3.4324   3.4902   3.5222   3.5843
     3.6284   3.6509   3.6835   3.7214   3.7248   3.8019   4.2737   4.3396
     4.3643   4.4595   4.5810   4.6395   5.0192   5.1004   5.3445

[...]

          k =-0.0931 0.0329 0.0000 ( 16902 PWs)   bands (ev):

[...]

     the Fermi energy is     1.5463 ev

!    total energy              =   -1768.65183544 Ry
     Harris-Foulkes estimate   =   -1768.65183448 Ry
     estimated scf accuracy    <       0.00000037 Ry

     The total energy is the sum of the following terms:

     one-electron contribution =  -14769.25930505 Ry
     hartree contribution      =    7376.54988708 Ry
     xc contribution           =    -253.85597545 Ry
     ewald contribution        =    5878.01256785 Ry
     electric field correction =       0.00000000 Ry
     smearing contrib. (-TS)   =      -0.09900987 Ry

     convergence has been achieved in  24 iterations

 BEEF-vdW xc energy contributions
           1 :   -218.904153496958
           2 :    198.045810664454
           3 :   -162.892137919140
           4 :    123.529211662599
           5 :   -89.3425150794729
           6 :    65.6647652209616
           7 :   -52.7406866388200
           8 :    47.0462933049213
           9 :   -43.8894007600318
          10 :    39.7927854621131
[...]
00029 suncat0254 pw.x -in pw.inp   Done                     12/19/2018 07:03:40
00030 suncat0254 pw.x -in pw.inp   Done                     12/19/2018 07:03:40
00031 suncat0254 pw.x -in pw.inp   Done                     12/19/2018 07:03:40

     Program PWSCF v.5.1rc2 (svn rev. 11289) starts on 19Dec2018 at  7: 3:46

[...]

   This run was terminated on:   7:19:44  19Dec2018

[...]

     Program PWSCF v.5.1rc2 (svn rev. 11289) starts on 19Dec2018 at  7:35:50

     Current dimensions of program PWSCF are:
     Max number of different atomic species (ntypx) = 10
     Max number of k-points (npk) =  40000
     Max angular momentum in pseudopotentials (lmaxx) =  3
     Presently stress not available with electric field

     IMPORTANT: XC functional enforced from input :
     Exchange-correlation      = BEEF-VDW ( 1  4 27 13 2)
     Any further DFT definition will be discarded
     Please, verify this is what you really want

     Subspace diagonalization in iterative solution of the eigenvalue problem:
     a serial algorithm will be used

     Found symmetry operation: I + ( -0.5000  0.5000  0.0000)
     This is a supercell, fractional translations are disabled

     bravais-lattice index     =            0
     lattice parameter (alat)  =       1.8897  a.u.
     unit-cell volume          =    4479.1650 (a.u.)^3
     number of atoms/cell      =           12
     number of atomic types    =            2
     number of electrons       =       162.00
     number of Kohn-Sham states=          111
     kinetic-energy cutoff     =      36.7493  Ry
     charge density cutoff     =     367.4932  Ry
     convergence threshold     =      1.0E-06
     mixing beta               =       0.1000
     number of iterations used =           10  plain     mixing
     Exchange-correlation      = BEEF-VDW ( 1  4 27 13 2)
     nstep                     =           50

     celldm(1)=   1.889726  celldm(2)=   0.000000  celldm(3)=   0.000000
     celldm(4)=   0.000000  celldm(5)=   0.000000  celldm(6)=   0.000000

     crystal axes: (cart. coord. in units of alat)
               a(1) = (   5.372669   0.000000   0.000000 )
               a(2) = (   1.789182   5.066004   0.000000 )
               a(3) = (   0.000000   0.000000  24.386241 )

     reciprocal axes: (cart. coord. in units 2 pi/alat)
               b(1) = (  0.186127 -0.065735  0.000000 )
               b(2) = (  0.000000  0.197394  0.000000 )
               b(3) = (  0.000000  0.000000  0.041007 )

     PseudoPot. # 1 for Cr read from file:
     /afs/slac.stanford.edu/u/if/mamunm/psp/gbrv1.5pbe/Cr.UPF
     MD5 check sum: 0d52af634a40206e4dee301ad30da4bf
     Pseudo is Ultrasoft + core correction, Zval = 14.0
     Generated by new atomic code, or converted to UPF format
     Using radial grid of  857 points,  6 beta functions with:
                l(1) =   0
                l(2) =   0
                l(3) =   1
                l(4) =   1
                l(5) =   2
                l(6) =   2
     Q(r) pseudized with  8 coefficients,  rinner =    0.950   0.950   0.950
                                                       0.950   0.950

     PseudoPot. # 2 for Nb read from file:
     /afs/slac.stanford.edu/u/if/mamunm/psp/gbrv1.5pbe/Nb.UPF
     MD5 check sum: 573aab8a2fa660278ed4a62cd769473f
     Pseudo is Ultrasoft + core correction, Zval = 13.0
     Generated by new atomic code, or converted to UPF format
     Using radial grid of  887 points,  6 beta functions with:
                l(1) =   0
                l(2) =   0
                l(3) =   1
                l(4) =   1
                l(5) =   2
                l(6) =   2
     Q(r) pseudized with  6 coefficients,  rinner =    1.000   1.000   1.000
                                                       1.000   1.000

     vdW kernel table read from file vdW_kernel_table
     MD5 check sum: 095c7af220d748ca6e76c0b4c6cfb241

     atomic species   valence    mass     pseudopotential
        Cr1           14.00    51.99610     Cr( 1.00)
        Nb1           13.00    92.90637     Nb( 1.00)

     No symmetry found

   Cartesian axes

     site n.     atom                  positions (alat units)
         1           Cr1 tau(   1) = (   0.0000000   0.0000000  10.0000000  )
         2           Cr1 tau(   2) = (   3.5809251   2.5330020  10.0000000  )
         3           Nb1 tau(   3) = (   2.6863343   0.0000000  10.0000000  )
         4           Nb1 tau(   4) = (   0.8945908   2.5330020  10.0000000  )
         5           Cr1 tau(   5) = (   5.3726686   3.8004091  12.1931207  )
         6           Cr1 tau(   6) = (   1.7917435   1.2674071  12.1931207  )
         7           Nb1 tau(   7) = (   2.6863343   3.8004091  12.1931207  )
         8           Nb1 tau(   8) = (   4.4780778   1.2674071  12.1931207  )
         9           Cr1 tau(   9) = (   3.5829218   2.5344152  14.2638526  )
        10           Cr1 tau(  10) = (   0.0019964   0.0014116  14.2638401  )
        11           Nb1 tau(  11) = (   0.8962002   2.5341423  14.3941755  )
        12           Nb1 tau(  12) = (   2.6879456   0.0011379  14.3941755  )

     number of k points=    20  Fermi-Dirac smearing, width (Ry)=  0.0110
                       cart. coord. in units 2pi/alat
        k(    1) = (   0.0000000   0.0000000   0.0000000), wk =   0.0555556
        k(    2) = (   0.0000000   0.0328990   0.0000000), wk =   0.1111111
        k(    3) = (   0.0000000   0.0657981   0.0000000), wk =   0.1111111
        k(    4) = (   0.0000000  -0.0986971   0.0000000), wk =   0.0555556
        k(    5) = (   0.0310212  -0.0109559   0.0000000), wk =   0.1111111
        k(    6) = (   0.0310212   0.0219432   0.0000000), wk =   0.1111111
        k(    7) = (   0.0310212   0.0548422   0.0000000), wk =   0.1111111
        k(    8) = (   0.0310212  -0.1096530   0.0000000), wk =   0.1111111
        k(    9) = (   0.0310212  -0.0767540   0.0000000), wk =   0.1111111
        k(   10) = (   0.0310212  -0.0438549   0.0000000), wk =   0.1111111
        k(   11) = (   0.0620424  -0.0219118   0.0000000), wk =   0.1111111
        k(   12) = (   0.0620424   0.0109873   0.0000000), wk =   0.1111111
        k(   13) = (   0.0620424   0.0438863   0.0000000), wk =   0.1111111
        k(   14) = (   0.0620424  -0.1206089   0.0000000), wk =   0.1111111
        k(   15) = (   0.0620424  -0.0877099   0.0000000), wk =   0.1111111
        k(   16) = (   0.0620424  -0.0548108   0.0000000), wk =   0.1111111
        k(   17) = (  -0.0930636   0.0328677   0.0000000), wk =   0.0555556
        k(   18) = (  -0.0930636   0.0657667   0.0000000), wk =   0.1111111
        k(   19) = (  -0.0930636   0.0986657   0.0000000), wk =   0.1111111
        k(   20) = (  -0.0930636  -0.0658295   0.0000000), wk =   0.0555556

     Largest allocated arrays     est. size (Mb)     dimensions
     Largest temporary arrays     est. size (Mb)     dimensions

     Check: negative/imaginary core charge=   -0.000003    0.000000

     Initial potential from superposition of free atoms
     Check: negative starting charge=   -0.010989

     starting charge  155.98351, renormalised to  162.00000

[...]

     *
     * You are using vdW-DF for exchange-correlation in this calculation.
     * Please cite the following three references that made this development
     * possible:
     *
     *   M. Dion, H. Rydberg, E. Schroder, D. C. Langreth, and
     *   B. I. Lundqvist, Phys. Rev. Lett. 92, 246401 (2004).
     *
     *   T. Thonhauser, V. R. Cooper, S. Li, A. Puzder, P. Hyldgaard, and
     *   D. C. Langreth, Phys. Rev. B 76, 125112 (2007).
     *
     *   G. Roman-Perez and J. M. Soler, Phys. Rev. Lett. 103, 096102 (2009).
     *
     *
     * If you are using vdW-DF2, please also cite:
     *
     *   K. Lee, E. D. Murray, L. Kong, B. I. Lundqvist, and
     *   D. C. Langreth, Phys. Rev. B 82, 081101(R) (2010).
     *
     *
     * If you are calculating the stress with vdW-DF, please also cite:
     *
     *   R. Sabatini, E. Kucukbenli, B. Kolb, T. Thonhauser, and
     *   S. de Gironcoli, J. Phys.: Condens. Matter 24, 424209 (2012).
     *

     Carrying out vdW-DF run using the following parameters:

     Nqs =      20    Nr_points =    1024   r_max =   100.000
     q_mesh =
               0.00001000     0.04494208     0.09755937     0.15916263
               0.23128650     0.31572767     0.41458969     0.53033537
               0.66584808     0.82450364     1.01025438     1.22772762
               1.48234092     1.78043706     2.12944203     2.53805004
               3.01644009     3.57652955     4.23227104     5.00000000

     Gradients computed in reciprocal space

[...]

     Starting wfc are  138 randomized atomic wfcs

     Self-consistent Calculation

[...]

     total energy              =   -1768.65864411 Ry
     Harris-Foulkes estimate   =   -1768.65864311 Ry
     estimated scf accuracy    <       0.00000186 Ry

     iteration # 25     ecut=    36.75 Ry     beta=0.10
     Davidson diagonalization with overlap
     ethr =  1.15E-09,  avg # of iterations =  2.0

[...]

     negative rho (up, down):  1.045E-02 0.000E+00

     Adding external electric field

     Computed dipole along edir(3) :
        Dipole                0.0241 Ry au,          0.0612 Debye
        Dipole field          0.0001 Ry au

        Potential amp.       -0.0061 Ry
        Total length         44.9312 bohr

     End of self-consistent calculation

[...]

          k = 0.0620-0.0548 0.0000 ( 16857 PWs)   bands (ev):

[...]

          k =-0.0931-0.0658 0.0000 ( 16864 PWs)   bands (ev):

   -69.9990 -69.9938 -69.8937 -69.8884 -69.8565 -69.8510 -53.3966 -53.3788
   -53.3587 -53.3405 -53.1653 -53.1201 -41.3258 -41.3246 -41.3237 -41.3186
   -41.3063 -41.2865 -41.2838 -41.2600 -41.2236 -41.2223 -41.2114 -41.1866
   -41.1470 -41.1467 -41.1450 -41.1372 -41.1353 -41.1214 -29.5987 -29.5849
   -29.5645 -29.5205 -29.5144 -29.4944 -29.4549 -29.4340 -29.4181 -29.4083
   -29.3550 -29.1642 -29.1465 -29.1362 -29.1286 -29.1206 -29.1179 -28.9873
    -2.4998  -2.3146  -1.5057  -1.3461  -1.3220  -1.1506  -1.1051  -1.0297
    -0.8899  -0.7110  -0.3760  -0.2498  -0.2330  -0.1258  -0.0436   0.0283
     0.2201   0.2666   0.2942   0.3965   0.4702   0.6932   0.7759   0.8108
     0.8469   0.8831   0.9437   1.0875   1.1360   1.1644   1.2924   1.3194
     1.3930   1.3979   1.4818   1.5261   1.6519   1.6547   1.8981   1.9778
     2.1021   2.1914   2.2055   2.4827   2.5637   2.6925   2.8752   2.8884
     2.8929   3.0405   3.0809   3.1315   3.1680   3.2248   3.4256   3.7427
     3.8630   3.9533   4.1684   4.3210   4.4363   4.6376   4.8906

     the Fermi energy is     1.5688 ev

!    total energy              =   -1768.65864778 Ry
     Harris-Foulkes estimate   =   -1768.65864440 Ry
     estimated scf accuracy    <       0.00000027 Ry

     The total energy is the sum of the following terms:

     one-electron contribution =  -14891.19530088 Ry
     hartree contribution      =    7437.72378906 Ry
     xc contribution           =    -253.94264856 Ry
     ewald contribution        =    5938.85556658 Ry
     electric field correction =       0.00000162 Ry
     smearing contrib. (-TS)   =      -0.10005560 Ry

     convergence has been achieved in  25 iterations

 BEEF-vdW xc energy contributions
           1 :   -218.994889069976
           2 :    198.173875653384
           3 :   -163.064100132251
           4 :    123.711893844900
           5 :   -89.4830536189978
           6 :    65.7251337465930
           7 :   -52.7231384697417
           8 :    46.9920891535916
           9 :   -43.8527059014598
          10 :    39.8085484128647
          11 :   -33.6962411419324
          12 :    26.3934485653188
          13 :   -19.6317103588931
          14 :    14.7370190620211
          15 :   -11.9573793868572
          16 :    10.5621577023894
          17 :   -9.46952203595845
          18 :    7.92825523507145
          19 :   -5.86388340461363
          20 :    3.76023478701811
          21 :   -2.24653134380139
          22 :    1.68887887001324
          23 :   -2.02460465143392
          24 :    2.87663872319752
          25 :   -3.81520812225654
          26 :    4.57434506341986
          27 :   -5.11232417162523
          28 :    5.52753277264634
          29 :   -5.92854652778092
          30 :    6.35039722099040
          31 :   -23.1959336782359
          32 :   -17.1087705311249

     Forces acting on atoms (Ry/au):

     negative rho (up, down):  1.045E-02 0.000E+00
     atom    1 type  1   force =     0.00004938    0.00003476    0.02587849
     atom    2 type  1   force =     0.00005024    0.00003587    0.02590798
     atom    3 type  2   force =     0.00018467    0.00013096   -0.00714966
     atom    4 type  2   force =     0.00018487    0.00013044   -0.00714980
     atom    5 type  1   force =    -0.00006485   -0.00004605   -0.00334026
     atom    6 type  1   force =    -0.00006448   -0.00004541   -0.00334065
     atom    7 type  2   force =    -0.00009675   -0.00007387   -0.01435210
     atom    8 type  2   force =    -0.00010208   -0.00006681   -0.01435224
     atom    9 type  1   force =    -0.00004829   -0.00003425    0.00008682
     atom   10 type  1   force =    -0.00004915   -0.00003474    0.00008730
     atom   11 type  2   force =    -0.00002130   -0.00001597   -0.00113788
     atom   12 type  2   force =    -0.00002227   -0.00001492   -0.00113798

     Total force =     0.043361     Total SCF correction =     0.001983

     entering subroutine stress ...

     negative rho (up, down):  1.045E-02 0.000E+00
          total   stress  (Ry/bohr**3)                   (kbar)     P=  -22.22
  -0.00021285  -0.00002141  -0.00000057        -31.31     -3.15     -0.08
  -0.00002141  -0.00019772  -0.00000040         -3.15    -29.09     -0.06
  -0.00000057  -0.00000040  -0.00004252         -0.08     -0.06     -6.26

 !ASE

     Writing output data file calc.save

     General routines

     Parallel routines

   This run was terminated on:   7:51:45  19Dec2018

   JOB DONE.
Job  /afs/slac/g/suncat/bin/suncat-tsmpirun -x LD_LIBRARY_PATH -wdir /scratch/qe529748_zASvW pw.x -in pw.inp

TID   HOST_NAME   COMMAND_LINE            STATUS            TERMINATION_TIME
00000 suncat0266 pw.x -in pw.inp   Done                     12/19/2018 07:51:45
00001 suncat0266 pw.x -in pw.inp   Done                     12/19/2018 07:51:45
00002 suncat0266 pw.x -in pw.inp   Done                     12/19/2018 07:51:45
00003 suncat0266 pw.x -in pw.inp   Done                     12/19/2018 07:51:45
00004 suncat0266 pw.x -in pw.inp   Done                     12/19/2018 07:51:45
00005 suncat0266 pw.x -in pw.inp   Done                     12/19/2018 07:51:45
00006 suncat0266 pw.x -in pw.inp   Done                     12/19/2018 07:51:45
00007 suncat0266 pw.x -in pw.inp   Done                     12/19/2018 07:51:45
00008 suncat0264 pw.x -in pw.inp   Done                     12/19/2018 07:51:45
00009 suncat0264 pw.x -in pw.inp   Done                     12/19/2018 07:51:45
00010 suncat0264 pw.x -in pw.inp   Done                     12/19/2018 07:51:45
00011 suncat0264 pw.x -in pw.inp   Done                     12/19/2018 07:51:45
00012 suncat0264 pw.x -in pw.inp   Done                     12/19/2018 07:51:45
00013 suncat0264 pw.x -in pw.inp   Done                     12/19/2018 07:51:45
00014 suncat0264 pw.x -in pw.inp   Done                     12/19/2018 07:51:45
00015 suncat0264 pw.x -in pw.inp   Done                     12/19/2018 07:51:45
00016 suncat0262 pw.x -in pw.inp   Done                     12/19/2018 07:51:45
00017 suncat0262 pw.x -in pw.inp   Done                     12/19/2018 07:51:45
00018 suncat0262 pw.x -in pw.inp   Done                     12/19/2018 07:51:45
00019 suncat0262 pw.x -in pw.inp   Done                     12/19/2018 07:51:45
00020 suncat0262 pw.x -in pw.inp   Done                     12/19/2018 07:51:45
00021 suncat0262 pw.x -in pw.inp   Done                     12/19/2018 07:51:45
00022 suncat0262 pw.x -in pw.inp   Done                     12/19/2018 07:51:45
00023 suncat0262 pw.x -in pw.inp   Done                     12/19/2018 07:51:45
00024 suncat0254 pw.x -in pw.inp   Done                     12/19/2018 07:51:45
00025 suncat0254 pw.x -in pw.inp   Done                     12/19/2018 07:51:45
00026 suncat0254 pw.x -in pw.inp   Done                     12/19/2018 07:51:45
00027 suncat0254 pw.x -in pw.inp   Done                     12/19/2018 07:51:45
00028 suncat0254 pw.x -in pw.inp   Done                     12/19/2018 07:51:45
00029 suncat0254 pw.x -in pw.inp   Done                     12/19/2018 07:51:45
00030 suncat0254 pw.x -in pw.inp   Done                     12/19/2018 07:51:45
00031 suncat0254 pw.x -in pw.inp   Done                     12/19/2018 07:51:45