     Program PWSCF v.5.1rc2 (svn rev. 11289) starts on 19Dec2018 at  3:19:59

     Current dimensions of program PWSCF are:
     Max number of different atomic species (ntypx) = 10
     Max number of k-points (npk) =  40000
     Max angular momentum in pseudopotentials (lmaxx) =  3
     Presently stress not available with electric field

     IMPORTANT: XC functional enforced from input :
     Exchange-correlation      = BEEF-VDW ( 1  4 27 13 2)
     Any further DFT definition will be discarded
     Please, verify this is what you really want

     Subspace diagonalization in iterative solution of the eigenvalue problem:
     a serial algorithm will be used

     Found symmetry operation: I + ( -0.5000  0.0000  0.0000)
     This is a supercell, fractional translations are disabled

     bravais-lattice index     =            0
     lattice parameter (alat)  =       1.8897  a.u.
     unit-cell volume          =    4278.3245 (a.u.)^3
     number of atoms/cell      =           12
     number of atomic types    =            2
     number of electrons       =       180.00
     number of Kohn-Sham states=          120
     kinetic-energy cutoff     =      36.7493  Ry
     charge density cutoff     =     367.4932  Ry
     convergence threshold     =      1.0E-06
     mixing beta               =       0.1000
     number of iterations used =           10  plain     mixing
     Exchange-correlation      = BEEF-VDW ( 1  4 27 13 2)
     nstep                     =           50

     celldm(1)=   1.889726  celldm(2)=   0.000000  celldm(3)=   0.000000
     celldm(4)=   0.000000  celldm(5)=   0.000000  celldm(6)=   0.000000

     crystal axes: (cart. coord. in units of alat)
               a(1) = (   5.398726   0.000000   0.000000 )
               a(2) = (  -2.699363   4.800149   0.000000 )
               a(3) = (   0.000000   0.000000  24.464204 )

     reciprocal axes: (cart. coord. in units 2 pi/alat)
               b(1) = (  0.185229  0.104163  0.000000 )
               b(2) = (  0.000000  0.208327  0.000000 )
               b(3) = (  0.000000  0.000000  0.040876 )

     PseudoPot. # 1 for Rh read from file:
     /afs/slac.stanford.edu/u/if/mamunm/psp/gbrv1.5pbe/Rh.UPF
     MD5 check sum: 761627e959a2e3a1f56b0b5fe687810e
     Pseudo is Ultrasoft + core correction, Zval = 15.0
     Generated by new atomic code, or converted to UPF format
     Using radial grid of  969 points,  7 beta functions with:
                l(1) =   0
                l(2) =   0
                l(3) =   1
                l(4) =   1
                l(5) =   2
                l(6) =   2
                l(7) =   2
     Q(r) pseudized with  8 coefficients,  rinner =    1.200   1.200   1.200
                                                       1.200   1.200

     PseudoPot. # 2 for Re read from file:
     /afs/slac.stanford.edu/u/if/mamunm/psp/gbrv1.5pbe/Re.UPF
     MD5 check sum: 85f993410f3e006da9d71c142b4ad953
     Pseudo is Ultrasoft + core correction, Zval = 15.0
     Generated by new atomic code, or converted to UPF format
     Using radial grid of  981 points,  8 beta functions with:
                l(1) =   0
                l(2) =   0
                l(3) =   1
                l(4) =   1
                l(5) =   2
                l(6) =   2
                l(7) =   3
                l(8) =   3
     Q(r) pseudized with  8 coefficients,  rinner =    1.150   1.150   1.150
                                                       1.150   1.150   1.150
                                                       1.150

     vdW kernel table read from file vdW_kernel_table
     MD5 check sum: 095c7af220d748ca6e76c0b4c6cfb241

     atomic species   valence    mass     pseudopotential
        Rh1           15.00   102.90550     Rh( 1.00)
        Re1           15.00   186.20700     Re( 1.00)

     No symmetry found

   Cartesian axes

     site n.     atom                  positions (alat units)
         1           Rh1 tau(   1) = (   0.0000000   0.0000000  10.0000000  )
         2           Rh1 tau(   2) = (   2.6993631   0.0000000  10.0000000  )
         3           Re1 tau(   3) = (   1.3496816   2.4000746  10.0000000  )
         4           Re1 tau(   4) = (  -1.3496816   2.4000746  10.0000000  )
         5           Rh1 tau(   5) = (   2.6993631   1.5179864  12.2321018  )
         6           Rh1 tau(   6) = (   0.0000000   1.5179864  12.2321018  )
         7           Re1 tau(   7) = (  -1.3496816   3.9180610  12.2321018  )
         8           Re1 tau(   8) = (   1.3496816   3.9180610  12.2321018  )
         9           Rh1 tau(   9) = (   0.0000000   3.0359728  14.4642036  )
        10           Rh1 tau(  10) = (   2.6993631   3.0359728  14.4642036  )
        11           Re1 tau(  11) = (   4.0490447   0.6358983  14.4642036  )
        12           Re1 tau(  12) = (   1.3496816   0.6358983  14.4642036  )

     number of k points=    20  Fermi-Dirac smearing, width (Ry)=  0.0110
                       cart. coord. in units 2pi/alat
        k(    1) = (   0.0000000   0.0000000   0.0000000), wk =   0.0555556
        k(    2) = (   0.0000000   0.0347211   0.0000000), wk =   0.1111111
        k(    3) = (   0.0000000   0.0694423   0.0000000), wk =   0.1111111
        k(    4) = (   0.0000000  -0.1041634   0.0000000), wk =   0.0555556
        k(    5) = (   0.0308715   0.0173606   0.0000000), wk =   0.1111111
        k(    6) = (   0.0308715   0.0520817   0.0000000), wk =   0.1111111
        k(    7) = (   0.0308715   0.0868029   0.0000000), wk =   0.1111111
        k(    8) = (   0.0308715  -0.0868029   0.0000000), wk =   0.1111111
        k(    9) = (   0.0308715  -0.0520817   0.0000000), wk =   0.1111111
        k(   10) = (   0.0308715  -0.0173606   0.0000000), wk =   0.1111111
        k(   11) = (   0.0617430   0.0347211   0.0000000), wk =   0.1111111
        k(   12) = (   0.0617430   0.0694423   0.0000000), wk =   0.1111111
        k(   13) = (   0.0617430   0.1041634   0.0000000), wk =   0.1111111
        k(   14) = (   0.0617430  -0.0694423   0.0000000), wk =   0.1111111
        k(   15) = (   0.0617430  -0.0347211   0.0000000), wk =   0.1111111
        k(   16) = (   0.0617430   0.0000000   0.0000000), wk =   0.1111111
        k(   17) = (  -0.0926144  -0.0520817   0.0000000), wk =   0.0555556
        k(   18) = (  -0.0926144  -0.0173606   0.0000000), wk =   0.1111111
        k(   19) = (  -0.0926144   0.0173606   0.0000000), wk =   0.1111111
        k(   20) = (  -0.0926144  -0.1562451   0.0000000), wk =   0.0555556

     Largest allocated arrays     est. size (Mb)     dimensions
     Largest temporary arrays     est. size (Mb)     dimensions

     Initial potential from superposition of free atoms
     Check: negative starting charge=   -1.101396

     starting charge  173.99914, renormalised to  180.00000

     negative rho (up, down):  1.139E+00 0.000E+00

     *
     * You are using vdW-DF for exchange-correlation in this calculation.
     * Please cite the following three references that made this development
     * possible:
     *
     *   M. Dion, H. Rydberg, E. Schroder, D. C. Langreth, and
     *   B. I. Lundqvist, Phys. Rev. Lett. 92, 246401 (2004).
     *
     *   T. Thonhauser, V. R. Cooper, S. Li, A. Puzder, P. Hyldgaard, and
     *   D. C. Langreth, Phys. Rev. B 76, 125112 (2007).
     *
     *   G. Roman-Perez and J. M. Soler, Phys. Rev. Lett. 103, 096102 (2009).
     *
     *
     * If you are using vdW-DF2, please also cite:
     *
     *   K. Lee, E. D. Murray, L. Kong, B. I. Lundqvist, and
     *   D. C. Langreth, Phys. Rev. B 82, 081101(R) (2010).
     *
     *
     * If you are calculating the stress with vdW-DF, please also cite:
     *
     *   R. Sabatini, E. Kucukbenli, B. Kolb, T. Thonhauser, and
     *   S. de Gironcoli, J. Phys.: Condens. Matter 24, 424209 (2012).
     *

     Carrying out vdW-DF run using the following parameters:

     Nqs =      20    Nr_points =    1024   r_max =   100.000
     q_mesh =
               0.00001000     0.04494208     0.09755937     0.15916263
               0.23128650     0.31572767     0.41458969     0.53033537
               0.66584808     0.82450364     1.01025438     1.22772762
               1.48234092     1.78043706     2.12944203     2.53805004
               3.01644009     3.57652955     4.23227104     5.00000000

     Gradients computed in reciprocal space

     Adding external electric field

     Computed dipole along edir(3) :
        Dipole                0.0000 Ry au,          0.0000 Debye
        Dipole field          0.0000 Ry au

        Potential amp.       -0.0000 Ry
        Total length         45.0749 bohr

     Starting wfc are  150 randomized atomic wfcs

     Self-consistent Calculation

     iteration #  1     ecut=    36.75 Ry     beta=0.10
     Davidson diagonalization with overlap
     ethr =  1.00E-02,  avg # of iterations =  8.3

[...]

     total energy              =   -2186.22511501 Ry
     Harris-Foulkes estimate   =   -2187.58503901 Ry
     estimated scf accuracy    <       8.21272837 Ry

[...]

     End of self-consistent calculation

          k = 0.0000 0.0000 0.0000 ( 15989 PWs)   bands (ev):

   -78.7725 -78.7253 -78.3963 -78.3955 -78.3496 -78.3488 -44.9917 -44.8684
   -44.8257 -44.8196 -44.7813 -44.6190 -44.4581 -44.4550 -44.4185 -44.4162
   -44.3712 -44.3666 -44.2555 -44.2317 -44.2185 -44.1933 -44.0879 -44.0878
   -40.7758 -40.5594 -40.4868 -40.4341 -40.3716 -40.3326 -40.3253 -40.1313
   -40.0938 -40.0629 -40.0568 -40.0467 -40.0313 -39.9832 -39.9339 -39.8706
   -39.6199 -39.6180  -6.0143  -4.2475  -4.0596  -3.8080  -3.7973  -3.6776
    -3.4958  -3.3062  -3.3030  -3.0347  -3.0192  -2.9435  -2.7436  -2.6341
    -2.5849  -1.4285  -1.4173  -1.4050  -1.0929  -0.8655  -0.6595  -0.5787
    -0.4885  -0.3669  -0.2800  -0.1390  -0.0307   0.0218   0.1764   0.2933
     0.3119   0.4280   0.4334   0.5866   1.0550   1.3742   1.4363   1.5563
     1.6347   1.6963   1.7498   1.9345   2.3448   2.3956   2.5333   2.6928
     2.7235   2.9315   3.2816   3.2955   3.6316   3.6366   3.7124   3.7439
     3.8396   3.9921   4.0195   4.0286   4.2823   4.3403   4.4054   4.6174
     4.8703   4.9017   5.0518   5.1890   5.5414   5.8880   6.2734   6.3731
     6.4260   6.7781   6.8463   6.9899   7.4182   7.6084   8.4902   9.4086

[...]

          k =-0.0926-0.0521 0.0000 ( 16088 PWs)   bands (ev):

[...]

     the Fermi energy is     2.2303 ev

!    total energy              =   -2186.10118569 Ry
     Harris-Foulkes estimate   =   -2186.10118331 Ry
     estimated scf accuracy    <       0.00000059 Ry

     The total energy is the sum of the following terms:

     one-electron contribution =  -18621.22508687 Ry
     hartree contribution      =    9321.47423483 Ry
     xc contribution           =    -510.34158409 Ry
     ewald contribution        =    7624.06481405 Ry
     electric field correction =       0.00000000 Ry
     smearing contrib. (-TS)   =      -0.07356361 Ry

     convergence has been achieved in  16 iterations

 BEEF-vdW xc energy contributions
           1 :   -450.494088559154
           2 :    417.110239196405
           3 :   -357.943608662189
           4 :    285.475937690982
           5 :   -213.050431433868
[...]

     iteration #  8     ecut=    36.75 Ry     beta=0.10
     Davidson diagonalization with overlap
     c_bands:  1 eigenvalues not converged
     ethr =  1.02E-05,  avg # of iterations =  5.2

[...]

     Program PWSCF v.5.1rc2 (svn rev. 11289) starts on 19Dec2018 at  3:39:49

[...]

     Program PWSCF v.5.1rc2 (svn rev. 11289) starts on 19Dec2018 at  3:45: 5

     Current dimensions of program PWSCF are:
     Max number of different atomic species (ntypx) = 10
     Max number of k-points (npk) =  40000
     Max angular momentum in pseudopotentials (lmaxx) =  3
     Presently stress not available with electric field

     IMPORTANT: XC functional enforced from input :
     Exchange-correlation      = BEEF-VDW ( 1  4 27 13 2)
     Any further DFT definition will be discarded
     Please, verify this is what you really want

     Subspace diagonalization in iterative solution of the eigenvalue problem:
     a serial algorithm will be used

     Found symmetry operation: I + ( -0.5000  0.0000  0.0000)
     This is a supercell, fractional translations are disabled

     bravais-lattice index     =            0
     lattice parameter (alat)  =       1.8897  a.u.
     unit-cell volume          =    4278.3245 (a.u.)^3
     number of atoms/cell      =           12
     number of atomic types    =            2
     number of electrons       =       180.00
     number of Kohn-Sham states=          120
     kinetic-energy cutoff     =      36.7493  Ry
     charge density cutoff     =     367.4932  Ry
     convergence threshold     =      1.0E-06
     mixing beta               =       0.1000
     number of iterations used =           10  plain     mixing
     Exchange-correlation      = BEEF-VDW ( 1  4 27 13 2)
     nstep                     =           50

     celldm(1)=   1.889726  celldm(2)=   0.000000  celldm(3)=   0.000000
     celldm(4)=   0.000000  celldm(5)=   0.000000  celldm(6)=   0.000000

     crystal axes: (cart. coord. in units of alat)
               a(1) = (   5.398726   0.000000   0.000000 )
               a(2) = (  -2.699363   4.800149   0.000000 )
               a(3) = (   0.000000   0.000000  24.464204 )

     reciprocal axes: (cart. coord. in units 2 pi/alat)
               b(1) = (  0.185229  0.104163  0.000000 )
               b(2) = (  0.000000  0.208327  0.000000 )
               b(3) = (  0.000000  0.000000  0.040876 )

     PseudoPot. # 1 for Rh read from file:
     /afs/slac.stanford.edu/u/if/mamunm/psp/gbrv1.5pbe/Rh.UPF
     MD5 check sum: 761627e959a2e3a1f56b0b5fe687810e
     Pseudo is Ultrasoft + core correction, Zval = 15.0
     Generated by new atomic code, or converted to UPF format
     Using radial grid of  969 points,  7 beta functions with:
                l(1) =   0
                l(2) =   0
                l(3) =   1
                l(4) =   1
                l(5) =   2
                l(6) =   2
                l(7) =   2
     Q(r) pseudized with  8 coefficients,  rinner =    1.200   1.200   1.200
                                                       1.200   1.200

     PseudoPot. # 2 for Re read from file:
     /afs/slac.stanford.edu/u/if/mamunm/psp/gbrv1.5pbe/Re.UPF
     MD5 check sum: 85f993410f3e006da9d71c142b4ad953
     Pseudo is Ultrasoft + core correction, Zval = 15.0
     Generated by new atomic code, or converted to UPF format
     Using radial grid of  981 points,  8 beta functions with:
                l(1) =   0
                l(2) =   0
                l(3) =   1
                l(4) =   1
                l(5) =   2
                l(6) =   2
                l(7) =   3
                l(8) =   3
     Q(r) pseudized with  8 coefficients,  rinner =    1.150   1.150   1.150
                                                       1.150   1.150   1.150
                                                       1.150

     vdW kernel table read from file vdW_kernel_table
     MD5 check sum: 095c7af220d748ca6e76c0b4c6cfb241

     atomic species   valence    mass     pseudopotential
        Rh1           15.00   102.90550     Rh( 1.00)
        Re1           15.00   186.20700     Re( 1.00)

     No symmetry found

   Cartesian axes

     site n.     atom                  positions (alat units)
         1           Rh1 tau(   1) = (   0.0000000   0.0000000  10.0000000  )
         2           Rh1 tau(   2) = (   2.6993631   0.0000000  10.0000000  )
         3           Re1 tau(   3) = (   1.3496816   2.4000746  10.0000000  )
         4           Re1 tau(   4) = (  -1.3496816   2.4000746  10.0000000  )
         5           Rh1 tau(   5) = (   2.6993631   1.5179864  12.2321018  )
         6           Rh1 tau(   6) = (   0.0000000   1.5179864  12.2321018  )
         7           Re1 tau(   7) = (  -1.3496816   3.9180610  12.2321018  )
         8           Re1 tau(   8) = (   1.3496816   3.9180610  12.2321018  )
         9           Rh1 tau(   9) = (  -0.0000007   3.1374407  14.3935590  )
        10           Rh1 tau(  10) = (   2.6993696   3.1374355  14.3935584  )
        11           Re1 tau(  11) = (   4.0490539   0.6524095  14.3649131  )
        12           Re1 tau(  12) = (   1.3496826   0.6524033  14.3649103  )

     number of k points=    20  Fermi-Dirac smearing, width (Ry)=  0.0110
                       cart. coord. in units 2pi/alat
        k(    1) = (   0.0000000   0.0000000   0.0000000), wk =   0.0555556
        k(    2) = (   0.0000000   0.0347211   0.0000000), wk =   0.1111111
        k(    3) = (   0.0000000   0.0694423   0.0000000), wk =   0.1111111
        k(    4) = (   0.0000000  -0.1041634   0.0000000), wk =   0.0555556
        k(    5) = (   0.0308715   0.0173606   0.0000000), wk =   0.1111111
        k(    6) = (   0.0308715   0.0520817   0.0000000), wk =   0.1111111
        k(    7) = (   0.0308715   0.0868029   0.0000000), wk =   0.1111111
        k(    8) = (   0.0308715  -0.0868029   0.0000000), wk =   0.1111111
        k(    9) = (   0.0308715  -0.0520817   0.0000000), wk =   0.1111111
        k(   10) = (   0.0308715  -0.0173606   0.0000000), wk =   0.1111111
        k(   11) = (   0.0617430   0.0347211   0.0000000), wk =   0.1111111
        k(   12) = (   0.0617430   0.0694423   0.0000000), wk =   0.1111111
        k(   13) = (   0.0617430   0.1041634   0.0000000), wk =   0.1111111
        k(   14) = (   0.0617430  -0.0694423   0.0000000), wk =   0.1111111
        k(   15) = (   0.0617430  -0.0347211   0.0000000), wk =   0.1111111
        k(   16) = (   0.0617430   0.0000000   0.0000000), wk =   0.1111111
        k(   17) = (  -0.0926144  -0.0520817   0.0000000), wk =   0.0555556
        k(   18) = (  -0.0926144  -0.0173606   0.0000000), wk =   0.1111111
        k(   19) = (  -0.0926144   0.0173606   0.0000000), wk =   0.1111111
        k(   20) = (  -0.0926144  -0.1562451   0.0000000), wk =   0.0555556

     Largest allocated arrays     est. size (Mb)     dimensions
     Largest temporary arrays     est. size (Mb)     dimensions

     Initial potential from superposition of free atoms
     Check: negative starting charge=   -1.100925

     starting charge  173.99914, renormalised to  180.00000

[...]

     *
     * You are using vdW-DF for exchange-correlation in this calculation.
     * Please cite the following three references that made this development
     * possible:
     *
     *   M. Dion, H. Rydberg, E. Schroder, D. C. Langreth, and
     *   B. I. Lundqvist, Phys. Rev. Lett. 92, 246401 (2004).
     *
     *   T. Thonhauser, V. R. Cooper, S. Li, A. Puzder, P. Hyldgaard, and
     *   D. C. Langreth, Phys. Rev. B 76, 125112 (2007).
     *
     *   G. Roman-Perez and J. M. Soler, Phys. Rev. Lett. 103, 096102 (2009).
     *
     *
     * If you are using vdW-DF2, please also cite:
     *
     *   K. Lee, E. D. Murray, L. Kong, B. I. Lundqvist, and
     *   D. C. Langreth, Phys. Rev. B 82, 081101(R) (2010).
     *
     *
     * If you are calculating the stress with vdW-DF, please also cite:
     *
     *   R. Sabatini, E. Kucukbenli, B. Kolb, T. Thonhauser, and
     *   S. de Gironcoli, J. Phys.: Condens. Matter 24, 424209 (2012).
     *

     Carrying out vdW-DF run using the following parameters:

     Nqs =      20    Nr_points =    1024   r_max =   100.000
     q_mesh =
               0.00001000     0.04494208     0.09755937     0.15916263
               0.23128650     0.31572767     0.41458969     0.53033537
               0.66584808     0.82450364     1.01025438     1.22772762
               1.48234092     1.78043706     2.12944203     2.53805004
               3.01644009     3.57652955     4.23227104     5.00000000

     Gradients computed in reciprocal space

[...]

     Starting wfc are  150 randomized atomic wfcs

     Self-consistent Calculation

[...]

     total energy              =   -2186.11566866 Ry
     Harris-Foulkes estimate   =   -2186.11566855 Ry
     estimated scf accuracy    <       0.00000114 Ry

     iteration # 16     ecut=    36.75 Ry     beta=0.10
     Davidson diagonalization with overlap
     ethr =  6.35E-10,  avg # of iterations =  2.1

[...]

     negative rho (up, down):  1.156E+00 0.000E+00

     Adding external electric field

     Computed dipole along edir(3) :
        Dipole                0.0192 Ry au,          0.0488 Debye
        Dipole field          0.0001 Ry au

        Potential amp.       -0.0051 Ry
        Total length         45.0749 bohr

     End of self-consistent calculation

[...]

          k = 0.0617 0.0000 0.0000 ( 16104 PWs)   bands (ev):

[...]

          k =-0.0926-0.1562 0.0000 ( 16088 PWs)   bands (ev):

   -78.7302 -78.7302 -78.3546 -78.3546 -78.3366 -78.3366 -44.9134 -44.9134
   -44.8728 -44.8727 -44.8462 -44.8462 -44.4437 -44.4437 -44.3554 -44.3554
   -44.3521 -44.3520 -44.2945 -44.2945 -44.2312 -44.2312 -44.1850 -44.1850
   -40.5617 -40.5617 -40.4199 -40.4199 -40.4029 -40.4029 -40.0718 -40.0718
   -40.0495 -40.0495 -40.0073 -40.0073 -39.9783 -39.9782 -39.9497 -39.9496
   -39.8634 -39.8634  -4.2718  -4.2718  -3.0262  -3.0262  -2.8340  -2.8340
    -2.7319  -2.7319  -2.4854  -2.4854  -2.2093  -2.2093  -1.8367  -1.8366
    -1.7482  -1.7482  -1.4446  -1.4445  -1.2667  -1.2667  -0.9332  -0.9332
    -0.4784  -0.4784  -0.2981  -0.2981  -0.1417  -0.1417  -0.0624  -0.0624
     0.0729   0.0729   0.2520   0.2520   0.3649   0.3649   0.4222   0.4222
     0.4998   0.4998   0.9845   0.9846   1.4501   1.4501   1.8581   1.8581
     1.9766   1.9766   2.1732   2.1732   2.3702   2.3702   2.4774   2.4774
     2.6730   2.6730   3.1889   3.1890   3.3688   3.3688   4.1077   4.1077
     4.4189   4.4189   5.2205   5.2205   6.2448   6.2448   6.8682   6.8682
     7.3987   7.3987   8.4485   8.4486   8.6172   8.6172   9.1738   9.1738

     the Fermi energy is     2.2487 ev

!    total energy              =   -2186.11567073 Ry
     Harris-Foulkes estimate   =   -2186.11566856 Ry
     estimated scf accuracy    <       0.00000057 Ry

     The total energy is the sum of the following terms:

     one-electron contribution =  -18849.32560955 Ry
     hartree contribution      =    9435.45915155 Ry
     xc contribution           =    -510.56274765 Ry
     ewald contribution        =    7738.38460516 Ry
     electric field correction =       0.00000108 Ry
     smearing contrib. (-TS)   =      -0.07107133 Ry

     convergence has been achieved in  16 iterations

 BEEF-vdW xc energy contributions
           1 :   -450.720705446139
           2 :    417.422447124989
           3 :   -358.373775709346
           4 :    285.977829391713
           5 :   -213.515784193143
           6 :    151.444741249206
           7 :   -105.141445054857
           8 :    74.6295371724212
           9 :   -56.0688118994719
          10 :    44.1669010988885
          11 :   -34.4656501068401
          12 :    24.6831882170936
          13 :   -14.8213693810686
          14 :    6.29337331875229
          15 :  -0.663913840927819
          16 :   -1.37976463229802
          17 :   0.427431168831049
          18 :    1.94386588950124
          19 :   -3.90953147884011
          20 :    4.18678753400263
          21 :   -2.50322889222946
          22 :  -0.435698370786781
          23 :    3.40498958927935
          24 :   -5.28568400725749
          25 :    5.55791701629516
          26 :   -4.45936968903209
          27 :    2.77716457457882
          28 :   -1.41168864972474
          29 :   0.943141286520699
          30 :   -1.40752327818109
          31 :   -39.9483437158528
          32 :   -29.8027298346585

     Forces acting on atoms (Ry/au):

     negative rho (up, down):  1.156E+00 0.000E+00
     atom    1 type  1   force =    -0.00000019   -0.02343387    0.01469052
     atom    2 type  1   force =     0.00000026   -0.02343490    0.01469093
     atom    3 type  2   force =    -0.00000209    0.01602993    0.02380604
     atom    4 type  2   force =     0.00000081    0.01602860    0.02380508
     atom    5 type  1   force =     0.00000066    0.00504549   -0.01528689
     atom    6 type  1   force =    -0.00000018    0.00504647   -0.01528690
     atom    7 type  2   force =     0.00000078    0.00235267   -0.02323253
     atom    8 type  2   force =    -0.00000078    0.00235807   -0.02322491
     atom    9 type  1   force =     0.00000172    0.00014787    0.00009848
     atom   10 type  1   force =    -0.00000239    0.00014803    0.00009852
     atom   11 type  2   force =     0.00000050   -0.00014418   -0.00008035
     atom   12 type  2   force =     0.00000090   -0.00014418   -0.00007798

     Total force =     0.069180     Total SCF correction =     0.002098

     entering subroutine stress ...

     negative rho (up, down):  1.156E+00 0.000E+00
          total   stress  (Ry/bohr**3)                   (kbar)     P=  -34.86
  -0.00023328   0.00000000  -0.00000000        -34.32      0.00     -0.00
   0.00000000  -0.00030629   0.00001431          0.00    -45.06      2.11
  -0.00000000   0.00001431  -0.00017144         -0.00      2.11    -25.22

 !ASE

     Writing output data file calc.save

     General routines

     Parallel routines

   This run was terminated on:   3:49:57  19Dec2018

   JOB DONE.
Job  /afs/slac/g/suncat/bin/suncat-tsmpirun -x LD_LIBRARY_PATH -wdir /scratch/qe530488_gViuc pw.x -in pw.inp

TID   HOST_NAME   COMMAND_LINE            STATUS            TERMINATION_TIME
00000 suncat2050 pw.x -in pw.inp   Done                     12/19/2018 03:49:57
00001 suncat2050 pw.x -in pw.inp   Done                     12/19/2018 03:49:57
00002 suncat2050 pw.x -in pw.inp   Done                     12/19/2018 03:49:57
00003 suncat2050 pw.x -in pw.inp   Done                     12/19/2018 03:49:57
00004 suncat2050 pw.x -in pw.inp   Done                     12/19/2018 03:49:57
00005 suncat2050 pw.x -in pw.inp   Done                     12/19/2018 03:49:57
00006 suncat2050 pw.x -in pw.inp   Done                     12/19/2018 03:49:57
00007 suncat2050 pw.x -in pw.inp   Done                     12/19/2018 03:49:57
00008 suncat2050 pw.x -in pw.inp   Done                     12/19/2018 03:49:57
00009 suncat2050 pw.x -in pw.inp   Done                     12/19/2018 03:49:57
00010 suncat2050 pw.x -in pw.inp   Done                     12/19/2018 03:49:57
00011 suncat2050 pw.x -in pw.inp   Done                     12/19/2018 03:49:57
00012 suncat2050 pw.x -in pw.inp   Done                     12/19/2018 03:49:57
00013 suncat2050 pw.x -in pw.inp   Done                     12/19/2018 03:49:57
00014 suncat2050 pw.x -in pw.inp   Done                     12/19/2018 03:49:57
00015 suncat2050 pw.x -in pw.inp   Done                     12/19/2018 03:49:57
00016 suncat2049 pw.x -in pw.inp   Done                     12/19/2018 03:49:57
00017 suncat2049 pw.x -in pw.inp   Done                     12/19/2018 03:49:57
00018 suncat2049 pw.x -in pw.inp   Done                     12/19/2018 03:49:57
00019 suncat2049 pw.x -in pw.inp   Done                     12/19/2018 03:49:57
00020 suncat2049 pw.x -in pw.inp   Done                     12/19/2018 03:49:57
00021 suncat2049 pw.x -in pw.inp   Done                     12/19/2018 03:49:57
00022 suncat2049 pw.x -in pw.inp   Done                     12/19/2018 03:49:57
00023 suncat2049 pw.x -in pw.inp   Done                     12/19/2018 03:49:57
00024 suncat2049 pw.x -in pw.inp   Done                     12/19/2018 03:49:57
00025 suncat2049 pw.x -in pw.inp   Done                     12/19/2018 03:49:57
00026 suncat2049 pw.x -in pw.inp   Done                     12/19/2018 03:49:57
00027 suncat2049 pw.x -in pw.inp   Done                     12/19/2018 03:49:57
00028 suncat2049 pw.x -in pw.inp   Done                     12/19/2018 03:49:57
00029 suncat2049 pw.x -in pw.inp   Done                     12/19/2018 03:49:57
00030 suncat2049 pw.x -in pw.inp   Done                     12/19/2018 03:49:57
00031 suncat2049 pw.x -in pw.inp   Done                     12/19/2018 03:49:57