     Program PWSCF v.5.1rc2 (svn rev. 11289) starts on 29Dec2018 at 20:21: 2

     Current dimensions of program PWSCF are:
     Max number of different atomic species (ntypx) = 10
     Max number of k-points (npk) =  40000
     Max angular momentum in pseudopotentials (lmaxx) =  3
     Presently stress not available with electric field

     IMPORTANT: XC functional enforced from input :
     Exchange-correlation      = BEEF-VDW ( 1  4 27 13 2)
     Any further DFT definition will be discarded
     Please, verify this is what you really want

     Subspace diagonalization in iterative solution of the eigenvalue problem:
     a serial algorithm will be used

     Found symmetry operation: I + (  0.5000  0.0000  0.0000)
     This is a supercell, fractional translations are disabled

     bravais-lattice index     =            0
     lattice parameter (alat)  =       1.8897  a.u.
     unit-cell volume          =    4344.1404 (a.u.)^3
     number of atoms/cell      =           12
     number of atomic types    =            2
     number of electrons       =       180.00
     number of Kohn-Sham states=          120
     kinetic-energy cutoff     =      36.7493  Ry
     charge density cutoff     =     367.4932  Ry
     convergence threshold     =      1.0E-06
     mixing beta               =       0.1000
     number of iterations used =           10  plain     mixing
     Exchange-correlation      = BEEF-VDW ( 1  4 27 13 2)
     nstep                     =           50

     celldm(1)=   1.889726  celldm(2)=   0.000000  celldm(3)=   0.000000
     celldm(4)=   0.000000  celldm(5)=   0.000000  celldm(6)=   0.000000

     crystal axes: (cart. coord. in units of alat)
               a(1) = (   5.508407   0.000000   0.000000 )
               a(2) = (  -2.754204   4.770431   0.000000 )
               a(3) = (   0.000000   0.000000  24.497601 )

     reciprocal axes: (cart. coord. in units 2 pi/alat)
               b(1) = (  0.181541  0.104812  0.000000 )
               b(2) = (  0.000000  0.209625  0.000000 )
               b(3) = (  0.000000  0.000000  0.040820 )

     PseudoPot. # 1 for Tc read from file:
     /afs/slac.stanford.edu/u/if/mamunm/psp/gbrv1.5pbe/Tc.UPF
     MD5 check sum: 9eb49e5b028550b2339a02317eb7b844
     Pseudo is Ultrasoft + core correction, Zval = 15.0
     Generated by new atomic code, or converted to UPF format
     Using radial grid of  965 points,  6 beta functions with:
                l(1) =   0
                l(2) =   0
                l(3) =   1
                l(4) =   1
                l(5) =   2
                l(6) =   2
     Q(r) pseudized with  8 coefficients,  rinner =    1.300   1.300   1.300
                                                       1.300   1.300

     PseudoPot. # 2 for Re read from file:
     /afs/slac.stanford.edu/u/if/mamunm/psp/gbrv1.5pbe/Re.UPF
     MD5 check sum: 85f993410f3e006da9d71c142b4ad953
     Pseudo is Ultrasoft + core correction, Zval = 15.0
     Generated by new atomic code, or converted to UPF format
     Using radial grid of  981 points,  8 beta functions with:
                l(1) =   0
                l(2) =   0
                l(3) =   1
                l(4) =   1
                l(5) =   2
                l(6) =   2
                l(7) =   3
                l(8) =   3
     Q(r) pseudized with  8 coefficients,  rinner =    1.150   1.150   1.150
                                                       1.150   1.150   1.150
                                                       1.150

     vdW kernel table read from file vdW_kernel_table
     MD5 check sum: 095c7af220d748ca6e76c0b4c6cfb241

     atomic species   valence    mass     pseudopotential
        Tc1           15.00    97.90721     Tc( 1.00)
        Re1           15.00   186.20700     Re( 1.00)

     No symmetry found

   Cartesian axes

     site n.     atom                  positions (alat units)
         1           Tc1 tau(   1) = (   0.0000000   0.0000000  10.0000000  )
         2           Tc1 tau(   2) = (   2.7542037   0.0000000  10.0000000  )
         3           Re1 tau(   3) = (   1.3771019   2.3852156  10.0000000  )
         4           Re1 tau(   4) = (  -1.3771019   2.3852156  10.0000000  )
         5           Tc1 tau(   5) = (   2.7542037   1.5901368  12.2488004  )
         6           Tc1 tau(   6) = (   0.0000000   1.5901368  12.2488004  )
         7           Re1 tau(   7) = (  -1.3771019   3.9753524  12.2488004  )
         8           Re1 tau(   8) = (   1.3771019   3.9753524  12.2488004  )
         9           Tc1 tau(   9) = (   0.0000000   3.1802736  14.4976008  )
        10           Tc1 tau(  10) = (   2.7542037   3.1802736  14.4976008  )
        11           Re1 tau(  11) = (   4.1313056   0.7950579  14.4976008  )
        12           Re1 tau(  12) = (   1.3771019   0.7950579  14.4976008  )

     number of k points=    20  Fermi-Dirac smearing, width (Ry)=  0.0110
                       cart. coord. in units 2pi/alat
        k(    1) = (   0.0000000   0.0000000   0.0000000), wk =   0.0555556
        k(    2) = (   0.0000000   0.0349374   0.0000000), wk =   0.1111111
        k(    3) = (   0.0000000   0.0698749   0.0000000), wk =   0.1111111
        k(    4) = (   0.0000000  -0.1048123   0.0000000), wk =   0.0555556
        k(    5) = (   0.0302568   0.0174687   0.0000000), wk =   0.1111111
        k(    6) = (   0.0302568   0.0524062   0.0000000), wk =   0.1111111
        k(    7) = (   0.0302568   0.0873436   0.0000000), wk =   0.1111111
        k(    8) = (   0.0302568  -0.0873436   0.0000000), wk =   0.1111111
        k(    9) = (   0.0302568  -0.0524062   0.0000000), wk =   0.1111111
        k(   10) = (   0.0302568  -0.0174687   0.0000000), wk =   0.1111111
        k(   11) = (   0.0605136   0.0349374   0.0000000), wk =   0.1111111
        k(   12) = (   0.0605136   0.0698749   0.0000000), wk =   0.1111111
        k(   13) = (   0.0605136   0.1048123   0.0000000), wk =   0.1111111
        k(   14) = (   0.0605136  -0.0698749   0.0000000), wk =   0.1111111
        k(   15) = (   0.0605136  -0.0349374   0.0000000), wk =   0.1111111
        k(   16) = (   0.0605136   0.0000000   0.0000000), wk =   0.1111111
        k(   17) = (  -0.0907703  -0.0524062   0.0000000), wk =   0.0555556
        k(   18) = (  -0.0907703  -0.0174687   0.0000000), wk =   0.1111111
        k(   19) = (  -0.0907703   0.0174687   0.0000000), wk =   0.1111111
        k(   20) = (  -0.0907703  -0.1572185   0.0000000), wk =   0.0555556

     Largest allocated arrays     est. size (Mb)     dimensions
     Largest temporary arrays     est. size (Mb)     dimensions

     Check: negative/imaginary core charge=   -0.000012    0.000000

     Initial potential from superposition of free atoms
     Check: negative starting charge=   -1.523894

     starting charge  170.99956, renormalised to  180.00000

     negative rho (up, down):  1.604E+00 0.000E+00

     *
     * You are using vdW-DF for exchange-correlation in this calculation.
     * Please cite the following three references that made this development
     * possible:
     *
     *   M. Dion, H. Rydberg, E. Schroder, D. C. Langreth, and
     *   B. I. Lundqvist, Phys. Rev. Lett. 92, 246401 (2004).
     *
     *   T. Thonhauser, V. R. Cooper, S. Li, A. Puzder, P. Hyldgaard, and
     *   D. C. Langreth, Phys. Rev. B 76, 125112 (2007).
     *
     *   G. Roman-Perez and J. M. Soler, Phys. Rev. Lett. 103, 096102 (2009).
     *
     *
     * If you are using vdW-DF2, please also cite:
     *
     *   K. Lee, E. D. Murray, L. Kong, B. I. Lundqvist, and
     *   D. C. Langreth, Phys. Rev. B 82, 081101(R) (2010).
     *
     *
     * If you are calculating the stress with vdW-DF, please also cite:
     *
     *   R. Sabatini, E. Kucukbenli, B. Kolb, T. Thonhauser, and
     *   S. de Gironcoli, J. Phys.: Condens. Matter 24, 424209 (2012).
     *

     Carrying out vdW-DF run using the following parameters:

     Nqs =      20    Nr_points =    1024   r_max =   100.000
     q_mesh =
               0.00001000     0.04494208     0.09755937     0.15916263
               0.23128650     0.31572767     0.41458969     0.53033537
               0.66584808     0.82450364     1.01025438     1.22772762
               1.48234092     1.78043706     2.12944203     2.53805004
               3.01644009     3.57652955     4.23227104     5.00000000

     Gradients computed in reciprocal space

     Adding external electric field

     Computed dipole along edir(3) :
        Dipole                0.0000 Ry au,          0.0000 Debye
        Dipole field          0.0000 Ry au

        Potential amp.       -0.0000 Ry
        Total length         45.1364 bohr

     Starting wfc are  156 randomized atomic wfcs

     Self-consistent Calculation

     iteration #  1     ecut=    36.75 Ry     beta=0.10
     Davidson diagonalization with overlap
     ethr =  1.00E-02,  avg # of iterations =  6.8

[...]

     total energy              =   -2205.81515688 Ry
     Harris-Foulkes estimate   =   -2206.82829291 Ry
     estimated scf accuracy    <       6.79777306 Ry

[...]

     End of self-consistent calculation

          k = 0.0000 0.0000 0.0000 ( 16259 PWs)   bands (ev):

   -78.0660 -78.0291 -77.8799 -77.8790 -77.8436 -77.8427 -64.6136 -64.5497
   -64.4084 -64.4056 -64.3453 -64.3428 -40.0864 -39.9657 -39.8782 -39.8163
   -39.8047 -39.7978 -39.7327 -39.6588 -39.6298 -39.5966 -39.5750 -39.5345
   -39.4859 -39.4556 -39.4495 -39.3842 -39.1808 -39.1802 -36.8384 -36.7086
   -36.6663 -36.6042 -36.5891 -36.5715 -36.5426 -36.4747 -36.4124 -36.3694
   -36.3333 -36.3092 -36.2817 -36.2816 -36.2516 -36.2158 -36.0420 -36.0390
    -5.3633  -3.6666  -3.4351  -3.1259  -3.0580  -2.9561  -2.8666  -2.5472
    -2.5057  -2.2660  -2.2569  -2.2493  -2.0471  -1.9075  -1.8754  -0.7171
    -0.6568  -0.5913   0.2518   0.2599   0.2701   0.4556   0.5384   0.8452
     0.8472   1.2414   1.2473   1.2620   1.2895   1.3118   1.5035   1.5205
     1.5232   1.6060   1.6352   2.0576   2.8270   2.9278   2.9830   3.0259
     3.0283   3.1903   3.2566   3.4504   3.5069   4.0358   4.1372   4.3810
     4.5180   4.5332   4.5784   4.6905   4.7678   4.8278   5.0767   5.2098
     5.2290   5.2376   5.5175   5.8452   5.8653   5.9530   6.0981   6.2053
     6.3079   6.4458   6.5710   6.6305   6.8855   6.9278   7.0216   7.1177

[...]

          k =-0.0908-0.0524 0.0000 ( 16332 PWs)   bands (ev):

[...]

     the Fermi energy is     2.5824 ev

!    total energy              =   -2204.55031762 Ry
     Harris-Foulkes estimate   =   -2204.55030697 Ry
     estimated scf accuracy    <       0.00000062 Ry

     The total energy is the sum of the following terms:

     one-electron contribution =  -18306.47979151 Ry
     hartree contribution      =    9144.13270134 Ry
     xc contribution           =    -522.84614321 Ry
     ewald contribution        =    7480.72560088 Ry
     electric field correction =       0.00000000 Ry
     smearing contrib. (-TS)   =      -0.08268513 Ry

     convergence has been achieved in  17 iterations

 BEEF-vdW xc energy contributions
           1 :   -462.410660536953
           2 :    428.156837241143
           3 :   -366.853580022459
           4 :    290.384559986152
[...]
     Using radial grid of  965 points,  6 beta functions with:
                l(1) =   0
                l(2) =   0
                l(3) =   1
                l(4) =   1
                l(5) =   2
                l(6) =   2
     Q(r) pseudized with  8 coefficients,  rinner =    1.300   1.300   1.300
                                                       1.300   1.300

     PseudoPot. # 2 for Re read from file:
     /afs/slac.stanford.edu/u/if/mamunm/psp/gbrv1.5pbe/Re.UPF
     MD5 check sum: 85f993410f3e006da9d71c142b4ad953
     Pseudo is Ultrasoft + core correction, Zval = 15.0
     Generated by new atomic code, or converted to UPF format
     Using radial grid of  981 points,  8 beta functions with:
                l(1) =   0
                l(2) =   0
                l(3) =   1
                l(4) =   1
                l(5) =   2
                l(6) =   2
                l(7) =   3
                l(8) =   3
     Q(r) pseudized with  8 coefficients,  rinner =    1.150   1.150   1.150
                                                       1.150   1.150   1.150
                                                       1.150

     vdW kernel table read from file vdW_kernel_table
     MD5 check sum: 095c7af220d748ca6e76c0b4c6cfb241

     atomic species   valence    mass     pseudopotential
        Tc1           15.00    97.90721     Tc( 1.00)
        Re1           15.00   186.20700     Re( 1.00)

     No symmetry found

   Cartesian axes

     site n.     atom                  positions (alat units)
         1           Tc1 tau(   1) = (   0.0000000   0.0000000  10.0000000  )
         2           Tc1 tau(   2) = (   2.7542037   0.0000000  10.0000000  )
         3           Re1 tau(   3) = (   1.3771019   2.3852156  10.0000000  )
         4           Re1 tau(   4) = (  -1.3771019   2.3852156  10.0000000  )
         5           Tc1 tau(   5) = (   2.7542037   1.5901368  12.2488004  )
         6           Tc1 tau(   6) = (   0.0000000   1.5901368  12.2488004  )
         7           Re1 tau(   7) = (  -1.3771019   3.9753524  12.2488004  )
         8           Re1 tau(   8) = (   1.3771019   3.9753524  12.2488004  )
         9           Tc1 tau(   9) = (   0.0000017   3.1837177  14.4102972  )
        10           Tc1 tau(  10) = (   2.7542018   3.1836987  14.4102929  )
        11           Re1 tau(  11) = (   4.1312998   0.7892798  14.3691123  )
        12           Re1 tau(  12) = (   1.3771055   0.7892794  14.3691158  )

     number of k points=    20  Fermi-Dirac smearing, width (Ry)=  0.0110
                       cart. coord. in units 2pi/alat
        k(    1) = (   0.0000000   0.0000000   0.0000000), wk =   0.0555556
        k(    2) = (   0.0000000   0.0349374   0.0000000), wk =   0.1111111
        k(    3) = (   0.0000000   0.0698749   0.0000000), wk =   0.1111111
        k(    4) = (   0.0000000  -0.1048123   0.0000000), wk =   0.0555556
        k(    5) = (   0.0302568   0.0174687   0.0000000), wk =   0.1111111
        k(    6) = (   0.0302568   0.0524062   0.0000000), wk =   0.1111111
        k(    7) = (   0.0302568   0.0873436   0.0000000), wk =   0.1111111
        k(    8) = (   0.0302568  -0.0873436   0.0000000), wk =   0.1111111
        k(    9) = (   0.0302568  -0.0524062   0.0000000), wk =   0.1111111
        k(   10) = (   0.0302568  -0.0174687   0.0000000), wk =   0.1111111
        k(   11) = (   0.0605136   0.0349374   0.0000000), wk =   0.1111111
        k(   12) = (   0.0605136   0.0698749   0.0000000), wk =   0.1111111
        k(   13) = (   0.0605136   0.1048123   0.0000000), wk =   0.1111111
        k(   14) = (   0.0605136  -0.0698749   0.0000000), wk =   0.1111111
        k(   15) = (   0.0605136  -0.0349374   0.0000000), wk =   0.1111111
        k(   16) = (   0.0605136   0.0000000   0.0000000), wk =   0.1111111
        k(   17) = (  -0.0907703  -0.0524062   0.0000000), wk =   0.0555556
        k(   18) = (  -0.0907703  -0.0174687   0.0000000), wk =   0.1111111
        k(   19) = (  -0.0907703   0.0174687   0.0000000), wk =   0.1111111
        k(   20) = (  -0.0907703  -0.1572185   0.0000000), wk =   0.0555556

     Largest allocated arrays     est. size (Mb)     dimensions
     Largest temporary arrays     est. size (Mb)     dimensions

     Check: negative/imaginary core charge=   -0.000012    0.000000

     Initial potential from superposition of free atoms
     Check: negative starting charge=   -1.524617

     starting charge  170.99956, renormalised to  180.00000

[...]

     *
     * You are using vdW-DF for exchange-correlation in this calculation.
     * Please cite the following three references that made this development
     * possible:
     *
     *   M. Dion, H. Rydberg, E. Schroder, D. C. Langreth, and
     *   B. I. Lundqvist, Phys. Rev. Lett. 92, 246401 (2004).
     *
     *   T. Thonhauser, V. R. Cooper, S. Li, A. Puzder, P. Hyldgaard, and
     *   D. C. Langreth, Phys. Rev. B 76, 125112 (2007).
     *
     *   G. Roman-Perez and J. M. Soler, Phys. Rev. Lett. 103, 096102 (2009).
     *
     *
     * If you are using vdW-DF2, please also cite:
     *
     *   K. Lee, E. D. Murray, L. Kong, B. I. Lundqvist, and
     *   D. C. Langreth, Phys. Rev. B 82, 081101(R) (2010).
     *
     *
     * If you are calculating the stress with vdW-DF, please also cite:
     *
     *   R. Sabatini, E. Kucukbenli, B. Kolb, T. Thonhauser, and
     *   S. de Gironcoli, J. Phys.: Condens. Matter 24, 424209 (2012).
     *

     Carrying out vdW-DF run using the following parameters:

     Nqs =      20    Nr_points =    1024   r_max =   100.000
     q_mesh =
               0.00001000     0.04494208     0.09755937     0.15916263
               0.23128650     0.31572767     0.41458969     0.53033537
               0.66584808     0.82450364     1.01025438     1.22772762
               1.48234092     1.78043706     2.12944203     2.53805004
               3.01644009     3.57652955     4.23227104     5.00000000

     Gradients computed in reciprocal space

[...]

     Starting wfc are  156 randomized atomic wfcs

     Self-consistent Calculation

[...]

     total energy              =   -2204.56535614 Ry
     Harris-Foulkes estimate   =   -2204.56535365 Ry
     estimated scf accuracy    <       0.00000157 Ry

     iteration # 17     ecut=    36.75 Ry     beta=0.10
     Davidson diagonalization with overlap
     ethr =  8.70E-10,  avg # of iterations =  2.0

[...]

     negative rho (up, down):  1.607E+00 0.000E+00

     Adding external electric field

     Computed dipole along edir(3) :
        Dipole                0.0410 Ry au,          0.1042 Debye
        Dipole field          0.0001 Ry au

        Potential amp.       -0.0107 Ry
        Total length         45.1364 bohr

     End of self-consistent calculation

[...]

          k = 0.0605 0.0000 0.0000 ( 16350 PWs)   bands (ev):

[...]

          k =-0.0908-0.1572 0.0000 ( 16332 PWs)   bands (ev):

   -78.0152 -78.0152 -77.8707 -77.8707 -77.7665 -77.7665 -64.5620 -64.5620
   -64.3685 -64.3684 -64.3019 -64.3019 -39.9379 -39.9379 -39.7631 -39.7631
   -39.7416 -39.7416 -39.6313 -39.6313 -39.5344 -39.5344 -39.4929 -39.4929
   -39.4898 -39.4898 -39.4279 -39.4279 -39.3274 -39.3274 -36.7057 -36.7057
   -36.5781 -36.5781 -36.5515 -36.5515 -36.4106 -36.4105 -36.3399 -36.3398
   -36.3101 -36.3101 -36.2888 -36.2887 -36.2700 -36.2700 -36.1809 -36.1809
    -3.6025  -3.6025  -2.3452  -2.3452  -2.0556  -2.0555  -1.9532  -1.9532
    -1.6678  -1.6678  -1.3309  -1.3309  -1.0034  -1.0034  -0.8874  -0.8874
    -0.4519  -0.4518  -0.3922  -0.3922   0.0047   0.0047   0.5443   0.5443
     0.7771   0.7771   0.8633   0.8633   1.0080   1.0081   1.0671   1.0672
     1.2733   1.2734   1.3988   1.3988   1.4852   1.4852   1.5583   1.5583
     2.4359   2.4359   2.5456   2.5456   2.7929   2.7929   3.1292   3.1292
     3.4086   3.4086   3.5516   3.5516   3.5799   3.5799   3.9745   3.9745
     4.2431   4.2431   4.8160   4.8161   5.4991   5.4991   5.8776   5.8776
     6.0401   6.0401   7.6771   7.6771   7.9613   7.9613   8.0305   8.0305

     the Fermi energy is     2.6106 ev

!    total energy              =   -2204.56536778 Ry
     Harris-Foulkes estimate   =   -2204.56535608 Ry
     estimated scf accuracy    <       0.00000020 Ry

     The total energy is the sum of the following terms:

     one-electron contribution =  -18590.90807923 Ry
     hartree contribution      =    9286.49028753 Ry
     xc contribution           =    -523.14461952 Ry
     ewald contribution        =    7623.07637791 Ry
     electric field correction =       0.00000486 Ry
     smearing contrib. (-TS)   =      -0.07933932 Ry

     convergence has been achieved in  17 iterations

 BEEF-vdW xc energy contributions
           1 :   -462.711587443369
           2 :    428.556649145497
           3 :   -367.391510906069
           4 :    291.008583932145
           5 :   -212.339784555067
           6 :    142.004754331865
           7 :   -86.1663494639535
           8 :    46.1053092679164
           9 :   -19.3876418393231
          10 :    1.86203608812093
          11 :    10.3433106256581
          12 :   -19.5533434600424
          13 :    26.2657399532727
          14 :   -29.7461515898590
          15 :    29.0455590012098
          16 :   -23.9460370578201
          17 :    15.4212816841724
          18 :   -5.48385476693329
          19 :   -3.46487147001432
          20 :    9.44658410584765
          21 :   -11.5293552070177
          22 :    10.0037118480014
          23 :   -6.08845902226932
          24 :    1.33356751493665
          25 :    2.99036060276183
          26 :   -6.26501256547829
          27 :    8.53645377426267
          28 :   -10.2291504051701
          29 :    11.7419630076888
          30 :   -13.1415822018921
          31 :   -40.4688740079334
          32 :   -29.9110492662655

     Forces acting on atoms (Ry/au):

     negative rho (up, down):  1.607E+00 0.000E+00
     atom    1 type  1   force =    -0.00000034   -0.00195396    0.01107294
     atom    2 type  1   force =     0.00000006   -0.00195653    0.01107233
     atom    3 type  2   force =    -0.00000027    0.00246709    0.02842054
     atom    4 type  2   force =     0.00000090    0.00246712    0.02842164
     atom    5 type  1   force =    -0.00000118    0.00191038   -0.02160875
     atom    6 type  1   force =     0.00000079    0.00190769   -0.02161241
     atom    7 type  2   force =    -0.00000905   -0.00252588   -0.01819637
     atom    8 type  2   force =     0.00000924   -0.00252692   -0.01819904
     atom    9 type  1   force =    -0.00000089   -0.00087368    0.00036600
     atom   10 type  1   force =     0.00000062   -0.00086575    0.00036668
     atom   11 type  2   force =     0.00000782    0.00097609   -0.00005172
     atom   12 type  2   force =    -0.00000769    0.00097435   -0.00005185

     Total force =     0.059166     Total SCF correction =     0.001631

     entering subroutine stress ...

     negative rho (up, down):  1.607E+00 0.000E+00
          total   stress  (Ry/bohr**3)                   (kbar)     P=  -26.93
  -0.00022618  -0.00000000   0.00000000        -33.27     -0.00      0.00
  -0.00000000  -0.00022224  -0.00000133         -0.00    -32.69     -0.20
   0.00000000  -0.00000133  -0.00010081          0.00     -0.20    -14.83

 !ASE

     Writing output data file calc.save

     General routines

     Parallel routines

   This run was terminated on:  21:16:37  29Dec2018

   JOB DONE.
Job  /afs/slac/g/suncat/bin/suncat-tsmpirun -x LD_LIBRARY_PATH -wdir /scratch/qe387725_BaGgE pw.x -in pw.inp

TID   HOST_NAME   COMMAND_LINE            STATUS            TERMINATION_TIME
00000 suncat0083 pw.x -in pw.inp   Done                     12/29/2018 21:16:37
00001 suncat0083 pw.x -in pw.inp   Done                     12/29/2018 21:16:37
00002 suncat0083 pw.x -in pw.inp   Done                     12/29/2018 21:16:37
00003 suncat0083 pw.x -in pw.inp   Done                     12/29/2018 21:16:37
00004 suncat0083 pw.x -in pw.inp   Done                     12/29/2018 21:16:37
00005 suncat0083 pw.x -in pw.inp   Done                     12/29/2018 21:16:37
00006 suncat0083 pw.x -in pw.inp   Done                     12/29/2018 21:16:37
00007 suncat0083 pw.x -in pw.inp   Done                     12/29/2018 21:16:37
00008 suncat0066 pw.x -in pw.inp   Done                     12/29/2018 21:16:37
00009 suncat0066 pw.x -in pw.inp   Done                     12/29/2018 21:16:37
00010 suncat0066 pw.x -in pw.inp   Done                     12/29/2018 21:16:37
00011 suncat0066 pw.x -in pw.inp   Done                     12/29/2018 21:16:37
00012 suncat0066 pw.x -in pw.inp   Done                     12/29/2018 21:16:37
00013 suncat0066 pw.x -in pw.inp   Done                     12/29/2018 21:16:37
00014 suncat0066 pw.x -in pw.inp   Done                     12/29/2018 21:16:37
00015 suncat0066 pw.x -in pw.inp   Done                     12/29/2018 21:16:37
00016 suncat0061 pw.x -in pw.inp   Done                     12/29/2018 21:16:37
00017 suncat0061 pw.x -in pw.inp   Done                     12/29/2018 21:16:37
00018 suncat0061 pw.x -in pw.inp   Done                     12/29/2018 21:16:37
00019 suncat0061 pw.x -in pw.inp   Done                     12/29/2018 21:16:37
00020 suncat0061 pw.x -in pw.inp   Done                     12/29/2018 21:16:37
00021 suncat0061 pw.x -in pw.inp   Done                     12/29/2018 21:16:37
00022 suncat0061 pw.x -in pw.inp   Done                     12/29/2018 21:16:37
00023 suncat0061 pw.x -in pw.inp   Done                     12/29/2018 21:16:37
00024 suncat0057 pw.x -in pw.inp   Done                     12/29/2018 21:16:37
00025 suncat0057 pw.x -in pw.inp   Done                     12/29/2018 21:16:37
00026 suncat0057 pw.x -in pw.inp   Done                     12/29/2018 21:16:37
00027 suncat0057 pw.x -in pw.inp   Done                     12/29/2018 21:16:37
00028 suncat0057 pw.x -in pw.inp   Done                     12/29/2018 21:16:37
00029 suncat0057 pw.x -in pw.inp   Done                     12/29/2018 21:16:37
00030 suncat0057 pw.x -in pw.inp   Done                     12/29/2018 21:16:37
00031 suncat0057 pw.x -in pw.inp   Done                     12/29/2018 21:16:37
00032 suncat0106 pw.x -in pw.inp   Done                     12/29/2018 21:16:37
00033 suncat0106 pw.x -in pw.inp   Done                     12/29/2018 21:16:37
00034 suncat0106 pw.x -in pw.inp   Done                     12/29/2018 21:16:37
00035 suncat0106 pw.x -in pw.inp   Done                     12/29/2018 21:16:37
00036 suncat0106 pw.x -in pw.inp   Done                     12/29/2018 21:16:37
00037 suncat0106 pw.x -in pw.inp   Done                     12/29/2018 21:16:37
00038 suncat0106 pw.x -in pw.inp   Done                     12/29/2018 21:16:37
00039 suncat0106 pw.x -in pw.inp   Done                     12/29/2018 21:16:37
00040 suncat0105 pw.x -in pw.inp   Done                     12/29/2018 21:16:37
00041 suncat0105 pw.x -in pw.inp   Done                     12/29/2018 21:16:37
00042 suncat0105 pw.x -in pw.inp   Done                     12/29/2018 21:16:37
00043 suncat0105 pw.x -in pw.inp   Done                     12/29/2018 21:16:37
00044 suncat0105 pw.x -in pw.inp   Done                     12/29/2018 21:16:37
00045 suncat0105 pw.x -in pw.inp   Done                     12/29/2018 21:16:37
00046 suncat0105 pw.x -in pw.inp   Done                     12/29/2018 21:16:37
00047 suncat0105 pw.x -in pw.inp   Done                     12/29/2018 21:16:37
00048 suncat0277 pw.x -in pw.inp   Done                     12/29/2018 21:16:37
00049 suncat0277 pw.x -in pw.inp   Done                     12/29/2018 21:16:37
00050 suncat0277 pw.x -in pw.inp   Done                     12/29/2018 21:16:37
00051 suncat0277 pw.x -in pw.inp   Done                     12/29/2018 21:16:37
00052 suncat0277 pw.x -in pw.inp   Done                     12/29/2018 21:16:37
00053 suncat0277 pw.x -in pw.inp   Done                     12/29/2018 21:16:37
00054 suncat0277 pw.x -in pw.inp   Done                     12/29/2018 21:16:37
00055 suncat0277 pw.x -in pw.inp   Done                     12/29/2018 21:16:37
00056 suncat0276 pw.x -in pw.inp   Done                     12/29/2018 21:16:37
00057 suncat0276 pw.x -in pw.inp   Done                     12/29/2018 21:16:37
00058 suncat0276 pw.x -in pw.inp   Done                     12/29/2018 21:16:37
00059 suncat0276 pw.x -in pw.inp   Done                     12/29/2018 21:16:37
00060 suncat0276 pw.x -in pw.inp   Done                     12/29/2018 21:16:37
00061 suncat0276 pw.x -in pw.inp   Done                     12/29/2018 21:16:37
00062 suncat0276 pw.x -in pw.inp   Done                     12/29/2018 21:16:37
00063 suncat0276 pw.x -in pw.inp   Done                     12/29/2018 21:16:37