     Program PWSCF v.5.1rc2 (svn rev. 11289) starts on 19Dec2018 at  7:33: 2

     Current dimensions of program PWSCF are:
     Max number of different atomic species (ntypx) = 10
     Max number of k-points (npk) =  40000
     Max angular momentum in pseudopotentials (lmaxx) =  3
     Presently stress not available with electric field

     IMPORTANT: XC functional enforced from input :
     Exchange-correlation      = BEEF-VDW ( 1  4 27 13 2)
     Any further DFT definition will be discarded
     Please, verify this is what you really want

     Subspace diagonalization in iterative solution of the eigenvalue problem:
     a serial algorithm will be used

     Found symmetry operation: I + ( -0.5000  0.0000  0.0000)
     This is a supercell, fractional translations are disabled

     bravais-lattice index     =            0
     lattice parameter (alat)  =       1.8897  a.u.
     unit-cell volume          =    5302.6674 (a.u.)^3
     number of atoms/cell      =           12
     number of atomic types    =            2
     number of electrons       =       150.00
     number of Kohn-Sham states=          105
     kinetic-energy cutoff     =      36.7493  Ry
     charge density cutoff     =     367.4932  Ry
     convergence threshold     =      1.0E-06
     mixing beta               =       0.1000
     number of iterations used =           10  plain     mixing
     Exchange-correlation      = BEEF-VDW ( 1  4 27 13 2)
     nstep                     =           50

     celldm(1)=   1.889726  celldm(2)=   0.000000  celldm(3)=   0.000000
     celldm(4)=   0.000000  celldm(5)=   0.000000  celldm(6)=   0.000000

     crystal axes: (cart. coord. in units of alat)
               a(1) = (   6.021603   0.000000   0.000000 )
               a(2) = (  -3.010801   5.235171   0.000000 )
               a(3) = (   0.000000   0.000000  24.926127 )

     reciprocal axes: (cart. coord. in units 2 pi/alat)
               b(1) = (  0.166069  0.095508  0.000000 )
               b(2) = (  0.000000  0.191016  0.000000 )
               b(3) = (  0.000000  0.000000  0.040119 )

     PseudoPot. # 1 for Ti read from file:
     /afs/slac.stanford.edu/u/if/mamunm/psp/gbrv1.5pbe/Ti.UPF
     MD5 check sum: 88a00a6731bd790ddea75d31a80cb452
     Pseudo is Ultrasoft + core correction, Zval = 12.0
     Generated by new atomic code, or converted to UPF format
     Using radial grid of  851 points,  6 beta functions with:
                l(1) =   0
                l(2) =   0
                l(3) =   1
                l(4) =   1
                l(5) =   2
                l(6) =   2
     Q(r) pseudized with  6 coefficients,  rinner =    1.000   1.000   1.000
                                                       1.000   1.000

     PseudoPot. # 2 for In read from file:
     /afs/slac.stanford.edu/u/if/mamunm/psp/gbrv1.5pbe/In.UPF
     MD5 check sum: 90777abd96fbb83f2e67db2a40c566b9
     Pseudo is Ultrasoft + core correction, Zval = 13.0
     Generated by new atomic code, or converted to UPF format
     Using radial grid of  889 points,  6 beta functions with:
                l(1) =   0
                l(2) =   0
                l(3) =   1
                l(4) =   1
                l(5) =   2
                l(6) =   2
     Q(r) pseudized with  6 coefficients,  rinner =    1.400   1.400   1.400
                                                       1.400   1.400

     vdW kernel table read from file vdW_kernel_table
     MD5 check sum: 095c7af220d748ca6e76c0b4c6cfb241

     atomic species   valence    mass     pseudopotential
        Ti1           12.00    47.86700     Ti( 1.00)
        In1           13.00   114.81800     In( 1.00)

     No symmetry found

   Cartesian axes

     site n.     atom                  positions (alat units)
         1           Ti1 tau(   1) = (   0.0000000   0.0000000  10.0000000  )
         2           Ti1 tau(   2) = (   3.0108014   0.0000000  10.0000000  )
         3           In1 tau(   3) = (   1.5054007   2.6175855  10.0000000  )
         4           In1 tau(   4) = (   4.5162021   2.6175855  10.0000000  )
         5           Ti1 tau(   5) = (   3.0108014   1.7315432  12.4630637  )
         6           Ti1 tau(   6) = (  -0.0000000   1.7315432  12.4630637  )
         7           In1 tau(   7) = (  -1.5054007   4.3491287  12.4630637  )
         8           In1 tau(   8) = (   1.5054007   4.3491287  12.4630637  )
         9           Ti1 tau(   9) = (   0.0000000   3.4630864  14.9261275  )
        10           Ti1 tau(  10) = (   3.0108014   3.4630864  14.9261275  )
        11           In1 tau(  11) = (   4.5162021   0.8455009  14.9261275  )
        12           In1 tau(  12) = (   1.5054007   0.8455009  14.9261275  )

     number of k points=    20  Fermi-Dirac smearing, width (Ry)=  0.0110
                       cart. coord. in units 2pi/alat
        k(    1) = (   0.0000000   0.0000000   0.0000000), wk =   0.0555556
        k(    2) = (   0.0000000   0.0318360   0.0000000), wk =   0.1111111
        k(    3) = (   0.0000000   0.0636719   0.0000000), wk =   0.1111111
        k(    4) = (   0.0000000  -0.0955079   0.0000000), wk =   0.0555556
        k(    5) = (   0.0276781   0.0159180   0.0000000), wk =   0.1111111
        k(    6) = (   0.0276781   0.0477539   0.0000000), wk =   0.1111111
        k(    7) = (   0.0276781   0.0795899   0.0000000), wk =   0.1111111
        k(    8) = (   0.0276781  -0.0795899   0.0000000), wk =   0.1111111
        k(    9) = (   0.0276781  -0.0477539   0.0000000), wk =   0.1111111
        k(   10) = (   0.0276781  -0.0159180   0.0000000), wk =   0.1111111
        k(   11) = (   0.0553562   0.0318360   0.0000000), wk =   0.1111111
        k(   12) = (   0.0553562   0.0636719   0.0000000), wk =   0.1111111
        k(   13) = (   0.0553562   0.0955079   0.0000000), wk =   0.1111111
        k(   14) = (   0.0553562  -0.0636719   0.0000000), wk =   0.1111111
        k(   15) = (   0.0553562  -0.0318360   0.0000000), wk =   0.1111111
        k(   16) = (   0.0553562  -0.0000000   0.0000000), wk =   0.1111111
        k(   17) = (  -0.0830344  -0.0477539   0.0000000), wk =   0.0555556
        k(   18) = (  -0.0830344  -0.0159180   0.0000000), wk =   0.1111111
        k(   19) = (  -0.0830344   0.0159180   0.0000000), wk =   0.1111111
        k(   20) = (  -0.0830344  -0.1432618   0.0000000), wk =   0.0555556

     Largest allocated arrays     est. size (Mb)     dimensions
     Largest temporary arrays     est. size (Mb)     dimensions

     Check: negative/imaginary core charge=   -0.000003    0.000000

     Initial potential from superposition of free atoms
     Check: negative starting charge=   -0.008183

     starting charge  134.99973, renormalised to  150.00000

     negative rho (up, down):  9.092E-03 0.000E+00

     *
     * You are using vdW-DF for exchange-correlation in this calculation.
     * Please cite the following three references that made this development
     * possible:
     *
     *   M. Dion, H. Rydberg, E. Schroder, D. C. Langreth, and
     *   B. I. Lundqvist, Phys. Rev. Lett. 92, 246401 (2004).
     *
     *   T. Thonhauser, V. R. Cooper, S. Li, A. Puzder, P. Hyldgaard, and
     *   D. C. Langreth, Phys. Rev. B 76, 125112 (2007).
     *
     *   G. Roman-Perez and J. M. Soler, Phys. Rev. Lett. 103, 096102 (2009).
     *
     *
     * If you are using vdW-DF2, please also cite:
     *
     *   K. Lee, E. D. Murray, L. Kong, B. I. Lundqvist, and
     *   D. C. Langreth, Phys. Rev. B 82, 081101(R) (2010).
     *
     *
     * If you are calculating the stress with vdW-DF, please also cite:
     *
     *   R. Sabatini, E. Kucukbenli, B. Kolb, T. Thonhauser, and
     *   S. de Gironcoli, J. Phys.: Condens. Matter 24, 424209 (2012).
     *

     Carrying out vdW-DF run using the following parameters:

     Nqs =      20    Nr_points =    1024   r_max =   100.000
     q_mesh =
               0.00001000     0.04494208     0.09755937     0.15916263
               0.23128650     0.31572767     0.41458969     0.53033537
               0.66584808     0.82450364     1.01025438     1.22772762
               1.48234092     1.78043706     2.12944203     2.53805004
               3.01644009     3.57652955     4.23227104     5.00000000

     Gradients computed in reciprocal space

     Adding external electric field

     Computed dipole along edir(3) :
        Dipole                0.0000 Ry au,          0.0000 Debye
        Dipole field          0.0000 Ry au

        Potential amp.       -0.0000 Ry
        Total length         45.9260 bohr

     Starting wfc are  114 randomized atomic wfcs

     Self-consistent Calculation

     iteration #  1     ecut=    36.75 Ry     beta=0.10
     Davidson diagonalization with overlap
     ethr =  1.00E-02,  avg # of iterations =  8.1

[...]

     total energy              =   -1530.66225157 Ry
     Harris-Foulkes estimate   =   -1536.25453677 Ry
     estimated scf accuracy    <      32.97784585 Ry

[...]

     End of self-consistent calculation

          k = 0.0000 0.0000 0.0000 ( 19783 PWs)   bands (ev):

   -56.4608 -56.4605 -56.4355 -56.4352 -56.1610 -56.1350 -32.8484 -32.8443
   -32.8225 -32.8181 -32.6789 -32.6634 -32.6516 -32.6429 -32.6426 -32.6372
   -32.5200 -32.4915 -32.4374 -32.4009 -32.4006 -32.3217 -32.2961 -32.1891
   -14.1410 -13.9814 -13.8905 -13.8885 -13.8622 -13.8286 -13.8013 -13.7688
   -13.7510 -13.6720 -13.6529 -13.6429 -13.6343 -13.6157 -13.5811 -13.4953
   -13.4768 -13.4717 -13.4600 -13.4523 -13.4404 -13.4221 -13.3851 -13.3681
   -13.3623 -13.3415 -13.3412 -13.3127 -13.1975 -13.1535  -7.8171  -6.2940
    -4.6271  -3.7692  -2.8051  -2.0768  -1.9873  -1.3680  -1.2998  -1.1108
    -0.9626  -0.4997  -0.4254  -0.2663   0.0823   0.2636   0.5422   0.5788
     0.5986   0.7248   0.9988   1.0419   1.0719   1.1448   1.3193   1.4026
     1.5965   1.6041   1.7202   1.9572   2.0091   2.2052   2.3484   2.4117
     2.4594   2.4669   2.5566   2.6352   2.6914   2.7795   3.0105   3.1848
     3.1971   3.2195   3.6512   3.8395   4.0438   4.2302   4.4893   4.6791
     4.7485

[...]

          k =-0.0830-0.0478 0.0000 ( 19988 PWs)   bands (ev):

[...]

     the Fermi energy is     0.9166 ev

!    total energy              =   -1527.96752715 Ry
     Harris-Foulkes estimate   =   -1527.96752379 Ry
     estimated scf accuracy    <       0.00000036 Ry

     The total energy is the sum of the following terms:

     one-electron contribution =  -10514.64877716 Ry
     hartree contribution      =    5291.18343127 Ry
     xc contribution           =    -347.52788637 Ry
     ewald contribution        =    4043.11140953 Ry
     electric field correction =       0.00000000 Ry
     smearing contrib. (-TS)   =      -0.08570443 Ry

     convergence has been achieved in  21 iterations

 BEEF-vdW xc energy contributions
           1 :   -302.741571307039
           2 :    275.139593674954
           3 :   -228.945089610661
           4 :    177.622192658807
           5 :   -132.967769254114
           6 :    100.773979155302
           7 :   -80.1650925595786
           8 :    66.1564476780098
           9 :   -53.4496819908794
          10 :    39.2700302050475
          11 :   -24.0487222874785
[...]

[...]

     Program PWSCF v.5.1rc2 (svn rev. 11289) starts on 19Dec2018 at  8: 9:36

[...]

     iteration # 14     ecut=    36.75 Ry     beta=0.10
     Davidson diagonalization with overlap
     c_bands:  1 eigenvalues not converged
     ethr =  7.59E-06,  avg # of iterations =  7.7

[...]

     Program PWSCF v.5.1rc2 (svn rev. 11289) starts on 19Dec2018 at  8:30:53

     Current dimensions of program PWSCF are:
     Max number of different atomic species (ntypx) = 10
     Max number of k-points (npk) =  40000
     Max angular momentum in pseudopotentials (lmaxx) =  3
     Presently stress not available with electric field

     IMPORTANT: XC functional enforced from input :
     Exchange-correlation      = BEEF-VDW ( 1  4 27 13 2)
     Any further DFT definition will be discarded
     Please, verify this is what you really want

     Subspace diagonalization in iterative solution of the eigenvalue problem:
     a serial algorithm will be used

     Found symmetry operation: I + ( -0.5000  0.0000  0.0000)
     This is a supercell, fractional translations are disabled

     bravais-lattice index     =            0
     lattice parameter (alat)  =       1.8897  a.u.
     unit-cell volume          =    5302.6674 (a.u.)^3
     number of atoms/cell      =           12
     number of atomic types    =            2
     number of electrons       =       150.00
     number of Kohn-Sham states=          105
     kinetic-energy cutoff     =      36.7493  Ry
     charge density cutoff     =     367.4932  Ry
     convergence threshold     =      1.0E-06
     mixing beta               =       0.1000
     number of iterations used =           10  plain     mixing
     Exchange-correlation      = BEEF-VDW ( 1  4 27 13 2)
     nstep                     =           50

     celldm(1)=   1.889726  celldm(2)=   0.000000  celldm(3)=   0.000000
     celldm(4)=   0.000000  celldm(5)=   0.000000  celldm(6)=   0.000000

     crystal axes: (cart. coord. in units of alat)
               a(1) = (   6.021603   0.000000   0.000000 )
               a(2) = (  -3.010801   5.235171   0.000000 )
               a(3) = (   0.000000   0.000000  24.926127 )

     reciprocal axes: (cart. coord. in units 2 pi/alat)
               b(1) = (  0.166069  0.095508  0.000000 )
               b(2) = (  0.000000  0.191016  0.000000 )
               b(3) = (  0.000000  0.000000  0.040119 )

     PseudoPot. # 1 for Ti read from file:
     /afs/slac.stanford.edu/u/if/mamunm/psp/gbrv1.5pbe/Ti.UPF
     MD5 check sum: 88a00a6731bd790ddea75d31a80cb452
     Pseudo is Ultrasoft + core correction, Zval = 12.0
     Generated by new atomic code, or converted to UPF format
     Using radial grid of  851 points,  6 beta functions with:
                l(1) =   0
                l(2) =   0
                l(3) =   1
                l(4) =   1
                l(5) =   2
                l(6) =   2
     Q(r) pseudized with  6 coefficients,  rinner =    1.000   1.000   1.000
                                                       1.000   1.000

     PseudoPot. # 2 for In read from file:
     /afs/slac.stanford.edu/u/if/mamunm/psp/gbrv1.5pbe/In.UPF
     MD5 check sum: 90777abd96fbb83f2e67db2a40c566b9
     Pseudo is Ultrasoft + core correction, Zval = 13.0
     Generated by new atomic code, or converted to UPF format
     Using radial grid of  889 points,  6 beta functions with:
                l(1) =   0
                l(2) =   0
                l(3) =   1
                l(4) =   1
                l(5) =   2
                l(6) =   2
     Q(r) pseudized with  6 coefficients,  rinner =    1.400   1.400   1.400
                                                       1.400   1.400

     vdW kernel table read from file vdW_kernel_table
     MD5 check sum: 095c7af220d748ca6e76c0b4c6cfb241

     atomic species   valence    mass     pseudopotential
        Ti1           12.00    47.86700     Ti( 1.00)
        In1           13.00   114.81800     In( 1.00)

     No symmetry found

   Cartesian axes

     site n.     atom                  positions (alat units)
         1           Ti1 tau(   1) = (   0.0000000   0.0000000  10.0000000  )
         2           Ti1 tau(   2) = (   3.0108014   0.0000000  10.0000000  )
         3           In1 tau(   3) = (   1.5054007   2.6175855  10.0000000  )
         4           In1 tau(   4) = (   4.5162021   2.6175855  10.0000000  )
         5           Ti1 tau(   5) = (   3.0108014   1.7315432  12.4630637  )
         6           Ti1 tau(   6) = (  -0.0000000   1.7315432  12.4630637  )
         7           In1 tau(   7) = (  -1.5054007   4.3491287  12.4630637  )
         8           In1 tau(   8) = (   1.5054007   4.3491287  12.4630637  )
         9           Ti1 tau(   9) = (   0.0000028   3.3009810  14.7716151  )
        10           Ti1 tau(  10) = (   3.0108045   3.3009857  14.7716147  )
        11           In1 tau(  11) = (   4.5161870   0.7289000  15.1710356  )
        12           In1 tau(  12) = (   1.5054206   0.7289010  15.1710448  )

     number of k points=    20  Fermi-Dirac smearing, width (Ry)=  0.0110
                       cart. coord. in units 2pi/alat
        k(    1) = (   0.0000000   0.0000000   0.0000000), wk =   0.0555556
        k(    2) = (   0.0000000   0.0318360   0.0000000), wk =   0.1111111
        k(    3) = (   0.0000000   0.0636719   0.0000000), wk =   0.1111111
        k(    4) = (   0.0000000  -0.0955079   0.0000000), wk =   0.0555556
        k(    5) = (   0.0276781   0.0159180   0.0000000), wk =   0.1111111
        k(    6) = (   0.0276781   0.0477539   0.0000000), wk =   0.1111111
        k(    7) = (   0.0276781   0.0795899   0.0000000), wk =   0.1111111
        k(    8) = (   0.0276781  -0.0795899   0.0000000), wk =   0.1111111
        k(    9) = (   0.0276781  -0.0477539   0.0000000), wk =   0.1111111
        k(   10) = (   0.0276781  -0.0159180   0.0000000), wk =   0.1111111
        k(   11) = (   0.0553562   0.0318360   0.0000000), wk =   0.1111111
        k(   12) = (   0.0553562   0.0636719   0.0000000), wk =   0.1111111
        k(   13) = (   0.0553562   0.0955079   0.0000000), wk =   0.1111111
        k(   14) = (   0.0553562  -0.0636719   0.0000000), wk =   0.1111111
        k(   15) = (   0.0553562  -0.0318360   0.0000000), wk =   0.1111111
        k(   16) = (   0.0553562  -0.0000000   0.0000000), wk =   0.1111111
        k(   17) = (  -0.0830344  -0.0477539   0.0000000), wk =   0.0555556
        k(   18) = (  -0.0830344  -0.0159180   0.0000000), wk =   0.1111111
        k(   19) = (  -0.0830344   0.0159180   0.0000000), wk =   0.1111111
        k(   20) = (  -0.0830344  -0.1432618   0.0000000), wk =   0.0555556

     Largest allocated arrays     est. size (Mb)     dimensions
     Largest temporary arrays     est. size (Mb)     dimensions

     Check: negative/imaginary core charge=   -0.000003    0.000000

     Initial potential from superposition of free atoms
     Check: negative starting charge=   -0.008480

     starting charge  134.99973, renormalised to  150.00000

[...]

     *
     * You are using vdW-DF for exchange-correlation in this calculation.
     * Please cite the following three references that made this development
     * possible:
     *
     *   M. Dion, H. Rydberg, E. Schroder, D. C. Langreth, and
     *   B. I. Lundqvist, Phys. Rev. Lett. 92, 246401 (2004).
     *
     *   T. Thonhauser, V. R. Cooper, S. Li, A. Puzder, P. Hyldgaard, and
     *   D. C. Langreth, Phys. Rev. B 76, 125112 (2007).
     *
     *   G. Roman-Perez and J. M. Soler, Phys. Rev. Lett. 103, 096102 (2009).
     *
     *
     * If you are using vdW-DF2, please also cite:
     *
     *   K. Lee, E. D. Murray, L. Kong, B. I. Lundqvist, and
     *   D. C. Langreth, Phys. Rev. B 82, 081101(R) (2010).
     *
     *
     * If you are calculating the stress with vdW-DF, please also cite:
     *
     *   R. Sabatini, E. Kucukbenli, B. Kolb, T. Thonhauser, and
     *   S. de Gironcoli, J. Phys.: Condens. Matter 24, 424209 (2012).
     *

     Carrying out vdW-DF run using the following parameters:

     Nqs =      20    Nr_points =    1024   r_max =   100.000
     q_mesh =
               0.00001000     0.04494208     0.09755937     0.15916263
               0.23128650     0.31572767     0.41458969     0.53033537
               0.66584808     0.82450364     1.01025438     1.22772762
               1.48234092     1.78043706     2.12944203     2.53805004
               3.01644009     3.57652955     4.23227104     5.00000000

     Gradients computed in reciprocal space

[...]

     Starting wfc are  114 randomized atomic wfcs

     Self-consistent Calculation

[...]

     iteration # 14     ecut=    36.75 Ry     beta=0.10
     Davidson diagonalization with overlap
     c_bands:  1 eigenvalues not converged
     ethr =  7.97E-06,  avg # of iterations =  8.2

[...]

     total energy              =   -1527.99001906 Ry
     Harris-Foulkes estimate   =   -1527.99001856 Ry
     estimated scf accuracy    <       0.00000203 Ry

     iteration # 22     ecut=    36.75 Ry     beta=0.10
     Davidson diagonalization with overlap
     ethr =  1.35E-09,  avg # of iterations =  2.0

[...]

     negative rho (up, down):  4.836E-03 0.000E+00

     Adding external electric field

     Computed dipole along edir(3) :
        Dipole               -0.0523 Ry au,         -0.1328 Debye
        Dipole field         -0.0001 Ry au

        Potential amp.        0.0114 Ry
        Total length         45.9260 bohr

     End of self-consistent calculation

[...]

          k = 0.0554-0.0000 0.0000 ( 19961 PWs)   bands (ev):

[...]

          k =-0.0830-0.1433 0.0000 ( 19988 PWs)   bands (ev):

   -56.5274 -56.5272 -56.3830 -56.3830 -56.1740 -56.1739 -32.9135 -32.9133
   -32.7497 -32.7497 -32.7339 -32.7338 -32.6149 -32.6149 -32.5986 -32.5985
   -32.5364 -32.5363 -32.5073 -32.5073 -32.3587 -32.3586 -32.2788 -32.2787
   -13.9089 -13.9089 -13.8301 -13.8301 -13.7815 -13.7815 -13.7639 -13.7639
   -13.7296 -13.7296 -13.5871 -13.5871 -13.5681 -13.5681 -13.5494 -13.5494
   -13.5396 -13.5396 -13.5186 -13.5186 -13.5068 -13.5068 -13.4907 -13.4906
   -13.4662 -13.4662 -13.4490 -13.4490 -13.4007 -13.4007  -6.3787  -6.3786
    -5.0499  -5.0499  -3.8618  -3.8617  -1.7567  -1.7567  -1.0393  -1.0393
    -0.2527  -0.2527  -0.0220  -0.0220   0.3412   0.3413   0.5516   0.5516
     0.6662   0.6662   1.0020   1.0021   1.0950   1.0950   1.3419   1.3419
     1.6901   1.6902   1.7729   1.7729   2.0324   2.0324   2.1597   2.1597
     2.4558   2.4558   2.6856   2.6856   2.7851   2.7851   3.1342   3.1342
     3.6009   3.6009   4.6947   4.6947   4.7611   4.7611   5.2380   5.2381
     5.4079

     the Fermi energy is     0.8451 ev

!    total energy              =   -1527.99002195 Ry
     Harris-Foulkes estimate   =   -1527.99001865 Ry
     estimated scf accuracy    <       0.00000098 Ry

     The total energy is the sum of the following terms:

     one-electron contribution =  -10429.07727230 Ry
     hartree contribution      =    5248.24388267 Ry
     xc contribution           =    -347.48947907 Ry
     ewald contribution        =    4000.41811454 Ry
     electric field correction =       0.00000647 Ry
     smearing contrib. (-TS)   =      -0.08527425 Ry

     convergence has been achieved in  22 iterations

 BEEF-vdW xc energy contributions
           1 :   -302.700195201142
           2 :    275.065067603336
           3 :   -228.826216214703
           4 :    177.480740450116
           5 :   -132.849019179427
           6 :    100.716424337984
           7 :   -80.1679381364632
           8 :    66.1772610030189
           9 :   -53.4391848242307
          10 :    39.2123929540177
          11 :   -23.9700812358343
          12 :    10.0700079440646
          13 :   0.298480428023311
          14 :   -6.52154266647204
          15 :    9.64315769981471
          16 :   -11.4184456591638
          17 :    13.1804760042949
          18 :   -15.2576898237991
          19 :    17.1280855143943
          20 :   -18.0123356060001
          21 :    17.4425548054870
          22 :   -15.5067468555029
          23 :    12.7334718953537
          24 :   -9.78435661455461
          25 :    7.16010983225073
          26 :   -5.05397702026892
          27 :    3.37023265623054
          28 :   -1.85814842218213
          29 :   0.285912059178600
          30 :    1.41643398754991
          31 :   -28.9090028758044
          32 :   -20.9442139137395

     Forces acting on atoms (Ry/au):

     negative rho (up, down):  4.836E-03 0.000E+00
     atom    1 type  1   force =    -0.00000046    0.00944410    0.02490115
     atom    2 type  1   force =    -0.00000013    0.00944876    0.02490887
     atom    3 type  2   force =     0.00000979   -0.00390413   -0.02922422
     atom    4 type  2   force =    -0.00000930   -0.00390493   -0.02922375
     atom    5 type  1   force =    -0.00000001   -0.01149359    0.00387270
     atom    6 type  1   force =    -0.00000008   -0.01149941    0.00386918
     atom    7 type  2   force =    -0.00001593    0.00628329    0.00088422
     atom    8 type  2   force =     0.00001554    0.00628396    0.00088345
     atom    9 type  1   force =    -0.00000071    0.00083324   -0.00040742
     atom   10 type  1   force =    -0.00000057    0.00083287   -0.00040874
     atom   11 type  2   force =     0.00000073   -0.00116227   -0.00002730
     atom   12 type  2   force =     0.00000113   -0.00116192   -0.00002814

     Total force =     0.059471     Total SCF correction =     0.003730

     entering subroutine stress ...

     negative rho (up, down):  4.836E-03 0.000E+00
          total   stress  (Ry/bohr**3)                   (kbar)     P=   -7.87
  -0.00004678   0.00000000  -0.00000000         -6.88      0.00     -0.00
   0.00000000  -0.00011301  -0.00001043          0.00    -16.62     -1.53
  -0.00000000  -0.00001043  -0.00000074         -0.00     -1.53     -0.11

 !ASE

     Writing output data file calc.save

     General routines

     Parallel routines

   This run was terminated on:   8:35:59  19Dec2018

   JOB DONE.
Job  /afs/slac/g/suncat/bin/suncat-tsmpirun -x LD_LIBRARY_PATH -wdir /scratch/qe530685_AO3Tq pw.x -in pw.inp

TID   HOST_NAME   COMMAND_LINE            STATUS            TERMINATION_TIME
00000 suncat2046 pw.x -in pw.inp   Done                     12/19/2018 08:35:59
00001 suncat2046 pw.x -in pw.inp   Done                     12/19/2018 08:35:59
00002 suncat2046 pw.x -in pw.inp   Done                     12/19/2018 08:35:59
00003 suncat2046 pw.x -in pw.inp   Done                     12/19/2018 08:35:59
00004 suncat2046 pw.x -in pw.inp   Done                     12/19/2018 08:35:59
00005 suncat2046 pw.x -in pw.inp   Done                     12/19/2018 08:35:59
00006 suncat2046 pw.x -in pw.inp   Done                     12/19/2018 08:35:59
00007 suncat2046 pw.x -in pw.inp   Done                     12/19/2018 08:35:59
00008 suncat2046 pw.x -in pw.inp   Done                     12/19/2018 08:35:59
00009 suncat2046 pw.x -in pw.inp   Done                     12/19/2018 08:35:59
00010 suncat2046 pw.x -in pw.inp   Done                     12/19/2018 08:35:59
00011 suncat2046 pw.x -in pw.inp   Done                     12/19/2018 08:35:59
00012 suncat2046 pw.x -in pw.inp   Done                     12/19/2018 08:35:59
00013 suncat2046 pw.x -in pw.inp   Done                     12/19/2018 08:35:59
00014 suncat2046 pw.x -in pw.inp   Done                     12/19/2018 08:35:59
00015 suncat2046 pw.x -in pw.inp   Done                     12/19/2018 08:35:59
00016 suncat2045 pw.x -in pw.inp   Done                     12/19/2018 08:35:59
00017 suncat2045 pw.x -in pw.inp   Done                     12/19/2018 08:35:59
00018 suncat2045 pw.x -in pw.inp   Done                     12/19/2018 08:35:59
00019 suncat2045 pw.x -in pw.inp   Done                     12/19/2018 08:35:59
00020 suncat2045 pw.x -in pw.inp   Done                     12/19/2018 08:35:59
00021 suncat2045 pw.x -in pw.inp   Done                     12/19/2018 08:35:59
00022 suncat2045 pw.x -in pw.inp   Done                     12/19/2018 08:35:59
00023 suncat2045 pw.x -in pw.inp   Done                     12/19/2018 08:35:59
00024 suncat2045 pw.x -in pw.inp   Done                     12/19/2018 08:35:59
00025 suncat2045 pw.x -in pw.inp   Done                     12/19/2018 08:35:59
00026 suncat2045 pw.x -in pw.inp   Done                     12/19/2018 08:35:59
00027 suncat2045 pw.x -in pw.inp   Done                     12/19/2018 08:35:59
00028 suncat2045 pw.x -in pw.inp   Done                     12/19/2018 08:35:59
00029 suncat2045 pw.x -in pw.inp   Done                     12/19/2018 08:35:59
00030 suncat2045 pw.x -in pw.inp   Done                     12/19/2018 08:35:59
00031 suncat2045 pw.x -in pw.inp   Done                     12/19/2018 08:35:59