     Program PWSCF v.5.1rc2 (svn rev. 11289) starts on 19Dec2018 at  8:17:32

     Current dimensions of program PWSCF are:
     Max number of different atomic species (ntypx) = 10
     Max number of k-points (npk) =  40000
     Max angular momentum in pseudopotentials (lmaxx) =  3
     Presently stress not available with electric field

     IMPORTANT: XC functional enforced from input :
     Exchange-correlation      = BEEF-VDW ( 1  4 27 13 2)
     Any further DFT definition will be discarded
     Please, verify this is what you really want

     Subspace diagonalization in iterative solution of the eigenvalue problem:
     a serial algorithm will be used

     Found symmetry operation: I + ( -0.5000 -0.5000  0.0000)
     This is a supercell, fractional translations are disabled

     bravais-lattice index     =            0
     lattice parameter (alat)  =       1.8897  a.u.
     unit-cell volume          =    5027.0198 (a.u.)^3
     number of atoms/cell      =           12
     number of atomic types    =            2
     number of electrons       =       186.00
     number of Kohn-Sham states=          123
     kinetic-energy cutoff     =      36.7493  Ry
     charge density cutoff     =     367.4932  Ry
     convergence threshold     =      1.0E-06
     mixing beta               =       0.1000
     number of iterations used =           10  plain     mixing
     Exchange-correlation      = BEEF-VDW ( 1  4 27 13 2)
     nstep                     =           50

     celldm(1)=   1.889726  celldm(2)=   0.000000  celldm(3)=   0.000000
     celldm(4)=   0.000000  celldm(5)=   0.000000  celldm(6)=   0.000000

     crystal axes: (cart. coord. in units of alat)
               a(1) = (   5.690679   0.000000   0.000000 )
               a(2) = (   2.066213   5.302319   0.000000 )
               a(3) = (   0.000000   0.000000  24.687893 )

     reciprocal axes: (cart. coord. in units 2 pi/alat)
               b(1) = (  0.175726 -0.068477  0.000000 )
               b(2) = (  0.000000  0.188597  0.000000 )
               b(3) = (  0.000000  0.000000  0.040506 )

     PseudoPot. # 1 for Cu read from file:
     /afs/slac.stanford.edu/u/if/mamunm/psp/gbrv1.5pbe/Cu.UPF
     MD5 check sum: 6e991ff952a84172a2a52a1c1e996048
     Pseudo is Ultrasoft + core correction, Zval = 19.0
     Generated by new atomic code, or converted to UPF format
     Using radial grid of  867 points,  6 beta functions with:
                l(1) =   0
                l(2) =   0
                l(3) =   1
                l(4) =   1
                l(5) =   2
                l(6) =   2
     Q(r) pseudized with  8 coefficients,  rinner =    1.150   1.150   1.150
                                                       1.150   1.150

     PseudoPot. # 2 for Hg read from file:
     /afs/slac.stanford.edu/u/if/mamunm/psp/gbrv1.5pbe/Hg.UPF
     MD5 check sum: 8f42caffe07f7fd9c0a564347f8c5498
     Pseudo is Ultrasoft + core correction, Zval = 12.0
     Generated by new atomic code, or converted to UPF format
     Using radial grid of  985 points,  6 beta functions with:
                l(1) =   0
                l(2) =   0
                l(3) =   1
                l(4) =   1
                l(5) =   2
                l(6) =   2
     Q(r) pseudized with  8 coefficients,  rinner =    2.000   2.000   2.000
                                                       2.000   2.000

     vdW kernel table read from file vdW_kernel_table
     MD5 check sum: 095c7af220d748ca6e76c0b4c6cfb241

     atomic species   valence    mass     pseudopotential
        Cu1           19.00    63.54600     Cu( 1.00)
        Hg1           12.00   200.59200     Hg( 1.00)

     No symmetry found

   Cartesian axes

     site n.     atom                  positions (alat units)
         1           Cu1 tau(   1) = (   0.0000000   0.0000000  10.0000000  )
         2           Cu1 tau(   2) = (   3.8784459   2.6511597  10.0000000  )
         3           Hg1 tau(   3) = (   2.8453394   0.0000000  10.0000000  )
         4           Hg1 tau(   4) = (   1.0331065   2.6511597  10.0000000  )
         5           Cu1 tau(   5) = (   5.6906789   3.8899340  12.3439467  )
         6           Cu1 tau(   6) = (   1.8122330   1.2387743  12.3439467  )
         7           Hg1 tau(   7) = (   2.8453394   3.8899340  12.3439467  )
         8           Hg1 tau(   8) = (   4.6575724   1.2387743  12.3439467  )
         9           Cu1 tau(   9) = (   3.6244660   2.4775486  14.6878933  )
        10           Cu1 tau(  10) = (   7.5029119   5.1287082  14.6878933  )
        11           Hg1 tau(  11) = (   6.4698054   2.4775486  14.6878933  )
        12           Hg1 tau(  12) = (   4.6575724   5.1287082  14.6878933  )

     number of k points=    20  Fermi-Dirac smearing, width (Ry)=  0.0110
                       cart. coord. in units 2pi/alat
        k(    1) = (   0.0000000   0.0000000   0.0000000), wk =   0.0555556
        k(    2) = (   0.0000000   0.0314328   0.0000000), wk =   0.1111111
        k(    3) = (   0.0000000   0.0628656   0.0000000), wk =   0.1111111
        k(    4) = (   0.0000000  -0.0942984   0.0000000), wk =   0.0555556
        k(    5) = (   0.0292877  -0.0114128   0.0000000), wk =   0.1111111
        k(    6) = (   0.0292877   0.0200199   0.0000000), wk =   0.1111111
        k(    7) = (   0.0292877   0.0514527   0.0000000), wk =   0.1111111
        k(    8) = (   0.0292877  -0.1057112   0.0000000), wk =   0.1111111
        k(    9) = (   0.0292877  -0.0742784   0.0000000), wk =   0.1111111
        k(   10) = (   0.0292877  -0.0428456   0.0000000), wk =   0.1111111
        k(   11) = (   0.0585753  -0.0228257   0.0000000), wk =   0.1111111
        k(   12) = (   0.0585753   0.0086071   0.0000000), wk =   0.1111111
        k(   13) = (   0.0585753   0.0400399   0.0000000), wk =   0.1111111
        k(   14) = (   0.0585753  -0.1171240   0.0000000), wk =   0.1111111
        k(   15) = (   0.0585753  -0.0856913   0.0000000), wk =   0.1111111
        k(   16) = (   0.0585753  -0.0542585   0.0000000), wk =   0.1111111
        k(   17) = (  -0.0878630   0.0342385   0.0000000), wk =   0.0555556
        k(   18) = (  -0.0878630   0.0656713   0.0000000), wk =   0.1111111
        k(   19) = (  -0.0878630   0.0971041   0.0000000), wk =   0.1111111
        k(   20) = (  -0.0878630  -0.0600598   0.0000000), wk =   0.0555556

     Largest allocated arrays     est. size (Mb)     dimensions
     Largest temporary arrays     est. size (Mb)     dimensions

     Initial potential from superposition of free atoms
     Check: negative starting charge=   -0.000122

     starting charge  179.99964, renormalised to  186.00000

     negative rho (up, down):  1.262E-04 0.000E+00

     *
     * You are using vdW-DF for exchange-correlation in this calculation.
     * Please cite the following three references that made this development
     * possible:
     *
     *   M. Dion, H. Rydberg, E. Schroder, D. C. Langreth, and
     *   B. I. Lundqvist, Phys. Rev. Lett. 92, 246401 (2004).
     *
     *   T. Thonhauser, V. R. Cooper, S. Li, A. Puzder, P. Hyldgaard, and
     *   D. C. Langreth, Phys. Rev. B 76, 125112 (2007).
     *
     *   G. Roman-Perez and J. M. Soler, Phys. Rev. Lett. 103, 096102 (2009).
     *
     *
     * If you are using vdW-DF2, please also cite:
     *
     *   K. Lee, E. D. Murray, L. Kong, B. I. Lundqvist, and
     *   D. C. Langreth, Phys. Rev. B 82, 081101(R) (2010).
     *
     *
     * If you are calculating the stress with vdW-DF, please also cite:
     *
     *   R. Sabatini, E. Kucukbenli, B. Kolb, T. Thonhauser, and
     *   S. de Gironcoli, J. Phys.: Condens. Matter 24, 424209 (2012).
     *

     Carrying out vdW-DF run using the following parameters:

     Nqs =      20    Nr_points =    1024   r_max =   100.000
     q_mesh =
               0.00001000     0.04494208     0.09755937     0.15916263
               0.23128650     0.31572767     0.41458969     0.53033537
               0.66584808     0.82450364     1.01025438     1.22772762
               1.48234092     1.78043706     2.12944203     2.53805004
               3.01644009     3.57652955     4.23227104     5.00000000

     Gradients computed in reciprocal space

     Adding external electric field

     Computed dipole along edir(3) :
        Dipole               -0.0000 Ry au,         -0.0000 Debye
        Dipole field         -0.0000 Ry au

        Potential amp.        0.0000 Ry
        Total length         45.4870 bohr

     Starting wfc are  132 randomized atomic wfcs

     Self-consistent Calculation

     iteration #  1     ecut=    36.75 Ry     beta=0.10
     Davidson diagonalization with overlap
     ethr =  1.00E-02,  avg # of iterations =  7.7

[...]

     total energy              =   -3084.54396892 Ry
     Harris-Foulkes estimate   =   -3085.23425616 Ry
     estimated scf accuracy    <       4.04516712 Ry

[...]

     End of self-consistent calculation

          k = 0.0000 0.0000 0.0000 ( 18985 PWs)   bands (ev):

  -112.0839-112.0838-111.7725-111.7725-111.7725-111.7724 -69.5171 -69.5141
   -69.5008 -69.5006 -69.4869 -69.4867 -69.2164 -69.2163 -69.2162 -69.2162
   -69.2012 -69.2011 -69.1983 -69.1982 -69.1529 -69.1528 -69.1527 -69.1526
    -8.4108  -7.7861  -7.6988  -7.6988  -7.6321  -7.4749  -7.4577  -7.3722
    -7.2926  -7.2808  -7.0717  -7.0651  -7.0615  -7.0222  -6.9637  -6.8661
    -6.8445  -6.7664  -6.7211  -6.7053  -6.6651  -6.6027  -6.5476  -6.4875
    -6.4411  -6.3392  -6.3165  -6.2628  -6.2067  -6.1372  -5.9689  -5.9211
    -3.9351  -3.5784  -3.2933  -3.1539  -2.4636  -2.3416  -2.3202  -2.2941
    -2.2123  -2.1984  -2.1239  -2.1211  -2.0558  -2.0210  -1.9945  -1.9823
    -1.9780  -1.9529  -1.9480  -1.8744  -1.8603  -1.7930  -1.7768  -1.7725
    -1.6820  -1.6668  -1.6550  -1.6478  -1.6443  -1.6191  -1.5186  -0.8329
    -0.6507  -0.5218  -0.2051  -0.0336  -0.0108   0.1157   0.1666   0.5172
     1.4921   2.0237   2.1247   2.5489   2.5653   3.3000   3.4328   3.6781
     4.1540   4.2701   4.3260   4.7689   4.8710   5.7241   5.9271   6.0367
     6.5156   6.6169   7.1140   7.5432   7.5825   7.7305   7.9151   8.3533
     8.4725   8.7511   8.8426

[...]

          k =-0.0879 0.0342 0.0000 ( 18912 PWs)   bands (ev):

[...]

     the Fermi energy is     0.3877 ev

!    total energy              =   -3084.02544599 Ry
     Harris-Foulkes estimate   =   -3084.02543302 Ry
     estimated scf accuracy    <       0.00000040 Ry

     The total energy is the sum of the following terms:

     one-electron contribution =  -18596.81930314 Ry
     hartree contribution      =    9350.86300781 Ry
     xc contribution           =    -482.76666580 Ry
     ewald contribution        =    6644.72209874 Ry
     electric field correction =       0.00000000 Ry
     smearing contrib. (-TS)   =      -0.02458360 Ry

     convergence has been achieved in  15 iterations

 BEEF-vdW xc energy contributions
           1 :   -425.606397429106
           2 :    388.733755321804
           3 :   -325.592063663673
           4 :    252.547266197688
           5 :   -185.009333361041
           6 :    132.254251728602
           7 :   -95.8804781444910
           8 :    71.8805610248237
           9 :   -54.5374327456906
[...]

[...]

     Program PWSCF v.5.1rc2 (svn rev. 11289) starts on 19Dec2018 at  9: 8:55

[...]

     Program PWSCF v.5.1rc2 (svn rev. 11289) starts on 19Dec2018 at  9:26: 4

[...]

   This run was terminated on:   9:43:48  19Dec2018

[...]

     Program PWSCF v.5.1rc2 (svn rev. 11289) starts on 19Dec2018 at  9:43:54

[...]

   This run was terminated on:  10: 1:48  19Dec2018

[...]

     Program PWSCF v.5.1rc2 (svn rev. 11289) starts on 19Dec2018 at 10: 1:54

     Current dimensions of program PWSCF are:
     Max number of different atomic species (ntypx) = 10
     Max number of k-points (npk) =  40000
     Max angular momentum in pseudopotentials (lmaxx) =  3
     Presently stress not available with electric field

     IMPORTANT: XC functional enforced from input :
     Exchange-correlation      = BEEF-VDW ( 1  4 27 13 2)
     Any further DFT definition will be discarded
     Please, verify this is what you really want

     Subspace diagonalization in iterative solution of the eigenvalue problem:
     a serial algorithm will be used

     Found symmetry operation: I + ( -0.5000 -0.5000  0.0000)
     This is a supercell, fractional translations are disabled

     bravais-lattice index     =            0
     lattice parameter (alat)  =       1.8897  a.u.
     unit-cell volume          =    5027.0198 (a.u.)^3
     number of atoms/cell      =           12
     number of atomic types    =            2
     number of electrons       =       186.00
     number of Kohn-Sham states=          123
     kinetic-energy cutoff     =      36.7493  Ry
     charge density cutoff     =     367.4932  Ry
     convergence threshold     =      1.0E-06
     mixing beta               =       0.1000
     number of iterations used =           10  plain     mixing
     Exchange-correlation      = BEEF-VDW ( 1  4 27 13 2)
     nstep                     =           50

     celldm(1)=   1.889726  celldm(2)=   0.000000  celldm(3)=   0.000000
     celldm(4)=   0.000000  celldm(5)=   0.000000  celldm(6)=   0.000000

     crystal axes: (cart. coord. in units of alat)
               a(1) = (   5.690679   0.000000   0.000000 )
               a(2) = (   2.066213   5.302319   0.000000 )
               a(3) = (   0.000000   0.000000  24.687893 )

     reciprocal axes: (cart. coord. in units 2 pi/alat)
               b(1) = (  0.175726 -0.068477  0.000000 )
               b(2) = (  0.000000  0.188597  0.000000 )
               b(3) = (  0.000000  0.000000  0.040506 )

     PseudoPot. # 1 for Cu read from file:
     /afs/slac.stanford.edu/u/if/mamunm/psp/gbrv1.5pbe/Cu.UPF
     MD5 check sum: 6e991ff952a84172a2a52a1c1e996048
     Pseudo is Ultrasoft + core correction, Zval = 19.0
     Generated by new atomic code, or converted to UPF format
     Using radial grid of  867 points,  6 beta functions with:
                l(1) =   0
                l(2) =   0
                l(3) =   1
                l(4) =   1
                l(5) =   2
                l(6) =   2
     Q(r) pseudized with  8 coefficients,  rinner =    1.150   1.150   1.150
                                                       1.150   1.150

     PseudoPot. # 2 for Hg read from file:
     /afs/slac.stanford.edu/u/if/mamunm/psp/gbrv1.5pbe/Hg.UPF
     MD5 check sum: 8f42caffe07f7fd9c0a564347f8c5498
     Pseudo is Ultrasoft + core correction, Zval = 12.0
     Generated by new atomic code, or converted to UPF format
     Using radial grid of  985 points,  6 beta functions with:
                l(1) =   0
                l(2) =   0
                l(3) =   1
                l(4) =   1
                l(5) =   2
                l(6) =   2
     Q(r) pseudized with  8 coefficients,  rinner =    2.000   2.000   2.000
                                                       2.000   2.000

     vdW kernel table read from file vdW_kernel_table
     MD5 check sum: 095c7af220d748ca6e76c0b4c6cfb241

     atomic species   valence    mass     pseudopotential
        Cu1           19.00    63.54600     Cu( 1.00)
        Hg1           12.00   200.59200     Hg( 1.00)

     No symmetry found

   Cartesian axes

     site n.     atom                  positions (alat units)
         1           Cu1 tau(   1) = (   0.0000000   0.0000000  10.0000000  )
         2           Cu1 tau(   2) = (   3.8784459   2.6511597  10.0000000  )
         3           Hg1 tau(   3) = (   2.8453394   0.0000000  10.0000000  )
         4           Hg1 tau(   4) = (   1.0331065   2.6511597  10.0000000  )
         5           Cu1 tau(   5) = (   5.6906789   3.8899340  12.3439467  )
         6           Cu1 tau(   6) = (   1.8122330   1.2387743  12.3439467  )
         7           Hg1 tau(   7) = (   2.8453394   3.8899340  12.3439467  )
         8           Hg1 tau(   8) = (   4.6575724   1.2387743  12.3439467  )
         9           Cu1 tau(   9) = (   3.6143758   2.4706535  14.6060966  )
        10           Cu1 tau(  10) = (   7.4928326   5.1218315  14.6061361  )
        11           Hg1 tau(  11) = (   6.4724224   2.4793498  15.0668208  )
        12           Hg1 tau(  12) = (   4.6601886   5.1305009  15.0668008  )

     number of k points=    20  Fermi-Dirac smearing, width (Ry)=  0.0110
                       cart. coord. in units 2pi/alat
        k(    1) = (   0.0000000   0.0000000   0.0000000), wk =   0.0555556
        k(    2) = (   0.0000000   0.0314328   0.0000000), wk =   0.1111111
        k(    3) = (   0.0000000   0.0628656   0.0000000), wk =   0.1111111
        k(    4) = (   0.0000000  -0.0942984   0.0000000), wk =   0.0555556
        k(    5) = (   0.0292877  -0.0114128   0.0000000), wk =   0.1111111
        k(    6) = (   0.0292877   0.0200199   0.0000000), wk =   0.1111111
        k(    7) = (   0.0292877   0.0514527   0.0000000), wk =   0.1111111
        k(    8) = (   0.0292877  -0.1057112   0.0000000), wk =   0.1111111
        k(    9) = (   0.0292877  -0.0742784   0.0000000), wk =   0.1111111
        k(   10) = (   0.0292877  -0.0428456   0.0000000), wk =   0.1111111
        k(   11) = (   0.0585753  -0.0228257   0.0000000), wk =   0.1111111
        k(   12) = (   0.0585753   0.0086071   0.0000000), wk =   0.1111111
        k(   13) = (   0.0585753   0.0400399   0.0000000), wk =   0.1111111
        k(   14) = (   0.0585753  -0.1171240   0.0000000), wk =   0.1111111
        k(   15) = (   0.0585753  -0.0856913   0.0000000), wk =   0.1111111
        k(   16) = (   0.0585753  -0.0542585   0.0000000), wk =   0.1111111
        k(   17) = (  -0.0878630   0.0342385   0.0000000), wk =   0.0555556
        k(   18) = (  -0.0878630   0.0656713   0.0000000), wk =   0.1111111
        k(   19) = (  -0.0878630   0.0971041   0.0000000), wk =   0.1111111
        k(   20) = (  -0.0878630  -0.0600598   0.0000000), wk =   0.0555556

     Largest allocated arrays     est. size (Mb)     dimensions
     Largest temporary arrays     est. size (Mb)     dimensions

     Initial potential from superposition of free atoms
     Check: negative starting charge=   -0.000116

     starting charge  179.99964, renormalised to  186.00000

[...]

     *
     * You are using vdW-DF for exchange-correlation in this calculation.
     * Please cite the following three references that made this development
     * possible:
     *
     *   M. Dion, H. Rydberg, E. Schroder, D. C. Langreth, and
     *   B. I. Lundqvist, Phys. Rev. Lett. 92, 246401 (2004).
     *
     *   T. Thonhauser, V. R. Cooper, S. Li, A. Puzder, P. Hyldgaard, and
     *   D. C. Langreth, Phys. Rev. B 76, 125112 (2007).
     *
     *   G. Roman-Perez and J. M. Soler, Phys. Rev. Lett. 103, 096102 (2009).
     *
     *
     * If you are using vdW-DF2, please also cite:
     *
     *   K. Lee, E. D. Murray, L. Kong, B. I. Lundqvist, and
     *   D. C. Langreth, Phys. Rev. B 82, 081101(R) (2010).
     *
     *
     * If you are calculating the stress with vdW-DF, please also cite:
     *
     *   R. Sabatini, E. Kucukbenli, B. Kolb, T. Thonhauser, and
     *   S. de Gironcoli, J. Phys.: Condens. Matter 24, 424209 (2012).
     *

     Carrying out vdW-DF run using the following parameters:

     Nqs =      20    Nr_points =    1024   r_max =   100.000
     q_mesh =
               0.00001000     0.04494208     0.09755937     0.15916263
               0.23128650     0.31572767     0.41458969     0.53033537
               0.66584808     0.82450364     1.01025438     1.22772762
               1.48234092     1.78043706     2.12944203     2.53805004
               3.01644009     3.57652955     4.23227104     5.00000000

     Gradients computed in reciprocal space

[...]

     Starting wfc are  132 randomized atomic wfcs

     Self-consistent Calculation

[...]

     total energy              =   -3084.03907631 Ry
     Harris-Foulkes estimate   =   -3084.03907265 Ry
     estimated scf accuracy    <       0.00000228 Ry

     iteration # 15     ecut=    36.75 Ry     beta=0.10
     Davidson diagonalization with overlap
     ethr =  1.23E-09,  avg # of iterations =  2.1

[...]

     negative rho (up, down):  8.010E-04 0.000E+00

     Adding external electric field

     Computed dipole along edir(3) :
        Dipole                0.0177 Ry au,          0.0450 Debye
        Dipole field          0.0000 Ry au

        Potential amp.       -0.0040 Ry
        Total length         45.4870 bohr

     End of self-consistent calculation

[...]

          k = 0.0586-0.0543 0.0000 ( 18899 PWs)   bands (ev):

[...]

          k =-0.0879-0.0601 0.0000 ( 18846 PWs)   bands (ev):

  -111.9311-111.9310-111.7766-111.7765-111.7724-111.7723 -69.3631 -69.3602
   -69.3581 -69.3579 -69.3261 -69.3259 -69.2141 -69.2138 -69.2078 -69.2076
   -69.2044 -69.2021 -69.2015 -69.1993 -69.1687 -69.1685 -69.1537 -69.1535
    -7.7373  -7.5239  -7.4052  -7.3780  -7.2845  -7.1973  -7.1965  -7.1283
    -7.1143  -7.0104  -6.9554  -6.9535  -6.9404  -6.8015  -6.7555  -6.7408
    -6.6951  -6.6632  -6.5784  -6.5521  -6.4555  -6.4169  -6.3893  -6.3650
    -6.3003  -6.1770  -6.1502  -6.1016  -6.0637  -5.8706  -5.7736  -5.5567
    -4.3546  -3.7721  -3.7117  -3.5503  -3.0519  -2.7282  -2.5937  -2.5540
    -2.4007  -2.3804  -2.3230  -2.3041  -2.2814  -2.2484  -2.2073  -2.1390
    -2.0926  -2.0920  -2.0577  -2.0470  -1.9985  -1.9815  -1.9769  -1.8760
    -1.8728  -1.8432  -1.8224  -1.7690  -1.7133  -1.6778  -1.6612  -1.6432
    -1.5564  -1.2993  -1.1409  -0.6678  -0.4913  -0.2804   0.3648   1.5400
     2.2316   2.6843   4.0898   4.4900   4.5684   4.6775   5.2110   5.2582
     5.3321   5.9264   5.9850   6.0544   6.1247   6.3595   6.4514   6.4939
     6.7846   6.8843   7.0446   7.2297   7.3682   7.4373   7.4486   7.6586
     7.9543   8.0525   8.2127

     the Fermi energy is     0.3902 ev

!    total energy              =   -3084.03909032 Ry
     Harris-Foulkes estimate   =   -3084.03907685 Ry
     estimated scf accuracy    <       0.00000095 Ry

     The total energy is the sum of the following terms:

     one-electron contribution =  -18345.61281743 Ry
     hartree contribution      =    9225.63826112 Ry
     xc contribution           =    -482.66304267 Ry
     ewald contribution        =    6518.62259369 Ry
     electric field correction =       0.00000078 Ry
     smearing contrib. (-TS)   =      -0.02408581 Ry

     convergence has been achieved in  15 iterations

 BEEF-vdW xc energy contributions
           1 :   -425.483297134029
           2 :    388.494833383930
           3 :   -325.222727367507
           4 :    252.151547175480
           5 :   -184.737171374001
           6 :    132.197552817867
           7 :   -96.0089791271233
           8 :    72.0586547790901
           9 :   -54.6101406305099
          10 :    39.6618708068931
          11 :   -26.1439617058032
          12 :    14.9668462288091
          13 :   -7.17998365809979
          14 :    2.69534451120330
          15 :  -0.275870805637283
          16 :   -1.55288252357769
          17 :    3.56690971231211
          18 :   -5.58976849984464
          19 :    6.96989785439825
          20 :   -7.29520696749358
          21 :    6.77024197705225
          22 :   -6.03726705945633
          23 :    5.67324812157864
          24 :   -5.80408286139544
          25 :    6.11633768368267
          26 :   -6.19996407980079
          27 :    5.90563861686314
          28 :   -5.43196131747573
          29 :    5.10500296963357
          30 :   -5.06481606497948
          31 :   -36.6538109914428
          32 :   -26.0377978575098

     Forces acting on atoms (Ry/au):

     negative rho (up, down):  8.010E-04 0.000E+00
     atom    1 type  1   force =     0.00167388    0.00114371    0.00569987
     atom    2 type  1   force =     0.00167051    0.00114507    0.00569438
     atom    3 type  2   force =    -0.00229459   -0.00156710   -0.02028512
     atom    4 type  2   force =    -0.00229356   -0.00156808   -0.02028484
     atom    5 type  1   force =    -0.00079109   -0.00054238    0.00888136
     atom    6 type  1   force =    -0.00079212   -0.00054392    0.00888278
     atom    7 type  2   force =     0.00244354    0.00167323    0.00497350
     atom    8 type  2   force =     0.00244579    0.00167019    0.00497348
     atom    9 type  1   force =    -0.00094496   -0.00064671    0.00053492
     atom   10 type  1   force =    -0.00094579   -0.00064690    0.00053784
     atom   11 type  2   force =    -0.00008576   -0.00005824    0.00019596
     atom   12 type  2   force =    -0.00008583   -0.00005888    0.00019588

     Total force =     0.033786     Total SCF correction =     0.003054

     entering subroutine stress ...

     negative rho (up, down):  8.010E-04 0.000E+00
          total   stress  (Ry/bohr**3)                   (kbar)     P=  -14.48
  -0.00014288  -0.00000986  -0.00000091        -21.02     -1.45     -0.13
  -0.00000986  -0.00013519  -0.00000062         -1.45    -19.89     -0.09
  -0.00000091  -0.00000062  -0.00001724         -0.13     -0.09     -2.54

 !ASE

     Writing output data file calc.save

     General routines

     Parallel routines

   This run was terminated on:  10:18: 9  19Dec2018

   JOB DONE.
Job  /afs/slac/g/suncat/bin/suncat-tsmpirun -x LD_LIBRARY_PATH -wdir /scratch/qe529788_gdGkq pw.x -in pw.inp

TID   HOST_NAME   COMMAND_LINE            STATUS            TERMINATION_TIME
00000 suncat0024 pw.x -in pw.inp   Done                     12/19/2018 10:18:09
00001 suncat0024 pw.x -in pw.inp   Done                     12/19/2018 10:18:09
00002 suncat0024 pw.x -in pw.inp   Done                     12/19/2018 10:18:09
00003 suncat0024 pw.x -in pw.inp   Done                     12/19/2018 10:18:09
00004 suncat0024 pw.x -in pw.inp   Done                     12/19/2018 10:18:09
00005 suncat0024 pw.x -in pw.inp   Done                     12/19/2018 10:18:09
00006 suncat0024 pw.x -in pw.inp   Done                     12/19/2018 10:18:09
00007 suncat0024 pw.x -in pw.inp   Done                     12/19/2018 10:18:09
00008 suncat0023 pw.x -in pw.inp   Done                     12/19/2018 10:18:09
00009 suncat0023 pw.x -in pw.inp   Done                     12/19/2018 10:18:09
00010 suncat0023 pw.x -in pw.inp   Done                     12/19/2018 10:18:09
00011 suncat0023 pw.x -in pw.inp   Done                     12/19/2018 10:18:09
00012 suncat0023 pw.x -in pw.inp   Done                     12/19/2018 10:18:09
00013 suncat0023 pw.x -in pw.inp   Done                     12/19/2018 10:18:09
00014 suncat0023 pw.x -in pw.inp   Done                     12/19/2018 10:18:09
00015 suncat0023 pw.x -in pw.inp   Done                     12/19/2018 10:18:09
00016 suncat0022 pw.x -in pw.inp   Done                     12/19/2018 10:18:09
00017 suncat0022 pw.x -in pw.inp   Done                     12/19/2018 10:18:09
00018 suncat0022 pw.x -in pw.inp   Done                     12/19/2018 10:18:09
00019 suncat0022 pw.x -in pw.inp   Done                     12/19/2018 10:18:09
00020 suncat0022 pw.x -in pw.inp   Done                     12/19/2018 10:18:09
00021 suncat0022 pw.x -in pw.inp   Done                     12/19/2018 10:18:09
00022 suncat0022 pw.x -in pw.inp   Done                     12/19/2018 10:18:09
00023 suncat0022 pw.x -in pw.inp   Done                     12/19/2018 10:18:09
00024 suncat0021 pw.x -in pw.inp   Done                     12/19/2018 10:18:09
00025 suncat0021 pw.x -in pw.inp   Done                     12/19/2018 10:18:09
00026 suncat0021 pw.x -in pw.inp   Done                     12/19/2018 10:18:09
00027 suncat0021 pw.x -in pw.inp   Done                     12/19/2018 10:18:09
00028 suncat0021 pw.x -in pw.inp   Done                     12/19/2018 10:18:09
00029 suncat0021 pw.x -in pw.inp   Done                     12/19/2018 10:18:09
00030 suncat0021 pw.x -in pw.inp   Done                     12/19/2018 10:18:09
00031 suncat0021 pw.x -in pw.inp   Done                     12/19/2018 10:18:09