     Program PWSCF v.5.1rc2 (svn rev. 11289) starts on 18Dec2018 at 19:11:57

     Current dimensions of program PWSCF are:
     Max number of different atomic species (ntypx) = 10
     Max number of k-points (npk) =  40000
     Max angular momentum in pseudopotentials (lmaxx) =  3
     Presently stress not available with electric field

     IMPORTANT: XC functional enforced from input :
     Exchange-correlation      = BEEF-VDW ( 1  4 27 13 2)
     Any further DFT definition will be discarded
     Please, verify this is what you really want

     Subspace diagonalization in iterative solution of the eigenvalue problem:
     a serial algorithm will be used

     Found symmetry operation: I + ( -0.5000  0.0000  0.0000)
     This is a supercell, fractional translations are disabled

     bravais-lattice index     =            0
     lattice parameter (alat)  =       1.8897  a.u.
     unit-cell volume          =    6752.8326 (a.u.)^3
     number of atoms/cell      =           12
     number of atomic types    =            2
     number of electrons       =       156.00
     number of Kohn-Sham states=          108
     kinetic-energy cutoff     =      36.7493  Ry
     charge density cutoff     =     367.4932  Ry
     convergence threshold     =      1.0E-06
     mixing beta               =       0.1000
     number of iterations used =           10  plain     mixing
     Exchange-correlation      = BEEF-VDW ( 1  4 27 13 2)
     nstep                     =           50

     celldm(1)=   1.889726  celldm(2)=   0.000000  celldm(3)=   0.000000
     celldm(4)=   0.000000  celldm(5)=   0.000000  celldm(6)=   0.000000

     crystal axes: (cart. coord. in units of alat)
               a(1) = (   6.606362   0.000000   0.000000 )
               a(2) = (  -3.303181   5.941983   0.000000 )
               a(3) = (   0.000000   0.000000  25.491509 )

     reciprocal axes: (cart. coord. in units 2 pi/alat)
               b(1) = (  0.151369  0.084147  0.000000 )
               b(2) = (  0.000000  0.168294  0.000000 )
               b(3) = (  0.000000  0.000000  0.039229 )

     PseudoPot. # 1 for Cd read from file:
     /afs/slac.stanford.edu/u/if/mamunm/psp/gbrv1.5pbe/Cd.UPF
     MD5 check sum: 17164a7926edb8e0dc231208abae86a6
     Pseudo is Ultrasoft + core correction, Zval = 12.0
     Generated by new atomic code, or converted to UPF format
     Using radial grid of  889 points,  6 beta functions with:
                l(1) =   0
                l(2) =   0
                l(3) =   1
                l(4) =   1
                l(5) =   2
                l(6) =   2
     Q(r) pseudized with  6 coefficients,  rinner =    1.000   1.000   1.000
                                                       1.000   1.000

     PseudoPot. # 2 for Sn read from file:
     /afs/slac.stanford.edu/u/if/mamunm/psp/gbrv1.5pbe/Sn.UPF
     MD5 check sum: 469debedee59599fedebd795477fea03
     Pseudo is Ultrasoft + core correction, Zval = 14.0
     Generated by new atomic code, or converted to UPF format
     Using radial grid of  891 points,  6 beta functions with:
                l(1) =   0
                l(2) =   0
                l(3) =   1
                l(4) =   1
                l(5) =   2
                l(6) =   2
     Q(r) pseudized with  8 coefficients,  rinner =    1.350   1.350   1.350
                                                       1.350   1.350

     vdW kernel table read from file vdW_kernel_table
     MD5 check sum: 095c7af220d748ca6e76c0b4c6cfb241

     atomic species   valence    mass     pseudopotential
        Cd1           12.00   112.41400     Cd( 1.00)
        Sn1           14.00   118.71000     Sn( 1.00)

     No symmetry found

   Cartesian axes

     site n.     atom                  positions (alat units)
         1           Cd1 tau(   1) = (   0.0000000   0.0000000  10.0000000  )
         2           Cd1 tau(   2) = (   3.3031812   0.0000000  10.0000000  )
         3           Sn1 tau(   3) = (   1.6515906   2.9709917  10.0000000  )
         4           Sn1 tau(   4) = (  -1.6515906   2.9709917  10.0000000  )
         5           Cd1 tau(   5) = (   3.3031812   1.8362566  12.7457545  )
         6           Cd1 tau(   6) = (  -0.0000000   1.8362566  12.7457545  )
         7           Sn1 tau(   7) = (  -1.6515906   4.8072483  12.7457545  )
         8           Sn1 tau(   8) = (   1.6515906   4.8072483  12.7457545  )
         9           Cd1 tau(   9) = (   0.0000000   3.6725132  15.4915091  )
        10           Cd1 tau(  10) = (   3.3031812   3.6725132  15.4915091  )
        11           Sn1 tau(  11) = (   4.9547719   0.7015215  15.4915091  )
        12           Sn1 tau(  12) = (   1.6515906   0.7015215  15.4915091  )

     number of k points=    20  Fermi-Dirac smearing, width (Ry)=  0.0110
                       cart. coord. in units 2pi/alat
        k(    1) = (   0.0000000   0.0000000   0.0000000), wk =   0.0555556
        k(    2) = (   0.0000000   0.0280490   0.0000000), wk =   0.1111111
        k(    3) = (   0.0000000   0.0560980   0.0000000), wk =   0.1111111
        k(    4) = (   0.0000000  -0.0841470   0.0000000), wk =   0.0555556
        k(    5) = (   0.0252282   0.0140245   0.0000000), wk =   0.1111111
        k(    6) = (   0.0252282   0.0420735   0.0000000), wk =   0.1111111
        k(    7) = (   0.0252282   0.0701225   0.0000000), wk =   0.1111111
        k(    8) = (   0.0252282  -0.0701225   0.0000000), wk =   0.1111111
        k(    9) = (   0.0252282  -0.0420735   0.0000000), wk =   0.1111111
        k(   10) = (   0.0252282  -0.0140245   0.0000000), wk =   0.1111111
        k(   11) = (   0.0504564   0.0280490   0.0000000), wk =   0.1111111
        k(   12) = (   0.0504564   0.0560980   0.0000000), wk =   0.1111111
        k(   13) = (   0.0504564   0.0841470   0.0000000), wk =   0.1111111
        k(   14) = (   0.0504564  -0.0560980   0.0000000), wk =   0.1111111
        k(   15) = (   0.0504564  -0.0280490   0.0000000), wk =   0.1111111
        k(   16) = (   0.0504564   0.0000000   0.0000000), wk =   0.1111111
        k(   17) = (  -0.0756846  -0.0420735   0.0000000), wk =   0.0555556
        k(   18) = (  -0.0756846  -0.0140245   0.0000000), wk =   0.1111111
        k(   19) = (  -0.0756846   0.0140245   0.0000000), wk =   0.1111111
        k(   20) = (  -0.0756846  -0.1262205   0.0000000), wk =   0.0555556

     Largest allocated arrays     est. size (Mb)     dimensions
     Largest temporary arrays     est. size (Mb)     dimensions

     Initial potential from superposition of free atoms
     Check: negative starting charge=   -0.130633

     starting charge  146.99948, renormalised to  156.00000

     negative rho (up, down):  1.386E-01 0.000E+00

     *
     * You are using vdW-DF for exchange-correlation in this calculation.
     * Please cite the following three references that made this development
     * possible:
     *
     *   M. Dion, H. Rydberg, E. Schroder, D. C. Langreth, and
     *   B. I. Lundqvist, Phys. Rev. Lett. 92, 246401 (2004).
     *
     *   T. Thonhauser, V. R. Cooper, S. Li, A. Puzder, P. Hyldgaard, and
     *   D. C. Langreth, Phys. Rev. B 76, 125112 (2007).
     *
     *   G. Roman-Perez and J. M. Soler, Phys. Rev. Lett. 103, 096102 (2009).
     *
     *
     * If you are using vdW-DF2, please also cite:
     *
     *   K. Lee, E. D. Murray, L. Kong, B. I. Lundqvist, and
     *   D. C. Langreth, Phys. Rev. B 82, 081101(R) (2010).
     *
     *
     * If you are calculating the stress with vdW-DF, please also cite:
     *
     *   R. Sabatini, E. Kucukbenli, B. Kolb, T. Thonhauser, and
     *   S. de Gironcoli, J. Phys.: Condens. Matter 24, 424209 (2012).
     *

     Carrying out vdW-DF run using the following parameters:

     Nqs =      20    Nr_points =    1024   r_max =   100.000
     q_mesh =
               0.00001000     0.04494208     0.09755937     0.15916263
               0.23128650     0.31572767     0.41458969     0.53033537
               0.66584808     0.82450364     1.01025438     1.22772762
               1.48234092     1.78043706     2.12944203     2.53805004
               3.01644009     3.57652955     4.23227104     5.00000000

     Gradients computed in reciprocal space

     Adding external electric field

     Computed dipole along edir(3) :
        Dipole                0.0000 Ry au,          0.0000 Debye
        Dipole field          0.0000 Ry au

        Potential amp.       -0.0000 Ry
        Total length         46.9677 bohr

     Starting wfc are  108 randomized atomic wfcs

     Self-consistent Calculation

     iteration #  1     ecut=    36.75 Ry     beta=0.10
     Davidson diagonalization with overlap
     ethr =  1.00E-02,  avg # of iterations =  8.3

[...]

     total energy              =   -1661.94927824 Ry
     Harris-Foulkes estimate   =   -1663.00008279 Ry
     estimated scf accuracy    <       6.18607757 Ry

[...]

     iteration #  7     ecut=    36.75 Ry     beta=0.10
     Davidson diagonalization with overlap
     c_bands:  1 eigenvalues not converged
     ethr =  9.14E-06,  avg # of iterations =  4.9

[...]

     End of self-consistent calculation

          k = 0.0000 0.0000 0.0000 ( 25365 PWs)   bands (ev):

   -21.7300 -21.7228 -21.6751 -21.6709 -21.6678 -21.6660 -21.6638 -21.6613
   -21.6539 -21.6496 -21.6484 -21.6475 -21.6438 -21.6431 -21.6397 -21.6157
   -21.6140 -21.6077 -21.6062 -21.5990 -21.5748 -21.5718 -21.5610 -21.5579
   -21.5553 -21.5421 -21.5417 -21.5355 -21.5188 -21.4680  -9.1957  -8.8753
    -8.8726  -8.8651  -8.8031  -8.7069  -8.6959  -8.6806  -8.6490  -8.6283
    -8.5864  -8.5849  -8.5685  -8.5284  -8.4523  -8.4350  -8.4203  -8.4090
    -8.3931  -8.3777  -8.3770  -8.3738  -8.3392  -8.3131  -8.2599  -8.2576
    -8.2539  -8.2512  -8.2259  -8.1408  -8.0638  -7.7632  -6.3855  -5.6820
    -5.2347  -4.2962  -3.4360  -3.2953  -3.2519  -2.8413  -2.5434  -2.1743
    -2.1591  -1.7826  -1.7587  -1.1885  -0.8862  -0.6322  -0.4717  -0.3301
     0.2026   0.6956   1.0595   1.9992   2.1199   2.6025   2.8635   3.3399
     3.8184   3.9265   4.0955   4.1061   4.5371   4.6846   4.6959   4.8110
     5.0308   5.2255   5.3340   5.6796   6.2855   6.3121   6.3981   6.4270
     6.4622   6.6183   6.7149   7.0024

[...]

          k =-0.0757-0.0421 0.0000 ( 25400 PWs)   bands (ev):

[...]

     the Fermi energy is     0.2716 ev

!    total energy              =   -1660.64212457 Ry
     Harris-Foulkes estimate   =   -1660.64212453 Ry
     estimated scf accuracy    <       0.00000063 Ry

     The total energy is the sum of the following terms:

     one-electron contribution =   -8831.69082734 Ry
     hartree contribution      =    4492.29104011 Ry
     xc contribution           =    -511.36606652 Ry
     ewald contribution        =    3190.16076914 Ry
     electric field correction =       0.00000000 Ry
     smearing contrib. (-TS)   =      -0.03703996 Ry

     convergence has been achieved in  14 iterations

 BEEF-vdW xc energy contributions
           1 :   -448.742525179856
           2 :    410.376166168056
           3 :   -345.620895227341
           4 :    272.911461919879
           5 :   -209.359166920429
           6 :    164.591869936751
           7 :   -138.821051157439
[...]
00031 suncat0021 pw.x -in pw.inp   Done                     12/18/2018 19:32:17

[...]

     iteration # 10     ecut=    36.75 Ry     beta=0.10
     Davidson diagonalization with overlap
     c_bands:  1 eigenvalues not converged
     ethr =  3.90E-07,  avg # of iterations =  4.3

[...]

     Total force =     0.010642     Total SCF correction =     0.000889

[...]

   This run was terminated on:  19:53:18  18Dec2018

[...]

     Program PWSCF v.5.1rc2 (svn rev. 11289) starts on 18Dec2018 at 19:53:24

     Current dimensions of program PWSCF are:
     Max number of different atomic species (ntypx) = 10
     Max number of k-points (npk) =  40000
     Max angular momentum in pseudopotentials (lmaxx) =  3
     Presently stress not available with electric field

     IMPORTANT: XC functional enforced from input :
     Exchange-correlation      = BEEF-VDW ( 1  4 27 13 2)
     Any further DFT definition will be discarded
     Please, verify this is what you really want

     Subspace diagonalization in iterative solution of the eigenvalue problem:
     a serial algorithm will be used

     Found symmetry operation: I + ( -0.5000  0.0000  0.0000)
     This is a supercell, fractional translations are disabled

     bravais-lattice index     =            0
     lattice parameter (alat)  =       1.8897  a.u.
     unit-cell volume          =    6752.8326 (a.u.)^3
     number of atoms/cell      =           12
     number of atomic types    =            2
     number of electrons       =       156.00
     number of Kohn-Sham states=          108
     kinetic-energy cutoff     =      36.7493  Ry
     charge density cutoff     =     367.4932  Ry
     convergence threshold     =      1.0E-06
     mixing beta               =       0.1000
     number of iterations used =           10  plain     mixing
     Exchange-correlation      = BEEF-VDW ( 1  4 27 13 2)
     nstep                     =           50

     celldm(1)=   1.889726  celldm(2)=   0.000000  celldm(3)=   0.000000
     celldm(4)=   0.000000  celldm(5)=   0.000000  celldm(6)=   0.000000

     crystal axes: (cart. coord. in units of alat)
               a(1) = (   6.606362   0.000000   0.000000 )
               a(2) = (  -3.303181   5.941983   0.000000 )
               a(3) = (   0.000000   0.000000  25.491509 )

     reciprocal axes: (cart. coord. in units 2 pi/alat)
               b(1) = (  0.151369  0.084147  0.000000 )
               b(2) = (  0.000000  0.168294  0.000000 )
               b(3) = (  0.000000  0.000000  0.039229 )

     PseudoPot. # 1 for Cd read from file:
     /afs/slac.stanford.edu/u/if/mamunm/psp/gbrv1.5pbe/Cd.UPF
     MD5 check sum: 17164a7926edb8e0dc231208abae86a6
     Pseudo is Ultrasoft + core correction, Zval = 12.0
     Generated by new atomic code, or converted to UPF format
     Using radial grid of  889 points,  6 beta functions with:
                l(1) =   0
                l(2) =   0
                l(3) =   1
                l(4) =   1
                l(5) =   2
                l(6) =   2
     Q(r) pseudized with  6 coefficients,  rinner =    1.000   1.000   1.000
                                                       1.000   1.000

     PseudoPot. # 2 for Sn read from file:
     /afs/slac.stanford.edu/u/if/mamunm/psp/gbrv1.5pbe/Sn.UPF
     MD5 check sum: 469debedee59599fedebd795477fea03
     Pseudo is Ultrasoft + core correction, Zval = 14.0
     Generated by new atomic code, or converted to UPF format
     Using radial grid of  891 points,  6 beta functions with:
                l(1) =   0
                l(2) =   0
                l(3) =   1
                l(4) =   1
                l(5) =   2
                l(6) =   2
     Q(r) pseudized with  8 coefficients,  rinner =    1.350   1.350   1.350
                                                       1.350   1.350

     vdW kernel table read from file vdW_kernel_table
     MD5 check sum: 095c7af220d748ca6e76c0b4c6cfb241

     atomic species   valence    mass     pseudopotential
        Cd1           12.00   112.41400     Cd( 1.00)
        Sn1           14.00   118.71000     Sn( 1.00)

     No symmetry found

   Cartesian axes

     site n.     atom                  positions (alat units)
         1           Cd1 tau(   1) = (   0.0000000   0.0000000  10.0000000  )
         2           Cd1 tau(   2) = (   3.3031812   0.0000000  10.0000000  )
         3           Sn1 tau(   3) = (   1.6515906   2.9709917  10.0000000  )
         4           Sn1 tau(   4) = (  -1.6515906   2.9709917  10.0000000  )
         5           Cd1 tau(   5) = (   3.3031812   1.8362566  12.7457545  )
         6           Cd1 tau(   6) = (  -0.0000000   1.8362566  12.7457545  )
         7           Sn1 tau(   7) = (  -1.6515906   4.8072483  12.7457545  )
         8           Sn1 tau(   8) = (   1.6515906   4.8072483  12.7457545  )
         9           Cd1 tau(   9) = (   0.0000330   3.6683885  15.5011888  )
        10           Cd1 tau(  10) = (   3.3031778   3.6683543  15.5011624  )
        11           Sn1 tau(  11) = (   4.9547771   0.7197623  15.4113500  )
        12           Sn1 tau(  12) = (   1.6515755   0.7197860  15.4113719  )

     number of k points=    20  Fermi-Dirac smearing, width (Ry)=  0.0110
                       cart. coord. in units 2pi/alat
        k(    1) = (   0.0000000   0.0000000   0.0000000), wk =   0.0555556
        k(    2) = (   0.0000000   0.0280490   0.0000000), wk =   0.1111111
        k(    3) = (   0.0000000   0.0560980   0.0000000), wk =   0.1111111
        k(    4) = (   0.0000000  -0.0841470   0.0000000), wk =   0.0555556
        k(    5) = (   0.0252282   0.0140245   0.0000000), wk =   0.1111111
        k(    6) = (   0.0252282   0.0420735   0.0000000), wk =   0.1111111
        k(    7) = (   0.0252282   0.0701225   0.0000000), wk =   0.1111111
        k(    8) = (   0.0252282  -0.0701225   0.0000000), wk =   0.1111111
        k(    9) = (   0.0252282  -0.0420735   0.0000000), wk =   0.1111111
        k(   10) = (   0.0252282  -0.0140245   0.0000000), wk =   0.1111111
        k(   11) = (   0.0504564   0.0280490   0.0000000), wk =   0.1111111
        k(   12) = (   0.0504564   0.0560980   0.0000000), wk =   0.1111111
        k(   13) = (   0.0504564   0.0841470   0.0000000), wk =   0.1111111
        k(   14) = (   0.0504564  -0.0560980   0.0000000), wk =   0.1111111
        k(   15) = (   0.0504564  -0.0280490   0.0000000), wk =   0.1111111
        k(   16) = (   0.0504564   0.0000000   0.0000000), wk =   0.1111111
        k(   17) = (  -0.0756846  -0.0420735   0.0000000), wk =   0.0555556
        k(   18) = (  -0.0756846  -0.0140245   0.0000000), wk =   0.1111111
        k(   19) = (  -0.0756846   0.0140245   0.0000000), wk =   0.1111111
        k(   20) = (  -0.0756846  -0.1262205   0.0000000), wk =   0.0555556

     Largest allocated arrays     est. size (Mb)     dimensions
     Largest temporary arrays     est. size (Mb)     dimensions

     Initial potential from superposition of free atoms
     Check: negative starting charge=   -0.131070

     starting charge  146.99948, renormalised to  156.00000

[...]

     *
     * You are using vdW-DF for exchange-correlation in this calculation.
     * Please cite the following three references that made this development
     * possible:
     *
     *   M. Dion, H. Rydberg, E. Schroder, D. C. Langreth, and
     *   B. I. Lundqvist, Phys. Rev. Lett. 92, 246401 (2004).
     *
     *   T. Thonhauser, V. R. Cooper, S. Li, A. Puzder, P. Hyldgaard, and
     *   D. C. Langreth, Phys. Rev. B 76, 125112 (2007).
     *
     *   G. Roman-Perez and J. M. Soler, Phys. Rev. Lett. 103, 096102 (2009).
     *
     *
     * If you are using vdW-DF2, please also cite:
     *
     *   K. Lee, E. D. Murray, L. Kong, B. I. Lundqvist, and
     *   D. C. Langreth, Phys. Rev. B 82, 081101(R) (2010).
     *
     *
     * If you are calculating the stress with vdW-DF, please also cite:
     *
     *   R. Sabatini, E. Kucukbenli, B. Kolb, T. Thonhauser, and
     *   S. de Gironcoli, J. Phys.: Condens. Matter 24, 424209 (2012).
     *

     Carrying out vdW-DF run using the following parameters:

     Nqs =      20    Nr_points =    1024   r_max =   100.000
     q_mesh =
               0.00001000     0.04494208     0.09755937     0.15916263
               0.23128650     0.31572767     0.41458969     0.53033537
               0.66584808     0.82450364     1.01025438     1.22772762
               1.48234092     1.78043706     2.12944203     2.53805004
               3.01644009     3.57652955     4.23227104     5.00000000

     Gradients computed in reciprocal space

[...]

     Starting wfc are  108 randomized atomic wfcs

     Self-consistent Calculation

[...]

     total energy              =   -1660.64327243 Ry
     Harris-Foulkes estimate   =   -1660.64327149 Ry
     estimated scf accuracy    <       0.00000224 Ry

     iteration # 14     ecut=    36.75 Ry     beta=0.10
     Davidson diagonalization with overlap
     ethr =  1.43E-09,  avg # of iterations =  2.0

[...]

     negative rho (up, down):  1.340E-01 0.000E+00

     Adding external electric field

     Computed dipole along edir(3) :
        Dipole               -0.0031 Ry au,         -0.0079 Debye
        Dipole field         -0.0000 Ry au

        Potential amp.        0.0005 Ry
        Total length         46.9677 bohr

     End of self-consistent calculation

[...]

          k = 0.0505 0.0000 0.0000 ( 25448 PWs)   bands (ev):

[...]

          k =-0.0757-0.1262 0.0000 ( 25400 PWs)   bands (ev):

   -21.6800 -21.6800 -21.6573 -21.6573 -21.6495 -21.6495 -21.6477 -21.6477
   -21.6452 -21.6452 -21.6424 -21.6424 -21.6416 -21.6416 -21.6362 -21.6362
   -21.6342 -21.6342 -21.6305 -21.6305 -21.5755 -21.5755 -21.5731 -21.5731
   -21.5589 -21.5589 -21.5460 -21.5460 -21.5248 -21.5248  -8.7985  -8.7985
    -8.7242  -8.7242  -8.7066  -8.7066  -8.6579  -8.6579  -8.5998  -8.5998
    -8.4884  -8.4884  -8.4693  -8.4693  -8.4277  -8.4277  -8.4182  -8.4182
    -8.4089  -8.4089  -8.4072  -8.4072  -8.3974  -8.3974  -8.3732  -8.3732
    -8.3496  -8.3496  -8.2927  -8.2927  -7.8353  -7.8352  -6.9429  -6.9429
    -5.8972  -5.8972  -3.9329  -3.9329  -2.8541  -2.8540  -1.9569  -1.9569
    -0.6191  -0.6191  -0.1973  -0.1973   0.1010   0.1010   0.8120   0.8120
     1.0924   1.0924   1.6111   1.6111   2.0165   2.0165   2.7815   2.7815
     2.8756   2.8756   3.8059   3.8059   4.0719   4.0719   4.4254   4.4254
     4.7910   4.7911   4.9791   4.9791   5.5566   5.5566   5.7803   5.7803
     5.8087   5.8088   6.1377   6.1378

     the Fermi energy is     0.2649 ev

!    total energy              =   -1660.64327129 Ry
     Harris-Foulkes estimate   =   -1660.64327278 Ry
     estimated scf accuracy    <       0.00000090 Ry

     The total energy is the sum of the following terms:

     one-electron contribution =   -8878.97135596 Ry
     hartree contribution      =    4515.92077579 Ry
     xc contribution           =    -511.38927078 Ry
     ewald contribution        =    3213.83306597 Ry
     electric field correction =       0.00000002 Ry
     smearing contrib. (-TS)   =      -0.03648633 Ry

     convergence has been achieved in  14 iterations

 BEEF-vdW xc energy contributions
           1 :   -448.767478549478
           2 :    410.417353934818
           3 :   -345.681994342114
           4 :    272.979282930694
           5 :   -209.410884792013
           6 :    164.609627136111
           7 :   -138.803963763124
           8 :    125.350349789258
           9 :   -115.788774120061
          10 :    104.476222515996
          11 :   -90.5509581672873
          12 :    76.7826788803191
          13 :   -66.6517159623061
          14 :    61.7198613632413
          15 :   -60.7805952440983
          16 :    60.9310017733325
          17 :   -59.5390539499174
          18 :    55.7316627910929
          19 :   -50.5749038540637
          20 :    46.0518383508107
          21 :   -43.6579743721423
          22 :    43.5246766400402
          23 :   -44.5123858518532
          24 :    45.0563680176062
          25 :   -44.1405608999160
          26 :    41.8052256928032
          27 :   -38.9682350410711
          28 :    36.7675347539777
          29 :   -35.8719433907223
          30 :    36.1529121087082
          31 :   -39.7349172905415
          32 :   -28.8841145911051

     Forces acting on atoms (Ry/au):

     negative rho (up, down):  1.340E-01 0.000E+00
     atom    1 type  1   force =     0.00000243    0.00027425   -0.00117588
     atom    2 type  1   force =    -0.00000131    0.00027276   -0.00117021
     atom    3 type  2   force =     0.00000074   -0.00147082    0.00513874
     atom    4 type  2   force =     0.00000068   -0.00147388    0.00514185
     atom    5 type  1   force =    -0.00000172    0.00134438   -0.00249958
     atom    6 type  1   force =     0.00000085    0.00134093   -0.00249571
     atom    7 type  2   force =    -0.00000197   -0.00173011   -0.00210328
     atom    8 type  2   force =     0.00000021   -0.00173268   -0.00210275
     atom    9 type  1   force =    -0.00000036    0.00094603    0.00124219
     atom   10 type  1   force =     0.00000018    0.00094927    0.00124892
     atom   11 type  2   force =     0.00000160    0.00064318   -0.00061215
     atom   12 type  2   force =    -0.00000133    0.00063669   -0.00061215

     Total force =     0.009873     Total SCF correction =     0.003425
     SCF correction compared to forces is large: reduce conv_thr to get better values

     entering subroutine stress ...

     negative rho (up, down):  1.340E-01 0.000E+00
          total   stress  (Ry/bohr**3)                   (kbar)     P=   -7.93
  -0.00006608   0.00000000  -0.00000000         -9.72      0.00     -0.00
   0.00000000  -0.00006662   0.00000426          0.00     -9.80      0.63
  -0.00000000   0.00000426  -0.00002912         -0.00      0.63     -4.28

 !ASE

     Writing output data file calc.save

     General routines

     Parallel routines

   This run was terminated on:  20:12: 4  18Dec2018

   JOB DONE.
Job  /afs/slac/g/suncat/bin/suncat-tsmpirun -x LD_LIBRARY_PATH -wdir /scratch/qe529654_NJbLz pw.x -in pw.inp

TID   HOST_NAME   COMMAND_LINE            STATUS            TERMINATION_TIME
00000 suncat0024 pw.x -in pw.inp   Done                     12/18/2018 20:12:04
00001 suncat0024 pw.x -in pw.inp   Done                     12/18/2018 20:12:04
00002 suncat0024 pw.x -in pw.inp   Done                     12/18/2018 20:12:04
00003 suncat0024 pw.x -in pw.inp   Done                     12/18/2018 20:12:04
00004 suncat0024 pw.x -in pw.inp   Done                     12/18/2018 20:12:04
00005 suncat0024 pw.x -in pw.inp   Done                     12/18/2018 20:12:04
00006 suncat0024 pw.x -in pw.inp   Done                     12/18/2018 20:12:04
00007 suncat0024 pw.x -in pw.inp   Done                     12/18/2018 20:12:04
00008 suncat0023 pw.x -in pw.inp   Done                     12/18/2018 20:12:04
00009 suncat0023 pw.x -in pw.inp   Done                     12/18/2018 20:12:04
00010 suncat0023 pw.x -in pw.inp   Done                     12/18/2018 20:12:04
00011 suncat0023 pw.x -in pw.inp   Done                     12/18/2018 20:12:04
00012 suncat0023 pw.x -in pw.inp   Done                     12/18/2018 20:12:04
00013 suncat0023 pw.x -in pw.inp   Done                     12/18/2018 20:12:04
00014 suncat0023 pw.x -in pw.inp   Done                     12/18/2018 20:12:04
00015 suncat0023 pw.x -in pw.inp   Done                     12/18/2018 20:12:04
00016 suncat0022 pw.x -in pw.inp   Done                     12/18/2018 20:12:04
00017 suncat0022 pw.x -in pw.inp   Done                     12/18/2018 20:12:04
00018 suncat0022 pw.x -in pw.inp   Done                     12/18/2018 20:12:04
00019 suncat0022 pw.x -in pw.inp   Done                     12/18/2018 20:12:04
00020 suncat0022 pw.x -in pw.inp   Done                     12/18/2018 20:12:04
00021 suncat0022 pw.x -in pw.inp   Done                     12/18/2018 20:12:04
00022 suncat0022 pw.x -in pw.inp   Done                     12/18/2018 20:12:04
00023 suncat0022 pw.x -in pw.inp   Done                     12/18/2018 20:12:04
00024 suncat0021 pw.x -in pw.inp   Done                     12/18/2018 20:12:04
00025 suncat0021 pw.x -in pw.inp   Done                     12/18/2018 20:12:04
00026 suncat0021 pw.x -in pw.inp   Done                     12/18/2018 20:12:04
00027 suncat0021 pw.x -in pw.inp   Done                     12/18/2018 20:12:04
00028 suncat0021 pw.x -in pw.inp   Done                     12/18/2018 20:12:04
00029 suncat0021 pw.x -in pw.inp   Done                     12/18/2018 20:12:04
00030 suncat0021 pw.x -in pw.inp   Done                     12/18/2018 20:12:04
00031 suncat0021 pw.x -in pw.inp   Done                     12/18/2018 20:12:04