     Program PWSCF v.5.1rc2 (svn rev. 11289) starts on 18Dec2018 at 19:32:43

     Current dimensions of program PWSCF are:
     Max number of different atomic species (ntypx) = 10
     Max number of k-points (npk) =  40000
     Max angular momentum in pseudopotentials (lmaxx) =  3
     Presently stress not available with electric field

     IMPORTANT: XC functional enforced from input :
     Exchange-correlation      = BEEF-VDW ( 1  4 27 13 2)
     Any further DFT definition will be discarded
     Please, verify this is what you really want

     Subspace diagonalization in iterative solution of the eigenvalue problem:
     a serial algorithm will be used

     Found symmetry operation: I + (  0.5000  0.0000  0.0000)
     This is a supercell, fractional translations are disabled

     Generating pointlists ...
     new r_m :   0.4125 (alat units)  0.7795 (a.u.) for type    1
     new r_m :   0.4125 (alat units)  0.7795 (a.u.) for type    2

     bravais-lattice index     =            0
     lattice parameter (alat)  =       1.8897  a.u.
     unit-cell volume          =    4394.5714 (a.u.)^3
     number of atoms/cell      =           12
     number of atomic types    =            2
     number of electrons       =       216.00
     number of Kohn-Sham states=          138
     kinetic-energy cutoff     =      36.7493  Ry
     charge density cutoff     =     367.4932  Ry
     convergence threshold     =      1.0E-06
     mixing beta               =       0.1000
     number of iterations used =           10  plain     mixing
     Exchange-correlation      = BEEF-VDW ( 1  4 27 13 2)
     nstep                     =           50

     celldm(1)=   1.889726  celldm(2)=   0.000000  celldm(3)=   0.000000
     celldm(4)=   0.000000  celldm(5)=   0.000000  celldm(6)=   0.000000

     crystal axes: (cart. coord. in units of alat)
               a(1) = (   5.396886   0.000000   0.000000 )
               a(2) = (  -2.698443   4.922308   0.000000 )
               a(3) = (   0.000000   0.000000  24.513647 )

     reciprocal axes: (cart. coord. in units 2 pi/alat)
               b(1) = (  0.185292  0.101578  0.000000 )
               b(2) = (  0.000000  0.203157  0.000000 )
               b(3) = (  0.000000  0.000000  0.040794 )

     PseudoPot. # 1 for Co read from file:
     /afs/slac.stanford.edu/u/if/mamunm/psp/gbrv1.5pbe/Co.UPF
     MD5 check sum: 5f91765df6ddd3222702df6e7b74a16d
     Pseudo is Ultrasoft + core correction, Zval = 17.0
     Generated by new atomic code, or converted to UPF format
     Using radial grid of  863 points,  6 beta functions with:
                l(1) =   0
                l(2) =   0
                l(3) =   1
                l(4) =   1
                l(5) =   2
                l(6) =   2
     Q(r) pseudized with  8 coefficients,  rinner =    1.200   1.200   1.200
                                                       1.200   1.200

     PseudoPot. # 2 for Ag read from file:
     /afs/slac.stanford.edu/u/if/mamunm/psp/gbrv1.5pbe/Ag.UPF
     MD5 check sum: d66d668201baa78d5eb5b04ef7011058
     Pseudo is Ultrasoft + core correction, Zval = 19.0
     Generated by new atomic code, or converted to UPF format
     Using radial grid of  887 points,  6 beta functions with:
                l(1) =   0
                l(2) =   0
                l(3) =   1
                l(4) =   1
                l(5) =   2
                l(6) =   2
     Q(r) pseudized with  6 coefficients,  rinner =    1.300   1.300   1.300
                                                       1.300   1.300

     vdW kernel table read from file vdW_kernel_table
     MD5 check sum: 095c7af220d748ca6e76c0b4c6cfb241

     atomic species   valence    mass     pseudopotential
        Co1           17.00    58.93319     Co( 1.00)
        Ag1           19.00   107.86820     Ag( 1.00)

     Starting magnetic structure
     atomic species   magnetization
        Co1          0.118
        Ag1          0.105

     No symmetry found

   Cartesian axes

     site n.     atom                  positions (alat units)
         1           Co1 tau(   1) = (   0.0000000   0.0000000  10.0000000  )
         2           Co1 tau(   2) = (   2.6984431   0.0000000  10.0000000  )
         3           Ag1 tau(   3) = (   1.3492215   2.4611538  10.0000000  )
         4           Ag1 tau(   4) = (  -1.3492215   2.4611538  10.0000000  )
         5           Co1 tau(   5) = (   2.6984431   1.4793052  12.2568233  )
         6           Co1 tau(   6) = (  -0.0000000   1.4793052  12.2568233  )
         7           Ag1 tau(   7) = (  -1.3492215   3.9404590  12.2568233  )
         8           Ag1 tau(   8) = (   1.3492215   3.9404590  12.2568233  )
         9           Co1 tau(   9) = (   0.0000000   2.9586104  14.5136465  )
        10           Co1 tau(  10) = (   2.6984431   2.9586104  14.5136465  )
        11           Ag1 tau(  11) = (   4.0476646   0.4974566  14.5136465  )
        12           Ag1 tau(  12) = (   1.3492215   0.4974566  14.5136465  )

     number of k points=    40  Fermi-Dirac smearing, width (Ry)=  0.0110
                       cart. coord. in units 2pi/alat
        k(    1) = (   0.0000000   0.0000000   0.0000000), wk =   0.0277778
        k(    2) = (   0.0000000   0.0338595   0.0000000), wk =   0.0555556
        k(    3) = (   0.0000000   0.0677189   0.0000000), wk =   0.0555556
        k(    4) = (   0.0000000  -0.1015784   0.0000000), wk =   0.0277778
        k(    5) = (   0.0308820   0.0169297   0.0000000), wk =   0.0555556
        k(    6) = (   0.0308820   0.0507892   0.0000000), wk =   0.0555556
        k(    7) = (   0.0308820   0.0846486   0.0000000), wk =   0.0555556
        k(    8) = (   0.0308820  -0.0846486   0.0000000), wk =   0.0555556
        k(    9) = (   0.0308820  -0.0507892   0.0000000), wk =   0.0555556
        k(   10) = (   0.0308820  -0.0169297   0.0000000), wk =   0.0555556
        k(   11) = (   0.0617640   0.0338595   0.0000000), wk =   0.0555556
        k(   12) = (   0.0617640   0.0677189   0.0000000), wk =   0.0555556
        k(   13) = (   0.0617640   0.1015784   0.0000000), wk =   0.0555556
        k(   14) = (   0.0617640  -0.0677189   0.0000000), wk =   0.0555556
        k(   15) = (   0.0617640  -0.0338595   0.0000000), wk =   0.0555556
        k(   16) = (   0.0617640   0.0000000   0.0000000), wk =   0.0555556
        k(   17) = (  -0.0926460  -0.0507892   0.0000000), wk =   0.0277778
        k(   18) = (  -0.0926460  -0.0169297   0.0000000), wk =   0.0555556
        k(   19) = (  -0.0926460   0.0169297   0.0000000), wk =   0.0555556
        k(   20) = (  -0.0926460  -0.1523676   0.0000000), wk =   0.0277778
        k(   21) = (   0.0000000   0.0000000   0.0000000), wk =   0.0277778
        k(   22) = (   0.0000000   0.0338595   0.0000000), wk =   0.0555556
        k(   23) = (   0.0000000   0.0677189   0.0000000), wk =   0.0555556
        k(   24) = (   0.0000000  -0.1015784   0.0000000), wk =   0.0277778
        k(   25) = (   0.0308820   0.0169297   0.0000000), wk =   0.0555556
        k(   26) = (   0.0308820   0.0507892   0.0000000), wk =   0.0555556
        k(   27) = (   0.0308820   0.0846486   0.0000000), wk =   0.0555556
        k(   28) = (   0.0308820  -0.0846486   0.0000000), wk =   0.0555556
        k(   29) = (   0.0308820  -0.0507892   0.0000000), wk =   0.0555556
        k(   30) = (   0.0308820  -0.0169297   0.0000000), wk =   0.0555556
        k(   31) = (   0.0617640   0.0338595   0.0000000), wk =   0.0555556
        k(   32) = (   0.0617640   0.0677189   0.0000000), wk =   0.0555556
        k(   33) = (   0.0617640   0.1015784   0.0000000), wk =   0.0555556
        k(   34) = (   0.0617640  -0.0677189   0.0000000), wk =   0.0555556
        k(   35) = (   0.0617640  -0.0338595   0.0000000), wk =   0.0555556
        k(   36) = (   0.0617640   0.0000000   0.0000000), wk =   0.0555556
        k(   37) = (  -0.0926460  -0.0507892   0.0000000), wk =   0.0277778
        k(   38) = (  -0.0926460  -0.0169297   0.0000000), wk =   0.0555556
        k(   39) = (  -0.0926460   0.0169297   0.0000000), wk =   0.0555556
        k(   40) = (  -0.0926460  -0.1523676   0.0000000), wk =   0.0277778

     Largest allocated arrays     est. size (Mb)     dimensions
     Largest temporary arrays     est. size (Mb)     dimensions

     Check: negative/imaginary core charge=   -0.000004    0.000000

     Initial potential from superposition of free atoms
     Check: negative starting charge=(component1):   -0.000930
     Check: negative starting charge=(component2):   -0.000752

     starting charge  206.99967, renormalised to  216.00000

     negative rho (up, down):  9.703E-04 7.849E-04

     *
     * You are using vdW-DF for exchange-correlation in this calculation.
     * Please cite the following three references that made this development
     * possible:
     *
     *   M. Dion, H. Rydberg, E. Schroder, D. C. Langreth, and
     *   B. I. Lundqvist, Phys. Rev. Lett. 92, 246401 (2004).
     *
     *   T. Thonhauser, V. R. Cooper, S. Li, A. Puzder, P. Hyldgaard, and
     *   D. C. Langreth, Phys. Rev. B 76, 125112 (2007).
     *
     *   G. Roman-Perez and J. M. Soler, Phys. Rev. Lett. 103, 096102 (2009).
     *
     *
     * If you are using vdW-DF2, please also cite:
     *
     *   K. Lee, E. D. Murray, L. Kong, B. I. Lundqvist, and
     *   D. C. Langreth, Phys. Rev. B 82, 081101(R) (2010).
     *
     *
     * If you are calculating the stress with vdW-DF, please also cite:
     *
     *   R. Sabatini, E. Kucukbenli, B. Kolb, T. Thonhauser, and
     *   S. de Gironcoli, J. Phys.: Condens. Matter 24, 424209 (2012).
     *

     Carrying out vdW-DF run using the following parameters:

     Nqs =      20    Nr_points =    1024   r_max =   100.000
     q_mesh =
               0.00001000     0.04494208     0.09755937     0.15916263
               0.23128650     0.31572767     0.41458969     0.53033537
               0.66584808     0.82450364     1.01025438     1.22772762
               1.48234092     1.78043706     2.12944203     2.53805004
               3.01644009     3.57652955     4.23227104     5.00000000

     Gradients computed in reciprocal space

     Adding external electric field

     Computed dipole along edir(3) :
        Dipole                0.0000 Ry au,          0.0000 Debye
        Dipole field          0.0000 Ry au

        Potential amp.       -0.0000 Ry
        Total length         45.1660 bohr

[...]

     Starting wfc are  156 randomized atomic wfcs

     Self-consistent Calculation

     iteration #  1     ecut=    36.75 Ry     beta=0.10
     Davidson diagonalization with overlap
     ethr =  1.00E-02,  avg # of iterations =  7.2

[...]

     Magnetic moment per site:
     atom:    1    charge:    8.4668    magn:    1.0043    constr:    0.0000
     atom:    2    charge:    8.4668    magn:    1.0043    constr:    0.0000
     atom:    3    charge:    5.1785    magn:    0.5209    constr:    0.0000
     atom:    4    charge:    5.1785    magn:    0.5209    constr:    0.0000
     atom:    5    charge:    8.4507    magn:    1.0015    constr:    0.0000
     atom:    6    charge:    8.4507    magn:    1.0015    constr:    0.0000
[...]
     /afs/slac.stanford.edu/u/if/mamunm/psp/gbrv1.5pbe/Ag.UPF
     MD5 check sum: d66d668201baa78d5eb5b04ef7011058
     Pseudo is Ultrasoft + core correction, Zval = 19.0
     Generated by new atomic code, or converted to UPF format
     Using radial grid of  887 points,  6 beta functions with:
                l(1) =   0
                l(2) =   0
                l(3) =   1
                l(4) =   1
                l(5) =   2
                l(6) =   2
     Q(r) pseudized with  6 coefficients,  rinner =    1.300   1.300   1.300
                                                       1.300   1.300

     vdW kernel table read from file vdW_kernel_table
     MD5 check sum: 095c7af220d748ca6e76c0b4c6cfb241

     atomic species   valence    mass     pseudopotential
        Co1           17.00    58.93319     Co( 1.00)
        Ag1           19.00   107.86820     Ag( 1.00)

     Starting magnetic structure
     atomic species   magnetization
        Co1          0.118
        Ag1          0.105

     No symmetry found

   Cartesian axes

     site n.     atom                  positions (alat units)
         1           Co1 tau(   1) = (   0.0000000   0.0000000  10.0000000  )
         2           Co1 tau(   2) = (   2.6984431   0.0000000  10.0000000  )
         3           Ag1 tau(   3) = (   1.3492215   2.4611538  10.0000000  )
         4           Ag1 tau(   4) = (  -1.3492215   2.4611538  10.0000000  )
         5           Co1 tau(   5) = (   2.6984431   1.4793052  12.2568233  )
         6           Co1 tau(   6) = (  -0.0000000   1.4793052  12.2568233  )
         7           Ag1 tau(   7) = (  -1.3492215   3.9404590  12.2568233  )
         8           Ag1 tau(   8) = (   1.3492215   3.9404590  12.2568233  )
         9           Co1 tau(   9) = (   0.0000963   2.6202626  14.2612330  )
        10           Co1 tau(  10) = (   2.6985428   2.6201224  14.2611415  )
        11           Ag1 tau(  11) = (   4.0473750   0.2702824  14.7311116  )
        12           Ag1 tau(  12) = (   1.3500779   0.2702843  14.7311085  )

     number of k points=    40  Fermi-Dirac smearing, width (Ry)=  0.0110
                       cart. coord. in units 2pi/alat
        k(    1) = (   0.0000000   0.0000000   0.0000000), wk =   0.0277778
        k(    2) = (   0.0000000   0.0338595   0.0000000), wk =   0.0555556
        k(    3) = (   0.0000000   0.0677189   0.0000000), wk =   0.0555556
        k(    4) = (   0.0000000  -0.1015784   0.0000000), wk =   0.0277778
        k(    5) = (   0.0308820   0.0169297   0.0000000), wk =   0.0555556
        k(    6) = (   0.0308820   0.0507892   0.0000000), wk =   0.0555556
        k(    7) = (   0.0308820   0.0846486   0.0000000), wk =   0.0555556
        k(    8) = (   0.0308820  -0.0846486   0.0000000), wk =   0.0555556
        k(    9) = (   0.0308820  -0.0507892   0.0000000), wk =   0.0555556
        k(   10) = (   0.0308820  -0.0169297   0.0000000), wk =   0.0555556
        k(   11) = (   0.0617640   0.0338595   0.0000000), wk =   0.0555556
        k(   12) = (   0.0617640   0.0677189   0.0000000), wk =   0.0555556
        k(   13) = (   0.0617640   0.1015784   0.0000000), wk =   0.0555556
        k(   14) = (   0.0617640  -0.0677189   0.0000000), wk =   0.0555556
        k(   15) = (   0.0617640  -0.0338595   0.0000000), wk =   0.0555556
        k(   16) = (   0.0617640   0.0000000   0.0000000), wk =   0.0555556
        k(   17) = (  -0.0926460  -0.0507892   0.0000000), wk =   0.0277778
        k(   18) = (  -0.0926460  -0.0169297   0.0000000), wk =   0.0555556
        k(   19) = (  -0.0926460   0.0169297   0.0000000), wk =   0.0555556
        k(   20) = (  -0.0926460  -0.1523676   0.0000000), wk =   0.0277778
        k(   21) = (   0.0000000   0.0000000   0.0000000), wk =   0.0277778
        k(   22) = (   0.0000000   0.0338595   0.0000000), wk =   0.0555556
        k(   23) = (   0.0000000   0.0677189   0.0000000), wk =   0.0555556
        k(   24) = (   0.0000000  -0.1015784   0.0000000), wk =   0.0277778
        k(   25) = (   0.0308820   0.0169297   0.0000000), wk =   0.0555556
        k(   26) = (   0.0308820   0.0507892   0.0000000), wk =   0.0555556
        k(   27) = (   0.0308820   0.0846486   0.0000000), wk =   0.0555556
        k(   28) = (   0.0308820  -0.0846486   0.0000000), wk =   0.0555556
        k(   29) = (   0.0308820  -0.0507892   0.0000000), wk =   0.0555556
        k(   30) = (   0.0308820  -0.0169297   0.0000000), wk =   0.0555556
        k(   31) = (   0.0617640   0.0338595   0.0000000), wk =   0.0555556
        k(   32) = (   0.0617640   0.0677189   0.0000000), wk =   0.0555556
        k(   33) = (   0.0617640   0.1015784   0.0000000), wk =   0.0555556
        k(   34) = (   0.0617640  -0.0677189   0.0000000), wk =   0.0555556
        k(   35) = (   0.0617640  -0.0338595   0.0000000), wk =   0.0555556
        k(   36) = (   0.0617640   0.0000000   0.0000000), wk =   0.0555556
        k(   37) = (  -0.0926460  -0.0507892   0.0000000), wk =   0.0277778
        k(   38) = (  -0.0926460  -0.0169297   0.0000000), wk =   0.0555556
        k(   39) = (  -0.0926460   0.0169297   0.0000000), wk =   0.0555556
        k(   40) = (  -0.0926460  -0.1523676   0.0000000), wk =   0.0277778

     Largest allocated arrays     est. size (Mb)     dimensions
     Largest temporary arrays     est. size (Mb)     dimensions

     Check: negative/imaginary core charge=   -0.000004    0.000000

     Initial potential from superposition of free atoms
     Check: negative starting charge=(component1):   -0.000899
     Check: negative starting charge=(component2):   -0.000727

     starting charge  206.99967, renormalised to  216.00000

[...]

     *
     * You are using vdW-DF for exchange-correlation in this calculation.
     * Please cite the following three references that made this development
     * possible:
     *
     *   M. Dion, H. Rydberg, E. Schroder, D. C. Langreth, and
     *   B. I. Lundqvist, Phys. Rev. Lett. 92, 246401 (2004).
     *
     *   T. Thonhauser, V. R. Cooper, S. Li, A. Puzder, P. Hyldgaard, and
     *   D. C. Langreth, Phys. Rev. B 76, 125112 (2007).
     *
     *   G. Roman-Perez and J. M. Soler, Phys. Rev. Lett. 103, 096102 (2009).
     *
     *
     * If you are using vdW-DF2, please also cite:
     *
     *   K. Lee, E. D. Murray, L. Kong, B. I. Lundqvist, and
     *   D. C. Langreth, Phys. Rev. B 82, 081101(R) (2010).
     *
     *
     * If you are calculating the stress with vdW-DF, please also cite:
     *
     *   R. Sabatini, E. Kucukbenli, B. Kolb, T. Thonhauser, and
     *   S. de Gironcoli, J. Phys.: Condens. Matter 24, 424209 (2012).
     *

     Carrying out vdW-DF run using the following parameters:

     Nqs =      20    Nr_points =    1024   r_max =   100.000
     q_mesh =
               0.00001000     0.04494208     0.09755937     0.15916263
               0.23128650     0.31572767     0.41458969     0.53033537
               0.66584808     0.82450364     1.01025438     1.22772762
               1.48234092     1.78043706     2.12944203     2.53805004
               3.01644009     3.57652955     4.23227104     5.00000000

     Gradients computed in reciprocal space

[...]

     Starting wfc are  156 randomized atomic wfcs

     Self-consistent Calculation

[...]

     total energy              =   -3576.68520876 Ry
     Harris-Foulkes estimate   =   -3576.68520833 Ry
     estimated scf accuracy    <       0.00000217 Ry

[...]

     iteration # 33     ecut=    36.75 Ry     beta=0.10
     Davidson diagonalization with overlap
     ethr =  1.00E-09,  avg # of iterations =  1.1

[...]

     negative rho (up, down):  8.873E-04 8.002E-04

[...]

     Adding external electric field

     Computed dipole along edir(3) :
        Dipole               -0.0080 Ry au,         -0.0203 Debye
        Dipole field         -0.0000 Ry au

        Potential amp.        0.0021 Ry
        Total length         45.1660 bohr

     Magnetic moment per site:
     atom:    1    charge:    8.3059    magn:    0.9920    constr:    0.0000
     atom:    2    charge:    8.3059    magn:    0.9920    constr:    0.0000
     atom:    3    charge:    5.0876    magn:    0.0057    constr:    0.0000
     atom:    4    charge:    5.0876    magn:    0.0057    constr:    0.0000
     atom:    5    charge:    8.2918    magn:    0.9985    constr:    0.0000
     atom:    6    charge:    8.2918    magn:    0.9986    constr:    0.0000
     atom:    7    charge:    5.0804    magn:    0.0058    constr:    0.0000
     atom:    8    charge:    5.0804    magn:    0.0058    constr:    0.0000
     atom:    9    charge:    8.2944    magn:    0.9878    constr:    0.0000
     atom:   10    charge:    8.2945    magn:    0.9878    constr:    0.0000
     atom:   11    charge:    5.0784    magn:    0.0027    constr:    0.0000
     atom:   12    charge:    5.0782    magn:    0.0027    constr:    0.0000

     End of self-consistent calculation

 ------ SPIN UP ------------

[...]

 ------ SPIN DOWN ----------

[...]

          k = 0.0618 0.0000 0.0000 ( 16532 PWs)   bands (ev):

[...]

          k =-0.0926-0.1524 0.0000 ( 16572 PWs)   bands (ev):

   -92.7690 -92.7690 -92.6438 -92.6438 -92.5841 -92.5841 -91.3308 -91.3308
   -91.0528 -91.0528 -90.8605 -90.8604 -56.2356 -56.2354 -56.1145 -56.1145
   -56.1005 -56.1004 -56.0055 -56.0054 -55.9966 -55.9966 -55.9867 -55.9866
   -55.9647 -55.9647 -55.9583 -55.9583 -55.9298 -55.9298 -54.8407 -54.8407
   -54.8180 -54.8180 -54.8067 -54.8067 -54.5742 -54.5742 -54.5444 -54.5444
   -54.4963 -54.4963 -54.3984 -54.3975 -54.3562 -54.3561 -54.2988 -54.2988
    -4.8326  -4.8323  -4.4797  -4.4797  -4.3626  -4.3624  -4.3259  -4.3257
    -4.0337  -4.0337  -3.9204  -3.9196  -3.6559  -3.6555  -3.5387  -3.5381
    -3.4029  -3.4017  -3.3810  -3.3793  -3.3430  -3.3425  -3.2596  -3.2590
    -3.1116  -3.1106  -2.9973  -2.9962  -2.8910  -2.8901  -2.8054  -2.8041
    -1.9844  -1.9838  -1.0406  -1.0404  -0.4277  -0.4275  -0.2795  -0.2793
    -0.0281  -0.0279   0.2605   0.2606   0.4363   0.4364   0.5631   0.5632
     0.6423   0.6425   0.6918   0.6919   0.7291   0.7292   0.8363   0.8364
     1.0110   1.0111   1.3104   1.3105   1.4436   1.4437   1.5309   1.5310
     2.1696   2.1699   2.3718   2.3719   2.9990   2.9993   4.2709   4.2716
     4.9769   4.9771   6.3651   6.3652   6.9632   6.9632   7.1731   7.1732
     7.5989   7.5992   7.8587   7.8592   8.2472   8.2472   8.6774   8.6775
     8.8253   8.8260

     the Fermi energy is     1.0421 ev

!    total energy              =   -3576.68520933 Ry
     Harris-Foulkes estimate   =   -3576.68520884 Ry
     estimated scf accuracy    <       0.00000098 Ry

     The total energy is the sum of the following terms:

     one-electron contribution =  -27616.33143544 Ry
     hartree contribution      =   13806.41704509 Ry
     xc contribution           =    -383.00889441 Ry
     ewald contribution        =   10616.32263564 Ry
     electric field correction =       0.00000018 Ry
     smearing contrib. (-TS)   =      -0.08456039 Ry

     total magnetization       =    10.68 Bohr mag/cell
     absolute magnetization    =    12.46 Bohr mag/cell

     convergence has been achieved in  33 iterations

 BEEF-vdW xc energy contributions
           1 :   -334.837102515157
           2 :    303.304493185374
           3 :   -250.195234375443
           4 :    190.675690665297
           5 :   -138.561170040163
           6 :    101.328707888387
           7 :   -78.8771572348089
           8 :    65.9251735393988
           9 :   -56.1597127140540
          10 :    45.6737383326969
          11 :   -34.1277916076958
          12 :    23.5938358783575
          13 :   -16.3463753502305
          14 :    13.1477266830755
          15 :   -12.9436210111852
          16 :    13.7981410360941
          17 :   -14.1871947233840
          18 :    13.7229301691587
          19 :   -12.9744535476673
          20 :    12.7042052903058
          21 :   -13.1759397983809
          22 :    13.9854085393494
          23 :   -14.4272386445612
          24 :    14.0289230208126
          25 :   -12.8558167628472
          26 :    11.4094927432451
          27 :   -10.2610558476807
          28 :    9.69829464786199
          29 :   -9.61571584971301
          30 :    9.66334112933703
          31 :   -30.6178927290101
          32 :   -21.7335736646920

     Forces acting on atoms (Ry/au):

     negative rho (up, down):  8.873E-04 8.002E-04
     atom    1 type  1   force =     0.00001296    0.01328765    0.02218378
     atom    2 type  1   force =     0.00001311    0.01328198    0.02218725
     atom    3 type  2   force =     0.00000708   -0.01509556   -0.02454524
     atom    4 type  2   force =     0.00001093   -0.01509553   -0.02454522
     atom    5 type  1   force =     0.00001276   -0.01134503   -0.00134725
     atom    6 type  1   force =     0.00001248   -0.01132807   -0.00131413
     atom    7 type  2   force =    -0.00001865    0.01275864    0.00290964
     atom    8 type  2   force =    -0.00001584    0.01275882    0.00291030
     atom    9 type  1   force =     0.00000010    0.00065250   -0.00011548
     atom   10 type  1   force =     0.00000011    0.00074731   -0.00009698
     atom   11 type  2   force =     0.00036059   -0.00031172    0.00088650
     atom   12 type  2   force =    -0.00039563   -0.00031098    0.00088683

     Total force =     0.060035     Total SCF correction =     0.006116
     SCF correction compared to forces is large: reduce conv_thr to get better values

     entering subroutine stress ...

     negative rho (up, down):  8.873E-04 8.002E-04
          total   stress  (Ry/bohr**3)                   (kbar)     P=  -10.88
  -0.00008903   0.00000002  -0.00000000        -13.10      0.00     -0.00
   0.00000002  -0.00010747   0.00000393          0.00    -15.81      0.58
  -0.00000000   0.00000393  -0.00002546         -0.00      0.58     -3.75

 !ASE

     Writing output data file calc.save

     General routines

     Parallel routines

   This run was terminated on:   6:54:56  19Dec2018

   JOB DONE.
Job  /afs/slac/g/suncat/bin/suncat-tsmpirun -x LD_LIBRARY_PATH -wdir /scratch/qe529663_Ru8dk pw.x -in pw.inp

TID   HOST_NAME   COMMAND_LINE            STATUS            TERMINATION_TIME
00000 suncat0090 pw.x -in pw.inp   Done                     12/19/2018 06:54:56
00001 suncat0090 pw.x -in pw.inp   Done                     12/19/2018 06:54:56
00002 suncat0090 pw.x -in pw.inp   Done                     12/19/2018 06:54:56
00003 suncat0090 pw.x -in pw.inp   Done                     12/19/2018 06:54:56
00004 suncat0090 pw.x -in pw.inp   Done                     12/19/2018 06:54:56
00005 suncat0090 pw.x -in pw.inp   Done                     12/19/2018 06:54:56
00006 suncat0090 pw.x -in pw.inp   Done                     12/19/2018 06:54:56
00007 suncat0090 pw.x -in pw.inp   Done                     12/19/2018 06:54:56
00008 suncat0089 pw.x -in pw.inp   Done                     12/19/2018 06:54:56
00009 suncat0089 pw.x -in pw.inp   Done                     12/19/2018 06:54:56
00010 suncat0089 pw.x -in pw.inp   Done                     12/19/2018 06:54:56
00011 suncat0089 pw.x -in pw.inp   Done                     12/19/2018 06:54:56
00012 suncat0089 pw.x -in pw.inp   Done                     12/19/2018 06:54:56
00013 suncat0089 pw.x -in pw.inp   Done                     12/19/2018 06:54:56
00014 suncat0089 pw.x -in pw.inp   Done                     12/19/2018 06:54:56
00015 suncat0089 pw.x -in pw.inp   Done                     12/19/2018 06:54:56
00016 suncat0088 pw.x -in pw.inp   Done                     12/19/2018 06:54:56
00017 suncat0088 pw.x -in pw.inp   Done                     12/19/2018 06:54:56
00018 suncat0088 pw.x -in pw.inp   Done                     12/19/2018 06:54:56
00019 suncat0088 pw.x -in pw.inp   Done                     12/19/2018 06:54:56
00020 suncat0088 pw.x -in pw.inp   Done                     12/19/2018 06:54:56
00021 suncat0088 pw.x -in pw.inp   Done                     12/19/2018 06:54:56
00022 suncat0088 pw.x -in pw.inp   Done                     12/19/2018 06:54:56
00023 suncat0088 pw.x -in pw.inp   Done                     12/19/2018 06:54:56
00024 suncat0087 pw.x -in pw.inp   Done                     12/19/2018 06:54:56
00025 suncat0087 pw.x -in pw.inp   Done                     12/19/2018 06:54:56
00026 suncat0087 pw.x -in pw.inp   Done                     12/19/2018 06:54:56
00027 suncat0087 pw.x -in pw.inp   Done                     12/19/2018 06:54:56
00028 suncat0087 pw.x -in pw.inp   Done                     12/19/2018 06:54:56
00029 suncat0087 pw.x -in pw.inp   Done                     12/19/2018 06:54:56
00030 suncat0087 pw.x -in pw.inp   Done                     12/19/2018 06:54:56
00031 suncat0087 pw.x -in pw.inp   Done                     12/19/2018 06:54:56