     Program PWSCF v.5.1rc2 (svn rev. 11289) starts on 18Dec2018 at 17:34: 7

     Current dimensions of program PWSCF are:
     Max number of different atomic species (ntypx) = 10
     Max number of k-points (npk) =  40000
     Max angular momentum in pseudopotentials (lmaxx) =  3
     Presently stress not available with electric field

     IMPORTANT: XC functional enforced from input :
     Exchange-correlation      = BEEF-VDW ( 1  4 27 13 2)
     Any further DFT definition will be discarded
     Please, verify this is what you really want

     Subspace diagonalization in iterative solution of the eigenvalue problem:
     a serial algorithm will be used

     Found symmetry operation: I + ( -0.5000 -0.5000  0.0000)
     This is a supercell, fractional translations are disabled

     bravais-lattice index     =            0
     lattice parameter (alat)  =       1.8897  a.u.
     unit-cell volume          =    4218.0354 (a.u.)^3
     number of atoms/cell      =           12
     number of atomic types    =            2
     number of electrons       =       114.00
     number of Kohn-Sham states=           87
     kinetic-energy cutoff     =      36.7493  Ry
     charge density cutoff     =     367.4932  Ry
     convergence threshold     =      1.0E-06
     mixing beta               =       0.1000
     number of iterations used =           10  plain     mixing
     Exchange-correlation      = BEEF-VDW ( 1  4 27 13 2)
     nstep                     =           50

     celldm(1)=   1.889726  celldm(2)=   0.000000  celldm(3)=   0.000000
     celldm(4)=   0.000000  celldm(5)=   0.000000  celldm(6)=   0.000000

     crystal axes: (cart. coord. in units of alat)
               a(1) = (   5.227557   0.000000   0.000000 )
               a(2) = (   1.748213   4.926572   0.000000 )
               a(3) = (   0.000000   0.000000  24.270013 )

     reciprocal axes: (cart. coord. in units 2 pi/alat)
               b(1) = (  0.191294 -0.067881  0.000000 )
               b(2) = (  0.000000  0.202981  0.000000 )
               b(3) = (  0.000000  0.000000  0.041203 )

     PseudoPot. # 1 for Al read from file:
     /afs/slac.stanford.edu/u/if/mamunm/psp/gbrv1.5pbe/Al.UPF
     MD5 check sum: 0a6289f5291fc8f409219462bc851e1f
     Pseudo is Ultrasoft + core correction, Zval =  3.0
     Generated by new atomic code, or converted to UPF format
     Using radial grid of  893 points,  3 beta functions with:
                l(1) =   0
                l(2) =   1
                l(3) =   2
     Q(r) pseudized with  8 coefficients,  rinner =    0.900   0.900   0.900
                                                       0.900   0.900

     PseudoPot. # 2 for Os read from file:
     /afs/slac.stanford.edu/u/if/mamunm/psp/gbrv1.5pbe/Os.UPF
     MD5 check sum: a3fb40a04f0c37c25c34bbc47164c9a8
     Pseudo is Ultrasoft + core correction, Zval = 16.0
     Generated by new atomic code, or converted to UPF format
     Using radial grid of  983 points,  8 beta functions with:
                l(1) =   0
                l(2) =   0
                l(3) =   1
                l(4) =   1
                l(5) =   2
                l(6) =   2
                l(7) =   3
                l(8) =   3
     Q(r) pseudized with  8 coefficients,  rinner =    1.150   1.150   1.150
                                                       1.150   1.150   1.150
                                                       1.150

     vdW kernel table read from file vdW_kernel_table
     MD5 check sum: 095c7af220d748ca6e76c0b4c6cfb241

     atomic species   valence    mass     pseudopotential
        Al1            3.00    26.98154     Al( 1.00)
        Os1           16.00   190.23000     Os( 1.00)

     No symmetry found

   Cartesian axes

     site n.     atom                  positions (alat units)
         1           Al1 tau(   1) = (   0.0000000   0.0000000  10.0000000  )
         2           Al1 tau(   2) = (   3.4878853   2.4632858  10.0000000  )
         3           Os1 tau(   3) = (   2.6137787   0.0000000  10.0000000  )
         4           Os1 tau(   4) = (   0.8741066   2.4632858  10.0000000  )
         5           Al1 tau(   5) = (   5.2275574   3.6919127  12.1350065  )
         6           Al1 tau(   6) = (   1.7396721   1.2286269  12.1350065  )
         7           Os1 tau(   7) = (   2.6137787   3.6919127  12.1350065  )
         8           Os1 tau(   8) = (   4.3534508   1.2286269  12.1350065  )
         9           Al1 tau(   9) = (   3.4793443   2.4572537  14.2700131  )
        10           Al1 tau(  10) = (   6.9672296   4.9205395  14.2700131  )
        11           Os1 tau(  11) = (   6.0931230   2.4572537  14.2700131  )
        12           Os1 tau(  12) = (   4.3534508   4.9205395  14.2700131  )

     number of k points=    20  Fermi-Dirac smearing, width (Ry)=  0.0110
                       cart. coord. in units 2pi/alat
        k(    1) = (   0.0000000   0.0000000   0.0000000), wk =   0.0555556
        k(    2) = (   0.0000000   0.0338302   0.0000000), wk =   0.1111111
        k(    3) = (   0.0000000   0.0676603   0.0000000), wk =   0.1111111
        k(    4) = (   0.0000000  -0.1014905   0.0000000), wk =   0.0555556
        k(    5) = (   0.0318823  -0.0113136   0.0000000), wk =   0.1111111
        k(    6) = (   0.0318823   0.0225166   0.0000000), wk =   0.1111111
        k(    7) = (   0.0318823   0.0563467   0.0000000), wk =   0.1111111
        k(    8) = (   0.0318823  -0.1128040   0.0000000), wk =   0.1111111
        k(    9) = (   0.0318823  -0.0789739   0.0000000), wk =   0.1111111
        k(   10) = (   0.0318823  -0.0451437   0.0000000), wk =   0.1111111
        k(   11) = (   0.0637646  -0.0226271   0.0000000), wk =   0.1111111
        k(   12) = (   0.0637646   0.0112030   0.0000000), wk =   0.1111111
        k(   13) = (   0.0637646   0.0450332   0.0000000), wk =   0.1111111
        k(   14) = (   0.0637646  -0.1241176   0.0000000), wk =   0.1111111
        k(   15) = (   0.0637646  -0.0902874   0.0000000), wk =   0.1111111
        k(   16) = (   0.0637646  -0.0564573   0.0000000), wk =   0.1111111
        k(   17) = (  -0.0956470   0.0339407   0.0000000), wk =   0.0555556
        k(   18) = (  -0.0956470   0.0677709   0.0000000), wk =   0.1111111
        k(   19) = (  -0.0956470   0.1016010   0.0000000), wk =   0.1111111
        k(   20) = (  -0.0956470  -0.0675498   0.0000000), wk =   0.0555556

     Largest allocated arrays     est. size (Mb)     dimensions
     Largest temporary arrays     est. size (Mb)     dimensions

     Initial potential from superposition of free atoms
     Check: negative starting charge=   -0.749754

     starting charge  110.98499, renormalised to  114.00000

     negative rho (up, down):  7.701E-01 0.000E+00

     *
     * You are using vdW-DF for exchange-correlation in this calculation.
     * Please cite the following three references that made this development
     * possible:
     *
     *   M. Dion, H. Rydberg, E. Schroder, D. C. Langreth, and
     *   B. I. Lundqvist, Phys. Rev. Lett. 92, 246401 (2004).
     *
     *   T. Thonhauser, V. R. Cooper, S. Li, A. Puzder, P. Hyldgaard, and
     *   D. C. Langreth, Phys. Rev. B 76, 125112 (2007).
     *
     *   G. Roman-Perez and J. M. Soler, Phys. Rev. Lett. 103, 096102 (2009).
     *
     *
     * If you are using vdW-DF2, please also cite:
     *
     *   K. Lee, E. D. Murray, L. Kong, B. I. Lundqvist, and
     *   D. C. Langreth, Phys. Rev. B 82, 081101(R) (2010).
     *
     *
     * If you are calculating the stress with vdW-DF, please also cite:
     *
     *   R. Sabatini, E. Kucukbenli, B. Kolb, T. Thonhauser, and
     *   S. de Gironcoli, J. Phys.: Condens. Matter 24, 424209 (2012).
     *

     Carrying out vdW-DF run using the following parameters:

     Nqs =      20    Nr_points =    1024   r_max =   100.000
     q_mesh =
               0.00001000     0.04494208     0.09755937     0.15916263
               0.23128650     0.31572767     0.41458969     0.53033537
               0.66584808     0.82450364     1.01025438     1.22772762
               1.48234092     1.78043706     2.12944203     2.53805004
               3.01644009     3.57652955     4.23227104     5.00000000

     Gradients computed in reciprocal space

     Adding external electric field

     Computed dipole along edir(3) :
        Dipole                0.0000 Ry au,          0.0000 Debye
        Dipole field          0.0000 Ry au

        Potential amp.       -0.0000 Ry
        Total length         44.7171 bohr

     Starting wfc are  102 randomized atomic wfcs

     Self-consistent Calculation

     iteration #  1     ecut=    36.75 Ry     beta=0.10
     Davidson diagonalization with overlap
     ethr =  1.00E-02,  avg # of iterations =  6.7

[...]

     total energy              =   -1240.15909962 Ry
     Harris-Foulkes estimate   =   -1240.47537250 Ry
     estimated scf accuracy    <       1.97962841 Ry

[...]

     End of self-consistent calculation

          k = 0.0000 0.0000 0.0000 ( 15877 PWs)   bands (ev):

   -84.9885 -84.9811 -84.8316 -84.8313 -84.8245 -84.8243 -44.3963 -44.3661
   -44.3604 -44.3498 -44.3313 -44.2633 -44.2630 -44.2085 -44.1682 -44.1490
   -44.1468 -44.1259 -44.0999 -44.0863 -44.0840 -44.0812 -44.0802 -44.0631
    -9.1642  -7.0775  -5.5484  -5.4725  -5.1037  -4.5542  -3.4389  -3.4123
    -2.9421  -2.8364  -2.7126  -2.6134  -2.3694  -2.3420  -1.8517  -1.3853
    -1.3704  -0.9054  -0.8071  -0.7500  -0.4682  -0.3883  -0.2558  -0.2340
    -0.2172  -0.1529   0.0223   0.2099   0.5043   0.5052   0.5583   0.5653
     0.6013   0.7324   0.9678   0.9721   1.1495   1.3330   2.0335   2.9218
     3.2057   3.9297   4.6049   4.6454   4.7351   4.7412   4.9789   5.1701
     5.4513   5.5658   5.8891   6.0440   6.1541   6.5586   7.1166   7.3970
     7.4733   7.4778   7.7561   8.5460   8.6035   8.6398   8.8474

[...]

          k =-0.0956 0.0339 0.0000 ( 15886 PWs)   bands (ev):

[...]

     the Fermi energy is     0.8382 ev

!    total energy              =   -1240.08228508 Ry
     Harris-Foulkes estimate   =   -1240.08228144 Ry
     estimated scf accuracy    <       0.00000030 Ry

     The total energy is the sum of the following terms:

     one-electron contribution =   -7866.41084665 Ry
     hartree contribution      =    3924.74263890 Ry
     xc contribution           =    -259.54855945 Ry
     ewald contribution        =    2961.19306703 Ry
     electric field correction =       0.00000000 Ry
     smearing contrib. (-TS)   =      -0.05858491 Ry

     convergence has been achieved in  14 iterations

 BEEF-vdW xc energy contributions
           1 :   -225.993296474404
           2 :    207.876633321879
           3 :   -176.538836673803
           4 :    139.614764930286
           5 :   -104.597810834837
           6 :    76.6186824589532
           7 :   -57.6193745936378
           8 :    46.8098579142762
           9 :   -41.8025652938005
          10 :    39.7637857005006
          11 :   -38.2398509255810
          12 :    35.6262392096455
          13 :   -31.3678902158213
          14 :    25.9052971074119
          15 :   -20.3384256114260
          16 :    15.8590816635856
          17 :   -13.1727470048623
[...]
00025 suncat0091 pw.x -in pw.inp   Done                     12/18/2018 17:42:40
00026 suncat0091 pw.x -in pw.inp   Done                     12/18/2018 17:42:40
00027 suncat0091 pw.x -in pw.inp   Done                     12/18/2018 17:42:40
00028 suncat0091 pw.x -in pw.inp   Done                     12/18/2018 17:42:40
00029 suncat0091 pw.x -in pw.inp   Done                     12/18/2018 17:42:40
00030 suncat0091 pw.x -in pw.inp   Done                     12/18/2018 17:42:40
00031 suncat0091 pw.x -in pw.inp   Done                     12/18/2018 17:42:40

     Program PWSCF v.5.1rc2 (svn rev. 11289) starts on 18Dec2018 at 17:42:46

[...]

   This run was terminated on:  17:52: 9  18Dec2018

[...]

     Program PWSCF v.5.1rc2 (svn rev. 11289) starts on 18Dec2018 at 17:52:16

     Current dimensions of program PWSCF are:
     Max number of different atomic species (ntypx) = 10
     Max number of k-points (npk) =  40000
     Max angular momentum in pseudopotentials (lmaxx) =  3
     Presently stress not available with electric field

     IMPORTANT: XC functional enforced from input :
     Exchange-correlation      = BEEF-VDW ( 1  4 27 13 2)
     Any further DFT definition will be discarded
     Please, verify this is what you really want

     Subspace diagonalization in iterative solution of the eigenvalue problem:
     a serial algorithm will be used

     Found symmetry operation: I + ( -0.5000 -0.5000  0.0000)
     This is a supercell, fractional translations are disabled

     bravais-lattice index     =            0
     lattice parameter (alat)  =       1.8897  a.u.
     unit-cell volume          =    4218.0354 (a.u.)^3
     number of atoms/cell      =           12
     number of atomic types    =            2
     number of electrons       =       114.00
     number of Kohn-Sham states=           87
     kinetic-energy cutoff     =      36.7493  Ry
     charge density cutoff     =     367.4932  Ry
     convergence threshold     =      1.0E-06
     mixing beta               =       0.1000
     number of iterations used =           10  plain     mixing
     Exchange-correlation      = BEEF-VDW ( 1  4 27 13 2)
     nstep                     =           50

     celldm(1)=   1.889726  celldm(2)=   0.000000  celldm(3)=   0.000000
     celldm(4)=   0.000000  celldm(5)=   0.000000  celldm(6)=   0.000000

     crystal axes: (cart. coord. in units of alat)
               a(1) = (   5.227557   0.000000   0.000000 )
               a(2) = (   1.748213   4.926572   0.000000 )
               a(3) = (   0.000000   0.000000  24.270013 )

     reciprocal axes: (cart. coord. in units 2 pi/alat)
               b(1) = (  0.191294 -0.067881  0.000000 )
               b(2) = (  0.000000  0.202981  0.000000 )
               b(3) = (  0.000000  0.000000  0.041203 )

     PseudoPot. # 1 for Al read from file:
     /afs/slac.stanford.edu/u/if/mamunm/psp/gbrv1.5pbe/Al.UPF
     MD5 check sum: 0a6289f5291fc8f409219462bc851e1f
     Pseudo is Ultrasoft + core correction, Zval =  3.0
     Generated by new atomic code, or converted to UPF format
     Using radial grid of  893 points,  3 beta functions with:
                l(1) =   0
                l(2) =   1
                l(3) =   2
     Q(r) pseudized with  8 coefficients,  rinner =    0.900   0.900   0.900
                                                       0.900   0.900

     PseudoPot. # 2 for Os read from file:
     /afs/slac.stanford.edu/u/if/mamunm/psp/gbrv1.5pbe/Os.UPF
     MD5 check sum: a3fb40a04f0c37c25c34bbc47164c9a8
     Pseudo is Ultrasoft + core correction, Zval = 16.0
     Generated by new atomic code, or converted to UPF format
     Using radial grid of  983 points,  8 beta functions with:
                l(1) =   0
                l(2) =   0
                l(3) =   1
                l(4) =   1
                l(5) =   2
                l(6) =   2
                l(7) =   3
                l(8) =   3
     Q(r) pseudized with  8 coefficients,  rinner =    1.150   1.150   1.150
                                                       1.150   1.150   1.150
                                                       1.150

     vdW kernel table read from file vdW_kernel_table
     MD5 check sum: 095c7af220d748ca6e76c0b4c6cfb241

     atomic species   valence    mass     pseudopotential
        Al1            3.00    26.98154     Al( 1.00)
        Os1           16.00   190.23000     Os( 1.00)

     No symmetry found

   Cartesian axes

     site n.     atom                  positions (alat units)
         1           Al1 tau(   1) = (   0.0000000   0.0000000  10.0000000  )
         2           Al1 tau(   2) = (   3.4878853   2.4632858  10.0000000  )
         3           Os1 tau(   3) = (   2.6137787   0.0000000  10.0000000  )
         4           Os1 tau(   4) = (   0.8741066   2.4632858  10.0000000  )
         5           Al1 tau(   5) = (   5.2275574   3.6919127  12.1350065  )
         6           Al1 tau(   6) = (   1.7396721   1.2286269  12.1350065  )
         7           Os1 tau(   7) = (   2.6137787   3.6919127  12.1350065  )
         8           Os1 tau(   8) = (   4.3534508   1.2286269  12.1350065  )
         9           Al1 tau(   9) = (   3.4800970   2.4577797  14.3111534  )
        10           Al1 tau(  10) = (   6.9679890   4.9210777  14.3111533  )
        11           Os1 tau(  11) = (   6.0939011   2.4577928  14.1981041  )
        12           Os1 tau(  12) = (   4.3542254   4.9210931  14.1981023  )

     number of k points=    20  Fermi-Dirac smearing, width (Ry)=  0.0110
                       cart. coord. in units 2pi/alat
        k(    1) = (   0.0000000   0.0000000   0.0000000), wk =   0.0555556
        k(    2) = (   0.0000000   0.0338302   0.0000000), wk =   0.1111111
        k(    3) = (   0.0000000   0.0676603   0.0000000), wk =   0.1111111
        k(    4) = (   0.0000000  -0.1014905   0.0000000), wk =   0.0555556
        k(    5) = (   0.0318823  -0.0113136   0.0000000), wk =   0.1111111
        k(    6) = (   0.0318823   0.0225166   0.0000000), wk =   0.1111111
        k(    7) = (   0.0318823   0.0563467   0.0000000), wk =   0.1111111
        k(    8) = (   0.0318823  -0.1128040   0.0000000), wk =   0.1111111
        k(    9) = (   0.0318823  -0.0789739   0.0000000), wk =   0.1111111
        k(   10) = (   0.0318823  -0.0451437   0.0000000), wk =   0.1111111
        k(   11) = (   0.0637646  -0.0226271   0.0000000), wk =   0.1111111
        k(   12) = (   0.0637646   0.0112030   0.0000000), wk =   0.1111111
        k(   13) = (   0.0637646   0.0450332   0.0000000), wk =   0.1111111
        k(   14) = (   0.0637646  -0.1241176   0.0000000), wk =   0.1111111
        k(   15) = (   0.0637646  -0.0902874   0.0000000), wk =   0.1111111
        k(   16) = (   0.0637646  -0.0564573   0.0000000), wk =   0.1111111
        k(   17) = (  -0.0956470   0.0339407   0.0000000), wk =   0.0555556
        k(   18) = (  -0.0956470   0.0677709   0.0000000), wk =   0.1111111
        k(   19) = (  -0.0956470   0.1016010   0.0000000), wk =   0.1111111
        k(   20) = (  -0.0956470  -0.0675498   0.0000000), wk =   0.0555556

     Largest allocated arrays     est. size (Mb)     dimensions
     Largest temporary arrays     est. size (Mb)     dimensions

     Initial potential from superposition of free atoms
     Check: negative starting charge=   -0.749722

     starting charge  110.98499, renormalised to  114.00000

[...]

     *
     * You are using vdW-DF for exchange-correlation in this calculation.
     * Please cite the following three references that made this development
     * possible:
     *
     *   M. Dion, H. Rydberg, E. Schroder, D. C. Langreth, and
     *   B. I. Lundqvist, Phys. Rev. Lett. 92, 246401 (2004).
     *
     *   T. Thonhauser, V. R. Cooper, S. Li, A. Puzder, P. Hyldgaard, and
     *   D. C. Langreth, Phys. Rev. B 76, 125112 (2007).
     *
     *   G. Roman-Perez and J. M. Soler, Phys. Rev. Lett. 103, 096102 (2009).
     *
     *
     * If you are using vdW-DF2, please also cite:
     *
     *   K. Lee, E. D. Murray, L. Kong, B. I. Lundqvist, and
     *   D. C. Langreth, Phys. Rev. B 82, 081101(R) (2010).
     *
     *
     * If you are calculating the stress with vdW-DF, please also cite:
     *
     *   R. Sabatini, E. Kucukbenli, B. Kolb, T. Thonhauser, and
     *   S. de Gironcoli, J. Phys.: Condens. Matter 24, 424209 (2012).
     *

     Carrying out vdW-DF run using the following parameters:

     Nqs =      20    Nr_points =    1024   r_max =   100.000
     q_mesh =
               0.00001000     0.04494208     0.09755937     0.15916263
               0.23128650     0.31572767     0.41458969     0.53033537
               0.66584808     0.82450364     1.01025438     1.22772762
               1.48234092     1.78043706     2.12944203     2.53805004
               3.01644009     3.57652955     4.23227104     5.00000000

     Gradients computed in reciprocal space

[...]

     Starting wfc are  102 randomized atomic wfcs

     Self-consistent Calculation

[...]

     total energy              =   -1240.08655620 Ry
     Harris-Foulkes estimate   =   -1240.08655608 Ry
     estimated scf accuracy    <       0.00000291 Ry

     iteration # 15     ecut=    36.75 Ry     beta=0.10
     Davidson diagonalization with overlap
     ethr =  2.49E-09,  avg # of iterations =  1.1

[...]

     negative rho (up, down):  7.293E-01 0.000E+00

     Adding external electric field

     Computed dipole along edir(3) :
        Dipole                0.0108 Ry au,          0.0274 Debye
        Dipole field          0.0000 Ry au

        Potential amp.       -0.0029 Ry
        Total length         44.7171 bohr

     End of self-consistent calculation

[...]

          k = 0.0638-0.0565 0.0000 ( 15878 PWs)   bands (ev):

[...]

          k =-0.0956-0.0675 0.0000 ( 15774 PWs)   bands (ev):

   -84.9932 -84.9861 -84.8107 -84.8071 -84.8036 -84.7999 -44.3914 -44.3902
   -44.3569 -44.3564 -44.3314 -44.2506 -44.2383 -44.2009 -44.1394 -44.1237
   -44.1123 -44.1008 -44.0914 -44.0694 -44.0680 -44.0666 -44.0567 -44.0545
    -7.0620  -6.7574  -5.4215  -5.3763  -5.0330  -4.7085  -4.6403  -3.9100
    -3.7930  -3.5147  -3.5042  -3.0300  -2.6319  -2.1909  -2.0384  -1.8564
    -1.7850  -1.7391  -1.6009  -1.4304  -0.8550  -0.8080  -0.6796  -0.6545
    -0.6146  -0.3058  -0.0563   0.2037   0.4871   0.7880   0.9529   0.9951
     1.0814   1.2172   1.4216   1.7549   1.8116   2.6346   3.3748   3.6201
     3.7329   4.0835   4.3134   4.4495   4.6921   4.7905   5.6952   6.1079
     6.3475   6.7592   6.8343   7.1988   7.2077   7.5699   7.6749   7.9313
     8.2170   8.5916   8.6278   8.6498   8.8237   8.8257   8.8667

     the Fermi energy is     0.8550 ev

!    total energy              =   -1240.08655890 Ry
     Harris-Foulkes estimate   =   -1240.08655634 Ry
     estimated scf accuracy    <       0.00000064 Ry

     The total energy is the sum of the following terms:

     one-electron contribution =   -7923.05811240 Ry
     hartree contribution      =    3953.11250933 Ry
     xc contribution           =    -259.57777512 Ry
     ewald contribution        =    2989.49617004 Ry
     electric field correction =       0.00000035 Ry
     smearing contrib. (-TS)   =      -0.05935109 Ry

     convergence has been achieved in  15 iterations

 BEEF-vdW xc energy contributions
           1 :   -226.025895768260
           2 :    207.929993804036
           3 :   -176.615621662149
           4 :    139.695452660149
           5 :   -104.652918134440
           6 :    76.6274637698877
           7 :   -57.5817537290965
           8 :    46.7448094644881
           9 :   -41.7349077195316
          10 :    39.7097975986347
          11 :   -38.2015040446319
          12 :    35.5954778607901
          13 :   -31.3352587418735
          14 :    25.8652690245574
          15 :   -20.2892671228622
          16 :    15.8007841950364
          17 :   -13.1073081576101
          18 :    12.1266099116569
          19 :   -12.1102020267416
          20 :    12.0951249373425
          21 :   -11.4031487471577
          22 :    9.90611750160178
          23 :   -7.95586606601421
          24 :    6.08473468483061
          25 :   -4.69384506528749
          26 :    3.89626566590135
          27 :   -3.54942268690286
          28 :    3.39281657443243
          29 :   -3.18396317269259
          30 :    2.77587902397758
          31 :   -22.5714370974528
          32 :   -17.0777038466436

     Forces acting on atoms (Ry/au):

     negative rho (up, down):  7.293E-01 0.000E+00
     atom    1 type  1   force =    -0.00007329   -0.00005144   -0.01047054
     atom    2 type  1   force =    -0.00007328   -0.00005161   -0.01047064
     atom    3 type  2   force =    -0.00019569   -0.00013896    0.02333230
     atom    4 type  2   force =    -0.00019702   -0.00013729    0.02333153
     atom    5 type  1   force =     0.00004989    0.00003504   -0.01569318
     atom    6 type  1   force =     0.00004959    0.00003534   -0.01569547
     atom    7 type  2   force =    -0.00003387   -0.00002438    0.00061729
     atom    8 type  2   force =    -0.00003320   -0.00002541    0.00061663
     atom    9 type  1   force =     0.00008038    0.00005878    0.00144135
     atom   10 type  1   force =     0.00007473    0.00005144    0.00144136
     atom   11 type  2   force =     0.00017479    0.00012847    0.00077346
     atom   12 type  2   force =     0.00017698    0.00012001    0.00077590

     Total force =     0.042509     Total SCF correction =     0.002071

     entering subroutine stress ...

     negative rho (up, down):  7.293E-01 0.000E+00
          total   stress  (Ry/bohr**3)                   (kbar)     P=  -20.09
  -0.00017925   0.00003149   0.00000097        -26.37      4.63      0.14
   0.00003149  -0.00020160   0.00000069          4.63    -29.66      0.10
   0.00000097   0.00000069  -0.00002883          0.14      0.10     -4.24

 !ASE

     Writing output data file calc.save

     General routines

     Parallel routines

   This run was terminated on:  18: 1:10  18Dec2018

   JOB DONE.
Job  /afs/slac/g/suncat/bin/suncat-tsmpirun -x LD_LIBRARY_PATH -wdir /scratch/qe529598_0hEk7 pw.x -in pw.inp

TID   HOST_NAME   COMMAND_LINE            STATUS            TERMINATION_TIME
00000 suncat0094 pw.x -in pw.inp   Done                     12/18/2018 18:01:10
00001 suncat0094 pw.x -in pw.inp   Done                     12/18/2018 18:01:10
00002 suncat0094 pw.x -in pw.inp   Done                     12/18/2018 18:01:10
00003 suncat0094 pw.x -in pw.inp   Done                     12/18/2018 18:01:10
00004 suncat0094 pw.x -in pw.inp   Done                     12/18/2018 18:01:10
00005 suncat0094 pw.x -in pw.inp   Done                     12/18/2018 18:01:10
00006 suncat0094 pw.x -in pw.inp   Done                     12/18/2018 18:01:10
00007 suncat0094 pw.x -in pw.inp   Done                     12/18/2018 18:01:10
00008 suncat0093 pw.x -in pw.inp   Done                     12/18/2018 18:01:10
00009 suncat0093 pw.x -in pw.inp   Done                     12/18/2018 18:01:10
00010 suncat0093 pw.x -in pw.inp   Done                     12/18/2018 18:01:10
00011 suncat0093 pw.x -in pw.inp   Done                     12/18/2018 18:01:10
00012 suncat0093 pw.x -in pw.inp   Done                     12/18/2018 18:01:10
00013 suncat0093 pw.x -in pw.inp   Done                     12/18/2018 18:01:10
00014 suncat0093 pw.x -in pw.inp   Done                     12/18/2018 18:01:10
00015 suncat0093 pw.x -in pw.inp   Done                     12/18/2018 18:01:10
00016 suncat0092 pw.x -in pw.inp   Done                     12/18/2018 18:01:10
00017 suncat0092 pw.x -in pw.inp   Done                     12/18/2018 18:01:10
00018 suncat0092 pw.x -in pw.inp   Done                     12/18/2018 18:01:10
00019 suncat0092 pw.x -in pw.inp   Done                     12/18/2018 18:01:10
00020 suncat0092 pw.x -in pw.inp   Done                     12/18/2018 18:01:10
00021 suncat0092 pw.x -in pw.inp   Done                     12/18/2018 18:01:10
00022 suncat0092 pw.x -in pw.inp   Done                     12/18/2018 18:01:10
00023 suncat0092 pw.x -in pw.inp   Done                     12/18/2018 18:01:10
00024 suncat0091 pw.x -in pw.inp   Done                     12/18/2018 18:01:10
00025 suncat0091 pw.x -in pw.inp   Done                     12/18/2018 18:01:10
00026 suncat0091 pw.x -in pw.inp   Done                     12/18/2018 18:01:10
00027 suncat0091 pw.x -in pw.inp   Done                     12/18/2018 18:01:10
00028 suncat0091 pw.x -in pw.inp   Done                     12/18/2018 18:01:10
00029 suncat0091 pw.x -in pw.inp   Done                     12/18/2018 18:01:10
00030 suncat0091 pw.x -in pw.inp   Done                     12/18/2018 18:01:10
00031 suncat0091 pw.x -in pw.inp   Done                     12/18/2018 18:01:10