     Program PWSCF v.5.1rc2 (svn rev. 11289) starts on 24Dec2018 at 22:45:40

     Current dimensions of program PWSCF are:
     Max number of different atomic species (ntypx) = 10
     Max number of k-points (npk) =  40000
     Max angular momentum in pseudopotentials (lmaxx) =  3
     Presently stress not available with electric field

     IMPORTANT: XC functional enforced from input :
     Exchange-correlation      = BEEF-VDW ( 1  4 27 13 2)
     Any further DFT definition will be discarded
     Please, verify this is what you really want

     Subspace diagonalization in iterative solution of the eigenvalue problem:
     a serial algorithm will be used

     Found symmetry operation: I + (  0.5000 -0.5000  0.0000)
     This is a supercell, fractional translations are disabled

     bravais-lattice index     =            0
     lattice parameter (alat)  =       1.8897  a.u.
     unit-cell volume          =    7528.3473 (a.u.)^3
     number of atoms/cell      =           12
     number of atomic types    =            2
     number of electrons       =       162.00
     number of Kohn-Sham states=          111
     kinetic-energy cutoff     =      36.7493  Ry
     charge density cutoff     =     367.4932  Ry
     convergence threshold     =      1.0E-06
     mixing beta               =       0.1000
     number of iterations used =           10  plain     mixing
     Exchange-correlation      = BEEF-VDW ( 1  4 27 13 2)
     nstep                     =           50

     celldm(1)=   1.889726  celldm(2)=   0.000000  celldm(3)=   0.000000
     celldm(4)=   0.000000  celldm(5)=   0.000000  celldm(6)=   0.000000

     crystal axes: (cart. coord. in units of alat)
               a(1) = (   6.975004   0.000000   0.000000 )
               a(2) = (   3.177430   6.209237   0.000000 )
               a(3) = (   0.000000   0.000000  25.758486 )

     reciprocal axes: (cart. coord. in units 2 pi/alat)
               b(1) = (  0.143369 -0.073366  0.000000 )
               b(2) = (  0.000000  0.161050  0.000000 )
               b(3) = (  0.000000  0.000000  0.038822 )

     PseudoPot. # 1 for In read from file:
     /afs/slac.stanford.edu/u/if/mamunm/psp/gbrv1.5pbe/In.UPF
     MD5 check sum: 90777abd96fbb83f2e67db2a40c566b9
     Pseudo is Ultrasoft + core correction, Zval = 13.0
     Generated by new atomic code, or converted to UPF format
     Using radial grid of  889 points,  6 beta functions with:
                l(1) =   0
                l(2) =   0
                l(3) =   1
                l(4) =   1
                l(5) =   2
                l(6) =   2
     Q(r) pseudized with  6 coefficients,  rinner =    1.400   1.400   1.400
                                                       1.400   1.400

     PseudoPot. # 2 for Pb read from file:
     /afs/slac.stanford.edu/u/if/mamunm/psp/gbrv1.5pbe/Pb.UPF
     MD5 check sum: 3d1c1779aa92214d1e8f3a7db79003e2
     Pseudo is Ultrasoft + core correction, Zval = 14.0
     Generated by new atomic code, or converted to UPF format
     Using radial grid of  899 points,  6 beta functions with:
                l(1) =   0
                l(2) =   0
                l(3) =   1
                l(4) =   1
                l(5) =   2
                l(6) =   2
     Q(r) pseudized with  6 coefficients,  rinner =    1.000   1.000   1.000
                                                       1.000   1.000

     vdW kernel table read from file vdW_kernel_table
     MD5 check sum: 095c7af220d748ca6e76c0b4c6cfb241

     atomic species   valence    mass     pseudopotential
        In1           13.00   114.81800     In( 1.00)
        Pb1           14.00   207.20000     Pb( 1.00)

     No symmetry found

   Cartesian axes

     site n.     atom                  positions (alat units)
         1           In1 tau(   1) = (   0.0000000   0.0000000  10.0000000  )
         2           In1 tau(   2) = (   5.0762171   3.1046185  10.0000000  )
         3           Pb1 tau(   3) = (   3.4875022   0.0000000  10.0000000  )
         4           Pb1 tau(   4) = (   1.5887149   3.1046185  10.0000000  )
         5           In1 tau(   5) = (   6.9750043   4.2659183  12.8792428  )
         6           In1 tau(   6) = (   1.8987872   1.1612998  12.8792428  )
         7           Pb1 tau(   7) = (   3.4875022   4.2659183  12.8792428  )
         8           Pb1 tau(   8) = (   5.3862894   1.1612998  12.8792428  )
         9           In1 tau(   9) = (   3.7975744   2.3225996  15.7584855  )
        10           In1 tau(  10) = (   8.8737916   5.4272182  15.7584855  )
        11           Pb1 tau(  11) = (   7.2850766   2.3225996  15.7584855  )
        12           Pb1 tau(  12) = (   5.3862894   5.4272182  15.7584855  )

     number of k points=    20  Fermi-Dirac smearing, width (Ry)=  0.0110
                       cart. coord. in units 2pi/alat
        k(    1) = (   0.0000000   0.0000000   0.0000000), wk =   0.0555556
        k(    2) = (   0.0000000   0.0268417   0.0000000), wk =   0.1111111
        k(    3) = (   0.0000000   0.0536835   0.0000000), wk =   0.1111111
        k(    4) = (   0.0000000  -0.0805252   0.0000000), wk =   0.0555556
        k(    5) = (   0.0238948  -0.0122276   0.0000000), wk =   0.1111111
        k(    6) = (   0.0238948   0.0146141   0.0000000), wk =   0.1111111
        k(    7) = (   0.0238948   0.0414558   0.0000000), wk =   0.1111111
        k(    8) = (   0.0238948  -0.0927528   0.0000000), wk =   0.1111111
        k(    9) = (   0.0238948  -0.0659111   0.0000000), wk =   0.1111111
        k(   10) = (   0.0238948  -0.0390694   0.0000000), wk =   0.1111111
        k(   11) = (   0.0477897  -0.0244552   0.0000000), wk =   0.1111111
        k(   12) = (   0.0477897   0.0023865   0.0000000), wk =   0.1111111
        k(   13) = (   0.0477897   0.0292282   0.0000000), wk =   0.1111111
        k(   14) = (   0.0477897  -0.1049804   0.0000000), wk =   0.1111111
        k(   15) = (   0.0477897  -0.0781387   0.0000000), wk =   0.1111111
        k(   16) = (   0.0477897  -0.0512970   0.0000000), wk =   0.1111111
        k(   17) = (  -0.0716845   0.0366829   0.0000000), wk =   0.0555556
        k(   18) = (  -0.0716845   0.0635246   0.0000000), wk =   0.1111111
        k(   19) = (  -0.0716845   0.0903663   0.0000000), wk =   0.1111111
        k(   20) = (  -0.0716845  -0.0438423   0.0000000), wk =   0.0555556

     Largest allocated arrays     est. size (Mb)     dimensions
     Largest temporary arrays     est. size (Mb)     dimensions

     Initial potential from superposition of free atoms
     Check: negative starting charge=   -0.102029

     starting charge  152.98589, renormalised to  162.00000

     negative rho (up, down):  1.080E-01 0.000E+00

     *
     * You are using vdW-DF for exchange-correlation in this calculation.
     * Please cite the following three references that made this development
     * possible:
     *
     *   M. Dion, H. Rydberg, E. Schroder, D. C. Langreth, and
     *   B. I. Lundqvist, Phys. Rev. Lett. 92, 246401 (2004).
     *
     *   T. Thonhauser, V. R. Cooper, S. Li, A. Puzder, P. Hyldgaard, and
     *   D. C. Langreth, Phys. Rev. B 76, 125112 (2007).
     *
     *   G. Roman-Perez and J. M. Soler, Phys. Rev. Lett. 103, 096102 (2009).
     *
     *
     * If you are using vdW-DF2, please also cite:
     *
     *   K. Lee, E. D. Murray, L. Kong, B. I. Lundqvist, and
     *   D. C. Langreth, Phys. Rev. B 82, 081101(R) (2010).
     *
     *
     * If you are calculating the stress with vdW-DF, please also cite:
     *
     *   R. Sabatini, E. Kucukbenli, B. Kolb, T. Thonhauser, and
     *   S. de Gironcoli, J. Phys.: Condens. Matter 24, 424209 (2012).
     *

     Carrying out vdW-DF run using the following parameters:

     Nqs =      20    Nr_points =    1024   r_max =   100.000
     q_mesh =
               0.00001000     0.04494208     0.09755937     0.15916263
               0.23128650     0.31572767     0.41458969     0.53033537
               0.66584808     0.82450364     1.01025438     1.22772762
               1.48234092     1.78043706     2.12944203     2.53805004
               3.01644009     3.57652955     4.23227104     5.00000000

     Gradients computed in reciprocal space

     Adding external electric field

     Computed dipole along edir(3) :
        Dipole               -0.0000 Ry au,         -0.0000 Debye
        Dipole field         -0.0000 Ry au

        Potential amp.        0.0000 Ry
        Total length         47.4596 bohr

     Starting wfc are  108 randomized atomic wfcs +    3 random wfc

     Self-consistent Calculation

     iteration #  1     ecut=    36.75 Ry     beta=0.10
     Davidson diagonalization with overlap
     ethr =  1.00E-02,  avg # of iterations =  9.7

[...]

     total energy              =   -1806.49350250 Ry
     Harris-Foulkes estimate   =   -1807.72752651 Ry
     estimated scf accuracy    <       7.72905868 Ry

[...]

     End of self-consistent calculation

          k = 0.0000 0.0000 0.0000 ( 28401 PWs)   bands (ev):

   -16.9011 -16.8955 -16.8542 -16.8491 -16.8426 -16.8406 -16.8393 -16.8365
   -16.8355 -16.8320 -16.8295 -16.8293 -16.8241 -16.8177 -16.7944 -16.7914
   -16.7788 -16.7778 -16.7319 -16.7285 -16.7240 -16.6929 -16.6732 -16.6502
   -16.6462 -16.6273 -16.6266 -16.6194 -16.6116 -16.5548 -14.3444 -14.3356
   -14.3097 -14.3030 -14.2913 -14.2882 -14.2857 -14.2827 -14.2818 -14.2750
   -14.2668 -14.2639 -14.2625 -14.2598 -14.2590 -14.2517 -14.2498 -14.2326
   -14.2211 -14.2206 -14.2176 -14.1968 -14.1964 -14.1871 -14.1846 -14.1770
   -14.1729 -14.1660 -14.1612 -14.1215  -9.5124  -8.7019  -7.7390  -7.3150
    -7.0617  -6.6024  -4.2278  -4.2248  -3.8620  -3.7232  -3.3929  -2.8631
    -2.3035  -2.2662  -2.0722  -1.7174  -1.4196  -1.1309  -1.0704  -0.9920
    -0.8736  -0.7177   0.6837   1.5881   2.0502   2.0985   2.6434   2.8284
     2.8651   2.9631   3.0722   3.6288   3.7298   4.0655   4.1209   4.3994
     4.5259   4.5960   4.6060   4.9874   5.0492   5.2036   5.4962   5.8841
     5.8982   5.9798   6.0696   6.1669   6.2264   6.6686   6.7391

[...]

          k =-0.0717 0.0367 0.0000 ( 28368 PWs)   bands (ev):

[...]

     the Fermi energy is     0.5932 ev

!    total energy              =   -1804.75809504 Ry
     Harris-Foulkes estimate   =   -1804.75808057 Ry
     estimated scf accuracy    <       0.00000044 Ry

     The total energy is the sum of the following terms:

     one-electron contribution =   -8451.57285540 Ry
     hartree contribution      =    4298.46668817 Ry
     xc contribution           =    -626.13919729 Ry
     ewald contribution        =    2974.52436454 Ry
     electric field correction =       0.00000000 Ry
     smearing contrib. (-TS)   =      -0.03709507 Ry

     convergence has been achieved in  15 iterations

 BEEF-vdW xc energy contributions
           1 :   -554.551600262692
           2 :    511.773643899088
           3 :   -437.905180200989
           4 :    351.250112106992
           5 :   -269.526187289705
           6 :    203.958667616565
           7 :   -157.002673932363
           8 :    124.094318419686
           9 :   -97.9620597974754
          10 :    73.0176971820043
          11 :   -47.7070876227220
[...]
     MD5 check sum: 90777abd96fbb83f2e67db2a40c566b9
     Pseudo is Ultrasoft + core correction, Zval = 13.0
     Generated by new atomic code, or converted to UPF format
     Using radial grid of  889 points,  6 beta functions with:
                l(1) =   0
                l(2) =   0
                l(3) =   1
                l(4) =   1
                l(5) =   2
                l(6) =   2
     Q(r) pseudized with  6 coefficients,  rinner =    1.400   1.400   1.400
                                                       1.400   1.400

     PseudoPot. # 2 for Pb read from file:
     /afs/slac.stanford.edu/u/if/mamunm/psp/gbrv1.5pbe/Pb.UPF
     MD5 check sum: 3d1c1779aa92214d1e8f3a7db79003e2
     Pseudo is Ultrasoft + core correction, Zval = 14.0
     Generated by new atomic code, or converted to UPF format
     Using radial grid of  899 points,  6 beta functions with:
                l(1) =   0
                l(2) =   0
                l(3) =   1
                l(4) =   1
                l(5) =   2
                l(6) =   2
     Q(r) pseudized with  6 coefficients,  rinner =    1.000   1.000   1.000
                                                       1.000   1.000

     vdW kernel table read from file vdW_kernel_table
     MD5 check sum: 095c7af220d748ca6e76c0b4c6cfb241

     atomic species   valence    mass     pseudopotential
        In1           13.00   114.81800     In( 1.00)
        Pb1           14.00   207.20000     Pb( 1.00)

     No symmetry found

   Cartesian axes

     site n.     atom                  positions (alat units)
         1           In1 tau(   1) = (   0.0000000   0.0000000  10.0000000  )
         2           In1 tau(   2) = (   5.0762171   3.1046185  10.0000000  )
         3           Pb1 tau(   3) = (   3.4875022   0.0000000  10.0000000  )
         4           Pb1 tau(   4) = (   1.5887149   3.1046185  10.0000000  )
         5           In1 tau(   5) = (   6.9750043   4.2659183  12.8792428  )
         6           In1 tau(   6) = (   1.8987872   1.1612998  12.8792428  )
         7           Pb1 tau(   7) = (   3.4875022   4.2659183  12.8792428  )
         8           Pb1 tau(   8) = (   5.3862894   1.1612998  12.8792428  )
         9           In1 tau(   9) = (   3.7709334   2.3063034  15.7284264  )
        10           In1 tau(  10) = (   8.8462929   5.4104096  15.7283768  )
        11           Pb1 tau(  11) = (   7.2793423   2.3188673  15.5966071  )
        12           Pb1 tau(  12) = (   5.3803532   5.4238173  15.5966310  )

     number of k points=    20  Fermi-Dirac smearing, width (Ry)=  0.0110
                       cart. coord. in units 2pi/alat
        k(    1) = (   0.0000000   0.0000000   0.0000000), wk =   0.0555556
        k(    2) = (   0.0000000   0.0268417   0.0000000), wk =   0.1111111
        k(    3) = (   0.0000000   0.0536835   0.0000000), wk =   0.1111111
        k(    4) = (   0.0000000  -0.0805252   0.0000000), wk =   0.0555556
        k(    5) = (   0.0238948  -0.0122276   0.0000000), wk =   0.1111111
        k(    6) = (   0.0238948   0.0146141   0.0000000), wk =   0.1111111
        k(    7) = (   0.0238948   0.0414558   0.0000000), wk =   0.1111111
        k(    8) = (   0.0238948  -0.0927528   0.0000000), wk =   0.1111111
        k(    9) = (   0.0238948  -0.0659111   0.0000000), wk =   0.1111111
        k(   10) = (   0.0238948  -0.0390694   0.0000000), wk =   0.1111111
        k(   11) = (   0.0477897  -0.0244552   0.0000000), wk =   0.1111111
        k(   12) = (   0.0477897   0.0023865   0.0000000), wk =   0.1111111
        k(   13) = (   0.0477897   0.0292282   0.0000000), wk =   0.1111111
        k(   14) = (   0.0477897  -0.1049804   0.0000000), wk =   0.1111111
        k(   15) = (   0.0477897  -0.0781387   0.0000000), wk =   0.1111111
        k(   16) = (   0.0477897  -0.0512970   0.0000000), wk =   0.1111111
        k(   17) = (  -0.0716845   0.0366829   0.0000000), wk =   0.0555556
        k(   18) = (  -0.0716845   0.0635246   0.0000000), wk =   0.1111111
        k(   19) = (  -0.0716845   0.0903663   0.0000000), wk =   0.1111111
        k(   20) = (  -0.0716845  -0.0438423   0.0000000), wk =   0.0555556

     Largest allocated arrays     est. size (Mb)     dimensions
     Largest temporary arrays     est. size (Mb)     dimensions

     Initial potential from superposition of free atoms
     Check: negative starting charge=   -0.102092

     starting charge  152.98589, renormalised to  162.00000

[...]

     *
     * You are using vdW-DF for exchange-correlation in this calculation.
     * Please cite the following three references that made this development
     * possible:
     *
     *   M. Dion, H. Rydberg, E. Schroder, D. C. Langreth, and
     *   B. I. Lundqvist, Phys. Rev. Lett. 92, 246401 (2004).
     *
     *   T. Thonhauser, V. R. Cooper, S. Li, A. Puzder, P. Hyldgaard, and
     *   D. C. Langreth, Phys. Rev. B 76, 125112 (2007).
     *
     *   G. Roman-Perez and J. M. Soler, Phys. Rev. Lett. 103, 096102 (2009).
     *
     *
     * If you are using vdW-DF2, please also cite:
     *
     *   K. Lee, E. D. Murray, L. Kong, B. I. Lundqvist, and
     *   D. C. Langreth, Phys. Rev. B 82, 081101(R) (2010).
     *
     *
     * If you are calculating the stress with vdW-DF, please also cite:
     *
     *   R. Sabatini, E. Kucukbenli, B. Kolb, T. Thonhauser, and
     *   S. de Gironcoli, J. Phys.: Condens. Matter 24, 424209 (2012).
     *

     Carrying out vdW-DF run using the following parameters:

     Nqs =      20    Nr_points =    1024   r_max =   100.000
     q_mesh =
               0.00001000     0.04494208     0.09755937     0.15916263
               0.23128650     0.31572767     0.41458969     0.53033537
               0.66584808     0.82450364     1.01025438     1.22772762
               1.48234092     1.78043706     2.12944203     2.53805004
               3.01644009     3.57652955     4.23227104     5.00000000

     Gradients computed in reciprocal space

[...]

     Starting wfc are  108 randomized atomic wfcs +    3 random wfc

     Self-consistent Calculation

[...]

     total energy              =   -1804.76132037 Ry
     Harris-Foulkes estimate   =   -1804.76128893 Ry
     estimated scf accuracy    <       0.00000253 Ry

     iteration # 15     ecut=    36.75 Ry     beta=0.10
     Davidson diagonalization with overlap
     ethr =  1.56E-09,  avg # of iterations =  3.1

[...]

     negative rho (up, down):  1.065E-01 0.000E+00

     Adding external electric field

     Computed dipole along edir(3) :
        Dipole               -0.0201 Ry au,         -0.0511 Debye
        Dipole field         -0.0000 Ry au

        Potential amp.        0.0032 Ry
        Total length         47.4596 bohr

     End of self-consistent calculation

[...]

          k = 0.0478-0.0513 0.0000 ( 28311 PWs)   bands (ev):

[...]

          k =-0.0717-0.0438 0.0000 ( 28240 PWs)   bands (ev):

   -16.9120 -16.8795 -16.8656 -16.8479 -16.8456 -16.8454 -16.8438 -16.8403
   -16.8320 -16.8168 -16.8107 -16.8073 -16.8065 -16.8055 -16.8037 -16.7870
   -16.7715 -16.7550 -16.7391 -16.7244 -16.7081 -16.6888 -16.6713 -16.6473
   -16.6421 -16.6261 -16.6252 -16.6129 -16.6109 -16.5532 -14.3497 -14.3367
   -14.3125 -14.3017 -14.3010 -14.2942 -14.2909 -14.2846 -14.2833 -14.2814
   -14.2732 -14.2694 -14.2673 -14.2635 -14.2602 -14.2593 -14.2558 -14.2474
   -14.2397 -14.2331 -14.2276 -14.2193 -14.2092 -14.2014 -14.2009 -14.1936
   -14.1887 -14.1826 -14.1755 -14.1354  -8.9762  -8.6882  -8.1541  -7.7905
    -7.1347  -6.4038  -5.8562  -4.9508  -4.7613  -4.7189  -3.8633  -2.4256
    -0.7551  -0.7088  -0.5497  -0.4914  -0.3955  -0.2148   0.0910   0.7817
     0.9599   1.2018   1.2932   1.4530   1.5280   1.6785   1.8397   2.1407
     2.4797   2.5296   2.7265   2.8562   2.9946   3.2828   3.4727   3.7172
     3.8239   4.0540   4.0800   4.1290   4.1752   4.3390   4.6044   4.7291
     4.8599   4.8961   5.3683   5.4058   5.4915   5.6190   5.6715

     the Fermi energy is     0.5921 ev

!    total energy              =   -1804.76133166 Ry
     Harris-Foulkes estimate   =   -1804.76132061 Ry
     estimated scf accuracy    <       0.00000069 Ry

     The total energy is the sum of the following terms:

     one-electron contribution =   -8567.78088737 Ry
     hartree contribution      =    4356.57453902 Ry
     xc contribution           =    -626.20165691 Ry
     ewald contribution        =    3032.68281011 Ry
     electric field correction =       0.00000067 Ry
     smearing contrib. (-TS)   =      -0.03613718 Ry

     convergence has been achieved in  15 iterations

 BEEF-vdW xc energy contributions
           1 :   -554.618381566494
           2 :    511.880873828474
           3 :   -438.059398258112
           4 :    351.411791578288
           5 :   -269.632735190918
           6 :    203.967758262039
           7 :   -156.923632436045
           8 :    123.985787097874
           9 :   -97.8976265298794
          10 :    73.0416581118102
          11 :   -47.8081931731159
          12 :    24.2107713248602
          13 :   -5.58344550829656
          14 :   -5.95542833243815
          15 :    10.8036213793617
          16 :   -11.4686386175267
          17 :    11.0337996132105
          18 :   -11.5906114128277
          19 :    13.5119558634117
          20 :   -15.7906564803534
          21 :    17.0317382447765
          22 :   -16.4211394123806
          23 :    14.1516028445471
          24 :   -11.2021309647607
          25 :    8.73588581697504
          26 :   -7.51564877515966
          27 :    7.61866681828963
          28 :   -8.51532146767011
          29 :    9.39700461970256
          30 :   -9.57185684719173
          31 :   -46.4840762276772
          32 :   -33.8649973199808

     Forces acting on atoms (Ry/au):

     negative rho (up, down):  1.065E-01 0.000E+00
     atom    1 type  1   force =     0.00230013    0.00140740    0.00140760
     atom    2 type  1   force =     0.00230164    0.00140797    0.00141496
     atom    3 type  2   force =    -0.00087809   -0.00053406    0.00958494
     atom    4 type  2   force =    -0.00087479   -0.00053777    0.00958661
     atom    5 type  1   force =     0.00098965    0.00060598   -0.00674471
     atom    6 type  1   force =     0.00104476    0.00063893   -0.00675312
     atom    7 type  2   force =    -0.00110173   -0.00068998   -0.00337553
     atom    8 type  2   force =    -0.00111526   -0.00066738   -0.00337601
     atom    9 type  1   force =    -0.00055080   -0.00033708    0.00020863
     atom   10 type  1   force =    -0.00053769   -0.00032922    0.00021186
     atom   11 type  2   force =    -0.00079035   -0.00047917   -0.00108177
     atom   12 type  2   force =    -0.00078747   -0.00048562   -0.00108346

     Total force =     0.018152     Total SCF correction =     0.002058
     SCF correction compared to forces is large: reduce conv_thr to get better values

     entering subroutine stress ...

     negative rho (up, down):  1.065E-01 0.000E+00
          total   stress  (Ry/bohr**3)                   (kbar)     P=   -3.56
  -0.00002515   0.00000325  -0.00000411         -3.70      0.48     -0.61
   0.00000325  -0.00002848  -0.00000252          0.48     -4.19     -0.37
  -0.00000411  -0.00000252  -0.00001895         -0.61     -0.37     -2.79

 !ASE

     Writing output data file calc.save

     General routines

     Parallel routines

   This run was terminated on:   0:53:17  25Dec2018

   JOB DONE.
Job  /afs/slac/g/suncat/bin/suncat-tsmpirun -x LD_LIBRARY_PATH -wdir /scratch/qe109024_7S4Ld pw.x -in pw.inp

TID   HOST_NAME   COMMAND_LINE            STATUS            TERMINATION_TIME
00000 suncat0083 pw.x -in pw.inp   Done                     12/25/2018 00:53:17
00001 suncat0083 pw.x -in pw.inp   Done                     12/25/2018 00:53:17
00002 suncat0083 pw.x -in pw.inp   Done                     12/25/2018 00:53:17
00003 suncat0083 pw.x -in pw.inp   Done                     12/25/2018 00:53:17
00004 suncat0083 pw.x -in pw.inp   Done                     12/25/2018 00:53:17
00005 suncat0083 pw.x -in pw.inp   Done                     12/25/2018 00:53:17
00006 suncat0083 pw.x -in pw.inp   Done                     12/25/2018 00:53:17
00007 suncat0083 pw.x -in pw.inp   Done                     12/25/2018 00:53:17
00008 suncat0070 pw.x -in pw.inp   Done                     12/25/2018 00:53:17
00009 suncat0070 pw.x -in pw.inp   Done                     12/25/2018 00:53:17
00010 suncat0070 pw.x -in pw.inp   Done                     12/25/2018 00:53:17
00011 suncat0070 pw.x -in pw.inp   Done                     12/25/2018 00:53:17
00012 suncat0070 pw.x -in pw.inp   Done                     12/25/2018 00:53:17
00013 suncat0070 pw.x -in pw.inp   Done                     12/25/2018 00:53:17
00014 suncat0070 pw.x -in pw.inp   Done                     12/25/2018 00:53:17
00015 suncat0070 pw.x -in pw.inp   Done                     12/25/2018 00:53:17
00016 suncat0039 pw.x -in pw.inp   Done                     12/25/2018 00:53:17
00017 suncat0039 pw.x -in pw.inp   Done                     12/25/2018 00:53:17
00018 suncat0039 pw.x -in pw.inp   Done                     12/25/2018 00:53:17
00019 suncat0039 pw.x -in pw.inp   Done                     12/25/2018 00:53:17
00020 suncat0039 pw.x -in pw.inp   Done                     12/25/2018 00:53:17
00021 suncat0039 pw.x -in pw.inp   Done                     12/25/2018 00:53:17
00022 suncat0039 pw.x -in pw.inp   Done                     12/25/2018 00:53:17
00023 suncat0039 pw.x -in pw.inp   Done                     12/25/2018 00:53:17
00024 suncat0034 pw.x -in pw.inp   Done                     12/25/2018 00:53:17
00025 suncat0034 pw.x -in pw.inp   Done                     12/25/2018 00:53:17
00026 suncat0034 pw.x -in pw.inp   Done                     12/25/2018 00:53:17
00027 suncat0034 pw.x -in pw.inp   Done                     12/25/2018 00:53:17
00028 suncat0034 pw.x -in pw.inp   Done                     12/25/2018 00:53:17
00029 suncat0034 pw.x -in pw.inp   Done                     12/25/2018 00:53:17
00030 suncat0034 pw.x -in pw.inp   Done                     12/25/2018 00:53:17
00031 suncat0034 pw.x -in pw.inp   Done                     12/25/2018 00:53:17
00032 suncat0027 pw.x -in pw.inp   Done                     12/25/2018 00:53:17
00033 suncat0027 pw.x -in pw.inp   Done                     12/25/2018 00:53:17
00034 suncat0027 pw.x -in pw.inp   Done                     12/25/2018 00:53:17
00035 suncat0027 pw.x -in pw.inp   Done                     12/25/2018 00:53:17
00036 suncat0027 pw.x -in pw.inp   Done                     12/25/2018 00:53:17
00037 suncat0027 pw.x -in pw.inp   Done                     12/25/2018 00:53:17
00038 suncat0027 pw.x -in pw.inp   Done                     12/25/2018 00:53:17
00039 suncat0027 pw.x -in pw.inp   Done                     12/25/2018 00:53:17
00040 suncat0021 pw.x -in pw.inp   Done                     12/25/2018 00:53:17
00041 suncat0021 pw.x -in pw.inp   Done                     12/25/2018 00:53:17
00042 suncat0021 pw.x -in pw.inp   Done                     12/25/2018 00:53:17
00043 suncat0021 pw.x -in pw.inp   Done                     12/25/2018 00:53:17
00044 suncat0021 pw.x -in pw.inp   Done                     12/25/2018 00:53:17
00045 suncat0021 pw.x -in pw.inp   Done                     12/25/2018 00:53:17
00046 suncat0021 pw.x -in pw.inp   Done                     12/25/2018 00:53:17
00047 suncat0021 pw.x -in pw.inp   Done                     12/25/2018 00:53:17
00048 suncat0191 pw.x -in pw.inp   Done                     12/25/2018 00:53:17
00049 suncat0191 pw.x -in pw.inp   Done                     12/25/2018 00:53:17
00050 suncat0191 pw.x -in pw.inp   Done                     12/25/2018 00:53:17
00051 suncat0191 pw.x -in pw.inp   Done                     12/25/2018 00:53:17
00052 suncat0191 pw.x -in pw.inp   Done                     12/25/2018 00:53:17
00053 suncat0191 pw.x -in pw.inp   Done                     12/25/2018 00:53:17
00054 suncat0191 pw.x -in pw.inp   Done                     12/25/2018 00:53:17
00055 suncat0191 pw.x -in pw.inp   Done                     12/25/2018 00:53:17
00056 suncat0267 pw.x -in pw.inp   Done                     12/25/2018 00:53:17
00057 suncat0267 pw.x -in pw.inp   Done                     12/25/2018 00:53:17
00058 suncat0267 pw.x -in pw.inp   Done                     12/25/2018 00:53:17
00059 suncat0267 pw.x -in pw.inp   Done                     12/25/2018 00:53:17
00060 suncat0267 pw.x -in pw.inp   Done                     12/25/2018 00:53:17
00061 suncat0267 pw.x -in pw.inp   Done                     12/25/2018 00:53:17
00062 suncat0267 pw.x -in pw.inp   Done                     12/25/2018 00:53:17
00063 suncat0267 pw.x -in pw.inp   Done                     12/25/2018 00:53:17