     Program PWSCF v.5.1rc2 (svn rev. 11289) starts on 19Dec2018 at  4:41:38

     Current dimensions of program PWSCF are:
     Max number of different atomic species (ntypx) = 10
     Max number of k-points (npk) =  40000
     Max angular momentum in pseudopotentials (lmaxx) =  3
     Presently stress not available with electric field

     IMPORTANT: XC functional enforced from input :
     Exchange-correlation      = BEEF-VDW ( 1  4 27 13 2)
     Any further DFT definition will be discarded
     Please, verify this is what you really want

     Subspace diagonalization in iterative solution of the eigenvalue problem:
     a serial algorithm will be used

     Found symmetry operation: I + ( -0.5000 -0.5000  0.0000)
     This is a supercell, fractional translations are disabled

     bravais-lattice index     =            0
     lattice parameter (alat)  =       1.8897  a.u.
     unit-cell volume          =    5233.8072 (a.u.)^3
     number of atoms/cell      =           12
     number of atomic types    =            2
     number of electrons       =       180.00
     number of Kohn-Sham states=          120
     kinetic-energy cutoff     =      36.7493  Ry
     charge density cutoff     =     367.4932  Ry
     convergence threshold     =      1.0E-06
     mixing beta               =       0.1000
     number of iterations used =           10  plain     mixing
     Exchange-correlation      = BEEF-VDW ( 1  4 27 13 2)
     nstep                     =           50

     celldm(1)=   1.889726  celldm(2)=   0.000000  celldm(3)=   0.000000
     celldm(4)=   0.000000  celldm(5)=   0.000000  celldm(6)=   0.000000

     crystal axes: (cart. coord. in units of alat)
               a(1) = (   5.841867   0.000000   0.000000 )
               a(2) = (   2.357688   5.344971   0.000000 )
               a(3) = (   0.000000   0.000000  24.838426 )

     reciprocal axes: (cart. coord. in units 2 pi/alat)
               b(1) = (  0.171178 -0.075507  0.000000 )
               b(2) = (  0.000000  0.187092  0.000000 )
               b(3) = (  0.000000  0.000000  0.040260 )

     PseudoPot. # 1 for Sc read from file:
     /afs/slac.stanford.edu/u/if/mamunm/psp/gbrv1.5pbe/Sc.UPF
     MD5 check sum: db30a2753ba66ef00f23801d899b7e7f
     Pseudo is Ultrasoft + core correction, Zval = 11.0
     Generated by new atomic code, or converted to UPF format
     Using radial grid of  849 points,  6 beta functions with:
                l(1) =   0
                l(2) =   0
                l(3) =   1
                l(4) =   1
                l(5) =   2
                l(6) =   2
     Q(r) pseudized with  6 coefficients,  rinner =    1.200   1.200   1.200
                                                       1.200   1.200

     PseudoPot. # 2 for Ga read from file:
     /afs/slac.stanford.edu/u/if/mamunm/psp/gbrv1.5pbe/Ga.UPF
     MD5 check sum: ccd671392a58a050fbb373893b4fcd66
     Pseudo is Ultrasoft + core correction, Zval = 19.0
     Generated by new atomic code, or converted to UPF format
     Using radial grid of  871 points,  6 beta functions with:
                l(1) =   0
                l(2) =   0
                l(3) =   1
                l(4) =   1
                l(5) =   2
                l(6) =   2
     Q(r) pseudized with  8 coefficients,  rinner =    1.250   1.250   1.250
                                                       1.250   1.250

     vdW kernel table read from file vdW_kernel_table
     MD5 check sum: 095c7af220d748ca6e76c0b4c6cfb241

     atomic species   valence    mass     pseudopotential
        Sc1           11.00    44.95591     Sc( 1.00)
        Ga1           19.00    69.72300     Ga( 1.00)

     No symmetry found

   Cartesian axes

     site n.     atom                  positions (alat units)
         1           Sc1 tau(   1) = (   0.0000000   0.0000000  10.0000000  )
         2           Sc1 tau(   2) = (   4.0997773   2.6724857  10.0000000  )
         3           Ga1 tau(   3) = (   2.9209335   0.0000000  10.0000000  )
         4           Ga1 tau(   4) = (   1.1788438   2.6724857  10.0000000  )
         5           Sc1 tau(   5) = (   5.8418670   3.8080864  12.4192129  )
         6           Sc1 tau(   6) = (   1.7420897   1.1356007  12.4192129  )
         7           Ga1 tau(   7) = (   2.9209335   3.8080864  12.4192129  )
         8           Ga1 tau(   8) = (   4.6630232   1.1356007  12.4192129  )
         9           Sc1 tau(   9) = (   3.4841794   2.2712014  14.8384257  )
        10           Sc1 tau(  10) = (   7.5839567   4.9436871  14.8384257  )
        11           Ga1 tau(  11) = (   6.4051129   2.2712014  14.8384257  )
        12           Ga1 tau(  12) = (   4.6630232   4.9436871  14.8384257  )

     number of k points=    20  Fermi-Dirac smearing, width (Ry)=  0.0110
                       cart. coord. in units 2pi/alat
        k(    1) = (   0.0000000   0.0000000   0.0000000), wk =   0.0555556
        k(    2) = (   0.0000000   0.0311820   0.0000000), wk =   0.1111111
        k(    3) = (   0.0000000   0.0623639   0.0000000), wk =   0.1111111
        k(    4) = (   0.0000000  -0.0935459   0.0000000), wk =   0.0555556
        k(    5) = (   0.0285297  -0.0125846   0.0000000), wk =   0.1111111
        k(    6) = (   0.0285297   0.0185974   0.0000000), wk =   0.1111111
        k(    7) = (   0.0285297   0.0497794   0.0000000), wk =   0.1111111
        k(    8) = (   0.0285297  -0.1061304   0.0000000), wk =   0.1111111
        k(    9) = (   0.0285297  -0.0749485   0.0000000), wk =   0.1111111
        k(   10) = (   0.0285297  -0.0437665   0.0000000), wk =   0.1111111
        k(   11) = (   0.0570594  -0.0251691   0.0000000), wk =   0.1111111
        k(   12) = (   0.0570594   0.0060128   0.0000000), wk =   0.1111111
        k(   13) = (   0.0570594   0.0371948   0.0000000), wk =   0.1111111
        k(   14) = (   0.0570594  -0.1187150   0.0000000), wk =   0.1111111
        k(   15) = (   0.0570594  -0.0875330   0.0000000), wk =   0.1111111
        k(   16) = (   0.0570594  -0.0563511   0.0000000), wk =   0.1111111
        k(   17) = (  -0.0855891   0.0377537   0.0000000), wk =   0.0555556
        k(   18) = (  -0.0855891   0.0689356   0.0000000), wk =   0.1111111
        k(   19) = (  -0.0855891   0.1001176   0.0000000), wk =   0.1111111
        k(   20) = (  -0.0855891  -0.0557922   0.0000000), wk =   0.0555556

     Largest allocated arrays     est. size (Mb)     dimensions
     Largest temporary arrays     est. size (Mb)     dimensions

     Initial potential from superposition of free atoms
     Check: negative starting charge=   -0.000763

     starting charge  173.98558, renormalised to  180.00000

     negative rho (up, down):  7.892E-04 0.000E+00

     *
     * You are using vdW-DF for exchange-correlation in this calculation.
     * Please cite the following three references that made this development
     * possible:
     *
     *   M. Dion, H. Rydberg, E. Schroder, D. C. Langreth, and
     *   B. I. Lundqvist, Phys. Rev. Lett. 92, 246401 (2004).
     *
     *   T. Thonhauser, V. R. Cooper, S. Li, A. Puzder, P. Hyldgaard, and
     *   D. C. Langreth, Phys. Rev. B 76, 125112 (2007).
     *
     *   G. Roman-Perez and J. M. Soler, Phys. Rev. Lett. 103, 096102 (2009).
     *
     *
     * If you are using vdW-DF2, please also cite:
     *
     *   K. Lee, E. D. Murray, L. Kong, B. I. Lundqvist, and
     *   D. C. Langreth, Phys. Rev. B 82, 081101(R) (2010).
     *
     *
     * If you are calculating the stress with vdW-DF, please also cite:
     *
     *   R. Sabatini, E. Kucukbenli, B. Kolb, T. Thonhauser, and
     *   S. de Gironcoli, J. Phys.: Condens. Matter 24, 424209 (2012).
     *

     Carrying out vdW-DF run using the following parameters:

     Nqs =      20    Nr_points =    1024   r_max =   100.000
     q_mesh =
               0.00001000     0.04494208     0.09755937     0.15916263
               0.23128650     0.31572767     0.41458969     0.53033537
               0.66584808     0.82450364     1.01025438     1.22772762
               1.48234092     1.78043706     2.12944203     2.53805004
               3.01644009     3.57652955     4.23227104     5.00000000

     Gradients computed in reciprocal space

     Adding external electric field

     Computed dipole along edir(3) :
        Dipole               -0.0000 Ry au,         -0.0000 Debye
        Dipole field         -0.0000 Ry au

        Potential amp.        0.0000 Ry
        Total length         45.7644 bohr

     Starting wfc are  150 randomized atomic wfcs

     Self-consistent Calculation

     iteration #  1     ecut=    36.75 Ry     beta=0.10
     Davidson diagonalization with overlap
     ethr =  1.00E-02,  avg # of iterations =  2.9

[...]

     total energy              =   -3070.11572036 Ry
     Harris-Foulkes estimate   =   -3073.61465860 Ry
     estimated scf accuracy    <      19.77760732 Ry

[...]

     End of self-consistent calculation

          k = 0.0000 0.0000 0.0000 ( 19753 PWs)   bands (ev):

   -93.7928 -93.7918 -93.7911 -93.7911 -93.7649 -93.7649 -93.6474 -93.6474
   -93.6473 -93.6473 -93.6438 -93.6438 -93.6428 -93.6427 -93.6113 -93.6113
   -93.6113 -93.6112 -49.5139 -49.5136 -49.4886 -49.4884 -49.1448 -49.1187
   -28.2237 -28.2158 -28.1978 -28.1859 -28.1344 -28.1341 -28.0948 -28.0838
   -28.0686 -28.0565 -27.8827 -27.8825 -27.8730 -27.7629 -27.7508 -27.7351
   -27.7155 -27.6103 -14.1974 -14.1810 -14.1658 -14.1400 -14.1308 -14.1218
   -14.1189 -14.1148 -14.1040 -14.0525 -14.0377 -14.0350 -14.0140 -14.0119
   -14.0079 -14.0013 -13.9689 -13.9680 -13.9666 -13.9659 -13.9561 -13.9558
   -13.9522 -13.9476 -13.9475 -13.9461 -13.9364 -13.9364 -13.8944 -13.8902
    -7.9852  -6.6002  -5.4112  -4.9406  -4.2839  -4.0625  -1.8987  -1.5193
    -1.1054  -0.9895  -0.9698  -0.7765  -0.6874  -0.3429   0.0094   0.3628
     0.5333   0.5797   0.7919   0.8789   0.9029   1.0045   1.1266   1.4093
     1.4452   1.4666   1.9166   2.0332   2.1342   2.3193   2.3775   2.5867
     2.6861   2.8053   2.8504   2.9659   3.0766   3.1407   3.2778   3.2850
     3.4570   3.4647   3.5232   3.6643   3.8693   3.9387   4.1090   4.3773

[...]

          k =-0.0856 0.0378 0.0000 ( 19692 PWs)   bands (ev):

[...]

     the Fermi energy is     0.5785 ev

!    total energy              =   -3068.77090595 Ry
     Harris-Foulkes estimate   =   -3068.77090369 Ry
     estimated scf accuracy    <       0.00000072 Ry

     The total energy is the sum of the following terms:

     one-electron contribution =  -17125.60787763 Ry
     hartree contribution      =    8559.33800526 Ry
     xc contribution           =    -382.05346969 Ry
     ewald contribution        =    5879.61690369 Ry
     electric field correction =       0.00000000 Ry
     smearing contrib. (-TS)   =      -0.06446758 Ry

     convergence has been achieved in  16 iterations

 BEEF-vdW xc energy contributions
           1 :   -337.881854041085
           2 :    305.225634048888
           3 :   -251.262386021867
           4 :    192.664792143743
           5 :   -143.425405537109
           6 :    109.566892188826
           7 :   -88.9183127603361
           8 :    74.9932958374578
           9 :   -61.9567583259171
[...]

[...]

   This run was terminated on:   5: 8:13  19Dec2018

[...]

     Program PWSCF v.5.1rc2 (svn rev. 11289) starts on 19Dec2018 at  5: 8:21

[...]

     Total force =     0.031261     Total SCF correction =     0.004517
     SCF correction compared to forces is large: reduce conv_thr to get better values

[...]

   This run was terminated on:   5:36: 7  19Dec2018

[...]

     Program PWSCF v.5.1rc2 (svn rev. 11289) starts on 19Dec2018 at  5:36:13

     Current dimensions of program PWSCF are:
     Max number of different atomic species (ntypx) = 10
     Max number of k-points (npk) =  40000
     Max angular momentum in pseudopotentials (lmaxx) =  3
     Presently stress not available with electric field

     IMPORTANT: XC functional enforced from input :
     Exchange-correlation      = BEEF-VDW ( 1  4 27 13 2)
     Any further DFT definition will be discarded
     Please, verify this is what you really want

     Subspace diagonalization in iterative solution of the eigenvalue problem:
     a serial algorithm will be used

     Found symmetry operation: I + ( -0.5000 -0.5000  0.0000)
     This is a supercell, fractional translations are disabled

     bravais-lattice index     =            0
     lattice parameter (alat)  =       1.8897  a.u.
     unit-cell volume          =    5233.8072 (a.u.)^3
     number of atoms/cell      =           12
     number of atomic types    =            2
     number of electrons       =       180.00
     number of Kohn-Sham states=          120
     kinetic-energy cutoff     =      36.7493  Ry
     charge density cutoff     =     367.4932  Ry
     convergence threshold     =      1.0E-06
     mixing beta               =       0.1000
     number of iterations used =           10  plain     mixing
     Exchange-correlation      = BEEF-VDW ( 1  4 27 13 2)
     nstep                     =           50

     celldm(1)=   1.889726  celldm(2)=   0.000000  celldm(3)=   0.000000
     celldm(4)=   0.000000  celldm(5)=   0.000000  celldm(6)=   0.000000

     crystal axes: (cart. coord. in units of alat)
               a(1) = (   5.841867   0.000000   0.000000 )
               a(2) = (   2.357688   5.344971   0.000000 )
               a(3) = (   0.000000   0.000000  24.838426 )

     reciprocal axes: (cart. coord. in units 2 pi/alat)
               b(1) = (  0.171178 -0.075507  0.000000 )
               b(2) = (  0.000000  0.187092  0.000000 )
               b(3) = (  0.000000  0.000000  0.040260 )

     PseudoPot. # 1 for Sc read from file:
     /afs/slac.stanford.edu/u/if/mamunm/psp/gbrv1.5pbe/Sc.UPF
     MD5 check sum: db30a2753ba66ef00f23801d899b7e7f
     Pseudo is Ultrasoft + core correction, Zval = 11.0
     Generated by new atomic code, or converted to UPF format
     Using radial grid of  849 points,  6 beta functions with:
                l(1) =   0
                l(2) =   0
                l(3) =   1
                l(4) =   1
                l(5) =   2
                l(6) =   2
     Q(r) pseudized with  6 coefficients,  rinner =    1.200   1.200   1.200
                                                       1.200   1.200

     PseudoPot. # 2 for Ga read from file:
     /afs/slac.stanford.edu/u/if/mamunm/psp/gbrv1.5pbe/Ga.UPF
     MD5 check sum: ccd671392a58a050fbb373893b4fcd66
     Pseudo is Ultrasoft + core correction, Zval = 19.0
     Generated by new atomic code, or converted to UPF format
     Using radial grid of  871 points,  6 beta functions with:
                l(1) =   0
                l(2) =   0
                l(3) =   1
                l(4) =   1
                l(5) =   2
                l(6) =   2
     Q(r) pseudized with  8 coefficients,  rinner =    1.250   1.250   1.250
                                                       1.250   1.250

     vdW kernel table read from file vdW_kernel_table
     MD5 check sum: 095c7af220d748ca6e76c0b4c6cfb241

     atomic species   valence    mass     pseudopotential
        Sc1           11.00    44.95591     Sc( 1.00)
        Ga1           19.00    69.72300     Ga( 1.00)

     No symmetry found

   Cartesian axes

     site n.     atom                  positions (alat units)
         1           Sc1 tau(   1) = (   0.0000000   0.0000000  10.0000000  )
         2           Sc1 tau(   2) = (   4.0997773   2.6724857  10.0000000  )
         3           Ga1 tau(   3) = (   2.9209335   0.0000000  10.0000000  )
         4           Ga1 tau(   4) = (   1.1788438   2.6724857  10.0000000  )
         5           Sc1 tau(   5) = (   5.8418670   3.8080864  12.4192129  )
         6           Sc1 tau(   6) = (   1.7420897   1.1356007  12.4192129  )
         7           Ga1 tau(   7) = (   2.9209335   3.8080864  12.4192129  )
         8           Ga1 tau(   8) = (   4.6630232   1.1356007  12.4192129  )
         9           Sc1 tau(   9) = (   3.3805842   2.2036695  14.8540501  )
        10           Sc1 tau(  10) = (   7.4803833   4.8761877  14.8540526  )
        11           Ga1 tau(  11) = (   6.2437397   2.1659814  14.9560961  )
        12           Ga1 tau(  12) = (   4.5016189   4.8384688  14.9560730  )

     number of k points=    20  Fermi-Dirac smearing, width (Ry)=  0.0110
                       cart. coord. in units 2pi/alat
        k(    1) = (   0.0000000   0.0000000   0.0000000), wk =   0.0555556
        k(    2) = (   0.0000000   0.0311820   0.0000000), wk =   0.1111111
        k(    3) = (   0.0000000   0.0623639   0.0000000), wk =   0.1111111
        k(    4) = (   0.0000000  -0.0935459   0.0000000), wk =   0.0555556
        k(    5) = (   0.0285297  -0.0125846   0.0000000), wk =   0.1111111
        k(    6) = (   0.0285297   0.0185974   0.0000000), wk =   0.1111111
        k(    7) = (   0.0285297   0.0497794   0.0000000), wk =   0.1111111
        k(    8) = (   0.0285297  -0.1061304   0.0000000), wk =   0.1111111
        k(    9) = (   0.0285297  -0.0749485   0.0000000), wk =   0.1111111
        k(   10) = (   0.0285297  -0.0437665   0.0000000), wk =   0.1111111
        k(   11) = (   0.0570594  -0.0251691   0.0000000), wk =   0.1111111
        k(   12) = (   0.0570594   0.0060128   0.0000000), wk =   0.1111111
        k(   13) = (   0.0570594   0.0371948   0.0000000), wk =   0.1111111
        k(   14) = (   0.0570594  -0.1187150   0.0000000), wk =   0.1111111
        k(   15) = (   0.0570594  -0.0875330   0.0000000), wk =   0.1111111
        k(   16) = (   0.0570594  -0.0563511   0.0000000), wk =   0.1111111
        k(   17) = (  -0.0855891   0.0377537   0.0000000), wk =   0.0555556
        k(   18) = (  -0.0855891   0.0689356   0.0000000), wk =   0.1111111
        k(   19) = (  -0.0855891   0.1001176   0.0000000), wk =   0.1111111
        k(   20) = (  -0.0855891  -0.0557922   0.0000000), wk =   0.0555556

     Largest allocated arrays     est. size (Mb)     dimensions
     Largest temporary arrays     est. size (Mb)     dimensions

     Initial potential from superposition of free atoms
     Check: negative starting charge=   -0.000754

     starting charge  173.98558, renormalised to  180.00000

[...]

     *
     * You are using vdW-DF for exchange-correlation in this calculation.
     * Please cite the following three references that made this development
     * possible:
     *
     *   M. Dion, H. Rydberg, E. Schroder, D. C. Langreth, and
     *   B. I. Lundqvist, Phys. Rev. Lett. 92, 246401 (2004).
     *
     *   T. Thonhauser, V. R. Cooper, S. Li, A. Puzder, P. Hyldgaard, and
     *   D. C. Langreth, Phys. Rev. B 76, 125112 (2007).
     *
     *   G. Roman-Perez and J. M. Soler, Phys. Rev. Lett. 103, 096102 (2009).
     *
     *
     * If you are using vdW-DF2, please also cite:
     *
     *   K. Lee, E. D. Murray, L. Kong, B. I. Lundqvist, and
     *   D. C. Langreth, Phys. Rev. B 82, 081101(R) (2010).
     *
     *
     * If you are calculating the stress with vdW-DF, please also cite:
     *
     *   R. Sabatini, E. Kucukbenli, B. Kolb, T. Thonhauser, and
     *   S. de Gironcoli, J. Phys.: Condens. Matter 24, 424209 (2012).
     *

     Carrying out vdW-DF run using the following parameters:

     Nqs =      20    Nr_points =    1024   r_max =   100.000
     q_mesh =
               0.00001000     0.04494208     0.09755937     0.15916263
               0.23128650     0.31572767     0.41458969     0.53033537
               0.66584808     0.82450364     1.01025438     1.22772762
               1.48234092     1.78043706     2.12944203     2.53805004
               3.01644009     3.57652955     4.23227104     5.00000000

     Gradients computed in reciprocal space

[...]

     Starting wfc are  150 randomized atomic wfcs

     Self-consistent Calculation

[...]

     total energy              =   -3068.77671233 Ry
     Harris-Foulkes estimate   =   -3068.77671238 Ry
     estimated scf accuracy    <       0.00000195 Ry

     iteration # 19     ecut=    36.75 Ry     beta=0.10
     Davidson diagonalization with overlap
     ethr =  1.09E-09,  avg # of iterations =  2.9

[...]

     negative rho (up, down):  6.041E-04 0.000E+00

     Adding external electric field

     Computed dipole along edir(3) :
        Dipole               -0.0180 Ry au,         -0.0458 Debye
        Dipole field         -0.0000 Ry au

        Potential amp.        0.0040 Ry
        Total length         45.7644 bohr

     End of self-consistent calculation

[...]

          k = 0.0571-0.0564 0.0000 ( 19671 PWs)   bands (ev):

[...]

          k =-0.0856-0.0558 0.0000 ( 19610 PWs)   bands (ev):

   -93.7706 -93.7695 -93.7676 -93.7676 -93.7381 -93.7381 -93.6637 -93.6636
   -93.6612 -93.6602 -93.6272 -93.6271 -93.6234 -93.6233 -93.6199 -93.6189
   -93.5746 -93.5746 -49.5353 -49.5288 -49.5103 -49.5039 -49.2002 -49.1742
   -28.2475 -28.2276 -28.2148 -28.2010 -28.1588 -28.1527 -28.1240 -28.1052
   -28.0867 -28.0713 -27.9236 -27.9055 -27.9009 -27.8123 -27.7930 -27.7828
   -27.7642 -27.6637 -14.1732 -14.1507 -14.1283 -14.1019 -14.1003 -14.0956
   -14.0930 -14.0921 -14.0744 -14.0471 -14.0251 -14.0246 -14.0101 -14.0062
   -13.9801 -13.9776 -13.9764 -13.9718 -13.9644 -13.9598 -13.9586 -13.9538
   -13.9282 -13.9261 -13.9257 -13.9123 -13.9104 -13.9079 -13.9041 -13.8631
    -6.7914  -6.3548  -5.5758  -5.1706  -4.1414  -3.2888  -3.0822  -2.5598
    -2.3655  -1.8315  -1.6635  -1.5419  -1.3910  -0.5881  -0.5073  -0.2109
     0.0319   0.2063   0.5921   0.9476   1.1606   1.2490   1.6232   1.8186
     1.9042   1.9396   1.9443   2.0865   2.1285   2.1447   2.2097   2.5250
     2.8880   2.9585   2.9619   3.1617   3.1901   3.2246   3.3704   3.5071
     3.6762   4.2268   4.4358   4.5560   4.5946   4.7034   4.7606   4.7977

     the Fermi energy is     0.5470 ev

!    total energy              =   -3068.77671424 Ry
     Harris-Foulkes estimate   =   -3068.77671233 Ry
     estimated scf accuracy    <       0.00000017 Ry

     The total energy is the sum of the following terms:

     one-electron contribution =  -16955.97303997 Ry
     hartree contribution      =    8474.52024718 Ry
     xc contribution           =    -382.00144958 Ry
     ewald contribution        =    5794.73931684 Ry
     electric field correction =       0.00000078 Ry
     smearing contrib. (-TS)   =      -0.06178948 Ry

     convergence has been achieved in  19 iterations

 BEEF-vdW xc energy contributions
           1 :   -337.827789209992
           2 :    305.144586645231
           3 :   -251.155659431335
           4 :    192.563729627443
           5 :   -143.365107154819
           6 :    109.554507042151
           7 :   -88.9240311960722
           8 :    74.9737920669929
           9 :   -61.8913592813820
          10 :    47.6152973654246
          11 :   -33.7273565379331
          12 :    23.0386361320395
          13 :   -16.9810103163548
          14 :    14.5941711218042
          15 :   -13.4555129239783
          16 :    11.4912552060610
          17 :   -8.22510929595489
          18 :    4.70192267651788
          19 :   -2.38461672218557
          20 :    1.96205277974116
          21 :   -2.90317063025196
          22 :    3.94365178194818
          23 :   -4.02782616576167
          24 :    2.99130371371831
          25 :   -1.55573989439426
          26 :   0.724472378750647
          27 :   -1.04956994408985
          28 :    2.26882326669522
          29 :   -3.52615447147679
          30 :    3.98721546183509
          31 :   -27.9765330425601
          32 :   -19.3901007171497

     Forces acting on atoms (Ry/au):

     negative rho (up, down):  6.041E-04 0.000E+00
     atom    1 type  1   force =    -0.00403037   -0.00262697   -0.00124005
     atom    2 type  1   force =    -0.00403001   -0.00262725   -0.00123992
     atom    3 type  2   force =     0.00985844    0.00642585   -0.01287581
     atom    4 type  2   force =     0.00985789    0.00642556   -0.01287403
     atom    5 type  1   force =    -0.00365458   -0.00238322    0.00985530
     atom    6 type  1   force =    -0.00365558   -0.00238343    0.00985241
     atom    7 type  2   force =    -0.00220722   -0.00143935    0.00727200
     atom    8 type  2   force =    -0.00220802   -0.00143852    0.00727055
     atom    9 type  1   force =     0.00059073    0.00038410   -0.00171963
     atom   10 type  1   force =     0.00058502    0.00037772   -0.00172066
     atom   11 type  2   force =    -0.00055658   -0.00035635   -0.00129125
     atom   12 type  2   force =    -0.00054971   -0.00035814   -0.00128891

     Total force =     0.031951     Total SCF correction =     0.001718

     entering subroutine stress ...

     negative rho (up, down):  6.041E-04 0.000E+00
          total   stress  (Ry/bohr**3)                   (kbar)     P=   -4.58
  -0.00006591  -0.00002340  -0.00001040         -9.70     -3.44     -1.53
  -0.00002340  -0.00004527  -0.00000678         -3.44     -6.66     -1.00
  -0.00001040  -0.00000678   0.00001773         -1.53     -1.00      2.61

 !ASE

     Writing output data file calc.save

     General routines

     Parallel routines

   This run was terminated on:   5:41:47  19Dec2018

   JOB DONE.
Job  /afs/slac/g/suncat/bin/suncat-tsmpirun -x LD_LIBRARY_PATH -wdir /scratch/qe530553_GrVyp pw.x -in pw.inp

TID   HOST_NAME   COMMAND_LINE            STATUS            TERMINATION_TIME
00000 suncat2054 pw.x -in pw.inp   Done                     12/19/2018 05:41:47
00001 suncat2054 pw.x -in pw.inp   Done                     12/19/2018 05:41:47
00002 suncat2054 pw.x -in pw.inp   Done                     12/19/2018 05:41:47
00003 suncat2054 pw.x -in pw.inp   Done                     12/19/2018 05:41:47
00004 suncat2054 pw.x -in pw.inp   Done                     12/19/2018 05:41:47
00005 suncat2054 pw.x -in pw.inp   Done                     12/19/2018 05:41:47
00006 suncat2054 pw.x -in pw.inp   Done                     12/19/2018 05:41:47
00007 suncat2054 pw.x -in pw.inp   Done                     12/19/2018 05:41:47
00008 suncat2054 pw.x -in pw.inp   Done                     12/19/2018 05:41:47
00009 suncat2054 pw.x -in pw.inp   Done                     12/19/2018 05:41:47
00010 suncat2054 pw.x -in pw.inp   Done                     12/19/2018 05:41:47
00011 suncat2054 pw.x -in pw.inp   Done                     12/19/2018 05:41:47
00012 suncat2054 pw.x -in pw.inp   Done                     12/19/2018 05:41:47
00013 suncat2054 pw.x -in pw.inp   Done                     12/19/2018 05:41:47
00014 suncat2054 pw.x -in pw.inp   Done                     12/19/2018 05:41:47
00015 suncat2054 pw.x -in pw.inp   Done                     12/19/2018 05:41:47
00016 suncat2053 pw.x -in pw.inp   Done                     12/19/2018 05:41:47
00017 suncat2053 pw.x -in pw.inp   Done                     12/19/2018 05:41:47
00018 suncat2053 pw.x -in pw.inp   Done                     12/19/2018 05:41:47
00019 suncat2053 pw.x -in pw.inp   Done                     12/19/2018 05:41:47
00020 suncat2053 pw.x -in pw.inp   Done                     12/19/2018 05:41:47
00021 suncat2053 pw.x -in pw.inp   Done                     12/19/2018 05:41:47
00022 suncat2053 pw.x -in pw.inp   Done                     12/19/2018 05:41:47
00023 suncat2053 pw.x -in pw.inp   Done                     12/19/2018 05:41:47
00024 suncat2053 pw.x -in pw.inp   Done                     12/19/2018 05:41:47
00025 suncat2053 pw.x -in pw.inp   Done                     12/19/2018 05:41:47
00026 suncat2053 pw.x -in pw.inp   Done                     12/19/2018 05:41:47
00027 suncat2053 pw.x -in pw.inp   Done                     12/19/2018 05:41:47
00028 suncat2053 pw.x -in pw.inp   Done                     12/19/2018 05:41:47
00029 suncat2053 pw.x -in pw.inp   Done                     12/19/2018 05:41:47
00030 suncat2053 pw.x -in pw.inp   Done                     12/19/2018 05:41:47
00031 suncat2053 pw.x -in pw.inp   Done                     12/19/2018 05:41:47