     Program PWSCF v.5.1rc2 (svn rev. 11289) starts on 19Dec2018 at  4:29:18

     Current dimensions of program PWSCF are:
     Max number of different atomic species (ntypx) = 10
     Max number of k-points (npk) =  40000
     Max angular momentum in pseudopotentials (lmaxx) =  3
     Presently stress not available with electric field

     IMPORTANT: XC functional enforced from input :
     Exchange-correlation      = BEEF-VDW ( 1  4 27 13 2)
     Any further DFT definition will be discarded
     Please, verify this is what you really want

     Subspace diagonalization in iterative solution of the eigenvalue problem:
     a serial algorithm will be used

     Found symmetry operation: I + ( -0.5000 -0.5000  0.0000)
     This is a supercell, fractional translations are disabled

     bravais-lattice index     =            0
     lattice parameter (alat)  =       1.8897  a.u.
     unit-cell volume          =    6052.4277 (a.u.)^3
     number of atoms/cell      =           12
     number of atomic types    =            2
     number of electrons       =       138.00
     number of Kohn-Sham states=           99
     kinetic-energy cutoff     =      36.7493  Ry
     charge density cutoff     =     367.4932  Ry
     convergence threshold     =      1.0E-06
     mixing beta               =       0.1000
     number of iterations used =           10  plain     mixing
     Exchange-correlation      = BEEF-VDW ( 1  4 27 13 2)
     nstep                     =           50

     celldm(1)=   1.889726  celldm(2)=   0.000000  celldm(3)=   0.000000
     celldm(4)=   0.000000  celldm(5)=   0.000000  celldm(6)=   0.000000

     crystal axes: (cart. coord. in units of alat)
               a(1) = (   6.163763   0.000000   0.000000 )
               a(2) = (   2.049368   5.813095   0.000000 )
               a(3) = (   0.000000   0.000000  25.031084 )

     reciprocal axes: (cart. coord. in units 2 pi/alat)
               b(1) = (  0.162239 -0.057196  0.000000 )
               b(2) = (  0.000000  0.172025  0.000000 )
               b(3) = (  0.000000  0.000000  0.039950 )

     PseudoPot. # 1 for Sc read from file:
     /afs/slac.stanford.edu/u/if/mamunm/psp/gbrv1.5pbe/Sc.UPF
     MD5 check sum: db30a2753ba66ef00f23801d899b7e7f
     Pseudo is Ultrasoft + core correction, Zval = 11.0
     Generated by new atomic code, or converted to UPF format
     Using radial grid of  849 points,  6 beta functions with:
                l(1) =   0
                l(2) =   0
                l(3) =   1
                l(4) =   1
                l(5) =   2
                l(6) =   2
     Q(r) pseudized with  6 coefficients,  rinner =    1.200   1.200   1.200
                                                       1.200   1.200

     PseudoPot. # 2 for Cd read from file:
     /afs/slac.stanford.edu/u/if/mamunm/psp/gbrv1.5pbe/Cd.UPF
     MD5 check sum: 17164a7926edb8e0dc231208abae86a6
     Pseudo is Ultrasoft + core correction, Zval = 12.0
     Generated by new atomic code, or converted to UPF format
     Using radial grid of  889 points,  6 beta functions with:
                l(1) =   0
                l(2) =   0
                l(3) =   1
                l(4) =   1
                l(5) =   2
                l(6) =   2
     Q(r) pseudized with  6 coefficients,  rinner =    1.000   1.000   1.000
                                                       1.000   1.000

     vdW kernel table read from file vdW_kernel_table
     MD5 check sum: 095c7af220d748ca6e76c0b4c6cfb241

     atomic species   valence    mass     pseudopotential
        Sc1           11.00    44.95591     Sc( 1.00)
        Cd1           12.00   112.41400     Cd( 1.00)

     No symmetry found

   Cartesian axes

     site n.     atom                  positions (alat units)
         1           Sc1 tau(   1) = (   0.0000000   0.0000000  10.0000000  )
         2           Sc1 tau(   2) = (   4.1065656   2.9065473  10.0000000  )
         3           Cd1 tau(   3) = (   3.0818817   0.0000000  10.0000000  )
         4           Cd1 tau(   4) = (   1.0246839   2.9065473  10.0000000  )
         5           Sc1 tau(   5) = (   6.1637633   4.3625919  12.5155420  )
         6           Sc1 tau(   6) = (   2.0571977   1.4560446  12.5155420  )
         7           Cd1 tau(   7) = (   3.0818817   4.3625919  12.5155420  )
         8           Cd1 tau(   8) = (   5.1390794   1.4560446  12.5155420  )
         9           Sc1 tau(   9) = (   4.1143955   2.9120892  15.0310840  )
        10           Sc1 tau(  10) = (   0.0078299   0.0055418  15.0310840  )
        11           Cd1 tau(  11) = (   1.0325138   2.9120892  15.0310840  )
        12           Cd1 tau(  12) = (   3.0897115   0.0055418  15.0310840  )

     number of k points=    20  Fermi-Dirac smearing, width (Ry)=  0.0110
                       cart. coord. in units 2pi/alat
        k(    1) = (   0.0000000   0.0000000   0.0000000), wk =   0.0555556
        k(    2) = (   0.0000000   0.0286709   0.0000000), wk =   0.1111111
        k(    3) = (   0.0000000   0.0573418   0.0000000), wk =   0.1111111
        k(    4) = (   0.0000000  -0.0860127   0.0000000), wk =   0.0555556
        k(    5) = (   0.0270398  -0.0095327   0.0000000), wk =   0.1111111
        k(    6) = (   0.0270398   0.0191382   0.0000000), wk =   0.1111111
        k(    7) = (   0.0270398   0.0478091   0.0000000), wk =   0.1111111
        k(    8) = (   0.0270398  -0.0955454   0.0000000), wk =   0.1111111
        k(    9) = (   0.0270398  -0.0668745   0.0000000), wk =   0.1111111
        k(   10) = (   0.0270398  -0.0382036   0.0000000), wk =   0.1111111
        k(   11) = (   0.0540795  -0.0190654   0.0000000), wk =   0.1111111
        k(   12) = (   0.0540795   0.0096055   0.0000000), wk =   0.1111111
        k(   13) = (   0.0540795   0.0382764   0.0000000), wk =   0.1111111
        k(   14) = (   0.0540795  -0.1050781   0.0000000), wk =   0.1111111
        k(   15) = (   0.0540795  -0.0764072   0.0000000), wk =   0.1111111
        k(   16) = (   0.0540795  -0.0477363   0.0000000), wk =   0.1111111
        k(   17) = (  -0.0811193   0.0285981   0.0000000), wk =   0.0555556
        k(   18) = (  -0.0811193   0.0572690   0.0000000), wk =   0.1111111
        k(   19) = (  -0.0811193   0.0859399   0.0000000), wk =   0.1111111
        k(   20) = (  -0.0811193  -0.0574146   0.0000000), wk =   0.0555556

     Largest allocated arrays     est. size (Mb)     dimensions
     Largest temporary arrays     est. size (Mb)     dimensions

     Initial potential from superposition of free atoms
     Check: negative starting charge=   -0.136112

     starting charge  134.98534, renormalised to  138.00000

     negative rho (up, down):  1.392E-01 0.000E+00

     *
     * You are using vdW-DF for exchange-correlation in this calculation.
     * Please cite the following three references that made this development
     * possible:
     *
     *   M. Dion, H. Rydberg, E. Schroder, D. C. Langreth, and
     *   B. I. Lundqvist, Phys. Rev. Lett. 92, 246401 (2004).
     *
     *   T. Thonhauser, V. R. Cooper, S. Li, A. Puzder, P. Hyldgaard, and
     *   D. C. Langreth, Phys. Rev. B 76, 125112 (2007).
     *
     *   G. Roman-Perez and J. M. Soler, Phys. Rev. Lett. 103, 096102 (2009).
     *
     *
     * If you are using vdW-DF2, please also cite:
     *
     *   K. Lee, E. D. Murray, L. Kong, B. I. Lundqvist, and
     *   D. C. Langreth, Phys. Rev. B 82, 081101(R) (2010).
     *
     *
     * If you are calculating the stress with vdW-DF, please also cite:
     *
     *   R. Sabatini, E. Kucukbenli, B. Kolb, T. Thonhauser, and
     *   S. de Gironcoli, J. Phys.: Condens. Matter 24, 424209 (2012).
     *

     Carrying out vdW-DF run using the following parameters:

     Nqs =      20    Nr_points =    1024   r_max =   100.000
     q_mesh =
               0.00001000     0.04494208     0.09755937     0.15916263
               0.23128650     0.31572767     0.41458969     0.53033537
               0.66584808     0.82450364     1.01025438     1.22772762
               1.48234092     1.78043706     2.12944203     2.53805004
               3.01644009     3.57652955     4.23227104     5.00000000

     Gradients computed in reciprocal space

     Adding external electric field

     Computed dipole along edir(3) :
        Dipole               -0.0000 Ry au,         -0.0000 Debye
        Dipole field         -0.0000 Ry au

        Potential amp.        0.0000 Ry
        Total length         46.1193 bohr

     Starting wfc are  132 randomized atomic wfcs

     Self-consistent Calculation

     iteration #  1     ecut=    36.75 Ry     beta=0.10
     Davidson diagonalization with overlap
     ethr =  1.00E-02,  avg # of iterations =  2.0

     Threshold (ethr) on eigenvalues was too large:
     Diagonalizing with lowered threshold

     Davidson diagonalization with overlap
     ethr =  8.71E-04,  avg # of iterations =  2.0

[...]

     total energy              =   -1265.54843952 Ry
     Harris-Foulkes estimate   =   -1265.73866962 Ry
     estimated scf accuracy    <       1.21342407 Ry

[...]

     End of self-consistent calculation

          k = 0.0000 0.0000 0.0000 ( 22781 PWs)   bands (ev):

   -50.0710 -50.0706 -50.0649 -50.0645 -49.8486 -49.8424 -28.7310 -28.7299
   -28.7245 -28.7209 -28.6393 -28.6358 -28.6339 -28.6286 -28.5998 -28.5992
   -28.5169 -28.5166 -28.4621 -28.4403 -28.4284 -28.4196 -28.4122 -28.3755
    -8.4578  -8.4543  -8.4504  -8.4296  -8.4074  -8.3724  -8.3505  -8.3155
    -8.2715  -8.2690  -8.2652  -8.2503  -8.2467  -8.2461  -8.2452  -8.2355
    -8.2131  -8.2111  -8.1992  -8.1792  -8.1746  -8.1511  -8.1364  -8.1349
    -8.0901  -8.0754  -7.9724  -7.9558  -7.9136  -7.8965  -6.1651  -4.7140
    -3.0391  -2.7479  -2.5273  -2.2772  -0.9813  -0.7592  -0.2830  -0.0616
    -0.0488   0.0730   0.0949   0.3620   0.3684   0.5758   0.8963   0.8999
     0.9104   1.1094   1.1177   1.1782   1.2119   1.2545   1.5369   1.6871
     1.6994   1.9301   1.9782   1.9935   2.0251   2.0932   2.1851   2.3098
     2.3339   2.3537   2.3910   2.5693   2.7303   2.8536   3.3595   3.5524
     3.5787   3.6777   3.7302

[...]

          k =-0.0811 0.0286 0.0000 ( 22802 PWs)   bands (ev):

[...]

     the Fermi energy is     0.4667 ev

!    total energy              =   -1265.47086366 Ry
     Harris-Foulkes estimate   =   -1265.47088014 Ry
     estimated scf accuracy    <       0.00000077 Ry

     The total energy is the sum of the following terms:

     one-electron contribution =   -7772.96488267 Ry
     hartree contribution      =    3922.90123737 Ry
     xc contribution           =    -327.80993451 Ry
     ewald contribution        =    2912.49048616 Ry
     electric field correction =       0.00000000 Ry
     smearing contrib. (-TS)   =      -0.08777002 Ry

     convergence has been achieved in  16 iterations

 BEEF-vdW xc energy contributions
           1 :   -284.938045860743
           2 :    258.299482716059
           3 :   -214.398468791383
           4 :    166.967506105266
           5 :   -127.539723634480
           6 :    101.250403111756
           7 :   -86.7080827135846
           8 :    78.9346819071109
           9 :   -72.9847455448021
          10 :    66.2169049681679
[...]
00030 suncat2045 pw.x -in pw.inp   Done                     12/19/2018 04:33:41
00031 suncat2045 pw.x -in pw.inp   Done                     12/19/2018 04:33:41

[...]

     Total force =     0.008654     Total SCF correction =     0.001883
     SCF correction compared to forces is large: reduce conv_thr to get better values

[...]

     Program PWSCF v.5.1rc2 (svn rev. 11289) starts on 19Dec2018 at  4:38:50

     Current dimensions of program PWSCF are:
     Max number of different atomic species (ntypx) = 10
     Max number of k-points (npk) =  40000
     Max angular momentum in pseudopotentials (lmaxx) =  3
     Presently stress not available with electric field

     IMPORTANT: XC functional enforced from input :
     Exchange-correlation      = BEEF-VDW ( 1  4 27 13 2)
     Any further DFT definition will be discarded
     Please, verify this is what you really want

     Subspace diagonalization in iterative solution of the eigenvalue problem:
     a serial algorithm will be used

     Found symmetry operation: I + ( -0.5000 -0.5000  0.0000)
     This is a supercell, fractional translations are disabled

     bravais-lattice index     =            0
     lattice parameter (alat)  =       1.8897  a.u.
     unit-cell volume          =    6052.4277 (a.u.)^3
     number of atoms/cell      =           12
     number of atomic types    =            2
     number of electrons       =       138.00
     number of Kohn-Sham states=           99
     kinetic-energy cutoff     =      36.7493  Ry
     charge density cutoff     =     367.4932  Ry
     convergence threshold     =      1.0E-06
     mixing beta               =       0.1000
     number of iterations used =           10  plain     mixing
     Exchange-correlation      = BEEF-VDW ( 1  4 27 13 2)
     nstep                     =           50

     celldm(1)=   1.889726  celldm(2)=   0.000000  celldm(3)=   0.000000
     celldm(4)=   0.000000  celldm(5)=   0.000000  celldm(6)=   0.000000

     crystal axes: (cart. coord. in units of alat)
               a(1) = (   6.163763   0.000000   0.000000 )
               a(2) = (   2.049368   5.813095   0.000000 )
               a(3) = (   0.000000   0.000000  25.031084 )

     reciprocal axes: (cart. coord. in units 2 pi/alat)
               b(1) = (  0.162239 -0.057196  0.000000 )
               b(2) = (  0.000000  0.172025  0.000000 )
               b(3) = (  0.000000  0.000000  0.039950 )

     PseudoPot. # 1 for Sc read from file:
     /afs/slac.stanford.edu/u/if/mamunm/psp/gbrv1.5pbe/Sc.UPF
     MD5 check sum: db30a2753ba66ef00f23801d899b7e7f
     Pseudo is Ultrasoft + core correction, Zval = 11.0
     Generated by new atomic code, or converted to UPF format
     Using radial grid of  849 points,  6 beta functions with:
                l(1) =   0
                l(2) =   0
                l(3) =   1
                l(4) =   1
                l(5) =   2
                l(6) =   2
     Q(r) pseudized with  6 coefficients,  rinner =    1.200   1.200   1.200
                                                       1.200   1.200

     PseudoPot. # 2 for Cd read from file:
     /afs/slac.stanford.edu/u/if/mamunm/psp/gbrv1.5pbe/Cd.UPF
     MD5 check sum: 17164a7926edb8e0dc231208abae86a6
     Pseudo is Ultrasoft + core correction, Zval = 12.0
     Generated by new atomic code, or converted to UPF format
     Using radial grid of  889 points,  6 beta functions with:
                l(1) =   0
                l(2) =   0
                l(3) =   1
                l(4) =   1
                l(5) =   2
                l(6) =   2
     Q(r) pseudized with  6 coefficients,  rinner =    1.000   1.000   1.000
                                                       1.000   1.000

     vdW kernel table read from file vdW_kernel_table
     MD5 check sum: 095c7af220d748ca6e76c0b4c6cfb241

     atomic species   valence    mass     pseudopotential
        Sc1           11.00    44.95591     Sc( 1.00)
        Cd1           12.00   112.41400     Cd( 1.00)

     No symmetry found

   Cartesian axes

     site n.     atom                  positions (alat units)
         1           Sc1 tau(   1) = (   0.0000000   0.0000000  10.0000000  )
         2           Sc1 tau(   2) = (   4.1065656   2.9065473  10.0000000  )
         3           Cd1 tau(   3) = (   3.0818817   0.0000000  10.0000000  )
         4           Cd1 tau(   4) = (   1.0246839   2.9065473  10.0000000  )
         5           Sc1 tau(   5) = (   6.1637633   4.3625919  12.5155420  )
         6           Sc1 tau(   6) = (   2.0571977   1.4560446  12.5155420  )
         7           Cd1 tau(   7) = (   3.0818817   4.3625919  12.5155420  )
         8           Cd1 tau(   8) = (   5.1390794   1.4560446  12.5155420  )
         9           Sc1 tau(   9) = (   4.1138510   2.9117259  14.9859261  )
        10           Sc1 tau(  10) = (   0.0072937   0.0051472  14.9859753  )
        11           Cd1 tau(  11) = (   1.0323896   2.9120047  15.0583669  )
        12           Cd1 tau(  12) = (   3.0895602   0.0054171  15.0583981  )

     number of k points=    20  Fermi-Dirac smearing, width (Ry)=  0.0110
                       cart. coord. in units 2pi/alat
        k(    1) = (   0.0000000   0.0000000   0.0000000), wk =   0.0555556
        k(    2) = (   0.0000000   0.0286709   0.0000000), wk =   0.1111111
        k(    3) = (   0.0000000   0.0573418   0.0000000), wk =   0.1111111
        k(    4) = (   0.0000000  -0.0860127   0.0000000), wk =   0.0555556
        k(    5) = (   0.0270398  -0.0095327   0.0000000), wk =   0.1111111
        k(    6) = (   0.0270398   0.0191382   0.0000000), wk =   0.1111111
        k(    7) = (   0.0270398   0.0478091   0.0000000), wk =   0.1111111
        k(    8) = (   0.0270398  -0.0955454   0.0000000), wk =   0.1111111
        k(    9) = (   0.0270398  -0.0668745   0.0000000), wk =   0.1111111
        k(   10) = (   0.0270398  -0.0382036   0.0000000), wk =   0.1111111
        k(   11) = (   0.0540795  -0.0190654   0.0000000), wk =   0.1111111
        k(   12) = (   0.0540795   0.0096055   0.0000000), wk =   0.1111111
        k(   13) = (   0.0540795   0.0382764   0.0000000), wk =   0.1111111
        k(   14) = (   0.0540795  -0.1050781   0.0000000), wk =   0.1111111
        k(   15) = (   0.0540795  -0.0764072   0.0000000), wk =   0.1111111
        k(   16) = (   0.0540795  -0.0477363   0.0000000), wk =   0.1111111
        k(   17) = (  -0.0811193   0.0285981   0.0000000), wk =   0.0555556
        k(   18) = (  -0.0811193   0.0572690   0.0000000), wk =   0.1111111
        k(   19) = (  -0.0811193   0.0859399   0.0000000), wk =   0.1111111
        k(   20) = (  -0.0811193  -0.0574146   0.0000000), wk =   0.0555556

     Largest allocated arrays     est. size (Mb)     dimensions
     Largest temporary arrays     est. size (Mb)     dimensions

     Initial potential from superposition of free atoms
     Check: negative starting charge=   -0.133812

     starting charge  134.98534, renormalised to  138.00000

[...]

     *
     * You are using vdW-DF for exchange-correlation in this calculation.
     * Please cite the following three references that made this development
     * possible:
     *
     *   M. Dion, H. Rydberg, E. Schroder, D. C. Langreth, and
     *   B. I. Lundqvist, Phys. Rev. Lett. 92, 246401 (2004).
     *
     *   T. Thonhauser, V. R. Cooper, S. Li, A. Puzder, P. Hyldgaard, and
     *   D. C. Langreth, Phys. Rev. B 76, 125112 (2007).
     *
     *   G. Roman-Perez and J. M. Soler, Phys. Rev. Lett. 103, 096102 (2009).
     *
     *
     * If you are using vdW-DF2, please also cite:
     *
     *   K. Lee, E. D. Murray, L. Kong, B. I. Lundqvist, and
     *   D. C. Langreth, Phys. Rev. B 82, 081101(R) (2010).
     *
     *
     * If you are calculating the stress with vdW-DF, please also cite:
     *
     *   R. Sabatini, E. Kucukbenli, B. Kolb, T. Thonhauser, and
     *   S. de Gironcoli, J. Phys.: Condens. Matter 24, 424209 (2012).
     *

     Carrying out vdW-DF run using the following parameters:

     Nqs =      20    Nr_points =    1024   r_max =   100.000
     q_mesh =
               0.00001000     0.04494208     0.09755937     0.15916263
               0.23128650     0.31572767     0.41458969     0.53033537
               0.66584808     0.82450364     1.01025438     1.22772762
               1.48234092     1.78043706     2.12944203     2.53805004
               3.01644009     3.57652955     4.23227104     5.00000000

     Gradients computed in reciprocal space

[...]

     Starting wfc are  132 randomized atomic wfcs

     Self-consistent Calculation

[...]

     Threshold (ethr) on eigenvalues was too large:
     Diagonalizing with lowered threshold

     Davidson diagonalization with overlap
     ethr =  8.60E-04,  avg # of iterations =  2.0

[...]

     total energy              =   -1265.47140883 Ry
     Harris-Foulkes estimate   =   -1265.47141168 Ry
     estimated scf accuracy    <       0.00000119 Ry

     iteration # 17     ecut=    36.75 Ry     beta=0.10
     Davidson diagonalization with overlap
     ethr =  8.60E-10,  avg # of iterations =  3.0

[...]

     negative rho (up, down):  1.394E-01 0.000E+00

     Adding external electric field

     Computed dipole along edir(3) :
        Dipole               -0.0171 Ry au,         -0.0435 Debye
        Dipole field         -0.0000 Ry au

        Potential amp.        0.0033 Ry
        Total length         46.1193 bohr

     End of self-consistent calculation

[...]

          k = 0.0541-0.0477 0.0000 ( 22808 PWs)   bands (ev):

[...]

          k =-0.0811-0.0574 0.0000 ( 22738 PWs)   bands (ev):

   -50.0853 -50.0794 -50.0554 -50.0494 -49.8622 -49.8559 -28.7471 -28.7382
   -28.7139 -28.7051 -28.6560 -28.6442 -28.6315 -28.6199 -28.6146 -28.5894
   -28.5309 -28.5052 -28.4774 -28.4499 -28.4450 -28.4337 -28.4234 -28.3910
    -8.4238  -8.4062  -8.3997  -8.3821  -8.3643  -8.3612  -8.3491  -8.3148
    -8.2939  -8.2816  -8.2658  -8.2283  -8.2255  -8.2242  -8.2175  -8.2117
    -8.2094  -8.1958  -8.1879  -8.1796  -8.1563  -8.1542  -8.1452  -8.1231
    -8.1152  -8.1119  -8.0747  -7.9858  -7.9620  -7.9007  -4.5641  -4.5507
    -3.5057  -3.4224  -2.5389  -2.4921  -2.4548  -1.3138  -1.1564  -0.7874
    -0.7116  -0.6603  -0.6508   0.0661   0.1757   0.3070   0.5701   0.6059
     0.7918   1.0042   1.2498   1.2713   1.3478   1.4999   1.5251   1.5431
     1.6274   1.7384   1.8061   1.8199   1.8261   2.2467   2.2581   2.4582
     2.5144   2.6264   2.6358   2.7449   3.2917   3.3654   3.4481   3.5731
     3.5993   3.7177   3.7215

     the Fermi energy is     0.4516 ev

!    total energy              =   -1265.47139318 Ry
     Harris-Foulkes estimate   =   -1265.47140904 Ry
     estimated scf accuracy    <       0.00000013 Ry

     The total energy is the sum of the following terms:

     one-electron contribution =   -7780.66434550 Ry
     hartree contribution      =    3926.68153355 Ry
     xc contribution           =    -327.82049932 Ry
     ewald contribution        =    2916.41996647 Ry
     electric field correction =       0.00000061 Ry
     smearing contrib. (-TS)   =      -0.08804898 Ry

     convergence has been achieved in  17 iterations

 BEEF-vdW xc energy contributions
           1 :   -284.948408533810
           2 :    258.311986230740
           3 :   -214.411743706299
           4 :    166.977889246174
           5 :   -127.545642448036
           6 :    101.253941934995
           7 :   -86.7118410974836
           8 :    78.9387292581532
           9 :   -72.9874753013434
          10 :    66.2177662921599
          11 :   -58.5431708569523
          12 :    51.2635132344797
          13 :   -45.6479961722347
          14 :    42.1375615744067
          15 :   -40.3225772188498
          16 :    39.3370684597892
          17 :   -38.2907639936390
          18 :    36.5986576341729
          19 :   -34.1939950942406
          20 :    31.5527238808669
          21 :   -29.4353180377034
          22 :    28.4069022614814
          23 :   -28.4193684069901
          24 :    28.7819134811999
          25 :   -28.6031231967406
          26 :    27.4147691987077
          27 :   -25.5069867424284
          28 :    23.7043348600685
          29 :   -22.7526375207223
          30 :    22.7934723354741
          31 :   -27.5873304731527
          32 :   -20.0349125014496

     Forces acting on atoms (Ry/au):

     negative rho (up, down):  1.394E-01 0.000E+00
     atom    1 type  1   force =     0.00004024    0.00002798    0.00397050
     atom    2 type  1   force =     0.00004206    0.00002986    0.00397079
     atom    3 type  2   force =     0.00001974    0.00001251   -0.00201520
     atom    4 type  2   force =     0.00001967    0.00001494   -0.00201253
     atom    5 type  1   force =    -0.00000135   -0.00000053    0.00102929
     atom    6 type  1   force =     0.00000089   -0.00000061    0.00103039
     atom    7 type  2   force =     0.00000117   -0.00000009   -0.00310682
     atom    8 type  2   force =     0.00000123    0.00000515   -0.00310339
     atom    9 type  1   force =     0.00000044   -0.00000505    0.00002831
     atom   10 type  1   force =    -0.00000294    0.00000044    0.00002085
     atom   11 type  2   force =    -0.00006374   -0.00004591    0.00009332
     atom   12 type  2   force =    -0.00005741   -0.00003870    0.00009451

     Total force =     0.007816     Total SCF correction =     0.001489
     SCF correction compared to forces is large: reduce conv_thr to get better values

     entering subroutine stress ...

     negative rho (up, down):  1.394E-01 0.000E+00
          total   stress  (Ry/bohr**3)                   (kbar)     P=   -5.77
  -0.00004903   0.00000510  -0.00000019         -7.21      0.75     -0.03
   0.00000510  -0.00005263  -0.00000013          0.75     -7.74     -0.02
  -0.00000019  -0.00000013  -0.00001597         -0.03     -0.02     -2.35

 !ASE

     Writing output data file calc.save

     General routines

     Parallel routines

   This run was terminated on:   4:43:36  19Dec2018

   JOB DONE.
Job  /afs/slac/g/suncat/bin/suncat-tsmpirun -x LD_LIBRARY_PATH -wdir /scratch/qe530547_o4TN4 pw.x -in pw.inp

TID   HOST_NAME   COMMAND_LINE            STATUS            TERMINATION_TIME
00000 suncat2046 pw.x -in pw.inp   Done                     12/19/2018 04:43:36
00001 suncat2046 pw.x -in pw.inp   Done                     12/19/2018 04:43:36
00002 suncat2046 pw.x -in pw.inp   Done                     12/19/2018 04:43:36
00003 suncat2046 pw.x -in pw.inp   Done                     12/19/2018 04:43:36
00004 suncat2046 pw.x -in pw.inp   Done                     12/19/2018 04:43:36
00005 suncat2046 pw.x -in pw.inp   Done                     12/19/2018 04:43:36
00006 suncat2046 pw.x -in pw.inp   Done                     12/19/2018 04:43:36
00007 suncat2046 pw.x -in pw.inp   Done                     12/19/2018 04:43:36
00008 suncat2046 pw.x -in pw.inp   Done                     12/19/2018 04:43:36
00009 suncat2046 pw.x -in pw.inp   Done                     12/19/2018 04:43:36
00010 suncat2046 pw.x -in pw.inp   Done                     12/19/2018 04:43:36
00011 suncat2046 pw.x -in pw.inp   Done                     12/19/2018 04:43:36
00012 suncat2046 pw.x -in pw.inp   Done                     12/19/2018 04:43:36
00013 suncat2046 pw.x -in pw.inp   Done                     12/19/2018 04:43:36
00014 suncat2046 pw.x -in pw.inp   Done                     12/19/2018 04:43:36
00015 suncat2046 pw.x -in pw.inp   Done                     12/19/2018 04:43:36
00016 suncat2045 pw.x -in pw.inp   Done                     12/19/2018 04:43:36
00017 suncat2045 pw.x -in pw.inp   Done                     12/19/2018 04:43:36
00018 suncat2045 pw.x -in pw.inp   Done                     12/19/2018 04:43:36
00019 suncat2045 pw.x -in pw.inp   Done                     12/19/2018 04:43:36
00020 suncat2045 pw.x -in pw.inp   Done                     12/19/2018 04:43:36
00021 suncat2045 pw.x -in pw.inp   Done                     12/19/2018 04:43:36
00022 suncat2045 pw.x -in pw.inp   Done                     12/19/2018 04:43:36
00023 suncat2045 pw.x -in pw.inp   Done                     12/19/2018 04:43:36
00024 suncat2045 pw.x -in pw.inp   Done                     12/19/2018 04:43:36
00025 suncat2045 pw.x -in pw.inp   Done                     12/19/2018 04:43:36
00026 suncat2045 pw.x -in pw.inp   Done                     12/19/2018 04:43:36
00027 suncat2045 pw.x -in pw.inp   Done                     12/19/2018 04:43:36
00028 suncat2045 pw.x -in pw.inp   Done                     12/19/2018 04:43:36
00029 suncat2045 pw.x -in pw.inp   Done                     12/19/2018 04:43:36
00030 suncat2045 pw.x -in pw.inp   Done                     12/19/2018 04:43:36
00031 suncat2045 pw.x -in pw.inp   Done                     12/19/2018 04:43:36