     Program PWSCF v.5.1rc2 (svn rev. 11289) starts on 19Dec2018 at  8:57: 5

     Current dimensions of program PWSCF are:
     Max number of different atomic species (ntypx) = 10
     Max number of k-points (npk) =  40000
     Max angular momentum in pseudopotentials (lmaxx) =  3
     Presently stress not available with electric field

     IMPORTANT: XC functional enforced from input :
     Exchange-correlation      = BEEF-VDW ( 1  4 27 13 2)
     Any further DFT definition will be discarded
     Please, verify this is what you really want

     Subspace diagonalization in iterative solution of the eigenvalue problem:
     a serial algorithm will be used

     Found symmetry operation: I + ( -0.5000  0.0000  0.0000)
     This is a supercell, fractional translations are disabled

     bravais-lattice index     =            0
     lattice parameter (alat)  =       1.8897  a.u.
     unit-cell volume          =    4087.2394 (a.u.)^3
     number of atoms/cell      =           12
     number of atomic types    =            2
     number of electrons       =       210.00
     number of Kohn-Sham states=          135
     kinetic-energy cutoff     =      36.7493  Ry
     charge density cutoff     =     367.4932  Ry
     convergence threshold     =      1.0E-06
     mixing beta               =       0.1000
     number of iterations used =           10  plain     mixing
     Exchange-correlation      = BEEF-VDW ( 1  4 27 13 2)
     nstep                     =           50

     celldm(1)=   1.889726  celldm(2)=   0.000000  celldm(3)=   0.000000
     celldm(4)=   0.000000  celldm(5)=   0.000000  celldm(6)=   0.000000

     crystal axes: (cart. coord. in units of alat)
               a(1) = (   5.235704   0.000000   0.000000 )
               a(2) = (  -2.617852   4.747271   0.000000 )
               a(3) = (   0.000000   0.000000  24.367688 )

     reciprocal axes: (cart. coord. in units 2 pi/alat)
               b(1) = (  0.190996  0.105324  0.000000 )
               b(2) = (  0.000000  0.210647  0.000000 )
               b(3) = (  0.000000  0.000000  0.041038 )

     PseudoPot. # 1 for Cu read from file:
     /afs/slac.stanford.edu/u/if/mamunm/psp/gbrv1.5pbe/Cu.UPF
     MD5 check sum: 6e991ff952a84172a2a52a1c1e996048
     Pseudo is Ultrasoft + core correction, Zval = 19.0
     Generated by new atomic code, or converted to UPF format
     Using radial grid of  867 points,  6 beta functions with:
                l(1) =   0
                l(2) =   0
                l(3) =   1
                l(4) =   1
                l(5) =   2
                l(6) =   2
     Q(r) pseudized with  8 coefficients,  rinner =    1.150   1.150   1.150
                                                       1.150   1.150

     PseudoPot. # 2 for Os read from file:
     /afs/slac.stanford.edu/u/if/mamunm/psp/gbrv1.5pbe/Os.UPF
     MD5 check sum: a3fb40a04f0c37c25c34bbc47164c9a8
     Pseudo is Ultrasoft + core correction, Zval = 16.0
     Generated by new atomic code, or converted to UPF format
     Using radial grid of  983 points,  8 beta functions with:
                l(1) =   0
                l(2) =   0
                l(3) =   1
                l(4) =   1
                l(5) =   2
                l(6) =   2
                l(7) =   3
                l(8) =   3
     Q(r) pseudized with  8 coefficients,  rinner =    1.150   1.150   1.150
                                                       1.150   1.150   1.150
                                                       1.150

     vdW kernel table read from file vdW_kernel_table
     MD5 check sum: 095c7af220d748ca6e76c0b4c6cfb241

     atomic species   valence    mass     pseudopotential
        Cu1           19.00    63.54600     Cu( 1.00)
        Os1           16.00   190.23000     Os( 1.00)

     No symmetry found

   Cartesian axes

     site n.     atom                  positions (alat units)
         1           Cu1 tau(   1) = (   0.0000000   0.0000000  10.0000000  )
         2           Cu1 tau(   2) = (   2.6178521   0.0000000  10.0000000  )
         3           Os1 tau(   3) = (   1.3089261   2.3736356  10.0000000  )
         4           Os1 tau(   4) = (  -1.3089261   2.3736356  10.0000000  )
         5           Cu1 tau(   5) = (   2.6178521   1.4435977  12.1838442  )
         6           Cu1 tau(   6) = (   0.0000000   1.4435977  12.1838442  )
         7           Os1 tau(   7) = (  -1.3089261   3.8172333  12.1838442  )
         8           Os1 tau(   8) = (   1.3089261   3.8172333  12.1838442  )
         9           Cu1 tau(   9) = (  -0.0000000   2.8871954  14.3676883  )
        10           Cu1 tau(  10) = (   2.6178521   2.8871954  14.3676883  )
        11           Os1 tau(  11) = (   3.9267782   0.5135599  14.3676883  )
        12           Os1 tau(  12) = (   1.3089261   0.5135599  14.3676883  )

     number of k points=    20  Fermi-Dirac smearing, width (Ry)=  0.0110
                       cart. coord. in units 2pi/alat
        k(    1) = (   0.0000000   0.0000000   0.0000000), wk =   0.0555556
        k(    2) = (   0.0000000   0.0351079   0.0000000), wk =   0.1111111
        k(    3) = (   0.0000000   0.0702158   0.0000000), wk =   0.1111111
        k(    4) = (   0.0000000  -0.1053237   0.0000000), wk =   0.0555556
        k(    5) = (   0.0318327   0.0175539   0.0000000), wk =   0.1111111
        k(    6) = (   0.0318327   0.0526618   0.0000000), wk =   0.1111111
        k(    7) = (   0.0318327   0.0877697   0.0000000), wk =   0.1111111
        k(    8) = (   0.0318327  -0.0877697   0.0000000), wk =   0.1111111
        k(    9) = (   0.0318327  -0.0526618   0.0000000), wk =   0.1111111
        k(   10) = (   0.0318327  -0.0175539   0.0000000), wk =   0.1111111
        k(   11) = (   0.0636654   0.0351079   0.0000000), wk =   0.1111111
        k(   12) = (   0.0636654   0.0702158   0.0000000), wk =   0.1111111
        k(   13) = (   0.0636654   0.1053237   0.0000000), wk =   0.1111111
        k(   14) = (   0.0636654  -0.0702158   0.0000000), wk =   0.1111111
        k(   15) = (   0.0636654  -0.0351079   0.0000000), wk =   0.1111111
        k(   16) = (   0.0636654   0.0000000   0.0000000), wk =   0.1111111
        k(   17) = (  -0.0954981  -0.0526618   0.0000000), wk =   0.0555556
        k(   18) = (  -0.0954981  -0.0175539   0.0000000), wk =   0.1111111
        k(   19) = (  -0.0954981   0.0175539   0.0000000), wk =   0.1111111
        k(   20) = (  -0.0954981  -0.1579855   0.0000000), wk =   0.0555556

     Largest allocated arrays     est. size (Mb)     dimensions
     Largest temporary arrays     est. size (Mb)     dimensions

     Initial potential from superposition of free atoms
     Check: negative starting charge=   -0.750045

     starting charge  200.99977, renormalised to  210.00000

     negative rho (up, down):  7.836E-01 0.000E+00

     *
     * You are using vdW-DF for exchange-correlation in this calculation.
     * Please cite the following three references that made this development
     * possible:
     *
     *   M. Dion, H. Rydberg, E. Schroder, D. C. Langreth, and
     *   B. I. Lundqvist, Phys. Rev. Lett. 92, 246401 (2004).
     *
     *   T. Thonhauser, V. R. Cooper, S. Li, A. Puzder, P. Hyldgaard, and
     *   D. C. Langreth, Phys. Rev. B 76, 125112 (2007).
     *
     *   G. Roman-Perez and J. M. Soler, Phys. Rev. Lett. 103, 096102 (2009).
     *
     *
     * If you are using vdW-DF2, please also cite:
     *
     *   K. Lee, E. D. Murray, L. Kong, B. I. Lundqvist, and
     *   D. C. Langreth, Phys. Rev. B 82, 081101(R) (2010).
     *
     *
     * If you are calculating the stress with vdW-DF, please also cite:
     *
     *   R. Sabatini, E. Kucukbenli, B. Kolb, T. Thonhauser, and
     *   S. de Gironcoli, J. Phys.: Condens. Matter 24, 424209 (2012).
     *

     Carrying out vdW-DF run using the following parameters:

     Nqs =      20    Nr_points =    1024   r_max =   100.000
     q_mesh =
               0.00001000     0.04494208     0.09755937     0.15916263
               0.23128650     0.31572767     0.41458969     0.53033537
               0.66584808     0.82450364     1.01025438     1.22772762
               1.48234092     1.78043706     2.12944203     2.53805004
               3.01644009     3.57652955     4.23227104     5.00000000

     Gradients computed in reciprocal space

     Adding external electric field

     Computed dipole along edir(3) :
        Dipole                0.0000 Ry au,          0.0000 Debye
        Dipole field          0.0000 Ry au

        Potential amp.       -0.0000 Ry
        Total length         44.8971 bohr

     Starting wfc are  156 randomized atomic wfcs

     Self-consistent Calculation

     iteration #  1     ecut=    36.75 Ry     beta=0.10
     Davidson diagonalization with overlap
     ethr =  1.00E-02,  avg # of iterations =  7.7

[...]

     total energy              =   -3626.22093726 Ry
     Harris-Foulkes estimate   =   -3631.66365493 Ry
     estimated scf accuracy    <      30.80691424 Ry

[...]

     End of self-consistent calculation

          k = 0.0000 0.0000 0.0000 ( 15409 PWs)   bands (ev):

  -111.4654-111.4622-111.1550-111.1549-111.1518-111.1517 -85.3188 -85.2696
   -84.8152 -84.8145 -84.7653 -84.7647 -68.8825 -68.8787 -68.8578 -68.8542
   -68.8382 -68.7962 -68.5966 -68.5965 -68.5926 -68.5924 -68.5889 -68.5887
   -68.5548 -68.5547 -68.4563 -68.4559 -68.4528 -68.4524 -44.9080 -44.7822
   -44.6984 -44.5650 -44.5616 -44.5576 -44.4783 -44.1600 -44.0702 -44.0467
   -44.0139 -43.9908 -43.9676 -43.9346 -43.9343 -43.8611 -43.8176 -43.8159
    -7.3834  -5.4617  -4.5934  -4.5507  -4.3268  -4.1861  -3.9199  -3.6343
    -3.4846  -3.4511  -3.3448  -3.3064  -3.2427  -3.1179  -2.7474  -2.4276
    -2.0457  -1.9687  -1.9268  -1.7788  -1.7486  -1.6889  -1.6042  -1.4623
    -1.4580  -1.4059  -1.3930  -1.3516  -1.3110  -1.1832  -1.1405  -1.1022
    -1.0935  -0.9180  -0.7357  -0.6888  -0.6665  -0.5586  -0.5222  -0.4893
    -0.3057  -0.2644  -0.1771   0.1953   0.2937   0.3035   0.3806   0.4821
     0.6061   0.8214   1.2792   1.3673   1.5070   1.7491   1.9089   1.9305
     2.1559   2.2775   2.3259   2.3802   2.3958   2.4953   2.6110   2.6739
     2.7385   3.2458   3.5478   3.6726   3.7710   4.1906   4.2165   5.1843
     5.4355   5.9593   6.1831   6.6195   7.4189   7.4422   7.5216   7.7650
     7.8375   8.3341   8.7541   8.9972   9.0533   9.0943   9.4395

[...]

          k =-0.0955-0.0527 0.0000 ( 15368 PWs)   bands (ev):

[...]

     the Fermi energy is     1.5030 ev

!    total energy              =   -3627.91332210 Ry
     Harris-Foulkes estimate   =   -3627.91331418 Ry
     estimated scf accuracy    <       0.00000039 Ry

     The total energy is the sum of the following terms:

     one-electron contribution =  -28251.01149459 Ry
     hartree contribution      =   14122.56936066 Ry
     xc contribution           =    -471.76071197 Ry
     ewald contribution        =   10972.36263467 Ry
     electric field correction =       0.00000000 Ry
     smearing contrib. (-TS)   =      -0.07311087 Ry

     convergence has been achieved in  19 iterations

 BEEF-vdW xc energy contributions
           1 :   -415.823970150077
           2 :    380.981406928062
[...]

[...]

   This run was terminated on:  11: 3: 4  19Dec2018

[...]

     Program PWSCF v.5.1rc2 (svn rev. 11289) starts on 19Dec2018 at 11: 3:10

[...]

     Program PWSCF v.5.1rc2 (svn rev. 11289) starts on 19Dec2018 at 11:37:28

     Current dimensions of program PWSCF are:
     Max number of different atomic species (ntypx) = 10
     Max number of k-points (npk) =  40000
     Max angular momentum in pseudopotentials (lmaxx) =  3
     Presently stress not available with electric field

     IMPORTANT: XC functional enforced from input :
     Exchange-correlation      = BEEF-VDW ( 1  4 27 13 2)
     Any further DFT definition will be discarded
     Please, verify this is what you really want

     Subspace diagonalization in iterative solution of the eigenvalue problem:
     a serial algorithm will be used

     Found symmetry operation: I + ( -0.5000  0.0000  0.0000)
     This is a supercell, fractional translations are disabled

     bravais-lattice index     =            0
     lattice parameter (alat)  =       1.8897  a.u.
     unit-cell volume          =    4087.2394 (a.u.)^3
     number of atoms/cell      =           12
     number of atomic types    =            2
     number of electrons       =       210.00
     number of Kohn-Sham states=          135
     kinetic-energy cutoff     =      36.7493  Ry
     charge density cutoff     =     367.4932  Ry
     convergence threshold     =      1.0E-06
     mixing beta               =       0.1000
     number of iterations used =           10  plain     mixing
     Exchange-correlation      = BEEF-VDW ( 1  4 27 13 2)
     nstep                     =           50

     celldm(1)=   1.889726  celldm(2)=   0.000000  celldm(3)=   0.000000
     celldm(4)=   0.000000  celldm(5)=   0.000000  celldm(6)=   0.000000

     crystal axes: (cart. coord. in units of alat)
               a(1) = (   5.235704   0.000000   0.000000 )
               a(2) = (  -2.617852   4.747271   0.000000 )
               a(3) = (   0.000000   0.000000  24.367688 )

     reciprocal axes: (cart. coord. in units 2 pi/alat)
               b(1) = (  0.190996  0.105324  0.000000 )
               b(2) = (  0.000000  0.210647  0.000000 )
               b(3) = (  0.000000  0.000000  0.041038 )

     PseudoPot. # 1 for Cu read from file:
     /afs/slac.stanford.edu/u/if/mamunm/psp/gbrv1.5pbe/Cu.UPF
     MD5 check sum: 6e991ff952a84172a2a52a1c1e996048
     Pseudo is Ultrasoft + core correction, Zval = 19.0
     Generated by new atomic code, or converted to UPF format
     Using radial grid of  867 points,  6 beta functions with:
                l(1) =   0
                l(2) =   0
                l(3) =   1
                l(4) =   1
                l(5) =   2
                l(6) =   2
     Q(r) pseudized with  8 coefficients,  rinner =    1.150   1.150   1.150
                                                       1.150   1.150

     PseudoPot. # 2 for Os read from file:
     /afs/slac.stanford.edu/u/if/mamunm/psp/gbrv1.5pbe/Os.UPF
     MD5 check sum: a3fb40a04f0c37c25c34bbc47164c9a8
     Pseudo is Ultrasoft + core correction, Zval = 16.0
     Generated by new atomic code, or converted to UPF format
     Using radial grid of  983 points,  8 beta functions with:
                l(1) =   0
                l(2) =   0
                l(3) =   1
                l(4) =   1
                l(5) =   2
                l(6) =   2
                l(7) =   3
                l(8) =   3
     Q(r) pseudized with  8 coefficients,  rinner =    1.150   1.150   1.150
                                                       1.150   1.150   1.150
                                                       1.150

     vdW kernel table read from file vdW_kernel_table
     MD5 check sum: 095c7af220d748ca6e76c0b4c6cfb241

     atomic species   valence    mass     pseudopotential
        Cu1           19.00    63.54600     Cu( 1.00)
        Os1           16.00   190.23000     Os( 1.00)

     No symmetry found

   Cartesian axes

     site n.     atom                  positions (alat units)
         1           Cu1 tau(   1) = (   0.0000000   0.0000000  10.0000000  )
         2           Cu1 tau(   2) = (   2.6178521   0.0000000  10.0000000  )
         3           Os1 tau(   3) = (   1.3089261   2.3736356  10.0000000  )
         4           Os1 tau(   4) = (  -1.3089261   2.3736356  10.0000000  )
         5           Cu1 tau(   5) = (   2.6178521   1.4435977  12.1838442  )
         6           Cu1 tau(   6) = (   0.0000000   1.4435977  12.1838442  )
         7           Os1 tau(   7) = (  -1.3089261   3.8172333  12.1838442  )
         8           Os1 tau(   8) = (   1.3089261   3.8172333  12.1838442  )
         9           Cu1 tau(   9) = (  -0.0000040   2.5856241  14.4334958  )
        10           Cu1 tau(  10) = (   2.6178581   2.5856221  14.4334931  )
        11           Os1 tau(  11) = (   3.9267772   0.1958567  14.2961308  )
        12           Os1 tau(  12) = (   1.3089274   0.1958593  14.2961290  )

     number of k points=    20  Fermi-Dirac smearing, width (Ry)=  0.0110
                       cart. coord. in units 2pi/alat
        k(    1) = (   0.0000000   0.0000000   0.0000000), wk =   0.0555556
        k(    2) = (   0.0000000   0.0351079   0.0000000), wk =   0.1111111
        k(    3) = (   0.0000000   0.0702158   0.0000000), wk =   0.1111111
        k(    4) = (   0.0000000  -0.1053237   0.0000000), wk =   0.0555556
        k(    5) = (   0.0318327   0.0175539   0.0000000), wk =   0.1111111
        k(    6) = (   0.0318327   0.0526618   0.0000000), wk =   0.1111111
        k(    7) = (   0.0318327   0.0877697   0.0000000), wk =   0.1111111
        k(    8) = (   0.0318327  -0.0877697   0.0000000), wk =   0.1111111
        k(    9) = (   0.0318327  -0.0526618   0.0000000), wk =   0.1111111
        k(   10) = (   0.0318327  -0.0175539   0.0000000), wk =   0.1111111
        k(   11) = (   0.0636654   0.0351079   0.0000000), wk =   0.1111111
        k(   12) = (   0.0636654   0.0702158   0.0000000), wk =   0.1111111
        k(   13) = (   0.0636654   0.1053237   0.0000000), wk =   0.1111111
        k(   14) = (   0.0636654  -0.0702158   0.0000000), wk =   0.1111111
        k(   15) = (   0.0636654  -0.0351079   0.0000000), wk =   0.1111111
        k(   16) = (   0.0636654   0.0000000   0.0000000), wk =   0.1111111
        k(   17) = (  -0.0954981  -0.0526618   0.0000000), wk =   0.0555556
        k(   18) = (  -0.0954981  -0.0175539   0.0000000), wk =   0.1111111
        k(   19) = (  -0.0954981   0.0175539   0.0000000), wk =   0.1111111
        k(   20) = (  -0.0954981  -0.1579855   0.0000000), wk =   0.0555556

     Largest allocated arrays     est. size (Mb)     dimensions
     Largest temporary arrays     est. size (Mb)     dimensions

     Initial potential from superposition of free atoms
     Check: negative starting charge=   -0.746682

     starting charge  200.99977, renormalised to  210.00000

[...]

     *
     * You are using vdW-DF for exchange-correlation in this calculation.
     * Please cite the following three references that made this development
     * possible:
     *
     *   M. Dion, H. Rydberg, E. Schroder, D. C. Langreth, and
     *   B. I. Lundqvist, Phys. Rev. Lett. 92, 246401 (2004).
     *
     *   T. Thonhauser, V. R. Cooper, S. Li, A. Puzder, P. Hyldgaard, and
     *   D. C. Langreth, Phys. Rev. B 76, 125112 (2007).
     *
     *   G. Roman-Perez and J. M. Soler, Phys. Rev. Lett. 103, 096102 (2009).
     *
     *
     * If you are using vdW-DF2, please also cite:
     *
     *   K. Lee, E. D. Murray, L. Kong, B. I. Lundqvist, and
     *   D. C. Langreth, Phys. Rev. B 82, 081101(R) (2010).
     *
     *
     * If you are calculating the stress with vdW-DF, please also cite:
     *
     *   R. Sabatini, E. Kucukbenli, B. Kolb, T. Thonhauser, and
     *   S. de Gironcoli, J. Phys.: Condens. Matter 24, 424209 (2012).
     *

     Carrying out vdW-DF run using the following parameters:

     Nqs =      20    Nr_points =    1024   r_max =   100.000
     q_mesh =
               0.00001000     0.04494208     0.09755937     0.15916263
               0.23128650     0.31572767     0.41458969     0.53033537
               0.66584808     0.82450364     1.01025438     1.22772762
               1.48234092     1.78043706     2.12944203     2.53805004
               3.01644009     3.57652955     4.23227104     5.00000000

     Gradients computed in reciprocal space

[...]

     Starting wfc are  156 randomized atomic wfcs

     Self-consistent Calculation

[...]

     total energy              =   -3627.93656986 Ry
     Harris-Foulkes estimate   =   -3627.93656851 Ry
     estimated scf accuracy    <       0.00000358 Ry

     iteration # 19     ecut=    36.75 Ry     beta=0.10
     Davidson diagonalization with overlap
     ethr =  1.71E-09,  avg # of iterations =  1.2

[...]

     negative rho (up, down):  7.391E-01 0.000E+00

     Adding external electric field

     Computed dipole along edir(3) :
        Dipole                0.0465 Ry au,          0.1181 Debye
        Dipole field          0.0001 Ry au

        Potential amp.       -0.0128 Ry
        Total length         44.8971 bohr

     End of self-consistent calculation

[...]

          k = 0.0637 0.0000 0.0000 ( 15351 PWs)   bands (ev):

[...]

          k =-0.0955-0.1580 0.0000 ( 15368 PWs)   bands (ev):

  -111.3154-111.3154-111.0690-111.0690-110.9387-110.9387 -85.3260 -85.3260
   -84.8640 -84.8639 -84.6789 -84.6788 -68.7432 -68.7432 -68.7040 -68.7040
   -68.6725 -68.6725 -68.5096 -68.5096 -68.4887 -68.4887 -68.3959 -68.3959
   -68.3696 -68.3696 -68.3672 -68.3672 -68.2250 -68.2250 -45.0077 -45.0077
   -44.5428 -44.5428 -44.5340 -44.5340 -44.2151 -44.2151 -44.1024 -44.1023
   -44.0949 -44.0949 -43.9915 -43.9915 -43.8986 -43.8985 -43.7950 -43.7950
    -5.3991  -5.3991  -3.8797  -3.8797  -3.6104  -3.6104  -3.2961  -3.2961
    -2.8979  -2.8979  -2.6346  -2.6346  -2.3769  -2.3769  -2.1630  -2.1630
    -2.0861  -2.0861  -1.9623  -1.9623  -1.7181  -1.7181  -1.6086  -1.6086
    -1.3275  -1.3275  -1.2709  -1.2709  -1.2233  -1.2232  -1.1808  -1.1808
    -1.1206  -1.1206  -0.9995  -0.9995  -0.9266  -0.9266  -0.8370  -0.8370
    -0.6863  -0.6863  -0.2485  -0.2485   0.0280   0.0280   0.1383   0.1383
     0.2433   0.2433   0.2989   0.2989   0.3957   0.3957   0.6124   0.6124
     0.7981   0.7981   1.5927   1.5927   2.0001   2.0001   2.0891   2.0891
     3.4145   3.4145   3.6030   3.6030   4.2724   4.2724   5.6025   5.6025
     6.4942   6.4942   7.5802   7.5802   8.1033   8.1033   8.2956   8.2956
     8.9969   8.9969   9.3238   9.3238   9.4234   9.4235   9.9028

     the Fermi energy is     1.5703 ev

!    total energy              =   -3627.93657852 Ry
     Harris-Foulkes estimate   =   -3627.93657011 Ry
     estimated scf accuracy    <       0.00000010 Ry

     The total energy is the sum of the following terms:

     one-electron contribution =  -28240.65386803 Ry
     hartree contribution      =   14117.95768124 Ry
     xc contribution           =    -471.92706314 Ry
     ewald contribution        =   10966.74587949 Ry
     electric field correction =       0.00000664 Ry
     smearing contrib. (-TS)   =      -0.05921473 Ry

     convergence has been achieved in  19 iterations

 BEEF-vdW xc energy contributions
           1 :   -415.987336978496
           2 :    381.162973371553
           3 :   -321.048757898988
           4 :    250.646309404918
           5 :   -184.640946279849
           6 :    132.627455531611
           7 :   -97.2270773696412
           8 :    75.3651643659144
           9 :   -61.4912475461517
          10 :    50.8041074886391
          11 :   -40.9616096353604
          12 :    31.8888822304882
          13 :   -24.4315844414610
          14 :    19.0375168039644
          15 :   -15.2953558605371
          16 :    12.3596540115184
          17 :   -9.67880631635853
          18 :    7.36043636328964
          19 :   -5.92061325655487
          20 :    5.67643783387678
          21 :   -6.30453538605269
          22 :    6.92710887680528
          23 :   -6.66822118886404
          24 :    5.25807199927669
          25 :   -3.23206461249799
          26 :    1.56910725929924
          27 :   -1.02234483439520
          28 :    1.60936389329174
          29 :   -2.61512108144962
          30 :    3.09651545674848
          31 :   -36.1366912219935
          32 :   -26.1806280834120

     Forces acting on atoms (Ry/au):

     negative rho (up, down):  7.391E-01 0.000E+00
     atom    1 type  1   force =    -0.00000049    0.00598056   -0.00398046
     atom    2 type  1   force =     0.00000072    0.00598090   -0.00398077
     atom    3 type  2   force =    -0.00000010    0.01324519    0.02373622
     atom    4 type  2   force =    -0.00000045    0.01324128    0.02373261
     atom    5 type  1   force =     0.00002345   -0.00379539   -0.00540183
     atom    6 type  1   force =    -0.00002317   -0.00379489   -0.00540152
     atom    7 type  2   force =     0.00000043   -0.01560433   -0.01488946
     atom    8 type  2   force =    -0.00000016   -0.01561328   -0.01489906
     atom    9 type  1   force =    -0.00000230   -0.00005606    0.00041897
     atom   10 type  1   force =     0.00000223   -0.00005490    0.00041902
     atom   11 type  2   force =     0.00000033    0.00023481    0.00012167
     atom   12 type  2   force =    -0.00000048    0.00023612    0.00012461

     Total force =     0.050983     Total SCF correction =     0.001665

     entering subroutine stress ...

     negative rho (up, down):  7.391E-01 0.000E+00
          total   stress  (Ry/bohr**3)                   (kbar)     P=  -29.03
  -0.00028367  -0.00000000  -0.00000000        -41.73     -0.00     -0.00
  -0.00000000  -0.00022125  -0.00003820         -0.00    -32.55     -5.62
  -0.00000000  -0.00003820  -0.00008701         -0.00     -5.62    -12.80

 !ASE

     Writing output data file calc.save

     General routines

     Parallel routines

   This run was terminated on:  11:54:25  19Dec2018

   JOB DONE.
Job  /afs/slac/g/suncat/bin/suncat-tsmpirun -x LD_LIBRARY_PATH -wdir /scratch/qe529797_Rz96M pw.x -in pw.inp

TID   HOST_NAME   COMMAND_LINE            STATUS            TERMINATION_TIME
00000 suncat0079 pw.x -in pw.inp   Done                     12/19/2018 11:54:25
00001 suncat0079 pw.x -in pw.inp   Done                     12/19/2018 11:54:25
00002 suncat0079 pw.x -in pw.inp   Done                     12/19/2018 11:54:25
00003 suncat0079 pw.x -in pw.inp   Done                     12/19/2018 11:54:25
00004 suncat0079 pw.x -in pw.inp   Done                     12/19/2018 11:54:25
00005 suncat0079 pw.x -in pw.inp   Done                     12/19/2018 11:54:25
00006 suncat0079 pw.x -in pw.inp   Done                     12/19/2018 11:54:25
00007 suncat0079 pw.x -in pw.inp   Done                     12/19/2018 11:54:25
00008 suncat0078 pw.x -in pw.inp   Done                     12/19/2018 11:54:25
00009 suncat0078 pw.x -in pw.inp   Done                     12/19/2018 11:54:25
00010 suncat0078 pw.x -in pw.inp   Done                     12/19/2018 11:54:25
00011 suncat0078 pw.x -in pw.inp   Done                     12/19/2018 11:54:25
00012 suncat0078 pw.x -in pw.inp   Done                     12/19/2018 11:54:25
00013 suncat0078 pw.x -in pw.inp   Done                     12/19/2018 11:54:25
00014 suncat0078 pw.x -in pw.inp   Done                     12/19/2018 11:54:25
00015 suncat0078 pw.x -in pw.inp   Done                     12/19/2018 11:54:25
00016 suncat0077 pw.x -in pw.inp   Done                     12/19/2018 11:54:25
00017 suncat0077 pw.x -in pw.inp   Done                     12/19/2018 11:54:25
00018 suncat0077 pw.x -in pw.inp   Done                     12/19/2018 11:54:25
00019 suncat0077 pw.x -in pw.inp   Done                     12/19/2018 11:54:25
00020 suncat0077 pw.x -in pw.inp   Done                     12/19/2018 11:54:25
00021 suncat0077 pw.x -in pw.inp   Done                     12/19/2018 11:54:25
00022 suncat0077 pw.x -in pw.inp   Done                     12/19/2018 11:54:25
00023 suncat0077 pw.x -in pw.inp   Done                     12/19/2018 11:54:25
00024 suncat0216 pw.x -in pw.inp   Done                     12/19/2018 11:54:25
00025 suncat0216 pw.x -in pw.inp   Done                     12/19/2018 11:54:25
00026 suncat0216 pw.x -in pw.inp   Done                     12/19/2018 11:54:25
00027 suncat0216 pw.x -in pw.inp   Done                     12/19/2018 11:54:25
00028 suncat0216 pw.x -in pw.inp   Done                     12/19/2018 11:54:25
00029 suncat0216 pw.x -in pw.inp   Done                     12/19/2018 11:54:25
00030 suncat0216 pw.x -in pw.inp   Done                     12/19/2018 11:54:25
00031 suncat0216 pw.x -in pw.inp   Done                     12/19/2018 11:54:25