     Program PWSCF v.5.1rc2 (svn rev. 11289) starts on 29Dec2018 at 18:35:57

     Current dimensions of program PWSCF are:
     Max number of different atomic species (ntypx) = 10
     Max number of k-points (npk) =  40000
     Max angular momentum in pseudopotentials (lmaxx) =  3
     Presently stress not available with electric field

     IMPORTANT: XC functional enforced from input :
     Exchange-correlation      = BEEF-VDW ( 1  4 27 13 2)
     Any further DFT definition will be discarded
     Please, verify this is what you really want

     Subspace diagonalization in iterative solution of the eigenvalue problem:
     a serial algorithm will be used

     Found symmetry operation: I + ( -0.5000  0.0000  0.0000)
     This is a supercell, fractional translations are disabled

     bravais-lattice index     =            0
     lattice parameter (alat)  =       1.8897  a.u.
     unit-cell volume          =    4986.2045 (a.u.)^3
     number of atoms/cell      =           12
     number of atomic types    =            2
     number of electrons       =       162.00
     number of Kohn-Sham states=          111
     kinetic-energy cutoff     =      36.7493  Ry
     charge density cutoff     =     367.4932  Ry
     convergence threshold     =      1.0E-06
     mixing beta               =       0.1000
     number of iterations used =           10  plain     mixing
     Exchange-correlation      = BEEF-VDW ( 1  4 27 13 2)
     nstep                     =           50

     celldm(1)=   1.889726  celldm(2)=   0.000000  celldm(3)=   0.000000
     celldm(4)=   0.000000  celldm(5)=   0.000000  celldm(6)=   0.000000

     crystal axes: (cart. coord. in units of alat)
               a(1) = (   5.674352   0.000000   0.000000 )
               a(2) = (  -2.837176   5.255545   0.000000 )
               a(3) = (   0.000000   0.000000  24.776470 )

     reciprocal axes: (cart. coord. in units 2 pi/alat)
               b(1) = (  0.176232  0.095138  0.000000 )
               b(2) = (  0.000000  0.190275  0.000000 )
               b(3) = (  0.000000  0.000000  0.040361 )

     PseudoPot. # 1 for Tc read from file:
     /afs/slac.stanford.edu/u/if/mamunm/psp/gbrv1.5pbe/Tc.UPF
     MD5 check sum: 9eb49e5b028550b2339a02317eb7b844
     Pseudo is Ultrasoft + core correction, Zval = 15.0
     Generated by new atomic code, or converted to UPF format
     Using radial grid of  965 points,  6 beta functions with:
                l(1) =   0
                l(2) =   0
                l(3) =   1
                l(4) =   1
                l(5) =   2
                l(6) =   2
     Q(r) pseudized with  8 coefficients,  rinner =    1.300   1.300   1.300
                                                       1.300   1.300

     PseudoPot. # 2 for Hg read from file:
     /afs/slac.stanford.edu/u/if/mamunm/psp/gbrv1.5pbe/Hg.UPF
     MD5 check sum: 8f42caffe07f7fd9c0a564347f8c5498
     Pseudo is Ultrasoft + core correction, Zval = 12.0
     Generated by new atomic code, or converted to UPF format
     Using radial grid of  985 points,  6 beta functions with:
                l(1) =   0
                l(2) =   0
                l(3) =   1
                l(4) =   1
                l(5) =   2
                l(6) =   2
     Q(r) pseudized with  8 coefficients,  rinner =    2.000   2.000   2.000
                                                       2.000   2.000

     vdW kernel table read from file vdW_kernel_table
     MD5 check sum: 095c7af220d748ca6e76c0b4c6cfb241

     atomic species   valence    mass     pseudopotential
        Tc1           15.00    97.90721     Tc( 1.00)
        Hg1           12.00   200.59200     Hg( 1.00)

     No symmetry found

   Cartesian axes

     site n.     atom                  positions (alat units)
         1           Tc1 tau(   1) = (   0.0000000   0.0000000  10.0000000  )
         2           Tc1 tau(   2) = (   2.8371762   0.0000000  10.0000000  )
         3           Hg1 tau(   3) = (   1.4185881   2.6277724  10.0000000  )
         4           Hg1 tau(   4) = (  -1.4185881   2.6277724  10.0000000  )
         5           Tc1 tau(   5) = (   2.8371762   1.5316335  12.3882352  )
         6           Tc1 tau(   6) = (   0.0000000   1.5316335  12.3882352  )
         7           Hg1 tau(   7) = (  -1.4185881   4.1594059  12.3882352  )
         8           Hg1 tau(   8) = (   1.4185881   4.1594059  12.3882352  )
         9           Tc1 tau(   9) = (   0.0000000   3.0632670  14.7764704  )
        10           Tc1 tau(  10) = (   2.8371762   3.0632670  14.7764704  )
        11           Hg1 tau(  11) = (   4.2557642   0.4354945  14.7764704  )
        12           Hg1 tau(  12) = (   1.4185881   0.4354945  14.7764704  )

     number of k points=    20  Fermi-Dirac smearing, width (Ry)=  0.0110
                       cart. coord. in units 2pi/alat
        k(    1) = (   0.0000000   0.0000000   0.0000000), wk =   0.0555556
        k(    2) = (   0.0000000   0.0317125   0.0000000), wk =   0.1111111
        k(    3) = (   0.0000000   0.0634251   0.0000000), wk =   0.1111111
        k(    4) = (   0.0000000  -0.0951376   0.0000000), wk =   0.0555556
        k(    5) = (   0.0293719   0.0158563   0.0000000), wk =   0.1111111
        k(    6) = (   0.0293719   0.0475688   0.0000000), wk =   0.1111111
        k(    7) = (   0.0293719   0.0792813   0.0000000), wk =   0.1111111
        k(    8) = (   0.0293719  -0.0792813   0.0000000), wk =   0.1111111
        k(    9) = (   0.0293719  -0.0475688   0.0000000), wk =   0.1111111
        k(   10) = (   0.0293719  -0.0158563   0.0000000), wk =   0.1111111
        k(   11) = (   0.0587439   0.0317125   0.0000000), wk =   0.1111111
        k(   12) = (   0.0587439   0.0634251   0.0000000), wk =   0.1111111
        k(   13) = (   0.0587439   0.0951376   0.0000000), wk =   0.1111111
        k(   14) = (   0.0587439  -0.0634251   0.0000000), wk =   0.1111111
        k(   15) = (   0.0587439  -0.0317125   0.0000000), wk =   0.1111111
        k(   16) = (   0.0587439   0.0000000   0.0000000), wk =   0.1111111
        k(   17) = (  -0.0881158  -0.0475688   0.0000000), wk =   0.0555556
        k(   18) = (  -0.0881158  -0.0158563   0.0000000), wk =   0.1111111
        k(   19) = (  -0.0881158   0.0158563   0.0000000), wk =   0.1111111
        k(   20) = (  -0.0881158  -0.1427064   0.0000000), wk =   0.0555556

     Largest allocated arrays     est. size (Mb)     dimensions
     Largest temporary arrays     est. size (Mb)     dimensions

     Check: negative/imaginary core charge=   -0.000011    0.000000

     Initial potential from superposition of free atoms
     Check: negative starting charge=   -0.753911

     starting charge  155.99948, renormalised to  162.00000

     negative rho (up, down):  7.829E-01 0.000E+00

     *
     * You are using vdW-DF for exchange-correlation in this calculation.
     * Please cite the following three references that made this development
     * possible:
     *
     *   M. Dion, H. Rydberg, E. Schroder, D. C. Langreth, and
     *   B. I. Lundqvist, Phys. Rev. Lett. 92, 246401 (2004).
     *
     *   T. Thonhauser, V. R. Cooper, S. Li, A. Puzder, P. Hyldgaard, and
     *   D. C. Langreth, Phys. Rev. B 76, 125112 (2007).
     *
     *   G. Roman-Perez and J. M. Soler, Phys. Rev. Lett. 103, 096102 (2009).
     *
     *
     * If you are using vdW-DF2, please also cite:
     *
     *   K. Lee, E. D. Murray, L. Kong, B. I. Lundqvist, and
     *   D. C. Langreth, Phys. Rev. B 82, 081101(R) (2010).
     *
     *
     * If you are calculating the stress with vdW-DF, please also cite:
     *
     *   R. Sabatini, E. Kucukbenli, B. Kolb, T. Thonhauser, and
     *   S. de Gironcoli, J. Phys.: Condens. Matter 24, 424209 (2012).
     *

     Carrying out vdW-DF run using the following parameters:

     Nqs =      20    Nr_points =    1024   r_max =   100.000
     q_mesh =
               0.00001000     0.04494208     0.09755937     0.15916263
               0.23128650     0.31572767     0.41458969     0.53033537
               0.66584808     0.82450364     1.01025438     1.22772762
               1.48234092     1.78043706     2.12944203     2.53805004
               3.01644009     3.57652955     4.23227104     5.00000000

     Gradients computed in reciprocal space

     Adding external electric field

     Computed dipole along edir(3) :
        Dipole               -0.0000 Ry au,         -0.0000 Debye
        Dipole field         -0.0000 Ry au

        Potential amp.        0.0000 Ry
        Total length         45.6502 bohr

     Starting wfc are  132 randomized atomic wfcs

     Self-consistent Calculation

     iteration #  1     ecut=    36.75 Ry     beta=0.10
     Davidson diagonalization with overlap
     ethr =  1.00E-02,  avg # of iterations =  7.8

[...]

     total energy              =   -1706.09311699 Ry
     Harris-Foulkes estimate   =   -1707.30251571 Ry
     estimated scf accuracy    <       7.25294576 Ry

[...]

     End of self-consistent calculation

          k = 0.0000 0.0000 0.0000 ( 18727 PWs)   bands (ev):

   -65.6266 -65.5828 -65.3614 -65.3605 -65.3174 -65.3165 -37.7859 -37.7566
   -37.7072 -37.6256 -37.6230 -37.6096 -37.5615 -37.3803 -37.3756 -37.3433
   -37.3330 -37.3285 -37.3003 -37.2540 -37.2455 -37.2026 -37.1859 -37.1847
    -7.8819  -7.3990  -7.3523  -7.2788  -7.1997  -7.0497  -6.8806  -6.8738
    -6.6417  -6.6196  -6.6041  -6.5437  -6.3324  -6.1215  -5.9904  -5.9320
    -5.8808  -5.8314  -5.7368  -5.6825  -5.6297  -5.6091  -5.5053  -5.5011
    -5.3164  -5.1484  -5.1237  -5.1067  -5.0635  -5.0097  -4.8489  -4.2643
    -2.9469  -1.9718  -1.5120  -1.4056  -1.3147  -1.2435  -1.1194  -0.8155
    -0.6879  -0.4483  -0.3245  -0.2814   0.1305   0.2652   0.2700   0.3990
     0.6047   1.1093   1.2046   1.2286   1.2602   1.5620   1.6347   1.7703
     1.8129   1.8457   2.0295   2.0591   2.0999   2.1840   2.2390   2.3319
     2.3373   2.6423   2.7576   2.8745   2.9000   2.9996   3.0395   3.8977
     4.0193   4.2269   4.8115   4.9343   5.1941   5.3401   5.7263   5.8269
     5.9621   6.4667   6.7309   7.6198   8.0739   8.1073   8.4617

[...]

          k =-0.0881-0.0476 0.0000 ( 18774 PWs)   bands (ev):

[...]

     the Fermi energy is     1.4203 ev

!    total energy              =   -1705.58407901 Ry
     Harris-Foulkes estimate   =   -1705.58407696 Ry
     estimated scf accuracy    <       0.00000026 Ry

     The total energy is the sum of the following terms:

     one-electron contribution =  -12810.38152095 Ry
     hartree contribution      =    6449.26425479 Ry
     xc contribution           =    -441.05023677 Ry
     ewald contribution        =    5096.67489216 Ry
     electric field correction =       0.00000000 Ry
     smearing contrib. (-TS)   =      -0.09146824 Ry

     convergence has been achieved in  21 iterations

 BEEF-vdW xc energy contributions
           1 :   -386.660583009639
           2 :    355.836584408288
           3 :   -301.549397614864
           4 :    235.624504786409
           5 :   -170.408322262705
           6 :    115.147944159414
           7 :   -74.0795770785529
           8 :    46.5359241353921
           9 :   -28.7185478167381
          10 :    16.1023703810847
[...]
     /afs/slac.stanford.edu/u/if/mamunm/psp/gbrv1.5pbe/Tc.UPF
     MD5 check sum: 9eb49e5b028550b2339a02317eb7b844
     Pseudo is Ultrasoft + core correction, Zval = 15.0
     Generated by new atomic code, or converted to UPF format
     Using radial grid of  965 points,  6 beta functions with:
                l(1) =   0
                l(2) =   0
                l(3) =   1
                l(4) =   1
                l(5) =   2
                l(6) =   2
     Q(r) pseudized with  8 coefficients,  rinner =    1.300   1.300   1.300
                                                       1.300   1.300

     PseudoPot. # 2 for Hg read from file:
     /afs/slac.stanford.edu/u/if/mamunm/psp/gbrv1.5pbe/Hg.UPF
     MD5 check sum: 8f42caffe07f7fd9c0a564347f8c5498
     Pseudo is Ultrasoft + core correction, Zval = 12.0
     Generated by new atomic code, or converted to UPF format
     Using radial grid of  985 points,  6 beta functions with:
                l(1) =   0
                l(2) =   0
                l(3) =   1
                l(4) =   1
                l(5) =   2
                l(6) =   2
     Q(r) pseudized with  8 coefficients,  rinner =    2.000   2.000   2.000
                                                       2.000   2.000

     vdW kernel table read from file vdW_kernel_table
     MD5 check sum: 095c7af220d748ca6e76c0b4c6cfb241

     atomic species   valence    mass     pseudopotential
        Tc1           15.00    97.90721     Tc( 1.00)
        Hg1           12.00   200.59200     Hg( 1.00)

     No symmetry found

   Cartesian axes

     site n.     atom                  positions (alat units)
         1           Tc1 tau(   1) = (   0.0000000   0.0000000  10.0000000  )
         2           Tc1 tau(   2) = (   2.8371762   0.0000000  10.0000000  )
         3           Hg1 tau(   3) = (   1.4185881   2.6277724  10.0000000  )
         4           Hg1 tau(   4) = (  -1.4185881   2.6277724  10.0000000  )
         5           Tc1 tau(   5) = (   2.8371762   1.5316335  12.3882352  )
         6           Tc1 tau(   6) = (   0.0000000   1.5316335  12.3882352  )
         7           Hg1 tau(   7) = (  -1.4185881   4.1594059  12.3882352  )
         8           Hg1 tau(   8) = (   1.4185881   4.1594059  12.3882352  )
         9           Tc1 tau(   9) = (   0.0000034   2.3241801  14.4417862  )
        10           Tc1 tau(  10) = (   2.8371721   2.3242856  14.4419175  )
        11           Hg1 tau(  11) = (   1.4189365   5.0911724  15.2982626  )
        12           Hg1 tau(  12) = (  -1.4189410   5.0911682  15.2982677  )

     number of k points=    20  Fermi-Dirac smearing, width (Ry)=  0.0110
                       cart. coord. in units 2pi/alat
        k(    1) = (   0.0000000   0.0000000   0.0000000), wk =   0.0555556
        k(    2) = (   0.0000000   0.0317125   0.0000000), wk =   0.1111111
        k(    3) = (   0.0000000   0.0634251   0.0000000), wk =   0.1111111
        k(    4) = (   0.0000000  -0.0951376   0.0000000), wk =   0.0555556
        k(    5) = (   0.0293719   0.0158563   0.0000000), wk =   0.1111111
        k(    6) = (   0.0293719   0.0475688   0.0000000), wk =   0.1111111
        k(    7) = (   0.0293719   0.0792813   0.0000000), wk =   0.1111111
        k(    8) = (   0.0293719  -0.0792813   0.0000000), wk =   0.1111111
        k(    9) = (   0.0293719  -0.0475688   0.0000000), wk =   0.1111111
        k(   10) = (   0.0293719  -0.0158563   0.0000000), wk =   0.1111111
        k(   11) = (   0.0587439   0.0317125   0.0000000), wk =   0.1111111
        k(   12) = (   0.0587439   0.0634251   0.0000000), wk =   0.1111111
        k(   13) = (   0.0587439   0.0951376   0.0000000), wk =   0.1111111
        k(   14) = (   0.0587439  -0.0634251   0.0000000), wk =   0.1111111
        k(   15) = (   0.0587439  -0.0317125   0.0000000), wk =   0.1111111
        k(   16) = (   0.0587439   0.0000000   0.0000000), wk =   0.1111111
        k(   17) = (  -0.0881158  -0.0475688   0.0000000), wk =   0.0555556
        k(   18) = (  -0.0881158  -0.0158563   0.0000000), wk =   0.1111111
        k(   19) = (  -0.0881158   0.0158563   0.0000000), wk =   0.1111111
        k(   20) = (  -0.0881158  -0.1427064   0.0000000), wk =   0.0555556

     Largest allocated arrays     est. size (Mb)     dimensions
     Largest temporary arrays     est. size (Mb)     dimensions

     Check: negative/imaginary core charge=   -0.000011    0.000000

     Initial potential from superposition of free atoms
     Check: negative starting charge=   -0.753321

     starting charge  155.99948, renormalised to  162.00000

[...]

     *
     * You are using vdW-DF for exchange-correlation in this calculation.
     * Please cite the following three references that made this development
     * possible:
     *
     *   M. Dion, H. Rydberg, E. Schroder, D. C. Langreth, and
     *   B. I. Lundqvist, Phys. Rev. Lett. 92, 246401 (2004).
     *
     *   T. Thonhauser, V. R. Cooper, S. Li, A. Puzder, P. Hyldgaard, and
     *   D. C. Langreth, Phys. Rev. B 76, 125112 (2007).
     *
     *   G. Roman-Perez and J. M. Soler, Phys. Rev. Lett. 103, 096102 (2009).
     *
     *
     * If you are using vdW-DF2, please also cite:
     *
     *   K. Lee, E. D. Murray, L. Kong, B. I. Lundqvist, and
     *   D. C. Langreth, Phys. Rev. B 82, 081101(R) (2010).
     *
     *
     * If you are calculating the stress with vdW-DF, please also cite:
     *
     *   R. Sabatini, E. Kucukbenli, B. Kolb, T. Thonhauser, and
     *   S. de Gironcoli, J. Phys.: Condens. Matter 24, 424209 (2012).
     *

     Carrying out vdW-DF run using the following parameters:

     Nqs =      20    Nr_points =    1024   r_max =   100.000
     q_mesh =
               0.00001000     0.04494208     0.09755937     0.15916263
               0.23128650     0.31572767     0.41458969     0.53033537
               0.66584808     0.82450364     1.01025438     1.22772762
               1.48234092     1.78043706     2.12944203     2.53805004
               3.01644009     3.57652955     4.23227104     5.00000000

     Gradients computed in reciprocal space

[...]

     Starting wfc are  132 randomized atomic wfcs

     Self-consistent Calculation

[...]

     total energy              =   -1705.74518031 Ry
     Harris-Foulkes estimate   =   -1705.74517884 Ry
     estimated scf accuracy    <       0.00000199 Ry

     iteration # 21     ecut=    36.75 Ry     beta=0.10
     Davidson diagonalization with overlap
     ethr =  1.23E-09,  avg # of iterations =  2.0

[...]

     negative rho (up, down):  7.755E-01 0.000E+00

     Adding external electric field

     Computed dipole along edir(3) :
        Dipole                0.1027 Ry au,          0.2611 Debye
        Dipole field          0.0003 Ry au

        Potential amp.       -0.0236 Ry
        Total length         45.6502 bohr

     End of self-consistent calculation

[...]

          k = 0.0587 0.0000 0.0000 ( 18731 PWs)   bands (ev):

[...]

          k =-0.0881-0.1427 0.0000 ( 18774 PWs)   bands (ev):

   -65.7221 -65.7218 -65.3177 -65.3176 -65.1326 -65.1323 -38.7235 -38.7227
   -37.6724 -37.6722 -37.5391 -37.5390 -37.3633 -37.3631 -37.2642 -37.2639
   -37.2413 -37.2412 -37.1411 -37.1408 -37.0556 -37.0554 -36.7827 -36.7825
    -6.6923  -6.6923  -6.4499  -6.4499  -6.3448  -6.3448  -6.2471  -6.2470
    -6.1661  -6.1660  -5.8513  -5.8513  -5.7823  -5.7822  -5.6955  -5.6954
    -5.5685  -5.5661  -5.5198  -5.5195  -5.5000  -5.4992  -5.4570  -5.4556
    -5.3451  -5.3448  -5.2433  -5.2422  -5.1960  -5.1957  -4.9393  -4.9387
    -3.7040  -3.7028  -2.4270  -2.4265  -1.7484  -1.7481  -1.5570  -1.5566
    -1.0234  -1.0234  -0.3894  -0.3892  -0.1103  -0.1102   0.2333   0.2334
     0.4772   0.4773   0.7073   0.7074   0.8265   0.8266   1.0829   1.0829
     1.1623   1.1624   1.5731   1.5732   2.0974   2.0975   2.4672   2.4672
     2.8062   2.8063   2.9570   2.9572   3.6685   3.6688   4.4407   4.4412
     5.1123   5.1126   6.2203   6.2204   6.7958   6.7959   6.9479   6.9480
     7.1137   7.1139   7.4717   7.4719   7.9445   7.9447   8.1363

     the Fermi energy is     1.5157 ev

!    total energy              =   -1705.74518202 Ry
     Harris-Foulkes estimate   =   -1705.74517976 Ry
     estimated scf accuracy    <       0.00000057 Ry

     The total energy is the sum of the following terms:

     one-electron contribution =  -12702.09665706 Ry
     hartree contribution      =    6395.58106504 Ry
     xc contribution           =    -441.29378579 Ry
     ewald contribution        =    5042.13372930 Ry
     electric field correction =       0.00002660 Ry
     smearing contrib. (-TS)   =      -0.06956010 Ry

     convergence has been achieved in  21 iterations

 BEEF-vdW xc energy contributions
           1 :   -386.889690252047
           2 :    356.008102154161
           3 :   -301.654067604599
           4 :    235.693070521133
           5 :   -170.450797519025
           6 :    115.110751817804
           7 :   -73.8538939967274
           8 :    46.0172569658876
           9 :   -27.8857020537845
          10 :    15.0726452061451
          11 :   -4.47898018597732
          12 :   -4.88908369558430
          13 :    12.2842635391678
          14 :   -16.3300377748820
          15 :    16.1704614480150
          16 :   -12.1260402256121
          17 :    5.63509967849933
          18 :    1.33730374103135
          19 :   -7.05790312009213
          20 :    10.5538520997488
          21 :   -11.7196432327804
          22 :    11.0327066802781
          23 :   -9.11114419061244
          24 :    6.37271290170492
          25 :   -2.95947060780952
          26 :   -1.09699968401520
          27 :    5.61893458995570
          28 :   -10.1281407862324
          29 :    13.8985250476646
          30 :   -16.1929735131720
          31 :   -36.2892361576281
          32 :   -26.6794518615019

     Forces acting on atoms (Ry/au):

     negative rho (up, down):  7.755E-01 0.000E+00
     atom    1 type  1   force =     0.00000003    0.01075895    0.03024312
     atom    2 type  1   force =     0.00000008    0.01076289    0.03024448
     atom    3 type  2   force =     0.00000080   -0.01133073   -0.05241370
     atom    4 type  2   force =    -0.00000086   -0.01133132   -0.05241364
     atom    5 type  1   force =     0.00000027   -0.01743009    0.00386746
     atom    6 type  1   force =    -0.00000019   -0.01747859    0.00377775
     atom    7 type  2   force =     0.00004287    0.01935900    0.01802122
     atom    8 type  2   force =    -0.00004255    0.01935885    0.01802180
     atom    9 type  1   force =    -0.00000035   -0.00090145   -0.00045042
     atom   10 type  1   force =     0.00000023   -0.00099630   -0.00051408
     atom   11 type  2   force =    -0.00021103   -0.00038562    0.00080795
     atom   12 type  2   force =     0.00021070   -0.00038557    0.00080806

     Total force =     0.099266     Total SCF correction =     0.001847

     entering subroutine stress ...

     negative rho (up, down):  7.755E-01 0.000E+00
          total   stress  (Ry/bohr**3)                   (kbar)     P=   -8.34
  -0.00006861  -0.00000000   0.00000000        -10.09     -0.00      0.00
  -0.00000000  -0.00013536  -0.00000170         -0.00    -19.91     -0.25
   0.00000000  -0.00000170   0.00003393          0.00     -0.25      4.99

 !ASE

     Writing output data file calc.save

     General routines

     Parallel routines

   This run was terminated on:   0: 3: 7  30Dec2018

   JOB DONE.
Job  /afs/slac/g/suncat/bin/suncat-tsmpirun -x LD_LIBRARY_PATH -wdir /scratch/qe387713_jdWlR pw.x -in pw.inp

TID   HOST_NAME   COMMAND_LINE            STATUS            TERMINATION_TIME
00000 suncat0046 pw.x -in pw.inp   Done                     12/30/2018 00:03:07
00001 suncat0046 pw.x -in pw.inp   Done                     12/30/2018 00:03:07
00002 suncat0046 pw.x -in pw.inp   Done                     12/30/2018 00:03:07
00003 suncat0046 pw.x -in pw.inp   Done                     12/30/2018 00:03:07
00004 suncat0046 pw.x -in pw.inp   Done                     12/30/2018 00:03:07
00005 suncat0046 pw.x -in pw.inp   Done                     12/30/2018 00:03:07
00006 suncat0046 pw.x -in pw.inp   Done                     12/30/2018 00:03:07
00007 suncat0046 pw.x -in pw.inp   Done                     12/30/2018 00:03:07
00008 suncat0044 pw.x -in pw.inp   Done                     12/30/2018 00:03:07
00009 suncat0044 pw.x -in pw.inp   Done                     12/30/2018 00:03:07
00010 suncat0044 pw.x -in pw.inp   Done                     12/30/2018 00:03:07
00011 suncat0044 pw.x -in pw.inp   Done                     12/30/2018 00:03:07
00012 suncat0044 pw.x -in pw.inp   Done                     12/30/2018 00:03:07
00013 suncat0044 pw.x -in pw.inp   Done                     12/30/2018 00:03:07
00014 suncat0044 pw.x -in pw.inp   Done                     12/30/2018 00:03:07
00015 suncat0044 pw.x -in pw.inp   Done                     12/30/2018 00:03:07
00016 suncat0043 pw.x -in pw.inp   Done                     12/30/2018 00:03:07
00017 suncat0043 pw.x -in pw.inp   Done                     12/30/2018 00:03:07
00018 suncat0043 pw.x -in pw.inp   Done                     12/30/2018 00:03:07
00019 suncat0043 pw.x -in pw.inp   Done                     12/30/2018 00:03:07
00020 suncat0043 pw.x -in pw.inp   Done                     12/30/2018 00:03:07
00021 suncat0043 pw.x -in pw.inp   Done                     12/30/2018 00:03:07
00022 suncat0043 pw.x -in pw.inp   Done                     12/30/2018 00:03:07
00023 suncat0043 pw.x -in pw.inp   Done                     12/30/2018 00:03:07
00024 suncat0025 pw.x -in pw.inp   Done                     12/30/2018 00:03:07
00025 suncat0025 pw.x -in pw.inp   Done                     12/30/2018 00:03:07
00026 suncat0025 pw.x -in pw.inp   Done                     12/30/2018 00:03:07
00027 suncat0025 pw.x -in pw.inp   Done                     12/30/2018 00:03:07
00028 suncat0025 pw.x -in pw.inp   Done                     12/30/2018 00:03:07
00029 suncat0025 pw.x -in pw.inp   Done                     12/30/2018 00:03:07
00030 suncat0025 pw.x -in pw.inp   Done                     12/30/2018 00:03:07
00031 suncat0025 pw.x -in pw.inp   Done                     12/30/2018 00:03:07
00032 suncat0013 pw.x -in pw.inp   Done                     12/30/2018 00:03:07
00033 suncat0013 pw.x -in pw.inp   Done                     12/30/2018 00:03:07
00034 suncat0013 pw.x -in pw.inp   Done                     12/30/2018 00:03:07
00035 suncat0013 pw.x -in pw.inp   Done                     12/30/2018 00:03:07
00036 suncat0013 pw.x -in pw.inp   Done                     12/30/2018 00:03:07
00037 suncat0013 pw.x -in pw.inp   Done                     12/30/2018 00:03:07
00038 suncat0013 pw.x -in pw.inp   Done                     12/30/2018 00:03:07
00039 suncat0013 pw.x -in pw.inp   Done                     12/30/2018 00:03:07
00040 suncat0008 pw.x -in pw.inp   Done                     12/30/2018 00:03:07
00041 suncat0008 pw.x -in pw.inp   Done                     12/30/2018 00:03:07
00042 suncat0008 pw.x -in pw.inp   Done                     12/30/2018 00:03:07
00043 suncat0008 pw.x -in pw.inp   Done                     12/30/2018 00:03:07
00044 suncat0008 pw.x -in pw.inp   Done                     12/30/2018 00:03:07
00045 suncat0008 pw.x -in pw.inp   Done                     12/30/2018 00:03:07
00046 suncat0008 pw.x -in pw.inp   Done                     12/30/2018 00:03:07
00047 suncat0008 pw.x -in pw.inp   Done                     12/30/2018 00:03:07
00048 suncat0178 pw.x -in pw.inp   Done                     12/30/2018 00:03:07
00049 suncat0178 pw.x -in pw.inp   Done                     12/30/2018 00:03:07
00050 suncat0178 pw.x -in pw.inp   Done                     12/30/2018 00:03:07
00051 suncat0178 pw.x -in pw.inp   Done                     12/30/2018 00:03:07
00052 suncat0178 pw.x -in pw.inp   Done                     12/30/2018 00:03:07
00053 suncat0178 pw.x -in pw.inp   Done                     12/30/2018 00:03:07
00054 suncat0178 pw.x -in pw.inp   Done                     12/30/2018 00:03:07
00055 suncat0178 pw.x -in pw.inp   Done                     12/30/2018 00:03:07
00056 suncat0177 pw.x -in pw.inp   Done                     12/30/2018 00:03:07
00057 suncat0177 pw.x -in pw.inp   Done                     12/30/2018 00:03:07
00058 suncat0177 pw.x -in pw.inp   Done                     12/30/2018 00:03:07
00059 suncat0177 pw.x -in pw.inp   Done                     12/30/2018 00:03:07
00060 suncat0177 pw.x -in pw.inp   Done                     12/30/2018 00:03:07
00061 suncat0177 pw.x -in pw.inp   Done                     12/30/2018 00:03:07
00062 suncat0177 pw.x -in pw.inp   Done                     12/30/2018 00:03:07
00063 suncat0177 pw.x -in pw.inp   Done                     12/30/2018 00:03:07