     Program PWSCF v.5.1rc2 (svn rev. 11289) starts on 18Dec2018 at 16:49:54

     Current dimensions of program PWSCF are:
     Max number of different atomic species (ntypx) = 10
     Max number of k-points (npk) =  40000
     Max angular momentum in pseudopotentials (lmaxx) =  3
     Presently stress not available with electric field

     IMPORTANT: XC functional enforced from input :
     Exchange-correlation      = BEEF-VDW ( 1  4 27 13 2)
     Any further DFT definition will be discarded
     Please, verify this is what you really want

     Subspace diagonalization in iterative solution of the eigenvalue problem:
     a serial algorithm will be used

     Found symmetry operation: I + ( -0.5000 -0.5000  0.0000)
     This is a supercell, fractional translations are disabled

     bravais-lattice index     =            0
     lattice parameter (alat)  =       1.8897  a.u.
     unit-cell volume          =    5159.4629 (a.u.)^3
     number of atoms/cell      =           12
     number of atomic types    =            2
     number of electrons       =        90.00
     number of Kohn-Sham states=           75
     kinetic-energy cutoff     =      36.7493  Ry
     charge density cutoff     =     367.4932  Ry
     convergence threshold     =      1.0E-06
     mixing beta               =       0.1000
     number of iterations used =           10  plain     mixing
     Exchange-correlation      = BEEF-VDW ( 1  4 27 13 2)
     nstep                     =           50

     celldm(1)=   1.889726  celldm(2)=   0.000000  celldm(3)=   0.000000
     celldm(4)=   0.000000  celldm(5)=   0.000000  celldm(6)=   0.000000

     crystal axes: (cart. coord. in units of alat)
               a(1) = (   5.937025   0.000000   0.000000 )
               a(2) = (   2.902484   5.179175   0.000000 )
               a(3) = (   0.000000   0.000000  24.864428 )

     reciprocal axes: (cart. coord. in units 2 pi/alat)
               b(1) = (  0.168435 -0.094393  0.000000 )
               b(2) = (  0.000000  0.193081  0.000000 )
               b(3) = (  0.000000  0.000000  0.040218 )

     PseudoPot. # 1 for Al read from file:
     /afs/slac.stanford.edu/u/if/mamunm/psp/gbrv1.5pbe/Al.UPF
     MD5 check sum: 0a6289f5291fc8f409219462bc851e1f
     Pseudo is Ultrasoft + core correction, Zval =  3.0
     Generated by new atomic code, or converted to UPF format
     Using radial grid of  893 points,  3 beta functions with:
                l(1) =   0
                l(2) =   1
                l(3) =   2
     Q(r) pseudized with  8 coefficients,  rinner =    0.900   0.900   0.900
                                                       0.900   0.900

     PseudoPot. # 2 for Hf read from file:
     /afs/slac.stanford.edu/u/if/mamunm/psp/gbrv1.5pbe/Hf.UPF
     MD5 check sum: 8ee9378dfe14276e333edf04c5e4aa26
     Pseudo is Ultrasoft + core correction, Zval = 12.0
     Generated by new atomic code, or converted to UPF format
     Using radial grid of  921 points,  8 beta functions with:
                l(1) =   0
                l(2) =   0
                l(3) =   0
                l(4) =   1
                l(5) =   1
                l(6) =   2
                l(7) =   2
                l(8) =   3
     Q(r) pseudized with  6 coefficients,  rinner =    1.200   1.200   1.200
                                                       1.200   1.200   1.200
                                                       1.200

     vdW kernel table read from file vdW_kernel_table
     MD5 check sum: 095c7af220d748ca6e76c0b4c6cfb241

     atomic species   valence    mass     pseudopotential
        Al1            3.00    26.98154     Al( 1.00)
        Hf1           12.00   178.49000     Hf( 1.00)

     No symmetry found

   Cartesian axes

     site n.     atom                  positions (alat units)
         1           Al1 tau(   1) = (   0.0000000   0.0000000  10.0000000  )
         2           Al1 tau(   2) = (   4.4197545   2.5895873  10.0000000  )
         3           Hf1 tau(   3) = (   2.9685124   0.0000000  10.0000000  )
         4           Hf1 tau(   4) = (   1.4512421   2.5895873  10.0000000  )
         5           Al1 tau(   5) = (   5.9370249   3.4785743  12.4322139  )
         6           Al1 tau(   6) = (   1.5172704   0.8889870  12.4322139  )
         7           Hf1 tau(   7) = (   2.9685124   3.4785743  12.4322139  )
         8           Hf1 tau(   8) = (   4.4857828   0.8889870  12.4322139  )
         9           Al1 tau(   9) = (   3.0345407   1.7779739  14.8644279  )
        10           Al1 tau(  10) = (   7.4542952   4.3675612  14.8644279  )
        11           Hf1 tau(  11) = (   6.0030532   1.7779739  14.8644279  )
        12           Hf1 tau(  12) = (   4.4857828   4.3675612  14.8644279  )

     number of k points=    20  Fermi-Dirac smearing, width (Ry)=  0.0110
                       cart. coord. in units 2pi/alat
        k(    1) = (   0.0000000   0.0000000   0.0000000), wk =   0.0555556
        k(    2) = (   0.0000000   0.0321802   0.0000000), wk =   0.1111111
        k(    3) = (   0.0000000   0.0643603   0.0000000), wk =   0.1111111
        k(    4) = (   0.0000000  -0.0965405   0.0000000), wk =   0.0555556
        k(    5) = (   0.0280724  -0.0157322   0.0000000), wk =   0.1111111
        k(    6) = (   0.0280724   0.0164480   0.0000000), wk =   0.1111111
        k(    7) = (   0.0280724   0.0486281   0.0000000), wk =   0.1111111
        k(    8) = (   0.0280724  -0.1122727   0.0000000), wk =   0.1111111
        k(    9) = (   0.0280724  -0.0800925   0.0000000), wk =   0.1111111
        k(   10) = (   0.0280724  -0.0479123   0.0000000), wk =   0.1111111
        k(   11) = (   0.0561448  -0.0314644   0.0000000), wk =   0.1111111
        k(   12) = (   0.0561448   0.0007158   0.0000000), wk =   0.1111111
        k(   13) = (   0.0561448   0.0328959   0.0000000), wk =   0.1111111
        k(   14) = (   0.0561448  -0.1280049   0.0000000), wk =   0.1111111
        k(   15) = (   0.0561448  -0.0958247   0.0000000), wk =   0.1111111
        k(   16) = (   0.0561448  -0.0636445   0.0000000), wk =   0.1111111
        k(   17) = (  -0.0842173   0.0471966   0.0000000), wk =   0.0555556
        k(   18) = (  -0.0842173   0.0793767   0.0000000), wk =   0.1111111
        k(   19) = (  -0.0842173   0.1115569   0.0000000), wk =   0.1111111
        k(   20) = (  -0.0842173  -0.0493439   0.0000000), wk =   0.0555556

     Largest allocated arrays     est. size (Mb)     dimensions
     Largest temporary arrays     est. size (Mb)     dimensions

     Check: negative/imaginary core charge=   -0.000003    0.000000

     Initial potential from superposition of free atoms
     Check: negative starting charge=   -0.646666

     starting charge   77.98520, renormalised to   90.00000

     negative rho (up, down):  7.463E-01 0.000E+00

     *
     * You are using vdW-DF for exchange-correlation in this calculation.
     * Please cite the following three references that made this development
     * possible:
     *
     *   M. Dion, H. Rydberg, E. Schroder, D. C. Langreth, and
     *   B. I. Lundqvist, Phys. Rev. Lett. 92, 246401 (2004).
     *
     *   T. Thonhauser, V. R. Cooper, S. Li, A. Puzder, P. Hyldgaard, and
     *   D. C. Langreth, Phys. Rev. B 76, 125112 (2007).
     *
     *   G. Roman-Perez and J. M. Soler, Phys. Rev. Lett. 103, 096102 (2009).
     *
     *
     * If you are using vdW-DF2, please also cite:
     *
     *   K. Lee, E. D. Murray, L. Kong, B. I. Lundqvist, and
     *   D. C. Langreth, Phys. Rev. B 82, 081101(R) (2010).
     *
     *
     * If you are calculating the stress with vdW-DF, please also cite:
     *
     *   R. Sabatini, E. Kucukbenli, B. Kolb, T. Thonhauser, and
     *   S. de Gironcoli, J. Phys.: Condens. Matter 24, 424209 (2012).
     *

     Carrying out vdW-DF run using the following parameters:

     Nqs =      20    Nr_points =    1024   r_max =   100.000
     q_mesh =
               0.00001000     0.04494208     0.09755937     0.15916263
               0.23128650     0.31572767     0.41458969     0.53033537
               0.66584808     0.82450364     1.01025438     1.22772762
               1.48234092     1.78043706     2.12944203     2.53805004
               3.01644009     3.57652955     4.23227104     5.00000000

     Gradients computed in reciprocal space

     Adding external electric field

     Computed dipole along edir(3) :
        Dipole               -0.0000 Ry au,         -0.0000 Debye
        Dipole field         -0.0000 Ry au

        Potential amp.        0.0000 Ry
        Total length         45.8123 bohr

     Starting wfc are  102 randomized atomic wfcs

     Self-consistent Calculation

     iteration #  1     ecut=    36.75 Ry     beta=0.10
     Davidson diagonalization with overlap
     ethr =  1.00E-02,  avg # of iterations =  7.5

[...]

     total energy              =   -1008.92525752 Ry
     Harris-Foulkes estimate   =   -1012.17459533 Ry
     estimated scf accuracy    <      19.09403229 Ry

[...]

     End of self-consistent calculation

          k = 0.0000 0.0000 0.0000 ( 19375 PWs)   bands (ev):

   -62.0838 -62.0835 -62.0455 -62.0452 -61.4803 -61.4407 -30.8091 -30.7992
   -30.7973 -30.7758 -30.7335 -30.7005 -30.6551 -30.6106 -30.5780 -30.5355
   -30.3465 -30.1650 -30.1438 -30.1426 -30.0819 -29.9654 -29.8927 -29.6706
    -8.0596  -6.5080  -5.1069  -4.5216  -3.4566  -3.3334  -2.4109  -2.3666
    -2.1808  -2.1494  -1.7777  -1.4159  -1.2447  -0.7180  -0.5857  -0.5815
    -0.3160  -0.2169   0.2449   0.2960   0.5092   0.6705   0.7207   0.8211
     0.8796   0.9984   1.2237   1.3947   2.0112   2.1839   2.2689   2.4761
     2.8722   3.2153   3.5021   3.9467   3.9478   3.9559   4.0248   4.0526
     4.1094   4.1278   4.1813   4.2214   4.3322   4.6290   5.0434   5.3627
     5.4266   5.4879   5.5393

[...]

          k =-0.0842 0.0472 0.0000 ( 19448 PWs)   bands (ev):

[...]

     the Fermi energy is     0.5165 ev

!    total energy              =   -1004.74901161 Ry
     Harris-Foulkes estimate   =   -1004.74901154 Ry
     estimated scf accuracy    <       0.00000086 Ry

     The total energy is the sum of the following terms:

     one-electron contribution =   -3896.12794235 Ry
     hartree contribution      =    1941.89234236 Ry
     xc contribution           =    -490.86660815 Ry
     ewald contribution        =    1440.41189062 Ry
     electric field correction =       0.00000001 Ry
     smearing contrib. (-TS)   =      -0.05869410 Ry

     convergence has been achieved in  17 iterations

 BEEF-vdW xc energy contributions
           1 :   -441.780599679570
           2 :    409.277948676438
           3 :   -352.317459205019
           4 :    283.455514572968
           5 :   -215.031670472530
           6 :    155.586405035818
           7 :   -108.834121654102
           8 :    74.7977354991327
           9 :   -51.7348041187776
          10 :    37.5153899080864
          11 :   -30.0348330624370
          12 :    27.0373274403522
          13 :   -26.0196391346043
          14 :    24.5430335152487
          15 :   -20.8390241035123
          16 :    14.3125467625872
          17 :   -5.64648664504296
          18 :   -3.54999897216612
[...]
00025 suncat0066 pw.x -in pw.inp   Done                     12/18/2018 17:01:58
00026 suncat0066 pw.x -in pw.inp   Done                     12/18/2018 17:01:58
00027 suncat0066 pw.x -in pw.inp   Done                     12/18/2018 17:01:58
00028 suncat0066 pw.x -in pw.inp   Done                     12/18/2018 17:01:58
00029 suncat0066 pw.x -in pw.inp   Done                     12/18/2018 17:01:58
00030 suncat0066 pw.x -in pw.inp   Done                     12/18/2018 17:01:58
00031 suncat0066 pw.x -in pw.inp   Done                     12/18/2018 17:01:58

     Program PWSCF v.5.1rc2 (svn rev. 11289) starts on 18Dec2018 at 17: 2: 4

[...]

   This run was terminated on:  17:13:59  18Dec2018

[...]

     Program PWSCF v.5.1rc2 (svn rev. 11289) starts on 18Dec2018 at 17:14: 5

     Current dimensions of program PWSCF are:
     Max number of different atomic species (ntypx) = 10
     Max number of k-points (npk) =  40000
     Max angular momentum in pseudopotentials (lmaxx) =  3
     Presently stress not available with electric field

     IMPORTANT: XC functional enforced from input :
     Exchange-correlation      = BEEF-VDW ( 1  4 27 13 2)
     Any further DFT definition will be discarded
     Please, verify this is what you really want

     Subspace diagonalization in iterative solution of the eigenvalue problem:
     a serial algorithm will be used

     Found symmetry operation: I + ( -0.5000 -0.5000  0.0000)
     This is a supercell, fractional translations are disabled

     bravais-lattice index     =            0
     lattice parameter (alat)  =       1.8897  a.u.
     unit-cell volume          =    5159.4629 (a.u.)^3
     number of atoms/cell      =           12
     number of atomic types    =            2
     number of electrons       =        90.00
     number of Kohn-Sham states=           75
     kinetic-energy cutoff     =      36.7493  Ry
     charge density cutoff     =     367.4932  Ry
     convergence threshold     =      1.0E-06
     mixing beta               =       0.1000
     number of iterations used =           10  plain     mixing
     Exchange-correlation      = BEEF-VDW ( 1  4 27 13 2)
     nstep                     =           50

     celldm(1)=   1.889726  celldm(2)=   0.000000  celldm(3)=   0.000000
     celldm(4)=   0.000000  celldm(5)=   0.000000  celldm(6)=   0.000000

     crystal axes: (cart. coord. in units of alat)
               a(1) = (   5.937025   0.000000   0.000000 )
               a(2) = (   2.902484   5.179175   0.000000 )
               a(3) = (   0.000000   0.000000  24.864428 )

     reciprocal axes: (cart. coord. in units 2 pi/alat)
               b(1) = (  0.168435 -0.094393  0.000000 )
               b(2) = (  0.000000  0.193081  0.000000 )
               b(3) = (  0.000000  0.000000  0.040218 )

     PseudoPot. # 1 for Al read from file:
     /afs/slac.stanford.edu/u/if/mamunm/psp/gbrv1.5pbe/Al.UPF
     MD5 check sum: 0a6289f5291fc8f409219462bc851e1f
     Pseudo is Ultrasoft + core correction, Zval =  3.0
     Generated by new atomic code, or converted to UPF format
     Using radial grid of  893 points,  3 beta functions with:
                l(1) =   0
                l(2) =   1
                l(3) =   2
     Q(r) pseudized with  8 coefficients,  rinner =    0.900   0.900   0.900
                                                       0.900   0.900

     PseudoPot. # 2 for Hf read from file:
     /afs/slac.stanford.edu/u/if/mamunm/psp/gbrv1.5pbe/Hf.UPF
     MD5 check sum: 8ee9378dfe14276e333edf04c5e4aa26
     Pseudo is Ultrasoft + core correction, Zval = 12.0
     Generated by new atomic code, or converted to UPF format
     Using radial grid of  921 points,  8 beta functions with:
                l(1) =   0
                l(2) =   0
                l(3) =   0
                l(4) =   1
                l(5) =   1
                l(6) =   2
                l(7) =   2
                l(8) =   3
     Q(r) pseudized with  6 coefficients,  rinner =    1.200   1.200   1.200
                                                       1.200   1.200   1.200
                                                       1.200

     vdW kernel table read from file vdW_kernel_table
     MD5 check sum: 095c7af220d748ca6e76c0b4c6cfb241

     atomic species   valence    mass     pseudopotential
        Al1            3.00    26.98154     Al( 1.00)
        Hf1           12.00   178.49000     Hf( 1.00)

     No symmetry found

   Cartesian axes

     site n.     atom                  positions (alat units)
         1           Al1 tau(   1) = (   0.0000000   0.0000000  10.0000000  )
         2           Al1 tau(   2) = (   4.4197545   2.5895873  10.0000000  )
         3           Hf1 tau(   3) = (   2.9685124   0.0000000  10.0000000  )
         4           Hf1 tau(   4) = (   1.4512421   2.5895873  10.0000000  )
         5           Al1 tau(   5) = (   5.9370249   3.4785743  12.4322139  )
         6           Al1 tau(   6) = (   1.5172704   0.8889870  12.4322139  )
         7           Hf1 tau(   7) = (   2.9685124   3.4785743  12.4322139  )
         8           Hf1 tau(   8) = (   4.4857828   0.8889870  12.4322139  )
         9           Al1 tau(   9) = (   3.0126961   1.7651701  14.8910046  )
        10           Al1 tau(  10) = (   7.4324472   4.3547645  14.8910046  )
        11           Hf1 tau(  11) = (   6.0216394   1.7888570  14.8232055  )
        12           Hf1 tau(  12) = (   4.5043777   4.3784617  14.8231611  )

     number of k points=    20  Fermi-Dirac smearing, width (Ry)=  0.0110
                       cart. coord. in units 2pi/alat
        k(    1) = (   0.0000000   0.0000000   0.0000000), wk =   0.0555556
        k(    2) = (   0.0000000   0.0321802   0.0000000), wk =   0.1111111
        k(    3) = (   0.0000000   0.0643603   0.0000000), wk =   0.1111111
        k(    4) = (   0.0000000  -0.0965405   0.0000000), wk =   0.0555556
        k(    5) = (   0.0280724  -0.0157322   0.0000000), wk =   0.1111111
        k(    6) = (   0.0280724   0.0164480   0.0000000), wk =   0.1111111
        k(    7) = (   0.0280724   0.0486281   0.0000000), wk =   0.1111111
        k(    8) = (   0.0280724  -0.1122727   0.0000000), wk =   0.1111111
        k(    9) = (   0.0280724  -0.0800925   0.0000000), wk =   0.1111111
        k(   10) = (   0.0280724  -0.0479123   0.0000000), wk =   0.1111111
        k(   11) = (   0.0561448  -0.0314644   0.0000000), wk =   0.1111111
        k(   12) = (   0.0561448   0.0007158   0.0000000), wk =   0.1111111
        k(   13) = (   0.0561448   0.0328959   0.0000000), wk =   0.1111111
        k(   14) = (   0.0561448  -0.1280049   0.0000000), wk =   0.1111111
        k(   15) = (   0.0561448  -0.0958247   0.0000000), wk =   0.1111111
        k(   16) = (   0.0561448  -0.0636445   0.0000000), wk =   0.1111111
        k(   17) = (  -0.0842173   0.0471966   0.0000000), wk =   0.0555556
        k(   18) = (  -0.0842173   0.0793767   0.0000000), wk =   0.1111111
        k(   19) = (  -0.0842173   0.1115569   0.0000000), wk =   0.1111111
        k(   20) = (  -0.0842173  -0.0493439   0.0000000), wk =   0.0555556

     Largest allocated arrays     est. size (Mb)     dimensions
     Largest temporary arrays     est. size (Mb)     dimensions

     Check: negative/imaginary core charge=   -0.000003    0.000000

     Initial potential from superposition of free atoms
     Check: negative starting charge=   -0.644036

     starting charge   77.98520, renormalised to   90.00000

[...]

     *
     * You are using vdW-DF for exchange-correlation in this calculation.
     * Please cite the following three references that made this development
     * possible:
     *
     *   M. Dion, H. Rydberg, E. Schroder, D. C. Langreth, and
     *   B. I. Lundqvist, Phys. Rev. Lett. 92, 246401 (2004).
     *
     *   T. Thonhauser, V. R. Cooper, S. Li, A. Puzder, P. Hyldgaard, and
     *   D. C. Langreth, Phys. Rev. B 76, 125112 (2007).
     *
     *   G. Roman-Perez and J. M. Soler, Phys. Rev. Lett. 103, 096102 (2009).
     *
     *
     * If you are using vdW-DF2, please also cite:
     *
     *   K. Lee, E. D. Murray, L. Kong, B. I. Lundqvist, and
     *   D. C. Langreth, Phys. Rev. B 82, 081101(R) (2010).
     *
     *
     * If you are calculating the stress with vdW-DF, please also cite:
     *
     *   R. Sabatini, E. Kucukbenli, B. Kolb, T. Thonhauser, and
     *   S. de Gironcoli, J. Phys.: Condens. Matter 24, 424209 (2012).
     *

     Carrying out vdW-DF run using the following parameters:

     Nqs =      20    Nr_points =    1024   r_max =   100.000
     q_mesh =
               0.00001000     0.04494208     0.09755937     0.15916263
               0.23128650     0.31572767     0.41458969     0.53033537
               0.66584808     0.82450364     1.01025438     1.22772762
               1.48234092     1.78043706     2.12944203     2.53805004
               3.01644009     3.57652955     4.23227104     5.00000000

     Gradients computed in reciprocal space

[...]

     Starting wfc are  102 randomized atomic wfcs

     Self-consistent Calculation

[...]

     total energy              =   -1004.75067589 Ry
     Harris-Foulkes estimate   =   -1004.75067763 Ry
     estimated scf accuracy    <       0.00000576 Ry

     iteration # 17     ecut=    36.75 Ry     beta=0.10
     Davidson diagonalization with overlap
     ethr =  6.40E-09,  avg # of iterations =  2.0

[...]

     negative rho (up, down):  6.838E-01 0.000E+00

     Adding external electric field

     Computed dipole along edir(3) :
        Dipole               -0.0054 Ry au,         -0.0136 Debye
        Dipole field         -0.0000 Ry au

        Potential amp.        0.0012 Ry
        Total length         45.8123 bohr

     End of self-consistent calculation

[...]

          k = 0.0561-0.0636 0.0000 ( 19420 PWs)   bands (ev):

[...]

          k =-0.0842-0.0493 0.0000 ( 19396 PWs)   bands (ev):

   -62.0989 -62.0607 -62.0439 -62.0056 -61.5039 -61.4644 -30.8171 -30.8133
   -30.7709 -30.7536 -30.7384 -30.6780 -30.6610 -30.5957 -30.5772 -30.5155
   -30.3692 -30.1832 -30.1575 -30.1129 -30.1017 -29.9795 -29.9091 -29.6942
    -6.6695  -6.3078  -4.8455  -4.6978  -4.0202  -3.9145  -3.3668  -3.0518
    -2.7655  -2.4433  -2.2909  -2.0398  -1.5376  -1.3993  -1.1106  -1.1065
    -0.5427  -0.3125  -0.2757  -0.1303   0.3044   0.5869   1.1831   1.4169
     1.5773   1.9876   2.1169   2.3922   2.4890   2.5908   2.7233   3.2771
     3.3377   3.4965   3.6493   3.7486   3.9093   4.2469   4.3205   4.3846
     4.6822   4.7152   4.8007   5.0503   5.0873   5.3272   5.4271   5.6062
     5.6841   5.7872   6.1109

     the Fermi energy is     0.5041 ev

!    total energy              =   -1004.75067750 Ry
     Harris-Foulkes estimate   =   -1004.75067712 Ry
     estimated scf accuracy    <       0.00000053 Ry

     The total energy is the sum of the following terms:

     one-electron contribution =   -3910.41408319 Ry
     hartree contribution      =    1949.04358535 Ry
     xc contribution           =    -490.88659174 Ry
     ewald contribution        =    1447.56547888 Ry
     electric field correction =       0.00000007 Ry
     smearing contrib. (-TS)   =      -0.05906687 Ry

     convergence has been achieved in  17 iterations

 BEEF-vdW xc energy contributions
           1 :   -441.800389026386
           2 :    409.302680732337
           3 :   -352.346085200251
           4 :    283.479903643358
           5 :   -215.043013992497
           6 :    155.583364104243
           7 :   -108.825154726108
           8 :    74.7951490987575
           9 :   -51.7457205216672
          10 :    37.5373818422221
          11 :   -30.0593960252974
          12 :    27.0576392793467
          13 :   -26.0363094727206
          14 :    24.5628911977107
          15 :   -20.8683461650017
          16 :    14.3511862021492
          17 :   -5.68773350823170
          18 :   -3.51472823721787
          19 :    11.3414050000613
          20 :   -16.2292982109454
          21 :    17.4459482588106
          22 :   -15.2704000688101
          23 :    10.8380346004826
          24 :   -5.72386480102165
          25 :    1.42780008781386
          26 :    1.02788835982864
          27 :   -1.25699190903941
          28 :  -0.566387891436818
          29 :    3.88089571579297
          30 :   -7.88321121079758
          31 :   -33.3754009813932
          32 :   -24.0758094485291

     Forces acting on atoms (Ry/au):

     negative rho (up, down):  6.838E-01 0.000E+00
     atom    1 type  1   force =     0.00724306    0.00424332   -0.00535793
     atom    2 type  1   force =     0.00724253    0.00424403   -0.00535819
     atom    3 type  2   force =    -0.00613797   -0.00359555    0.00887254
     atom    4 type  2   force =    -0.00613776   -0.00359690    0.00885937
     atom    5 type  1   force =     0.00042879    0.00025473   -0.00466903
     atom    6 type  1   force =     0.00043207    0.00024960   -0.00466972
     atom    7 type  2   force =    -0.00211156   -0.00123598   -0.00014879
     atom    8 type  2   force =    -0.00214965   -0.00126105   -0.00017676
     atom    9 type  1   force =     0.00103480    0.00060748    0.00148696
     atom   10 type  1   force =     0.00103533    0.00060530    0.00148695
     atom   11 type  2   force =    -0.00043796   -0.00025444   -0.00016073
     atom   12 type  2   force =    -0.00044170   -0.00026055   -0.00016468

     Total force =     0.022825     Total SCF correction =     0.001360

     entering subroutine stress ...

     negative rho (up, down):  6.838E-01 0.000E+00
          total   stress  (Ry/bohr**3)                   (kbar)     P=   -9.82
  -0.00010148  -0.00002161  -0.00000152        -14.93     -3.18     -0.22
  -0.00002161  -0.00007726  -0.00000089         -3.18    -11.37     -0.13
  -0.00000152  -0.00000089  -0.00002146         -0.22     -0.13     -3.16

 !ASE

     Writing output data file calc.save

     General routines

     Parallel routines

   This run was terminated on:  17:25:47  18Dec2018

   JOB DONE.
Job  /afs/slac/g/suncat/bin/suncat-tsmpirun -x LD_LIBRARY_PATH -wdir /scratch/qe529584_448aD pw.x -in pw.inp

TID   HOST_NAME   COMMAND_LINE            STATUS            TERMINATION_TIME
00000 suncat0070 pw.x -in pw.inp   Done                     12/18/2018 17:25:47
00001 suncat0070 pw.x -in pw.inp   Done                     12/18/2018 17:25:47
00002 suncat0070 pw.x -in pw.inp   Done                     12/18/2018 17:25:47
00003 suncat0070 pw.x -in pw.inp   Done                     12/18/2018 17:25:47
00004 suncat0070 pw.x -in pw.inp   Done                     12/18/2018 17:25:47
00005 suncat0070 pw.x -in pw.inp   Done                     12/18/2018 17:25:47
00006 suncat0070 pw.x -in pw.inp   Done                     12/18/2018 17:25:47
00007 suncat0070 pw.x -in pw.inp   Done                     12/18/2018 17:25:47
00008 suncat0069 pw.x -in pw.inp   Done                     12/18/2018 17:25:47
00009 suncat0069 pw.x -in pw.inp   Done                     12/18/2018 17:25:47
00010 suncat0069 pw.x -in pw.inp   Done                     12/18/2018 17:25:47
00011 suncat0069 pw.x -in pw.inp   Done                     12/18/2018 17:25:47
00012 suncat0069 pw.x -in pw.inp   Done                     12/18/2018 17:25:47
00013 suncat0069 pw.x -in pw.inp   Done                     12/18/2018 17:25:47
00014 suncat0069 pw.x -in pw.inp   Done                     12/18/2018 17:25:47
00015 suncat0069 pw.x -in pw.inp   Done                     12/18/2018 17:25:47
00016 suncat0068 pw.x -in pw.inp   Done                     12/18/2018 17:25:47
00017 suncat0068 pw.x -in pw.inp   Done                     12/18/2018 17:25:47
00018 suncat0068 pw.x -in pw.inp   Done                     12/18/2018 17:25:47
00019 suncat0068 pw.x -in pw.inp   Done                     12/18/2018 17:25:47
00020 suncat0068 pw.x -in pw.inp   Done                     12/18/2018 17:25:47
00021 suncat0068 pw.x -in pw.inp   Done                     12/18/2018 17:25:47
00022 suncat0068 pw.x -in pw.inp   Done                     12/18/2018 17:25:47
00023 suncat0068 pw.x -in pw.inp   Done                     12/18/2018 17:25:47
00024 suncat0066 pw.x -in pw.inp   Done                     12/18/2018 17:25:47
00025 suncat0066 pw.x -in pw.inp   Done                     12/18/2018 17:25:47
00026 suncat0066 pw.x -in pw.inp   Done                     12/18/2018 17:25:47
00027 suncat0066 pw.x -in pw.inp   Done                     12/18/2018 17:25:47
00028 suncat0066 pw.x -in pw.inp   Done                     12/18/2018 17:25:47
00029 suncat0066 pw.x -in pw.inp   Done                     12/18/2018 17:25:47
00030 suncat0066 pw.x -in pw.inp   Done                     12/18/2018 17:25:47
00031 suncat0066 pw.x -in pw.inp   Done                     12/18/2018 17:25:47