     Program PWSCF v.5.1rc2 (svn rev. 11289) starts on 24Dec2018 at 20:58:10

     Current dimensions of program PWSCF are:
     Max number of different atomic species (ntypx) = 10
     Max number of k-points (npk) =  40000
     Max angular momentum in pseudopotentials (lmaxx) =  3
     Presently stress not available with electric field

     IMPORTANT: XC functional enforced from input :
     Exchange-correlation      = BEEF-VDW ( 1  4 27 13 2)
     Any further DFT definition will be discarded
     Please, verify this is what you really want

     Subspace diagonalization in iterative solution of the eigenvalue problem:
     a serial algorithm will be used

     Found symmetry operation: I + ( -0.5000 -0.5000  0.0000)
     This is a supercell, fractional translations are disabled

     bravais-lattice index     =            0
     lattice parameter (alat)  =       1.8897  a.u.
     unit-cell volume          =    4988.7960 (a.u.)^3
     number of atoms/cell      =           12
     number of atomic types    =            2
     number of electrons       =       168.00
     number of Kohn-Sham states=          114
     kinetic-energy cutoff     =      36.7493  Ry
     charge density cutoff     =     367.4932  Ry
     convergence threshold     =      1.0E-06
     mixing beta               =       0.1000
     number of iterations used =           10  plain     mixing
     Exchange-correlation      = BEEF-VDW ( 1  4 27 13 2)
     nstep                     =           50

     celldm(1)=   1.889726  celldm(2)=   0.000000  celldm(3)=   0.000000
     celldm(4)=   0.000000  celldm(5)=   0.000000  celldm(6)=   0.000000

     crystal axes: (cart. coord. in units of alat)
               a(1) = (   5.649520   0.000000   0.000000 )
               a(2) = (   1.916921   5.314367   0.000000 )
               a(3) = (   0.000000   0.000000  24.622722 )

     reciprocal axes: (cart. coord. in units 2 pi/alat)
               b(1) = (  0.177006 -0.063847  0.000000 )
               b(2) = (  0.000000  0.188169  0.000000 )
               b(3) = (  0.000000  0.000000  0.040613 )

     PseudoPot. # 1 for Hf read from file:
     /afs/slac.stanford.edu/u/if/mamunm/psp/gbrv1.5pbe/Hf.UPF
     MD5 check sum: 8ee9378dfe14276e333edf04c5e4aa26
     Pseudo is Ultrasoft + core correction, Zval = 12.0
     Generated by new atomic code, or converted to UPF format
     Using radial grid of  921 points,  8 beta functions with:
                l(1) =   0
                l(2) =   0
                l(3) =   0
                l(4) =   1
                l(5) =   1
                l(6) =   2
                l(7) =   2
                l(8) =   3
     Q(r) pseudized with  6 coefficients,  rinner =    1.200   1.200   1.200
                                                       1.200   1.200   1.200
                                                       1.200

     PseudoPot. # 2 for Os read from file:
     /afs/slac.stanford.edu/u/if/mamunm/psp/gbrv1.5pbe/Os.UPF
     MD5 check sum: a3fb40a04f0c37c25c34bbc47164c9a8
     Pseudo is Ultrasoft + core correction, Zval = 16.0
     Generated by new atomic code, or converted to UPF format
     Using radial grid of  983 points,  8 beta functions with:
                l(1) =   0
                l(2) =   0
                l(3) =   1
                l(4) =   1
                l(5) =   2
                l(6) =   2
                l(7) =   3
                l(8) =   3
     Q(r) pseudized with  8 coefficients,  rinner =    1.150   1.150   1.150
                                                       1.150   1.150   1.150
                                                       1.150

     vdW kernel table read from file vdW_kernel_table
     MD5 check sum: 095c7af220d748ca6e76c0b4c6cfb241

     atomic species   valence    mass     pseudopotential
        Hf1           12.00   178.49000     Hf( 1.00)
        Os1           16.00   190.23000     Os( 1.00)

     No symmetry found

   Cartesian axes

     site n.     atom                  positions (alat units)
         1           Hf1 tau(   1) = (   0.0000000   0.0000000  10.0000000  )
         2           Hf1 tau(   2) = (   3.7832206   2.6571833  10.0000000  )
         3           Os1 tau(   3) = (   2.8247601   0.0000000  10.0000000  )
         4           Os1 tau(   4) = (   0.9584605   2.6571833  10.0000000  )
         5           Hf1 tau(   5) = (   5.6495203   3.9679978  12.3113608  )
         6           Hf1 tau(   6) = (   1.8662997   1.3108145  12.3113608  )
         7           Os1 tau(   7) = (   2.8247601   3.9679978  12.3113608  )
         8           Os1 tau(   8) = (   4.6910598   1.3108145  12.3113608  )
         9           Hf1 tau(   9) = (   3.7325993   2.6216290  14.6227216  )
        10           Hf1 tau(  10) = (   7.5158199   5.2788123  14.6227216  )
        11           Os1 tau(  11) = (   6.5573594   2.6216290  14.6227216  )
        12           Os1 tau(  12) = (   4.6910598   5.2788123  14.6227216  )

     number of k points=    20  Fermi-Dirac smearing, width (Ry)=  0.0110
                       cart. coord. in units 2pi/alat
        k(    1) = (   0.0000000   0.0000000   0.0000000), wk =   0.0555556
        k(    2) = (   0.0000000   0.0313615   0.0000000), wk =   0.1111111
        k(    3) = (   0.0000000   0.0627231   0.0000000), wk =   0.1111111
        k(    4) = (   0.0000000  -0.0940846   0.0000000), wk =   0.0555556
        k(    5) = (   0.0295010  -0.0106412   0.0000000), wk =   0.1111111
        k(    6) = (   0.0295010   0.0207203   0.0000000), wk =   0.1111111
        k(    7) = (   0.0295010   0.0520819   0.0000000), wk =   0.1111111
        k(    8) = (   0.0295010  -0.1047258   0.0000000), wk =   0.1111111
        k(    9) = (   0.0295010  -0.0733642   0.0000000), wk =   0.1111111
        k(   10) = (   0.0295010  -0.0420027   0.0000000), wk =   0.1111111
        k(   11) = (   0.0590021  -0.0212824   0.0000000), wk =   0.1111111
        k(   12) = (   0.0590021   0.0100792   0.0000000), wk =   0.1111111
        k(   13) = (   0.0590021   0.0414407   0.0000000), wk =   0.1111111
        k(   14) = (   0.0590021  -0.1153670   0.0000000), wk =   0.1111111
        k(   15) = (   0.0590021  -0.0840054   0.0000000), wk =   0.1111111
        k(   16) = (   0.0590021  -0.0526439   0.0000000), wk =   0.1111111
        k(   17) = (  -0.0885031   0.0319235   0.0000000), wk =   0.0555556
        k(   18) = (  -0.0885031   0.0632851   0.0000000), wk =   0.1111111
        k(   19) = (  -0.0885031   0.0946466   0.0000000), wk =   0.1111111
        k(   20) = (  -0.0885031  -0.0621610   0.0000000), wk =   0.0555556

     Largest allocated arrays     est. size (Mb)     dimensions
     Largest temporary arrays     est. size (Mb)     dimensions

     Check: negative/imaginary core charge=   -0.000003    0.000000

     Initial potential from superposition of free atoms
     Check: negative starting charge=   -1.399521

     starting charge  152.99977, renormalised to  168.00000

     negative rho (up, down):  1.537E+00 0.000E+00

     *
     * You are using vdW-DF for exchange-correlation in this calculation.
     * Please cite the following three references that made this development
     * possible:
     *
     *   M. Dion, H. Rydberg, E. Schroder, D. C. Langreth, and
     *   B. I. Lundqvist, Phys. Rev. Lett. 92, 246401 (2004).
     *
     *   T. Thonhauser, V. R. Cooper, S. Li, A. Puzder, P. Hyldgaard, and
     *   D. C. Langreth, Phys. Rev. B 76, 125112 (2007).
     *
     *   G. Roman-Perez and J. M. Soler, Phys. Rev. Lett. 103, 096102 (2009).
     *
     *
     * If you are using vdW-DF2, please also cite:
     *
     *   K. Lee, E. D. Murray, L. Kong, B. I. Lundqvist, and
     *   D. C. Langreth, Phys. Rev. B 82, 081101(R) (2010).
     *
     *
     * If you are calculating the stress with vdW-DF, please also cite:
     *
     *   R. Sabatini, E. Kucukbenli, B. Kolb, T. Thonhauser, and
     *   S. de Gironcoli, J. Phys.: Condens. Matter 24, 424209 (2012).
     *

     Carrying out vdW-DF run using the following parameters:

     Nqs =      20    Nr_points =    1024   r_max =   100.000
     q_mesh =
               0.00001000     0.04494208     0.09755937     0.15916263
               0.23128650     0.31572767     0.41458969     0.53033537
               0.66584808     0.82450364     1.01025438     1.22772762
               1.48234092     1.78043706     2.12944203     2.53805004
               3.01644009     3.57652955     4.23227104     5.00000000

     Gradients computed in reciprocal space

     Adding external electric field

     Computed dipole along edir(3) :
        Dipole                0.0000 Ry au,          0.0000 Debye
        Dipole field          0.0000 Ry au

        Potential amp.       -0.0000 Ry
        Total length         45.3669 bohr

     Starting wfc are  156 randomized atomic wfcs

     Self-consistent Calculation

     iteration #  1     ecut=    36.75 Ry     beta=0.10
     Davidson diagonalization with overlap
     ethr =  1.00E-02,  avg # of iterations =  8.1

[...]

     total energy              =   -2161.72429873 Ry
     Harris-Foulkes estimate   =   -2169.13114736 Ry
     estimated scf accuracy    <      44.87863157 Ry

[...]

     End of self-consistent calculation

          k = 0.0000 0.0000 0.0000 ( 18775 PWs)   bands (ev):

   -83.9931 -83.9907 -83.4658 -83.4656 -83.4634 -83.4633 -60.3420 -60.3418
   -60.3280 -60.3277 -59.8257 -59.8113 -43.3882 -43.3032 -43.2913 -43.2848
   -43.2847 -43.2766 -42.8225 -42.8205 -42.7925 -42.7912 -42.7840 -42.7818
   -42.7546 -42.7528 -42.7467 -42.7462 -42.7389 -42.7388 -29.0151 -29.0109
   -28.9912 -28.9804 -28.9709 -28.9604 -28.7973 -28.7762 -28.7726 -28.7495
   -28.6564 -28.6538 -28.5618 -28.4209 -28.4006 -28.3612 -28.3148 -28.2378
    -5.6053  -3.7743  -3.0587  -2.6937  -2.5171  -2.4705  -2.4649  -2.3081
    -2.0810  -2.0329  -1.4885  -1.4495  -1.4484  -0.7205  -0.6250  -0.4658
    -0.4320  -0.3023  -0.2846  -0.1449  -0.0914  -0.0612   0.3479   0.7049
     0.7490   0.8128   0.8749   1.4614   1.5019   1.5866   1.7579   1.8105
     1.9669   2.3686   2.7346   2.9069   3.1310   3.4144   3.5626   3.6180
     3.6530   3.7356   3.7870   4.2971   4.3122   4.3622   4.5098   4.5251
     4.9480   4.9702   5.3097   5.3930   5.4211   5.4508   5.5797   5.6117
     5.6370   5.7372   5.7861   5.8951   6.0893   6.2224   6.4536   6.6248
     6.7341   7.3922

[...]

          k =-0.0885 0.0319 0.0000 ( 18780 PWs)   bands (ev):

[...]

     the Fermi energy is     2.0984 ev

!    total energy              =   -2162.48092188 Ry
     Harris-Foulkes estimate   =   -2162.48091743 Ry
     estimated scf accuracy    <       0.00000023 Ry

     The total energy is the sum of the following terms:

     one-electron contribution =  -13916.58410280 Ry
     hartree contribution      =    6942.77058773 Ry
     xc contribution           =    -696.65205839 Ry
     ewald contribution        =    5508.04224977 Ry
     electric field correction =       0.00000001 Ry
     smearing contrib. (-TS)   =      -0.05759819 Ry

     convergence has been achieved in  18 iterations

 BEEF-vdW xc energy contributions
           1 :   -623.567867630562
           2 :    579.048212715904
[...]
                l(1) =   0
                l(2) =   0
                l(3) =   0
                l(4) =   1
                l(5) =   1
                l(6) =   2
                l(7) =   2
                l(8) =   3
     Q(r) pseudized with  6 coefficients,  rinner =    1.200   1.200   1.200
                                                       1.200   1.200   1.200
                                                       1.200

     PseudoPot. # 2 for Os read from file:
     /afs/slac.stanford.edu/u/if/mamunm/psp/gbrv1.5pbe/Os.UPF
     MD5 check sum: a3fb40a04f0c37c25c34bbc47164c9a8
     Pseudo is Ultrasoft + core correction, Zval = 16.0
     Generated by new atomic code, or converted to UPF format
     Using radial grid of  983 points,  8 beta functions with:
                l(1) =   0
                l(2) =   0
                l(3) =   1
                l(4) =   1
                l(5) =   2
                l(6) =   2
                l(7) =   3
                l(8) =   3
     Q(r) pseudized with  8 coefficients,  rinner =    1.150   1.150   1.150
                                                       1.150   1.150   1.150
                                                       1.150

     vdW kernel table read from file vdW_kernel_table
     MD5 check sum: 095c7af220d748ca6e76c0b4c6cfb241

     atomic species   valence    mass     pseudopotential
        Hf1           12.00   178.49000     Hf( 1.00)
        Os1           16.00   190.23000     Os( 1.00)

     No symmetry found

   Cartesian axes

     site n.     atom                  positions (alat units)
         1           Hf1 tau(   1) = (   0.0000000   0.0000000  10.0000000  )
         2           Hf1 tau(   2) = (   3.7832206   2.6571833  10.0000000  )
         3           Os1 tau(   3) = (   2.8247601   0.0000000  10.0000000  )
         4           Os1 tau(   4) = (   0.9584605   2.6571833  10.0000000  )
         5           Hf1 tau(   5) = (   5.6495203   3.9679978  12.3113608  )
         6           Hf1 tau(   6) = (   1.8662997   1.3108145  12.3113608  )
         7           Os1 tau(   7) = (   2.8247601   3.9679978  12.3113608  )
         8           Os1 tau(   8) = (   4.6910598   1.3108145  12.3113608  )
         9           Hf1 tau(   9) = (   3.7499205   2.6337866  14.6326846  )
        10           Hf1 tau(  10) = (   7.5331256   5.2909731  14.6326866  )
        11           Os1 tau(  11) = (   6.5664906   2.6280633  14.4752175  )
        12           Os1 tau(  12) = (   4.7002246   5.2852321  14.4751899  )

     number of k points=    20  Fermi-Dirac smearing, width (Ry)=  0.0110
                       cart. coord. in units 2pi/alat
        k(    1) = (   0.0000000   0.0000000   0.0000000), wk =   0.0555556
        k(    2) = (   0.0000000   0.0313615   0.0000000), wk =   0.1111111
        k(    3) = (   0.0000000   0.0627231   0.0000000), wk =   0.1111111
        k(    4) = (   0.0000000  -0.0940846   0.0000000), wk =   0.0555556
        k(    5) = (   0.0295010  -0.0106412   0.0000000), wk =   0.1111111
        k(    6) = (   0.0295010   0.0207203   0.0000000), wk =   0.1111111
        k(    7) = (   0.0295010   0.0520819   0.0000000), wk =   0.1111111
        k(    8) = (   0.0295010  -0.1047258   0.0000000), wk =   0.1111111
        k(    9) = (   0.0295010  -0.0733642   0.0000000), wk =   0.1111111
        k(   10) = (   0.0295010  -0.0420027   0.0000000), wk =   0.1111111
        k(   11) = (   0.0590021  -0.0212824   0.0000000), wk =   0.1111111
        k(   12) = (   0.0590021   0.0100792   0.0000000), wk =   0.1111111
        k(   13) = (   0.0590021   0.0414407   0.0000000), wk =   0.1111111
        k(   14) = (   0.0590021  -0.1153670   0.0000000), wk =   0.1111111
        k(   15) = (   0.0590021  -0.0840054   0.0000000), wk =   0.1111111
        k(   16) = (   0.0590021  -0.0526439   0.0000000), wk =   0.1111111
        k(   17) = (  -0.0885031   0.0319235   0.0000000), wk =   0.0555556
        k(   18) = (  -0.0885031   0.0632851   0.0000000), wk =   0.1111111
        k(   19) = (  -0.0885031   0.0946466   0.0000000), wk =   0.1111111
        k(   20) = (  -0.0885031  -0.0621610   0.0000000), wk =   0.0555556

     Largest allocated arrays     est. size (Mb)     dimensions
     Largest temporary arrays     est. size (Mb)     dimensions

     Check: negative/imaginary core charge=   -0.000003    0.000000

     Initial potential from superposition of free atoms
     Check: negative starting charge=   -1.401852

     starting charge  152.99977, renormalised to  168.00000

[...]

     *
     * You are using vdW-DF for exchange-correlation in this calculation.
     * Please cite the following three references that made this development
     * possible:
     *
     *   M. Dion, H. Rydberg, E. Schroder, D. C. Langreth, and
     *   B. I. Lundqvist, Phys. Rev. Lett. 92, 246401 (2004).
     *
     *   T. Thonhauser, V. R. Cooper, S. Li, A. Puzder, P. Hyldgaard, and
     *   D. C. Langreth, Phys. Rev. B 76, 125112 (2007).
     *
     *   G. Roman-Perez and J. M. Soler, Phys. Rev. Lett. 103, 096102 (2009).
     *
     *
     * If you are using vdW-DF2, please also cite:
     *
     *   K. Lee, E. D. Murray, L. Kong, B. I. Lundqvist, and
     *   D. C. Langreth, Phys. Rev. B 82, 081101(R) (2010).
     *
     *
     * If you are calculating the stress with vdW-DF, please also cite:
     *
     *   R. Sabatini, E. Kucukbenli, B. Kolb, T. Thonhauser, and
     *   S. de Gironcoli, J. Phys.: Condens. Matter 24, 424209 (2012).
     *

     Carrying out vdW-DF run using the following parameters:

     Nqs =      20    Nr_points =    1024   r_max =   100.000
     q_mesh =
               0.00001000     0.04494208     0.09755937     0.15916263
               0.23128650     0.31572767     0.41458969     0.53033537
               0.66584808     0.82450364     1.01025438     1.22772762
               1.48234092     1.78043706     2.12944203     2.53805004
               3.01644009     3.57652955     4.23227104     5.00000000

     Gradients computed in reciprocal space

[...]

     Starting wfc are  156 randomized atomic wfcs

     Self-consistent Calculation

[...]

     total energy              =   -2162.49565048 Ry
     Harris-Foulkes estimate   =   -2162.49564952 Ry
     estimated scf accuracy    <       0.00000299 Ry

     iteration # 18     ecut=    36.75 Ry     beta=0.10
     Davidson diagonalization with overlap
     ethr =  1.78E-09,  avg # of iterations =  1.8

[...]

     negative rho (up, down):  1.424E+00 0.000E+00

     Adding external electric field

     Computed dipole along edir(3) :
        Dipole                0.0616 Ry au,          0.1564 Debye
        Dipole field          0.0002 Ry au

        Potential amp.       -0.0141 Ry
        Total length         45.3669 bohr

     End of self-consistent calculation

[...]

          k = 0.0590-0.0526 0.0000 ( 18759 PWs)   bands (ev):

[...]

          k =-0.0885-0.0622 0.0000 ( 18764 PWs)   bands (ev):

   -83.9027 -83.9003 -83.4035 -83.4011 -83.3657 -83.3634 -60.2804 -60.2674
   -60.2663 -60.2532 -59.5685 -59.5533 -43.2844 -43.2030 -43.2004 -43.1948
   -43.1927 -43.1889 -42.7529 -42.7471 -42.7239 -42.7187 -42.6962 -42.6940
   -42.6896 -42.6885 -42.6734 -42.6668 -42.6544 -42.6491 -28.9784 -28.9370
   -28.9297 -28.9183 -28.9041 -28.8993 -28.7651 -28.7386 -28.7205 -28.7003
   -28.5894 -28.5818 -28.3487 -28.2290 -28.1901 -28.1250 -28.1076 -28.0081
    -3.4821  -3.2197  -2.1765  -1.9542  -1.6156  -1.5422  -1.4922  -1.3310
    -1.2510  -0.9166  -0.6836  -0.6659  -0.5767  -0.4678  -0.3724  -0.0931
    -0.0438   0.0809   0.2212   0.3718   0.4025   0.5847   0.6864   0.7670
     0.8939   0.9643   1.0223   1.0681   1.1547   1.2416   1.4135   1.4222
     1.5410   1.5416   1.5442   1.8372   1.8456   1.8997   2.1477   2.2562
     2.3833   2.9938   3.2991   3.5938   3.6165   3.6783   3.7754   3.8470
     3.8826   4.2073   4.2261   4.5062   4.5148   4.6629   4.7622   4.7735
     4.9335   5.1672   5.3447   5.6156   5.8183   6.2701   6.3801   6.9538
     7.2123   7.2230

     the Fermi energy is     2.1504 ev

!    total energy              =   -2162.49565530 Ry
     Harris-Foulkes estimate   =   -2162.49564939 Ry
     estimated scf accuracy    <       0.00000094 Ry

     The total energy is the sum of the following terms:

     one-electron contribution =  -14073.44718492 Ry
     hartree contribution      =    7021.78640849 Ry
     xc contribution           =    -696.79595854 Ry
     ewald contribution        =    5586.01824888 Ry
     electric field correction =       0.00000954 Ry
     smearing contrib. (-TS)   =      -0.05717876 Ry

     convergence has been achieved in  18 iterations

 BEEF-vdW xc energy contributions
           1 :   -623.714907620440
           2 :    579.252214082978
           3 :   -500.370394602040
           4 :    403.439157494348
           5 :   -305.819388563126
           6 :    221.080600002311
           7 :   -156.454277214293
           8 :    112.833317104110
           9 :   -86.6345186847448
          10 :    72.3024403368313
          11 :   -64.4326134575392
          12 :    58.9432841319485
          13 :   -53.3261807912377
          14 :    46.3497597637222
          15 :   -37.6779272229771
          16 :    27.6345920029385
          17 :   -17.0938190954994
          18 :    7.31151978715354
          19 :   0.399402323152231
          20 :   -5.09031817741925
          21 :    6.49951911454127
          22 :   -5.12331148345697
          23 :    2.00827608574264
          24 :    1.60532414097406
          25 :   -4.61746874550920
          26 :    6.25820595815139
          27 :   -6.13366619424210
          28 :    4.20510417942808
          29 :  -0.780574813570752
          30 :   -3.48288143955438
          31 :   -49.3802229671699
          32 :   -36.3231527770017

     Forces acting on atoms (Ry/au):

     negative rho (up, down):  1.424E+00 0.000E+00
     atom    1 type  1   force =    -0.00355677   -0.00249864   -0.00980465
     atom    2 type  1   force =    -0.00355551   -0.00249608   -0.00980406
     atom    3 type  2   force =    -0.00010835   -0.00007803    0.03867745
     atom    4 type  2   force =    -0.00010815   -0.00007423    0.03867233
     atom    5 type  1   force =     0.00167659    0.00117133   -0.02144925
     atom    6 type  1   force =     0.00167010    0.00117942   -0.02144371
     atom    7 type  2   force =     0.00039882    0.00027995   -0.00839597
     atom    8 type  2   force =     0.00040528    0.00028364   -0.00839634
     atom    9 type  1   force =     0.00051726    0.00036792    0.00040737
     atom   10 type  1   force =     0.00052737    0.00036766    0.00040671
     atom   11 type  2   force =     0.00107273    0.00074363    0.00055816
     atom   12 type  2   force =     0.00106062    0.00075344    0.00057195

     Total force =     0.065547     Total SCF correction =     0.002925

     entering subroutine stress ...

     negative rho (up, down):  1.424E+00 0.000E+00
          total   stress  (Ry/bohr**3)                   (kbar)     P=  -24.88
  -0.00022039  -0.00000799   0.00000887        -32.42     -1.17      1.30
  -0.00000799  -0.00021463   0.00000623         -1.17    -31.57      0.92
   0.00000887   0.00000623  -0.00007232          1.30      0.92    -10.64

 !ASE

     Writing output data file calc.save

     General routines

     Parallel routines

   This run was terminated on:  22: 3:41  24Dec2018

   JOB DONE.
Job  /afs/slac/g/suncat/bin/suncat-tsmpirun -x LD_LIBRARY_PATH -wdir /scratch/qe108999_iOMyR pw.x -in pw.inp

TID   HOST_NAME   COMMAND_LINE            STATUS            TERMINATION_TIME
00000 suncat0161 pw.x -in pw.inp   Done                     12/24/2018 22:03:41
00001 suncat0161 pw.x -in pw.inp   Done                     12/24/2018 22:03:41
00002 suncat0161 pw.x -in pw.inp   Done                     12/24/2018 22:03:41
00003 suncat0161 pw.x -in pw.inp   Done                     12/24/2018 22:03:41
00004 suncat0161 pw.x -in pw.inp   Done                     12/24/2018 22:03:41
00005 suncat0161 pw.x -in pw.inp   Done                     12/24/2018 22:03:41
00006 suncat0161 pw.x -in pw.inp   Done                     12/24/2018 22:03:41
00007 suncat0161 pw.x -in pw.inp   Done                     12/24/2018 22:03:41
00008 suncat0159 pw.x -in pw.inp   Done                     12/24/2018 22:03:41
00009 suncat0159 pw.x -in pw.inp   Done                     12/24/2018 22:03:41
00010 suncat0159 pw.x -in pw.inp   Done                     12/24/2018 22:03:41
00011 suncat0159 pw.x -in pw.inp   Done                     12/24/2018 22:03:41
00012 suncat0159 pw.x -in pw.inp   Done                     12/24/2018 22:03:41
00013 suncat0159 pw.x -in pw.inp   Done                     12/24/2018 22:03:41
00014 suncat0159 pw.x -in pw.inp   Done                     12/24/2018 22:03:41
00015 suncat0159 pw.x -in pw.inp   Done                     12/24/2018 22:03:41
00016 suncat0137 pw.x -in pw.inp   Done                     12/24/2018 22:03:41
00017 suncat0137 pw.x -in pw.inp   Done                     12/24/2018 22:03:41
00018 suncat0137 pw.x -in pw.inp   Done                     12/24/2018 22:03:41
00019 suncat0137 pw.x -in pw.inp   Done                     12/24/2018 22:03:41
00020 suncat0137 pw.x -in pw.inp   Done                     12/24/2018 22:03:41
00021 suncat0137 pw.x -in pw.inp   Done                     12/24/2018 22:03:41
00022 suncat0137 pw.x -in pw.inp   Done                     12/24/2018 22:03:41
00023 suncat0137 pw.x -in pw.inp   Done                     12/24/2018 22:03:41
00024 suncat0136 pw.x -in pw.inp   Done                     12/24/2018 22:03:41
00025 suncat0136 pw.x -in pw.inp   Done                     12/24/2018 22:03:41
00026 suncat0136 pw.x -in pw.inp   Done                     12/24/2018 22:03:41
00027 suncat0136 pw.x -in pw.inp   Done                     12/24/2018 22:03:41
00028 suncat0136 pw.x -in pw.inp   Done                     12/24/2018 22:03:41
00029 suncat0136 pw.x -in pw.inp   Done                     12/24/2018 22:03:41
00030 suncat0136 pw.x -in pw.inp   Done                     12/24/2018 22:03:41
00031 suncat0136 pw.x -in pw.inp   Done                     12/24/2018 22:03:41
00032 suncat0135 pw.x -in pw.inp   Done                     12/24/2018 22:03:41
00033 suncat0135 pw.x -in pw.inp   Done                     12/24/2018 22:03:41
00034 suncat0135 pw.x -in pw.inp   Done                     12/24/2018 22:03:41
00035 suncat0135 pw.x -in pw.inp   Done                     12/24/2018 22:03:41
00036 suncat0135 pw.x -in pw.inp   Done                     12/24/2018 22:03:41
00037 suncat0135 pw.x -in pw.inp   Done                     12/24/2018 22:03:41
00038 suncat0135 pw.x -in pw.inp   Done                     12/24/2018 22:03:41
00039 suncat0135 pw.x -in pw.inp   Done                     12/24/2018 22:03:41
00040 suncat0134 pw.x -in pw.inp   Done                     12/24/2018 22:03:41
00041 suncat0134 pw.x -in pw.inp   Done                     12/24/2018 22:03:41
00042 suncat0134 pw.x -in pw.inp   Done                     12/24/2018 22:03:41
00043 suncat0134 pw.x -in pw.inp   Done                     12/24/2018 22:03:41
00044 suncat0134 pw.x -in pw.inp   Done                     12/24/2018 22:03:41
00045 suncat0134 pw.x -in pw.inp   Done                     12/24/2018 22:03:41
00046 suncat0134 pw.x -in pw.inp   Done                     12/24/2018 22:03:41
00047 suncat0134 pw.x -in pw.inp   Done                     12/24/2018 22:03:41
00048 suncat0201 pw.x -in pw.inp   Done                     12/24/2018 22:03:41
00049 suncat0201 pw.x -in pw.inp   Done                     12/24/2018 22:03:41
00050 suncat0201 pw.x -in pw.inp   Done                     12/24/2018 22:03:41
00051 suncat0201 pw.x -in pw.inp   Done                     12/24/2018 22:03:41
00052 suncat0201 pw.x -in pw.inp   Done                     12/24/2018 22:03:41
00053 suncat0201 pw.x -in pw.inp   Done                     12/24/2018 22:03:41
00054 suncat0201 pw.x -in pw.inp   Done                     12/24/2018 22:03:41
00055 suncat0201 pw.x -in pw.inp   Done                     12/24/2018 22:03:41
00056 suncat0200 pw.x -in pw.inp   Done                     12/24/2018 22:03:41
00057 suncat0200 pw.x -in pw.inp   Done                     12/24/2018 22:03:41
00058 suncat0200 pw.x -in pw.inp   Done                     12/24/2018 22:03:41
00059 suncat0200 pw.x -in pw.inp   Done                     12/24/2018 22:03:41
00060 suncat0200 pw.x -in pw.inp   Done                     12/24/2018 22:03:41
00061 suncat0200 pw.x -in pw.inp   Done                     12/24/2018 22:03:41
00062 suncat0200 pw.x -in pw.inp   Done                     12/24/2018 22:03:41
00063 suncat0200 pw.x -in pw.inp   Done                     12/24/2018 22:03:41