     Program PWSCF v.5.1rc2 (svn rev. 11289) starts on 18Dec2018 at 19: 8: 6

     Current dimensions of program PWSCF are:
     Max number of different atomic species (ntypx) = 10
     Max number of k-points (npk) =  40000
     Max angular momentum in pseudopotentials (lmaxx) =  3
     Presently stress not available with electric field

     IMPORTANT: XC functional enforced from input :
     Exchange-correlation      = BEEF-VDW ( 1  4 27 13 2)
     Any further DFT definition will be discarded
     Please, verify this is what you really want

     Subspace diagonalization in iterative solution of the eigenvalue problem:
     a serial algorithm will be used

     Found symmetry operation: I + ( -0.5000  0.0000  0.0000)
     This is a supercell, fractional translations are disabled

     bravais-lattice index     =            0
     lattice parameter (alat)  =       1.8897  a.u.
     unit-cell volume          =    4366.0170 (a.u.)^3
     number of atoms/cell      =           12
     number of atomic types    =            2
     number of electrons       =       174.00
     number of Kohn-Sham states=          117
     kinetic-energy cutoff     =      36.7493  Ry
     charge density cutoff     =     367.4932  Ry
     convergence threshold     =      1.0E-06
     mixing beta               =       0.1000
     number of iterations used =           10  plain     mixing
     Exchange-correlation      = BEEF-VDW ( 1  4 27 13 2)
     nstep                     =           50

     celldm(1)=   1.889726  celldm(2)=   0.000000  celldm(3)=   0.000000
     celldm(4)=   0.000000  celldm(5)=   0.000000  celldm(6)=   0.000000

     crystal axes: (cart. coord. in units of alat)
               a(1) = (   5.502545   0.000000   0.000000 )
               a(2) = (  -2.751272   4.797562   0.000000 )
               a(3) = (   0.000000   0.000000  24.507819 )

     reciprocal axes: (cart. coord. in units 2 pi/alat)
               b(1) = (  0.181734  0.104220  0.000000 )
               b(2) = (  0.000000  0.208439  0.000000 )
               b(3) = (  0.000000  0.000000  0.040803 )

     PseudoPot. # 1 for Mo read from file:
     /afs/slac.stanford.edu/u/if/mamunm/psp/gbrv1.5pbe/Mo.UPF
     MD5 check sum: 30c4dcd161f5d35cd49bb5239c51a633
     Pseudo is Ultrasoft + core correction, Zval = 14.0
     Generated by new atomic code, or converted to UPF format
     Using radial grid of  889 points,  6 beta functions with:
                l(1) =   0
                l(2) =   0
                l(3) =   1
                l(4) =   1
                l(5) =   2
                l(6) =   2
     Q(r) pseudized with  6 coefficients,  rinner =    1.000   1.000   1.000
                                                       1.000   1.000

     PseudoPot. # 2 for Rh read from file:
     /afs/slac.stanford.edu/u/if/mamunm/psp/gbrv1.5pbe/Rh.UPF
     MD5 check sum: 761627e959a2e3a1f56b0b5fe687810e
     Pseudo is Ultrasoft + core correction, Zval = 15.0
     Generated by new atomic code, or converted to UPF format
     Using radial grid of  969 points,  7 beta functions with:
                l(1) =   0
                l(2) =   0
                l(3) =   1
                l(4) =   1
                l(5) =   2
                l(6) =   2
                l(7) =   2
     Q(r) pseudized with  8 coefficients,  rinner =    1.200   1.200   1.200
                                                       1.200   1.200

     vdW kernel table read from file vdW_kernel_table
     MD5 check sum: 095c7af220d748ca6e76c0b4c6cfb241

     atomic species   valence    mass     pseudopotential
        Mo1           14.00    95.95000     Mo( 1.00)
        Rh1           15.00   102.90550     Rh( 1.00)

     No symmetry found

   Cartesian axes

     site n.     atom                  positions (alat units)
         1           Mo1 tau(   1) = (   0.0000000   0.0000000  10.0000000  )
         2           Mo1 tau(   2) = (   2.7512724   0.0000000  10.0000000  )
         3           Rh1 tau(   3) = (   1.3756362   2.3987809  10.0000000  )
         4           Rh1 tau(   4) = (  -1.3756362   2.3987809  10.0000000  )
         5           Mo1 tau(   5) = (   2.7512724   1.5777805  12.2539095  )
         6           Mo1 tau(   6) = (   0.0000000   1.5777805  12.2539095  )
         7           Rh1 tau(   7) = (  -1.3756362   3.9765614  12.2539095  )
         8           Rh1 tau(   8) = (   1.3756362   3.9765614  12.2539095  )
         9           Mo1 tau(   9) = (   0.0000000   3.1555611  14.5078191  )
        10           Mo1 tau(  10) = (   2.7512724   3.1555611  14.5078191  )
        11           Rh1 tau(  11) = (   4.1269085   0.7567802  14.5078191  )
        12           Rh1 tau(  12) = (   1.3756362   0.7567802  14.5078191  )

     number of k points=    20  Fermi-Dirac smearing, width (Ry)=  0.0110
                       cart. coord. in units 2pi/alat
        k(    1) = (   0.0000000   0.0000000   0.0000000), wk =   0.0555556
        k(    2) = (   0.0000000   0.0347399   0.0000000), wk =   0.1111111
        k(    3) = (   0.0000000   0.0694797   0.0000000), wk =   0.1111111
        k(    4) = (   0.0000000  -0.1042196   0.0000000), wk =   0.0555556
        k(    5) = (   0.0302890   0.0173699   0.0000000), wk =   0.1111111
        k(    6) = (   0.0302890   0.0521098   0.0000000), wk =   0.1111111
        k(    7) = (   0.0302890   0.0868497   0.0000000), wk =   0.1111111
        k(    8) = (   0.0302890  -0.0868497   0.0000000), wk =   0.1111111
        k(    9) = (   0.0302890  -0.0521098   0.0000000), wk =   0.1111111
        k(   10) = (   0.0302890  -0.0173699   0.0000000), wk =   0.1111111
        k(   11) = (   0.0605780   0.0347399   0.0000000), wk =   0.1111111
        k(   12) = (   0.0605780   0.0694797   0.0000000), wk =   0.1111111
        k(   13) = (   0.0605780   0.1042196   0.0000000), wk =   0.1111111
        k(   14) = (   0.0605780  -0.0694797   0.0000000), wk =   0.1111111
        k(   15) = (   0.0605780  -0.0347399   0.0000000), wk =   0.1111111
        k(   16) = (   0.0605780   0.0000000   0.0000000), wk =   0.1111111
        k(   17) = (  -0.0908670  -0.0521098   0.0000000), wk =   0.0555556
        k(   18) = (  -0.0908670  -0.0173699   0.0000000), wk =   0.1111111
        k(   19) = (  -0.0908670   0.0173699   0.0000000), wk =   0.1111111
        k(   20) = (  -0.0908670  -0.1563294   0.0000000), wk =   0.0555556

     Largest allocated arrays     est. size (Mb)     dimensions
     Largest temporary arrays     est. size (Mb)     dimensions

     Initial potential from superposition of free atoms
     Check: negative starting charge=   -0.330183

     starting charge  170.99303, renormalised to  174.00000

     negative rho (up, down):  3.360E-01 0.000E+00

     *
     * You are using vdW-DF for exchange-correlation in this calculation.
     * Please cite the following three references that made this development
     * possible:
     *
     *   M. Dion, H. Rydberg, E. Schroder, D. C. Langreth, and
     *   B. I. Lundqvist, Phys. Rev. Lett. 92, 246401 (2004).
     *
     *   T. Thonhauser, V. R. Cooper, S. Li, A. Puzder, P. Hyldgaard, and
     *   D. C. Langreth, Phys. Rev. B 76, 125112 (2007).
     *
     *   G. Roman-Perez and J. M. Soler, Phys. Rev. Lett. 103, 096102 (2009).
     *
     *
     * If you are using vdW-DF2, please also cite:
     *
     *   K. Lee, E. D. Murray, L. Kong, B. I. Lundqvist, and
     *   D. C. Langreth, Phys. Rev. B 82, 081101(R) (2010).
     *
     *
     * If you are calculating the stress with vdW-DF, please also cite:
     *
     *   R. Sabatini, E. Kucukbenli, B. Kolb, T. Thonhauser, and
     *   S. de Gironcoli, J. Phys.: Condens. Matter 24, 424209 (2012).
     *

     Carrying out vdW-DF run using the following parameters:

     Nqs =      20    Nr_points =    1024   r_max =   100.000
     q_mesh =
               0.00001000     0.04494208     0.09755937     0.15916263
               0.23128650     0.31572767     0.41458969     0.53033537
               0.66584808     0.82450364     1.01025438     1.22772762
               1.48234092     1.78043706     2.12944203     2.53805004
               3.01644009     3.57652955     4.23227104     5.00000000

     Gradients computed in reciprocal space

     Adding external electric field

     Computed dipole along edir(3) :
        Dipole               -0.0000 Ry au,         -0.0000 Debye
        Dipole field         -0.0000 Ry au

        Potential amp.        0.0000 Ry
        Total length         45.1552 bohr

     Starting wfc are  150 randomized atomic wfcs

     Self-consistent Calculation

     iteration #  1     ecut=    36.75 Ry     beta=0.10
     Davidson diagonalization with overlap
     ethr =  1.00E-02,  avg # of iterations =  3.9

[...]

     total energy              =   -1873.15136193 Ry
     Harris-Foulkes estimate   =   -1873.56834166 Ry
     estimated scf accuracy    <       2.64546333 Ry

[...]

     End of self-consistent calculation

          k = 0.0000 0.0000 0.0000 ( 16375 PWs)   bands (ev):

   -59.3973 -59.2972 -59.2613 -59.2516 -59.1635 -59.1546 -44.8720 -44.8121
   -44.7786 -44.7568 -44.7234 -44.5686 -44.3849 -44.3835 -44.3491 -44.3445
   -44.3150 -44.3100 -44.1979 -44.1821 -44.1688 -44.1521 -44.0820 -44.0818
   -33.8009 -33.6254 -33.5504 -33.5403 -33.5247 -33.4343 -33.3533 -33.3491
   -33.3062 -33.2769 -33.2591 -33.2165 -33.1899 -33.0243 -32.9620 -32.9437
   -32.7192 -32.7154  -4.4403  -3.1746  -3.1631  -3.1244  -3.0724  -3.0140
    -2.8103  -2.7731  -2.7638  -2.5998  -2.5264  -2.5057  -2.2462  -2.2028
    -2.1915  -1.1836  -1.1445  -1.0237  -0.7650  -0.6841  -0.5234  -0.2943
    -0.1750  -0.1142   0.0385   0.0443   0.2170   0.3536   0.4161   0.4910
     0.5283   0.6665   0.9915   1.2400   1.3559   1.5774   1.5815   1.6316
     1.6419   1.8299   2.1696   2.2242   2.4795   2.6436   2.6713   2.8253
     2.8796   3.0917   3.3159   3.4547   3.5806   3.7729   3.8370   3.8851
     3.9803   4.0743   4.4094   4.4259   4.4283   4.4863   4.5415   4.6891
     4.8908   5.0055   5.0267   5.2410   5.5491   6.2816   6.4039   6.5265
     6.5527   6.6512   6.7582   6.8057   6.9636

[...]

          k =-0.0909-0.0521 0.0000 ( 16424 PWs)   bands (ev):

[...]

     the Fermi energy is     2.0796 ev

!    total energy              =   -1873.02165867 Ry
     Harris-Foulkes estimate   =   -1873.02165642 Ry
     estimated scf accuracy    <       0.00000075 Ry

     The total energy is the sum of the following terms:

     one-electron contribution =  -17059.51306730 Ry
     hartree contribution      =    8546.37417396 Ry
     xc contribution           =    -305.93950930 Ry
     ewald contribution        =    6946.14018131 Ry
     electric field correction =       0.00000000 Ry
     smearing contrib. (-TS)   =      -0.08343735 Ry

     convergence has been achieved in  16 iterations

 BEEF-vdW xc energy contributions
           1 :   -265.082131668508
           2 :    243.076384570706
           3 :   -205.091167324731
           4 :    160.744782286850
           5 :   -119.774905593317
           6 :    88.9589422899052
           7 :   -70.5496965791850
           8 :    62.5446515218644
           9 :   -60.4001156084167
[...]
00029 suncat2049 pw.x -in pw.inp   Done                     12/18/2018 19:12:14
00030 suncat2049 pw.x -in pw.inp   Done                     12/18/2018 19:12:14
00031 suncat2049 pw.x -in pw.inp   Done                     12/18/2018 19:12:14

     Program PWSCF v.5.1rc2 (svn rev. 11289) starts on 18Dec2018 at 19:12:20

[...]

     Program PWSCF v.5.1rc2 (svn rev. 11289) starts on 18Dec2018 at 19:26: 0

[...]

     Program PWSCF v.5.1rc2 (svn rev. 11289) starts on 18Dec2018 at 19:30:28

     Current dimensions of program PWSCF are:
     Max number of different atomic species (ntypx) = 10
     Max number of k-points (npk) =  40000
     Max angular momentum in pseudopotentials (lmaxx) =  3
     Presently stress not available with electric field

     IMPORTANT: XC functional enforced from input :
     Exchange-correlation      = BEEF-VDW ( 1  4 27 13 2)
     Any further DFT definition will be discarded
     Please, verify this is what you really want

     Subspace diagonalization in iterative solution of the eigenvalue problem:
     a serial algorithm will be used

     Found symmetry operation: I + ( -0.5000  0.0000  0.0000)
     This is a supercell, fractional translations are disabled

     bravais-lattice index     =            0
     lattice parameter (alat)  =       1.8897  a.u.
     unit-cell volume          =    4366.0170 (a.u.)^3
     number of atoms/cell      =           12
     number of atomic types    =            2
     number of electrons       =       174.00
     number of Kohn-Sham states=          117
     kinetic-energy cutoff     =      36.7493  Ry
     charge density cutoff     =     367.4932  Ry
     convergence threshold     =      1.0E-06
     mixing beta               =       0.1000
     number of iterations used =           10  plain     mixing
     Exchange-correlation      = BEEF-VDW ( 1  4 27 13 2)
     nstep                     =           50

     celldm(1)=   1.889726  celldm(2)=   0.000000  celldm(3)=   0.000000
     celldm(4)=   0.000000  celldm(5)=   0.000000  celldm(6)=   0.000000

     crystal axes: (cart. coord. in units of alat)
               a(1) = (   5.502545   0.000000   0.000000 )
               a(2) = (  -2.751272   4.797562   0.000000 )
               a(3) = (   0.000000   0.000000  24.507819 )

     reciprocal axes: (cart. coord. in units 2 pi/alat)
               b(1) = (  0.181734  0.104220  0.000000 )
               b(2) = (  0.000000  0.208439  0.000000 )
               b(3) = (  0.000000  0.000000  0.040803 )

     PseudoPot. # 1 for Mo read from file:
     /afs/slac.stanford.edu/u/if/mamunm/psp/gbrv1.5pbe/Mo.UPF
     MD5 check sum: 30c4dcd161f5d35cd49bb5239c51a633
     Pseudo is Ultrasoft + core correction, Zval = 14.0
     Generated by new atomic code, or converted to UPF format
     Using radial grid of  889 points,  6 beta functions with:
                l(1) =   0
                l(2) =   0
                l(3) =   1
                l(4) =   1
                l(5) =   2
                l(6) =   2
     Q(r) pseudized with  6 coefficients,  rinner =    1.000   1.000   1.000
                                                       1.000   1.000

     PseudoPot. # 2 for Rh read from file:
     /afs/slac.stanford.edu/u/if/mamunm/psp/gbrv1.5pbe/Rh.UPF
     MD5 check sum: 761627e959a2e3a1f56b0b5fe687810e
     Pseudo is Ultrasoft + core correction, Zval = 15.0
     Generated by new atomic code, or converted to UPF format
     Using radial grid of  969 points,  7 beta functions with:
                l(1) =   0
                l(2) =   0
                l(3) =   1
                l(4) =   1
                l(5) =   2
                l(6) =   2
                l(7) =   2
     Q(r) pseudized with  8 coefficients,  rinner =    1.200   1.200   1.200
                                                       1.200   1.200

     vdW kernel table read from file vdW_kernel_table
     MD5 check sum: 095c7af220d748ca6e76c0b4c6cfb241

     atomic species   valence    mass     pseudopotential
        Mo1           14.00    95.95000     Mo( 1.00)
        Rh1           15.00   102.90550     Rh( 1.00)

     No symmetry found

   Cartesian axes

     site n.     atom                  positions (alat units)
         1           Mo1 tau(   1) = (   0.0000000   0.0000000  10.0000000  )
         2           Mo1 tau(   2) = (   2.7512724   0.0000000  10.0000000  )
         3           Rh1 tau(   3) = (   1.3756362   2.3987809  10.0000000  )
         4           Rh1 tau(   4) = (  -1.3756362   2.3987809  10.0000000  )
         5           Mo1 tau(   5) = (   2.7512724   1.5777805  12.2539095  )
         6           Mo1 tau(   6) = (   0.0000000   1.5777805  12.2539095  )
         7           Rh1 tau(   7) = (  -1.3756362   3.9765614  12.2539095  )
         8           Rh1 tau(   8) = (   1.3756362   3.9765614  12.2539095  )
         9           Mo1 tau(   9) = (   0.0000003   3.1824488  14.3957980  )
        10           Mo1 tau(  10) = (   2.7512729   3.1824457  14.3957963  )
        11           Rh1 tau(  11) = (   4.1269066   0.8336035  14.4458349  )
        12           Rh1 tau(  12) = (   1.3756392   0.8336036  14.4458357  )

     number of k points=    20  Fermi-Dirac smearing, width (Ry)=  0.0110
                       cart. coord. in units 2pi/alat
        k(    1) = (   0.0000000   0.0000000   0.0000000), wk =   0.0555556
        k(    2) = (   0.0000000   0.0347399   0.0000000), wk =   0.1111111
        k(    3) = (   0.0000000   0.0694797   0.0000000), wk =   0.1111111
        k(    4) = (   0.0000000  -0.1042196   0.0000000), wk =   0.0555556
        k(    5) = (   0.0302890   0.0173699   0.0000000), wk =   0.1111111
        k(    6) = (   0.0302890   0.0521098   0.0000000), wk =   0.1111111
        k(    7) = (   0.0302890   0.0868497   0.0000000), wk =   0.1111111
        k(    8) = (   0.0302890  -0.0868497   0.0000000), wk =   0.1111111
        k(    9) = (   0.0302890  -0.0521098   0.0000000), wk =   0.1111111
        k(   10) = (   0.0302890  -0.0173699   0.0000000), wk =   0.1111111
        k(   11) = (   0.0605780   0.0347399   0.0000000), wk =   0.1111111
        k(   12) = (   0.0605780   0.0694797   0.0000000), wk =   0.1111111
        k(   13) = (   0.0605780   0.1042196   0.0000000), wk =   0.1111111
        k(   14) = (   0.0605780  -0.0694797   0.0000000), wk =   0.1111111
        k(   15) = (   0.0605780  -0.0347399   0.0000000), wk =   0.1111111
        k(   16) = (   0.0605780   0.0000000   0.0000000), wk =   0.1111111
        k(   17) = (  -0.0908670  -0.0521098   0.0000000), wk =   0.0555556
        k(   18) = (  -0.0908670  -0.0173699   0.0000000), wk =   0.1111111
        k(   19) = (  -0.0908670   0.0173699   0.0000000), wk =   0.1111111
        k(   20) = (  -0.0908670  -0.1563294   0.0000000), wk =   0.0555556

     Largest allocated arrays     est. size (Mb)     dimensions
     Largest temporary arrays     est. size (Mb)     dimensions

     Initial potential from superposition of free atoms
     Check: negative starting charge=   -0.331473

     starting charge  170.99303, renormalised to  174.00000

[...]

     *
     * You are using vdW-DF for exchange-correlation in this calculation.
     * Please cite the following three references that made this development
     * possible:
     *
     *   M. Dion, H. Rydberg, E. Schroder, D. C. Langreth, and
     *   B. I. Lundqvist, Phys. Rev. Lett. 92, 246401 (2004).
     *
     *   T. Thonhauser, V. R. Cooper, S. Li, A. Puzder, P. Hyldgaard, and
     *   D. C. Langreth, Phys. Rev. B 76, 125112 (2007).
     *
     *   G. Roman-Perez and J. M. Soler, Phys. Rev. Lett. 103, 096102 (2009).
     *
     *
     * If you are using vdW-DF2, please also cite:
     *
     *   K. Lee, E. D. Murray, L. Kong, B. I. Lundqvist, and
     *   D. C. Langreth, Phys. Rev. B 82, 081101(R) (2010).
     *
     *
     * If you are calculating the stress with vdW-DF, please also cite:
     *
     *   R. Sabatini, E. Kucukbenli, B. Kolb, T. Thonhauser, and
     *   S. de Gironcoli, J. Phys.: Condens. Matter 24, 424209 (2012).
     *

     Carrying out vdW-DF run using the following parameters:

     Nqs =      20    Nr_points =    1024   r_max =   100.000
     q_mesh =
               0.00001000     0.04494208     0.09755937     0.15916263
               0.23128650     0.31572767     0.41458969     0.53033537
               0.66584808     0.82450364     1.01025438     1.22772762
               1.48234092     1.78043706     2.12944203     2.53805004
               3.01644009     3.57652955     4.23227104     5.00000000

     Gradients computed in reciprocal space

[...]

     Starting wfc are  150 randomized atomic wfcs

     Self-consistent Calculation

[...]

     total energy              =   -1873.03257274 Ry
     Harris-Foulkes estimate   =   -1873.03257206 Ry
     estimated scf accuracy    <       0.00000484 Ry

     iteration # 17     ecut=    36.75 Ry     beta=0.10
     Davidson diagonalization with overlap
     ethr =  9.47E-10,  avg # of iterations =  2.0

[...]

     negative rho (up, down):  3.531E-01 0.000E+00

     Adding external electric field

     Computed dipole along edir(3) :
        Dipole                0.0145 Ry au,          0.0368 Debye
        Dipole field          0.0000 Ry au

        Potential amp.       -0.0038 Ry
        Total length         45.1552 bohr

     End of self-consistent calculation

[...]

          k = 0.0606 0.0000 0.0000 ( 16428 PWs)   bands (ev):

[...]

          k =-0.0909-0.1563 0.0000 ( 16424 PWs)   bands (ev):

   -59.3474 -59.3473 -59.2194 -59.2192 -59.1737 -59.1737 -44.8904 -44.8904
   -44.8141 -44.8141 -44.8073 -44.8073 -44.3626 -44.3626 -44.3179 -44.3179
   -44.2858 -44.2858 -44.2255 -44.2255 -44.2219 -44.2219 -44.1623 -44.1623
   -33.6311 -33.6310 -33.4058 -33.4057 -33.3966 -33.3966 -33.3080 -33.3079
   -33.2568 -33.2567 -33.2358 -33.2357 -33.1502 -33.1500 -33.1299 -33.1298
   -32.9435 -32.9434  -2.9861  -2.9861  -2.4111  -2.4111  -2.3312  -2.3312
    -2.0262  -2.0262  -1.9292  -1.9292  -1.8046  -1.8046  -1.4572  -1.4572
    -1.4086  -1.4086  -1.0828  -1.0828  -0.7607  -0.7607  -0.6715  -0.6715
    -0.2864  -0.2864  -0.1432  -0.1432  -0.0331  -0.0331   0.0596   0.0596
     0.1991   0.1991   0.4283   0.4283   0.7452   0.7452   0.8985   0.8986
     1.1502   1.1503   1.3310   1.3310   1.7439   1.7439   2.0943   2.0943
     2.3653   2.3653   2.4172   2.4172   2.5438   2.5438   2.7065   2.7065
     2.9237   2.9237   3.3571   3.3571   3.5424   3.5424   4.2106   4.2107
     4.5335   4.5336   5.3081   5.3081   6.5618   6.5618   7.0017   7.0017
     7.1737   7.1737   7.9441   7.9441   8.5265

     the Fermi energy is     2.0829 ev

!    total energy              =   -1873.03257456 Ry
     Harris-Foulkes estimate   =   -1873.03257276 Ry
     estimated scf accuracy    <       0.00000058 Ry

     The total energy is the sum of the following terms:

     one-electron contribution =  -17270.12362121 Ry
     hartree contribution      =    8651.56478815 Ry
     xc contribution           =    -306.12821207 Ry
     ewald contribution        =    7051.73539224 Ry
     electric field correction =       0.00000060 Ry
     smearing contrib. (-TS)   =      -0.08092227 Ry

     convergence has been achieved in  17 iterations

 BEEF-vdW xc energy contributions
           1 :   -265.276695458696
           2 :    243.347225736995
           3 :   -205.464429234983
           4 :    161.172980139639
           5 :   -120.155524096561
           6 :    89.1851818312996
           7 :   -70.5676262487266
           8 :    62.3861649571685
           9 :   -60.1729601917308
          10 :    59.1242868234194
          11 :   -55.9426735730332
          12 :    49.6715010660783
          13 :   -41.4148676730406
          14 :    33.2801349273871
          15 :   -27.1400378518183
          16 :    23.7628079002628
          17 :   -22.6210791594120
          18 :    22.3392090783966
          19 :   -21.4742950910608
          20 :    19.2114103354259
          21 :   -15.6589082845527
          22 :    11.6540002896488
          23 :   -8.24293426577009
          24 :    6.12853920464499
          25 :   -5.35968307949935
          26 :    5.37801618365506
          27 :   -5.35579589739490
          28 :    4.62596101798505
          29 :   -2.98916675643261
          30 :   0.759524228049770
          31 :   -27.7504913184239
          32 :   -21.0539800634482

     Forces acting on atoms (Ry/au):

     negative rho (up, down):  3.531E-01 0.000E+00
     atom    1 type  1   force =    -0.00000009    0.00841002    0.02086450
     atom    2 type  1   force =     0.00000000    0.00841030    0.02086761
     atom    3 type  2   force =     0.00000036   -0.01585448    0.01024189
     atom    4 type  2   force =    -0.00000044   -0.01585441    0.01024184
     atom    5 type  1   force =     0.00000003    0.00494440   -0.01565165
     atom    6 type  1   force =     0.00000002    0.00494437   -0.01565018
     atom    7 type  2   force =     0.00000101    0.00147065   -0.01513656
     atom    8 type  2   force =    -0.00000094    0.00147059   -0.01513674
     atom    9 type  1   force =     0.00000010   -0.00019755   -0.00061281
     atom   10 type  1   force =     0.00000003   -0.00019632   -0.00061215
     atom   11 type  2   force =     0.00000136    0.00122618    0.00029212
     atom   12 type  2   force =    -0.00000144    0.00122626    0.00029212

     Total force =     0.052251     Total SCF correction =     0.001617

     entering subroutine stress ...

     negative rho (up, down):  3.531E-01 0.000E+00
          total   stress  (Ry/bohr**3)                   (kbar)     P=  -26.93
  -0.00018762   0.00000000  -0.00000000        -27.60      0.00     -0.00
   0.00000000  -0.00022347   0.00001600          0.00    -32.87      2.35
  -0.00000000   0.00001600  -0.00013816         -0.00      2.35    -20.32

 !ASE

     Writing output data file calc.save

     General routines

     Parallel routines

   This run was terminated on:  19:34:54  18Dec2018

   JOB DONE.
Job  /afs/slac/g/suncat/bin/suncat-tsmpirun -x LD_LIBRARY_PATH -wdir /scratch/qe530273_2fN8l pw.x -in pw.inp

TID   HOST_NAME   COMMAND_LINE            STATUS            TERMINATION_TIME
00000 suncat2050 pw.x -in pw.inp   Done                     12/18/2018 19:34:54
00001 suncat2050 pw.x -in pw.inp   Done                     12/18/2018 19:34:54
00002 suncat2050 pw.x -in pw.inp   Done                     12/18/2018 19:34:54
00003 suncat2050 pw.x -in pw.inp   Done                     12/18/2018 19:34:54
00004 suncat2050 pw.x -in pw.inp   Done                     12/18/2018 19:34:54
00005 suncat2050 pw.x -in pw.inp   Done                     12/18/2018 19:34:54
00006 suncat2050 pw.x -in pw.inp   Done                     12/18/2018 19:34:54
00007 suncat2050 pw.x -in pw.inp   Done                     12/18/2018 19:34:54
00008 suncat2050 pw.x -in pw.inp   Done                     12/18/2018 19:34:54
00009 suncat2050 pw.x -in pw.inp   Done                     12/18/2018 19:34:54
00010 suncat2050 pw.x -in pw.inp   Done                     12/18/2018 19:34:54
00011 suncat2050 pw.x -in pw.inp   Done                     12/18/2018 19:34:54
00012 suncat2050 pw.x -in pw.inp   Done                     12/18/2018 19:34:54
00013 suncat2050 pw.x -in pw.inp   Done                     12/18/2018 19:34:54
00014 suncat2050 pw.x -in pw.inp   Done                     12/18/2018 19:34:54
00015 suncat2050 pw.x -in pw.inp   Done                     12/18/2018 19:34:54
00016 suncat2049 pw.x -in pw.inp   Done                     12/18/2018 19:34:54
00017 suncat2049 pw.x -in pw.inp   Done                     12/18/2018 19:34:54
00018 suncat2049 pw.x -in pw.inp   Done                     12/18/2018 19:34:54
00019 suncat2049 pw.x -in pw.inp   Done                     12/18/2018 19:34:54
00020 suncat2049 pw.x -in pw.inp   Done                     12/18/2018 19:34:54
00021 suncat2049 pw.x -in pw.inp   Done                     12/18/2018 19:34:54
00022 suncat2049 pw.x -in pw.inp   Done                     12/18/2018 19:34:54
00023 suncat2049 pw.x -in pw.inp   Done                     12/18/2018 19:34:54
00024 suncat2049 pw.x -in pw.inp   Done                     12/18/2018 19:34:54
00025 suncat2049 pw.x -in pw.inp   Done                     12/18/2018 19:34:54
00026 suncat2049 pw.x -in pw.inp   Done                     12/18/2018 19:34:54
00027 suncat2049 pw.x -in pw.inp   Done                     12/18/2018 19:34:54
00028 suncat2049 pw.x -in pw.inp   Done                     12/18/2018 19:34:54
00029 suncat2049 pw.x -in pw.inp   Done                     12/18/2018 19:34:54
00030 suncat2049 pw.x -in pw.inp   Done                     12/18/2018 19:34:54
00031 suncat2049 pw.x -in pw.inp   Done                     12/18/2018 19:34:54