     Program PWSCF v.5.1rc2 (svn rev. 11289) starts on 24Dec2018 at 17:31:21

     Current dimensions of program PWSCF are:
     Max number of different atomic species (ntypx) = 10
     Max number of k-points (npk) =  40000
     Max angular momentum in pseudopotentials (lmaxx) =  3
     Presently stress not available with electric field

     IMPORTANT: XC functional enforced from input :
     Exchange-correlation      = BEEF-VDW ( 1  4 27 13 2)
     Any further DFT definition will be discarded
     Please, verify this is what you really want

     Subspace diagonalization in iterative solution of the eigenvalue problem:
     a serial algorithm will be used

     Found symmetry operation: I + ( -0.5000 -0.5000  0.0000)
     This is a supercell, fractional translations are disabled

     bravais-lattice index     =            0
     lattice parameter (alat)  =       1.8897  a.u.
     unit-cell volume          =    6822.2753 (a.u.)^3
     number of atoms/cell      =           12
     number of atomic types    =            2
     number of electrons       =       198.00
     number of Kohn-Sham states=          129
     kinetic-energy cutoff     =      36.7493  Ry
     charge density cutoff     =     367.4932  Ry
     convergence threshold     =      1.0E-06
     mixing beta               =       0.1000
     number of iterations used =           10  plain     mixing
     Exchange-correlation      = BEEF-VDW ( 1  4 27 13 2)
     nstep                     =           50

     celldm(1)=   1.889726  celldm(2)=   0.000000  celldm(3)=   0.000000
     celldm(4)=   0.000000  celldm(5)=   0.000000  celldm(6)=   0.000000

     crystal axes: (cart. coord. in units of alat)
               a(1) = (   6.640080   0.000000   0.000000 )
               a(2) = (   2.903137   5.971806   0.000000 )
               a(3) = (   0.000000   0.000000  25.494919 )

     reciprocal axes: (cart. coord. in units 2 pi/alat)
               b(1) = (  0.150601 -0.073213  0.000000 )
               b(2) = (  0.000000  0.167454  0.000000 )
               b(3) = (  0.000000  0.000000  0.039224 )

     PseudoPot. # 1 for Ga read from file:
     /afs/slac.stanford.edu/u/if/mamunm/psp/gbrv1.5pbe/Ga.UPF
     MD5 check sum: ccd671392a58a050fbb373893b4fcd66
     Pseudo is Ultrasoft + core correction, Zval = 19.0
     Generated by new atomic code, or converted to UPF format
     Using radial grid of  871 points,  6 beta functions with:
                l(1) =   0
                l(2) =   0
                l(3) =   1
                l(4) =   1
                l(5) =   2
                l(6) =   2
     Q(r) pseudized with  8 coefficients,  rinner =    1.250   1.250   1.250
                                                       1.250   1.250

     PseudoPot. # 2 for Pb read from file:
     /afs/slac.stanford.edu/u/if/mamunm/psp/gbrv1.5pbe/Pb.UPF
     MD5 check sum: 3d1c1779aa92214d1e8f3a7db79003e2
     Pseudo is Ultrasoft + core correction, Zval = 14.0
     Generated by new atomic code, or converted to UPF format
     Using radial grid of  899 points,  6 beta functions with:
                l(1) =   0
                l(2) =   0
                l(3) =   1
                l(4) =   1
                l(5) =   2
                l(6) =   2
     Q(r) pseudized with  6 coefficients,  rinner =    1.000   1.000   1.000
                                                       1.000   1.000

     vdW kernel table read from file vdW_kernel_table
     MD5 check sum: 095c7af220d748ca6e76c0b4c6cfb241

     atomic species   valence    mass     pseudopotential
        Ga1           19.00    69.72300     Ga( 1.00)
        Pb1           14.00   207.20000     Pb( 1.00)

     No symmetry found

   Cartesian axes

     site n.     atom                  positions (alat units)
         1           Ga1 tau(   1) = (   0.0000000   0.0000000  10.0000000  )
         2           Ga1 tau(   2) = (   4.7716089   2.9859028  10.0000000  )
         3           Pb1 tau(   3) = (   3.3200402   0.0000000  10.0000000  )
         4           Pb1 tau(   4) = (   1.4515687   2.9859028  10.0000000  )
         5           Ga1 tau(   5) = (   6.6400805   4.1551257  12.7474594  )
         6           Ga1 tau(   6) = (   1.8684716   1.1692229  12.7474594  )
         7           Pb1 tau(   7) = (   3.3200402   4.1551257  12.7474594  )
         8           Pb1 tau(   8) = (   5.1885118   1.1692229  12.7474594  )
         9           Ga1 tau(   9) = (   3.7369431   2.3384458  15.4949189  )
        10           Ga1 tau(  10) = (   8.5085520   5.3243486  15.4949189  )
        11           Pb1 tau(  11) = (   7.0569834   2.3384458  15.4949189  )
        12           Pb1 tau(  12) = (   5.1885118   5.3243486  15.4949189  )

     number of k points=    20  Fermi-Dirac smearing, width (Ry)=  0.0110
                       cart. coord. in units 2pi/alat
        k(    1) = (   0.0000000   0.0000000   0.0000000), wk =   0.0555556
        k(    2) = (   0.0000000   0.0279089   0.0000000), wk =   0.1111111
        k(    3) = (   0.0000000   0.0558178   0.0000000), wk =   0.1111111
        k(    4) = (   0.0000000  -0.0837268   0.0000000), wk =   0.0555556
        k(    5) = (   0.0251001  -0.0122022   0.0000000), wk =   0.1111111
        k(    6) = (   0.0251001   0.0157067   0.0000000), wk =   0.1111111
        k(    7) = (   0.0251001   0.0436157   0.0000000), wk =   0.1111111
        k(    8) = (   0.0251001  -0.0959289   0.0000000), wk =   0.1111111
        k(    9) = (   0.0251001  -0.0680200   0.0000000), wk =   0.1111111
        k(   10) = (   0.0251001  -0.0401111   0.0000000), wk =   0.1111111
        k(   11) = (   0.0502002  -0.0244044   0.0000000), wk =   0.1111111
        k(   12) = (   0.0502002   0.0035046   0.0000000), wk =   0.1111111
        k(   13) = (   0.0502002   0.0314135   0.0000000), wk =   0.1111111
        k(   14) = (   0.0502002  -0.1081311   0.0000000), wk =   0.1111111
        k(   15) = (   0.0502002  -0.0802222   0.0000000), wk =   0.1111111
        k(   16) = (   0.0502002  -0.0523133   0.0000000), wk =   0.1111111
        k(   17) = (  -0.0753003   0.0366065   0.0000000), wk =   0.0555556
        k(   18) = (  -0.0753003   0.0645155   0.0000000), wk =   0.1111111
        k(   19) = (  -0.0753003   0.0924244   0.0000000), wk =   0.1111111
        k(   20) = (  -0.0753003  -0.0471202   0.0000000), wk =   0.0555556

     Largest allocated arrays     est. size (Mb)     dimensions
     Largest temporary arrays     est. size (Mb)     dimensions

     Check: negative/imaginary core charge=   -0.000001    0.000000

     Initial potential from superposition of free atoms
     Check: negative starting charge=   -0.101721

     starting charge  191.98589, renormalised to  198.00000

     negative rho (up, down):  1.049E-01 0.000E+00

     *
     * You are using vdW-DF for exchange-correlation in this calculation.
     * Please cite the following three references that made this development
     * possible:
     *
     *   M. Dion, H. Rydberg, E. Schroder, D. C. Langreth, and
     *   B. I. Lundqvist, Phys. Rev. Lett. 92, 246401 (2004).
     *
     *   T. Thonhauser, V. R. Cooper, S. Li, A. Puzder, P. Hyldgaard, and
     *   D. C. Langreth, Phys. Rev. B 76, 125112 (2007).
     *
     *   G. Roman-Perez and J. M. Soler, Phys. Rev. Lett. 103, 096102 (2009).
     *
     *
     * If you are using vdW-DF2, please also cite:
     *
     *   K. Lee, E. D. Murray, L. Kong, B. I. Lundqvist, and
     *   D. C. Langreth, Phys. Rev. B 82, 081101(R) (2010).
     *
     *
     * If you are calculating the stress with vdW-DF, please also cite:
     *
     *   R. Sabatini, E. Kucukbenli, B. Kolb, T. Thonhauser, and
     *   S. de Gironcoli, J. Phys.: Condens. Matter 24, 424209 (2012).
     *

     Carrying out vdW-DF run using the following parameters:

     Nqs =      20    Nr_points =    1024   r_max =   100.000
     q_mesh =
               0.00001000     0.04494208     0.09755937     0.15916263
               0.23128650     0.31572767     0.41458969     0.53033537
               0.66584808     0.82450364     1.01025438     1.22772762
               1.48234092     1.78043706     2.12944203     2.53805004
               3.01644009     3.57652955     4.23227104     5.00000000

     Gradients computed in reciprocal space

     Adding external electric field

     Computed dipole along edir(3) :
        Dipole                0.0000 Ry au,          0.0000 Debye
        Dipole field          0.0000 Ry au

        Potential amp.       -0.0000 Ry
        Total length         46.9740 bohr

     Starting wfc are  126 randomized atomic wfcs +    3 random wfc

     Self-consistent Calculation

     iteration #  1     ecut=    36.75 Ry     beta=0.10
     Davidson diagonalization with overlap
     ethr =  1.00E-02,  avg # of iterations =  8.8

[...]

     total energy              =   -3497.01161967 Ry
     Harris-Foulkes estimate   =   -3499.13698974 Ry
     estimated scf accuracy    <      12.02066259 Ry

[...]

     End of self-consistent calculation

          k = 0.0000 0.0000 0.0000 ( 25645 PWs)   bands (ev):

   -94.3638 -94.3638 -94.3638 -94.3637 -94.3434 -94.3433 -94.3433 -94.3432
   -94.3318 -94.3317 -94.3317 -94.3316 -94.2134 -94.2133 -94.2101 -94.2100
   -94.1970 -94.1970 -16.9568 -16.9476 -16.8891 -16.8808 -16.8705 -16.8679
   -16.8658 -16.8568 -16.8562 -16.8481 -16.8442 -16.8417 -16.8390 -16.8308
   -16.8049 -16.8010 -16.7816 -16.7804 -16.7671 -16.7290 -16.7159 -16.7105
   -16.6962 -16.6567 -16.6480 -16.6252 -16.6207 -16.6145 -16.6118 -16.5359
   -14.6940 -14.6930 -14.6836 -14.6826 -14.6681 -14.6676 -14.6660 -14.6658
   -14.6641 -14.6634 -14.6627 -14.6619 -14.6614 -14.6614 -14.6612 -14.6597
   -14.6371 -14.6365 -14.6235 -14.6231 -14.5536 -14.5443 -14.5330 -14.5272
   -14.5202 -14.5184 -14.5181 -14.5159 -14.5088 -14.4924  -9.9970  -9.0404
    -7.8286  -7.3019  -7.0222  -6.5009  -4.8414  -4.6021  -4.6018  -4.4899
    -3.7844  -3.5855  -2.5563  -2.5406  -2.2360  -1.9302  -1.5843  -1.4680
    -1.2911  -1.2469  -1.0241  -0.6526   0.5563   1.7099   2.0707   2.4269
     2.4667   2.8003   2.9027   3.0240   3.1071   3.6775   4.0150   4.1175
     4.2949   4.3468   4.5666   4.6713   4.7603   5.4298   5.4501   5.5644
     5.7017   5.8787   6.0501   6.1660   6.2366   6.3244   6.4862   6.6250
     6.8354

[...]

          k =-0.0753 0.0366 0.0000 ( 25694 PWs)   bands (ev):

[...]

     the Fermi energy is     0.5287 ev

!    total energy              =   -3495.58495160 Ry
     Harris-Foulkes estimate   =   -3495.58494406 Ry
     estimated scf accuracy    <       0.00000094 Ry

     The total energy is the sum of the following terms:

     one-electron contribution =  -15804.05826458 Ry
     hartree contribution      =    7938.15904399 Ry
     xc contribution           =    -689.70445965 Ry
     ewald contribution        =    5060.05434390 Ry
     electric field correction =       0.00000000 Ry
     smearing contrib. (-TS)   =      -0.03561527 Ry

     convergence has been achieved in  14 iterations

 BEEF-vdW xc energy contributions
           1 :   -615.660481276456
           2 :    566.073916387402
           3 :   -480.907826749631
           4 :    381.917733255134
           5 :   -289.740147320347
[...]
                l(1) =   0
                l(2) =   0
                l(3) =   1
                l(4) =   1
                l(5) =   2
                l(6) =   2
     Q(r) pseudized with  8 coefficients,  rinner =    1.250   1.250   1.250
                                                       1.250   1.250

     PseudoPot. # 2 for Pb read from file:
     /afs/slac.stanford.edu/u/if/mamunm/psp/gbrv1.5pbe/Pb.UPF
     MD5 check sum: 3d1c1779aa92214d1e8f3a7db79003e2
     Pseudo is Ultrasoft + core correction, Zval = 14.0
     Generated by new atomic code, or converted to UPF format
     Using radial grid of  899 points,  6 beta functions with:
                l(1) =   0
                l(2) =   0
                l(3) =   1
                l(4) =   1
                l(5) =   2
                l(6) =   2
     Q(r) pseudized with  6 coefficients,  rinner =    1.000   1.000   1.000
                                                       1.000   1.000

     vdW kernel table read from file vdW_kernel_table
     MD5 check sum: 095c7af220d748ca6e76c0b4c6cfb241

     atomic species   valence    mass     pseudopotential
        Ga1           19.00    69.72300     Ga( 1.00)
        Pb1           14.00   207.20000     Pb( 1.00)

     No symmetry found

   Cartesian axes

     site n.     atom                  positions (alat units)
         1           Ga1 tau(   1) = (   0.0000000   0.0000000  10.0000000  )
         2           Ga1 tau(   2) = (   4.7716089   2.9859028  10.0000000  )
         3           Pb1 tau(   3) = (   3.3200402   0.0000000  10.0000000  )
         4           Pb1 tau(   4) = (   1.4515687   2.9859028  10.0000000  )
         5           Ga1 tau(   5) = (   6.6400805   4.1551257  12.7474594  )
         6           Ga1 tau(   6) = (   1.8684716   1.1692229  12.7474594  )
         7           Pb1 tau(   7) = (   3.3200402   4.1551257  12.7474594  )
         8           Pb1 tau(   8) = (   5.1885118   1.1692229  12.7474594  )
         9           Ga1 tau(   9) = (   3.6960376   2.3128806  15.4183313  )
        10           Ga1 tau(  10) = (   8.4676637   5.2987586  15.4183648  )
        11           Pb1 tau(  11) = (   7.0565273   2.3381760  15.3553517  )
        12           Pb1 tau(  12) = (   5.1880722   5.3240919  15.3553390  )

     number of k points=    20  Fermi-Dirac smearing, width (Ry)=  0.0110
                       cart. coord. in units 2pi/alat
        k(    1) = (   0.0000000   0.0000000   0.0000000), wk =   0.0555556
        k(    2) = (   0.0000000   0.0279089   0.0000000), wk =   0.1111111
        k(    3) = (   0.0000000   0.0558178   0.0000000), wk =   0.1111111
        k(    4) = (   0.0000000  -0.0837268   0.0000000), wk =   0.0555556
        k(    5) = (   0.0251001  -0.0122022   0.0000000), wk =   0.1111111
        k(    6) = (   0.0251001   0.0157067   0.0000000), wk =   0.1111111
        k(    7) = (   0.0251001   0.0436157   0.0000000), wk =   0.1111111
        k(    8) = (   0.0251001  -0.0959289   0.0000000), wk =   0.1111111
        k(    9) = (   0.0251001  -0.0680200   0.0000000), wk =   0.1111111
        k(   10) = (   0.0251001  -0.0401111   0.0000000), wk =   0.1111111
        k(   11) = (   0.0502002  -0.0244044   0.0000000), wk =   0.1111111
        k(   12) = (   0.0502002   0.0035046   0.0000000), wk =   0.1111111
        k(   13) = (   0.0502002   0.0314135   0.0000000), wk =   0.1111111
        k(   14) = (   0.0502002  -0.1081311   0.0000000), wk =   0.1111111
        k(   15) = (   0.0502002  -0.0802222   0.0000000), wk =   0.1111111
        k(   16) = (   0.0502002  -0.0523133   0.0000000), wk =   0.1111111
        k(   17) = (  -0.0753003   0.0366065   0.0000000), wk =   0.0555556
        k(   18) = (  -0.0753003   0.0645155   0.0000000), wk =   0.1111111
        k(   19) = (  -0.0753003   0.0924244   0.0000000), wk =   0.1111111
        k(   20) = (  -0.0753003  -0.0471202   0.0000000), wk =   0.0555556

     Largest allocated arrays     est. size (Mb)     dimensions
     Largest temporary arrays     est. size (Mb)     dimensions

     Check: negative/imaginary core charge=   -0.000001    0.000000

     Initial potential from superposition of free atoms
     Check: negative starting charge=   -0.101637

     starting charge  191.98589, renormalised to  198.00000

[...]

     *
     * You are using vdW-DF for exchange-correlation in this calculation.
     * Please cite the following three references that made this development
     * possible:
     *
     *   M. Dion, H. Rydberg, E. Schroder, D. C. Langreth, and
     *   B. I. Lundqvist, Phys. Rev. Lett. 92, 246401 (2004).
     *
     *   T. Thonhauser, V. R. Cooper, S. Li, A. Puzder, P. Hyldgaard, and
     *   D. C. Langreth, Phys. Rev. B 76, 125112 (2007).
     *
     *   G. Roman-Perez and J. M. Soler, Phys. Rev. Lett. 103, 096102 (2009).
     *
     *
     * If you are using vdW-DF2, please also cite:
     *
     *   K. Lee, E. D. Murray, L. Kong, B. I. Lundqvist, and
     *   D. C. Langreth, Phys. Rev. B 82, 081101(R) (2010).
     *
     *
     * If you are calculating the stress with vdW-DF, please also cite:
     *
     *   R. Sabatini, E. Kucukbenli, B. Kolb, T. Thonhauser, and
     *   S. de Gironcoli, J. Phys.: Condens. Matter 24, 424209 (2012).
     *

     Carrying out vdW-DF run using the following parameters:

     Nqs =      20    Nr_points =    1024   r_max =   100.000
     q_mesh =
               0.00001000     0.04494208     0.09755937     0.15916263
               0.23128650     0.31572767     0.41458969     0.53033537
               0.66584808     0.82450364     1.01025438     1.22772762
               1.48234092     1.78043706     2.12944203     2.53805004
               3.01644009     3.57652955     4.23227104     5.00000000

     Gradients computed in reciprocal space

[...]

     Starting wfc are  126 randomized atomic wfcs +    3 random wfc

     Self-consistent Calculation

[...]

     total energy              =   -3495.58785097 Ry
     Harris-Foulkes estimate   =   -3495.58782773 Ry
     estimated scf accuracy    <       0.00001529 Ry

     iteration # 14     ecut=    36.75 Ry     beta=0.10
     Davidson diagonalization with overlap
     ethr =  7.72E-09,  avg # of iterations =  3.4

[...]

     negative rho (up, down):  1.073E-01 0.000E+00

     Adding external electric field

     Computed dipole along edir(3) :
        Dipole               -0.0241 Ry au,         -0.0614 Debye
        Dipole field         -0.0000 Ry au

        Potential amp.        0.0042 Ry
        Total length         46.9740 bohr

     End of self-consistent calculation

[...]

          k = 0.0502-0.0523 0.0000 ( 25665 PWs)   bands (ev):

[...]

          k =-0.0753-0.0471 0.0000 ( 25688 PWs)   bands (ev):

   -94.3621 -94.3621 -94.3460 -94.3460 -94.3416 -94.3415 -94.3299 -94.3299
   -94.3281 -94.3280 -94.3178 -94.3178 -94.2231 -94.2231 -94.2189 -94.2188
   -94.2035 -94.2034 -16.9625 -16.9375 -16.8944 -16.8726 -16.8673 -16.8668
   -16.8662 -16.8554 -16.8520 -16.8483 -16.8327 -16.8278 -16.8262 -16.8224
   -16.8129 -16.7870 -16.7841 -16.7626 -16.7610 -16.7291 -16.7107 -16.7048
   -16.6984 -16.6579 -16.6469 -16.6335 -16.6220 -16.6151 -16.6085 -16.5381
   -14.6929 -14.6822 -14.6792 -14.6699 -14.6686 -14.6651 -14.6649 -14.6615
   -14.6601 -14.6598 -14.6552 -14.6541 -14.6536 -14.6486 -14.6480 -14.6454
   -14.6409 -14.6299 -14.6254 -14.6139 -14.5641 -14.5596 -14.5452 -14.5377
   -14.5369 -14.5350 -14.5295 -14.5247 -14.5178 -14.5012  -9.2572  -9.0067
    -8.3832  -7.9041  -7.1041  -6.4406  -6.1615  -5.7533  -5.3202  -5.2206
    -4.6610  -3.3651  -0.9643  -0.8810  -0.6169  -0.5048  -0.4752  -0.3820
     0.0690   0.8267   0.9845   1.0369   1.3603   1.5093   1.7699   1.8883
     1.9431   2.0028   2.4107   2.4324   2.8482   3.1267   3.1622   3.2308
     3.7712   3.8164   3.9186   4.0836   4.2125   4.2271   4.3552   4.3862
     4.8332   4.9171   5.1144   5.1813   5.2194   5.5012   5.5433   5.5961
     5.7178

     the Fermi energy is     0.5375 ev

!    total energy              =   -3495.58785699 Ry
     Harris-Foulkes estimate   =   -3495.58785460 Ry
     estimated scf accuracy    <       0.00000049 Ry

     The total energy is the sum of the following terms:

     one-electron contribution =  -16008.55692578 Ry
     hartree contribution      =    8040.43438766 Ry
     xc contribution           =    -689.77741803 Ry
     ewald contribution        =    5162.34649061 Ry
     electric field correction =       0.00000107 Ry
     smearing contrib. (-TS)   =      -0.03439252 Ry

     convergence has been achieved in  14 iterations

 BEEF-vdW xc energy contributions
           1 :   -615.738024525680
           2 :    566.197884846042
           3 :   -481.089778366457
           4 :    382.119345864381
           5 :   -289.893959593247
           6 :    216.880234524219
           7 :   -165.069511517236
           8 :    128.627657159315
           9 :   -99.3506341820355
          10 :    71.6602081997002
          11 :   -44.6941486443193
          12 :    21.0789120956113
          13 :   -3.92269724848279
          14 :   -5.73801727239197
          15 :    9.56356955609272
          16 :   -10.6519509972443
          17 :    11.6136328817338
          18 :   -13.3661460428807
          19 :    15.2629039308931
          20 :   -16.1646520505348
          21 :    15.5196907504707
          22 :   -13.7246484823730
          23 :    11.6952490674727
          24 :   -10.1558908356239
          25 :    9.24679038562579
          26 :   -8.67629977882052
          27 :    8.16388359502889
          28 :   -7.72945330286620
          29 :    7.59069820620971
          30 :   -7.81847173580002
          31 :   -47.4786293098033
          32 :   -33.6761936630571

     Forces acting on atoms (Ry/au):

     negative rho (up, down):  1.073E-01 0.000E+00
     atom    1 type  1   force =     0.00263880    0.00165111    0.00361029
     atom    2 type  1   force =     0.00263821    0.00165112    0.00360991
     atom    3 type  2   force =    -0.00190819   -0.00119422    0.00841475
     atom    4 type  2   force =    -0.00190759   -0.00119428    0.00841511
     atom    5 type  1   force =     0.00098847    0.00061884   -0.00604864
     atom    6 type  1   force =     0.00098933    0.00061944   -0.00604828
     atom    7 type  2   force =    -0.00135643   -0.00084801   -0.00533102
     atom    8 type  2   force =    -0.00135625   -0.00084930   -0.00533106
     atom    9 type  1   force =    -0.00062945   -0.00039428   -0.00117686
     atom   10 type  1   force =    -0.00062893   -0.00039327   -0.00117904
     atom   11 type  2   force =     0.00026592    0.00016579    0.00053270
     atom   12 type  2   force =     0.00026611    0.00016705    0.00053215

     Total force =     0.018431     Total SCF correction =     0.003967
     SCF correction compared to forces is large: reduce conv_thr to get better values

     entering subroutine stress ...

     negative rho (up, down):  1.073E-01 0.000E+00
          total   stress  (Ry/bohr**3)                   (kbar)     P=   -4.22
  -0.00002991   0.00000090  -0.00000253         -4.40      0.13     -0.37
   0.00000090  -0.00003078  -0.00000159          0.13     -4.53     -0.23
  -0.00000253  -0.00000159  -0.00002543         -0.37     -0.23     -3.74

 !ASE

     Writing output data file calc.save

     General routines

     Parallel routines

   This run was terminated on:  20:57:36  24Dec2018

   JOB DONE.
Job  /afs/slac/g/suncat/bin/suncat-tsmpirun -x LD_LIBRARY_PATH -wdir /scratch/qe108973_9gLUN pw.x -in pw.inp

TID   HOST_NAME   COMMAND_LINE            STATUS            TERMINATION_TIME
00000 suncat0069 pw.x -in pw.inp   Done                     12/24/2018 20:57:36
00001 suncat0069 pw.x -in pw.inp   Done                     12/24/2018 20:57:36
00002 suncat0069 pw.x -in pw.inp   Done                     12/24/2018 20:57:36
00003 suncat0069 pw.x -in pw.inp   Done                     12/24/2018 20:57:36
00004 suncat0069 pw.x -in pw.inp   Done                     12/24/2018 20:57:36
00005 suncat0069 pw.x -in pw.inp   Done                     12/24/2018 20:57:36
00006 suncat0069 pw.x -in pw.inp   Done                     12/24/2018 20:57:36
00007 suncat0069 pw.x -in pw.inp   Done                     12/24/2018 20:57:36
00008 suncat0068 pw.x -in pw.inp   Done                     12/24/2018 20:57:36
00009 suncat0068 pw.x -in pw.inp   Done                     12/24/2018 20:57:36
00010 suncat0068 pw.x -in pw.inp   Done                     12/24/2018 20:57:36
00011 suncat0068 pw.x -in pw.inp   Done                     12/24/2018 20:57:36
00012 suncat0068 pw.x -in pw.inp   Done                     12/24/2018 20:57:36
00013 suncat0068 pw.x -in pw.inp   Done                     12/24/2018 20:57:36
00014 suncat0068 pw.x -in pw.inp   Done                     12/24/2018 20:57:36
00015 suncat0068 pw.x -in pw.inp   Done                     12/24/2018 20:57:36
00016 suncat0066 pw.x -in pw.inp   Done                     12/24/2018 20:57:36
00017 suncat0066 pw.x -in pw.inp   Done                     12/24/2018 20:57:36
00018 suncat0066 pw.x -in pw.inp   Done                     12/24/2018 20:57:36
00019 suncat0066 pw.x -in pw.inp   Done                     12/24/2018 20:57:36
00020 suncat0066 pw.x -in pw.inp   Done                     12/24/2018 20:57:36
00021 suncat0066 pw.x -in pw.inp   Done                     12/24/2018 20:57:36
00022 suncat0066 pw.x -in pw.inp   Done                     12/24/2018 20:57:36
00023 suncat0066 pw.x -in pw.inp   Done                     12/24/2018 20:57:36
00024 suncat0061 pw.x -in pw.inp   Done                     12/24/2018 20:57:36
00025 suncat0061 pw.x -in pw.inp   Done                     12/24/2018 20:57:36
00026 suncat0061 pw.x -in pw.inp   Done                     12/24/2018 20:57:36
00027 suncat0061 pw.x -in pw.inp   Done                     12/24/2018 20:57:36
00028 suncat0061 pw.x -in pw.inp   Done                     12/24/2018 20:57:36
00029 suncat0061 pw.x -in pw.inp   Done                     12/24/2018 20:57:36
00030 suncat0061 pw.x -in pw.inp   Done                     12/24/2018 20:57:36
00031 suncat0061 pw.x -in pw.inp   Done                     12/24/2018 20:57:36
00032 suncat0137 pw.x -in pw.inp   Done                     12/24/2018 20:57:36
00033 suncat0137 pw.x -in pw.inp   Done                     12/24/2018 20:57:36
00034 suncat0137 pw.x -in pw.inp   Done                     12/24/2018 20:57:36
00035 suncat0137 pw.x -in pw.inp   Done                     12/24/2018 20:57:36
00036 suncat0137 pw.x -in pw.inp   Done                     12/24/2018 20:57:36
00037 suncat0137 pw.x -in pw.inp   Done                     12/24/2018 20:57:36
00038 suncat0137 pw.x -in pw.inp   Done                     12/24/2018 20:57:36
00039 suncat0137 pw.x -in pw.inp   Done                     12/24/2018 20:57:36
00040 suncat0136 pw.x -in pw.inp   Done                     12/24/2018 20:57:36
00041 suncat0136 pw.x -in pw.inp   Done                     12/24/2018 20:57:36
00042 suncat0136 pw.x -in pw.inp   Done                     12/24/2018 20:57:36
00043 suncat0136 pw.x -in pw.inp   Done                     12/24/2018 20:57:36
00044 suncat0136 pw.x -in pw.inp   Done                     12/24/2018 20:57:36
00045 suncat0136 pw.x -in pw.inp   Done                     12/24/2018 20:57:36
00046 suncat0136 pw.x -in pw.inp   Done                     12/24/2018 20:57:36
00047 suncat0136 pw.x -in pw.inp   Done                     12/24/2018 20:57:36
00048 suncat0135 pw.x -in pw.inp   Done                     12/24/2018 20:57:36
00049 suncat0135 pw.x -in pw.inp   Done                     12/24/2018 20:57:36
00050 suncat0135 pw.x -in pw.inp   Done                     12/24/2018 20:57:36
00051 suncat0135 pw.x -in pw.inp   Done                     12/24/2018 20:57:36
00052 suncat0135 pw.x -in pw.inp   Done                     12/24/2018 20:57:36
00053 suncat0135 pw.x -in pw.inp   Done                     12/24/2018 20:57:36
00054 suncat0135 pw.x -in pw.inp   Done                     12/24/2018 20:57:36
00055 suncat0135 pw.x -in pw.inp   Done                     12/24/2018 20:57:36
00056 suncat0134 pw.x -in pw.inp   Done                     12/24/2018 20:57:36
00057 suncat0134 pw.x -in pw.inp   Done                     12/24/2018 20:57:36
00058 suncat0134 pw.x -in pw.inp   Done                     12/24/2018 20:57:36
00059 suncat0134 pw.x -in pw.inp   Done                     12/24/2018 20:57:36
00060 suncat0134 pw.x -in pw.inp   Done                     12/24/2018 20:57:36
00061 suncat0134 pw.x -in pw.inp   Done                     12/24/2018 20:57:36
00062 suncat0134 pw.x -in pw.inp   Done                     12/24/2018 20:57:36
00063 suncat0134 pw.x -in pw.inp   Done                     12/24/2018 20:57:36