     Program PWSCF v.5.1rc2 (svn rev. 11289) starts on 25Dec2018 at  0:24:52

     Current dimensions of program PWSCF are:
     Max number of different atomic species (ntypx) = 10
     Max number of k-points (npk) =  40000
     Max angular momentum in pseudopotentials (lmaxx) =  3
     Presently stress not available with electric field

     IMPORTANT: XC functional enforced from input :
     Exchange-correlation      = BEEF-VDW ( 1  4 27 13 2)
     Any further DFT definition will be discarded
     Please, verify this is what you really want

     Subspace diagonalization in iterative solution of the eigenvalue problem:
     a serial algorithm will be used

     Found symmetry operation: I + ( -0.5000  0.5000  0.0000)
     This is a supercell, fractional translations are disabled

     bravais-lattice index     =            0
     lattice parameter (alat)  =       1.8897  a.u.
     unit-cell volume          =    7531.1382 (a.u.)^3
     number of atoms/cell      =           12
     number of atomic types    =            2
     number of electrons       =       144.00
     number of Kohn-Sham states=          102
     kinetic-energy cutoff     =      36.7493  Ry
     charge density cutoff     =     367.4932  Ry
     convergence threshold     =      1.0E-06
     mixing beta               =       0.1000
     number of iterations used =           10  plain     mixing
     Exchange-correlation      = BEEF-VDW ( 1  4 27 13 2)
     nstep                     =           50

     celldm(1)=   1.889726  celldm(2)=   0.000000  celldm(3)=   0.000000
     celldm(4)=   0.000000  celldm(5)=   0.000000  celldm(6)=   0.000000

     crystal axes: (cart. coord. in units of alat)
               a(1) = (   6.941354   0.000000   0.000000 )
               a(2) = (   3.030200   6.245021   0.000000 )
               a(3) = (   0.000000   0.000000  25.744587 )

     reciprocal axes: (cart. coord. in units 2 pi/alat)
               b(1) = (  0.144064 -0.069903  0.000000 )
               b(2) = (  0.000000  0.160128  0.000000 )
               b(3) = (  0.000000  0.000000  0.038843 )

     PseudoPot. # 1 for La read from file:
     /afs/slac.stanford.edu/u/if/mamunm/psp/gbrv1.5pbe/La.UPF
     MD5 check sum: 5937b0c7494ba0601a847275249473aa
     Pseudo is Ultrasoft + core correction, Zval = 11.0
     Generated by new atomic code, or converted to UPF format
     Using radial grid of  995 points,  8 beta functions with:
                l(1) =   0
                l(2) =   0
                l(3) =   1
                l(4) =   1
                l(5) =   2
                l(6) =   2
                l(7) =   3
                l(8) =   3
     Q(r) pseudized with  8 coefficients,  rinner =    1.700   1.700   1.700
                                                       1.700   1.700   1.700
                                                       1.700

     PseudoPot. # 2 for In read from file:
     /afs/slac.stanford.edu/u/if/mamunm/psp/gbrv1.5pbe/In.UPF
     MD5 check sum: 90777abd96fbb83f2e67db2a40c566b9
     Pseudo is Ultrasoft + core correction, Zval = 13.0
     Generated by new atomic code, or converted to UPF format
     Using radial grid of  889 points,  6 beta functions with:
                l(1) =   0
                l(2) =   0
                l(3) =   1
                l(4) =   1
                l(5) =   2
                l(6) =   2
     Q(r) pseudized with  6 coefficients,  rinner =    1.400   1.400   1.400
                                                       1.400   1.400

     vdW kernel table read from file vdW_kernel_table
     MD5 check sum: 095c7af220d748ca6e76c0b4c6cfb241

     atomic species   valence    mass     pseudopotential
        La1           11.00   138.90547     La( 1.00)
        In1           13.00   114.81800     In( 1.00)

     No symmetry found

   Cartesian axes

     site n.     atom                  positions (alat units)
         1           La1 tau(   1) = (   0.0000000   0.0000000  10.0000000  )
         2           La1 tau(   2) = (   4.9857768   3.1225105  10.0000000  )
         3           In1 tau(   3) = (   3.4706770   0.0000000  10.0000000  )
         4           In1 tau(   4) = (   1.5150998   3.1225105  10.0000000  )
         5           La1 tau(   5) = (   6.9413540   4.3472565  12.8722933  )
         6           La1 tau(   6) = (   1.9555772   1.2247460  12.8722933  )
         7           In1 tau(   7) = (   3.4706770   4.3472565  12.8722933  )
         8           In1 tau(   8) = (   5.4262542   1.2247460  12.8722933  )
         9           La1 tau(   9) = (   3.9111545   2.4494921  15.7445866  )
        10           La1 tau(  10) = (   8.8969313   5.5720025  15.7445866  )
        11           In1 tau(  11) = (   7.3818315   2.4494921  15.7445866  )
        12           In1 tau(  12) = (   5.4262542   5.5720025  15.7445866  )

     number of k points=    20  Fermi-Dirac smearing, width (Ry)=  0.0110
                       cart. coord. in units 2pi/alat
        k(    1) = (   0.0000000   0.0000000   0.0000000), wk =   0.0555556
        k(    2) = (   0.0000000   0.0266879   0.0000000), wk =   0.1111111
        k(    3) = (   0.0000000   0.0533759   0.0000000), wk =   0.1111111
        k(    4) = (   0.0000000  -0.0800638   0.0000000), wk =   0.0555556
        k(    5) = (   0.0240107  -0.0116504   0.0000000), wk =   0.1111111
        k(    6) = (   0.0240107   0.0150375   0.0000000), wk =   0.1111111
        k(    7) = (   0.0240107   0.0417254   0.0000000), wk =   0.1111111
        k(    8) = (   0.0240107  -0.0917142   0.0000000), wk =   0.1111111
        k(    9) = (   0.0240107  -0.0650263   0.0000000), wk =   0.1111111
        k(   10) = (   0.0240107  -0.0383384   0.0000000), wk =   0.1111111
        k(   11) = (   0.0480214  -0.0233009   0.0000000), wk =   0.1111111
        k(   12) = (   0.0480214   0.0033871   0.0000000), wk =   0.1111111
        k(   13) = (   0.0480214   0.0300750   0.0000000), wk =   0.1111111
        k(   14) = (   0.0480214  -0.1033646   0.0000000), wk =   0.1111111
        k(   15) = (   0.0480214  -0.0766767   0.0000000), wk =   0.1111111
        k(   16) = (   0.0480214  -0.0499888   0.0000000), wk =   0.1111111
        k(   17) = (  -0.0720321   0.0349513   0.0000000), wk =   0.0555556
        k(   18) = (  -0.0720321   0.0616392   0.0000000), wk =   0.1111111
        k(   19) = (  -0.0720321   0.0883271   0.0000000), wk =   0.1111111
        k(   20) = (  -0.0720321  -0.0451125   0.0000000), wk =   0.0555556

     Largest allocated arrays     est. size (Mb)     dimensions
     Largest temporary arrays     est. size (Mb)     dimensions

     Initial potential from superposition of free atoms
     Check: negative starting charge=   -0.425192

     starting charge  134.80759, renormalised to  144.00000

     negative rho (up, down):  4.542E-01 0.000E+00

     *
     * You are using vdW-DF for exchange-correlation in this calculation.
     * Please cite the following three references that made this development
     * possible:
     *
     *   M. Dion, H. Rydberg, E. Schroder, D. C. Langreth, and
     *   B. I. Lundqvist, Phys. Rev. Lett. 92, 246401 (2004).
     *
     *   T. Thonhauser, V. R. Cooper, S. Li, A. Puzder, P. Hyldgaard, and
     *   D. C. Langreth, Phys. Rev. B 76, 125112 (2007).
     *
     *   G. Roman-Perez and J. M. Soler, Phys. Rev. Lett. 103, 096102 (2009).
     *
     *
     * If you are using vdW-DF2, please also cite:
     *
     *   K. Lee, E. D. Murray, L. Kong, B. I. Lundqvist, and
     *   D. C. Langreth, Phys. Rev. B 82, 081101(R) (2010).
     *
     *
     * If you are calculating the stress with vdW-DF, please also cite:
     *
     *   R. Sabatini, E. Kucukbenli, B. Kolb, T. Thonhauser, and
     *   S. de Gironcoli, J. Phys.: Condens. Matter 24, 424209 (2012).
     *

     Carrying out vdW-DF run using the following parameters:

     Nqs =      20    Nr_points =    1024   r_max =   100.000
     q_mesh =
               0.00001000     0.04494208     0.09755937     0.15916263
               0.23128650     0.31572767     0.41458969     0.53033537
               0.66584808     0.82450364     1.01025438     1.22772762
               1.48234092     1.78043706     2.12944203     2.53805004
               3.01644009     3.57652955     4.23227104     5.00000000

     Gradients computed in reciprocal space

     Adding external electric field

     Computed dipole along edir(3) :
        Dipole               -0.0000 Ry au,         -0.0000 Debye
        Dipole field         -0.0000 Ry au

        Potential amp.        0.0000 Ry
        Total length         47.4340 bohr

     Starting wfc are  174 randomized atomic wfcs

     Self-consistent Calculation

     iteration #  1     ecut=    36.75 Ry     beta=0.10
     Davidson diagonalization with overlap
     ethr =  1.00E-02,  avg # of iterations =  2.0

[...]

     total energy              =   -1434.46997667 Ry
     Harris-Foulkes estimate   =   -1435.80192361 Ry
     estimated scf accuracy    <       8.04150493 Ry

[...]

     iteration #  9     ecut=    36.75 Ry     beta=0.10
     Davidson diagonalization with overlap
     c_bands:  2 eigenvalues not converged
     c_bands:  3 eigenvalues not converged
     c_bands:  2 eigenvalues not converged
     ethr =  6.35E-06,  avg # of iterations = 14.7

[...]

     End of self-consistent calculation

          k = 0.0000 0.0000 0.0000 ( 28393 PWs)   bands (ev):

   -32.2217 -32.2196 -32.1473 -32.1459 -31.8217 -31.7463 -16.1430 -16.1400
   -16.0173 -15.9132 -15.9004 -15.8401 -15.8128 -15.7993 -15.7915 -15.7277
   -15.6904 -15.4483 -15.3368 -15.3351 -15.3312 -15.3240 -15.2346 -15.0124
   -13.1641 -13.1514 -13.1426 -13.1303 -13.1203 -13.1095 -13.0979 -13.0953
   -13.0934 -13.0913 -13.0885 -13.0847 -13.0823 -13.0775 -13.0734 -13.0721
   -13.0696 -13.0612 -13.0612 -13.0585 -13.0524 -13.0472 -13.0413 -13.0367
   -13.0206 -13.0183 -13.0066 -12.9877 -12.9836 -12.9544  -5.1828  -4.3338
    -3.8598  -3.5704  -2.9396  -2.8008  -0.0370   0.0720   0.2212   0.2587
     0.3866   0.6043   0.6791   0.8255   0.9834   1.0002   1.4467   1.5618
     1.6317   1.6648   1.7196   1.8360   2.0222   2.0318   2.1064   2.3774
     2.4258   2.5241   2.5265   2.5279   2.5903   2.6511   2.6693   2.6855
     2.7134   2.7245   2.7269   2.7587   2.7688   2.7723   2.7731   2.7781
     2.7788   2.7906   2.8005   2.8099   2.8279   2.8339

[...]

          k =-0.0720 0.0350 0.0000 ( 28334 PWs)   bands (ev):

[...]

     the Fermi energy is     1.3434 ev

!    total energy              =   -1433.09160129 Ry
     Harris-Foulkes estimate   =   -1433.09161365 Ry
     estimated scf accuracy    <       0.00000055 Ry

     The total energy is the sum of the following terms:

     one-electron contribution =   -6578.29940347 Ry
     hartree contribution      =    3335.88822153 Ry
     xc contribution           =    -539.05870255 Ry
     ewald contribution        =    2348.45529555 Ry
     electric field correction =       0.00000000 Ry
     smearing contrib. (-TS)   =      -0.07701236 Ry

     convergence has been achieved in  17 iterations

 BEEF-vdW xc energy contributions
           1 :   -475.408321254201
           2 :    436.277424952519
           3 :   -368.396433958375
[...]
                l(1) =   0
                l(2) =   0
                l(3) =   1
                l(4) =   1
                l(5) =   2
                l(6) =   2
                l(7) =   3
                l(8) =   3
     Q(r) pseudized with  8 coefficients,  rinner =    1.700   1.700   1.700
                                                       1.700   1.700   1.700
                                                       1.700

     PseudoPot. # 2 for In read from file:
     /afs/slac.stanford.edu/u/if/mamunm/psp/gbrv1.5pbe/In.UPF
     MD5 check sum: 90777abd96fbb83f2e67db2a40c566b9
     Pseudo is Ultrasoft + core correction, Zval = 13.0
     Generated by new atomic code, or converted to UPF format
     Using radial grid of  889 points,  6 beta functions with:
                l(1) =   0
                l(2) =   0
                l(3) =   1
                l(4) =   1
                l(5) =   2
                l(6) =   2
     Q(r) pseudized with  6 coefficients,  rinner =    1.400   1.400   1.400
                                                       1.400   1.400

     vdW kernel table read from file vdW_kernel_table
     MD5 check sum: 095c7af220d748ca6e76c0b4c6cfb241

     atomic species   valence    mass     pseudopotential
        La1           11.00   138.90547     La( 1.00)
        In1           13.00   114.81800     In( 1.00)

     No symmetry found

   Cartesian axes

     site n.     atom                  positions (alat units)
         1           La1 tau(   1) = (   0.0000000   0.0000000  10.0000000  )
         2           La1 tau(   2) = (   4.9857768   3.1225105  10.0000000  )
         3           In1 tau(   3) = (   3.4706770   0.0000000  10.0000000  )
         4           In1 tau(   4) = (   1.5150998   3.1225105  10.0000000  )
         5           La1 tau(   5) = (   6.9413540   4.3472565  12.8722933  )
         6           La1 tau(   6) = (   1.9555772   1.2247460  12.8722933  )
         7           In1 tau(   7) = (   3.4706770   4.3472565  12.8722933  )
         8           In1 tau(   8) = (   5.4262542   1.2247460  12.8722933  )
         9           La1 tau(   9) = (   3.8252358   2.3956620  15.6702856  )
        10           La1 tau(  10) = (   8.8143574   5.5203203  15.6697359  )
        11           In1 tau(  11) = (   7.2342080   2.3587167  15.7304016  )
        12           In1 tau(  12) = (   5.2801082   5.4787398  15.7303844  )

     number of k points=    20  Fermi-Dirac smearing, width (Ry)=  0.0110
                       cart. coord. in units 2pi/alat
        k(    1) = (   0.0000000   0.0000000   0.0000000), wk =   0.0555556
        k(    2) = (   0.0000000   0.0266879   0.0000000), wk =   0.1111111
        k(    3) = (   0.0000000   0.0533759   0.0000000), wk =   0.1111111
        k(    4) = (   0.0000000  -0.0800638   0.0000000), wk =   0.0555556
        k(    5) = (   0.0240107  -0.0116504   0.0000000), wk =   0.1111111
        k(    6) = (   0.0240107   0.0150375   0.0000000), wk =   0.1111111
        k(    7) = (   0.0240107   0.0417254   0.0000000), wk =   0.1111111
        k(    8) = (   0.0240107  -0.0917142   0.0000000), wk =   0.1111111
        k(    9) = (   0.0240107  -0.0650263   0.0000000), wk =   0.1111111
        k(   10) = (   0.0240107  -0.0383384   0.0000000), wk =   0.1111111
        k(   11) = (   0.0480214  -0.0233009   0.0000000), wk =   0.1111111
        k(   12) = (   0.0480214   0.0033871   0.0000000), wk =   0.1111111
        k(   13) = (   0.0480214   0.0300750   0.0000000), wk =   0.1111111
        k(   14) = (   0.0480214  -0.1033646   0.0000000), wk =   0.1111111
        k(   15) = (   0.0480214  -0.0766767   0.0000000), wk =   0.1111111
        k(   16) = (   0.0480214  -0.0499888   0.0000000), wk =   0.1111111
        k(   17) = (  -0.0720321   0.0349513   0.0000000), wk =   0.0555556
        k(   18) = (  -0.0720321   0.0616392   0.0000000), wk =   0.1111111
        k(   19) = (  -0.0720321   0.0883271   0.0000000), wk =   0.1111111
        k(   20) = (  -0.0720321  -0.0451125   0.0000000), wk =   0.0555556

     Largest allocated arrays     est. size (Mb)     dimensions
     Largest temporary arrays     est. size (Mb)     dimensions

     Initial potential from superposition of free atoms
     Check: negative starting charge=   -0.424333

     starting charge  134.80759, renormalised to  144.00000

[...]

     *
     * You are using vdW-DF for exchange-correlation in this calculation.
     * Please cite the following three references that made this development
     * possible:
     *
     *   M. Dion, H. Rydberg, E. Schroder, D. C. Langreth, and
     *   B. I. Lundqvist, Phys. Rev. Lett. 92, 246401 (2004).
     *
     *   T. Thonhauser, V. R. Cooper, S. Li, A. Puzder, P. Hyldgaard, and
     *   D. C. Langreth, Phys. Rev. B 76, 125112 (2007).
     *
     *   G. Roman-Perez and J. M. Soler, Phys. Rev. Lett. 103, 096102 (2009).
     *
     *
     * If you are using vdW-DF2, please also cite:
     *
     *   K. Lee, E. D. Murray, L. Kong, B. I. Lundqvist, and
     *   D. C. Langreth, Phys. Rev. B 82, 081101(R) (2010).
     *
     *
     * If you are calculating the stress with vdW-DF, please also cite:
     *
     *   R. Sabatini, E. Kucukbenli, B. Kolb, T. Thonhauser, and
     *   S. de Gironcoli, J. Phys.: Condens. Matter 24, 424209 (2012).
     *

     Carrying out vdW-DF run using the following parameters:

     Nqs =      20    Nr_points =    1024   r_max =   100.000
     q_mesh =
               0.00001000     0.04494208     0.09755937     0.15916263
               0.23128650     0.31572767     0.41458969     0.53033537
               0.66584808     0.82450364     1.01025438     1.22772762
               1.48234092     1.78043706     2.12944203     2.53805004
               3.01644009     3.57652955     4.23227104     5.00000000

     Gradients computed in reciprocal space

[...]

     Starting wfc are  174 randomized atomic wfcs

     Self-consistent Calculation

[...]

     iteration # 11     ecut=    36.75 Ry     beta=0.10
     Davidson diagonalization with overlap
     c_bands:  2 eigenvalues not converged
     c_bands:  2 eigenvalues not converged
     ethr =  1.89E-06,  avg # of iterations = 10.8

[...]

     total energy              =   -1433.09420493 Ry
     Harris-Foulkes estimate   =   -1433.09420585 Ry
     estimated scf accuracy    <       0.00000306 Ry

     iteration # 18     ecut=    36.75 Ry     beta=0.10
     Davidson diagonalization with overlap
     ethr =  2.13E-09,  avg # of iterations =  5.2

[...]

     negative rho (up, down):  2.836E-01 0.000E+00

     Adding external electric field

     Computed dipole along edir(3) :
        Dipole               -0.0170 Ry au,         -0.0431 Debye
        Dipole field         -0.0000 Ry au

        Potential amp.        0.0027 Ry
        Total length         47.4340 bohr

     End of self-consistent calculation

[...]

          k = 0.0480-0.0500 0.0000 ( 28308 PWs)   bands (ev):

[...]

          k =-0.0720-0.0451 0.0000 ( 28336 PWs)   bands (ev):

   -32.2296 -32.1998 -32.1564 -32.1263 -31.8223 -31.7463 -16.1714 -16.1458
   -16.0894 -15.9677 -15.8924 -15.8647 -15.8514 -15.8222 -15.7932 -15.7398
   -15.7119 -15.4539 -15.3613 -15.3552 -15.3307 -15.3080 -15.2193 -15.0220
   -13.1749 -13.1583 -13.1332 -13.1174 -13.1094 -13.1026 -13.0914 -13.0818
   -13.0805 -13.0743 -13.0739 -13.0711 -13.0709 -13.0686 -13.0663 -13.0601
   -13.0594 -13.0581 -13.0544 -13.0470 -13.0446 -13.0290 -13.0222 -13.0157
   -13.0153 -13.0132 -12.9995 -12.9840 -12.9812 -12.9569  -4.2855  -4.0848
    -3.4108  -3.1333  -2.7624  -1.8711  -1.2695  -1.1399  -0.8262  -0.6942
    -0.4949  -0.3231  -0.3191  -0.0025   0.0468   0.5980   0.6764   0.9641
     1.1356   1.4160   1.6557   1.8477   1.9389   2.2641   2.3256   2.4900
     2.5328   2.5709   2.5757   2.5902   2.6066   2.6170   2.6715   2.6855
     2.6887   2.6931   2.7030   2.7279   2.7304   2.7457   2.7820   2.7912
     2.8038   2.8048   2.8208   2.8425   2.8498   2.8582

     the Fermi energy is     1.3284 ev

!    total energy              =   -1433.09419705 Ry
     Harris-Foulkes estimate   =   -1433.09420559 Ry
     estimated scf accuracy    <       0.00000049 Ry

     The total energy is the sum of the following terms:

     one-electron contribution =   -6617.83405444 Ry
     hartree contribution      =    3355.65676710 Ry
     xc contribution           =    -539.10182841 Ry
     ewald contribution        =    2368.26004136 Ry
     electric field correction =       0.00000048 Ry
     smearing contrib. (-TS)   =      -0.07512314 Ry

     convergence has been achieved in  18 iterations

 BEEF-vdW xc energy contributions
           1 :   -475.451816444945
           2 :    436.339431280623
           3 :   -368.479457572994
           4 :    288.262094289479
           5 :   -211.934480356818
           6 :    150.537178273150
           7 :   -107.817547615341
           8 :    81.2837091078490
           9 :   -65.2463931614244
          10 :    54.1035624208341
          11 :   -44.3858500898691
          12 :    34.9855867351564
          13 :   -26.0890716258834
          14 :    17.9190570369878
          15 :   -10.1876504902791
          16 :    2.41583538811460
          17 :    5.38070108371755
          18 :   -12.3265704755669
          19 :    17.0066132603507
          20 :   -18.3016850371206
          21 :    16.1802069451457
          22 :   -11.9049557950682
          23 :    7.49762064009911
          24 :   -4.78131074793578
          25 :    4.55942079603636
          26 :   -6.37277454893126
          27 :    8.90638526522463
          28 :   -10.7533346710667
          29 :    11.0874802027913
          30 :   -9.92209661342474
          31 :   -41.5024775038654
          32 :   -29.9586377000239

     Forces acting on atoms (Ry/au):

     negative rho (up, down):  2.836E-01 0.000E+00
     atom    1 type  1   force =    -0.00572283   -0.00358451    0.00485142
     atom    2 type  1   force =    -0.00573085   -0.00358869    0.00487468
     atom    3 type  2   force =     0.00696439    0.00437575   -0.00203260
     atom    4 type  2   force =     0.00697817    0.00435549   -0.00203314
     atom    5 type  1   force =    -0.00099811   -0.00062278   -0.00030069
     atom    6 type  1   force =    -0.00099256   -0.00062254   -0.00032871
     atom    7 type  2   force =    -0.00018249   -0.00016397   -0.00190112
     atom    8 type  2   force =    -0.00022586   -0.00009335   -0.00190114
     atom    9 type  1   force =     0.00089457    0.00055997   -0.00018834
     atom   10 type  1   force =     0.00070492    0.00043913   -0.00012970
     atom   11 type  2   force =    -0.00087253   -0.00048892   -0.00045564
     atom   12 type  2   force =    -0.00081681   -0.00056557   -0.00045502

     Total force =     0.017227     Total SCF correction =     0.001876
     SCF correction compared to forces is large: reduce conv_thr to get better values

     entering subroutine stress ...

     negative rho (up, down):  2.836E-01 0.000E+00
          total   stress  (Ry/bohr**3)                   (kbar)     P=   -3.78
  -0.00003945  -0.00000843  -0.00000188         -5.80     -1.24     -0.28
  -0.00000843  -0.00003127  -0.00000118         -1.24     -4.60     -0.17
  -0.00000188  -0.00000118  -0.00000645         -0.28     -0.17     -0.95

 !ASE

     Writing output data file calc.save

     General routines

     Parallel routines

   This run was terminated on:   5:18:30  25Dec2018

   JOB DONE.
Job  /afs/slac/g/suncat/bin/suncat-tsmpirun -x LD_LIBRARY_PATH -wdir /scratch/qe109057_mjpXn pw.x -in pw.inp

TID   HOST_NAME   COMMAND_LINE            STATUS            TERMINATION_TIME
00000 suncat0024 pw.x -in pw.inp   Done                     12/25/2018 05:18:30
00001 suncat0024 pw.x -in pw.inp   Done                     12/25/2018 05:18:30
00002 suncat0024 pw.x -in pw.inp   Done                     12/25/2018 05:18:30
00003 suncat0024 pw.x -in pw.inp   Done                     12/25/2018 05:18:30
00004 suncat0024 pw.x -in pw.inp   Done                     12/25/2018 05:18:30
00005 suncat0024 pw.x -in pw.inp   Done                     12/25/2018 05:18:30
00006 suncat0024 pw.x -in pw.inp   Done                     12/25/2018 05:18:30
00007 suncat0024 pw.x -in pw.inp   Done                     12/25/2018 05:18:30
00008 suncat0023 pw.x -in pw.inp   Done                     12/25/2018 05:18:30
00009 suncat0023 pw.x -in pw.inp   Done                     12/25/2018 05:18:30
00010 suncat0023 pw.x -in pw.inp   Done                     12/25/2018 05:18:30
00011 suncat0023 pw.x -in pw.inp   Done                     12/25/2018 05:18:30
00012 suncat0023 pw.x -in pw.inp   Done                     12/25/2018 05:18:30
00013 suncat0023 pw.x -in pw.inp   Done                     12/25/2018 05:18:30
00014 suncat0023 pw.x -in pw.inp   Done                     12/25/2018 05:18:30
00015 suncat0023 pw.x -in pw.inp   Done                     12/25/2018 05:18:30
00016 suncat0022 pw.x -in pw.inp   Done                     12/25/2018 05:18:30
00017 suncat0022 pw.x -in pw.inp   Done                     12/25/2018 05:18:30
00018 suncat0022 pw.x -in pw.inp   Done                     12/25/2018 05:18:30
00019 suncat0022 pw.x -in pw.inp   Done                     12/25/2018 05:18:30
00020 suncat0022 pw.x -in pw.inp   Done                     12/25/2018 05:18:30
00021 suncat0022 pw.x -in pw.inp   Done                     12/25/2018 05:18:30
00022 suncat0022 pw.x -in pw.inp   Done                     12/25/2018 05:18:30
00023 suncat0022 pw.x -in pw.inp   Done                     12/25/2018 05:18:30
00024 suncat0018 pw.x -in pw.inp   Done                     12/25/2018 05:18:30
00025 suncat0018 pw.x -in pw.inp   Done                     12/25/2018 05:18:30
00026 suncat0018 pw.x -in pw.inp   Done                     12/25/2018 05:18:30
00027 suncat0018 pw.x -in pw.inp   Done                     12/25/2018 05:18:30
00028 suncat0018 pw.x -in pw.inp   Done                     12/25/2018 05:18:30
00029 suncat0018 pw.x -in pw.inp   Done                     12/25/2018 05:18:30
00030 suncat0018 pw.x -in pw.inp   Done                     12/25/2018 05:18:30
00031 suncat0018 pw.x -in pw.inp   Done                     12/25/2018 05:18:30
00032 suncat0017 pw.x -in pw.inp   Done                     12/25/2018 05:18:30
00033 suncat0017 pw.x -in pw.inp   Done                     12/25/2018 05:18:30
00034 suncat0017 pw.x -in pw.inp   Done                     12/25/2018 05:18:30
00035 suncat0017 pw.x -in pw.inp   Done                     12/25/2018 05:18:30
00036 suncat0017 pw.x -in pw.inp   Done                     12/25/2018 05:18:30
00037 suncat0017 pw.x -in pw.inp   Done                     12/25/2018 05:18:30
00038 suncat0017 pw.x -in pw.inp   Done                     12/25/2018 05:18:30
00039 suncat0017 pw.x -in pw.inp   Done                     12/25/2018 05:18:30
00040 suncat0016 pw.x -in pw.inp   Done                     12/25/2018 05:18:30
00041 suncat0016 pw.x -in pw.inp   Done                     12/25/2018 05:18:30
00042 suncat0016 pw.x -in pw.inp   Done                     12/25/2018 05:18:30
00043 suncat0016 pw.x -in pw.inp   Done                     12/25/2018 05:18:30
00044 suncat0016 pw.x -in pw.inp   Done                     12/25/2018 05:18:30
00045 suncat0016 pw.x -in pw.inp   Done                     12/25/2018 05:18:30
00046 suncat0016 pw.x -in pw.inp   Done                     12/25/2018 05:18:30
00047 suncat0016 pw.x -in pw.inp   Done                     12/25/2018 05:18:30
00048 suncat0014 pw.x -in pw.inp   Done                     12/25/2018 05:18:30
00049 suncat0014 pw.x -in pw.inp   Done                     12/25/2018 05:18:30
00050 suncat0014 pw.x -in pw.inp   Done                     12/25/2018 05:18:30
00051 suncat0014 pw.x -in pw.inp   Done                     12/25/2018 05:18:30
00052 suncat0014 pw.x -in pw.inp   Done                     12/25/2018 05:18:30
00053 suncat0014 pw.x -in pw.inp   Done                     12/25/2018 05:18:30
00054 suncat0014 pw.x -in pw.inp   Done                     12/25/2018 05:18:30
00055 suncat0014 pw.x -in pw.inp   Done                     12/25/2018 05:18:30
00056 suncat0198 pw.x -in pw.inp   Done                     12/25/2018 05:18:30
00057 suncat0198 pw.x -in pw.inp   Done                     12/25/2018 05:18:30
00058 suncat0198 pw.x -in pw.inp   Done                     12/25/2018 05:18:30
00059 suncat0198 pw.x -in pw.inp   Done                     12/25/2018 05:18:30
00060 suncat0198 pw.x -in pw.inp   Done                     12/25/2018 05:18:30
00061 suncat0198 pw.x -in pw.inp   Done                     12/25/2018 05:18:30
00062 suncat0198 pw.x -in pw.inp   Done                     12/25/2018 05:18:30
00063 suncat0198 pw.x -in pw.inp   Done                     12/25/2018 05:18:30