     Program PWSCF v.5.1rc2 (svn rev. 11289) starts on 24Dec2018 at 21: 4:35

     Current dimensions of program PWSCF are:
     Max number of different atomic species (ntypx) = 10
     Max number of k-points (npk) =  40000
     Max angular momentum in pseudopotentials (lmaxx) =  3
     Presently stress not available with electric field

     IMPORTANT: XC functional enforced from input :
     Exchange-correlation      = BEEF-VDW ( 1  4 27 13 2)
     Any further DFT definition will be discarded
     Please, verify this is what you really want

     Subspace diagonalization in iterative solution of the eigenvalue problem:
     a serial algorithm will be used

     Found symmetry operation: I + ( -0.5000 -0.5000  0.0000)
     This is a supercell, fractional translations are disabled

     bravais-lattice index     =            0
     lattice parameter (alat)  =       1.8897  a.u.
     unit-cell volume          =    5214.8090 (a.u.)^3
     number of atoms/cell      =           12
     number of atomic types    =            2
     number of electrons       =       168.00
     number of Kohn-Sham states=          114
     kinetic-energy cutoff     =      36.7493  Ry
     charge density cutoff     =     367.4932  Ry
     convergence threshold     =      1.0E-06
     mixing beta               =       0.1000
     number of iterations used =           10  plain     mixing
     Exchange-correlation      = BEEF-VDW ( 1  4 27 13 2)
     nstep                     =           50

     celldm(1)=   1.889726  celldm(2)=   0.000000  celldm(3)=   0.000000
     celldm(4)=   0.000000  celldm(5)=   0.000000  celldm(6)=   0.000000

     crystal axes: (cart. coord. in units of alat)
               a(1) = (   5.776328   0.000000   0.000000 )
               a(2) = (   2.034349   5.406237   0.000000 )
               a(3) = (   0.000000   0.000000  24.745424 )

     reciprocal axes: (cart. coord. in units 2 pi/alat)
               b(1) = (  0.173120 -0.065145  0.000000 )
               b(2) = (  0.000000  0.184972  0.000000 )
               b(3) = (  0.000000  0.000000  0.040412 )

     PseudoPot. # 1 for Hf read from file:
     /afs/slac.stanford.edu/u/if/mamunm/psp/gbrv1.5pbe/Hf.UPF
     MD5 check sum: 8ee9378dfe14276e333edf04c5e4aa26
     Pseudo is Ultrasoft + core correction, Zval = 12.0
     Generated by new atomic code, or converted to UPF format
     Using radial grid of  921 points,  8 beta functions with:
                l(1) =   0
                l(2) =   0
                l(3) =   0
                l(4) =   1
                l(5) =   1
                l(6) =   2
                l(7) =   2
                l(8) =   3
     Q(r) pseudized with  6 coefficients,  rinner =    1.200   1.200   1.200
                                                       1.200   1.200   1.200
                                                       1.200

     PseudoPot. # 2 for Pt read from file:
     /afs/slac.stanford.edu/u/if/mamunm/psp/gbrv1.5pbe/Pt.UPF
     MD5 check sum: f09d6de1a584b5a045c4fc126da2d0c4
     Pseudo is Ultrasoft + core correction, Zval = 16.0
     Generated by new atomic code, or converted to UPF format
     Using radial grid of  985 points,  6 beta functions with:
                l(1) =   0
                l(2) =   0
                l(3) =   1
                l(4) =   1
                l(5) =   2
                l(6) =   2
     Q(r) pseudized with  8 coefficients,  rinner =    1.300   1.300   1.300
                                                       1.300   1.300

     vdW kernel table read from file vdW_kernel_table
     MD5 check sum: 095c7af220d748ca6e76c0b4c6cfb241

     atomic species   valence    mass     pseudopotential
        Hf1           12.00   178.49000     Hf( 1.00)
        Pt1           16.00   195.08400     Pt( 1.00)

     No symmetry found

   Cartesian axes

     site n.     atom                  positions (alat units)
         1           Hf1 tau(   1) = (   0.0000000   0.0000000  10.0000000  )
         2           Hf1 tau(   2) = (   3.9053385   2.7031183  10.0000000  )
         3           Pt1 tau(   3) = (   2.8881641   0.0000000  10.0000000  )
         4           Pt1 tau(   4) = (   1.0171743   2.7031183  10.0000000  )
         5           Hf1 tau(   5) = (   5.7763282   3.9981422  12.3727118  )
         6           Hf1 tau(   6) = (   1.8709898   1.2950239  12.3727118  )
         7           Pt1 tau(   7) = (   2.8881641   3.9981422  12.3727118  )
         8           Pt1 tau(   8) = (   4.7591539   1.2950239  12.3727118  )
         9           Hf1 tau(   9) = (   3.7419796   2.5900478  14.7454237  )
        10           Hf1 tau(  10) = (   7.6473180   5.2931661  14.7454237  )
        11           Pt1 tau(  11) = (   6.6301437   2.5900478  14.7454237  )
        12           Pt1 tau(  12) = (   4.7591539   5.2931661  14.7454237  )

     number of k points=    20  Fermi-Dirac smearing, width (Ry)=  0.0110
                       cart. coord. in units 2pi/alat
        k(    1) = (   0.0000000   0.0000000   0.0000000), wk =   0.0555556
        k(    2) = (   0.0000000   0.0308286   0.0000000), wk =   0.1111111
        k(    3) = (   0.0000000   0.0616572   0.0000000), wk =   0.1111111
        k(    4) = (   0.0000000  -0.0924858   0.0000000), wk =   0.0555556
        k(    5) = (   0.0288534  -0.0108574   0.0000000), wk =   0.1111111
        k(    6) = (   0.0288534   0.0199712   0.0000000), wk =   0.1111111
        k(    7) = (   0.0288534   0.0507998   0.0000000), wk =   0.1111111
        k(    8) = (   0.0288534  -0.1033432   0.0000000), wk =   0.1111111
        k(    9) = (   0.0288534  -0.0725146   0.0000000), wk =   0.1111111
        k(   10) = (   0.0288534  -0.0416860   0.0000000), wk =   0.1111111
        k(   11) = (   0.0577068  -0.0217149   0.0000000), wk =   0.1111111
        k(   12) = (   0.0577068   0.0091137   0.0000000), wk =   0.1111111
        k(   13) = (   0.0577068   0.0399423   0.0000000), wk =   0.1111111
        k(   14) = (   0.0577068  -0.1142006   0.0000000), wk =   0.1111111
        k(   15) = (   0.0577068  -0.0833721   0.0000000), wk =   0.1111111
        k(   16) = (   0.0577068  -0.0525435   0.0000000), wk =   0.1111111
        k(   17) = (  -0.0865602   0.0325723   0.0000000), wk =   0.0555556
        k(   18) = (  -0.0865602   0.0634009   0.0000000), wk =   0.1111111
        k(   19) = (  -0.0865602   0.0942295   0.0000000), wk =   0.1111111
        k(   20) = (  -0.0865602  -0.0599135   0.0000000), wk =   0.0555556

     Largest allocated arrays     est. size (Mb)     dimensions
     Largest temporary arrays     est. size (Mb)     dimensions

     Check: negative/imaginary core charge=   -0.000003    0.000000

     Initial potential from superposition of free atoms
     Check: negative starting charge=   -1.752987

     starting charge  152.99992, renormalised to  168.00000

     negative rho (up, down):  1.925E+00 0.000E+00

     *
     * You are using vdW-DF for exchange-correlation in this calculation.
     * Please cite the following three references that made this development
     * possible:
     *
     *   M. Dion, H. Rydberg, E. Schroder, D. C. Langreth, and
     *   B. I. Lundqvist, Phys. Rev. Lett. 92, 246401 (2004).
     *
     *   T. Thonhauser, V. R. Cooper, S. Li, A. Puzder, P. Hyldgaard, and
     *   D. C. Langreth, Phys. Rev. B 76, 125112 (2007).
     *
     *   G. Roman-Perez and J. M. Soler, Phys. Rev. Lett. 103, 096102 (2009).
     *
     *
     * If you are using vdW-DF2, please also cite:
     *
     *   K. Lee, E. D. Murray, L. Kong, B. I. Lundqvist, and
     *   D. C. Langreth, Phys. Rev. B 82, 081101(R) (2010).
     *
     *
     * If you are calculating the stress with vdW-DF, please also cite:
     *
     *   R. Sabatini, E. Kucukbenli, B. Kolb, T. Thonhauser, and
     *   S. de Gironcoli, J. Phys.: Condens. Matter 24, 424209 (2012).
     *

     Carrying out vdW-DF run using the following parameters:

     Nqs =      20    Nr_points =    1024   r_max =   100.000
     q_mesh =
               0.00001000     0.04494208     0.09755937     0.15916263
               0.23128650     0.31572767     0.41458969     0.53033537
               0.66584808     0.82450364     1.01025438     1.22772762
               1.48234092     1.78043706     2.12944203     2.53805004
               3.01644009     3.57652955     4.23227104     5.00000000

     Gradients computed in reciprocal space

     Adding external electric field

     Computed dipole along edir(3) :
        Dipole                0.0000 Ry au,          0.0000 Debye
        Dipole field          0.0000 Ry au

        Potential amp.       -0.0000 Ry
        Total length         45.5930 bohr

     Starting wfc are  150 randomized atomic wfcs

     Self-consistent Calculation

     iteration #  1     ecut=    36.75 Ry     beta=0.10
     Davidson diagonalization with overlap
     ethr =  1.00E-02,  avg # of iterations =  7.2

[...]

     total energy              =   -2210.95328411 Ry
     Harris-Foulkes estimate   =   -2256.77960333 Ry
     estimated scf accuracy    <     259.42530650 Ry

[...]

     End of self-consistent calculation

          k = 0.0000 0.0000 0.0000 ( 19613 PWs)   bands (ev):

   -61.2860 -61.2858 -61.2745 -61.2743 -61.0288 -61.0170 -51.2007 -51.1976
   -51.1785 -51.1771 -51.1763 -51.1437 -50.9156 -50.9153 -50.9126 -50.9122
   -50.8562 -50.8558 -50.8230 -50.8229 -50.7384 -50.7378 -50.7356 -50.7354
   -29.8855 -29.8776 -29.8660 -29.8480 -29.7840 -29.7797 -29.7566 -29.7392
   -29.7340 -29.7107 -29.6716 -29.5207 -29.5122 -29.5121 -29.4921 -29.4920
   -29.4557 -29.3903  -5.9997  -4.3380  -3.6841  -3.3702  -3.3252  -3.2624
    -3.2148  -3.1781  -2.9326  -2.8798  -2.6407  -2.4570  -2.3792  -2.1025
    -2.0713  -1.8242  -1.7732  -1.6854  -1.5488  -1.5362  -1.4966  -1.3663
    -1.2958  -1.0403  -1.0252  -0.9114  -0.8595  -0.4802  -0.3701  -0.2312
    -0.1506   0.1431   0.1585   0.8285   0.8784   1.1864   1.1865   1.8178
     2.0275   2.3476   2.3936   2.5065   2.8244   2.8261   2.8993   2.9345
     3.1017   3.1513   3.2519   3.3451   3.7127   4.0383   4.2174   4.2521
     4.3374   4.3387   4.4044   4.5779   4.7306   4.8053   5.4500   5.6265
     5.6433   5.6986   5.8249   6.1170   6.3102   6.3739   6.3825   6.4203
     6.4555   6.5203

[...]

          k =-0.0866 0.0326 0.0000 ( 19620 PWs)   bands (ev):

[...]

     the Fermi energy is     2.2129 ev

!    total energy              =   -2238.22747711 Ry
     Harris-Foulkes estimate   =   -2238.22744513 Ry
     estimated scf accuracy    <       0.00000022 Ry

     The total energy is the sum of the following terms:

     one-electron contribution =  -13264.88843103 Ry
     hartree contribution      =    6641.11120305 Ry
     xc contribution           =    -815.58709072 Ry
     ewald contribution        =    5201.20335523 Ry
     electric field correction =       0.00000000 Ry
     smearing contrib. (-TS)   =      -0.06651364 Ry

     convergence has been achieved in  19 iterations

 BEEF-vdW xc energy contributions
           1 :   -732.806007982588
           2 :    681.585126382298
           3 :   -590.227123825096
           4 :    476.806706316455
           5 :   -360.546111883516
           6 :    256.649696378042
[...]
     Generated by new atomic code, or converted to UPF format
     Using radial grid of  921 points,  8 beta functions with:
                l(1) =   0
                l(2) =   0
                l(3) =   0
                l(4) =   1
                l(5) =   1
                l(6) =   2
                l(7) =   2
                l(8) =   3
     Q(r) pseudized with  6 coefficients,  rinner =    1.200   1.200   1.200
                                                       1.200   1.200   1.200
                                                       1.200

     PseudoPot. # 2 for Pt read from file:
     /afs/slac.stanford.edu/u/if/mamunm/psp/gbrv1.5pbe/Pt.UPF
     MD5 check sum: f09d6de1a584b5a045c4fc126da2d0c4
     Pseudo is Ultrasoft + core correction, Zval = 16.0
     Generated by new atomic code, or converted to UPF format
     Using radial grid of  985 points,  6 beta functions with:
                l(1) =   0
                l(2) =   0
                l(3) =   1
                l(4) =   1
                l(5) =   2
                l(6) =   2
     Q(r) pseudized with  8 coefficients,  rinner =    1.300   1.300   1.300
                                                       1.300   1.300

     vdW kernel table read from file vdW_kernel_table
     MD5 check sum: 095c7af220d748ca6e76c0b4c6cfb241

     atomic species   valence    mass     pseudopotential
        Hf1           12.00   178.49000     Hf( 1.00)
        Pt1           16.00   195.08400     Pt( 1.00)

     No symmetry found

   Cartesian axes

     site n.     atom                  positions (alat units)
         1           Hf1 tau(   1) = (   0.0000000   0.0000000  10.0000000  )
         2           Hf1 tau(   2) = (   3.9053385   2.7031183  10.0000000  )
         3           Pt1 tau(   3) = (   2.8881641   0.0000000  10.0000000  )
         4           Pt1 tau(   4) = (   1.0171743   2.7031183  10.0000000  )
         5           Hf1 tau(   5) = (   5.7763282   3.9981422  12.3727118  )
         6           Hf1 tau(   6) = (   1.8709898   1.2950239  12.3727118  )
         7           Pt1 tau(   7) = (   2.8881641   3.9981422  12.3727118  )
         8           Pt1 tau(   8) = (   4.7591539   1.2950239  12.3727118  )
         9           Hf1 tau(   9) = (   3.7592222   2.6019831  14.7375177  )
        10           Hf1 tau(  10) = (   7.6645584   5.3050994  14.7375173  )
        11           Pt1 tau(  11) = (   6.6479524   2.6023731  14.5552887  )
        12           Pt1 tau(  12) = (   4.7769624   5.3054937  14.5552879  )

     number of k points=    20  Fermi-Dirac smearing, width (Ry)=  0.0110
                       cart. coord. in units 2pi/alat
        k(    1) = (   0.0000000   0.0000000   0.0000000), wk =   0.0555556
        k(    2) = (   0.0000000   0.0308286   0.0000000), wk =   0.1111111
        k(    3) = (   0.0000000   0.0616572   0.0000000), wk =   0.1111111
        k(    4) = (   0.0000000  -0.0924858   0.0000000), wk =   0.0555556
        k(    5) = (   0.0288534  -0.0108574   0.0000000), wk =   0.1111111
        k(    6) = (   0.0288534   0.0199712   0.0000000), wk =   0.1111111
        k(    7) = (   0.0288534   0.0507998   0.0000000), wk =   0.1111111
        k(    8) = (   0.0288534  -0.1033432   0.0000000), wk =   0.1111111
        k(    9) = (   0.0288534  -0.0725146   0.0000000), wk =   0.1111111
        k(   10) = (   0.0288534  -0.0416860   0.0000000), wk =   0.1111111
        k(   11) = (   0.0577068  -0.0217149   0.0000000), wk =   0.1111111
        k(   12) = (   0.0577068   0.0091137   0.0000000), wk =   0.1111111
        k(   13) = (   0.0577068   0.0399423   0.0000000), wk =   0.1111111
        k(   14) = (   0.0577068  -0.1142006   0.0000000), wk =   0.1111111
        k(   15) = (   0.0577068  -0.0833721   0.0000000), wk =   0.1111111
        k(   16) = (   0.0577068  -0.0525435   0.0000000), wk =   0.1111111
        k(   17) = (  -0.0865602   0.0325723   0.0000000), wk =   0.0555556
        k(   18) = (  -0.0865602   0.0634009   0.0000000), wk =   0.1111111
        k(   19) = (  -0.0865602   0.0942295   0.0000000), wk =   0.1111111
        k(   20) = (  -0.0865602  -0.0599135   0.0000000), wk =   0.0555556

     Largest allocated arrays     est. size (Mb)     dimensions
     Largest temporary arrays     est. size (Mb)     dimensions

     Check: negative/imaginary core charge=   -0.000003    0.000000

     Initial potential from superposition of free atoms
     Check: negative starting charge=   -1.754269

     starting charge  152.99992, renormalised to  168.00000

[...]

     *
     * You are using vdW-DF for exchange-correlation in this calculation.
     * Please cite the following three references that made this development
     * possible:
     *
     *   M. Dion, H. Rydberg, E. Schroder, D. C. Langreth, and
     *   B. I. Lundqvist, Phys. Rev. Lett. 92, 246401 (2004).
     *
     *   T. Thonhauser, V. R. Cooper, S. Li, A. Puzder, P. Hyldgaard, and
     *   D. C. Langreth, Phys. Rev. B 76, 125112 (2007).
     *
     *   G. Roman-Perez and J. M. Soler, Phys. Rev. Lett. 103, 096102 (2009).
     *
     *
     * If you are using vdW-DF2, please also cite:
     *
     *   K. Lee, E. D. Murray, L. Kong, B. I. Lundqvist, and
     *   D. C. Langreth, Phys. Rev. B 82, 081101(R) (2010).
     *
     *
     * If you are calculating the stress with vdW-DF, please also cite:
     *
     *   R. Sabatini, E. Kucukbenli, B. Kolb, T. Thonhauser, and
     *   S. de Gironcoli, J. Phys.: Condens. Matter 24, 424209 (2012).
     *

     Carrying out vdW-DF run using the following parameters:

     Nqs =      20    Nr_points =    1024   r_max =   100.000
     q_mesh =
               0.00001000     0.04494208     0.09755937     0.15916263
               0.23128650     0.31572767     0.41458969     0.53033537
               0.66584808     0.82450364     1.01025438     1.22772762
               1.48234092     1.78043706     2.12944203     2.53805004
               3.01644009     3.57652955     4.23227104     5.00000000

     Gradients computed in reciprocal space

[...]

     Starting wfc are  150 randomized atomic wfcs

     Self-consistent Calculation

[...]

     total energy              =   -2238.23982591 Ry
     Harris-Foulkes estimate   =   -2238.23981852 Ry
     estimated scf accuracy    <       0.00000252 Ry

     iteration # 20     ecut=    36.75 Ry     beta=0.10
     Davidson diagonalization with overlap
     ethr =  1.50E-09,  avg # of iterations =  2.0

[...]

     negative rho (up, down):  1.738E+00 0.000E+00

     Adding external electric field

     Computed dipole along edir(3) :
        Dipole                0.0657 Ry au,          0.1671 Debye
        Dipole field          0.0002 Ry au

        Potential amp.       -0.0144 Ry
        Total length         45.5930 bohr

     End of self-consistent calculation

[...]

          k = 0.0577-0.0525 0.0000 ( 19643 PWs)   bands (ev):

[...]

          k =-0.0866-0.0599 0.0000 ( 19530 PWs)   bands (ev):

   -61.2505 -61.2391 -61.1924 -61.1810 -60.8806 -60.8682 -51.1234 -51.1223
   -51.1096 -51.1060 -51.0943 -51.0616 -51.0356 -51.0341 -51.0100 -50.9775
   -50.9473 -50.9456 -50.8185 -50.8168 -50.7625 -50.7302 -50.6433 -50.6409
   -29.8609 -29.8282 -29.7873 -29.7582 -29.7532 -29.7298 -29.6968 -29.6914
   -29.6710 -29.6360 -29.5665 -29.4754 -29.4190 -29.3952 -29.3664 -29.3587
   -29.3415 -29.2784  -4.0893  -4.0319  -3.0257  -2.9467  -2.6003  -2.4893
    -2.4813  -2.4701  -2.2078  -2.1837  -2.0634  -2.0473  -2.0171  -1.8625
    -1.8401  -1.7318  -1.3906  -1.3374  -1.3185  -1.2693  -1.2259  -1.1828
    -1.1772  -1.1199  -0.9019  -0.8587  -0.8262  -0.7362  -0.7175  -0.6654
    -0.4858  -0.2217  -0.2102   0.1798   0.1974   0.5358   0.6149   0.6541
     0.7199   0.8141   0.9877   1.6716   1.6854   1.9392   1.9486   2.1740
     2.1761   2.2164   2.7452   2.8936   2.9245   3.0509   3.3487   3.6863
     3.7211   3.8236   3.9533   4.3768   4.4652   4.4696   4.6227   5.0370
     5.3782   5.6661   5.9582   6.2450   6.3025   6.4736   6.6739   6.6959
     7.0404   7.2142

     the Fermi energy is     2.3070 ev

!    total energy              =   -2238.23985517 Ry
     Harris-Foulkes estimate   =   -2238.23982667 Ry
     estimated scf accuracy    <       0.00000037 Ry

     The total energy is the sum of the following terms:

     one-electron contribution =  -13473.94888009 Ry
     hartree contribution      =    6745.86335765 Ry
     xc contribution           =    -815.72871400 Ry
     ewald contribution        =    5305.63997850 Ry
     electric field correction =       0.00001041 Ry
     smearing contrib. (-TS)   =      -0.06560765 Ry

     convergence has been achieved in  20 iterations

 BEEF-vdW xc energy contributions
           1 :   -732.956067427953
           2 :    681.813461657820
           3 :   -590.553795107767
           4 :    477.174682906461
           5 :   -360.851218407029
           6 :    256.796222480088
           7 :   -173.597149469203
           8 :    113.264119165968
           9 :   -73.1371371701571
          10 :    48.3143997327473
          11 :   -33.6183377354623
          12 :    24.6742554001721
          13 :   -18.2560455438347
          14 :    12.2568437467717
          15 :   -5.61168670669258
          16 :   -1.76831966360101
          17 :    9.15636578269550
          18 :   -15.3917691046681
          19 :    19.4142226837300
          20 :   -20.7321813946437
          21 :    19.5875603279266
          22 :   -16.7677479402697
          23 :    13.2172739042601
          24 :   -9.70820816198420
          25 :    6.73379900059649
          26 :   -4.61458440043612
          27 :    3.64417307628355
          28 :   -4.10131955544091
          29 :    6.07622316119898
          30 :   -9.23754878146701
          31 :   -55.7324071656349
          32 :   -40.5919497813841

     Forces acting on atoms (Ry/au):

     negative rho (up, down):  1.738E+00 0.000E+00
     atom    1 type  1   force =    -0.00153246   -0.00106088   -0.00359984
     atom    2 type  1   force =    -0.00153261   -0.00106065   -0.00359975
     atom    3 type  2   force =    -0.00165075   -0.00114258    0.02968588
     atom    4 type  2   force =    -0.00165087   -0.00114259    0.02968578
     atom    5 type  1   force =     0.00099805    0.00069057   -0.02716389
     atom    6 type  1   force =     0.00099786    0.00069090   -0.02716415
     atom    7 type  2   force =    -0.00057527   -0.00039823    0.00242815
     atom    8 type  2   force =    -0.00057514   -0.00039815    0.00242814
     atom    9 type  1   force =     0.00138438    0.00095803   -0.00094469
     atom   10 type  1   force =     0.00138425    0.00095841   -0.00094468
     atom   11 type  2   force =     0.00137640    0.00095256   -0.00040538
     atom   12 type  2   force =     0.00137616    0.00095261   -0.00040556

     Total force =     0.057518     Total SCF correction =     0.001701

     entering subroutine stress ...

     negative rho (up, down):  1.738E+00 0.000E+00
          total   stress  (Ry/bohr**3)                   (kbar)     P=  -21.48
  -0.00019479  -0.00003407   0.00000980        -28.65     -5.01      1.44
  -0.00003407  -0.00016915   0.00000678         -5.01    -24.88      1.00
   0.00000980   0.00000678  -0.00007407          1.44      1.00    -10.90

 !ASE

     Writing output data file calc.save

     General routines

     Parallel routines

   This run was terminated on:  23: 0:34  24Dec2018

   JOB DONE.
Job  /afs/slac/g/suncat/bin/suncat-tsmpirun -x LD_LIBRARY_PATH -wdir /scratch/qe109002_ufKjo pw.x -in pw.inp

TID   HOST_NAME   COMMAND_LINE            STATUS            TERMINATION_TIME
00000 suncat0108 pw.x -in pw.inp   Done                     12/24/2018 23:00:34
00001 suncat0108 pw.x -in pw.inp   Done                     12/24/2018 23:00:34
00002 suncat0108 pw.x -in pw.inp   Done                     12/24/2018 23:00:34
00003 suncat0108 pw.x -in pw.inp   Done                     12/24/2018 23:00:34
00004 suncat0108 pw.x -in pw.inp   Done                     12/24/2018 23:00:34
00005 suncat0108 pw.x -in pw.inp   Done                     12/24/2018 23:00:34
00006 suncat0108 pw.x -in pw.inp   Done                     12/24/2018 23:00:34
00007 suncat0108 pw.x -in pw.inp   Done                     12/24/2018 23:00:34
00008 suncat0107 pw.x -in pw.inp   Done                     12/24/2018 23:00:34
00009 suncat0107 pw.x -in pw.inp   Done                     12/24/2018 23:00:34
00010 suncat0107 pw.x -in pw.inp   Done                     12/24/2018 23:00:34
00011 suncat0107 pw.x -in pw.inp   Done                     12/24/2018 23:00:34
00012 suncat0107 pw.x -in pw.inp   Done                     12/24/2018 23:00:34
00013 suncat0107 pw.x -in pw.inp   Done                     12/24/2018 23:00:34
00014 suncat0107 pw.x -in pw.inp   Done                     12/24/2018 23:00:34
00015 suncat0107 pw.x -in pw.inp   Done                     12/24/2018 23:00:34
00016 suncat0106 pw.x -in pw.inp   Done                     12/24/2018 23:00:34
00017 suncat0106 pw.x -in pw.inp   Done                     12/24/2018 23:00:34
00018 suncat0106 pw.x -in pw.inp   Done                     12/24/2018 23:00:34
00019 suncat0106 pw.x -in pw.inp   Done                     12/24/2018 23:00:34
00020 suncat0106 pw.x -in pw.inp   Done                     12/24/2018 23:00:34
00021 suncat0106 pw.x -in pw.inp   Done                     12/24/2018 23:00:34
00022 suncat0106 pw.x -in pw.inp   Done                     12/24/2018 23:00:34
00023 suncat0106 pw.x -in pw.inp   Done                     12/24/2018 23:00:34
00024 suncat0105 pw.x -in pw.inp   Done                     12/24/2018 23:00:34
00025 suncat0105 pw.x -in pw.inp   Done                     12/24/2018 23:00:34
00026 suncat0105 pw.x -in pw.inp   Done                     12/24/2018 23:00:34
00027 suncat0105 pw.x -in pw.inp   Done                     12/24/2018 23:00:34
00028 suncat0105 pw.x -in pw.inp   Done                     12/24/2018 23:00:34
00029 suncat0105 pw.x -in pw.inp   Done                     12/24/2018 23:00:34
00030 suncat0105 pw.x -in pw.inp   Done                     12/24/2018 23:00:34
00031 suncat0105 pw.x -in pw.inp   Done                     12/24/2018 23:00:34
00032 suncat0238 pw.x -in pw.inp   Done                     12/24/2018 23:00:34
00033 suncat0238 pw.x -in pw.inp   Done                     12/24/2018 23:00:34
00034 suncat0238 pw.x -in pw.inp   Done                     12/24/2018 23:00:34
00035 suncat0238 pw.x -in pw.inp   Done                     12/24/2018 23:00:34
00036 suncat0238 pw.x -in pw.inp   Done                     12/24/2018 23:00:34
00037 suncat0238 pw.x -in pw.inp   Done                     12/24/2018 23:00:34
00038 suncat0238 pw.x -in pw.inp   Done                     12/24/2018 23:00:34
00039 suncat0238 pw.x -in pw.inp   Done                     12/24/2018 23:00:34
00040 suncat0237 pw.x -in pw.inp   Done                     12/24/2018 23:00:34
00041 suncat0237 pw.x -in pw.inp   Done                     12/24/2018 23:00:34
00042 suncat0237 pw.x -in pw.inp   Done                     12/24/2018 23:00:34
00043 suncat0237 pw.x -in pw.inp   Done                     12/24/2018 23:00:34
00044 suncat0237 pw.x -in pw.inp   Done                     12/24/2018 23:00:34
00045 suncat0237 pw.x -in pw.inp   Done                     12/24/2018 23:00:34
00046 suncat0237 pw.x -in pw.inp   Done                     12/24/2018 23:00:34
00047 suncat0237 pw.x -in pw.inp   Done                     12/24/2018 23:00:34
00048 suncat0236 pw.x -in pw.inp   Done                     12/24/2018 23:00:34
00049 suncat0236 pw.x -in pw.inp   Done                     12/24/2018 23:00:34
00050 suncat0236 pw.x -in pw.inp   Done                     12/24/2018 23:00:34
00051 suncat0236 pw.x -in pw.inp   Done                     12/24/2018 23:00:34
00052 suncat0236 pw.x -in pw.inp   Done                     12/24/2018 23:00:34
00053 suncat0236 pw.x -in pw.inp   Done                     12/24/2018 23:00:34
00054 suncat0236 pw.x -in pw.inp   Done                     12/24/2018 23:00:34
00055 suncat0236 pw.x -in pw.inp   Done                     12/24/2018 23:00:34
00056 suncat0235 pw.x -in pw.inp   Done                     12/24/2018 23:00:34
00057 suncat0235 pw.x -in pw.inp   Done                     12/24/2018 23:00:34
00058 suncat0235 pw.x -in pw.inp   Done                     12/24/2018 23:00:34
00059 suncat0235 pw.x -in pw.inp   Done                     12/24/2018 23:00:34
00060 suncat0235 pw.x -in pw.inp   Done                     12/24/2018 23:00:34
00061 suncat0235 pw.x -in pw.inp   Done                     12/24/2018 23:00:34
00062 suncat0235 pw.x -in pw.inp   Done                     12/24/2018 23:00:34
00063 suncat0235 pw.x -in pw.inp   Done                     12/24/2018 23:00:34