     Program PWSCF v.5.1rc2 (svn rev. 11289) starts on 24Dec2018 at 16:18:30

     Current dimensions of program PWSCF are:
     Max number of different atomic species (ntypx) = 10
     Max number of k-points (npk) =  40000
     Max angular momentum in pseudopotentials (lmaxx) =  3
     Presently stress not available with electric field

     IMPORTANT: XC functional enforced from input :
     Exchange-correlation      = BEEF-VDW ( 1  4 27 13 2)
     Any further DFT definition will be discarded
     Please, verify this is what you really want

     Subspace diagonalization in iterative solution of the eigenvalue problem:
     a serial algorithm will be used

     Found symmetry operation: I + ( -0.5000  0.5000  0.0000)
     This is a supercell, fractional translations are disabled

     bravais-lattice index     =            0
     lattice parameter (alat)  =       1.8897  a.u.
     unit-cell volume          =    5122.0664 (a.u.)^3
     number of atoms/cell      =           12
     number of atomic types    =            2
     number of electrons       =       186.00
     number of Kohn-Sham states=          123
     kinetic-energy cutoff     =      36.7493  Ry
     charge density cutoff     =     367.4932  Ry
     convergence threshold     =      1.0E-06
     mixing beta               =       0.1000
     number of iterations used =           10  plain     mixing
     Exchange-correlation      = BEEF-VDW ( 1  4 27 13 2)
     nstep                     =           50

     celldm(1)=   1.889726  celldm(2)=   0.000000  celldm(3)=   0.000000
     celldm(4)=   0.000000  celldm(5)=   0.000000  celldm(6)=   0.000000

     crystal axes: (cart. coord. in units of alat)
               a(1) = (   5.909341   0.000000   0.000000 )
               a(2) = (   2.863493   5.169209   0.000000 )
               a(3) = (   0.000000   0.000000  24.847656 )

     reciprocal axes: (cart. coord. in units 2 pi/alat)
               b(1) = (  0.169224 -0.093742  0.000000 )
               b(2) = (  0.000000  0.193453  0.000000 )
               b(3) = (  0.000000  0.000000  0.040245 )

     PseudoPot. # 1 for Ga read from file:
     /afs/slac.stanford.edu/u/if/mamunm/psp/gbrv1.5pbe/Ga.UPF
     MD5 check sum: ccd671392a58a050fbb373893b4fcd66
     Pseudo is Ultrasoft + core correction, Zval = 19.0
     Generated by new atomic code, or converted to UPF format
     Using radial grid of  871 points,  6 beta functions with:
                l(1) =   0
                l(2) =   0
                l(3) =   1
                l(4) =   1
                l(5) =   2
                l(6) =   2
     Q(r) pseudized with  8 coefficients,  rinner =    1.250   1.250   1.250
                                                       1.250   1.250

     PseudoPot. # 2 for Hf read from file:
     /afs/slac.stanford.edu/u/if/mamunm/psp/gbrv1.5pbe/Hf.UPF
     MD5 check sum: 8ee9378dfe14276e333edf04c5e4aa26
     Pseudo is Ultrasoft + core correction, Zval = 12.0
     Generated by new atomic code, or converted to UPF format
     Using radial grid of  921 points,  8 beta functions with:
                l(1) =   0
                l(2) =   0
                l(3) =   0
                l(4) =   1
                l(5) =   1
                l(6) =   2
                l(7) =   2
                l(8) =   3
     Q(r) pseudized with  6 coefficients,  rinner =    1.200   1.200   1.200
                                                       1.200   1.200   1.200
                                                       1.200

     vdW kernel table read from file vdW_kernel_table
     MD5 check sum: 095c7af220d748ca6e76c0b4c6cfb241

     atomic species   valence    mass     pseudopotential
        Ga1           19.00    69.72300     Ga( 1.00)
        Hf1           12.00   178.49000     Hf( 1.00)

     No symmetry found

   Cartesian axes

     site n.     atom                  positions (alat units)
         1           Ga1 tau(   1) = (   0.0000000   0.0000000  10.0000000  )
         2           Ga1 tau(   2) = (   4.3864173   2.5846045  10.0000000  )
         3           Hf1 tau(   3) = (   2.9546707   0.0000000  10.0000000  )
         4           Hf1 tau(   4) = (   1.4317466   2.5846045  10.0000000  )
         5           Ga1 tau(   5) = (   5.9093414   3.4819556  12.4238279  )
         6           Ga1 tau(   6) = (   1.5229241   0.8973511  12.4238279  )
         7           Hf1 tau(   7) = (   2.9546707   3.4819556  12.4238279  )
         8           Hf1 tau(   8) = (   4.4775948   0.8973511  12.4238279  )
         9           Ga1 tau(   9) = (   3.0458482   1.7947022  14.8476557  )
        10           Ga1 tau(  10) = (   7.4322655   4.3793068  14.8476557  )
        11           Hf1 tau(  11) = (   6.0005189   1.7947022  14.8476557  )
        12           Hf1 tau(  12) = (   4.4775948   4.3793068  14.8476557  )

     number of k points=    20  Fermi-Dirac smearing, width (Ry)=  0.0110
                       cart. coord. in units 2pi/alat
        k(    1) = (   0.0000000   0.0000000   0.0000000), wk =   0.0555556
        k(    2) = (   0.0000000   0.0322422   0.0000000), wk =   0.1111111
        k(    3) = (   0.0000000   0.0644844   0.0000000), wk =   0.1111111
        k(    4) = (   0.0000000  -0.0967266   0.0000000), wk =   0.0555556
        k(    5) = (   0.0282039  -0.0156236   0.0000000), wk =   0.1111111
        k(    6) = (   0.0282039   0.0166186   0.0000000), wk =   0.1111111
        k(    7) = (   0.0282039   0.0488608   0.0000000), wk =   0.1111111
        k(    8) = (   0.0282039  -0.1123502   0.0000000), wk =   0.1111111
        k(    9) = (   0.0282039  -0.0801080   0.0000000), wk =   0.1111111
        k(   10) = (   0.0282039  -0.0478658   0.0000000), wk =   0.1111111
        k(   11) = (   0.0564079  -0.0312472   0.0000000), wk =   0.1111111
        k(   12) = (   0.0564079   0.0009950   0.0000000), wk =   0.1111111
        k(   13) = (   0.0564079   0.0332372   0.0000000), wk =   0.1111111
        k(   14) = (   0.0564079  -0.1279738   0.0000000), wk =   0.1111111
        k(   15) = (   0.0564079  -0.0957316   0.0000000), wk =   0.1111111
        k(   16) = (   0.0564079  -0.0634894   0.0000000), wk =   0.1111111
        k(   17) = (  -0.0846118   0.0468709   0.0000000), wk =   0.0555556
        k(   18) = (  -0.0846118   0.0791131   0.0000000), wk =   0.1111111
        k(   19) = (  -0.0846118   0.1113553   0.0000000), wk =   0.1111111
        k(   20) = (  -0.0846118  -0.0498557   0.0000000), wk =   0.0555556

     Largest allocated arrays     est. size (Mb)     dimensions
     Largest temporary arrays     est. size (Mb)     dimensions

     Check: negative/imaginary core charge=   -0.000003    0.000000

     Initial potential from superposition of free atoms
     Check: negative starting charge=   -0.644444

     starting charge  167.99998, renormalised to  186.00000

     negative rho (up, down):  7.135E-01 0.000E+00

     *
     * You are using vdW-DF for exchange-correlation in this calculation.
     * Please cite the following three references that made this development
     * possible:
     *
     *   M. Dion, H. Rydberg, E. Schroder, D. C. Langreth, and
     *   B. I. Lundqvist, Phys. Rev. Lett. 92, 246401 (2004).
     *
     *   T. Thonhauser, V. R. Cooper, S. Li, A. Puzder, P. Hyldgaard, and
     *   D. C. Langreth, Phys. Rev. B 76, 125112 (2007).
     *
     *   G. Roman-Perez and J. M. Soler, Phys. Rev. Lett. 103, 096102 (2009).
     *
     *
     * If you are using vdW-DF2, please also cite:
     *
     *   K. Lee, E. D. Murray, L. Kong, B. I. Lundqvist, and
     *   D. C. Langreth, Phys. Rev. B 82, 081101(R) (2010).
     *
     *
     * If you are calculating the stress with vdW-DF, please also cite:
     *
     *   R. Sabatini, E. Kucukbenli, B. Kolb, T. Thonhauser, and
     *   S. de Gironcoli, J. Phys.: Condens. Matter 24, 424209 (2012).
     *

     Carrying out vdW-DF run using the following parameters:

     Nqs =      20    Nr_points =    1024   r_max =   100.000
     q_mesh =
               0.00001000     0.04494208     0.09755937     0.15916263
               0.23128650     0.31572767     0.41458969     0.53033537
               0.66584808     0.82450364     1.01025438     1.22772762
               1.48234092     1.78043706     2.12944203     2.53805004
               3.01644009     3.57652955     4.23227104     5.00000000

     Gradients computed in reciprocal space

     Adding external electric field

     Computed dipole along edir(3) :
        Dipole               -0.0000 Ry au,         -0.0000 Debye
        Dipole field         -0.0000 Ry au

        Potential amp.        0.0000 Ry
        Total length         45.7814 bohr

     Starting wfc are  150 randomized atomic wfcs

     Self-consistent Calculation

     iteration #  1     ecut=    36.75 Ry     beta=0.10
     Davidson diagonalization with overlap
     ethr =  1.00E-02,  avg # of iterations =  8.7

[...]

     total energy              =   -3314.22287636 Ry
     Harris-Foulkes estimate   =   -3570.11336364 Ry
     estimated scf accuracy    <    1406.14779620 Ry

[...]

     End of self-consistent calculation

          k = 0.0000 0.0000 0.0000 ( 19259 PWs)   bands (ev):

   -93.1434 -93.1428 -93.1426 -93.1421 -93.0969 -93.0967 -92.8916 -92.8915
   -92.8915 -92.8913 -92.8853 -92.8852 -92.8840 -92.8838 -92.8348 -92.8347
   -92.8346 -92.8344 -61.4558 -61.4555 -61.4174 -61.4171 -60.8418 -60.8021
   -30.1816 -30.1582 -30.1567 -30.1551 -30.1071 -30.0796 -30.0209 -29.9718
   -29.9440 -29.8972 -29.7027 -29.5433 -29.5017 -29.5007 -29.4609 -29.3098
   -29.2366 -29.0246 -13.6021 -13.5656 -13.5373 -13.4998 -13.4869 -13.4779
   -13.4748 -13.4574 -13.4309 -13.3764 -13.3297 -13.3244 -13.2829 -13.2777
   -13.2719 -13.2606 -13.2141 -13.2129 -13.2057 -13.2042 -13.1934 -13.1862
   -13.1860 -13.1850 -13.1812 -13.1697 -13.1639 -13.1625 -13.1069 -13.1039
    -8.1061  -6.5201  -5.2817  -4.7368  -3.6157  -3.3082  -1.7112  -1.5277
    -1.4927  -1.2710  -0.8843  -0.6837  -0.5446   0.0589   0.2394   0.4913
     0.5179   0.5780   0.9983   1.1085   1.4125   1.5219   1.5997   1.7437
     1.7686   1.8504   2.5172   2.5247   2.9292   3.0038   3.0206   3.2742
     3.9530   4.2418   4.2480   4.2590   4.3399   4.6574   4.6778   4.7435
     4.8551   4.9656   5.0545   5.1191   5.1855   5.3335   5.5456   5.8306
     6.0656   6.1455   6.1534

[...]

          k =-0.0846 0.0469 0.0000 ( 19290 PWs)   bands (ev):

[...]

     the Fermi energy is     1.3316 ev

!    total energy              =   -3463.10291455 Ry
     Harris-Foulkes estimate   =   -3463.10291078 Ry
     estimated scf accuracy    <       0.00000049 Ry

     The total energy is the sum of the following terms:

     one-electron contribution =  -18314.84588460 Ry
     hartree contribution      =    9157.16985567 Ry
     xc contribution           =    -762.97700094 Ry
     ewald contribution        =    6457.60355220 Ry
     electric field correction =       0.00000000 Ry
     smearing contrib. (-TS)   =      -0.05343689 Ry

     convergence has been achieved in  20 iterations

 BEEF-vdW xc energy contributions
           1 :   -687.166463237629
           2 :    633.582105286195
           3 :   -540.656192230755
[...]
     Using radial grid of  871 points,  6 beta functions with:
                l(1) =   0
                l(2) =   0
                l(3) =   1
                l(4) =   1
                l(5) =   2
                l(6) =   2
     Q(r) pseudized with  8 coefficients,  rinner =    1.250   1.250   1.250
                                                       1.250   1.250

     PseudoPot. # 2 for Hf read from file:
     /afs/slac.stanford.edu/u/if/mamunm/psp/gbrv1.5pbe/Hf.UPF
     MD5 check sum: 8ee9378dfe14276e333edf04c5e4aa26
     Pseudo is Ultrasoft + core correction, Zval = 12.0
     Generated by new atomic code, or converted to UPF format
     Using radial grid of  921 points,  8 beta functions with:
                l(1) =   0
                l(2) =   0
                l(3) =   0
                l(4) =   1
                l(5) =   1
                l(6) =   2
                l(7) =   2
                l(8) =   3
     Q(r) pseudized with  6 coefficients,  rinner =    1.200   1.200   1.200
                                                       1.200   1.200   1.200
                                                       1.200

     vdW kernel table read from file vdW_kernel_table
     MD5 check sum: 095c7af220d748ca6e76c0b4c6cfb241

     atomic species   valence    mass     pseudopotential
        Ga1           19.00    69.72300     Ga( 1.00)
        Hf1           12.00   178.49000     Hf( 1.00)

     No symmetry found

   Cartesian axes

     site n.     atom                  positions (alat units)
         1           Ga1 tau(   1) = (   0.0000000   0.0000000  10.0000000  )
         2           Ga1 tau(   2) = (   4.3864173   2.5846045  10.0000000  )
         3           Hf1 tau(   3) = (   2.9546707   0.0000000  10.0000000  )
         4           Hf1 tau(   4) = (   1.4317466   2.5846045  10.0000000  )
         5           Ga1 tau(   5) = (   5.9093414   3.4819556  12.4238279  )
         6           Ga1 tau(   6) = (   1.5229241   0.8973511  12.4238279  )
         7           Hf1 tau(   7) = (   2.9546707   3.4819556  12.4238279  )
         8           Hf1 tau(   8) = (   4.4775948   0.8973511  12.4238279  )
         9           Ga1 tau(   9) = (   3.1277965   1.8431336  15.0285473  )
        10           Ga1 tau(  10) = (   7.5144166   4.4275917  15.0283613  )
        11           Hf1 tau(  11) = (   6.1198822   1.8650967  14.7706084  )
        12           Hf1 tau(  12) = (   4.5969894   4.4496906  14.7707237  )

     number of k points=    20  Fermi-Dirac smearing, width (Ry)=  0.0110
                       cart. coord. in units 2pi/alat
        k(    1) = (   0.0000000   0.0000000   0.0000000), wk =   0.0555556
        k(    2) = (   0.0000000   0.0322422   0.0000000), wk =   0.1111111
        k(    3) = (   0.0000000   0.0644844   0.0000000), wk =   0.1111111
        k(    4) = (   0.0000000  -0.0967266   0.0000000), wk =   0.0555556
        k(    5) = (   0.0282039  -0.0156236   0.0000000), wk =   0.1111111
        k(    6) = (   0.0282039   0.0166186   0.0000000), wk =   0.1111111
        k(    7) = (   0.0282039   0.0488608   0.0000000), wk =   0.1111111
        k(    8) = (   0.0282039  -0.1123502   0.0000000), wk =   0.1111111
        k(    9) = (   0.0282039  -0.0801080   0.0000000), wk =   0.1111111
        k(   10) = (   0.0282039  -0.0478658   0.0000000), wk =   0.1111111
        k(   11) = (   0.0564079  -0.0312472   0.0000000), wk =   0.1111111
        k(   12) = (   0.0564079   0.0009950   0.0000000), wk =   0.1111111
        k(   13) = (   0.0564079   0.0332372   0.0000000), wk =   0.1111111
        k(   14) = (   0.0564079  -0.1279738   0.0000000), wk =   0.1111111
        k(   15) = (   0.0564079  -0.0957316   0.0000000), wk =   0.1111111
        k(   16) = (   0.0564079  -0.0634894   0.0000000), wk =   0.1111111
        k(   17) = (  -0.0846118   0.0468709   0.0000000), wk =   0.0555556
        k(   18) = (  -0.0846118   0.0791131   0.0000000), wk =   0.1111111
        k(   19) = (  -0.0846118   0.1113553   0.0000000), wk =   0.1111111
        k(   20) = (  -0.0846118  -0.0498557   0.0000000), wk =   0.0555556

     Largest allocated arrays     est. size (Mb)     dimensions
     Largest temporary arrays     est. size (Mb)     dimensions

     Check: negative/imaginary core charge=   -0.000003    0.000000

     Initial potential from superposition of free atoms
     Check: negative starting charge=   -0.646199

     starting charge  167.99998, renormalised to  186.00000

[...]

     *
     * You are using vdW-DF for exchange-correlation in this calculation.
     * Please cite the following three references that made this development
     * possible:
     *
     *   M. Dion, H. Rydberg, E. Schroder, D. C. Langreth, and
     *   B. I. Lundqvist, Phys. Rev. Lett. 92, 246401 (2004).
     *
     *   T. Thonhauser, V. R. Cooper, S. Li, A. Puzder, P. Hyldgaard, and
     *   D. C. Langreth, Phys. Rev. B 76, 125112 (2007).
     *
     *   G. Roman-Perez and J. M. Soler, Phys. Rev. Lett. 103, 096102 (2009).
     *
     *
     * If you are using vdW-DF2, please also cite:
     *
     *   K. Lee, E. D. Murray, L. Kong, B. I. Lundqvist, and
     *   D. C. Langreth, Phys. Rev. B 82, 081101(R) (2010).
     *
     *
     * If you are calculating the stress with vdW-DF, please also cite:
     *
     *   R. Sabatini, E. Kucukbenli, B. Kolb, T. Thonhauser, and
     *   S. de Gironcoli, J. Phys.: Condens. Matter 24, 424209 (2012).
     *

     Carrying out vdW-DF run using the following parameters:

     Nqs =      20    Nr_points =    1024   r_max =   100.000
     q_mesh =
               0.00001000     0.04494208     0.09755937     0.15916263
               0.23128650     0.31572767     0.41458969     0.53033537
               0.66584808     0.82450364     1.01025438     1.22772762
               1.48234092     1.78043706     2.12944203     2.53805004
               3.01644009     3.57652955     4.23227104     5.00000000

     Gradients computed in reciprocal space

[...]

     Starting wfc are  150 randomized atomic wfcs

     Self-consistent Calculation

[...]

     total energy              =   -3463.11005938 Ry
     Harris-Foulkes estimate   =   -3463.11005931 Ry
     estimated scf accuracy    <       0.00000154 Ry

     iteration # 23     ecut=    36.75 Ry     beta=0.10
     Davidson diagonalization with overlap
     ethr =  8.30E-10,  avg # of iterations =  2.0

[...]

     negative rho (up, down):  6.813E-01 0.000E+00

     Adding external electric field

     Computed dipole along edir(3) :
        Dipole               -0.0437 Ry au,         -0.1110 Debye
        Dipole field         -0.0001 Ry au

        Potential amp.        0.0098 Ry
        Total length         45.7814 bohr

     End of self-consistent calculation

[...]

          k = 0.0564-0.0635 0.0000 ( 19313 PWs)   bands (ev):

[...]

          k =-0.0846-0.0499 0.0000 ( 19260 PWs)   bands (ev):

   -93.1695 -93.1681 -93.1674 -93.1673 -93.1233 -93.1233 -92.9361 -92.9360
   -92.9330 -92.9316 -92.9285 -92.9284 -92.9156 -92.9142 -92.8818 -92.8818
   -92.8554 -92.8554 -61.5189 -61.4806 -61.4083 -61.3697 -60.9641 -60.9246
   -30.2388 -30.2176 -30.1610 -30.1386 -30.1255 -30.0689 -30.0466 -29.9867
   -29.9488 -29.8680 -29.8120 -29.6438 -29.5637 -29.5603 -29.4775 -29.4209
   -29.3515 -29.1377 -13.6267 -13.5799 -13.5530 -13.5122 -13.5043 -13.4956
   -13.4935 -13.4821 -13.4594 -13.3985 -13.3708 -13.3531 -13.3217 -13.3035
   -13.2949 -13.2644 -13.2482 -13.2425 -13.2321 -13.2312 -13.2252 -13.2233
   -13.2208 -13.2153 -13.2095 -13.2058 -13.1999 -13.1761 -13.1493 -13.1252
    -6.8470  -6.2037  -5.1098  -4.3095  -4.0256  -3.3596  -3.2181  -2.6468
    -2.2014  -1.8811  -1.6580  -1.6393  -1.4058  -0.7986  -0.5583  -0.3747
     0.1408   0.1845   0.4107   0.5763   1.0223   1.3147   1.9384   2.1935
     2.5711   2.6014   2.6535   2.9656   3.0713   3.4963   3.5140   3.8270
     4.0316   4.3597   4.5767   4.5982   4.6002   4.9993   5.1222   5.3220
     5.4689   5.5134   5.7739   5.8436   6.0839   6.2032   6.4128   6.4145
     6.4600   6.6990   6.8234

     the Fermi energy is     1.2745 ev

!    total energy              =   -3463.11006178 Ry
     Harris-Foulkes estimate   =   -3463.11005964 Ry
     estimated scf accuracy    <       0.00000040 Ry

     The total energy is the sum of the following terms:

     one-electron contribution =  -18122.49451759 Ry
     hartree contribution      =    9060.75780057 Ry
     xc contribution           =    -762.93861164 Ry
     ewald contribution        =    6361.62002949 Ry
     electric field correction =       0.00000468 Ry
     smearing contrib. (-TS)   =      -0.05476729 Ry

     convergence has been achieved in  23 iterations

 BEEF-vdW xc energy contributions
           1 :   -687.126487654563
           2 :    633.522503529692
           3 :   -540.573444070398
           4 :    430.565973672433
           5 :   -325.036168345538
           6 :    237.775282671673
           7 :   -172.630357800446
           8 :    126.071476748537
           9 :   -92.0995405890737
          10 :    66.3088398784648
          11 :   -47.1757008698662
          12 :    34.6963609430720
          13 :   -28.1407504527804
          14 :    24.8731523525464
          15 :   -21.1145605282990
          16 :    13.9574391231585
          17 :   -3.07907715059446
          18 :   -9.11903129041048
          19 :    19.0267015862435
          20 :   -23.9548261027785
          21 :    23.4952702467103
          22 :   -19.3804387823153
          23 :    14.1616737833135
          24 :   -9.74854142441473
          25 :    6.75701236498855
          26 :   -4.90060920123983
          27 :    3.87239042392616
          28 :   -3.90475304085476
          29 :    5.56224874800182
          30 :   -9.00616718930814
          31 :   -49.7732425883523
          32 :   -35.1380127336934

     Forces acting on atoms (Ry/au):

     negative rho (up, down):  6.813E-01 0.000E+00
     atom    1 type  1   force =     0.00700830    0.00413945   -0.01162987
     atom    2 type  1   force =     0.00701859    0.00412505   -0.01163687
     atom    3 type  2   force =    -0.00848001   -0.00499724    0.01406538
     atom    4 type  2   force =    -0.00847757   -0.00499504    0.01406645
     atom    5 type  1   force =     0.00393594    0.00234407   -0.01150535
     atom    6 type  1   force =     0.00395762    0.00231176   -0.01150162
     atom    7 type  2   force =    -0.00304791   -0.00179874    0.00852320
     atom    8 type  2   force =    -0.00305644   -0.00179738    0.00852375
     atom    9 type  1   force =     0.00111095    0.00063358   -0.00034562
     atom   10 type  1   force =     0.00106789    0.00065579   -0.00031855
     atom   11 type  2   force =    -0.00051973   -0.00031780    0.00089586
     atom   12 type  2   force =    -0.00051763   -0.00030351    0.00086324

     Total force =     0.038410     Total SCF correction =     0.002918

     entering subroutine stress ...

     negative rho (up, down):  6.813E-01 0.000E+00
          total   stress  (Ry/bohr**3)                   (kbar)     P=  -13.29
  -0.00015529  -0.00005837   0.00000360        -22.84     -8.59      0.53
  -0.00005837  -0.00009062   0.00000212         -8.59    -13.33      0.31
   0.00000360   0.00000212  -0.00002519          0.53      0.31     -3.71

 !ASE

     Writing output data file calc.save

     General routines

     Parallel routines

   This run was terminated on:  20:52:22  24Dec2018

   JOB DONE.
Job  /afs/slac/g/suncat/bin/suncat-tsmpirun -x LD_LIBRARY_PATH -wdir /scratch/qe108963_jqHvU pw.x -in pw.inp

TID   HOST_NAME   COMMAND_LINE            STATUS            TERMINATION_TIME
00000 suncat0075 pw.x -in pw.inp   Done                     12/24/2018 20:52:22
00001 suncat0075 pw.x -in pw.inp   Done                     12/24/2018 20:52:22
00002 suncat0075 pw.x -in pw.inp   Done                     12/24/2018 20:52:22
00003 suncat0075 pw.x -in pw.inp   Done                     12/24/2018 20:52:22
00004 suncat0075 pw.x -in pw.inp   Done                     12/24/2018 20:52:22
00005 suncat0075 pw.x -in pw.inp   Done                     12/24/2018 20:52:22
00006 suncat0075 pw.x -in pw.inp   Done                     12/24/2018 20:52:22
00007 suncat0075 pw.x -in pw.inp   Done                     12/24/2018 20:52:22
00008 suncat0074 pw.x -in pw.inp   Done                     12/24/2018 20:52:22
00009 suncat0074 pw.x -in pw.inp   Done                     12/24/2018 20:52:22
00010 suncat0074 pw.x -in pw.inp   Done                     12/24/2018 20:52:22
00011 suncat0074 pw.x -in pw.inp   Done                     12/24/2018 20:52:22
00012 suncat0074 pw.x -in pw.inp   Done                     12/24/2018 20:52:22
00013 suncat0074 pw.x -in pw.inp   Done                     12/24/2018 20:52:22
00014 suncat0074 pw.x -in pw.inp   Done                     12/24/2018 20:52:22
00015 suncat0074 pw.x -in pw.inp   Done                     12/24/2018 20:52:22
00016 suncat0071 pw.x -in pw.inp   Done                     12/24/2018 20:52:22
00017 suncat0071 pw.x -in pw.inp   Done                     12/24/2018 20:52:22
00018 suncat0071 pw.x -in pw.inp   Done                     12/24/2018 20:52:22
00019 suncat0071 pw.x -in pw.inp   Done                     12/24/2018 20:52:22
00020 suncat0071 pw.x -in pw.inp   Done                     12/24/2018 20:52:22
00021 suncat0071 pw.x -in pw.inp   Done                     12/24/2018 20:52:22
00022 suncat0071 pw.x -in pw.inp   Done                     12/24/2018 20:52:22
00023 suncat0071 pw.x -in pw.inp   Done                     12/24/2018 20:52:22
00024 suncat0020 pw.x -in pw.inp   Done                     12/24/2018 20:52:22
00025 suncat0020 pw.x -in pw.inp   Done                     12/24/2018 20:52:22
00026 suncat0020 pw.x -in pw.inp   Done                     12/24/2018 20:52:22
00027 suncat0020 pw.x -in pw.inp   Done                     12/24/2018 20:52:22
00028 suncat0020 pw.x -in pw.inp   Done                     12/24/2018 20:52:22
00029 suncat0020 pw.x -in pw.inp   Done                     12/24/2018 20:52:22
00030 suncat0020 pw.x -in pw.inp   Done                     12/24/2018 20:52:22
00031 suncat0020 pw.x -in pw.inp   Done                     12/24/2018 20:52:22
00032 suncat0121 pw.x -in pw.inp   Done                     12/24/2018 20:52:22
00033 suncat0121 pw.x -in pw.inp   Done                     12/24/2018 20:52:22
00034 suncat0121 pw.x -in pw.inp   Done                     12/24/2018 20:52:22
00035 suncat0121 pw.x -in pw.inp   Done                     12/24/2018 20:52:22
00036 suncat0121 pw.x -in pw.inp   Done                     12/24/2018 20:52:22
00037 suncat0121 pw.x -in pw.inp   Done                     12/24/2018 20:52:22
00038 suncat0121 pw.x -in pw.inp   Done                     12/24/2018 20:52:22
00039 suncat0121 pw.x -in pw.inp   Done                     12/24/2018 20:52:22
00040 suncat0115 pw.x -in pw.inp   Done                     12/24/2018 20:52:22
00041 suncat0115 pw.x -in pw.inp   Done                     12/24/2018 20:52:22
00042 suncat0115 pw.x -in pw.inp   Done                     12/24/2018 20:52:22
00043 suncat0115 pw.x -in pw.inp   Done                     12/24/2018 20:52:22
00044 suncat0115 pw.x -in pw.inp   Done                     12/24/2018 20:52:22
00045 suncat0115 pw.x -in pw.inp   Done                     12/24/2018 20:52:22
00046 suncat0115 pw.x -in pw.inp   Done                     12/24/2018 20:52:22
00047 suncat0115 pw.x -in pw.inp   Done                     12/24/2018 20:52:22
00048 suncat0228 pw.x -in pw.inp   Done                     12/24/2018 20:52:22
00049 suncat0228 pw.x -in pw.inp   Done                     12/24/2018 20:52:22
00050 suncat0228 pw.x -in pw.inp   Done                     12/24/2018 20:52:22
00051 suncat0228 pw.x -in pw.inp   Done                     12/24/2018 20:52:22
00052 suncat0228 pw.x -in pw.inp   Done                     12/24/2018 20:52:22
00053 suncat0228 pw.x -in pw.inp   Done                     12/24/2018 20:52:22
00054 suncat0228 pw.x -in pw.inp   Done                     12/24/2018 20:52:22
00055 suncat0228 pw.x -in pw.inp   Done                     12/24/2018 20:52:22
00056 suncat0227 pw.x -in pw.inp   Done                     12/24/2018 20:52:22
00057 suncat0227 pw.x -in pw.inp   Done                     12/24/2018 20:52:22
00058 suncat0227 pw.x -in pw.inp   Done                     12/24/2018 20:52:22
00059 suncat0227 pw.x -in pw.inp   Done                     12/24/2018 20:52:22
00060 suncat0227 pw.x -in pw.inp   Done                     12/24/2018 20:52:22
00061 suncat0227 pw.x -in pw.inp   Done                     12/24/2018 20:52:22
00062 suncat0227 pw.x -in pw.inp   Done                     12/24/2018 20:52:22
00063 suncat0227 pw.x -in pw.inp   Done                     12/24/2018 20:52:22