     Program PWSCF v.5.1rc2 (svn rev. 11289) starts on 19Dec2018 at  1:18:53

     Current dimensions of program PWSCF are:
     Max number of different atomic species (ntypx) = 10
     Max number of k-points (npk) =  40000
     Max angular momentum in pseudopotentials (lmaxx) =  3
     Presently stress not available with electric field

     IMPORTANT: XC functional enforced from input :
     Exchange-correlation      = BEEF-VDW ( 1  4 27 13 2)
     Any further DFT definition will be discarded
     Please, verify this is what you really want

     Subspace diagonalization in iterative solution of the eigenvalue problem:
     a serial algorithm will be used

     Found symmetry operation: I + ( -0.5000  0.0000  0.0000)
     This is a supercell, fractional translations are disabled

     bravais-lattice index     =            0
     lattice parameter (alat)  =       1.8897  a.u.
     unit-cell volume          =    4838.4615 (a.u.)^3
     number of atoms/cell      =           12
     number of atomic types    =            2
     number of electrons       =       210.00
     number of Kohn-Sham states=          135
     kinetic-energy cutoff     =      36.7493  Ry
     charge density cutoff     =     367.4932  Ry
     convergence threshold     =      1.0E-06
     mixing beta               =       0.1000
     number of iterations used =           10  plain     mixing
     Exchange-correlation      = BEEF-VDW ( 1  4 27 13 2)
     nstep                     =           50

     celldm(1)=   1.889726  celldm(2)=   0.000000  celldm(3)=   0.000000
     celldm(4)=   0.000000  celldm(5)=   0.000000  celldm(6)=   0.000000

     crystal axes: (cart. coord. in units of alat)
               a(1) = (   5.764607   0.000000   0.000000 )
               a(2) = (  -2.882303   5.030515   0.000000 )
               a(3) = (   0.000000   0.000000  24.724560 )

     reciprocal axes: (cart. coord. in units 2 pi/alat)
               b(1) = (  0.173472  0.099393  0.000000 )
               b(2) = (  0.000000  0.198787  0.000000 )
               b(3) = (  0.000000  0.000000  0.040446 )

     PseudoPot. # 1 for Pd read from file:
     /afs/slac.stanford.edu/u/if/mamunm/psp/gbrv1.5pbe/Pd.UPF
     MD5 check sum: 2d733d2bc2cbfd217af676df1668a4bc
     Pseudo is Ultrasoft + core correction, Zval = 16.0
     Generated by new atomic code, or converted to UPF format
     Using radial grid of  887 points,  6 beta functions with:
                l(1) =   0
                l(2) =   0
                l(3) =   1
                l(4) =   1
                l(5) =   2
                l(6) =   2
     Q(r) pseudized with  8 coefficients,  rinner =    1.130   1.130   1.130
                                                       1.130   1.130

     PseudoPot. # 2 for Ag read from file:
     /afs/slac.stanford.edu/u/if/mamunm/psp/gbrv1.5pbe/Ag.UPF
     MD5 check sum: d66d668201baa78d5eb5b04ef7011058
     Pseudo is Ultrasoft + core correction, Zval = 19.0
     Generated by new atomic code, or converted to UPF format
     Using radial grid of  887 points,  6 beta functions with:
                l(1) =   0
                l(2) =   0
                l(3) =   1
                l(4) =   1
                l(5) =   2
                l(6) =   2
     Q(r) pseudized with  6 coefficients,  rinner =    1.300   1.300   1.300
                                                       1.300   1.300

     vdW kernel table read from file vdW_kernel_table
     MD5 check sum: 095c7af220d748ca6e76c0b4c6cfb241

     atomic species   valence    mass     pseudopotential
        Pd1           16.00   106.42000     Pd( 1.00)
        Ag1           19.00   107.86820     Ag( 1.00)

     No symmetry found

   Cartesian axes

     site n.     atom                  positions (alat units)
         1           Pd1 tau(   1) = (   0.0000000   0.0000000  10.0000000  )
         2           Pd1 tau(   2) = (   2.8823034   0.0000000  10.0000000  )
         3           Ag1 tau(   3) = (   1.4411517   2.5152574  10.0000000  )
         4           Ag1 tau(   4) = (  -1.4411517   2.5152574  10.0000000  )
         5           Pd1 tau(   5) = (   2.8823034   1.6514559  12.3622800  )
         6           Pd1 tau(   6) = (   0.0000000   1.6514559  12.3622800  )
         7           Ag1 tau(   7) = (  -1.4411517   4.1667132  12.3622800  )
         8           Ag1 tau(   8) = (   1.4411517   4.1667132  12.3622800  )
         9           Pd1 tau(   9) = (  -0.0000000   3.3029117  14.7245599  )
        10           Pd1 tau(  10) = (   2.8823034   3.3029117  14.7245599  )
        11           Ag1 tau(  11) = (   4.3234551   0.7876543  14.7245599  )
        12           Ag1 tau(  12) = (   1.4411517   0.7876543  14.7245599  )

     number of k points=    20  Fermi-Dirac smearing, width (Ry)=  0.0110
                       cart. coord. in units 2pi/alat
        k(    1) = (   0.0000000   0.0000000   0.0000000), wk =   0.0555556
        k(    2) = (   0.0000000   0.0331311   0.0000000), wk =   0.1111111
        k(    3) = (   0.0000000   0.0662623   0.0000000), wk =   0.1111111
        k(    4) = (   0.0000000  -0.0993934   0.0000000), wk =   0.0555556
        k(    5) = (   0.0289121   0.0165656   0.0000000), wk =   0.1111111
        k(    6) = (   0.0289121   0.0496967   0.0000000), wk =   0.1111111
        k(    7) = (   0.0289121   0.0828278   0.0000000), wk =   0.1111111
        k(    8) = (   0.0289121  -0.0828278   0.0000000), wk =   0.1111111
        k(    9) = (   0.0289121  -0.0496967   0.0000000), wk =   0.1111111
        k(   10) = (   0.0289121  -0.0165656   0.0000000), wk =   0.1111111
        k(   11) = (   0.0578241   0.0331311   0.0000000), wk =   0.1111111
        k(   12) = (   0.0578241   0.0662623   0.0000000), wk =   0.1111111
        k(   13) = (   0.0578241   0.0993934   0.0000000), wk =   0.1111111
        k(   14) = (   0.0578241  -0.0662623   0.0000000), wk =   0.1111111
        k(   15) = (   0.0578241  -0.0331311   0.0000000), wk =   0.1111111
        k(   16) = (   0.0578241  -0.0000000   0.0000000), wk =   0.1111111
        k(   17) = (  -0.0867362  -0.0496967   0.0000000), wk =   0.0555556
        k(   18) = (  -0.0867362  -0.0165656   0.0000000), wk =   0.1111111
        k(   19) = (  -0.0867362   0.0165656   0.0000000), wk =   0.1111111
        k(   20) = (  -0.0867362  -0.1490901   0.0000000), wk =   0.0555556

     Largest allocated arrays     est. size (Mb)     dimensions
     Largest temporary arrays     est. size (Mb)     dimensions

     Initial potential from superposition of free atoms
     Check: negative starting charge=   -0.455639

     starting charge  203.99967, renormalised to  210.00000

     negative rho (up, down):  4.690E-01 0.000E+00

     *
     * You are using vdW-DF for exchange-correlation in this calculation.
     * Please cite the following three references that made this development
     * possible:
     *
     *   M. Dion, H. Rydberg, E. Schroder, D. C. Langreth, and
     *   B. I. Lundqvist, Phys. Rev. Lett. 92, 246401 (2004).
     *
     *   T. Thonhauser, V. R. Cooper, S. Li, A. Puzder, P. Hyldgaard, and
     *   D. C. Langreth, Phys. Rev. B 76, 125112 (2007).
     *
     *   G. Roman-Perez and J. M. Soler, Phys. Rev. Lett. 103, 096102 (2009).
     *
     *
     * If you are using vdW-DF2, please also cite:
     *
     *   K. Lee, E. D. Murray, L. Kong, B. I. Lundqvist, and
     *   D. C. Langreth, Phys. Rev. B 82, 081101(R) (2010).
     *
     *
     * If you are calculating the stress with vdW-DF, please also cite:
     *
     *   R. Sabatini, E. Kucukbenli, B. Kolb, T. Thonhauser, and
     *   S. de Gironcoli, J. Phys.: Condens. Matter 24, 424209 (2012).
     *

     Carrying out vdW-DF run using the following parameters:

     Nqs =      20    Nr_points =    1024   r_max =   100.000
     q_mesh =
               0.00001000     0.04494208     0.09755937     0.15916263
               0.23128650     0.31572767     0.41458969     0.53033537
               0.66584808     0.82450364     1.01025438     1.22772762
               1.48234092     1.78043706     2.12944203     2.53805004
               3.01644009     3.57652955     4.23227104     5.00000000

     Gradients computed in reciprocal space

     Adding external electric field

     Computed dipole along edir(3) :
        Dipole                0.0000 Ry au,          0.0000 Debye
        Dipole field          0.0000 Ry au

        Potential amp.       -0.0000 Ry
        Total length         45.5546 bohr

     Starting wfc are  150 randomized atomic wfcs

     Self-consistent Calculation

     iteration #  1     ecut=    36.75 Ry     beta=0.10
     Davidson diagonalization with overlap
     ethr =  1.00E-02,  avg # of iterations =  7.2

[...]

     total energy              =   -2978.96944079 Ry
     Harris-Foulkes estimate   =   -2982.12881101 Ry
     estimated scf accuracy    <      19.09910820 Ry

[...]

     End of self-consistent calculation

          k = 0.0000 0.0000 0.0000 ( 18207 PWs)   bands (ev):

   -90.4961 -90.4902 -90.4234 -90.4233 -90.4176 -90.4175 -54.0441 -54.0133
   -54.0056 -53.9870 -53.9869 -53.9712 -53.9635 -53.9581 -53.9247 -53.9204
   -53.9170 -53.9127 -53.9010 -53.9009 -53.8917 -53.8869 -53.8843 -53.8796
   -48.4758 -48.4285 -48.4170 -48.3597 -48.3486 -48.3484 -48.2908 -48.2904
   -48.2060 -48.2010 -48.1949 -48.1900 -48.1633 -48.1632 -48.0942 -48.0906
   -48.0826 -48.0795  -4.8777  -4.2292  -4.0757  -4.0466  -4.0455  -4.0171
    -3.9114  -3.8579  -3.8077  -3.8050  -3.7838  -3.6539  -3.6129  -3.4720
    -3.3153  -3.2941  -3.0203  -2.9147  -2.8720  -2.8343  -2.7739  -2.6471
    -2.6406  -2.5056  -2.4592  -2.4176  -2.3939  -2.3477  -2.3082  -2.1293
    -1.9478  -1.6763  -1.4989  -1.4682  -1.4596  -1.1288  -1.1127  -0.9860
    -0.8793  -0.8095  -0.7483  -0.6078  -0.4494  -0.4014  -0.2871  -0.2759
    -0.2453  -0.2105  -0.0491   0.0959   0.1086   0.2609   0.2686   0.2892
     0.3553   0.3812   0.5101   0.5343   0.5755   0.6181   0.7035   0.8079
     1.0166   2.2009   2.5672   2.6951   2.8225   3.6317   3.7026   3.7358
     3.9345   4.0426   4.1151   5.1364   5.4804   5.7564   6.3332   6.5116
     6.7354   6.7510   6.8157   6.9269   7.2298   7.4341   7.7364   7.8827
     8.0589   9.0720   9.4837   9.9320   9.9322   9.9372  10.2011

[...]

          k =-0.0867-0.0497 0.0000 ( 18174 PWs)   bands (ev):

[...]

     the Fermi energy is     0.9462 ev

!    total energy              =   -2978.63205550 Ry
     Harris-Foulkes estimate   =   -2978.63205788 Ry
     estimated scf accuracy    <       0.00000020 Ry

     The total energy is the sum of the following terms:

     one-electron contribution =  -23037.48003734 Ry
     hartree contribution      =   11541.04239627 Ry
     xc contribution           =    -375.84483263 Ry
     ewald contribution        =    8893.69535137 Ry
     electric field correction =       0.00000000 Ry
     smearing contrib. (-TS)   =      -0.04493317 Ry

     convergence has been achieved in  16 iterations

 BEEF-vdW xc energy contributions
           1 :   -326.550067349116
           2 :    297.075491341057
           3 :   -247.376702362220
           4 :    191.697555992328
           5 :   -143.368990166896
[...]

[...]

     Total force =     0.016301     Total SCF correction =     0.003029
     SCF correction compared to forces is large: reduce conv_thr to get better values

[...]

     Program PWSCF v.5.1rc2 (svn rev. 11289) starts on 19Dec2018 at  1:35: 5

     Current dimensions of program PWSCF are:
     Max number of different atomic species (ntypx) = 10
     Max number of k-points (npk) =  40000
     Max angular momentum in pseudopotentials (lmaxx) =  3
     Presently stress not available with electric field

     IMPORTANT: XC functional enforced from input :
     Exchange-correlation      = BEEF-VDW ( 1  4 27 13 2)
     Any further DFT definition will be discarded
     Please, verify this is what you really want

     Subspace diagonalization in iterative solution of the eigenvalue problem:
     a serial algorithm will be used

     Found symmetry operation: I + ( -0.5000  0.0000  0.0000)
     This is a supercell, fractional translations are disabled

     bravais-lattice index     =            0
     lattice parameter (alat)  =       1.8897  a.u.
     unit-cell volume          =    4838.4615 (a.u.)^3
     number of atoms/cell      =           12
     number of atomic types    =            2
     number of electrons       =       210.00
     number of Kohn-Sham states=          135
     kinetic-energy cutoff     =      36.7493  Ry
     charge density cutoff     =     367.4932  Ry
     convergence threshold     =      1.0E-06
     mixing beta               =       0.1000
     number of iterations used =           10  plain     mixing
     Exchange-correlation      = BEEF-VDW ( 1  4 27 13 2)
     nstep                     =           50

     celldm(1)=   1.889726  celldm(2)=   0.000000  celldm(3)=   0.000000
     celldm(4)=   0.000000  celldm(5)=   0.000000  celldm(6)=   0.000000

     crystal axes: (cart. coord. in units of alat)
               a(1) = (   5.764607   0.000000   0.000000 )
               a(2) = (  -2.882303   5.030515   0.000000 )
               a(3) = (   0.000000   0.000000  24.724560 )

     reciprocal axes: (cart. coord. in units 2 pi/alat)
               b(1) = (  0.173472  0.099393  0.000000 )
               b(2) = (  0.000000  0.198787  0.000000 )
               b(3) = (  0.000000  0.000000  0.040446 )

     PseudoPot. # 1 for Pd read from file:
     /afs/slac.stanford.edu/u/if/mamunm/psp/gbrv1.5pbe/Pd.UPF
     MD5 check sum: 2d733d2bc2cbfd217af676df1668a4bc
     Pseudo is Ultrasoft + core correction, Zval = 16.0
     Generated by new atomic code, or converted to UPF format
     Using radial grid of  887 points,  6 beta functions with:
                l(1) =   0
                l(2) =   0
                l(3) =   1
                l(4) =   1
                l(5) =   2
                l(6) =   2
     Q(r) pseudized with  8 coefficients,  rinner =    1.130   1.130   1.130
                                                       1.130   1.130

     PseudoPot. # 2 for Ag read from file:
     /afs/slac.stanford.edu/u/if/mamunm/psp/gbrv1.5pbe/Ag.UPF
     MD5 check sum: d66d668201baa78d5eb5b04ef7011058
     Pseudo is Ultrasoft + core correction, Zval = 19.0
     Generated by new atomic code, or converted to UPF format
     Using radial grid of  887 points,  6 beta functions with:
                l(1) =   0
                l(2) =   0
                l(3) =   1
                l(4) =   1
                l(5) =   2
                l(6) =   2
     Q(r) pseudized with  6 coefficients,  rinner =    1.300   1.300   1.300
                                                       1.300   1.300

     vdW kernel table read from file vdW_kernel_table
     MD5 check sum: 095c7af220d748ca6e76c0b4c6cfb241

     atomic species   valence    mass     pseudopotential
        Pd1           16.00   106.42000     Pd( 1.00)
        Ag1           19.00   107.86820     Ag( 1.00)

     No symmetry found

   Cartesian axes

     site n.     atom                  positions (alat units)
         1           Pd1 tau(   1) = (   0.0000000   0.0000000  10.0000000  )
         2           Pd1 tau(   2) = (   2.8823034   0.0000000  10.0000000  )
         3           Ag1 tau(   3) = (   1.4411517   2.5152574  10.0000000  )
         4           Ag1 tau(   4) = (  -1.4411517   2.5152574  10.0000000  )
         5           Pd1 tau(   5) = (   2.8823034   1.6514559  12.3622800  )
         6           Pd1 tau(   6) = (   0.0000000   1.6514559  12.3622800  )
         7           Ag1 tau(   7) = (  -1.4411517   4.1667132  12.3622800  )
         8           Ag1 tau(   8) = (   1.4411517   4.1667132  12.3622800  )
         9           Pd1 tau(   9) = (  -0.0000002   3.2866913  14.6824627  )
        10           Pd1 tau(  10) = (   2.8823037   3.2866913  14.6824616  )
        11           Ag1 tau(  11) = (   4.3234553   0.7977121  14.7644377  )
        12           Ag1 tau(  12) = (   1.4411516   0.7977113  14.7644383  )

     number of k points=    20  Fermi-Dirac smearing, width (Ry)=  0.0110
                       cart. coord. in units 2pi/alat
        k(    1) = (   0.0000000   0.0000000   0.0000000), wk =   0.0555556
        k(    2) = (   0.0000000   0.0331311   0.0000000), wk =   0.1111111
        k(    3) = (   0.0000000   0.0662623   0.0000000), wk =   0.1111111
        k(    4) = (   0.0000000  -0.0993934   0.0000000), wk =   0.0555556
        k(    5) = (   0.0289121   0.0165656   0.0000000), wk =   0.1111111
        k(    6) = (   0.0289121   0.0496967   0.0000000), wk =   0.1111111
        k(    7) = (   0.0289121   0.0828278   0.0000000), wk =   0.1111111
        k(    8) = (   0.0289121  -0.0828278   0.0000000), wk =   0.1111111
        k(    9) = (   0.0289121  -0.0496967   0.0000000), wk =   0.1111111
        k(   10) = (   0.0289121  -0.0165656   0.0000000), wk =   0.1111111
        k(   11) = (   0.0578241   0.0331311   0.0000000), wk =   0.1111111
        k(   12) = (   0.0578241   0.0662623   0.0000000), wk =   0.1111111
        k(   13) = (   0.0578241   0.0993934   0.0000000), wk =   0.1111111
        k(   14) = (   0.0578241  -0.0662623   0.0000000), wk =   0.1111111
        k(   15) = (   0.0578241  -0.0331311   0.0000000), wk =   0.1111111
        k(   16) = (   0.0578241  -0.0000000   0.0000000), wk =   0.1111111
        k(   17) = (  -0.0867362  -0.0496967   0.0000000), wk =   0.0555556
        k(   18) = (  -0.0867362  -0.0165656   0.0000000), wk =   0.1111111
        k(   19) = (  -0.0867362   0.0165656   0.0000000), wk =   0.1111111
        k(   20) = (  -0.0867362  -0.1490901   0.0000000), wk =   0.0555556

     Largest allocated arrays     est. size (Mb)     dimensions
     Largest temporary arrays     est. size (Mb)     dimensions

     Initial potential from superposition of free atoms
     Check: negative starting charge=   -0.457563

     starting charge  203.99967, renormalised to  210.00000

[...]

     *
     * You are using vdW-DF for exchange-correlation in this calculation.
     * Please cite the following three references that made this development
     * possible:
     *
     *   M. Dion, H. Rydberg, E. Schroder, D. C. Langreth, and
     *   B. I. Lundqvist, Phys. Rev. Lett. 92, 246401 (2004).
     *
     *   T. Thonhauser, V. R. Cooper, S. Li, A. Puzder, P. Hyldgaard, and
     *   D. C. Langreth, Phys. Rev. B 76, 125112 (2007).
     *
     *   G. Roman-Perez and J. M. Soler, Phys. Rev. Lett. 103, 096102 (2009).
     *
     *
     * If you are using vdW-DF2, please also cite:
     *
     *   K. Lee, E. D. Murray, L. Kong, B. I. Lundqvist, and
     *   D. C. Langreth, Phys. Rev. B 82, 081101(R) (2010).
     *
     *
     * If you are calculating the stress with vdW-DF, please also cite:
     *
     *   R. Sabatini, E. Kucukbenli, B. Kolb, T. Thonhauser, and
     *   S. de Gironcoli, J. Phys.: Condens. Matter 24, 424209 (2012).
     *

     Carrying out vdW-DF run using the following parameters:

     Nqs =      20    Nr_points =    1024   r_max =   100.000
     q_mesh =
               0.00001000     0.04494208     0.09755937     0.15916263
               0.23128650     0.31572767     0.41458969     0.53033537
               0.66584808     0.82450364     1.01025438     1.22772762
               1.48234092     1.78043706     2.12944203     2.53805004
               3.01644009     3.57652955     4.23227104     5.00000000

     Gradients computed in reciprocal space

[...]

     Starting wfc are  150 randomized atomic wfcs

     Self-consistent Calculation

[...]

     total energy              =   -2978.63323999 Ry
     Harris-Foulkes estimate   =   -2978.63324019 Ry
     estimated scf accuracy    <       0.00000188 Ry

     iteration # 16     ecut=    36.75 Ry     beta=0.10
     Davidson diagonalization with overlap
     ethr =  8.94E-10,  avg # of iterations =  2.0

[...]

     negative rho (up, down):  4.731E-01 0.000E+00

     Adding external electric field

     Computed dipole along edir(3) :
        Dipole                0.0051 Ry au,          0.0131 Debye
        Dipole field          0.0000 Ry au

        Potential amp.       -0.0012 Ry
        Total length         45.5546 bohr

     End of self-consistent calculation

[...]

          k = 0.0578-0.0000 0.0000 ( 18209 PWs)   bands (ev):

[...]

          k =-0.0867-0.1491 0.0000 ( 18174 PWs)   bands (ev):

   -90.4874 -90.4874 -90.4136 -90.4136 -90.4054 -90.4054 -53.9994 -53.9994
   -53.9958 -53.9958 -53.9640 -53.9640 -53.9372 -53.9372 -53.9303 -53.9303
   -53.9121 -53.9121 -53.9046 -53.9046 -53.8789 -53.8789 -53.8685 -53.8685
   -48.4323 -48.4323 -48.4112 -48.4112 -48.3478 -48.3478 -48.2461 -48.2461
   -48.2225 -48.2225 -48.2180 -48.2180 -48.1925 -48.1925 -48.1129 -48.1129
   -48.0811 -48.0811  -3.7899  -3.7899  -3.6499  -3.6499  -3.5145  -3.5145
    -3.4124  -3.4124  -3.3176  -3.3176  -3.2269  -3.2269  -3.1917  -3.1917
    -3.0537  -3.0537  -2.9270  -2.9270  -2.8880  -2.8880  -2.7959  -2.7959
    -2.6732  -2.6732  -2.6625  -2.6625  -2.5550  -2.5550  -2.4213  -2.4213
    -2.3530  -2.3530  -1.8693  -1.8693  -1.3293  -1.3293  -1.1621  -1.1621
    -0.9528  -0.9528  -0.8095  -0.8095  -0.6078  -0.6078  -0.5451  -0.5451
    -0.4774  -0.4774  -0.4471  -0.4471  -0.3679  -0.3679  -0.2941  -0.2941
    -0.2580  -0.2580   0.0362   0.0362   0.2137   0.2137   0.3040   0.3040
     0.5177   0.5177   2.4748   2.4748   2.5210   2.5210   3.5620   3.5620
     4.8074   4.8074   5.6161   5.6161   6.5259   6.5259   7.1120   7.1120
     7.1913   7.1913   8.0075   8.0075   8.3360   8.3360   8.7403   8.7403
     8.8183   8.8183   8.9877   8.9877   9.3856   9.3857  10.0630

     the Fermi energy is     0.9508 ev

!    total energy              =   -2978.63323870 Ry
     Harris-Foulkes estimate   =   -2978.63324027 Ry
     estimated scf accuracy    <       0.00000068 Ry

     The total energy is the sum of the following terms:

     one-electron contribution =  -23029.27913362 Ry
     hartree contribution      =   11536.92448796 Ry
     xc contribution           =    -375.84214347 Ry
     ewald contribution        =    8889.60865302 Ry
     electric field correction =       0.00000007 Ry
     smearing contrib. (-TS)   =      -0.04510265 Ry

     convergence has been achieved in  16 iterations

 BEEF-vdW xc energy contributions
           1 :   -326.548273762582
           2 :    297.075613253212
           3 :   -247.378821010994
           4 :    191.699531868994
           5 :   -143.367372118043
           6 :    110.145245712202
           7 :   -92.6588838467664
           8 :    86.0398676083934
           9 :   -83.4778285704010
          10 :    79.7081938090035
          11 :   -72.8501308579642
          12 :    64.0976284934811
          13 :   -55.9525618763635
          14 :    50.2882087915872
          15 :   -47.3381602029293
          16 :    45.9347024338902
          17 :   -44.5413026472449
          18 :    42.2595041837668
          19 :   -39.1998890019911
          20 :    36.1300694537136
          21 :   -33.7841787025057
          22 :    32.3446214080317
          23 :   -31.3994740363871
          24 :    30.3173462217106
          25 :   -28.7255570607293
          26 :    26.7520006657038
          27 :   -24.8930730899658
          28 :    23.6333937717017
          29 :   -23.1001117923827
          30 :    22.9827163536344
          31 :   -32.0945860458497
          32 :   -23.5143422617315

     Forces acting on atoms (Ry/au):

     negative rho (up, down):  4.731E-01 0.000E+00
     atom    1 type  1   force =     0.00000015    0.00380519    0.00649670
     atom    2 type  1   force =    -0.00000000    0.00380523    0.00649668
     atom    3 type  2   force =     0.00000009   -0.00314478   -0.00578716
     atom    4 type  2   force =    -0.00000020   -0.00314480   -0.00578692
     atom    5 type  1   force =    -0.00000004   -0.00281280    0.00038215
     atom    6 type  1   force =     0.00000015   -0.00281287    0.00038223
     atom    7 type  2   force =    -0.00000006    0.00300123   -0.00140495
     atom    8 type  2   force =     0.00000015    0.00300114   -0.00140481
     atom    9 type  1   force =     0.00000006    0.00062333   -0.00052694
     atom   10 type  1   force =    -0.00000026    0.00062324   -0.00052698
     atom   11 type  2   force =    -0.00000008   -0.00147230    0.00084015
     atom   12 type  2   force =     0.00000004   -0.00147180    0.00083985

     Total force =     0.015662     Total SCF correction =     0.004150
     SCF correction compared to forces is large: reduce conv_thr to get better values

     entering subroutine stress ...

     negative rho (up, down):  4.731E-01 0.000E+00
          total   stress  (Ry/bohr**3)                   (kbar)     P=   -8.88
  -0.00007819   0.00000000  -0.00000000        -11.50      0.00     -0.00
   0.00000000  -0.00008156  -0.00000294          0.00    -12.00     -0.43
  -0.00000000  -0.00000294  -0.00002132         -0.00     -0.43     -3.14

 !ASE

     Writing output data file calc.save

     General routines

     Parallel routines

   This run was terminated on:   1:40:15  19Dec2018

   JOB DONE.
Job  /afs/slac/g/suncat/bin/suncat-tsmpirun -x LD_LIBRARY_PATH -wdir /scratch/qe530409_7u8Bm pw.x -in pw.inp

TID   HOST_NAME   COMMAND_LINE            STATUS            TERMINATION_TIME
00000 suncat2054 pw.x -in pw.inp   Done                     12/19/2018 01:40:15
00001 suncat2054 pw.x -in pw.inp   Done                     12/19/2018 01:40:15
00002 suncat2054 pw.x -in pw.inp   Done                     12/19/2018 01:40:15
00003 suncat2054 pw.x -in pw.inp   Done                     12/19/2018 01:40:15
00004 suncat2054 pw.x -in pw.inp   Done                     12/19/2018 01:40:15
00005 suncat2054 pw.x -in pw.inp   Done                     12/19/2018 01:40:15
00006 suncat2054 pw.x -in pw.inp   Done                     12/19/2018 01:40:15
00007 suncat2054 pw.x -in pw.inp   Done                     12/19/2018 01:40:15
00008 suncat2054 pw.x -in pw.inp   Done                     12/19/2018 01:40:15
00009 suncat2054 pw.x -in pw.inp   Done                     12/19/2018 01:40:15
00010 suncat2054 pw.x -in pw.inp   Done                     12/19/2018 01:40:15
00011 suncat2054 pw.x -in pw.inp   Done                     12/19/2018 01:40:15
00012 suncat2054 pw.x -in pw.inp   Done                     12/19/2018 01:40:15
00013 suncat2054 pw.x -in pw.inp   Done                     12/19/2018 01:40:15
00014 suncat2054 pw.x -in pw.inp   Done                     12/19/2018 01:40:15
00015 suncat2054 pw.x -in pw.inp   Done                     12/19/2018 01:40:15
00016 suncat2053 pw.x -in pw.inp   Done                     12/19/2018 01:40:15
00017 suncat2053 pw.x -in pw.inp   Done                     12/19/2018 01:40:15
00018 suncat2053 pw.x -in pw.inp   Done                     12/19/2018 01:40:15
00019 suncat2053 pw.x -in pw.inp   Done                     12/19/2018 01:40:15
00020 suncat2053 pw.x -in pw.inp   Done                     12/19/2018 01:40:15
00021 suncat2053 pw.x -in pw.inp   Done                     12/19/2018 01:40:15
00022 suncat2053 pw.x -in pw.inp   Done                     12/19/2018 01:40:15
00023 suncat2053 pw.x -in pw.inp   Done                     12/19/2018 01:40:15
00024 suncat2053 pw.x -in pw.inp   Done                     12/19/2018 01:40:15
00025 suncat2053 pw.x -in pw.inp   Done                     12/19/2018 01:40:15
00026 suncat2053 pw.x -in pw.inp   Done                     12/19/2018 01:40:15
00027 suncat2053 pw.x -in pw.inp   Done                     12/19/2018 01:40:15
00028 suncat2053 pw.x -in pw.inp   Done                     12/19/2018 01:40:15
00029 suncat2053 pw.x -in pw.inp   Done                     12/19/2018 01:40:15
00030 suncat2053 pw.x -in pw.inp   Done                     12/19/2018 01:40:15
00031 suncat2053 pw.x -in pw.inp   Done                     12/19/2018 01:40:15