     Program PWSCF v.5.1rc2 (svn rev. 11289) starts on 19Dec2018 at  7:53:54

     Current dimensions of program PWSCF are:
     Max number of different atomic species (ntypx) = 10
     Max number of k-points (npk) =  40000
     Max angular momentum in pseudopotentials (lmaxx) =  3
     Presently stress not available with electric field

     IMPORTANT: XC functional enforced from input :
     Exchange-correlation      = BEEF-VDW ( 1  4 27 13 2)
     Any further DFT definition will be discarded
     Please, verify this is what you really want

     Subspace diagonalization in iterative solution of the eigenvalue problem:
     a serial algorithm will be used

     Found symmetry operation: I + ( -0.5000 -0.5000  0.0000)
     This is a supercell, fractional translations are disabled

     bravais-lattice index     =            0
     lattice parameter (alat)  =       1.8897  a.u.
     unit-cell volume          =    4542.4095 (a.u.)^3
     number of atoms/cell      =           12
     number of atomic types    =            2
     number of electrons       =       180.00
     number of Kohn-Sham states=          120
     kinetic-energy cutoff     =      36.7493  Ry
     charge density cutoff     =     367.4932  Ry
     convergence threshold     =      1.0E-06
     mixing beta               =       0.1000
     number of iterations used =           10  plain     mixing
     Exchange-correlation      = BEEF-VDW ( 1  4 27 13 2)
     nstep                     =           50

     celldm(1)=   1.889726  celldm(2)=   0.000000  celldm(3)=   0.000000
     celldm(4)=   0.000000  celldm(5)=   0.000000  celldm(6)=   0.000000

     crystal axes: (cart. coord. in units of alat)
               a(1) = (   5.534374   0.000000   0.000000 )
               a(2) = (   2.476828   4.949204   0.000000 )
               a(3) = (   0.000000   0.000000  24.574565 )

     reciprocal axes: (cart. coord. in units 2 pi/alat)
               b(1) = (  0.180689 -0.090426  0.000000 )
               b(2) = (  0.000000  0.202053  0.000000 )
               b(3) = (  0.000000  0.000000  0.040692 )

     PseudoPot. # 1 for Cu read from file:
     /afs/slac.stanford.edu/u/if/mamunm/psp/gbrv1.5pbe/Cu.UPF
     MD5 check sum: 6e991ff952a84172a2a52a1c1e996048
     Pseudo is Ultrasoft + core correction, Zval = 19.0
     Generated by new atomic code, or converted to UPF format
     Using radial grid of  867 points,  6 beta functions with:
                l(1) =   0
                l(2) =   0
                l(3) =   1
                l(4) =   1
                l(5) =   2
                l(6) =   2
     Q(r) pseudized with  8 coefficients,  rinner =    1.150   1.150   1.150
                                                       1.150   1.150

     PseudoPot. # 2 for Au read from file:
     /afs/slac.stanford.edu/u/if/mamunm/psp/gbrv1.5pbe/Au.UPF
     MD5 check sum: 9d7f43293ad2c663164586bc4b293ffc
     Pseudo is Ultrasoft + core correction, Zval = 11.0
     Generated by new atomic code, or converted to UPF format
     Using radial grid of  985 points,  7 beta functions with:
                l(1) =   0
                l(2) =   0
                l(3) =   1
                l(4) =   1
                l(5) =   2
                l(6) =   2
                l(7) =   3
     Q(r) pseudized with  6 coefficients,  rinner =    1.900   1.900   1.900
                                                       1.900   1.900   1.900
                                                       1.900

     vdW kernel table read from file vdW_kernel_table
     MD5 check sum: 095c7af220d748ca6e76c0b4c6cfb241

     atomic species   valence    mass     pseudopotential
        Cu1           19.00    63.54600     Cu( 1.00)
        Au1           11.00   196.96657     Au( 1.00)

     No symmetry found

   Cartesian axes

     site n.     atom                  positions (alat units)
         1           Cu1 tau(   1) = (   0.0000000   0.0000000  10.0000000  )
         2           Cu1 tau(   2) = (   4.0056007   2.4746020  10.0000000  )
         3           Au1 tau(   3) = (   2.7671869   0.0000000  10.0000000  )
         4           Au1 tau(   4) = (   1.2384138   2.4746020  10.0000000  )
         5           Cu1 tau(   5) = (   5.5343739   3.4190558  12.2872826  )
         6           Cu1 tau(   6) = (   1.5287732   0.9444539  12.2872826  )
         7           Au1 tau(   7) = (   2.7671869   3.4190558  12.2872826  )
         8           Au1 tau(   8) = (   4.2959601   0.9444539  12.2872826  )
         9           Cu1 tau(   9) = (   3.0575463   1.8889077  14.5745652  )
        10           Cu1 tau(  10) = (   7.0631470   4.3635097  14.5745652  )
        11           Au1 tau(  11) = (   5.8247332   1.8889077  14.5745652  )
        12           Au1 tau(  12) = (   4.2959601   4.3635097  14.5745652  )

     number of k points=    20  Fermi-Dirac smearing, width (Ry)=  0.0110
                       cart. coord. in units 2pi/alat
        k(    1) = (   0.0000000   0.0000000   0.0000000), wk =   0.0555556
        k(    2) = (   0.0000000   0.0336754   0.0000000), wk =   0.1111111
        k(    3) = (   0.0000000   0.0673509   0.0000000), wk =   0.1111111
        k(    4) = (   0.0000000  -0.1010263   0.0000000), wk =   0.0555556
        k(    5) = (   0.0301148  -0.0150710   0.0000000), wk =   0.1111111
        k(    6) = (   0.0301148   0.0186045   0.0000000), wk =   0.1111111
        k(    7) = (   0.0301148   0.0522799   0.0000000), wk =   0.1111111
        k(    8) = (   0.0301148  -0.1160973   0.0000000), wk =   0.1111111
        k(    9) = (   0.0301148  -0.0824219   0.0000000), wk =   0.1111111
        k(   10) = (   0.0301148  -0.0487464   0.0000000), wk =   0.1111111
        k(   11) = (   0.0602296  -0.0301419   0.0000000), wk =   0.1111111
        k(   12) = (   0.0602296   0.0035335   0.0000000), wk =   0.1111111
        k(   13) = (   0.0602296   0.0372090   0.0000000), wk =   0.1111111
        k(   14) = (   0.0602296  -0.1311683   0.0000000), wk =   0.1111111
        k(   15) = (   0.0602296  -0.0974928   0.0000000), wk =   0.1111111
        k(   16) = (   0.0602296  -0.0638174   0.0000000), wk =   0.1111111
        k(   17) = (  -0.0903445   0.0452129   0.0000000), wk =   0.0555556
        k(   18) = (  -0.0903445   0.0788883   0.0000000), wk =   0.1111111
        k(   19) = (  -0.0903445   0.1125638   0.0000000), wk =   0.1111111
        k(   20) = (  -0.0903445  -0.0558135   0.0000000), wk =   0.0555556

     Largest allocated arrays     est. size (Mb)     dimensions
     Largest temporary arrays     est. size (Mb)     dimensions

     Check: negative/imaginary core charge=   -0.000002    0.000000

     Initial potential from superposition of free atoms
     Check: negative starting charge=   -0.000107

     starting charge  173.99925, renormalised to  180.00000

     negative rho (up, down):  1.104E-04 0.000E+00

     *
     * You are using vdW-DF for exchange-correlation in this calculation.
     * Please cite the following three references that made this development
     * possible:
     *
     *   M. Dion, H. Rydberg, E. Schroder, D. C. Langreth, and
     *   B. I. Lundqvist, Phys. Rev. Lett. 92, 246401 (2004).
     *
     *   T. Thonhauser, V. R. Cooper, S. Li, A. Puzder, P. Hyldgaard, and
     *   D. C. Langreth, Phys. Rev. B 76, 125112 (2007).
     *
     *   G. Roman-Perez and J. M. Soler, Phys. Rev. Lett. 103, 096102 (2009).
     *
     *
     * If you are using vdW-DF2, please also cite:
     *
     *   K. Lee, E. D. Murray, L. Kong, B. I. Lundqvist, and
     *   D. C. Langreth, Phys. Rev. B 82, 081101(R) (2010).
     *
     *
     * If you are calculating the stress with vdW-DF, please also cite:
     *
     *   R. Sabatini, E. Kucukbenli, B. Kolb, T. Thonhauser, and
     *   S. de Gironcoli, J. Phys.: Condens. Matter 24, 424209 (2012).
     *

     Carrying out vdW-DF run using the following parameters:

     Nqs =      20    Nr_points =    1024   r_max =   100.000
     q_mesh =
               0.00001000     0.04494208     0.09755937     0.15916263
               0.23128650     0.31572767     0.41458969     0.53033537
               0.66584808     0.82450364     1.01025438     1.22772762
               1.48234092     1.78043706     2.12944203     2.53805004
               3.01644009     3.57652955     4.23227104     5.00000000

     Gradients computed in reciprocal space

     Adding external electric field

     Computed dipole along edir(3) :
        Dipole               -0.0000 Ry au,         -0.0000 Debye
        Dipole field         -0.0000 Ry au

        Potential amp.        0.0000 Ry
        Total length         45.2782 bohr

     Starting wfc are  132 randomized atomic wfcs

     Self-consistent Calculation

     iteration #  1     ecut=    36.75 Ry     beta=0.10
     Davidson diagonalization with overlap
     ethr =  1.00E-02,  avg # of iterations =  7.5

[...]

     total energy              =   -3130.31911919 Ry
     Harris-Foulkes estimate   =   -3131.48686188 Ry
     estimated scf accuracy    <       6.88973974 Ry

[...]

     End of self-consistent calculation

          k = 0.0000 0.0000 0.0000 ( 17015 PWs)   bands (ev):

  -111.9478-111.9471-111.7268-111.7267-111.7261-111.7261 -69.3787 -69.3779
   -69.3630 -69.3517 -69.3465 -69.3456 -69.1597 -69.1597 -69.1589 -69.1588
   -69.1525 -69.1525 -69.1413 -69.1412 -69.1105 -69.1104 -69.1097 -69.1096
    -7.9900  -6.3539  -5.8332  -5.7989  -5.6993  -5.6178  -5.2946  -5.1753
    -5.1334  -5.1266  -4.9367  -4.8069  -4.7461  -4.6059  -4.3902  -4.1327
    -3.9842  -3.9836  -3.7372  -3.6610  -3.6548  -3.5867  -3.5774  -3.5364
    -3.4166  -3.4078  -3.2699  -3.2604  -3.2600  -2.7116  -2.6480  -2.3158
    -2.1519  -2.1114  -2.1083  -2.1019  -2.0649  -2.0118  -1.9271  -1.8810
    -1.7616  -1.7609  -1.7045  -1.6761  -1.5860  -1.5809  -1.5764  -1.5185
    -1.4576  -1.4540  -1.4153  -1.4123  -1.4082  -1.3458  -1.3410  -1.3024
    -1.2434  -1.1999  -1.1549  -1.1515  -1.1380  -1.0957  -1.0881   0.5520
     0.5628   0.5830   0.7043   1.1264   1.3621   1.3712   1.4725   2.0179
     2.7276   3.2048   3.9639   4.2520   4.3880   4.4656   4.6487   4.9255
     4.9379   5.2024   5.3131   5.9048   5.9688   5.9954   6.4102   8.1481
     8.1576   8.1957   8.3350   8.6033   8.7861   8.7982   9.7880   9.9452

[...]

          k =-0.0903 0.0452 0.0000 ( 17076 PWs)   bands (ev):

[...]

     the Fermi energy is     0.1933 ev

!    total energy              =   -3129.87547863 Ry
     Harris-Foulkes estimate   =   -3129.87546816 Ry
     estimated scf accuracy    <       0.00000061 Ry

     The total energy is the sum of the following terms:

     one-electron contribution =  -19169.07818677 Ry
     hartree contribution      =    9639.91464150 Ry
     xc contribution           =    -624.10389135 Ry
     ewald contribution        =    7023.41520083 Ry
     electric field correction =       0.00000000 Ry
     smearing contrib. (-TS)   =      -0.02324283 Ry

     convergence has been achieved in  16 iterations

 BEEF-vdW xc energy contributions
           1 :   -556.178035371565
           2 :    512.129713118550
           3 :   -435.273377049998
           4 :    343.293579589758
           5 :   -253.610482242344
[...]

[...]

   This run was terminated on:   8:21:14  19Dec2018

[...]

   This run was terminated on:   8:35: 6  19Dec2018

[...]

   This run was terminated on:   8:48:45  19Dec2018

[...]

     Program PWSCF v.5.1rc2 (svn rev. 11289) starts on 19Dec2018 at  8:48:51

     Current dimensions of program PWSCF are:
     Max number of different atomic species (ntypx) = 10
     Max number of k-points (npk) =  40000
     Max angular momentum in pseudopotentials (lmaxx) =  3
     Presently stress not available with electric field

     IMPORTANT: XC functional enforced from input :
     Exchange-correlation      = BEEF-VDW ( 1  4 27 13 2)
     Any further DFT definition will be discarded
     Please, verify this is what you really want

     Subspace diagonalization in iterative solution of the eigenvalue problem:
     a serial algorithm will be used

     Found symmetry operation: I + ( -0.5000 -0.5000  0.0000)
     This is a supercell, fractional translations are disabled

     bravais-lattice index     =            0
     lattice parameter (alat)  =       1.8897  a.u.
     unit-cell volume          =    4542.4095 (a.u.)^3
     number of atoms/cell      =           12
     number of atomic types    =            2
     number of electrons       =       180.00
     number of Kohn-Sham states=          120
     kinetic-energy cutoff     =      36.7493  Ry
     charge density cutoff     =     367.4932  Ry
     convergence threshold     =      1.0E-06
     mixing beta               =       0.1000
     number of iterations used =           10  plain     mixing
     Exchange-correlation      = BEEF-VDW ( 1  4 27 13 2)
     nstep                     =           50

     celldm(1)=   1.889726  celldm(2)=   0.000000  celldm(3)=   0.000000
     celldm(4)=   0.000000  celldm(5)=   0.000000  celldm(6)=   0.000000

     crystal axes: (cart. coord. in units of alat)
               a(1) = (   5.534374   0.000000   0.000000 )
               a(2) = (   2.476828   4.949204   0.000000 )
               a(3) = (   0.000000   0.000000  24.574565 )

     reciprocal axes: (cart. coord. in units 2 pi/alat)
               b(1) = (  0.180689 -0.090426  0.000000 )
               b(2) = (  0.000000  0.202053  0.000000 )
               b(3) = (  0.000000  0.000000  0.040692 )

     PseudoPot. # 1 for Cu read from file:
     /afs/slac.stanford.edu/u/if/mamunm/psp/gbrv1.5pbe/Cu.UPF
     MD5 check sum: 6e991ff952a84172a2a52a1c1e996048
     Pseudo is Ultrasoft + core correction, Zval = 19.0
     Generated by new atomic code, or converted to UPF format
     Using radial grid of  867 points,  6 beta functions with:
                l(1) =   0
                l(2) =   0
                l(3) =   1
                l(4) =   1
                l(5) =   2
                l(6) =   2
     Q(r) pseudized with  8 coefficients,  rinner =    1.150   1.150   1.150
                                                       1.150   1.150

     PseudoPot. # 2 for Au read from file:
     /afs/slac.stanford.edu/u/if/mamunm/psp/gbrv1.5pbe/Au.UPF
     MD5 check sum: 9d7f43293ad2c663164586bc4b293ffc
     Pseudo is Ultrasoft + core correction, Zval = 11.0
     Generated by new atomic code, or converted to UPF format
     Using radial grid of  985 points,  7 beta functions with:
                l(1) =   0
                l(2) =   0
                l(3) =   1
                l(4) =   1
                l(5) =   2
                l(6) =   2
                l(7) =   3
     Q(r) pseudized with  6 coefficients,  rinner =    1.900   1.900   1.900
                                                       1.900   1.900   1.900
                                                       1.900

     vdW kernel table read from file vdW_kernel_table
     MD5 check sum: 095c7af220d748ca6e76c0b4c6cfb241

     atomic species   valence    mass     pseudopotential
        Cu1           19.00    63.54600     Cu( 1.00)
        Au1           11.00   196.96657     Au( 1.00)

     No symmetry found

   Cartesian axes

     site n.     atom                  positions (alat units)
         1           Cu1 tau(   1) = (   0.0000000   0.0000000  10.0000000  )
         2           Cu1 tau(   2) = (   4.0056007   2.4746020  10.0000000  )
         3           Au1 tau(   3) = (   2.7671869   0.0000000  10.0000000  )
         4           Au1 tau(   4) = (   1.2384138   2.4746020  10.0000000  )
         5           Cu1 tau(   5) = (   5.5343739   3.4190558  12.2872826  )
         6           Cu1 tau(   6) = (   1.5287732   0.9444539  12.2872826  )
         7           Au1 tau(   7) = (   2.7671869   3.4190558  12.2872826  )
         8           Au1 tau(   8) = (   4.2959601   0.9444539  12.2872826  )
         9           Cu1 tau(   9) = (   3.0536419   1.8864780  14.5050157  )
        10           Cu1 tau(  10) = (   7.0592335   4.3610928  14.5049963  )
        11           Au1 tau(  11) = (   5.8654821   1.9140900  14.5947663  )
        12           Au1 tau(  12) = (   4.3367217   4.3886954  14.5947874  )

     number of k points=    20  Fermi-Dirac smearing, width (Ry)=  0.0110
                       cart. coord. in units 2pi/alat
        k(    1) = (   0.0000000   0.0000000   0.0000000), wk =   0.0555556
        k(    2) = (   0.0000000   0.0336754   0.0000000), wk =   0.1111111
        k(    3) = (   0.0000000   0.0673509   0.0000000), wk =   0.1111111
        k(    4) = (   0.0000000  -0.1010263   0.0000000), wk =   0.0555556
        k(    5) = (   0.0301148  -0.0150710   0.0000000), wk =   0.1111111
        k(    6) = (   0.0301148   0.0186045   0.0000000), wk =   0.1111111
        k(    7) = (   0.0301148   0.0522799   0.0000000), wk =   0.1111111
        k(    8) = (   0.0301148  -0.1160973   0.0000000), wk =   0.1111111
        k(    9) = (   0.0301148  -0.0824219   0.0000000), wk =   0.1111111
        k(   10) = (   0.0301148  -0.0487464   0.0000000), wk =   0.1111111
        k(   11) = (   0.0602296  -0.0301419   0.0000000), wk =   0.1111111
        k(   12) = (   0.0602296   0.0035335   0.0000000), wk =   0.1111111
        k(   13) = (   0.0602296   0.0372090   0.0000000), wk =   0.1111111
        k(   14) = (   0.0602296  -0.1311683   0.0000000), wk =   0.1111111
        k(   15) = (   0.0602296  -0.0974928   0.0000000), wk =   0.1111111
        k(   16) = (   0.0602296  -0.0638174   0.0000000), wk =   0.1111111
        k(   17) = (  -0.0903445   0.0452129   0.0000000), wk =   0.0555556
        k(   18) = (  -0.0903445   0.0788883   0.0000000), wk =   0.1111111
        k(   19) = (  -0.0903445   0.1125638   0.0000000), wk =   0.1111111
        k(   20) = (  -0.0903445  -0.0558135   0.0000000), wk =   0.0555556

     Largest allocated arrays     est. size (Mb)     dimensions
     Largest temporary arrays     est. size (Mb)     dimensions

     Check: negative/imaginary core charge=   -0.000002    0.000000

     Initial potential from superposition of free atoms
     Check: negative starting charge=   -0.000105

     starting charge  173.99925, renormalised to  180.00000

[...]

     *
     * You are using vdW-DF for exchange-correlation in this calculation.
     * Please cite the following three references that made this development
     * possible:
     *
     *   M. Dion, H. Rydberg, E. Schroder, D. C. Langreth, and
     *   B. I. Lundqvist, Phys. Rev. Lett. 92, 246401 (2004).
     *
     *   T. Thonhauser, V. R. Cooper, S. Li, A. Puzder, P. Hyldgaard, and
     *   D. C. Langreth, Phys. Rev. B 76, 125112 (2007).
     *
     *   G. Roman-Perez and J. M. Soler, Phys. Rev. Lett. 103, 096102 (2009).
     *
     *
     * If you are using vdW-DF2, please also cite:
     *
     *   K. Lee, E. D. Murray, L. Kong, B. I. Lundqvist, and
     *   D. C. Langreth, Phys. Rev. B 82, 081101(R) (2010).
     *
     *
     * If you are calculating the stress with vdW-DF, please also cite:
     *
     *   R. Sabatini, E. Kucukbenli, B. Kolb, T. Thonhauser, and
     *   S. de Gironcoli, J. Phys.: Condens. Matter 24, 424209 (2012).
     *

     Carrying out vdW-DF run using the following parameters:

     Nqs =      20    Nr_points =    1024   r_max =   100.000
     q_mesh =
               0.00001000     0.04494208     0.09755937     0.15916263
               0.23128650     0.31572767     0.41458969     0.53033537
               0.66584808     0.82450364     1.01025438     1.22772762
               1.48234092     1.78043706     2.12944203     2.53805004
               3.01644009     3.57652955     4.23227104     5.00000000

     Gradients computed in reciprocal space

[...]

     Starting wfc are  132 randomized atomic wfcs

     Self-consistent Calculation

[...]

     total energy              =   -3129.87737086 Ry
     Harris-Foulkes estimate   =   -3129.87736880 Ry
     estimated scf accuracy    <       0.00000231 Ry

     iteration # 16     ecut=    36.75 Ry     beta=0.10
     Davidson diagonalization with overlap
     ethr =  1.28E-09,  avg # of iterations =  2.0

[...]

     negative rho (up, down):  8.542E-04 0.000E+00

     Adding external electric field

     Computed dipole along edir(3) :
        Dipole               -0.0062 Ry au,         -0.0158 Debye
        Dipole field         -0.0000 Ry au

        Potential amp.        0.0016 Ry
        Total length         45.2782 bohr

     End of self-consistent calculation

[...]

          k = 0.0602-0.0638 0.0000 ( 17070 PWs)   bands (ev):

[...]

          k =-0.0903-0.0558 0.0000 ( 17204 PWs)   bands (ev):

  -111.9549-111.9542-111.7722-111.7715-111.7360-111.7353 -69.3871 -69.3862
   -69.3695 -69.3582 -69.3533 -69.3524 -69.2011 -69.2002 -69.1959 -69.1846
   -69.1684 -69.1676 -69.1613 -69.1610 -69.1602 -69.1501 -69.1206 -69.1197
    -6.7147  -6.1696  -5.7025  -5.4784  -5.2540  -5.1815  -5.1725  -4.9520
    -4.8849  -4.8727  -4.6876  -4.5681  -4.4936  -4.4588  -4.4222  -4.2237
    -3.9042  -3.8321  -3.7993  -3.7777  -3.5508  -3.5238  -3.5127  -3.4388
    -3.3484  -3.3034  -3.2998  -3.0305  -2.9345  -2.8725  -2.8442  -2.8040
    -2.5324  -2.5066  -2.4752  -2.4573  -2.4491  -2.3447  -2.3208  -2.2738
    -2.2545  -2.2386  -2.1790  -2.1108  -2.0744  -2.0447  -2.0191  -1.9638
    -1.9388  -1.8882  -1.7679  -1.7187  -1.7160  -1.6869  -1.6201  -1.6169
    -1.6152  -1.5623  -1.5600  -1.4587  -1.4039  -1.3851  -1.3703  -1.3188
    -0.3381   0.1106   0.3331   0.6613   1.0007   1.0878   3.1636   3.2672
     3.3555   3.4996   5.7023   5.7332   5.9097   6.1332   6.3332   6.3803
     6.4178   6.5360   6.5405   6.5500   6.7767   7.2936   7.5795   7.6414
     7.9016   7.9901   8.0506   8.1734   8.3636   8.5899   8.7312   8.7684

     the Fermi energy is     0.1840 ev

!    total energy              =   -3129.87738237 Ry
     Harris-Foulkes estimate   =   -3129.87737107 Ry
     estimated scf accuracy    <       0.00000066 Ry

     The total energy is the sum of the following terms:

     one-electron contribution =  -19259.61635141 Ry
     hartree contribution      =    9685.07829561 Ry
     xc contribution           =    -624.11705249 Ry
     ewald contribution        =    7068.80104429 Ry
     electric field correction =       0.00000011 Ry
     smearing contrib. (-TS)   =      -0.02331847 Ry

     convergence has been achieved in  16 iterations

 BEEF-vdW xc energy contributions
           1 :   -556.193316228822
           2 :    512.157740409030
           3 :   -435.316427748503
           4 :    343.340200826665
           5 :   -253.643368443194
           6 :    178.006629203710
           7 :   -120.624036324630
           8 :    79.6335510670129
           9 :   -50.5476652512315
          10 :    29.3995277785310
          11 :   -14.1399700774825
          12 :    4.16600264148076
          13 :   0.997307456603835
          14 :   -2.62244100132091
          15 :    2.68300428103259
          16 :   -3.01568733431486
          17 :    4.50875609854745
          18 :   -6.93639043216524
          19 :    9.47099791572293
          20 :   -11.4119831818188
          21 :    12.5832313074787
          22 :   -13.1989429890685
          23 :    13.4331372058408
          24 :   -13.1303090647774
          25 :    11.9199541504354
          26 :   -9.63725797888003
          27 :    6.67911384923957
          28 :   -3.96269470469883
          29 :    2.45326867563915
          30 :   -2.56992187533308
          31 :   -43.9764981956097
          32 :   -31.2572097258364

     Forces acting on atoms (Ry/au):

     negative rho (up, down):  8.542E-04 0.000E+00
     atom    1 type  1   force =     0.00435731    0.00269488    0.00654888
     atom    2 type  1   force =     0.00435969    0.00268922    0.00654726
     atom    3 type  2   force =    -0.00796605   -0.00492192   -0.00423228
     atom    4 type  2   force =    -0.00796689   -0.00491854   -0.00423092
     atom    5 type  1   force =    -0.00085596   -0.00052707    0.00049127
     atom    6 type  1   force =    -0.00085591   -0.00053071    0.00049214
     atom    7 type  2   force =     0.00337619    0.00208564   -0.00310595
     atom    8 type  2   force =     0.00337436    0.00208274   -0.00311015
     atom    9 type  1   force =     0.00072880    0.00045261    0.00051783
     atom   10 type  1   force =     0.00073474    0.00045231    0.00051708
     atom   11 type  2   force =     0.00035831    0.00021986   -0.00021671
     atom   12 type  2   force =     0.00035539    0.00022098   -0.00021846

     Total force =     0.020129     Total SCF correction =     0.002564
     SCF correction compared to forces is large: reduce conv_thr to get better values

     entering subroutine stress ...

     negative rho (up, down):  8.542E-04 0.000E+00
          total   stress  (Ry/bohr**3)                   (kbar)     P=  -16.66
  -0.00015220  -0.00000358   0.00000730        -22.39     -0.53      1.07
  -0.00000358  -0.00014861   0.00000451         -0.53    -21.86      0.66
   0.00000730   0.00000451  -0.00003888          1.07      0.66     -5.72

 !ASE

     Writing output data file calc.save

     General routines

     Parallel routines

   This run was terminated on:   9: 2:21  19Dec2018

   JOB DONE.
Job  /afs/slac/g/suncat/bin/suncat-tsmpirun -x LD_LIBRARY_PATH -wdir /scratch/qe529782_tAJ5W pw.x -in pw.inp

TID   HOST_NAME   COMMAND_LINE            STATUS            TERMINATION_TIME
00000 suncat0122 pw.x -in pw.inp   Done                     12/19/2018 09:02:21
00001 suncat0122 pw.x -in pw.inp   Done                     12/19/2018 09:02:21
00002 suncat0122 pw.x -in pw.inp   Done                     12/19/2018 09:02:21
00003 suncat0122 pw.x -in pw.inp   Done                     12/19/2018 09:02:21
00004 suncat0122 pw.x -in pw.inp   Done                     12/19/2018 09:02:21
00005 suncat0122 pw.x -in pw.inp   Done                     12/19/2018 09:02:21
00006 suncat0122 pw.x -in pw.inp   Done                     12/19/2018 09:02:21
00007 suncat0122 pw.x -in pw.inp   Done                     12/19/2018 09:02:21
00008 suncat0121 pw.x -in pw.inp   Done                     12/19/2018 09:02:21
00009 suncat0121 pw.x -in pw.inp   Done                     12/19/2018 09:02:21
00010 suncat0121 pw.x -in pw.inp   Done                     12/19/2018 09:02:21
00011 suncat0121 pw.x -in pw.inp   Done                     12/19/2018 09:02:21
00012 suncat0121 pw.x -in pw.inp   Done                     12/19/2018 09:02:21
00013 suncat0121 pw.x -in pw.inp   Done                     12/19/2018 09:02:21
00014 suncat0121 pw.x -in pw.inp   Done                     12/19/2018 09:02:21
00015 suncat0121 pw.x -in pw.inp   Done                     12/19/2018 09:02:21
00016 suncat0117 pw.x -in pw.inp   Done                     12/19/2018 09:02:21
00017 suncat0117 pw.x -in pw.inp   Done                     12/19/2018 09:02:21
00018 suncat0117 pw.x -in pw.inp   Done                     12/19/2018 09:02:21
00019 suncat0117 pw.x -in pw.inp   Done                     12/19/2018 09:02:21
00020 suncat0117 pw.x -in pw.inp   Done                     12/19/2018 09:02:21
00021 suncat0117 pw.x -in pw.inp   Done                     12/19/2018 09:02:21
00022 suncat0117 pw.x -in pw.inp   Done                     12/19/2018 09:02:21
00023 suncat0117 pw.x -in pw.inp   Done                     12/19/2018 09:02:21
00024 suncat0116 pw.x -in pw.inp   Done                     12/19/2018 09:02:21
00025 suncat0116 pw.x -in pw.inp   Done                     12/19/2018 09:02:21
00026 suncat0116 pw.x -in pw.inp   Done                     12/19/2018 09:02:21
00027 suncat0116 pw.x -in pw.inp   Done                     12/19/2018 09:02:21
00028 suncat0116 pw.x -in pw.inp   Done                     12/19/2018 09:02:21
00029 suncat0116 pw.x -in pw.inp   Done                     12/19/2018 09:02:21
00030 suncat0116 pw.x -in pw.inp   Done                     12/19/2018 09:02:21
00031 suncat0116 pw.x -in pw.inp   Done                     12/19/2018 09:02:21