     Program PWSCF v.5.1rc2 (svn rev. 11289) starts on 18Dec2018 at 18:48: 8

     Current dimensions of program PWSCF are:
     Max number of different atomic species (ntypx) = 10
     Max number of k-points (npk) =  40000
     Max angular momentum in pseudopotentials (lmaxx) =  3
     Presently stress not available with electric field

     IMPORTANT: XC functional enforced from input :
     Exchange-correlation      = BEEF-VDW ( 1  4 27 13 2)
     Any further DFT definition will be discarded
     Please, verify this is what you really want

     Subspace diagonalization in iterative solution of the eigenvalue problem:
     a serial algorithm will be used

     Found symmetry operation: I + ( -0.5000  0.0000  0.0000)
     This is a supercell, fractional translations are disabled

     bravais-lattice index     =            0
     lattice parameter (alat)  =       1.8897  a.u.
     unit-cell volume          =    4401.8728 (a.u.)^3
     number of atoms/cell      =           12
     number of atomic types    =            2
     number of electrons       =       174.00
     number of Kohn-Sham states=          117
     kinetic-energy cutoff     =      36.7493  Ry
     charge density cutoff     =     367.4932  Ry
     convergence threshold     =      1.0E-06
     mixing beta               =       0.1000
     number of iterations used =           10  plain     mixing
     Exchange-correlation      = BEEF-VDW ( 1  4 27 13 2)
     nstep                     =           50

     celldm(1)=   1.889726  celldm(2)=   0.000000  celldm(3)=   0.000000
     celldm(4)=   0.000000  celldm(5)=   0.000000  celldm(6)=   0.000000

     crystal axes: (cart. coord. in units of alat)
               a(1) = (   5.538026   0.000000   0.000000 )
               a(2) = (  -2.769013   4.802632   0.000000 )
               a(3) = (   0.000000   0.000000  24.524865 )

     reciprocal axes: (cart. coord. in units 2 pi/alat)
               b(1) = (  0.180570  0.104110  0.000000 )
               b(2) = (  0.000000  0.208219  0.000000 )
               b(3) = (  0.000000  0.000000  0.040775 )

     PseudoPot. # 1 for Mo read from file:
     /afs/slac.stanford.edu/u/if/mamunm/psp/gbrv1.5pbe/Mo.UPF
     MD5 check sum: 30c4dcd161f5d35cd49bb5239c51a633
     Pseudo is Ultrasoft + core correction, Zval = 14.0
     Generated by new atomic code, or converted to UPF format
     Using radial grid of  889 points,  6 beta functions with:
                l(1) =   0
                l(2) =   0
                l(3) =   1
                l(4) =   1
                l(5) =   2
                l(6) =   2
     Q(r) pseudized with  6 coefficients,  rinner =    1.000   1.000   1.000
                                                       1.000   1.000

     PseudoPot. # 2 for Ir read from file:
     /afs/slac.stanford.edu/u/if/mamunm/psp/gbrv1.5pbe/Ir.UPF
     MD5 check sum: 8836f839c3459d2b385c504ce6d91f2c
     Pseudo is Ultrasoft + core correction, Zval = 15.0
     Generated by new atomic code, or converted to UPF format
     Using radial grid of  983 points,  7 beta functions with:
                l(1) =   0
                l(2) =   0
                l(3) =   1
                l(4) =   1
                l(5) =   1
                l(6) =   2
                l(7) =   2
     Q(r) pseudized with  8 coefficients,  rinner =    1.400   1.400   1.400
                                                       1.400   1.400

     vdW kernel table read from file vdW_kernel_table
     MD5 check sum: 095c7af220d748ca6e76c0b4c6cfb241

     atomic species   valence    mass     pseudopotential
        Mo1           14.00    95.95000     Mo( 1.00)
        Ir1           15.00   192.21700     Ir( 1.00)

     No symmetry found

   Cartesian axes

     site n.     atom                  positions (alat units)
         1           Mo1 tau(   1) = (   0.0000000   0.0000000  10.0000000  )
         2           Mo1 tau(   2) = (   2.7690130   0.0000000  10.0000000  )
         3           Ir1 tau(   3) = (   1.3845065   2.4013159  10.0000000  )
         4           Ir1 tau(   4) = (  -1.3845065   2.4013159  10.0000000  )
         5           Mo1 tau(   5) = (   2.7690130   1.5965065  12.2624323  )
         6           Mo1 tau(   6) = (   0.0000000   1.5965065  12.2624323  )
         7           Ir1 tau(   7) = (  -1.3845065   3.9978224  12.2624323  )
         8           Ir1 tau(   8) = (   1.3845065   3.9978224  12.2624323  )
         9           Mo1 tau(   9) = (  -0.0000000   3.1930130  14.5248645  )
        10           Mo1 tau(  10) = (   2.7690130   3.1930130  14.5248645  )
        11           Ir1 tau(  11) = (   4.1535194   0.7916972  14.5248645  )
        12           Ir1 tau(  12) = (   1.3845065   0.7916972  14.5248645  )

     number of k points=    20  Fermi-Dirac smearing, width (Ry)=  0.0110
                       cart. coord. in units 2pi/alat
        k(    1) = (   0.0000000   0.0000000   0.0000000), wk =   0.0555556
        k(    2) = (   0.0000000   0.0347032   0.0000000), wk =   0.1111111
        k(    3) = (   0.0000000   0.0694064   0.0000000), wk =   0.1111111
        k(    4) = (   0.0000000  -0.1041096   0.0000000), wk =   0.0555556
        k(    5) = (   0.0300950   0.0173516   0.0000000), wk =   0.1111111
        k(    6) = (   0.0300950   0.0520548   0.0000000), wk =   0.1111111
        k(    7) = (   0.0300950   0.0867580   0.0000000), wk =   0.1111111
        k(    8) = (   0.0300950  -0.0867580   0.0000000), wk =   0.1111111
        k(    9) = (   0.0300950  -0.0520548   0.0000000), wk =   0.1111111
        k(   10) = (   0.0300950  -0.0173516   0.0000000), wk =   0.1111111
        k(   11) = (   0.0601899   0.0347032   0.0000000), wk =   0.1111111
        k(   12) = (   0.0601899   0.0694064   0.0000000), wk =   0.1111111
        k(   13) = (   0.0601899   0.1041096   0.0000000), wk =   0.1111111
        k(   14) = (   0.0601899  -0.0694064   0.0000000), wk =   0.1111111
        k(   15) = (   0.0601899  -0.0347032   0.0000000), wk =   0.1111111
        k(   16) = (   0.0601899   0.0000000   0.0000000), wk =   0.1111111
        k(   17) = (  -0.0902849  -0.0520548   0.0000000), wk =   0.0555556
        k(   18) = (  -0.0902849  -0.0173516   0.0000000), wk =   0.1111111
        k(   19) = (  -0.0902849   0.0173516   0.0000000), wk =   0.1111111
        k(   20) = (  -0.0902849  -0.1561644   0.0000000), wk =   0.0555556

     Largest allocated arrays     est. size (Mb)     dimensions
     Largest temporary arrays     est. size (Mb)     dimensions

     Initial potential from superposition of free atoms
     Check: negative starting charge=   -2.176737

     starting charge  170.99343, renormalised to  174.00000

     negative rho (up, down):  2.215E+00 0.000E+00

     *
     * You are using vdW-DF for exchange-correlation in this calculation.
     * Please cite the following three references that made this development
     * possible:
     *
     *   M. Dion, H. Rydberg, E. Schroder, D. C. Langreth, and
     *   B. I. Lundqvist, Phys. Rev. Lett. 92, 246401 (2004).
     *
     *   T. Thonhauser, V. R. Cooper, S. Li, A. Puzder, P. Hyldgaard, and
     *   D. C. Langreth, Phys. Rev. B 76, 125112 (2007).
     *
     *   G. Roman-Perez and J. M. Soler, Phys. Rev. Lett. 103, 096102 (2009).
     *
     *
     * If you are using vdW-DF2, please also cite:
     *
     *   K. Lee, E. D. Murray, L. Kong, B. I. Lundqvist, and
     *   D. C. Langreth, Phys. Rev. B 82, 081101(R) (2010).
     *
     *
     * If you are calculating the stress with vdW-DF, please also cite:
     *
     *   R. Sabatini, E. Kucukbenli, B. Kolb, T. Thonhauser, and
     *   S. de Gironcoli, J. Phys.: Condens. Matter 24, 424209 (2012).
     *

     Carrying out vdW-DF run using the following parameters:

     Nqs =      20    Nr_points =    1024   r_max =   100.000
     q_mesh =
               0.00001000     0.04494208     0.09755937     0.15916263
               0.23128650     0.31572767     0.41458969     0.53033537
               0.66584808     0.82450364     1.01025438     1.22772762
               1.48234092     1.78043706     2.12944203     2.53805004
               3.01644009     3.57652955     4.23227104     5.00000000

     Gradients computed in reciprocal space

     Adding external electric field

     Computed dipole along edir(3) :
        Dipole               -0.0000 Ry au,         -0.0000 Debye
        Dipole field         -0.0000 Ry au

        Potential amp.        0.0000 Ry
        Total length         45.1866 bohr

     Starting wfc are  150 randomized atomic wfcs

     Self-consistent Calculation

     iteration #  1     ecut=    36.75 Ry     beta=0.10
     Davidson diagonalization with overlap
     ethr =  1.00E-02,  avg # of iterations =  5.0

[...]

     total energy              =   -1938.93778166 Ry
     Harris-Foulkes estimate   =   -1941.98981930 Ry
     estimated scf accuracy    <      17.83479248 Ry

[...]

     End of self-consistent calculation

          k = 0.0000 0.0000 0.0000 ( 16531 PWs)   bands (ev):

   -59.1043 -59.0108 -58.9600 -58.9517 -58.8689 -58.8615 -47.2446 -47.1321
   -47.1263 -47.0988 -47.0904 -46.9129 -46.6928 -46.6916 -46.5876 -46.5797
   -46.5523 -46.5443 -46.5085 -46.4947 -46.4782 -46.4629 -46.3630 -46.3630
   -33.4859 -33.3203 -33.2253 -33.2187 -33.2088 -33.1661 -33.0836 -33.0726
   -33.0122 -32.9828 -32.9643 -32.9278 -32.8820 -32.7430 -32.6887 -32.6666
   -32.4321 -32.4286  -5.5576  -3.8997  -3.8375  -3.5266  -3.4766  -3.3368
    -3.2255  -3.0575  -2.9672  -2.7868  -2.7294  -2.6471  -2.4080  -2.4046
    -2.2860  -1.2863  -1.1551  -0.9126  -0.6877  -0.6119  -0.5023  -0.1858
    -0.1529  -0.0513   0.2280   0.2470   0.4760   0.5229   0.6025   0.6919
     0.8477   1.0291   1.3055   1.4171   1.6700   1.7331   1.8492   2.0660
     2.1572   2.2499   2.5084   2.7600   2.7643   3.0257   3.1451   3.1456
     3.4331   3.6750   3.9423   4.0142   4.1793   4.2937   4.3702   4.4189
     4.5356   4.5604   4.6040   4.6973   4.7993   4.8419   4.8790   5.1946
     5.5293   5.5444   5.6268   5.8606   6.0567   6.5648   6.5789   6.6864
     6.7163   6.9199   6.9777   7.1531   7.3339

[...]

          k =-0.0903-0.0521 0.0000 ( 16556 PWs)   bands (ev):

[...]

     the Fermi energy is     2.4220 ev

!    total energy              =   -1939.82384153 Ry
     Harris-Foulkes estimate   =   -1939.82382983 Ry
     estimated scf accuracy    <       0.00000009 Ry

     The total energy is the sum of the following terms:

     one-electron contribution =  -16790.91497713 Ry
     hartree contribution      =    8406.94337671 Ry
     xc contribution           =    -431.78753998 Ry
     ewald contribution        =    6876.01167350 Ry
     electric field correction =       0.00000000 Ry
     smearing contrib. (-TS)   =      -0.07637463 Ry

     convergence has been achieved in  19 iterations

 BEEF-vdW xc energy contributions
           1 :   -379.319332453788
           2 :    351.271073852805
           3 :   -301.715470224955
           4 :    241.353783295241
           5 :   -181.607874171339
           6 :    131.413156258379
           7 :   -95.2876600573255
           8 :    73.0652251883124
           9 :   -61.1128137347670
[...]

     Program PWSCF v.5.1rc2 (svn rev. 11289) starts on 18Dec2018 at 18:53:16

[...]

   This run was terminated on:  18:58:14  18Dec2018

[...]

   This run was terminated on:  19: 3:20  18Dec2018

[...]

     Program PWSCF v.5.1rc2 (svn rev. 11289) starts on 18Dec2018 at 19: 3:26

[...]

   This run was terminated on:  19: 8:28  18Dec2018

[...]

     Program PWSCF v.5.1rc2 (svn rev. 11289) starts on 18Dec2018 at 19: 8:34

[...]

     Program PWSCF v.5.1rc2 (svn rev. 11289) starts on 18Dec2018 at 19:18:52

     Current dimensions of program PWSCF are:
     Max number of different atomic species (ntypx) = 10
     Max number of k-points (npk) =  40000
     Max angular momentum in pseudopotentials (lmaxx) =  3
     Presently stress not available with electric field

     IMPORTANT: XC functional enforced from input :
     Exchange-correlation      = BEEF-VDW ( 1  4 27 13 2)
     Any further DFT definition will be discarded
     Please, verify this is what you really want

     Subspace diagonalization in iterative solution of the eigenvalue problem:
     a serial algorithm will be used

     Found symmetry operation: I + ( -0.5000  0.0000  0.0000)
     This is a supercell, fractional translations are disabled

     bravais-lattice index     =            0
     lattice parameter (alat)  =       1.8897  a.u.
     unit-cell volume          =    4401.8728 (a.u.)^3
     number of atoms/cell      =           12
     number of atomic types    =            2
     number of electrons       =       174.00
     number of Kohn-Sham states=          117
     kinetic-energy cutoff     =      36.7493  Ry
     charge density cutoff     =     367.4932  Ry
     convergence threshold     =      1.0E-06
     mixing beta               =       0.1000
     number of iterations used =           10  plain     mixing
     Exchange-correlation      = BEEF-VDW ( 1  4 27 13 2)
     nstep                     =           50

     celldm(1)=   1.889726  celldm(2)=   0.000000  celldm(3)=   0.000000
     celldm(4)=   0.000000  celldm(5)=   0.000000  celldm(6)=   0.000000

     crystal axes: (cart. coord. in units of alat)
               a(1) = (   5.538026   0.000000   0.000000 )
               a(2) = (  -2.769013   4.802632   0.000000 )
               a(3) = (   0.000000   0.000000  24.524865 )

     reciprocal axes: (cart. coord. in units 2 pi/alat)
               b(1) = (  0.180570  0.104110  0.000000 )
               b(2) = (  0.000000  0.208219  0.000000 )
               b(3) = (  0.000000  0.000000  0.040775 )

     PseudoPot. # 1 for Mo read from file:
     /afs/slac.stanford.edu/u/if/mamunm/psp/gbrv1.5pbe/Mo.UPF
     MD5 check sum: 30c4dcd161f5d35cd49bb5239c51a633
     Pseudo is Ultrasoft + core correction, Zval = 14.0
     Generated by new atomic code, or converted to UPF format
     Using radial grid of  889 points,  6 beta functions with:
                l(1) =   0
                l(2) =   0
                l(3) =   1
                l(4) =   1
                l(5) =   2
                l(6) =   2
     Q(r) pseudized with  6 coefficients,  rinner =    1.000   1.000   1.000
                                                       1.000   1.000

     PseudoPot. # 2 for Ir read from file:
     /afs/slac.stanford.edu/u/if/mamunm/psp/gbrv1.5pbe/Ir.UPF
     MD5 check sum: 8836f839c3459d2b385c504ce6d91f2c
     Pseudo is Ultrasoft + core correction, Zval = 15.0
     Generated by new atomic code, or converted to UPF format
     Using radial grid of  983 points,  7 beta functions with:
                l(1) =   0
                l(2) =   0
                l(3) =   1
                l(4) =   1
                l(5) =   1
                l(6) =   2
                l(7) =   2
     Q(r) pseudized with  8 coefficients,  rinner =    1.400   1.400   1.400
                                                       1.400   1.400

     vdW kernel table read from file vdW_kernel_table
     MD5 check sum: 095c7af220d748ca6e76c0b4c6cfb241

     atomic species   valence    mass     pseudopotential
        Mo1           14.00    95.95000     Mo( 1.00)
        Ir1           15.00   192.21700     Ir( 1.00)

     No symmetry found

   Cartesian axes

     site n.     atom                  positions (alat units)
         1           Mo1 tau(   1) = (   0.0000000   0.0000000  10.0000000  )
         2           Mo1 tau(   2) = (   2.7690130   0.0000000  10.0000000  )
         3           Ir1 tau(   3) = (   1.3845065   2.4013159  10.0000000  )
         4           Ir1 tau(   4) = (  -1.3845065   2.4013159  10.0000000  )
         5           Mo1 tau(   5) = (   2.7690130   1.5965065  12.2624323  )
         6           Mo1 tau(   6) = (   0.0000000   1.5965065  12.2624323  )
         7           Ir1 tau(   7) = (  -1.3845065   3.9978224  12.2624323  )
         8           Ir1 tau(   8) = (   1.3845065   3.9978224  12.2624323  )
         9           Mo1 tau(   9) = (  -0.0000001   3.2295610  14.4306169  )
        10           Mo1 tau(  10) = (   2.7690129   3.2295648  14.4306177  )
        11           Ir1 tau(  11) = (   4.1535230   0.8734125  14.4398712  )
        12           Ir1 tau(  12) = (   1.3845037   0.8734134  14.4398713  )

     number of k points=    20  Fermi-Dirac smearing, width (Ry)=  0.0110
                       cart. coord. in units 2pi/alat
        k(    1) = (   0.0000000   0.0000000   0.0000000), wk =   0.0555556
        k(    2) = (   0.0000000   0.0347032   0.0000000), wk =   0.1111111
        k(    3) = (   0.0000000   0.0694064   0.0000000), wk =   0.1111111
        k(    4) = (   0.0000000  -0.1041096   0.0000000), wk =   0.0555556
        k(    5) = (   0.0300950   0.0173516   0.0000000), wk =   0.1111111
        k(    6) = (   0.0300950   0.0520548   0.0000000), wk =   0.1111111
        k(    7) = (   0.0300950   0.0867580   0.0000000), wk =   0.1111111
        k(    8) = (   0.0300950  -0.0867580   0.0000000), wk =   0.1111111
        k(    9) = (   0.0300950  -0.0520548   0.0000000), wk =   0.1111111
        k(   10) = (   0.0300950  -0.0173516   0.0000000), wk =   0.1111111
        k(   11) = (   0.0601899   0.0347032   0.0000000), wk =   0.1111111
        k(   12) = (   0.0601899   0.0694064   0.0000000), wk =   0.1111111
        k(   13) = (   0.0601899   0.1041096   0.0000000), wk =   0.1111111
        k(   14) = (   0.0601899  -0.0694064   0.0000000), wk =   0.1111111
        k(   15) = (   0.0601899  -0.0347032   0.0000000), wk =   0.1111111
        k(   16) = (   0.0601899   0.0000000   0.0000000), wk =   0.1111111
        k(   17) = (  -0.0902849  -0.0520548   0.0000000), wk =   0.0555556
        k(   18) = (  -0.0902849  -0.0173516   0.0000000), wk =   0.1111111
        k(   19) = (  -0.0902849   0.0173516   0.0000000), wk =   0.1111111
        k(   20) = (  -0.0902849  -0.1561644   0.0000000), wk =   0.0555556

     Largest allocated arrays     est. size (Mb)     dimensions
     Largest temporary arrays     est. size (Mb)     dimensions

     Initial potential from superposition of free atoms
     Check: negative starting charge=   -2.174633

     starting charge  170.99343, renormalised to  174.00000

[...]

     *
     * You are using vdW-DF for exchange-correlation in this calculation.
     * Please cite the following three references that made this development
     * possible:
     *
     *   M. Dion, H. Rydberg, E. Schroder, D. C. Langreth, and
     *   B. I. Lundqvist, Phys. Rev. Lett. 92, 246401 (2004).
     *
     *   T. Thonhauser, V. R. Cooper, S. Li, A. Puzder, P. Hyldgaard, and
     *   D. C. Langreth, Phys. Rev. B 76, 125112 (2007).
     *
     *   G. Roman-Perez and J. M. Soler, Phys. Rev. Lett. 103, 096102 (2009).
     *
     *
     * If you are using vdW-DF2, please also cite:
     *
     *   K. Lee, E. D. Murray, L. Kong, B. I. Lundqvist, and
     *   D. C. Langreth, Phys. Rev. B 82, 081101(R) (2010).
     *
     *
     * If you are calculating the stress with vdW-DF, please also cite:
     *
     *   R. Sabatini, E. Kucukbenli, B. Kolb, T. Thonhauser, and
     *   S. de Gironcoli, J. Phys.: Condens. Matter 24, 424209 (2012).
     *

     Carrying out vdW-DF run using the following parameters:

     Nqs =      20    Nr_points =    1024   r_max =   100.000
     q_mesh =
               0.00001000     0.04494208     0.09755937     0.15916263
               0.23128650     0.31572767     0.41458969     0.53033537
               0.66584808     0.82450364     1.01025438     1.22772762
               1.48234092     1.78043706     2.12944203     2.53805004
               3.01644009     3.57652955     4.23227104     5.00000000

     Gradients computed in reciprocal space

[...]

     Starting wfc are  150 randomized atomic wfcs

     Self-consistent Calculation

[...]

     total energy              =   -1939.83625070 Ry
     Harris-Foulkes estimate   =   -1939.83624684 Ry
     estimated scf accuracy    <       0.00000251 Ry

     iteration # 18     ecut=    36.75 Ry     beta=0.10
     Davidson diagonalization with overlap
     ethr =  1.16E-09,  avg # of iterations =  2.0

[...]

     negative rho (up, down):  1.927E+00 0.000E+00

     Adding external electric field

     Computed dipole along edir(3) :
        Dipole                0.0162 Ry au,          0.0412 Debye
        Dipole field          0.0000 Ry au

        Potential amp.       -0.0042 Ry
        Total length         45.1866 bohr

     End of self-consistent calculation

[...]

          k = 0.0602 0.0000 0.0000 ( 16520 PWs)   bands (ev):

[...]

          k =-0.0903-0.1562 0.0000 ( 16556 PWs)   bands (ev):

   -59.0456 -59.0456 -58.9048 -58.9047 -58.8634 -58.8634 -47.1716 -47.1716
   -47.1463 -47.1463 -47.1350 -47.1350 -46.5986 -46.5986 -46.5775 -46.5775
   -46.5441 -46.5441 -46.5305 -46.5305 -46.4990 -46.4990 -46.4530 -46.4530
   -33.3016 -33.3016 -33.1276 -33.1275 -33.0971 -33.0971 -33.0099 -33.0098
   -32.9501 -32.9500 -32.9143 -32.9142 -32.8240 -32.8239 -32.8065 -32.8065
   -32.6653 -32.6652  -3.8953  -3.8953  -2.7718  -2.7718  -2.5181  -2.5181
    -2.3204  -2.3204  -2.1652  -2.1652  -1.9416  -1.9416  -1.5933  -1.5933
    -1.5129  -1.5128  -1.1696  -1.1696  -0.8455  -0.8455  -0.6442  -0.6442
    -0.1878  -0.1878  -0.1569  -0.1569   0.0024   0.0024   0.1078   0.1078
     0.2562   0.2562   0.6410   0.6410   1.0346   1.0346   1.2416   1.2416
     1.3728   1.3729   1.6293   1.6293   2.0613   2.0613   2.3902   2.3902
     2.7090   2.7090   2.8841   2.8841   2.9986   2.9986   3.1249   3.1249
     3.4957   3.4957   3.7672   3.7673   4.0436   4.0436   4.7816   4.7816
     5.1660   5.1660   5.6378   5.6378   7.0770   7.0770   7.4192   7.4192
     7.6037   7.6037   8.3169   8.3170   8.8395

     the Fermi energy is     2.4357 ev

!    total energy              =   -1939.83626458 Ry
     Harris-Foulkes estimate   =   -1939.83625111 Ry
     estimated scf accuracy    <       0.00000013 Ry

     The total energy is the sum of the following terms:

     one-electron contribution =  -17008.04066370 Ry
     hartree contribution      =    8515.47391990 Ry
     xc contribution           =    -432.00769969 Ry
     ewald contribution        =    6984.81135822 Ry
     electric field correction =       0.00000075 Ry
     smearing contrib. (-TS)   =      -0.07318007 Ry

     convergence has been achieved in  18 iterations

 BEEF-vdW xc energy contributions
           1 :   -379.543828331007
           2 :    351.577494559226
           3 :   -302.134940556987
           4 :    241.842206663032
           5 :   -182.061338226988
           6 :    131.716114489039
           7 :   -95.3705681199467
           8 :    72.9427558774738
           9 :   -60.8823692429971
          10 :    54.1623614628461
          11 :   -48.2949422543533
          12 :    40.6859247260921
          13 :   -31.0074248810430
          14 :    20.6545303366920
          15 :   -11.6796404009217
          16 :    5.70159230770537
          17 :   -3.21919304920124
          18 :    3.51841263454151
          19 :   -5.10541654478942
          20 :    6.39189914390857
          21 :   -6.31328807650891
          22 :    4.63858052820251
          23 :   -1.90422726134773
          24 :  -0.943656912788128
          25 :    3.01063546755302
          26 :   -3.82401320698420
          27 :    3.47459276739357
          28 :   -2.50756585759393
          29 :    1.64049710905681
          30 :   -1.45058457673969
          31 :   -35.3890616968125
          32 :   -26.7695129724480

     Forces acting on atoms (Ry/au):

     negative rho (up, down):  1.927E+00 0.000E+00
     atom    1 type  1   force =    -0.00000006    0.00736668    0.01733760
     atom    2 type  1   force =     0.00000001    0.00736760    0.01733811
     atom    3 type  2   force =     0.00000033   -0.01705240    0.02059467
     atom    4 type  2   force =    -0.00000044   -0.01705240    0.02059446
     atom    5 type  1   force =     0.00000006    0.00835851   -0.02042053
     atom    6 type  1   force =     0.00000003    0.00835886   -0.02041903
     atom    7 type  2   force =    -0.00000149    0.00114606   -0.01722548
     atom    8 type  2   force =     0.00000154    0.00114604   -0.01722537
     atom    9 type  1   force =     0.00000002    0.00012103   -0.00009153
     atom   10 type  1   force =     0.00000006    0.00011947   -0.00009155
     atom   11 type  2   force =    -0.00000226    0.00006037   -0.00019568
     atom   12 type  2   force =     0.00000220    0.00006019   -0.00019569

     Total force =     0.060905     Total SCF correction =     0.001724

     entering subroutine stress ...

     negative rho (up, down):  1.927E+00 0.000E+00
          total   stress  (Ry/bohr**3)                   (kbar)     P=  -23.13
  -0.00016023   0.00000000  -0.00000000        -23.57      0.00     -0.00
   0.00000000  -0.00021182   0.00001914          0.00    -31.16      2.82
  -0.00000000   0.00001914  -0.00009963         -0.00      2.82    -14.66

 !ASE

     Writing output data file calc.save

     General routines

     Parallel routines

   This run was terminated on:  19:23:59  18Dec2018

   JOB DONE.
Job  /afs/slac/g/suncat/bin/suncat-tsmpirun -x LD_LIBRARY_PATH -wdir /scratch/qe530259_kCGrP pw.x -in pw.inp

TID   HOST_NAME   COMMAND_LINE            STATUS            TERMINATION_TIME
00000 suncat2058 pw.x -in pw.inp   Done                     12/18/2018 19:23:59
00001 suncat2058 pw.x -in pw.inp   Done                     12/18/2018 19:23:59
00002 suncat2058 pw.x -in pw.inp   Done                     12/18/2018 19:23:59
00003 suncat2058 pw.x -in pw.inp   Done                     12/18/2018 19:23:59
00004 suncat2058 pw.x -in pw.inp   Done                     12/18/2018 19:23:59
00005 suncat2058 pw.x -in pw.inp   Done                     12/18/2018 19:23:59
00006 suncat2058 pw.x -in pw.inp   Done                     12/18/2018 19:23:59
00007 suncat2058 pw.x -in pw.inp   Done                     12/18/2018 19:23:59
00008 suncat2058 pw.x -in pw.inp   Done                     12/18/2018 19:23:59
00009 suncat2058 pw.x -in pw.inp   Done                     12/18/2018 19:23:59
00010 suncat2058 pw.x -in pw.inp   Done                     12/18/2018 19:23:59
00011 suncat2058 pw.x -in pw.inp   Done                     12/18/2018 19:23:59
00012 suncat2058 pw.x -in pw.inp   Done                     12/18/2018 19:23:59
00013 suncat2058 pw.x -in pw.inp   Done                     12/18/2018 19:23:59
00014 suncat2058 pw.x -in pw.inp   Done                     12/18/2018 19:23:59
00015 suncat2058 pw.x -in pw.inp   Done                     12/18/2018 19:23:59
00016 suncat2057 pw.x -in pw.inp   Done                     12/18/2018 19:23:59
00017 suncat2057 pw.x -in pw.inp   Done                     12/18/2018 19:23:59
00018 suncat2057 pw.x -in pw.inp   Done                     12/18/2018 19:23:59
00019 suncat2057 pw.x -in pw.inp   Done                     12/18/2018 19:23:59
00020 suncat2057 pw.x -in pw.inp   Done                     12/18/2018 19:23:59
00021 suncat2057 pw.x -in pw.inp   Done                     12/18/2018 19:23:59
00022 suncat2057 pw.x -in pw.inp   Done                     12/18/2018 19:23:59
00023 suncat2057 pw.x -in pw.inp   Done                     12/18/2018 19:23:59
00024 suncat2057 pw.x -in pw.inp   Done                     12/18/2018 19:23:59
00025 suncat2057 pw.x -in pw.inp   Done                     12/18/2018 19:23:59
00026 suncat2057 pw.x -in pw.inp   Done                     12/18/2018 19:23:59
00027 suncat2057 pw.x -in pw.inp   Done                     12/18/2018 19:23:59
00028 suncat2057 pw.x -in pw.inp   Done                     12/18/2018 19:23:59
00029 suncat2057 pw.x -in pw.inp   Done                     12/18/2018 19:23:59
00030 suncat2057 pw.x -in pw.inp   Done                     12/18/2018 19:23:59
00031 suncat2057 pw.x -in pw.inp   Done                     12/18/2018 19:23:59