     Program PWSCF v.5.1rc2 (svn rev. 11289) starts on 19Dec2018 at  4:29:13

     Current dimensions of program PWSCF are:
     Max number of different atomic species (ntypx) = 10
     Max number of k-points (npk) =  40000
     Max angular momentum in pseudopotentials (lmaxx) =  3
     Presently stress not available with electric field

     IMPORTANT: XC functional enforced from input :
     Exchange-correlation      = BEEF-VDW ( 1  4 27 13 2)
     Any further DFT definition will be discarded
     Please, verify this is what you really want

     Subspace diagonalization in iterative solution of the eigenvalue problem:
     a serial algorithm will be used

     Found symmetry operation: I + ( -0.5000 -0.5000  0.0000)
     This is a supercell, fractional translations are disabled

     bravais-lattice index     =            0
     lattice parameter (alat)  =       1.8897  a.u.
     unit-cell volume          =    5654.2781 (a.u.)^3
     number of atoms/cell      =           12
     number of atomic types    =            2
     number of electrons       =       132.00
     number of Kohn-Sham states=           96
     kinetic-energy cutoff     =      36.7493  Ry
     charge density cutoff     =     367.4932  Ry
     convergence threshold     =      1.0E-06
     mixing beta               =       0.1000
     number of iterations used =           10  plain     mixing
     Exchange-correlation      = BEEF-VDW ( 1  4 27 13 2)
     nstep                     =           50

     celldm(1)=   1.889726  celldm(2)=   0.000000  celldm(3)=   0.000000
     celldm(4)=   0.000000  celldm(5)=   0.000000  celldm(6)=   0.000000

     crystal axes: (cart. coord. in units of alat)
               a(1) = (   5.962390   0.000000   0.000000 )
               a(2) = (   1.875638   5.659689   0.000000 )
               a(3) = (   0.000000   0.000000  24.829481 )

     reciprocal axes: (cart. coord. in units 2 pi/alat)
               b(1) = (  0.167718 -0.055582  0.000000 )
               b(2) = (  0.000000  0.176688  0.000000 )
               b(3) = (  0.000000  0.000000  0.040275 )

     PseudoPot. # 1 for Sc read from file:
     /afs/slac.stanford.edu/u/if/mamunm/psp/gbrv1.5pbe/Sc.UPF
     MD5 check sum: db30a2753ba66ef00f23801d899b7e7f
     Pseudo is Ultrasoft + core correction, Zval = 11.0
     Generated by new atomic code, or converted to UPF format
     Using radial grid of  849 points,  6 beta functions with:
                l(1) =   0
                l(2) =   0
                l(3) =   1
                l(4) =   1
                l(5) =   2
                l(6) =   2
     Q(r) pseudized with  6 coefficients,  rinner =    1.200   1.200   1.200
                                                       1.200   1.200

     PseudoPot. # 2 for Au read from file:
     /afs/slac.stanford.edu/u/if/mamunm/psp/gbrv1.5pbe/Au.UPF
     MD5 check sum: 9d7f43293ad2c663164586bc4b293ffc
     Pseudo is Ultrasoft + core correction, Zval = 11.0
     Generated by new atomic code, or converted to UPF format
     Using radial grid of  985 points,  7 beta functions with:
                l(1) =   0
                l(2) =   0
                l(3) =   1
                l(4) =   1
                l(5) =   2
                l(6) =   2
                l(7) =   3
     Q(r) pseudized with  6 coefficients,  rinner =    1.900   1.900   1.900
                                                       1.900   1.900   1.900
                                                       1.900

     vdW kernel table read from file vdW_kernel_table
     MD5 check sum: 095c7af220d748ca6e76c0b4c6cfb241

     atomic species   valence    mass     pseudopotential
        Sc1           11.00    44.95591     Sc( 1.00)
        Au1           11.00   196.96657     Au( 1.00)

     No symmetry found

   Cartesian axes

     site n.     atom                  positions (alat units)
         1           Sc1 tau(   1) = (   0.0000000   0.0000000  10.0000000  )
         2           Sc1 tau(   2) = (   3.9190143   2.8298443  10.0000000  )
         3           Au1 tau(   3) = (   2.9811950   0.0000000  10.0000000  )
         4           Au1 tau(   4) = (   0.9378192   2.8298443  10.0000000  )
         5           Sc1 tau(   5) = (   5.9623901   4.3053264  12.4147405  )
         6           Sc1 tau(   6) = (   2.0433758   1.4754821  12.4147405  )
         7           Au1 tau(   7) = (   2.9811950   4.3053264  12.4147405  )
         8           Au1 tau(   8) = (   5.0245708   1.4754821  12.4147405  )
         9           Sc1 tau(   9) = (   4.0867516   2.9509642  14.8294809  )
        10           Sc1 tau(  10) = (   0.1677373   0.1211199  14.8294809  )
        11           Au1 tau(  11) = (   1.1055565   2.9509642  14.8294809  )
        12           Au1 tau(  12) = (   3.1489323   0.1211199  14.8294809  )

     number of k points=    20  Fermi-Dirac smearing, width (Ry)=  0.0110
                       cart. coord. in units 2pi/alat
        k(    1) = (   0.0000000   0.0000000   0.0000000), wk =   0.0555556
        k(    2) = (   0.0000000   0.0294480   0.0000000), wk =   0.1111111
        k(    3) = (   0.0000000   0.0588961   0.0000000), wk =   0.1111111
        k(    4) = (   0.0000000  -0.0883441   0.0000000), wk =   0.0555556
        k(    5) = (   0.0279530  -0.0092637   0.0000000), wk =   0.1111111
        k(    6) = (   0.0279530   0.0201843   0.0000000), wk =   0.1111111
        k(    7) = (   0.0279530   0.0496323   0.0000000), wk =   0.1111111
        k(    8) = (   0.0279530  -0.0976078   0.0000000), wk =   0.1111111
        k(    9) = (   0.0279530  -0.0681598   0.0000000), wk =   0.1111111
        k(   10) = (   0.0279530  -0.0387117   0.0000000), wk =   0.1111111
        k(   11) = (   0.0559060  -0.0185274   0.0000000), wk =   0.1111111
        k(   12) = (   0.0559060   0.0109206   0.0000000), wk =   0.1111111
        k(   13) = (   0.0559060   0.0403686   0.0000000), wk =   0.1111111
        k(   14) = (   0.0559060  -0.1068715   0.0000000), wk =   0.1111111
        k(   15) = (   0.0559060  -0.0774235   0.0000000), wk =   0.1111111
        k(   16) = (   0.0559060  -0.0479754   0.0000000), wk =   0.1111111
        k(   17) = (  -0.0838590   0.0277911   0.0000000), wk =   0.0555556
        k(   18) = (  -0.0838590   0.0572392   0.0000000), wk =   0.1111111
        k(   19) = (  -0.0838590   0.0866872   0.0000000), wk =   0.1111111
        k(   20) = (  -0.0838590  -0.0605530   0.0000000), wk =   0.0555556

     Largest allocated arrays     est. size (Mb)     dimensions
     Largest temporary arrays     est. size (Mb)     dimensions

     Check: negative/imaginary core charge=   -0.000002    0.000000

     Initial potential from superposition of free atoms
     Check: negative starting charge=   -0.000226

     starting charge  131.98485, renormalised to  132.00000

     negative rho (up, down):  2.257E-04 0.000E+00

     *
     * You are using vdW-DF for exchange-correlation in this calculation.
     * Please cite the following three references that made this development
     * possible:
     *
     *   M. Dion, H. Rydberg, E. Schroder, D. C. Langreth, and
     *   B. I. Lundqvist, Phys. Rev. Lett. 92, 246401 (2004).
     *
     *   T. Thonhauser, V. R. Cooper, S. Li, A. Puzder, P. Hyldgaard, and
     *   D. C. Langreth, Phys. Rev. B 76, 125112 (2007).
     *
     *   G. Roman-Perez and J. M. Soler, Phys. Rev. Lett. 103, 096102 (2009).
     *
     *
     * If you are using vdW-DF2, please also cite:
     *
     *   K. Lee, E. D. Murray, L. Kong, B. I. Lundqvist, and
     *   D. C. Langreth, Phys. Rev. B 82, 081101(R) (2010).
     *
     *
     * If you are calculating the stress with vdW-DF, please also cite:
     *
     *   R. Sabatini, E. Kucukbenli, B. Kolb, T. Thonhauser, and
     *   S. de Gironcoli, J. Phys.: Condens. Matter 24, 424209 (2012).
     *

     Carrying out vdW-DF run using the following parameters:

     Nqs =      20    Nr_points =    1024   r_max =   100.000
     q_mesh =
               0.00001000     0.04494208     0.09755937     0.15916263
               0.23128650     0.31572767     0.41458969     0.53033537
               0.66584808     0.82450364     1.01025438     1.22772762
               1.48234092     1.78043706     2.12944203     2.53805004
               3.01644009     3.57652955     4.23227104     5.00000000

     Gradients computed in reciprocal space

     Adding external electric field

     Computed dipole along edir(3) :
        Dipole                0.0000 Ry au,          0.0000 Debye
        Dipole field          0.0000 Ry au

        Potential amp.       -0.0000 Ry
        Total length         45.7479 bohr

     Starting wfc are  132 randomized atomic wfcs

     Self-consistent Calculation

     iteration #  1     ecut=    36.75 Ry     beta=0.10
     Davidson diagonalization with overlap
     ethr =  1.00E-02,  avg # of iterations =  2.0

[...]

     total energy              =   -1269.61605666 Ry
     Harris-Foulkes estimate   =   -1269.90885677 Ry
     estimated scf accuracy    <       1.74007671 Ry

[...]

     End of self-consistent calculation

          k = 0.0000 0.0000 0.0000 ( 21235 PWs)   bands (ev):

   -49.8794 -49.8790 -49.8712 -49.8711 -49.7047 -49.6969 -28.5222 -28.5179
   -28.5148 -28.5066 -28.4362 -28.4344 -28.4278 -28.4197 -28.4125 -28.4111
   -28.3295 -28.3122 -28.3120 -28.2814 -28.2632 -28.2284 -28.2257 -28.2197
    -6.2187  -4.9490  -4.7048  -4.6553  -4.5995  -4.5987  -4.4965  -4.4586
    -4.4373  -4.4139  -4.2630  -4.1608  -3.9812  -3.9326  -3.9251  -3.7981
    -3.7683  -3.7605  -3.7361  -3.6809  -3.6522  -3.6236  -3.5566  -3.4729
    -3.3545  -3.3421  -3.2536  -3.1963  -3.1837  -2.9212  -2.9032  -2.7200
    -1.9206  -1.7299  -1.6768  -1.2914  -0.1003   0.3821   0.7907   0.9198
     1.0025   1.1162   1.2178   1.2595   1.3681   1.4970   1.5613   1.5850
     1.6426   1.8362   1.8704   2.1227   2.1233   2.1322   2.3309   2.3401
     2.4823   2.4881   2.5726   2.6585   2.7149   2.8297   2.9330   3.0701
     3.0895   3.2137   3.2204   3.2678   3.3874   3.4858   3.9597   3.9870

[...]

          k =-0.0839 0.0278 0.0000 ( 21274 PWs)   bands (ev):

[...]

     the Fermi energy is     0.8783 ev

!    total energy              =   -1269.66991676 Ry
     Harris-Foulkes estimate   =   -1269.66991656 Ry
     estimated scf accuracy    <       0.00000053 Ry

     The total energy is the sum of the following terms:

     one-electron contribution =   -7513.70466175 Ry
     hartree contribution      =    3794.15285390 Ry
     xc contribution           =    -466.80695831 Ry
     ewald contribution        =    2916.76684562 Ry
     electric field correction =       0.00000000 Ry
     smearing contrib. (-TS)   =      -0.07799622 Ry

     convergence has been achieved in  19 iterations

 BEEF-vdW xc energy contributions
           1 :   -413.521439024493
           2 :    380.878729424979
           3 :   -324.372510535233
           4 :    257.346152814207
           5 :   -192.288549201158
           6 :    137.218945591521
           7 :   -95.0913494951296
           8 :    65.2790171116322
           9 :   -45.5097537301947
          10 :    33.1568319807143
          11 :   -25.7625494415056
[...]

[...]

   This run was terminated on:   5: 6:14  19Dec2018

[...]

     Program PWSCF v.5.1rc2 (svn rev. 11289) starts on 19Dec2018 at  5: 6:21

[...]

     Program PWSCF v.5.1rc2 (svn rev. 11289) starts on 19Dec2018 at  5:11: 2

[...]

     Program PWSCF v.5.1rc2 (svn rev. 11289) starts on 19Dec2018 at  5:24:56

     Current dimensions of program PWSCF are:
     Max number of different atomic species (ntypx) = 10
     Max number of k-points (npk) =  40000
     Max angular momentum in pseudopotentials (lmaxx) =  3
     Presently stress not available with electric field

     IMPORTANT: XC functional enforced from input :
     Exchange-correlation      = BEEF-VDW ( 1  4 27 13 2)
     Any further DFT definition will be discarded
     Please, verify this is what you really want

     Subspace diagonalization in iterative solution of the eigenvalue problem:
     a serial algorithm will be used

     Found symmetry operation: I + ( -0.5000 -0.5000  0.0000)
     This is a supercell, fractional translations are disabled

     bravais-lattice index     =            0
     lattice parameter (alat)  =       1.8897  a.u.
     unit-cell volume          =    5654.2781 (a.u.)^3
     number of atoms/cell      =           12
     number of atomic types    =            2
     number of electrons       =       132.00
     number of Kohn-Sham states=           96
     kinetic-energy cutoff     =      36.7493  Ry
     charge density cutoff     =     367.4932  Ry
     convergence threshold     =      1.0E-06
     mixing beta               =       0.1000
     number of iterations used =           10  plain     mixing
     Exchange-correlation      = BEEF-VDW ( 1  4 27 13 2)
     nstep                     =           50

     celldm(1)=   1.889726  celldm(2)=   0.000000  celldm(3)=   0.000000
     celldm(4)=   0.000000  celldm(5)=   0.000000  celldm(6)=   0.000000

     crystal axes: (cart. coord. in units of alat)
               a(1) = (   5.962390   0.000000   0.000000 )
               a(2) = (   1.875638   5.659689   0.000000 )
               a(3) = (   0.000000   0.000000  24.829481 )

     reciprocal axes: (cart. coord. in units 2 pi/alat)
               b(1) = (  0.167718 -0.055582  0.000000 )
               b(2) = (  0.000000  0.176688  0.000000 )
               b(3) = (  0.000000  0.000000  0.040275 )

     PseudoPot. # 1 for Sc read from file:
     /afs/slac.stanford.edu/u/if/mamunm/psp/gbrv1.5pbe/Sc.UPF
     MD5 check sum: db30a2753ba66ef00f23801d899b7e7f
     Pseudo is Ultrasoft + core correction, Zval = 11.0
     Generated by new atomic code, or converted to UPF format
     Using radial grid of  849 points,  6 beta functions with:
                l(1) =   0
                l(2) =   0
                l(3) =   1
                l(4) =   1
                l(5) =   2
                l(6) =   2
     Q(r) pseudized with  6 coefficients,  rinner =    1.200   1.200   1.200
                                                       1.200   1.200

     PseudoPot. # 2 for Au read from file:
     /afs/slac.stanford.edu/u/if/mamunm/psp/gbrv1.5pbe/Au.UPF
     MD5 check sum: 9d7f43293ad2c663164586bc4b293ffc
     Pseudo is Ultrasoft + core correction, Zval = 11.0
     Generated by new atomic code, or converted to UPF format
     Using radial grid of  985 points,  7 beta functions with:
                l(1) =   0
                l(2) =   0
                l(3) =   1
                l(4) =   1
                l(5) =   2
                l(6) =   2
                l(7) =   3
     Q(r) pseudized with  6 coefficients,  rinner =    1.900   1.900   1.900
                                                       1.900   1.900   1.900
                                                       1.900

     vdW kernel table read from file vdW_kernel_table
     MD5 check sum: 095c7af220d748ca6e76c0b4c6cfb241

     atomic species   valence    mass     pseudopotential
        Sc1           11.00    44.95591     Sc( 1.00)
        Au1           11.00   196.96657     Au( 1.00)

     No symmetry found

   Cartesian axes

     site n.     atom                  positions (alat units)
         1           Sc1 tau(   1) = (   0.0000000   0.0000000  10.0000000  )
         2           Sc1 tau(   2) = (   3.9190143   2.8298443  10.0000000  )
         3           Au1 tau(   3) = (   2.9811950   0.0000000  10.0000000  )
         4           Au1 tau(   4) = (   0.9378192   2.8298443  10.0000000  )
         5           Sc1 tau(   5) = (   5.9623901   4.3053264  12.4147405  )
         6           Sc1 tau(   6) = (   2.0433758   1.4754821  12.4147405  )
         7           Au1 tau(   7) = (   2.9811950   4.3053264  12.4147405  )
         8           Au1 tau(   8) = (   5.0245708   1.4754821  12.4147405  )
         9           Sc1 tau(   9) = (   4.0180246   2.9013821  14.7776285  )
        10           Sc1 tau(  10) = (   0.0990566   0.0714974  14.7776218  )
        11           Au1 tau(  11) = (   1.0410555   2.9044243  14.6550375  )
        12           Au1 tau(  12) = (   3.0844654   0.0745931  14.6550761  )

     number of k points=    20  Fermi-Dirac smearing, width (Ry)=  0.0110
                       cart. coord. in units 2pi/alat
        k(    1) = (   0.0000000   0.0000000   0.0000000), wk =   0.0555556
        k(    2) = (   0.0000000   0.0294480   0.0000000), wk =   0.1111111
        k(    3) = (   0.0000000   0.0588961   0.0000000), wk =   0.1111111
        k(    4) = (   0.0000000  -0.0883441   0.0000000), wk =   0.0555556
        k(    5) = (   0.0279530  -0.0092637   0.0000000), wk =   0.1111111
        k(    6) = (   0.0279530   0.0201843   0.0000000), wk =   0.1111111
        k(    7) = (   0.0279530   0.0496323   0.0000000), wk =   0.1111111
        k(    8) = (   0.0279530  -0.0976078   0.0000000), wk =   0.1111111
        k(    9) = (   0.0279530  -0.0681598   0.0000000), wk =   0.1111111
        k(   10) = (   0.0279530  -0.0387117   0.0000000), wk =   0.1111111
        k(   11) = (   0.0559060  -0.0185274   0.0000000), wk =   0.1111111
        k(   12) = (   0.0559060   0.0109206   0.0000000), wk =   0.1111111
        k(   13) = (   0.0559060   0.0403686   0.0000000), wk =   0.1111111
        k(   14) = (   0.0559060  -0.1068715   0.0000000), wk =   0.1111111
        k(   15) = (   0.0559060  -0.0774235   0.0000000), wk =   0.1111111
        k(   16) = (   0.0559060  -0.0479754   0.0000000), wk =   0.1111111
        k(   17) = (  -0.0838590   0.0277911   0.0000000), wk =   0.0555556
        k(   18) = (  -0.0838590   0.0572392   0.0000000), wk =   0.1111111
        k(   19) = (  -0.0838590   0.0866872   0.0000000), wk =   0.1111111
        k(   20) = (  -0.0838590  -0.0605530   0.0000000), wk =   0.0555556

     Largest allocated arrays     est. size (Mb)     dimensions
     Largest temporary arrays     est. size (Mb)     dimensions

     Check: negative/imaginary core charge=   -0.000002    0.000000

     Initial potential from superposition of free atoms
     Check: negative starting charge=   -0.000222

     starting charge  131.98485, renormalised to  132.00000

[...]

     *
     * You are using vdW-DF for exchange-correlation in this calculation.
     * Please cite the following three references that made this development
     * possible:
     *
     *   M. Dion, H. Rydberg, E. Schroder, D. C. Langreth, and
     *   B. I. Lundqvist, Phys. Rev. Lett. 92, 246401 (2004).
     *
     *   T. Thonhauser, V. R. Cooper, S. Li, A. Puzder, P. Hyldgaard, and
     *   D. C. Langreth, Phys. Rev. B 76, 125112 (2007).
     *
     *   G. Roman-Perez and J. M. Soler, Phys. Rev. Lett. 103, 096102 (2009).
     *
     *
     * If you are using vdW-DF2, please also cite:
     *
     *   K. Lee, E. D. Murray, L. Kong, B. I. Lundqvist, and
     *   D. C. Langreth, Phys. Rev. B 82, 081101(R) (2010).
     *
     *
     * If you are calculating the stress with vdW-DF, please also cite:
     *
     *   R. Sabatini, E. Kucukbenli, B. Kolb, T. Thonhauser, and
     *   S. de Gironcoli, J. Phys.: Condens. Matter 24, 424209 (2012).
     *

     Carrying out vdW-DF run using the following parameters:

     Nqs =      20    Nr_points =    1024   r_max =   100.000
     q_mesh =
               0.00001000     0.04494208     0.09755937     0.15916263
               0.23128650     0.31572767     0.41458969     0.53033537
               0.66584808     0.82450364     1.01025438     1.22772762
               1.48234092     1.78043706     2.12944203     2.53805004
               3.01644009     3.57652955     4.23227104     5.00000000

     Gradients computed in reciprocal space

[...]

     Starting wfc are  132 randomized atomic wfcs

     Self-consistent Calculation

[...]

     iteration #  9     ecut=    36.75 Ry     beta=0.10
     Davidson diagonalization with overlap
     c_bands:  1 eigenvalues not converged
     c_bands:  1 eigenvalues not converged
     ethr =  3.62E-06,  avg # of iterations =  6.5

[...]

     total energy              =   -1269.67750735 Ry
     Harris-Foulkes estimate   =   -1269.67750721 Ry
     estimated scf accuracy    <       0.00000184 Ry

     iteration # 17     ecut=    36.75 Ry     beta=0.10
     Davidson diagonalization with overlap
     ethr =  1.40E-09,  avg # of iterations =  2.2

[...]

     negative rho (up, down):  1.281E-04 0.000E+00

     Adding external electric field

     Computed dipole along edir(3) :
        Dipole                0.0444 Ry au,          0.1129 Debye
        Dipole field          0.0001 Ry au

        Potential amp.       -0.0090 Ry
        Total length         45.7479 bohr

     End of self-consistent calculation

[...]

          k = 0.0559-0.0480 0.0000 ( 21278 PWs)   bands (ev):

[...]

          k =-0.0839-0.0606 0.0000 ( 21298 PWs)   bands (ev):

   -49.8128 -49.8109 -49.8052 -49.8033 -49.5760 -49.5676 -28.4637 -28.4503
   -28.4497 -28.4416 -28.3813 -28.3653 -28.3632 -28.3583 -28.3512 -28.3476
   -28.2549 -28.2453 -28.2173 -28.1481 -28.1447 -28.1164 -28.1112 -28.1040
    -5.0266  -4.7546  -4.6577  -4.5512  -4.3500  -4.2984  -4.2977  -4.2468
    -4.2131  -4.1836  -4.0635  -3.9803  -3.9400  -3.9283  -3.7682  -3.7517
    -3.6833  -3.6718  -3.6624  -3.5856  -3.5481  -3.5243  -3.4292  -3.4258
    -3.4189  -3.3935  -3.2608  -3.2281  -3.0811  -2.8486  -2.8263  -2.7154
    -2.0582  -1.9735  -1.7828  -1.6866  -1.5898  -0.3314  -0.2493  -0.1486
    -0.1305   0.0052   0.5365   0.6147   0.9522   1.0370   1.1743   1.1948
     1.2964   1.7077   1.7142   1.7679   1.8790   1.9657   1.9990   2.1063
     2.1916   2.2321   2.4473   2.6826   2.6848   2.7293   2.8504   2.8641
     3.1543   3.2593   3.4093   3.6034   3.8915   4.0616   4.0670   4.4853

     the Fermi energy is     0.9390 ev

!    total energy              =   -1269.67750836 Ry
     Harris-Foulkes estimate   =   -1269.67750747 Ry
     estimated scf accuracy    <       0.00000018 Ry

     The total energy is the sum of the following terms:

     one-electron contribution =   -7634.95594420 Ry
     hartree contribution      =    3854.96715282 Ry
     xc contribution           =    -466.90107454 Ry
     ewald contribution        =    2977.28761441 Ry
     electric field correction =       0.00000439 Ry
     smearing contrib. (-TS)   =      -0.07526124 Ry

     convergence has been achieved in  17 iterations

 BEEF-vdW xc energy contributions
           1 :   -413.626101158796
           2 :    381.053801729349
           3 :   -324.621464654496
           4 :    257.596319202299
           5 :   -192.442457009974
           6 :    137.222138380123
           7 :   -94.9656085103680
           8 :    65.1014773941915
           9 :   -45.3615079041836
          10 :    33.0840033697962
          11 :   -25.7725379597764
          12 :    21.2696076777999
          13 :   -17.9360864026800
          14 :    14.8833248115337
          15 :   -12.0235271032533
          16 :    9.72285714984702
          17 :   -8.21376224338826
          18 :    7.20050384115996
          19 :   -5.98649563277547
          20 :    4.00436956717886
          21 :   -1.30599858813605
          22 :   -1.38377981625729
          23 :    3.08317991821565
          24 :   -3.13909307020106
          25 :    1.58786368847456
          26 :   0.901409745244848
          27 :   -3.40227255084585
          28 :    5.14762682825517
          29 :   -5.77179327008616
          30 :    5.33231669744015
          31 :   -35.3822859330159
          32 :   -25.6492343465846

     Forces acting on atoms (Ry/au):

     negative rho (up, down):  1.281E-04 0.000E+00
     atom    1 type  1   force =     0.00220502    0.00159337    0.00075245
     atom    2 type  1   force =     0.00220617    0.00159213    0.00075130
     atom    3 type  2   force =     0.00116311    0.00083964    0.01656337
     atom    4 type  2   force =     0.00116323    0.00084015    0.01656522
     atom    5 type  1   force =    -0.00251514   -0.00181186   -0.01406193
     atom    6 type  1   force =    -0.00251450   -0.00181666   -0.01406216
     atom    7 type  2   force =    -0.00047825   -0.00034450   -0.00296329
     atom    8 type  2   force =    -0.00047769   -0.00034664   -0.00296073
     atom    9 type  1   force =     0.00020022    0.00014134    0.00049497
     atom   10 type  1   force =     0.00019519    0.00014573    0.00049565
     atom   11 type  2   force =    -0.00057261   -0.00041497   -0.00078530
     atom   12 type  2   force =    -0.00057475   -0.00041772   -0.00078954

     Total force =     0.031696     Total SCF correction =     0.001598

     entering subroutine stress ...

     negative rho (up, down):  1.281E-04 0.000E+00
          total   stress  (Ry/bohr**3)                   (kbar)     P=  -10.45
  -0.00009531  -0.00001150  -0.00000604        -14.02     -1.69     -0.89
  -0.00001150  -0.00008769  -0.00000437         -1.69    -12.90     -0.64
  -0.00000604  -0.00000437  -0.00003017         -0.89     -0.64     -4.44

 !ASE

     Writing output data file calc.save

     General routines

     Parallel routines

   This run was terminated on:   5:29:29  19Dec2018

   JOB DONE.
Job  /afs/slac/g/suncat/bin/suncat-tsmpirun -x LD_LIBRARY_PATH -wdir /scratch/qe530546_eVW4N pw.x -in pw.inp

TID   HOST_NAME   COMMAND_LINE            STATUS            TERMINATION_TIME
00000 suncat2058 pw.x -in pw.inp   Done                     12/19/2018 05:29:29
00001 suncat2058 pw.x -in pw.inp   Done                     12/19/2018 05:29:29
00002 suncat2058 pw.x -in pw.inp   Done                     12/19/2018 05:29:29
00003 suncat2058 pw.x -in pw.inp   Done                     12/19/2018 05:29:29
00004 suncat2058 pw.x -in pw.inp   Done                     12/19/2018 05:29:29
00005 suncat2058 pw.x -in pw.inp   Done                     12/19/2018 05:29:29
00006 suncat2058 pw.x -in pw.inp   Done                     12/19/2018 05:29:29
00007 suncat2058 pw.x -in pw.inp   Done                     12/19/2018 05:29:29
00008 suncat2058 pw.x -in pw.inp   Done                     12/19/2018 05:29:29
00009 suncat2058 pw.x -in pw.inp   Done                     12/19/2018 05:29:29
00010 suncat2058 pw.x -in pw.inp   Done                     12/19/2018 05:29:29
00011 suncat2058 pw.x -in pw.inp   Done                     12/19/2018 05:29:29
00012 suncat2058 pw.x -in pw.inp   Done                     12/19/2018 05:29:29
00013 suncat2058 pw.x -in pw.inp   Done                     12/19/2018 05:29:29
00014 suncat2058 pw.x -in pw.inp   Done                     12/19/2018 05:29:29
00015 suncat2058 pw.x -in pw.inp   Done                     12/19/2018 05:29:29
00016 suncat2057 pw.x -in pw.inp   Done                     12/19/2018 05:29:29
00017 suncat2057 pw.x -in pw.inp   Done                     12/19/2018 05:29:29
00018 suncat2057 pw.x -in pw.inp   Done                     12/19/2018 05:29:29
00019 suncat2057 pw.x -in pw.inp   Done                     12/19/2018 05:29:29
00020 suncat2057 pw.x -in pw.inp   Done                     12/19/2018 05:29:29
00021 suncat2057 pw.x -in pw.inp   Done                     12/19/2018 05:29:29
00022 suncat2057 pw.x -in pw.inp   Done                     12/19/2018 05:29:29
00023 suncat2057 pw.x -in pw.inp   Done                     12/19/2018 05:29:29
00024 suncat2057 pw.x -in pw.inp   Done                     12/19/2018 05:29:29
00025 suncat2057 pw.x -in pw.inp   Done                     12/19/2018 05:29:29
00026 suncat2057 pw.x -in pw.inp   Done                     12/19/2018 05:29:29
00027 suncat2057 pw.x -in pw.inp   Done                     12/19/2018 05:29:29
00028 suncat2057 pw.x -in pw.inp   Done                     12/19/2018 05:29:29
00029 suncat2057 pw.x -in pw.inp   Done                     12/19/2018 05:29:29
00030 suncat2057 pw.x -in pw.inp   Done                     12/19/2018 05:29:29
00031 suncat2057 pw.x -in pw.inp   Done                     12/19/2018 05:29:29