     Program PWSCF v.5.1rc2 (svn rev. 11289) starts on 18Dec2018 at 16:51:58

     Current dimensions of program PWSCF are:
     Max number of different atomic species (ntypx) = 10
     Max number of k-points (npk) =  40000
     Max angular momentum in pseudopotentials (lmaxx) =  3
     Presently stress not available with electric field

     IMPORTANT: XC functional enforced from input :
     Exchange-correlation      = BEEF-VDW ( 1  4 27 13 2)
     Any further DFT definition will be discarded
     Please, verify this is what you really want

     Subspace diagonalization in iterative solution of the eigenvalue problem:
     a serial algorithm will be used

     Found symmetry operation: I + ( -0.5000 -0.5000  0.0000)
     This is a supercell, fractional translations are disabled

     Generating pointlists ...
     new r_m :   0.4125 (alat units)  0.7795 (a.u.) for type    1
     new r_m :   0.4125 (alat units)  0.7795 (a.u.) for type    2

     bravais-lattice index     =            0
     lattice parameter (alat)  =       1.8897  a.u.
     unit-cell volume          =    4367.2239 (a.u.)^3
     number of atoms/cell      =           12
     number of atomic types    =            2
     number of electrons       =       168.00
     number of Kohn-Sham states=          114
     kinetic-energy cutoff     =      36.7493  Ry
     charge density cutoff     =     367.4932  Ry
     convergence threshold     =      1.0E-06
     mixing beta               =       0.1000
     number of iterations used =           10  plain     mixing
     Exchange-correlation      = BEEF-VDW ( 1  4 27 13 2)
     nstep                     =           50

     celldm(1)=   1.889726  celldm(2)=   0.000000  celldm(3)=   0.000000
     celldm(4)=   0.000000  celldm(5)=   0.000000  celldm(6)=   0.000000

     crystal axes: (cart. coord. in units of alat)
               a(1) = (   5.310954   0.000000   0.000000 )
               a(2) = (   1.770951   5.006992   0.000000 )
               a(3) = (   0.000000   0.000000  24.336570 )

     reciprocal axes: (cart. coord. in units 2 pi/alat)
               b(1) = (  0.188290 -0.066597  0.000000 )
               b(2) = (  0.000000  0.199721  0.000000 )
               b(3) = (  0.000000  0.000000  0.041090 )

     PseudoPot. # 1 for Mn read from file:
     /afs/slac.stanford.edu/u/if/mamunm/psp/gbrv1.5pbe/Mn.UPF
     MD5 check sum: 82ef2b46521d7a7d9e736dc3972e4928
     Pseudo is Ultrasoft + core correction, Zval = 15.0
     Generated by new atomic code, or converted to UPF format
     Using radial grid of  859 points,  6 beta functions with:
                l(1) =   0
                l(2) =   0
                l(3) =   1
                l(4) =   1
                l(5) =   2
                l(6) =   2
     Q(r) pseudized with  8 coefficients,  rinner =    0.950   0.950   0.950
                                                       0.950   0.950

     PseudoPot. # 2 for Nb read from file:
     /afs/slac.stanford.edu/u/if/mamunm/psp/gbrv1.5pbe/Nb.UPF
     MD5 check sum: 573aab8a2fa660278ed4a62cd769473f
     Pseudo is Ultrasoft + core correction, Zval = 13.0
     Generated by new atomic code, or converted to UPF format
     Using radial grid of  887 points,  6 beta functions with:
                l(1) =   0
                l(2) =   0
                l(3) =   1
                l(4) =   1
                l(5) =   2
                l(6) =   2
     Q(r) pseudized with  6 coefficients,  rinner =    1.000   1.000   1.000
                                                       1.000   1.000

     vdW kernel table read from file vdW_kernel_table
     MD5 check sum: 095c7af220d748ca6e76c0b4c6cfb241

     atomic species   valence    mass     pseudopotential
        Mn1           15.00    54.93804     Mn( 1.00)
        Nb1           13.00    92.90637     Nb( 1.00)

     Starting magnetic structure
     atomic species   magnetization
        Mn1          0.133
        Nb1          0.154

     No symmetry found

   Cartesian axes

     site n.     atom                  positions (alat units)
         1           Mn1 tau(   1) = (   0.0000000   0.0000000  10.0000000  )
         2           Mn1 tau(   2) = (   3.5409525   2.5034961  10.0000000  )
         3           Nb1 tau(   3) = (   2.6554772   0.0000000  10.0000000  )
         4           Nb1 tau(   4) = (   0.8854753   2.5034961  10.0000000  )
         5           Mn1 tau(   5) = (   5.3109545   3.7549088  12.1682848  )
         6           Mn1 tau(   6) = (   1.7700019   1.2514127  12.1682848  )
         7           Nb1 tau(   7) = (   2.6554772   3.7549088  12.1682848  )
         8           Nb1 tau(   8) = (   4.4254792   1.2514127  12.1682848  )
         9           Mn1 tau(   9) = (   3.5400039   2.5028254  14.3365697  )
        10           Mn1 tau(  10) = (   7.0809564   5.0063215  14.3365697  )
        11           Nb1 tau(  11) = (   6.1954811   2.5028254  14.3365697  )
        12           Nb1 tau(  12) = (   4.4254792   5.0063215  14.3365697  )

     number of k points=    40  Fermi-Dirac smearing, width (Ry)=  0.0110
                       cart. coord. in units 2pi/alat
        k(    1) = (   0.0000000   0.0000000   0.0000000), wk =   0.0277778
        k(    2) = (   0.0000000   0.0332868   0.0000000), wk =   0.0555556
        k(    3) = (   0.0000000   0.0665736   0.0000000), wk =   0.0555556
        k(    4) = (   0.0000000  -0.0998604   0.0000000), wk =   0.0277778
        k(    5) = (   0.0313817  -0.0110996   0.0000000), wk =   0.0555556
        k(    6) = (   0.0313817   0.0221872   0.0000000), wk =   0.0555556
        k(    7) = (   0.0313817   0.0554740   0.0000000), wk =   0.0555556
        k(    8) = (   0.0313817  -0.1109599   0.0000000), wk =   0.0555556
        k(    9) = (   0.0313817  -0.0776731   0.0000000), wk =   0.0555556
        k(   10) = (   0.0313817  -0.0443863   0.0000000), wk =   0.0555556
        k(   11) = (   0.0627634  -0.0221991   0.0000000), wk =   0.0555556
        k(   12) = (   0.0627634   0.0110877   0.0000000), wk =   0.0555556
        k(   13) = (   0.0627634   0.0443744   0.0000000), wk =   0.0555556
        k(   14) = (   0.0627634  -0.1220595   0.0000000), wk =   0.0555556
        k(   15) = (   0.0627634  -0.0887727   0.0000000), wk =   0.0555556
        k(   16) = (   0.0627634  -0.0554859   0.0000000), wk =   0.0555556
        k(   17) = (  -0.0941450   0.0332987   0.0000000), wk =   0.0277778
        k(   18) = (  -0.0941450   0.0665855   0.0000000), wk =   0.0555556
        k(   19) = (  -0.0941450   0.0998722   0.0000000), wk =   0.0555556
        k(   20) = (  -0.0941450  -0.0665617   0.0000000), wk =   0.0277778
        k(   21) = (   0.0000000   0.0000000   0.0000000), wk =   0.0277778
        k(   22) = (   0.0000000   0.0332868   0.0000000), wk =   0.0555556
        k(   23) = (   0.0000000   0.0665736   0.0000000), wk =   0.0555556
        k(   24) = (   0.0000000  -0.0998604   0.0000000), wk =   0.0277778
        k(   25) = (   0.0313817  -0.0110996   0.0000000), wk =   0.0555556
        k(   26) = (   0.0313817   0.0221872   0.0000000), wk =   0.0555556
        k(   27) = (   0.0313817   0.0554740   0.0000000), wk =   0.0555556
        k(   28) = (   0.0313817  -0.1109599   0.0000000), wk =   0.0555556
        k(   29) = (   0.0313817  -0.0776731   0.0000000), wk =   0.0555556
        k(   30) = (   0.0313817  -0.0443863   0.0000000), wk =   0.0555556
        k(   31) = (   0.0627634  -0.0221991   0.0000000), wk =   0.0555556
        k(   32) = (   0.0627634   0.0110877   0.0000000), wk =   0.0555556
        k(   33) = (   0.0627634   0.0443744   0.0000000), wk =   0.0555556
        k(   34) = (   0.0627634  -0.1220595   0.0000000), wk =   0.0555556
        k(   35) = (   0.0627634  -0.0887727   0.0000000), wk =   0.0555556
        k(   36) = (   0.0627634  -0.0554859   0.0000000), wk =   0.0555556
        k(   37) = (  -0.0941450   0.0332987   0.0000000), wk =   0.0277778
        k(   38) = (  -0.0941450   0.0665855   0.0000000), wk =   0.0555556
        k(   39) = (  -0.0941450   0.0998722   0.0000000), wk =   0.0555556
        k(   40) = (  -0.0941450  -0.0665617   0.0000000), wk =   0.0277778

     Largest allocated arrays     est. size (Mb)     dimensions
     Largest temporary arrays     est. size (Mb)     dimensions

     Check: negative/imaginary core charge=   -0.000005    0.000000

     Initial potential from superposition of free atoms
     Check: negative starting charge=(component1):   -0.002308
     Check: negative starting charge=(component2):   -0.001708

     starting charge  164.98309, renormalised to  168.00000

     negative rho (up, down):  2.350E-03 1.739E-03

     *
     * You are using vdW-DF for exchange-correlation in this calculation.
     * Please cite the following three references that made this development
     * possible:
     *
     *   M. Dion, H. Rydberg, E. Schroder, D. C. Langreth, and
     *   B. I. Lundqvist, Phys. Rev. Lett. 92, 246401 (2004).
     *
     *   T. Thonhauser, V. R. Cooper, S. Li, A. Puzder, P. Hyldgaard, and
     *   D. C. Langreth, Phys. Rev. B 76, 125112 (2007).
     *
     *   G. Roman-Perez and J. M. Soler, Phys. Rev. Lett. 103, 096102 (2009).
     *
     *
     * If you are using vdW-DF2, please also cite:
     *
     *   K. Lee, E. D. Murray, L. Kong, B. I. Lundqvist, and
     *   D. C. Langreth, Phys. Rev. B 82, 081101(R) (2010).
     *
     *
     * If you are calculating the stress with vdW-DF, please also cite:
     *
     *   R. Sabatini, E. Kucukbenli, B. Kolb, T. Thonhauser, and
     *   S. de Gironcoli, J. Phys.: Condens. Matter 24, 424209 (2012).
     *

     Carrying out vdW-DF run using the following parameters:

     Nqs =      20    Nr_points =    1024   r_max =   100.000
     q_mesh =
               0.00001000     0.04494208     0.09755937     0.15916263
               0.23128650     0.31572767     0.41458969     0.53033537
               0.66584808     0.82450364     1.01025438     1.22772762
               1.48234092     1.78043706     2.12944203     2.53805004
               3.01644009     3.57652955     4.23227104     5.00000000

     Gradients computed in reciprocal space

     Adding external electric field

     Computed dipole along edir(3) :
        Dipole               -0.0000 Ry au,         -0.0000 Debye
        Dipole field         -0.0000 Ry au

        Potential amp.        0.0000 Ry
        Total length         44.8397 bohr

[...]

     Starting wfc are  156 randomized atomic wfcs

     Self-consistent Calculation

     iteration #  1     ecut=    36.75 Ry     beta=0.10
     Davidson diagonalization with overlap
     ethr =  1.00E-02,  avg # of iterations =  2.0

[...]

     Magnetic moment per site:
     atom:    1    charge:    6.0696    magn:    0.7929    constr:    0.0000
     atom:    2    charge:    6.0696    magn:    0.7929    constr:    0.0000
     atom:    3    charge:    1.4904    magn:    0.2094    constr:    0.0000
     atom:    4    charge:    1.4904    magn:    0.2094    constr:    0.0000
     atom:    5    charge:    6.0981    magn:    0.7821    constr:    0.0000
     atom:    6    charge:    6.0981    magn:    0.7821    constr:    0.0000
[...]
                l(2) =   0
                l(3) =   1
                l(4) =   1
                l(5) =   2
                l(6) =   2
     Q(r) pseudized with  8 coefficients,  rinner =    0.950   0.950   0.950
                                                       0.950   0.950

     PseudoPot. # 2 for Nb read from file:
     /afs/slac.stanford.edu/u/if/mamunm/psp/gbrv1.5pbe/Nb.UPF
     MD5 check sum: 573aab8a2fa660278ed4a62cd769473f
     Pseudo is Ultrasoft + core correction, Zval = 13.0
     Generated by new atomic code, or converted to UPF format
     Using radial grid of  887 points,  6 beta functions with:
                l(1) =   0
                l(2) =   0
                l(3) =   1
                l(4) =   1
                l(5) =   2
                l(6) =   2
     Q(r) pseudized with  6 coefficients,  rinner =    1.000   1.000   1.000
                                                       1.000   1.000

     vdW kernel table read from file vdW_kernel_table
     MD5 check sum: 095c7af220d748ca6e76c0b4c6cfb241

     atomic species   valence    mass     pseudopotential
        Mn1           15.00    54.93804     Mn( 1.00)
        Nb1           13.00    92.90637     Nb( 1.00)

     Starting magnetic structure
     atomic species   magnetization
        Mn1          0.133
        Nb1          0.154

     No symmetry found

   Cartesian axes

     site n.     atom                  positions (alat units)
         1           Mn1 tau(   1) = (   0.0000000   0.0000000  10.0000000  )
         2           Mn1 tau(   2) = (   3.5409525   2.5034961  10.0000000  )
         3           Nb1 tau(   3) = (   2.6554772   0.0000000  10.0000000  )
         4           Nb1 tau(   4) = (   0.8854753   2.5034961  10.0000000  )
         5           Mn1 tau(   5) = (   5.3109545   3.7549088  12.1682848  )
         6           Mn1 tau(   6) = (   1.7700019   1.2514127  12.1682848  )
         7           Nb1 tau(   7) = (   2.6554772   3.7549088  12.1682848  )
         8           Nb1 tau(   8) = (   4.4254792   1.2514127  12.1682848  )
         9           Mn1 tau(   9) = (   3.5402955   2.5030283  14.2144340  )
        10           Mn1 tau(  10) = (   7.0812785   5.0065529  14.2144736  )
        11           Nb1 tau(  11) = (   6.1958400   2.5030745  14.3960603  )
        12           Nb1 tau(  12) = (   4.4258307   5.0065748  14.3960601  )

     number of k points=    40  Fermi-Dirac smearing, width (Ry)=  0.0110
                       cart. coord. in units 2pi/alat
        k(    1) = (   0.0000000   0.0000000   0.0000000), wk =   0.0277778
        k(    2) = (   0.0000000   0.0332868   0.0000000), wk =   0.0555556
        k(    3) = (   0.0000000   0.0665736   0.0000000), wk =   0.0555556
        k(    4) = (   0.0000000  -0.0998604   0.0000000), wk =   0.0277778
        k(    5) = (   0.0313817  -0.0110996   0.0000000), wk =   0.0555556
        k(    6) = (   0.0313817   0.0221872   0.0000000), wk =   0.0555556
        k(    7) = (   0.0313817   0.0554740   0.0000000), wk =   0.0555556
        k(    8) = (   0.0313817  -0.1109599   0.0000000), wk =   0.0555556
        k(    9) = (   0.0313817  -0.0776731   0.0000000), wk =   0.0555556
        k(   10) = (   0.0313817  -0.0443863   0.0000000), wk =   0.0555556
        k(   11) = (   0.0627634  -0.0221991   0.0000000), wk =   0.0555556
        k(   12) = (   0.0627634   0.0110877   0.0000000), wk =   0.0555556
        k(   13) = (   0.0627634   0.0443744   0.0000000), wk =   0.0555556
        k(   14) = (   0.0627634  -0.1220595   0.0000000), wk =   0.0555556
        k(   15) = (   0.0627634  -0.0887727   0.0000000), wk =   0.0555556
        k(   16) = (   0.0627634  -0.0554859   0.0000000), wk =   0.0555556
        k(   17) = (  -0.0941450   0.0332987   0.0000000), wk =   0.0277778
        k(   18) = (  -0.0941450   0.0665855   0.0000000), wk =   0.0555556
        k(   19) = (  -0.0941450   0.0998722   0.0000000), wk =   0.0555556
        k(   20) = (  -0.0941450  -0.0665617   0.0000000), wk =   0.0277778
        k(   21) = (   0.0000000   0.0000000   0.0000000), wk =   0.0277778
        k(   22) = (   0.0000000   0.0332868   0.0000000), wk =   0.0555556
        k(   23) = (   0.0000000   0.0665736   0.0000000), wk =   0.0555556
        k(   24) = (   0.0000000  -0.0998604   0.0000000), wk =   0.0277778
        k(   25) = (   0.0313817  -0.0110996   0.0000000), wk =   0.0555556
        k(   26) = (   0.0313817   0.0221872   0.0000000), wk =   0.0555556
        k(   27) = (   0.0313817   0.0554740   0.0000000), wk =   0.0555556
        k(   28) = (   0.0313817  -0.1109599   0.0000000), wk =   0.0555556
        k(   29) = (   0.0313817  -0.0776731   0.0000000), wk =   0.0555556
        k(   30) = (   0.0313817  -0.0443863   0.0000000), wk =   0.0555556
        k(   31) = (   0.0627634  -0.0221991   0.0000000), wk =   0.0555556
        k(   32) = (   0.0627634   0.0110877   0.0000000), wk =   0.0555556
        k(   33) = (   0.0627634   0.0443744   0.0000000), wk =   0.0555556
        k(   34) = (   0.0627634  -0.1220595   0.0000000), wk =   0.0555556
        k(   35) = (   0.0627634  -0.0887727   0.0000000), wk =   0.0555556
        k(   36) = (   0.0627634  -0.0554859   0.0000000), wk =   0.0555556
        k(   37) = (  -0.0941450   0.0332987   0.0000000), wk =   0.0277778
        k(   38) = (  -0.0941450   0.0665855   0.0000000), wk =   0.0555556
        k(   39) = (  -0.0941450   0.0998722   0.0000000), wk =   0.0555556
        k(   40) = (  -0.0941450  -0.0665617   0.0000000), wk =   0.0277778

     Largest allocated arrays     est. size (Mb)     dimensions
     Largest temporary arrays     est. size (Mb)     dimensions

     Check: negative/imaginary core charge=   -0.000005    0.000000

     Initial potential from superposition of free atoms
     Check: negative starting charge=(component1):   -0.002378
     Check: negative starting charge=(component2):   -0.001761

     starting charge  164.98309, renormalised to  168.00000

[...]

     *
     * You are using vdW-DF for exchange-correlation in this calculation.
     * Please cite the following three references that made this development
     * possible:
     *
     *   M. Dion, H. Rydberg, E. Schroder, D. C. Langreth, and
     *   B. I. Lundqvist, Phys. Rev. Lett. 92, 246401 (2004).
     *
     *   T. Thonhauser, V. R. Cooper, S. Li, A. Puzder, P. Hyldgaard, and
     *   D. C. Langreth, Phys. Rev. B 76, 125112 (2007).
     *
     *   G. Roman-Perez and J. M. Soler, Phys. Rev. Lett. 103, 096102 (2009).
     *
     *
     * If you are using vdW-DF2, please also cite:
     *
     *   K. Lee, E. D. Murray, L. Kong, B. I. Lundqvist, and
     *   D. C. Langreth, Phys. Rev. B 82, 081101(R) (2010).
     *
     *
     * If you are calculating the stress with vdW-DF, please also cite:
     *
     *   R. Sabatini, E. Kucukbenli, B. Kolb, T. Thonhauser, and
     *   S. de Gironcoli, J. Phys.: Condens. Matter 24, 424209 (2012).
     *

     Carrying out vdW-DF run using the following parameters:

     Nqs =      20    Nr_points =    1024   r_max =   100.000
     q_mesh =
               0.00001000     0.04494208     0.09755937     0.15916263
               0.23128650     0.31572767     0.41458969     0.53033537
               0.66584808     0.82450364     1.01025438     1.22772762
               1.48234092     1.78043706     2.12944203     2.53805004
               3.01644009     3.57652955     4.23227104     5.00000000

     Gradients computed in reciprocal space

[...]

     Starting wfc are  156 randomized atomic wfcs

     Self-consistent Calculation

[...]

     total energy              =   -1983.87424472 Ry
     Harris-Foulkes estimate   =   -1983.87424394 Ry
     estimated scf accuracy    <       0.00000114 Ry

[...]

     iteration # 43     ecut=    36.75 Ry     beta=0.10
     Davidson diagonalization with overlap
     ethr =  6.81E-10,  avg # of iterations =  2.5

[...]

     negative rho (up, down):  2.294E-03 2.114E-03

[...]

     Adding external electric field

     Computed dipole along edir(3) :
        Dipole                0.0279 Ry au,          0.0709 Debye
        Dipole field          0.0001 Ry au

        Potential amp.       -0.0072 Ry
        Total length         44.8397 bohr

     Magnetic moment per site:
     atom:    1    charge:    5.9883    magn:    0.9305    constr:    0.0000
     atom:    2    charge:    5.9883    magn:    0.9305    constr:    0.0000
     atom:    3    charge:    1.4825    magn:   -0.0346    constr:    0.0000
     atom:    4    charge:    1.4825    magn:   -0.0346    constr:    0.0000
     atom:    5    charge:    5.9809    magn:    0.3345    constr:    0.0000
     atom:    6    charge:    5.9809    magn:    0.3345    constr:    0.0000
     atom:    7    charge:    1.4943    magn:   -0.0251    constr:    0.0000
     atom:    8    charge:    1.4943    magn:   -0.0251    constr:    0.0000
     atom:    9    charge:    5.9889    magn:    0.7569    constr:    0.0000
     atom:   10    charge:    5.9889    magn:    0.7569    constr:    0.0000
     atom:   11    charge:    1.4813    magn:   -0.0301    constr:    0.0000
     atom:   12    charge:    1.4813    magn:   -0.0301    constr:    0.0000

     End of self-consistent calculation

 ------ SPIN UP ------------

[...]

 ------ SPIN DOWN ----------

[...]

          k = 0.0628-0.0555 0.0000 ( 16427 PWs)   bands (ev):

[...]

          k =-0.0941-0.0666 0.0000 ( 16388 PWs)   bands (ev):

   -77.0818 -77.0784 -76.2396 -76.2361 -76.0102 -76.0067 -53.6665 -53.6224
   -53.6222 -53.5784 -53.4389 -53.3848 -45.9032 -45.8591 -45.8109 -45.8084
   -45.7717 -45.7704 -45.0560 -45.0499 -45.0497 -45.0098 -44.9428 -44.9411
   -44.8638 -44.8632 -44.8219 -44.7753 -44.6956 -44.6923 -29.8880 -29.8821
   -29.8577 -29.8216 -29.8069 -29.7782 -29.7551 -29.7292 -29.7221 -29.7083
   -29.6466 -29.4291 -29.4062 -29.4061 -29.3911 -29.3833 -29.3722 -29.2731
    -2.7983  -2.5696  -1.7797  -1.5744  -1.5530  -1.4718  -1.1889  -1.1815
    -0.9799  -0.9785  -0.6650  -0.3645  -0.3273  -0.2859  -0.1286   0.0808
     0.2049   0.2282   0.2296   0.3132   0.6371   0.6417   0.7814   0.8189
     1.0057   1.0197   1.2066   1.3215   1.4241   1.4356   1.4692   1.5527
     1.6214   1.6869   1.6974   1.7275   1.8115   1.9094   2.1162   2.1707
     2.2302   2.4142   2.4841   2.5737   2.6039   2.7878   2.8755   2.9165
     2.9401   3.0266   3.0651   3.1830   3.2049   3.3812   3.5820   3.6406
     3.7546   3.9475   4.0751   4.1405   4.5357   4.6112   4.7219   4.8996
     5.4176   5.4480

     the Fermi energy is     1.7540 ev

!    total energy              =   -1983.87424697 Ry
     Harris-Foulkes estimate   =   -1983.87424493 Ry
     estimated scf accuracy    <       0.00000079 Ry

     The total energy is the sum of the following terms:

     one-electron contribution =  -16519.25503218 Ry
     hartree contribution      =    8254.52396248 Ry
     xc contribution           =    -279.58587838 Ry
     ewald contribution        =    6560.51831002 Ry
     electric field correction =       0.00000224 Ry
     smearing contrib. (-TS)   =      -0.07561114 Ry

     total magnetization       =     6.21 Bohr mag/cell
     absolute magnetization    =    14.33 Bohr mag/cell

     convergence has been achieved in  43 iterations

 BEEF-vdW xc energy contributions
           1 :   -242.257056432568
           2 :    219.719049035878
           3 :   -181.616783568571
           4 :    138.632004669853
           5 :   -100.683974242458
           6 :    73.4595087051663
           7 :   -57.3962333921443
           8 :    49.0337423268529
           9 :   -43.6211387236116
          10 :    37.5183704998148
          11 :   -29.4177747664986
          12 :    20.1327747518946
          13 :   -11.4487435628832
          14 :    4.82584121222027
          15 :  -0.659839440881910
          16 :   -1.67955241646439
          17 :    3.25340610961388
          18 :   -4.88829085810880
          19 :    6.81151070350785
          20 :   -8.71600464868618
          21 :    10.0956702001757
          22 :   -10.6090751266876
          23 :    10.2572349576856
          24 :   -9.33462752548985
          25 :    8.22796350187542
          26 :   -7.21987263661924
          27 :    6.39581295471231
          28 :   -5.68561937300115
          29 :    4.97132079802327
          30 :   -4.19057022543547
          31 :   -24.5212856493323
          32 :   -17.9884659822994

     Forces acting on atoms (Ry/au):

     negative rho (up, down):  2.294E-03 2.114E-03
     atom    1 type  1   force =    -0.00000692   -0.00000394    0.01766851
     atom    2 type  1   force =    -0.00000979   -0.00000775    0.01766272
     atom    3 type  2   force =    -0.00006830   -0.00004980   -0.01882375
     atom    4 type  2   force =    -0.00006915   -0.00004740   -0.01882377
     atom    5 type  1   force =     0.00001726    0.00001208    0.00276020
     atom    6 type  1   force =     0.00001303    0.00000916    0.00275861
     atom    7 type  2   force =     0.00004189    0.00002807   -0.00174731
     atom    8 type  2   force =     0.00004049    0.00003015   -0.00174729
     atom    9 type  1   force =     0.00000953    0.00000676    0.00004121
     atom   10 type  1   force =     0.00000834    0.00000592    0.00003040
     atom   11 type  2   force =     0.00000978    0.00001117    0.00011017
     atom   12 type  2   force =     0.00001384    0.00000556    0.00011028

     Total force =     0.036799     Total SCF correction =     0.001705

     entering subroutine stress ...

     negative rho (up, down):  2.294E-03 2.114E-03
          total   stress  (Ry/bohr**3)                   (kbar)     P=  -12.70
  -0.00012765  -0.00000478   0.00000018        -18.78     -0.70      0.03
  -0.00000478  -0.00012427   0.00000013         -0.70    -18.28      0.02
   0.00000018   0.00000013  -0.00000707          0.03      0.02     -1.04

 !ASE

     Writing output data file calc.save

     General routines

     Parallel routines

   This run was terminated on:  18:48:35  18Dec2018

   JOB DONE.
Job  /afs/slac/g/suncat/bin/suncat-tsmpirun -x LD_LIBRARY_PATH -wdir /scratch/qe530213_9yo9v pw.x -in pw.inp

TID   HOST_NAME   COMMAND_LINE            STATUS            TERMINATION_TIME
00000 suncat2050 pw.x -in pw.inp   Done                     12/18/2018 18:48:35
00001 suncat2050 pw.x -in pw.inp   Done                     12/18/2018 18:48:35
00002 suncat2050 pw.x -in pw.inp   Done                     12/18/2018 18:48:35
00003 suncat2050 pw.x -in pw.inp   Done                     12/18/2018 18:48:35
00004 suncat2050 pw.x -in pw.inp   Done                     12/18/2018 18:48:35
00005 suncat2050 pw.x -in pw.inp   Done                     12/18/2018 18:48:35
00006 suncat2050 pw.x -in pw.inp   Done                     12/18/2018 18:48:35
00007 suncat2050 pw.x -in pw.inp   Done                     12/18/2018 18:48:35
00008 suncat2050 pw.x -in pw.inp   Done                     12/18/2018 18:48:35
00009 suncat2050 pw.x -in pw.inp   Done                     12/18/2018 18:48:35
00010 suncat2050 pw.x -in pw.inp   Done                     12/18/2018 18:48:35
00011 suncat2050 pw.x -in pw.inp   Done                     12/18/2018 18:48:35
00012 suncat2050 pw.x -in pw.inp   Done                     12/18/2018 18:48:35
00013 suncat2050 pw.x -in pw.inp   Done                     12/18/2018 18:48:35
00014 suncat2050 pw.x -in pw.inp   Done                     12/18/2018 18:48:35
00015 suncat2050 pw.x -in pw.inp   Done                     12/18/2018 18:48:35
00016 suncat2049 pw.x -in pw.inp   Done                     12/18/2018 18:48:35
00017 suncat2049 pw.x -in pw.inp   Done                     12/18/2018 18:48:35
00018 suncat2049 pw.x -in pw.inp   Done                     12/18/2018 18:48:35
00019 suncat2049 pw.x -in pw.inp   Done                     12/18/2018 18:48:35
00020 suncat2049 pw.x -in pw.inp   Done                     12/18/2018 18:48:35
00021 suncat2049 pw.x -in pw.inp   Done                     12/18/2018 18:48:35
00022 suncat2049 pw.x -in pw.inp   Done                     12/18/2018 18:48:35
00023 suncat2049 pw.x -in pw.inp   Done                     12/18/2018 18:48:35
00024 suncat2049 pw.x -in pw.inp   Done                     12/18/2018 18:48:35
00025 suncat2049 pw.x -in pw.inp   Done                     12/18/2018 18:48:35
00026 suncat2049 pw.x -in pw.inp   Done                     12/18/2018 18:48:35
00027 suncat2049 pw.x -in pw.inp   Done                     12/18/2018 18:48:35
00028 suncat2049 pw.x -in pw.inp   Done                     12/18/2018 18:48:35
00029 suncat2049 pw.x -in pw.inp   Done                     12/18/2018 18:48:35
00030 suncat2049 pw.x -in pw.inp   Done                     12/18/2018 18:48:35
00031 suncat2049 pw.x -in pw.inp   Done                     12/18/2018 18:48:35