     Program PWSCF v.5.1rc2 (svn rev. 11289) starts on 18Dec2018 at 18: 4:54

     Current dimensions of program PWSCF are:
     Max number of different atomic species (ntypx) = 10
     Max number of k-points (npk) =  40000
     Max angular momentum in pseudopotentials (lmaxx) =  3
     Presently stress not available with electric field

     IMPORTANT: XC functional enforced from input :
     Exchange-correlation      = BEEF-VDW ( 1  4 27 13 2)
     Any further DFT definition will be discarded
     Please, verify this is what you really want

     Subspace diagonalization in iterative solution of the eigenvalue problem:
     a serial algorithm will be used

     Found symmetry operation: I + (  0.5000 -0.5000  0.0000)
     This is a supercell, fractional translations are disabled

     bravais-lattice index     =            0
     lattice parameter (alat)  =       1.8897  a.u.
     unit-cell volume          =    5279.2216 (a.u.)^3
     number of atoms/cell      =           12
     number of atomic types    =            2
     number of electrons       =        84.00
     number of Kohn-Sham states=           72
     kinetic-energy cutoff     =      36.7493  Ry
     charge density cutoff     =     367.4932  Ry
     convergence threshold     =      1.0E-06
     mixing beta               =       0.1000
     number of iterations used =           10  plain     mixing
     Exchange-correlation      = BEEF-VDW ( 1  4 27 13 2)
     nstep                     =           50

     celldm(1)=   1.889726  celldm(2)=   0.000000  celldm(3)=   0.000000
     celldm(4)=   0.000000  celldm(5)=   0.000000  celldm(6)=   0.000000

     crystal axes: (cart. coord. in units of alat)
               a(1) = (   5.937519   0.000000   0.000000 )
               a(2) = (   2.694953   5.290687   0.000000 )
               a(3) = (   0.000000   0.000000  24.903260 )

     reciprocal axes: (cart. coord. in units 2 pi/alat)
               b(1) = (  0.168421 -0.085790  0.000000 )
               b(2) = (  0.000000  0.189011  0.000000 )
               b(3) = (  0.000000  0.000000  0.040155 )

     PseudoPot. # 1 for Al read from file:
     /afs/slac.stanford.edu/u/if/mamunm/psp/gbrv1.5pbe/Al.UPF
     MD5 check sum: 0a6289f5291fc8f409219462bc851e1f
     Pseudo is Ultrasoft + core correction, Zval =  3.0
     Generated by new atomic code, or converted to UPF format
     Using radial grid of  893 points,  3 beta functions with:
                l(1) =   0
                l(2) =   1
                l(3) =   2
     Q(r) pseudized with  8 coefficients,  rinner =    0.900   0.900   0.900
                                                       0.900   0.900

     PseudoPot. # 2 for Sc read from file:
     /afs/slac.stanford.edu/u/if/mamunm/psp/gbrv1.5pbe/Sc.UPF
     MD5 check sum: db30a2753ba66ef00f23801d899b7e7f
     Pseudo is Ultrasoft + core correction, Zval = 11.0
     Generated by new atomic code, or converted to UPF format
     Using radial grid of  849 points,  6 beta functions with:
                l(1) =   0
                l(2) =   0
                l(3) =   1
                l(4) =   1
                l(5) =   2
                l(6) =   2
     Q(r) pseudized with  6 coefficients,  rinner =    1.200   1.200   1.200
                                                       1.200   1.200

     vdW kernel table read from file vdW_kernel_table
     MD5 check sum: 095c7af220d748ca6e76c0b4c6cfb241

     atomic species   valence    mass     pseudopotential
        Al1            3.00    26.98154     Al( 1.00)
        Sc1           11.00    44.95591     Sc( 1.00)

     No symmetry found

   Cartesian axes

     site n.     atom                  positions (alat units)
         1           Al1 tau(   1) = (   0.0000000   0.0000000  10.0000000  )
         2           Al1 tau(   2) = (   4.3162363   2.6453433  10.0000000  )
         3           Sc1 tau(   3) = (   2.9687597   0.0000000  10.0000000  )
         4           Sc1 tau(   4) = (   1.3474766   2.6453433  10.0000000  )
         5           Al1 tau(   5) = (   5.9375194   3.6389985  12.4516302  )
         6           Al1 tau(   6) = (   1.6212831   0.9936552  12.4516302  )
         7           Sc1 tau(   7) = (   2.9687597   3.6389985  12.4516302  )
         8           Sc1 tau(   8) = (   4.5900429   0.9936552  12.4516302  )
         9           Al1 tau(   9) = (   3.2425663   1.9873103  14.9032604  )
        10           Al1 tau(  10) = (   7.5588026   4.6326536  14.9032604  )
        11           Sc1 tau(  11) = (   6.2113260   1.9873103  14.9032604  )
        12           Sc1 tau(  12) = (   4.5900429   4.6326536  14.9032604  )

     number of k points=    20  Fermi-Dirac smearing, width (Ry)=  0.0110
                       cart. coord. in units 2pi/alat
        k(    1) = (   0.0000000   0.0000000   0.0000000), wk =   0.0555556
        k(    2) = (   0.0000000   0.0315019   0.0000000), wk =   0.1111111
        k(    3) = (   0.0000000   0.0630038   0.0000000), wk =   0.1111111
        k(    4) = (   0.0000000  -0.0945057   0.0000000), wk =   0.0555556
        k(    5) = (   0.0280701  -0.0142983   0.0000000), wk =   0.1111111
        k(    6) = (   0.0280701   0.0172036   0.0000000), wk =   0.1111111
        k(    7) = (   0.0280701   0.0487055   0.0000000), wk =   0.1111111
        k(    8) = (   0.0280701  -0.1088039   0.0000000), wk =   0.1111111
        k(    9) = (   0.0280701  -0.0773020   0.0000000), wk =   0.1111111
        k(   10) = (   0.0280701  -0.0458001   0.0000000), wk =   0.1111111
        k(   11) = (   0.0561402  -0.0285965   0.0000000), wk =   0.1111111
        k(   12) = (   0.0561402   0.0029054   0.0000000), wk =   0.1111111
        k(   13) = (   0.0561402   0.0344073   0.0000000), wk =   0.1111111
        k(   14) = (   0.0561402  -0.1231022   0.0000000), wk =   0.1111111
        k(   15) = (   0.0561402  -0.0916003   0.0000000), wk =   0.1111111
        k(   16) = (   0.0561402  -0.0600984   0.0000000), wk =   0.1111111
        k(   17) = (  -0.0842103   0.0428948   0.0000000), wk =   0.0555556
        k(   18) = (  -0.0842103   0.0743966   0.0000000), wk =   0.1111111
        k(   19) = (  -0.0842103   0.1058985   0.0000000), wk =   0.1111111
        k(   20) = (  -0.0842103  -0.0516109   0.0000000), wk =   0.0555556

     Largest allocated arrays     est. size (Mb)     dimensions
     Largest temporary arrays     est. size (Mb)     dimensions

     Initial potential from superposition of free atoms
     Check: negative starting charge=   -0.000234

     starting charge   83.97079, renormalised to   84.00000

     negative rho (up, down):  2.342E-04 0.000E+00

     *
     * You are using vdW-DF for exchange-correlation in this calculation.
     * Please cite the following three references that made this development
     * possible:
     *
     *   M. Dion, H. Rydberg, E. Schroder, D. C. Langreth, and
     *   B. I. Lundqvist, Phys. Rev. Lett. 92, 246401 (2004).
     *
     *   T. Thonhauser, V. R. Cooper, S. Li, A. Puzder, P. Hyldgaard, and
     *   D. C. Langreth, Phys. Rev. B 76, 125112 (2007).
     *
     *   G. Roman-Perez and J. M. Soler, Phys. Rev. Lett. 103, 096102 (2009).
     *
     *
     * If you are using vdW-DF2, please also cite:
     *
     *   K. Lee, E. D. Murray, L. Kong, B. I. Lundqvist, and
     *   D. C. Langreth, Phys. Rev. B 82, 081101(R) (2010).
     *
     *
     * If you are calculating the stress with vdW-DF, please also cite:
     *
     *   R. Sabatini, E. Kucukbenli, B. Kolb, T. Thonhauser, and
     *   S. de Gironcoli, J. Phys.: Condens. Matter 24, 424209 (2012).
     *

     Carrying out vdW-DF run using the following parameters:

     Nqs =      20    Nr_points =    1024   r_max =   100.000
     q_mesh =
               0.00001000     0.04494208     0.09755937     0.15916263
               0.23128650     0.31572767     0.41458969     0.53033537
               0.66584808     0.82450364     1.01025438     1.22772762
               1.48234092     1.78043706     2.12944203     2.53805004
               3.01644009     3.57652955     4.23227104     5.00000000

     Gradients computed in reciprocal space

     Adding external electric field

     Computed dipole along edir(3) :
        Dipole                0.0000 Ry au,          0.0000 Debye
        Dipole field          0.0000 Ry au

        Potential amp.       -0.0000 Ry
        Total length         45.8838 bohr

     Starting wfc are  102 randomized atomic wfcs

     Self-consistent Calculation

     iteration #  1     ecut=    36.75 Ry     beta=0.10
     Davidson diagonalization with overlap
     ethr =  1.00E-02,  avg # of iterations =  2.1

[...]

     total energy              =    -610.13653577 Ry
     Harris-Foulkes estimate   =    -610.59570567 Ry
     estimated scf accuracy    <       2.64370338 Ry

[...]

     End of self-consistent calculation

          k = 0.0000 0.0000 0.0000 ( 19887 PWs)   bands (ev):

   -50.1430 -50.1425 -50.1079 -50.1075 -49.7363 -49.7002 -28.8612 -28.8423
   -28.8239 -28.8084 -28.8078 -28.8044 -28.7224 -28.7104 -28.6849 -28.6726
   -28.5043 -28.4847 -28.4842 -28.3591 -28.3256 -28.3220 -28.2830 -28.1703
    -7.8920  -6.5501  -5.2043  -4.5534  -3.7898  -3.4608  -2.6461  -2.3011
    -2.0148  -1.9294  -1.7453  -1.4303  -1.3543  -1.3524  -0.7832  -0.4804
    -0.3113  -0.2325   0.0614   0.1237   0.1578   0.1735   0.2634   0.3985
     0.4392   0.5323   0.9563   0.9719   1.2239   1.5713   1.5839   1.7818
     1.9832   2.0071   2.2485   2.3108   2.3557   2.4440   2.5036   2.6535
     2.7442   2.7486   2.8357   3.0055   3.1565   3.2365   3.6659   4.0840

[...]

          k =-0.0842 0.0429 0.0000 ( 19870 PWs)   bands (ev):

[...]

     the Fermi energy is    -0.2236 ev

!    total energy              =    -610.32617729 Ry
     Harris-Foulkes estimate   =    -610.32617831 Ry
     estimated scf accuracy    <       0.00000060 Ry

     The total energy is the sum of the following terms:

     one-electron contribution =   -3430.23366422 Ry
     hartree contribution      =    1708.53339353 Ry
     xc contribution           =    -109.89107847 Ry
     ewald contribution        =    1221.32747751 Ry
     electric field correction =       0.00000000 Ry
     smearing contrib. (-TS)   =      -0.06230564 Ry

     convergence has been achieved in  15 iterations

 BEEF-vdW xc energy contributions
           1 :   -92.4598239032970
           2 :    80.9403884889665
           3 :   -63.0349847642769
           4 :    45.6759115444196
           5 :   -33.6245268133914
           6 :    27.5859415808556
           7 :   -25.1750912172432
           8 :    23.4203737766209
           9 :   -20.8026871085818
          10 :    17.6446273635475
          11 :   -15.0759957417600
          12 :    13.7211886950993
          13 :   -13.1865150446355
          14 :    12.5708616731635
          15 :   -11.3449488656922
          16 :    9.75177670174139
          17 :   -8.45475558844342
          18 :    7.87091796980560
          19 :   -7.82952580829226
          20 :    7.79984032079173
          21 :   -7.39892662161262
          22 :    6.69476153355396
          23 :   -6.07320758256466
          24 :    5.84863633269255
          25 :   -5.99640796893050
[...]
00026 suncat0046 pw.x -in pw.inp   Done                     12/18/2018 18:16:24
00027 suncat0046 pw.x -in pw.inp   Done                     12/18/2018 18:16:24
00028 suncat0046 pw.x -in pw.inp   Done                     12/18/2018 18:16:24
00029 suncat0046 pw.x -in pw.inp   Done                     12/18/2018 18:16:24
00030 suncat0046 pw.x -in pw.inp   Done                     12/18/2018 18:16:24
00031 suncat0046 pw.x -in pw.inp   Done                     12/18/2018 18:16:24

     Program PWSCF v.5.1rc2 (svn rev. 11289) starts on 18Dec2018 at 18:16:30

[...]

   This run was terminated on:  19: 5:45  18Dec2018

[...]

     Program PWSCF v.5.1rc2 (svn rev. 11289) starts on 18Dec2018 at 19: 5:53

[...]

     Program PWSCF v.5.1rc2 (svn rev. 11289) starts on 18Dec2018 at 19:31: 2

[...]

     Total force =     0.027669     Total SCF correction =     0.001698

[...]

     Program PWSCF v.5.1rc2 (svn rev. 11289) starts on 18Dec2018 at 19:43:41

     Current dimensions of program PWSCF are:
     Max number of different atomic species (ntypx) = 10
     Max number of k-points (npk) =  40000
     Max angular momentum in pseudopotentials (lmaxx) =  3
     Presently stress not available with electric field

     IMPORTANT: XC functional enforced from input :
     Exchange-correlation      = BEEF-VDW ( 1  4 27 13 2)
     Any further DFT definition will be discarded
     Please, verify this is what you really want

     Subspace diagonalization in iterative solution of the eigenvalue problem:
     a serial algorithm will be used

     Found symmetry operation: I + (  0.5000 -0.5000  0.0000)
     This is a supercell, fractional translations are disabled

     bravais-lattice index     =            0
     lattice parameter (alat)  =       1.8897  a.u.
     unit-cell volume          =    5279.2216 (a.u.)^3
     number of atoms/cell      =           12
     number of atomic types    =            2
     number of electrons       =        84.00
     number of Kohn-Sham states=           72
     kinetic-energy cutoff     =      36.7493  Ry
     charge density cutoff     =     367.4932  Ry
     convergence threshold     =      1.0E-06
     mixing beta               =       0.1000
     number of iterations used =           10  plain     mixing
     Exchange-correlation      = BEEF-VDW ( 1  4 27 13 2)
     nstep                     =           50

     celldm(1)=   1.889726  celldm(2)=   0.000000  celldm(3)=   0.000000
     celldm(4)=   0.000000  celldm(5)=   0.000000  celldm(6)=   0.000000

     crystal axes: (cart. coord. in units of alat)
               a(1) = (   5.937519   0.000000   0.000000 )
               a(2) = (   2.694953   5.290687   0.000000 )
               a(3) = (   0.000000   0.000000  24.903260 )

     reciprocal axes: (cart. coord. in units 2 pi/alat)
               b(1) = (  0.168421 -0.085790  0.000000 )
               b(2) = (  0.000000  0.189011  0.000000 )
               b(3) = (  0.000000  0.000000  0.040155 )

     PseudoPot. # 1 for Al read from file:
     /afs/slac.stanford.edu/u/if/mamunm/psp/gbrv1.5pbe/Al.UPF
     MD5 check sum: 0a6289f5291fc8f409219462bc851e1f
     Pseudo is Ultrasoft + core correction, Zval =  3.0
     Generated by new atomic code, or converted to UPF format
     Using radial grid of  893 points,  3 beta functions with:
                l(1) =   0
                l(2) =   1
                l(3) =   2
     Q(r) pseudized with  8 coefficients,  rinner =    0.900   0.900   0.900
                                                       0.900   0.900

     PseudoPot. # 2 for Sc read from file:
     /afs/slac.stanford.edu/u/if/mamunm/psp/gbrv1.5pbe/Sc.UPF
     MD5 check sum: db30a2753ba66ef00f23801d899b7e7f
     Pseudo is Ultrasoft + core correction, Zval = 11.0
     Generated by new atomic code, or converted to UPF format
     Using radial grid of  849 points,  6 beta functions with:
                l(1) =   0
                l(2) =   0
                l(3) =   1
                l(4) =   1
                l(5) =   2
                l(6) =   2
     Q(r) pseudized with  6 coefficients,  rinner =    1.200   1.200   1.200
                                                       1.200   1.200

     vdW kernel table read from file vdW_kernel_table
     MD5 check sum: 095c7af220d748ca6e76c0b4c6cfb241

     atomic species   valence    mass     pseudopotential
        Al1            3.00    26.98154     Al( 1.00)
        Sc1           11.00    44.95591     Sc( 1.00)

     No symmetry found

   Cartesian axes

     site n.     atom                  positions (alat units)
         1           Al1 tau(   1) = (   0.0000000   0.0000000  10.0000000  )
         2           Al1 tau(   2) = (   4.3162363   2.6453433  10.0000000  )
         3           Sc1 tau(   3) = (   2.9687597   0.0000000  10.0000000  )
         4           Sc1 tau(   4) = (   1.3474766   2.6453433  10.0000000  )
         5           Al1 tau(   5) = (   5.9375194   3.6389985  12.4516302  )
         6           Al1 tau(   6) = (   1.6212831   0.9936552  12.4516302  )
         7           Sc1 tau(   7) = (   2.9687597   3.6389985  12.4516302  )
         8           Sc1 tau(   8) = (   4.5900429   0.9936552  12.4516302  )
         9           Al1 tau(   9) = (   3.0920489   1.8950784  14.8802750  )
        10           Al1 tau(  10) = (   7.4082890   4.5403939  14.8802757  )
        11           Sc1 tau(  11) = (   6.1251101   1.9344846  14.9121644  )
        12           Sc1 tau(  12) = (   4.5038543   4.5798126  14.9121589  )

     number of k points=    20  Fermi-Dirac smearing, width (Ry)=  0.0110
                       cart. coord. in units 2pi/alat
        k(    1) = (   0.0000000   0.0000000   0.0000000), wk =   0.0555556
        k(    2) = (   0.0000000   0.0315019   0.0000000), wk =   0.1111111
        k(    3) = (   0.0000000   0.0630038   0.0000000), wk =   0.1111111
        k(    4) = (   0.0000000  -0.0945057   0.0000000), wk =   0.0555556
        k(    5) = (   0.0280701  -0.0142983   0.0000000), wk =   0.1111111
        k(    6) = (   0.0280701   0.0172036   0.0000000), wk =   0.1111111
        k(    7) = (   0.0280701   0.0487055   0.0000000), wk =   0.1111111
        k(    8) = (   0.0280701  -0.1088039   0.0000000), wk =   0.1111111
        k(    9) = (   0.0280701  -0.0773020   0.0000000), wk =   0.1111111
        k(   10) = (   0.0280701  -0.0458001   0.0000000), wk =   0.1111111
        k(   11) = (   0.0561402  -0.0285965   0.0000000), wk =   0.1111111
        k(   12) = (   0.0561402   0.0029054   0.0000000), wk =   0.1111111
        k(   13) = (   0.0561402   0.0344073   0.0000000), wk =   0.1111111
        k(   14) = (   0.0561402  -0.1231022   0.0000000), wk =   0.1111111
        k(   15) = (   0.0561402  -0.0916003   0.0000000), wk =   0.1111111
        k(   16) = (   0.0561402  -0.0600984   0.0000000), wk =   0.1111111
        k(   17) = (  -0.0842103   0.0428948   0.0000000), wk =   0.0555556
        k(   18) = (  -0.0842103   0.0743966   0.0000000), wk =   0.1111111
        k(   19) = (  -0.0842103   0.1058985   0.0000000), wk =   0.1111111
        k(   20) = (  -0.0842103  -0.0516109   0.0000000), wk =   0.0555556

     Largest allocated arrays     est. size (Mb)     dimensions
     Largest temporary arrays     est. size (Mb)     dimensions

     Initial potential from superposition of free atoms
     Check: negative starting charge=   -0.000228

     starting charge   83.97079, renormalised to   84.00000

[...]

     *
     * You are using vdW-DF for exchange-correlation in this calculation.
     * Please cite the following three references that made this development
     * possible:
     *
     *   M. Dion, H. Rydberg, E. Schroder, D. C. Langreth, and
     *   B. I. Lundqvist, Phys. Rev. Lett. 92, 246401 (2004).
     *
     *   T. Thonhauser, V. R. Cooper, S. Li, A. Puzder, P. Hyldgaard, and
     *   D. C. Langreth, Phys. Rev. B 76, 125112 (2007).
     *
     *   G. Roman-Perez and J. M. Soler, Phys. Rev. Lett. 103, 096102 (2009).
     *
     *
     * If you are using vdW-DF2, please also cite:
     *
     *   K. Lee, E. D. Murray, L. Kong, B. I. Lundqvist, and
     *   D. C. Langreth, Phys. Rev. B 82, 081101(R) (2010).
     *
     *
     * If you are calculating the stress with vdW-DF, please also cite:
     *
     *   R. Sabatini, E. Kucukbenli, B. Kolb, T. Thonhauser, and
     *   S. de Gironcoli, J. Phys.: Condens. Matter 24, 424209 (2012).
     *

     Carrying out vdW-DF run using the following parameters:

     Nqs =      20    Nr_points =    1024   r_max =   100.000
     q_mesh =
               0.00001000     0.04494208     0.09755937     0.15916263
               0.23128650     0.31572767     0.41458969     0.53033537
               0.66584808     0.82450364     1.01025438     1.22772762
               1.48234092     1.78043706     2.12944203     2.53805004
               3.01644009     3.57652955     4.23227104     5.00000000

     Gradients computed in reciprocal space

[...]

     Starting wfc are  102 randomized atomic wfcs

     Self-consistent Calculation

[...]

     total energy              =    -610.33010903 Ry
     Harris-Foulkes estimate   =    -610.33010927 Ry
     estimated scf accuracy    <       0.00000178 Ry

     iteration # 16     ecut=    36.75 Ry     beta=0.10
     Davidson diagonalization with overlap
     ethr =  2.11E-09,  avg # of iterations =  2.5

[...]

     negative rho (up, down):  2.999E-04 0.000E+00

     Adding external electric field

     Computed dipole along edir(3) :
        Dipole                0.0222 Ry au,          0.0563 Debye
        Dipole field          0.0001 Ry au

        Potential amp.       -0.0048 Ry
        Total length         45.8838 bohr

     End of self-consistent calculation

[...]

          k = 0.0561-0.0601 0.0000 ( 19859 PWs)   bands (ev):

[...]

          k =-0.0842-0.0516 0.0000 ( 19926 PWs)   bands (ev):

   -50.1449 -50.1224 -50.1100 -50.0875 -49.7115 -49.6754 -28.8649 -28.8254
   -28.8250 -28.8080 -28.7902 -28.7885 -28.7253 -28.6980 -28.6813 -28.6553
   -28.4843 -28.4779 -28.4658 -28.3357 -28.2998 -28.2967 -28.2540 -28.1446
    -6.8204  -6.3476  -5.2431  -4.6425  -4.0953  -3.7269  -3.7163  -2.8821
    -2.5474  -2.4269  -2.0800  -1.9954  -1.7292  -1.2401  -1.1021  -0.9840
    -0.8701  -0.6213  -0.1311   0.1307   0.3775   0.4913   0.8673   1.0140
     1.1454   1.3542   1.3693   1.5628   1.7228   1.8628   1.8840   1.9451
     2.0447   2.1565   2.2773   2.4160   2.5686   2.6991   2.7360   2.7373
     3.0821   3.4339   3.7275   3.8859   3.9043   3.9315   4.0723   4.0926

     the Fermi energy is    -0.2096 ev

!    total energy              =    -610.33010826 Ry
     Harris-Foulkes estimate   =    -610.33010929 Ry
     estimated scf accuracy    <       0.00000096 Ry

     The total energy is the sum of the following terms:

     one-electron contribution =   -3430.01501829 Ry
     hartree contribution      =    1708.46314778 Ry
     xc contribution           =    -109.90185118 Ry
     ewald contribution        =    1221.18437135 Ry
     electric field correction =       0.00000117 Ry
     smearing contrib. (-TS)   =      -0.06075909 Ry

     convergence has been achieved in  16 iterations

 BEEF-vdW xc energy contributions
           1 :   -92.4693655591666
           2 :    80.9502663021731
           3 :   -63.0467752610356
           4 :    45.6915931023943
           5 :   -33.6439959217556
           6 :    27.6064475461945
           7 :   -25.1939985829264
           8 :    23.4384067207092
           9 :   -20.8235079663521
          10 :    17.6709767726055
          11 :   -15.1065686849824
          12 :    13.7513358426763
          13 :   -13.2118629325606
          14 :    12.5904842035910
          15 :   -11.3616281683456
          16 :    9.76924208326770
          17 :   -8.47398239749077
          18 :    7.88861214552500
          19 :   -7.84022250483889
          20 :    7.80020376992026
          21 :   -7.39046326695974
          22 :    6.68237201236622
          23 :   -6.06080935113275
          24 :    5.83576293007502
          25 :   -5.97860357008531
          26 :    6.19421293999608
          27 :   -6.21279204677131
          28 :    6.00955902539155
          29 :   -5.77495135659134
          30 :    5.70599936659431
          31 :   -11.5748614648598
          32 :   -8.34471168205368

     Forces acting on atoms (Ry/au):

     negative rho (up, down):  2.999E-04 0.000E+00
     atom    1 type  1   force =     0.01280429    0.00784778   -0.00253942
     atom    2 type  1   force =     0.01280445    0.00784734   -0.00253947
     atom    3 type  2   force =    -0.00689018   -0.00422339   -0.00303685
     atom    4 type  2   force =    -0.00689039   -0.00422225   -0.00303540
     atom    5 type  1   force =    -0.00200444   -0.00122925    0.00492836
     atom    6 type  1   force =    -0.00200528   -0.00122830    0.00492962
     atom    7 type  2   force =    -0.00361205   -0.00221290    0.00060205
     atom    8 type  2   force =    -0.00361263   -0.00221539    0.00060206
     atom    9 type  1   force =    -0.00054695   -0.00033658   -0.00008490
     atom   10 type  1   force =    -0.00054390   -0.00033316   -0.00008536
     atom   11 type  2   force =     0.00025115    0.00014955    0.00012944
     atom   12 type  2   force =     0.00024592    0.00015655    0.00012986

     Total force =     0.026652     Total SCF correction =     0.003297
     SCF correction compared to forces is large: reduce conv_thr to get better values

     entering subroutine stress ...

     negative rho (up, down):  2.999E-04 0.000E+00
          total   stress  (Ry/bohr**3)                   (kbar)     P=   -4.12
  -0.00004768  -0.00000609  -0.00001108         -7.01     -0.90     -1.63
  -0.00000609  -0.00004148  -0.00000679         -0.90     -6.10     -1.00
  -0.00001108  -0.00000679   0.00000518         -1.63     -1.00      0.76

 !ASE

     Writing output data file calc.save

     General routines

     Parallel routines

   This run was terminated on:  19:55:37  18Dec2018

   JOB DONE.
Job  /afs/slac/g/suncat/bin/suncat-tsmpirun -x LD_LIBRARY_PATH -wdir /scratch/qe529611_2HR3n pw.x -in pw.inp

TID   HOST_NAME   COMMAND_LINE            STATUS            TERMINATION_TIME
00000 suncat0049 pw.x -in pw.inp   Done                     12/18/2018 19:55:37
00001 suncat0049 pw.x -in pw.inp   Done                     12/18/2018 19:55:37
00002 suncat0049 pw.x -in pw.inp   Done                     12/18/2018 19:55:37
00003 suncat0049 pw.x -in pw.inp   Done                     12/18/2018 19:55:37
00004 suncat0049 pw.x -in pw.inp   Done                     12/18/2018 19:55:37
00005 suncat0049 pw.x -in pw.inp   Done                     12/18/2018 19:55:37
00006 suncat0049 pw.x -in pw.inp   Done                     12/18/2018 19:55:37
00007 suncat0049 pw.x -in pw.inp   Done                     12/18/2018 19:55:37
00008 suncat0048 pw.x -in pw.inp   Done                     12/18/2018 19:55:37
00009 suncat0048 pw.x -in pw.inp   Done                     12/18/2018 19:55:37
00010 suncat0048 pw.x -in pw.inp   Done                     12/18/2018 19:55:37
00011 suncat0048 pw.x -in pw.inp   Done                     12/18/2018 19:55:37
00012 suncat0048 pw.x -in pw.inp   Done                     12/18/2018 19:55:37
00013 suncat0048 pw.x -in pw.inp   Done                     12/18/2018 19:55:37
00014 suncat0048 pw.x -in pw.inp   Done                     12/18/2018 19:55:37
00015 suncat0048 pw.x -in pw.inp   Done                     12/18/2018 19:55:37
00016 suncat0047 pw.x -in pw.inp   Done                     12/18/2018 19:55:37
00017 suncat0047 pw.x -in pw.inp   Done                     12/18/2018 19:55:37
00018 suncat0047 pw.x -in pw.inp   Done                     12/18/2018 19:55:37
00019 suncat0047 pw.x -in pw.inp   Done                     12/18/2018 19:55:37
00020 suncat0047 pw.x -in pw.inp   Done                     12/18/2018 19:55:37
00021 suncat0047 pw.x -in pw.inp   Done                     12/18/2018 19:55:37
00022 suncat0047 pw.x -in pw.inp   Done                     12/18/2018 19:55:37
00023 suncat0047 pw.x -in pw.inp   Done                     12/18/2018 19:55:37
00024 suncat0046 pw.x -in pw.inp   Done                     12/18/2018 19:55:37
00025 suncat0046 pw.x -in pw.inp   Done                     12/18/2018 19:55:37
00026 suncat0046 pw.x -in pw.inp   Done                     12/18/2018 19:55:37
00027 suncat0046 pw.x -in pw.inp   Done                     12/18/2018 19:55:37
00028 suncat0046 pw.x -in pw.inp   Done                     12/18/2018 19:55:37
00029 suncat0046 pw.x -in pw.inp   Done                     12/18/2018 19:55:37
00030 suncat0046 pw.x -in pw.inp   Done                     12/18/2018 19:55:37
00031 suncat0046 pw.x -in pw.inp   Done                     12/18/2018 19:55:37