     Program PWSCF v.5.1rc2 (svn rev. 11289) starts on 19Dec2018 at  1:44:21

     Current dimensions of program PWSCF are:
     Max number of different atomic species (ntypx) = 10
     Max number of k-points (npk) =  40000
     Max angular momentum in pseudopotentials (lmaxx) =  3
     Presently stress not available with electric field

     IMPORTANT: XC functional enforced from input :
     Exchange-correlation      = BEEF-VDW ( 1  4 27 13 2)
     Any further DFT definition will be discarded
     Please, verify this is what you really want

     Subspace diagonalization in iterative solution of the eigenvalue problem:
     a serial algorithm will be used

     Found symmetry operation: I + ( -0.5000  0.0000  0.0000)
     This is a supercell, fractional translations are disabled

     bravais-lattice index     =            0
     lattice parameter (alat)  =       1.8897  a.u.
     unit-cell volume          =    4367.6582 (a.u.)^3
     number of atoms/cell      =           12
     number of atomic types    =            2
     number of electrons       =       192.00
     number of Kohn-Sham states=          126
     kinetic-energy cutoff     =      36.7493  Ry
     charge density cutoff     =     367.4932  Ry
     convergence threshold     =      1.0E-06
     mixing beta               =       0.1000
     number of iterations used =           10  plain     mixing
     Exchange-correlation      = BEEF-VDW ( 1  4 27 13 2)
     nstep                     =           50

     celldm(1)=   1.889726  celldm(2)=   0.000000  celldm(3)=   0.000000
     celldm(4)=   0.000000  celldm(5)=   0.000000  celldm(6)=   0.000000

     crystal axes: (cart. coord. in units of alat)
               a(1) = (   5.421209   0.000000   0.000000 )
               a(2) = (  -2.710604   4.871993   0.000000 )
               a(3) = (   0.000000   0.000000  24.504690 )

     reciprocal axes: (cart. coord. in units 2 pi/alat)
               b(1) = (  0.184461  0.102627  0.000000 )
               b(2) = (  0.000000  0.205255  0.000000 )
               b(3) = (  0.000000  0.000000  0.040809 )

     PseudoPot. # 1 for Pd read from file:
     /afs/slac.stanford.edu/u/if/mamunm/psp/gbrv1.5pbe/Pd.UPF
     MD5 check sum: 2d733d2bc2cbfd217af676df1668a4bc
     Pseudo is Ultrasoft + core correction, Zval = 16.0
     Generated by new atomic code, or converted to UPF format
     Using radial grid of  887 points,  6 beta functions with:
                l(1) =   0
                l(2) =   0
                l(3) =   1
                l(4) =   1
                l(5) =   2
                l(6) =   2
     Q(r) pseudized with  8 coefficients,  rinner =    1.130   1.130   1.130
                                                       1.130   1.130

     PseudoPot. # 2 for Os read from file:
     /afs/slac.stanford.edu/u/if/mamunm/psp/gbrv1.5pbe/Os.UPF
     MD5 check sum: a3fb40a04f0c37c25c34bbc47164c9a8
     Pseudo is Ultrasoft + core correction, Zval = 16.0
     Generated by new atomic code, or converted to UPF format
     Using radial grid of  983 points,  8 beta functions with:
                l(1) =   0
                l(2) =   0
                l(3) =   1
                l(4) =   1
                l(5) =   2
                l(6) =   2
                l(7) =   3
                l(8) =   3
     Q(r) pseudized with  8 coefficients,  rinner =    1.150   1.150   1.150
                                                       1.150   1.150   1.150
                                                       1.150

     vdW kernel table read from file vdW_kernel_table
     MD5 check sum: 095c7af220d748ca6e76c0b4c6cfb241

     atomic species   valence    mass     pseudopotential
        Pd1           16.00   106.42000     Pd( 1.00)
        Os1           16.00   190.23000     Os( 1.00)

     No symmetry found

   Cartesian axes

     site n.     atom                  positions (alat units)
         1           Pd1 tau(   1) = (   0.0000000   0.0000000  10.0000000  )
         2           Pd1 tau(   2) = (   2.7106043   0.0000000  10.0000000  )
         3           Os1 tau(   3) = (   1.3553022   2.4359967  10.0000000  )
         4           Os1 tau(   4) = (  -1.3553022   2.4359967  10.0000000  )
         5           Pd1 tau(   5) = (   2.7106043   1.5080841  12.2523451  )
         6           Pd1 tau(   6) = (  -0.0000000   1.5080841  12.2523451  )
         7           Os1 tau(   7) = (  -1.3553022   3.9440808  12.2523451  )
         8           Os1 tau(   8) = (   1.3553022   3.9440808  12.2523451  )
         9           Pd1 tau(   9) = (  -0.0000000   3.0161682  14.5046901  )
        10           Pd1 tau(  10) = (   2.7106043   3.0161682  14.5046901  )
        11           Os1 tau(  11) = (   4.0659065   0.5801714  14.5046901  )
        12           Os1 tau(  12) = (   1.3553022   0.5801714  14.5046901  )

     number of k points=    20  Fermi-Dirac smearing, width (Ry)=  0.0110
                       cart. coord. in units 2pi/alat
        k(    1) = (   0.0000000   0.0000000   0.0000000), wk =   0.0555556
        k(    2) = (   0.0000000   0.0342091   0.0000000), wk =   0.1111111
        k(    3) = (   0.0000000   0.0684183   0.0000000), wk =   0.1111111
        k(    4) = (   0.0000000  -0.1026274   0.0000000), wk =   0.0555556
        k(    5) = (   0.0307435   0.0171046   0.0000000), wk =   0.1111111
        k(    6) = (   0.0307435   0.0513137   0.0000000), wk =   0.1111111
        k(    7) = (   0.0307435   0.0855228   0.0000000), wk =   0.1111111
        k(    8) = (   0.0307435  -0.0855228   0.0000000), wk =   0.1111111
        k(    9) = (   0.0307435  -0.0513137   0.0000000), wk =   0.1111111
        k(   10) = (   0.0307435  -0.0171046   0.0000000), wk =   0.1111111
        k(   11) = (   0.0614869   0.0342091   0.0000000), wk =   0.1111111
        k(   12) = (   0.0614869   0.0684183   0.0000000), wk =   0.1111111
        k(   13) = (   0.0614869   0.1026274   0.0000000), wk =   0.1111111
        k(   14) = (   0.0614869  -0.0684183   0.0000000), wk =   0.1111111
        k(   15) = (   0.0614869  -0.0342091   0.0000000), wk =   0.1111111
        k(   16) = (   0.0614869   0.0000000   0.0000000), wk =   0.1111111
        k(   17) = (  -0.0922304  -0.0513137   0.0000000), wk =   0.0555556
        k(   18) = (  -0.0922304  -0.0171046   0.0000000), wk =   0.1111111
        k(   19) = (  -0.0922304   0.0171046   0.0000000), wk =   0.1111111
        k(   20) = (  -0.0922304  -0.1539411   0.0000000), wk =   0.0555556

     Largest allocated arrays     est. size (Mb)     dimensions
     Largest temporary arrays     est. size (Mb)     dimensions

     Initial potential from superposition of free atoms
     Check: negative starting charge=   -1.203661

     starting charge  185.99974, renormalised to  192.00000

     negative rho (up, down):  1.242E+00 0.000E+00

     *
     * You are using vdW-DF for exchange-correlation in this calculation.
     * Please cite the following three references that made this development
     * possible:
     *
     *   M. Dion, H. Rydberg, E. Schroder, D. C. Langreth, and
     *   B. I. Lundqvist, Phys. Rev. Lett. 92, 246401 (2004).
     *
     *   T. Thonhauser, V. R. Cooper, S. Li, A. Puzder, P. Hyldgaard, and
     *   D. C. Langreth, Phys. Rev. B 76, 125112 (2007).
     *
     *   G. Roman-Perez and J. M. Soler, Phys. Rev. Lett. 103, 096102 (2009).
     *
     *
     * If you are using vdW-DF2, please also cite:
     *
     *   K. Lee, E. D. Murray, L. Kong, B. I. Lundqvist, and
     *   D. C. Langreth, Phys. Rev. B 82, 081101(R) (2010).
     *
     *
     * If you are calculating the stress with vdW-DF, please also cite:
     *
     *   R. Sabatini, E. Kucukbenli, B. Kolb, T. Thonhauser, and
     *   S. de Gironcoli, J. Phys.: Condens. Matter 24, 424209 (2012).
     *

     Carrying out vdW-DF run using the following parameters:

     Nqs =      20    Nr_points =    1024   r_max =   100.000
     q_mesh =
               0.00001000     0.04494208     0.09755937     0.15916263
               0.23128650     0.31572767     0.41458969     0.53033537
               0.66584808     0.82450364     1.01025438     1.22772762
               1.48234092     1.78043706     2.12944203     2.53805004
               3.01644009     3.57652955     4.23227104     5.00000000

     Gradients computed in reciprocal space

     Adding external electric field

     Computed dipole along edir(3) :
        Dipole               -0.0000 Ry au,         -0.0000 Debye
        Dipole field         -0.0000 Ry au

        Potential amp.        0.0000 Ry
        Total length         45.1495 bohr

     Starting wfc are  150 randomized atomic wfcs

     Self-consistent Calculation

     iteration #  1     ecut=    36.75 Ry     beta=0.10
     Davidson diagonalization with overlap
     ethr =  1.00E-02,  avg # of iterations =  7.2

[...]

     total energy              =   -2393.19234736 Ry
     Harris-Foulkes estimate   =   -2402.30967169 Ry
     estimated scf accuracy    <      51.28030486 Ry

[...]

     End of self-consistent calculation

          k = 0.0000 0.0000 0.0000 ( 16405 PWs)   bands (ev):

   -84.9062 -84.8753 -84.3881 -84.3878 -84.3569 -84.3566 -48.9119 -48.9074
   -48.8787 -48.7804 -48.7534 -48.6622 -48.5514 -48.5503 -48.5458 -48.5402
   -48.5179 -48.5118 -48.3027 -48.3027 -48.2978 -48.2862 -48.2740 -48.2616
   -44.3550 -44.2508 -44.1984 -44.1512 -44.1038 -43.9672 -43.9641 -43.8321
   -43.6273 -43.6220 -43.5971 -43.5784 -43.5741 -43.5439 -43.5413 -43.4925
   -43.4417 -43.4408  -6.1428  -4.4853  -4.2776  -4.0073  -3.9517  -3.8442
    -3.7074  -3.5651  -3.5548  -3.3289  -3.3196  -3.2515  -3.0973  -2.9777
    -2.9704  -1.9050  -1.8393  -1.8216  -1.7481  -1.4926  -1.2911  -1.2717
    -1.2337  -0.9619  -0.9244  -0.8704  -0.8561  -0.7284  -0.7223  -0.5273
    -0.5006  -0.4125  -0.2901  -0.0521   0.3953   0.4134   0.5075   0.5780
     0.6278   0.7718   0.9032   1.3725   1.3972   1.4314   1.4431   1.4647
     1.5973   1.9488   2.1934   2.2177   2.3548   2.3674   2.4724   2.5786
     2.7630   2.7631   2.9472   2.9493   3.2424   3.3676   3.4178   3.4633
     3.5090   3.5409   3.5628   3.8756   4.1267   4.9785   5.2631   5.4052
     5.5868   6.1013   6.2242   6.5571   6.7863   7.2061   8.1071   8.6753
     8.7525   9.0589   9.0769   9.1063   9.5393   9.5581

[...]

          k =-0.0922-0.0513 0.0000 ( 16460 PWs)   bands (ev):

[...]

     the Fermi energy is     1.9886 ev

!    total energy              =   -2397.01815210 Ry
     Harris-Foulkes estimate   =   -2397.01814978 Ry
     estimated scf accuracy    <       0.00000080 Ry

     The total energy is the sum of the following terms:

     one-electron contribution =  -20879.60709757 Ry
     hartree contribution      =   10453.12655232 Ry
     xc contribution           =    -426.76344407 Ry
     ewald contribution        =    8456.31446479 Ry
     electric field correction =       0.00000000 Ry
     smearing contrib. (-TS)   =      -0.08862757 Ry

     convergence has been achieved in  17 iterations

 BEEF-vdW xc energy contributions
           1 :   -372.922037062530
           2 :    343.507510203990
           3 :   -292.284372032948
           4 :    231.524361117126
[...]

[...]

   This run was terminated on:   2:46: 1  19Dec2018

[...]

     Program PWSCF v.5.1rc2 (svn rev. 11289) starts on 19Dec2018 at  2:46: 7

[...]

   This run was terminated on:   3: 2: 7  19Dec2018

[...]

     Program PWSCF v.5.1rc2 (svn rev. 11289) starts on 19Dec2018 at  3: 2:13

     Current dimensions of program PWSCF are:
     Max number of different atomic species (ntypx) = 10
     Max number of k-points (npk) =  40000
     Max angular momentum in pseudopotentials (lmaxx) =  3
     Presently stress not available with electric field

     IMPORTANT: XC functional enforced from input :
     Exchange-correlation      = BEEF-VDW ( 1  4 27 13 2)
     Any further DFT definition will be discarded
     Please, verify this is what you really want

     Subspace diagonalization in iterative solution of the eigenvalue problem:
     a serial algorithm will be used

     Found symmetry operation: I + ( -0.5000  0.0000  0.0000)
     This is a supercell, fractional translations are disabled

     bravais-lattice index     =            0
     lattice parameter (alat)  =       1.8897  a.u.
     unit-cell volume          =    4367.6582 (a.u.)^3
     number of atoms/cell      =           12
     number of atomic types    =            2
     number of electrons       =       192.00
     number of Kohn-Sham states=          126
     kinetic-energy cutoff     =      36.7493  Ry
     charge density cutoff     =     367.4932  Ry
     convergence threshold     =      1.0E-06
     mixing beta               =       0.1000
     number of iterations used =           10  plain     mixing
     Exchange-correlation      = BEEF-VDW ( 1  4 27 13 2)
     nstep                     =           50

     celldm(1)=   1.889726  celldm(2)=   0.000000  celldm(3)=   0.000000
     celldm(4)=   0.000000  celldm(5)=   0.000000  celldm(6)=   0.000000

     crystal axes: (cart. coord. in units of alat)
               a(1) = (   5.421209   0.000000   0.000000 )
               a(2) = (  -2.710604   4.871993   0.000000 )
               a(3) = (   0.000000   0.000000  24.504690 )

     reciprocal axes: (cart. coord. in units 2 pi/alat)
               b(1) = (  0.184461  0.102627  0.000000 )
               b(2) = (  0.000000  0.205255  0.000000 )
               b(3) = (  0.000000  0.000000  0.040809 )

     PseudoPot. # 1 for Pd read from file:
     /afs/slac.stanford.edu/u/if/mamunm/psp/gbrv1.5pbe/Pd.UPF
     MD5 check sum: 2d733d2bc2cbfd217af676df1668a4bc
     Pseudo is Ultrasoft + core correction, Zval = 16.0
     Generated by new atomic code, or converted to UPF format
     Using radial grid of  887 points,  6 beta functions with:
                l(1) =   0
                l(2) =   0
                l(3) =   1
                l(4) =   1
                l(5) =   2
                l(6) =   2
     Q(r) pseudized with  8 coefficients,  rinner =    1.130   1.130   1.130
                                                       1.130   1.130

     PseudoPot. # 2 for Os read from file:
     /afs/slac.stanford.edu/u/if/mamunm/psp/gbrv1.5pbe/Os.UPF
     MD5 check sum: a3fb40a04f0c37c25c34bbc47164c9a8
     Pseudo is Ultrasoft + core correction, Zval = 16.0
     Generated by new atomic code, or converted to UPF format
     Using radial grid of  983 points,  8 beta functions with:
                l(1) =   0
                l(2) =   0
                l(3) =   1
                l(4) =   1
                l(5) =   2
                l(6) =   2
                l(7) =   3
                l(8) =   3
     Q(r) pseudized with  8 coefficients,  rinner =    1.150   1.150   1.150
                                                       1.150   1.150   1.150
                                                       1.150

     vdW kernel table read from file vdW_kernel_table
     MD5 check sum: 095c7af220d748ca6e76c0b4c6cfb241

     atomic species   valence    mass     pseudopotential
        Pd1           16.00   106.42000     Pd( 1.00)
        Os1           16.00   190.23000     Os( 1.00)

     No symmetry found

   Cartesian axes

     site n.     atom                  positions (alat units)
         1           Pd1 tau(   1) = (   0.0000000   0.0000000  10.0000000  )
         2           Pd1 tau(   2) = (   2.7106043   0.0000000  10.0000000  )
         3           Os1 tau(   3) = (   1.3553022   2.4359967  10.0000000  )
         4           Os1 tau(   4) = (  -1.3553022   2.4359967  10.0000000  )
         5           Pd1 tau(   5) = (   2.7106043   1.5080841  12.2523451  )
         6           Pd1 tau(   6) = (  -0.0000000   1.5080841  12.2523451  )
         7           Os1 tau(   7) = (  -1.3553022   3.9440808  12.2523451  )
         8           Os1 tau(   8) = (   1.3553022   3.9440808  12.2523451  )
         9           Pd1 tau(   9) = (  -0.0000066   2.9288814  14.5726237  )
        10           Pd1 tau(  10) = (   2.7105633   2.9288779  14.5726239  )
        11           Os1 tau(  11) = (   4.0658947   0.4066330  14.3532258  )
        12           Os1 tau(  12) = (   1.3552892   0.4066511  14.3532325  )

     number of k points=    20  Fermi-Dirac smearing, width (Ry)=  0.0110
                       cart. coord. in units 2pi/alat
        k(    1) = (   0.0000000   0.0000000   0.0000000), wk =   0.0555556
        k(    2) = (   0.0000000   0.0342091   0.0000000), wk =   0.1111111
        k(    3) = (   0.0000000   0.0684183   0.0000000), wk =   0.1111111
        k(    4) = (   0.0000000  -0.1026274   0.0000000), wk =   0.0555556
        k(    5) = (   0.0307435   0.0171046   0.0000000), wk =   0.1111111
        k(    6) = (   0.0307435   0.0513137   0.0000000), wk =   0.1111111
        k(    7) = (   0.0307435   0.0855228   0.0000000), wk =   0.1111111
        k(    8) = (   0.0307435  -0.0855228   0.0000000), wk =   0.1111111
        k(    9) = (   0.0307435  -0.0513137   0.0000000), wk =   0.1111111
        k(   10) = (   0.0307435  -0.0171046   0.0000000), wk =   0.1111111
        k(   11) = (   0.0614869   0.0342091   0.0000000), wk =   0.1111111
        k(   12) = (   0.0614869   0.0684183   0.0000000), wk =   0.1111111
        k(   13) = (   0.0614869   0.1026274   0.0000000), wk =   0.1111111
        k(   14) = (   0.0614869  -0.0684183   0.0000000), wk =   0.1111111
        k(   15) = (   0.0614869  -0.0342091   0.0000000), wk =   0.1111111
        k(   16) = (   0.0614869   0.0000000   0.0000000), wk =   0.1111111
        k(   17) = (  -0.0922304  -0.0513137   0.0000000), wk =   0.0555556
        k(   18) = (  -0.0922304  -0.0171046   0.0000000), wk =   0.1111111
        k(   19) = (  -0.0922304   0.0171046   0.0000000), wk =   0.1111111
        k(   20) = (  -0.0922304  -0.1539411   0.0000000), wk =   0.0555556

     Largest allocated arrays     est. size (Mb)     dimensions
     Largest temporary arrays     est. size (Mb)     dimensions

     Initial potential from superposition of free atoms
     Check: negative starting charge=   -1.203004

     starting charge  185.99974, renormalised to  192.00000

[...]

     *
     * You are using vdW-DF for exchange-correlation in this calculation.
     * Please cite the following three references that made this development
     * possible:
     *
     *   M. Dion, H. Rydberg, E. Schroder, D. C. Langreth, and
     *   B. I. Lundqvist, Phys. Rev. Lett. 92, 246401 (2004).
     *
     *   T. Thonhauser, V. R. Cooper, S. Li, A. Puzder, P. Hyldgaard, and
     *   D. C. Langreth, Phys. Rev. B 76, 125112 (2007).
     *
     *   G. Roman-Perez and J. M. Soler, Phys. Rev. Lett. 103, 096102 (2009).
     *
     *
     * If you are using vdW-DF2, please also cite:
     *
     *   K. Lee, E. D. Murray, L. Kong, B. I. Lundqvist, and
     *   D. C. Langreth, Phys. Rev. B 82, 081101(R) (2010).
     *
     *
     * If you are calculating the stress with vdW-DF, please also cite:
     *
     *   R. Sabatini, E. Kucukbenli, B. Kolb, T. Thonhauser, and
     *   S. de Gironcoli, J. Phys.: Condens. Matter 24, 424209 (2012).
     *

     Carrying out vdW-DF run using the following parameters:

     Nqs =      20    Nr_points =    1024   r_max =   100.000
     q_mesh =
               0.00001000     0.04494208     0.09755937     0.15916263
               0.23128650     0.31572767     0.41458969     0.53033537
               0.66584808     0.82450364     1.01025438     1.22772762
               1.48234092     1.78043706     2.12944203     2.53805004
               3.01644009     3.57652955     4.23227104     5.00000000

     Gradients computed in reciprocal space

[...]

     Starting wfc are  150 randomized atomic wfcs

     Self-consistent Calculation

[...]

     total energy              =   -2397.03889673 Ry
     Harris-Foulkes estimate   =   -2397.03889692 Ry
     estimated scf accuracy    <       0.00000128 Ry

     iteration # 18     ecut=    36.75 Ry     beta=0.10
     Davidson diagonalization with overlap
     ethr =  6.69E-10,  avg # of iterations =  2.0

[...]

     negative rho (up, down):  1.219E+00 0.000E+00

     Adding external electric field

     Computed dipole along edir(3) :
        Dipole                0.0116 Ry au,          0.0295 Debye
        Dipole field          0.0000 Ry au

        Potential amp.       -0.0030 Ry
        Total length         45.1495 bohr

     End of self-consistent calculation

[...]

          k = 0.0615 0.0000 0.0000 ( 16408 PWs)   bands (ev):

[...]

          k =-0.0922-0.1539 0.0000 ( 16460 PWs)   bands (ev):

   -84.9230 -84.9230 -84.4593 -84.4593 -84.3144 -84.3144 -48.8811 -48.8811
   -48.7678 -48.7678 -48.7283 -48.7283 -48.5049 -48.5049 -48.4069 -48.4069
   -48.3499 -48.3499 -48.2574 -48.2574 -48.2492 -48.2491 -48.0601 -48.0601
   -44.4037 -44.4037 -44.1686 -44.1686 -44.1110 -44.1110 -43.7579 -43.7579
   -43.7063 -43.7062 -43.6660 -43.6660 -43.6116 -43.6116 -43.5527 -43.5527
   -43.4595 -43.4595  -4.4893  -4.4893  -3.2850  -3.2850  -3.0600  -3.0599
    -3.0012  -3.0012  -2.8017  -2.8016  -2.5323  -2.5323  -2.1785  -2.1785
    -2.1259  -2.1259  -1.8920  -1.8920  -1.6688  -1.6688  -1.4697  -1.4696
    -1.1449  -1.1449  -0.9415  -0.9415  -0.7902  -0.7901  -0.6736  -0.6736
    -0.6180  -0.6180  -0.4825  -0.4824  -0.3390  -0.3390  -0.2184  -0.2184
    -0.0895  -0.0895   0.1118   0.1118   0.5906   0.5907   0.9819   0.9819
     1.0522   1.0522   1.1568   1.1569   1.3432   1.3432   1.4256   1.4257
     1.5242   1.5242   2.0144   2.0144   2.3048   2.3048   2.7528   2.7528
     3.0343   3.0343   4.2987   4.2987   4.9328   4.9328   5.6622   5.6622
     6.6760   6.6760   7.6956   7.6956   8.1495   8.1495   8.7290   8.7290
     8.8207   8.8207   9.9364   9.9364  10.0357  10.0357

     the Fermi energy is     2.0071 ev

!    total energy              =   -2397.03889797 Ry
     Harris-Foulkes estimate   =   -2397.03889716 Ry
     estimated scf accuracy    <       0.00000068 Ry

     The total energy is the sum of the following terms:

     one-electron contribution =  -21000.47084728 Ry
     hartree contribution      =   10513.70979612 Ry
     xc contribution           =    -426.95186931 Ry
     ewald contribution        =    8516.75672245 Ry
     electric field correction =       0.00000039 Ry
     smearing contrib. (-TS)   =      -0.08270033 Ry

     convergence has been achieved in  18 iterations

 BEEF-vdW xc energy contributions
           1 :   -373.108642119033
           2 :    343.737150894758
           3 :   -292.579062740053
           4 :    231.867381551966
           5 :   -174.245643724770
           6 :    128.959789391109
           7 :   -99.7557471043232
           8 :    84.9499551571215
           9 :   -79.3254825463154
          10 :    76.8513962430080
          11 :   -73.0589164734425
          12 :    66.2243339845522
          13 :   -57.1612202227028
          14 :    48.0285017871103
          15 :   -40.8922428379727
          16 :    36.7096255007710
          17 :   -35.0787125965030
          18 :    34.6857146832710
          19 :   -34.0943514999429
          20 :    32.4339396273621
          21 :   -29.6805075959467
          22 :    26.4726276761555
          23 :   -23.6415469207632
          24 :    21.7361815269291
          25 :   -20.7789848900200
          26 :    20.3337757503230
          27 :   -19.8033506816196
          28 :    18.7689999478748
          29 :   -17.1903872902053
          30 :    15.3772438951026
          31 :   -35.7577214441869
          32 :   -26.9035583192992

     Forces acting on atoms (Ry/au):

     negative rho (up, down):  1.219E+00 0.000E+00
     atom    1 type  1   force =     0.00000043   -0.01784986   -0.01417136
     atom    2 type  1   force =     0.00000035   -0.01784967   -0.01417128
     atom    3 type  2   force =     0.00000044    0.01960939    0.03163664
     atom    4 type  2   force =     0.00000009    0.01960328    0.03162840
     atom    5 type  1   force =    -0.00000140    0.01163226   -0.01464610
     atom    6 type  1   force =    -0.00000431    0.01163255   -0.01464593
     atom    7 type  2   force =    -0.00000230   -0.01356462   -0.00458548
     atom    8 type  2   force =    -0.00000221   -0.01356726   -0.00458813
     atom    9 type  1   force =    -0.00001032   -0.00031406    0.00174690
     atom   10 type  1   force =     0.00001300   -0.00031315    0.00174720
     atom   11 type  2   force =     0.00000344    0.00049634    0.00002740
     atom   12 type  2   force =     0.00000279    0.00048479    0.00002174

     Total force =     0.070182     Total SCF correction =     0.005780

     entering subroutine stress ...

     negative rho (up, down):  1.219E+00 0.000E+00
          total   stress  (Ry/bohr**3)                   (kbar)     P=  -19.00
  -0.00018928  -0.00000000   0.00000000        -27.84     -0.00      0.00
  -0.00000000  -0.00015114  -0.00000416         -0.00    -22.23     -0.61
   0.00000000  -0.00000416  -0.00004711          0.00     -0.61     -6.93

 !ASE

     Writing output data file calc.save

     General routines

     Parallel routines

   This run was terminated on:   3:18:25  19Dec2018

   JOB DONE.
Job  /afs/slac/g/suncat/bin/suncat-tsmpirun -x LD_LIBRARY_PATH -wdir /scratch/qe530422_qPX98 pw.x -in pw.inp

TID   HOST_NAME   COMMAND_LINE            STATUS            TERMINATION_TIME
00000 suncat2068 pw.x -in pw.inp   Done                     12/19/2018 03:18:25
00001 suncat2068 pw.x -in pw.inp   Done                     12/19/2018 03:18:25
00002 suncat2068 pw.x -in pw.inp   Done                     12/19/2018 03:18:25
00003 suncat2068 pw.x -in pw.inp   Done                     12/19/2018 03:18:25
00004 suncat2068 pw.x -in pw.inp   Done                     12/19/2018 03:18:25
00005 suncat2068 pw.x -in pw.inp   Done                     12/19/2018 03:18:25
00006 suncat2068 pw.x -in pw.inp   Done                     12/19/2018 03:18:25
00007 suncat2068 pw.x -in pw.inp   Done                     12/19/2018 03:18:25
00008 suncat2068 pw.x -in pw.inp   Done                     12/19/2018 03:18:25
00009 suncat2068 pw.x -in pw.inp   Done                     12/19/2018 03:18:25
00010 suncat2068 pw.x -in pw.inp   Done                     12/19/2018 03:18:25
00011 suncat2068 pw.x -in pw.inp   Done                     12/19/2018 03:18:25
00012 suncat2068 pw.x -in pw.inp   Done                     12/19/2018 03:18:25
00013 suncat2068 pw.x -in pw.inp   Done                     12/19/2018 03:18:25
00014 suncat2068 pw.x -in pw.inp   Done                     12/19/2018 03:18:25
00015 suncat2068 pw.x -in pw.inp   Done                     12/19/2018 03:18:25
00016 suncat2067 pw.x -in pw.inp   Done                     12/19/2018 03:18:25
00017 suncat2067 pw.x -in pw.inp   Done                     12/19/2018 03:18:25
00018 suncat2067 pw.x -in pw.inp   Done                     12/19/2018 03:18:25
00019 suncat2067 pw.x -in pw.inp   Done                     12/19/2018 03:18:25
00020 suncat2067 pw.x -in pw.inp   Done                     12/19/2018 03:18:25
00021 suncat2067 pw.x -in pw.inp   Done                     12/19/2018 03:18:25
00022 suncat2067 pw.x -in pw.inp   Done                     12/19/2018 03:18:25
00023 suncat2067 pw.x -in pw.inp   Done                     12/19/2018 03:18:25
00024 suncat2067 pw.x -in pw.inp   Done                     12/19/2018 03:18:25
00025 suncat2067 pw.x -in pw.inp   Done                     12/19/2018 03:18:25
00026 suncat2067 pw.x -in pw.inp   Done                     12/19/2018 03:18:25
00027 suncat2067 pw.x -in pw.inp   Done                     12/19/2018 03:18:25
00028 suncat2067 pw.x -in pw.inp   Done                     12/19/2018 03:18:25
00029 suncat2067 pw.x -in pw.inp   Done                     12/19/2018 03:18:25
00030 suncat2067 pw.x -in pw.inp   Done                     12/19/2018 03:18:25
00031 suncat2067 pw.x -in pw.inp   Done                     12/19/2018 03:18:25