     Program PWSCF v.5.1rc2 (svn rev. 11289) starts on 18Dec2018 at 20:42:15

     Current dimensions of program PWSCF are:
     Max number of different atomic species (ntypx) = 10
     Max number of k-points (npk) =  40000
     Max angular momentum in pseudopotentials (lmaxx) =  3
     Presently stress not available with electric field

     IMPORTANT: XC functional enforced from input :
     Exchange-correlation      = BEEF-VDW ( 1  4 27 13 2)
     Any further DFT definition will be discarded
     Please, verify this is what you really want

     Subspace diagonalization in iterative solution of the eigenvalue problem:
     a serial algorithm will be used

     Found symmetry operation: I + ( -0.5000 -0.5000  0.0000)
     This is a supercell, fractional translations are disabled

     Generating pointlists ...
     new r_m :   0.4125 (alat units)  0.7795 (a.u.) for type    1
     new r_m :   0.4125 (alat units)  0.7795 (a.u.) for type    2

     bravais-lattice index     =            0
     lattice parameter (alat)  =       1.8897  a.u.
     unit-cell volume          =    4367.6990 (a.u.)^3
     number of atoms/cell      =           12
     number of atomic types    =            2
     number of electrons       =       174.00
     number of Kohn-Sham states=          117
     kinetic-energy cutoff     =      36.7493  Ry
     charge density cutoff     =     367.4932  Ry
     convergence threshold     =      1.0E-06
     mixing beta               =       0.1000
     number of iterations used =           10  plain     mixing
     Exchange-correlation      = BEEF-VDW ( 1  4 27 13 2)
     nstep                     =           50

     celldm(1)=   1.889726  celldm(2)=   0.000000  celldm(3)=   0.000000
     celldm(4)=   0.000000  celldm(5)=   0.000000  celldm(6)=   0.000000

     crystal axes: (cart. coord. in units of alat)
               a(1) = (   5.381476   0.000000   0.000000 )
               a(2) = (   2.186051   4.917466   0.000000 )
               a(3) = (   0.000000   0.000000  24.457570 )

     reciprocal axes: (cart. coord. in units 2 pi/alat)
               b(1) = (  0.185823 -0.082607  0.000000 )
               b(2) = (  0.000000  0.203357  0.000000 )
               b(3) = (  0.000000  0.000000  0.040887 )

     PseudoPot. # 1 for Ni read from file:
     /afs/slac.stanford.edu/u/if/mamunm/psp/gbrv1.5pbe/Ni.UPF
     MD5 check sum: 1ee80287db30b12d2bc1f57a5b5d6409
     Pseudo is Ultrasoft + core correction, Zval = 18.0
     Generated by new atomic code, or converted to UPF format
     Using radial grid of  865 points,  6 beta functions with:
                l(1) =   0
                l(2) =   0
                l(3) =   1
                l(4) =   1
                l(5) =   2
                l(6) =   2
     Q(r) pseudized with 10 coefficients,  rinner =    0.980   0.980   0.980
                                                       0.980   0.980

     PseudoPot. # 2 for Au read from file:
     /afs/slac.stanford.edu/u/if/mamunm/psp/gbrv1.5pbe/Au.UPF
     MD5 check sum: 9d7f43293ad2c663164586bc4b293ffc
     Pseudo is Ultrasoft + core correction, Zval = 11.0
     Generated by new atomic code, or converted to UPF format
     Using radial grid of  985 points,  7 beta functions with:
                l(1) =   0
                l(2) =   0
                l(3) =   1
                l(4) =   1
                l(5) =   2
                l(6) =   2
                l(7) =   3
     Q(r) pseudized with  6 coefficients,  rinner =    1.900   1.900   1.900
                                                       1.900   1.900   1.900
                                                       1.900

     vdW kernel table read from file vdW_kernel_table
     MD5 check sum: 095c7af220d748ca6e76c0b4c6cfb241

     atomic species   valence    mass     pseudopotential
        Ni1           18.00    58.69340     Ni( 1.00)
        Au1           11.00   196.96657     Au( 1.00)

     Starting magnetic structure
     atomic species   magnetization
        Ni1          0.111
        Au1          0.182

     No symmetry found

   Cartesian axes

     site n.     atom                  positions (alat units)
         1           Ni1 tau(   1) = (   0.0000000   0.0000000  10.0000000  )
         2           Ni1 tau(   2) = (   3.7837637   2.4587329  10.0000000  )
         3           Au1 tau(   3) = (   2.6907382   0.0000000  10.0000000  )
         4           Au1 tau(   4) = (   1.0930255   2.4587329  10.0000000  )
         5           Ni1 tau(   5) = (   5.3814764   3.4969449  12.2287852  )
         6           Ni1 tau(   6) = (   1.5977127   1.0382120  12.2287852  )
         7           Au1 tau(   7) = (   2.6907382   3.4969449  12.2287852  )
         8           Au1 tau(   8) = (   4.2884509   1.0382120  12.2287852  )
         9           Ni1 tau(   9) = (   3.1954254   2.0764239  14.4575703  )
        10           Ni1 tau(  10) = (   6.9791892   4.5351568  14.4575703  )
        11           Au1 tau(  11) = (   5.8861636   2.0764239  14.4575703  )
        12           Au1 tau(  12) = (   4.2884509   4.5351568  14.4575703  )

     number of k points=    40  Fermi-Dirac smearing, width (Ry)=  0.0110
                       cart. coord. in units 2pi/alat
        k(    1) = (   0.0000000   0.0000000   0.0000000), wk =   0.0277778
        k(    2) = (   0.0000000   0.0338928   0.0000000), wk =   0.0555556
        k(    3) = (   0.0000000   0.0677856   0.0000000), wk =   0.0555556
        k(    4) = (   0.0000000  -0.1016784   0.0000000), wk =   0.0277778
        k(    5) = (   0.0309704  -0.0137679   0.0000000), wk =   0.0555556
        k(    6) = (   0.0309704   0.0201249   0.0000000), wk =   0.0555556
        k(    7) = (   0.0309704   0.0540177   0.0000000), wk =   0.0555556
        k(    8) = (   0.0309704  -0.1154462   0.0000000), wk =   0.0555556
        k(    9) = (   0.0309704  -0.0815534   0.0000000), wk =   0.0555556
        k(   10) = (   0.0309704  -0.0476607   0.0000000), wk =   0.0555556
        k(   11) = (   0.0619409  -0.0275357   0.0000000), wk =   0.0555556
        k(   12) = (   0.0619409   0.0063571   0.0000000), wk =   0.0555556
        k(   13) = (   0.0619409   0.0402499   0.0000000), wk =   0.0555556
        k(   14) = (   0.0619409  -0.1292141   0.0000000), wk =   0.0555556
        k(   15) = (   0.0619409  -0.0953213   0.0000000), wk =   0.0555556
        k(   16) = (   0.0619409  -0.0614285   0.0000000), wk =   0.0555556
        k(   17) = (  -0.0929113   0.0413036   0.0000000), wk =   0.0277778
        k(   18) = (  -0.0929113   0.0751964   0.0000000), wk =   0.0555556
        k(   19) = (  -0.0929113   0.1090892   0.0000000), wk =   0.0555556
        k(   20) = (  -0.0929113  -0.0603748   0.0000000), wk =   0.0277778
        k(   21) = (   0.0000000   0.0000000   0.0000000), wk =   0.0277778
        k(   22) = (   0.0000000   0.0338928   0.0000000), wk =   0.0555556
        k(   23) = (   0.0000000   0.0677856   0.0000000), wk =   0.0555556
        k(   24) = (   0.0000000  -0.1016784   0.0000000), wk =   0.0277778
        k(   25) = (   0.0309704  -0.0137679   0.0000000), wk =   0.0555556
        k(   26) = (   0.0309704   0.0201249   0.0000000), wk =   0.0555556
        k(   27) = (   0.0309704   0.0540177   0.0000000), wk =   0.0555556
        k(   28) = (   0.0309704  -0.1154462   0.0000000), wk =   0.0555556
        k(   29) = (   0.0309704  -0.0815534   0.0000000), wk =   0.0555556
        k(   30) = (   0.0309704  -0.0476607   0.0000000), wk =   0.0555556
        k(   31) = (   0.0619409  -0.0275357   0.0000000), wk =   0.0555556
        k(   32) = (   0.0619409   0.0063571   0.0000000), wk =   0.0555556
        k(   33) = (   0.0619409   0.0402499   0.0000000), wk =   0.0555556
        k(   34) = (   0.0619409  -0.1292141   0.0000000), wk =   0.0555556
        k(   35) = (   0.0619409  -0.0953213   0.0000000), wk =   0.0555556
        k(   36) = (   0.0619409  -0.0614285   0.0000000), wk =   0.0555556
        k(   37) = (  -0.0929113   0.0413036   0.0000000), wk =   0.0277778
        k(   38) = (  -0.0929113   0.0751964   0.0000000), wk =   0.0555556
        k(   39) = (  -0.0929113   0.1090892   0.0000000), wk =   0.0555556
        k(   40) = (  -0.0929113  -0.0603748   0.0000000), wk =   0.0277778

     Largest allocated arrays     est. size (Mb)     dimensions
     Largest temporary arrays     est. size (Mb)     dimensions

     Check: negative/imaginary core charge=   -0.000002    0.000000

     Initial potential from superposition of free atoms
     Check: negative starting charge=(component1):   -0.000281
     Check: negative starting charge=(component2):   -0.000227

     starting charge  161.99927, renormalised to  174.00000

     negative rho (up, down):  3.021E-04 2.434E-04

     *
     * You are using vdW-DF for exchange-correlation in this calculation.
     * Please cite the following three references that made this development
     * possible:
     *
     *   M. Dion, H. Rydberg, E. Schroder, D. C. Langreth, and
     *   B. I. Lundqvist, Phys. Rev. Lett. 92, 246401 (2004).
     *
     *   T. Thonhauser, V. R. Cooper, S. Li, A. Puzder, P. Hyldgaard, and
     *   D. C. Langreth, Phys. Rev. B 76, 125112 (2007).
     *
     *   G. Roman-Perez and J. M. Soler, Phys. Rev. Lett. 103, 096102 (2009).
     *
     *
     * If you are using vdW-DF2, please also cite:
     *
     *   K. Lee, E. D. Murray, L. Kong, B. I. Lundqvist, and
     *   D. C. Langreth, Phys. Rev. B 82, 081101(R) (2010).
     *
     *
     * If you are calculating the stress with vdW-DF, please also cite:
     *
     *   R. Sabatini, E. Kucukbenli, B. Kolb, T. Thonhauser, and
     *   S. de Gironcoli, J. Phys.: Condens. Matter 24, 424209 (2012).
     *

     Carrying out vdW-DF run using the following parameters:

     Nqs =      20    Nr_points =    1024   r_max =   100.000
     q_mesh =
               0.00001000     0.04494208     0.09755937     0.15916263
               0.23128650     0.31572767     0.41458969     0.53033537
               0.66584808     0.82450364     1.01025438     1.22772762
               1.48234092     1.78043706     2.12944203     2.53805004
               3.01644009     3.57652955     4.23227104     5.00000000

     Gradients computed in reciprocal space

     Adding external electric field

     Computed dipole along edir(3) :
        Dipole                0.0000 Ry au,          0.0000 Debye
        Dipole field          0.0000 Ry au

        Potential amp.       -0.0000 Ry
        Total length         45.0627 bohr

[...]

     Starting wfc are  132 randomized atomic wfcs

     Self-consistent Calculation

     iteration #  1     ecut=    36.75 Ry     beta=0.10
     Davidson diagonalization with overlap
     ethr =  1.00E-02,  avg # of iterations =  8.0

[...]

     Magnetic moment per site:
     atom:    1    charge:    9.5764    magn:    1.0197    constr:    0.0000
     atom:    2    charge:    9.5764    magn:    1.0197    constr:    0.0000
     atom:    3    charge:    1.5251    magn:    0.2565    constr:    0.0000
     atom:    4    charge:    1.5251    magn:    0.2565    constr:    0.0000
     atom:    5    charge:    9.5535    magn:    1.0162    constr:    0.0000
[...]
     Q(r) pseudized with 10 coefficients,  rinner =    0.980   0.980   0.980
                                                       0.980   0.980

     PseudoPot. # 2 for Au read from file:
     /afs/slac.stanford.edu/u/if/mamunm/psp/gbrv1.5pbe/Au.UPF
     MD5 check sum: 9d7f43293ad2c663164586bc4b293ffc
     Pseudo is Ultrasoft + core correction, Zval = 11.0
     Generated by new atomic code, or converted to UPF format
     Using radial grid of  985 points,  7 beta functions with:
                l(1) =   0
                l(2) =   0
                l(3) =   1
                l(4) =   1
                l(5) =   2
                l(6) =   2
                l(7) =   3
     Q(r) pseudized with  6 coefficients,  rinner =    1.900   1.900   1.900
                                                       1.900   1.900   1.900
                                                       1.900

     vdW kernel table read from file vdW_kernel_table
     MD5 check sum: 095c7af220d748ca6e76c0b4c6cfb241

     atomic species   valence    mass     pseudopotential
        Ni1           18.00    58.69340     Ni( 1.00)
        Au1           11.00   196.96657     Au( 1.00)

     Starting magnetic structure
     atomic species   magnetization
        Ni1          0.111
        Au1          0.182

     No symmetry found

   Cartesian axes

     site n.     atom                  positions (alat units)
         1           Ni1 tau(   1) = (   0.0000000   0.0000000  10.0000000  )
         2           Ni1 tau(   2) = (   3.7837637   2.4587329  10.0000000  )
         3           Au1 tau(   3) = (   2.6907382   0.0000000  10.0000000  )
         4           Au1 tau(   4) = (   1.0930255   2.4587329  10.0000000  )
         5           Ni1 tau(   5) = (   5.3814764   3.4969449  12.2287852  )
         6           Ni1 tau(   6) = (   1.5977127   1.0382120  12.2287852  )
         7           Au1 tau(   7) = (   2.6907382   3.4969449  12.2287852  )
         8           Au1 tau(   8) = (   4.2884509   1.0382120  12.2287852  )
         9           Ni1 tau(   9) = (   3.1811907   2.0671719  14.3981251  )
        10           Ni1 tau(  10) = (   6.9651731   4.5260513  14.3981796  )
        11           Au1 tau(  11) = (   5.8969737   2.0833586  14.5214415  )
        12           Au1 tau(  12) = (   4.2991788   4.5422183  14.5214425  )

     number of k points=    40  Fermi-Dirac smearing, width (Ry)=  0.0110
                       cart. coord. in units 2pi/alat
        k(    1) = (   0.0000000   0.0000000   0.0000000), wk =   0.0277778
        k(    2) = (   0.0000000   0.0338928   0.0000000), wk =   0.0555556
        k(    3) = (   0.0000000   0.0677856   0.0000000), wk =   0.0555556
        k(    4) = (   0.0000000  -0.1016784   0.0000000), wk =   0.0277778
        k(    5) = (   0.0309704  -0.0137679   0.0000000), wk =   0.0555556
        k(    6) = (   0.0309704   0.0201249   0.0000000), wk =   0.0555556
        k(    7) = (   0.0309704   0.0540177   0.0000000), wk =   0.0555556
        k(    8) = (   0.0309704  -0.1154462   0.0000000), wk =   0.0555556
        k(    9) = (   0.0309704  -0.0815534   0.0000000), wk =   0.0555556
        k(   10) = (   0.0309704  -0.0476607   0.0000000), wk =   0.0555556
        k(   11) = (   0.0619409  -0.0275357   0.0000000), wk =   0.0555556
        k(   12) = (   0.0619409   0.0063571   0.0000000), wk =   0.0555556
        k(   13) = (   0.0619409   0.0402499   0.0000000), wk =   0.0555556
        k(   14) = (   0.0619409  -0.1292141   0.0000000), wk =   0.0555556
        k(   15) = (   0.0619409  -0.0953213   0.0000000), wk =   0.0555556
        k(   16) = (   0.0619409  -0.0614285   0.0000000), wk =   0.0555556
        k(   17) = (  -0.0929113   0.0413036   0.0000000), wk =   0.0277778
        k(   18) = (  -0.0929113   0.0751964   0.0000000), wk =   0.0555556
        k(   19) = (  -0.0929113   0.1090892   0.0000000), wk =   0.0555556
        k(   20) = (  -0.0929113  -0.0603748   0.0000000), wk =   0.0277778
        k(   21) = (   0.0000000   0.0000000   0.0000000), wk =   0.0277778
        k(   22) = (   0.0000000   0.0338928   0.0000000), wk =   0.0555556
        k(   23) = (   0.0000000   0.0677856   0.0000000), wk =   0.0555556
        k(   24) = (   0.0000000  -0.1016784   0.0000000), wk =   0.0277778
        k(   25) = (   0.0309704  -0.0137679   0.0000000), wk =   0.0555556
        k(   26) = (   0.0309704   0.0201249   0.0000000), wk =   0.0555556
        k(   27) = (   0.0309704   0.0540177   0.0000000), wk =   0.0555556
        k(   28) = (   0.0309704  -0.1154462   0.0000000), wk =   0.0555556
        k(   29) = (   0.0309704  -0.0815534   0.0000000), wk =   0.0555556
        k(   30) = (   0.0309704  -0.0476607   0.0000000), wk =   0.0555556
        k(   31) = (   0.0619409  -0.0275357   0.0000000), wk =   0.0555556
        k(   32) = (   0.0619409   0.0063571   0.0000000), wk =   0.0555556
        k(   33) = (   0.0619409   0.0402499   0.0000000), wk =   0.0555556
        k(   34) = (   0.0619409  -0.1292141   0.0000000), wk =   0.0555556
        k(   35) = (   0.0619409  -0.0953213   0.0000000), wk =   0.0555556
        k(   36) = (   0.0619409  -0.0614285   0.0000000), wk =   0.0555556
        k(   37) = (  -0.0929113   0.0413036   0.0000000), wk =   0.0277778
        k(   38) = (  -0.0929113   0.0751964   0.0000000), wk =   0.0555556
        k(   39) = (  -0.0929113   0.1090892   0.0000000), wk =   0.0555556
        k(   40) = (  -0.0929113  -0.0603748   0.0000000), wk =   0.0277778

     Largest allocated arrays     est. size (Mb)     dimensions
     Largest temporary arrays     est. size (Mb)     dimensions

     Check: negative/imaginary core charge=   -0.000002    0.000000

     Initial potential from superposition of free atoms
     Check: negative starting charge=(component1):   -0.000275
     Check: negative starting charge=(component2):   -0.000222

     starting charge  161.99927, renormalised to  174.00000

[...]

     *
     * You are using vdW-DF for exchange-correlation in this calculation.
     * Please cite the following three references that made this development
     * possible:
     *
     *   M. Dion, H. Rydberg, E. Schroder, D. C. Langreth, and
     *   B. I. Lundqvist, Phys. Rev. Lett. 92, 246401 (2004).
     *
     *   T. Thonhauser, V. R. Cooper, S. Li, A. Puzder, P. Hyldgaard, and
     *   D. C. Langreth, Phys. Rev. B 76, 125112 (2007).
     *
     *   G. Roman-Perez and J. M. Soler, Phys. Rev. Lett. 103, 096102 (2009).
     *
     *
     * If you are using vdW-DF2, please also cite:
     *
     *   K. Lee, E. D. Murray, L. Kong, B. I. Lundqvist, and
     *   D. C. Langreth, Phys. Rev. B 82, 081101(R) (2010).
     *
     *
     * If you are calculating the stress with vdW-DF, please also cite:
     *
     *   R. Sabatini, E. Kucukbenli, B. Kolb, T. Thonhauser, and
     *   S. de Gironcoli, J. Phys.: Condens. Matter 24, 424209 (2012).
     *

     Carrying out vdW-DF run using the following parameters:

     Nqs =      20    Nr_points =    1024   r_max =   100.000
     q_mesh =
               0.00001000     0.04494208     0.09755937     0.15916263
               0.23128650     0.31572767     0.41458969     0.53033537
               0.66584808     0.82450364     1.01025438     1.22772762
               1.48234092     1.78043706     2.12944203     2.53805004
               3.01644009     3.57652955     4.23227104     5.00000000

     Gradients computed in reciprocal space

[...]

     Starting wfc are  132 randomized atomic wfcs

     Self-consistent Calculation

[...]

     total energy              =   -2766.64959108 Ry
     Harris-Foulkes estimate   =   -2766.64958990 Ry
     estimated scf accuracy    <       0.00000241 Ry

[...]

     iteration # 33     ecut=    36.75 Ry     beta=0.10
     Davidson diagonalization with overlap
     ethr =  1.38E-09,  avg # of iterations =  1.8

[...]

     negative rho (up, down):  7.391E-04 6.397E-04

[...]

     Adding external electric field

     Computed dipole along edir(3) :
        Dipole               -0.0151 Ry au,         -0.0384 Debye
        Dipole field         -0.0000 Ry au

        Potential amp.        0.0039 Ry
        Total length         45.0627 bohr

     Magnetic moment per site:
     atom:    1    charge:    9.3657    magn:    0.3131    constr:    0.0000
     atom:    2    charge:    9.3655    magn:    0.3132    constr:    0.0000
     atom:    3    charge:    1.4504    magn:    0.0057    constr:    0.0000
     atom:    4    charge:    1.4504    magn:    0.0057    constr:    0.0000
     atom:    5    charge:    9.3482    magn:    0.2849    constr:    0.0000
     atom:    6    charge:    9.3483    magn:    0.2848    constr:    0.0000
     atom:    7    charge:    1.4505    magn:    0.0082    constr:    0.0000
     atom:    8    charge:    1.4505    magn:    0.0082    constr:    0.0000
     atom:    9    charge:    9.3622    magn:    0.3090    constr:    0.0000
     atom:   10    charge:    9.3624    magn:    0.3091    constr:    0.0000
     atom:   11    charge:    1.4538    magn:    0.0054    constr:    0.0000
     atom:   12    charge:    1.4538    magn:    0.0054    constr:    0.0000

     End of self-consistent calculation

 ------ SPIN UP ------------

[...]

 ------ SPIN DOWN ----------

[...]

          k = 0.0619-0.0614 0.0000 ( 16429 PWs)   bands (ev):

[...]

          k =-0.0929-0.0604 0.0000 ( 16494 PWs)   bands (ev):

  -102.0491-102.0481-101.9600-101.9590-101.9350-101.9340 -62.4922 -62.4906
   -62.4534 -62.4525 -62.4518 -62.4348 -62.4179 -62.4163 -62.4002 -62.3993
   -62.3976 -62.3826 -62.3788 -62.3613 -62.3098 -62.3084 -62.2770 -62.2756
    -6.4571  -5.8913  -5.5473  -5.2790  -5.0867  -5.0198  -4.9606  -4.6663
    -4.6522  -4.6191  -4.5627  -4.4031  -4.2816  -4.2056  -4.1975  -3.9748
    -3.8087  -3.6986  -3.5317  -3.3840  -3.3732  -3.3719  -3.3165  -3.1983
    -3.0512  -2.9922  -2.8505  -2.8269  -2.7448  -2.6852  -2.5414  -2.3805
    -2.2689  -1.8750  -1.8656  -1.2970  -1.2868  -1.2012  -1.1506  -1.0485
    -1.0386  -0.9550  -0.8841  -0.8365  -0.8171  -0.7667  -0.6955  -0.6738
    -0.6616  -0.4788  -0.3953  -0.3782  -0.3016  -0.2909  -0.2603  -0.2201
    -0.1050  -0.0524  -0.0019   0.1003   0.1414   0.2154   0.2493   0.2910
     0.3986   1.0249   1.3995   1.5196   1.5229   1.9138   3.6380   3.9266
     4.0654   4.2159   6.2027   6.2315   6.5990   6.8467   6.8695   6.9882
     7.0005   7.3217   7.3690   7.4414   7.7728   8.0505   8.1060   8.4426
     8.5170   8.5284   8.7355   8.7961   8.9597

     the Fermi energy is     0.3065 ev

!    total energy              =   -2766.64959416 Ry
     Harris-Foulkes estimate   =   -2766.64959135 Ry
     estimated scf accuracy    <       0.00000097 Ry

     The total energy is the sum of the following terms:

     one-electron contribution =  -18284.15566682 Ry
     hartree contribution      =    9196.28765223 Ry
     xc contribution           =    -604.76020337 Ry
     ewald contribution        =    6926.07130049 Ry
     electric field correction =       0.00000066 Ry
     smearing contrib. (-TS)   =      -0.09267734 Ry

     total magnetization       =     3.19 Bohr mag/cell
     absolute magnetization    =     3.69 Bohr mag/cell

     convergence has been achieved in  33 iterations

 BEEF-vdW xc energy contributions
           1 :   -537.831520397424
           2 :    495.459345582172
           3 :   -421.679423842127
           4 :    333.772421531017
           5 :   -248.820648070740
           6 :    178.403566089710
           7 :   -126.571486220331
           8 :    91.2060269322704
           9 :   -67.3369221085119
          10 :    50.3371713724287
          11 :   -37.5540122093321
          12 :    28.1224777059388
          13 :   -21.8194334552754
          14 :    18.0657771285487
          15 :   -15.7378382108259
          16 :    13.6465496141291
          17 :   -11.1182891277330
          18 :    8.15876258180731
          19 :   -5.15482188312706
          20 :    2.42877288820728
          21 :  -4.353680190217801E-002
          22 :   -2.04264047481911
          23 :    3.68165164016432
          24 :   -4.44846024167691
          25 :    3.89498571936826
          26 :   -1.98307298087411
          27 :  -0.671493870108634
          28 :    2.98356708689676
          29 :   -3.95753060646371
          30 :    3.25813594209785
          31 :   -43.1863700802621
          32 :   -30.9844579809474

     Forces acting on atoms (Ry/au):

     negative rho (up, down):  7.391E-04 6.397E-04
     atom    1 type  1   force =     0.00510251    0.00331577    0.00882600
     atom    2 type  1   force =     0.00512323    0.00332913    0.00882540
     atom    3 type  2   force =    -0.00585351   -0.00381214   -0.01055241
     atom    4 type  2   force =    -0.00586166   -0.00380003   -0.01055228
     atom    5 type  1   force =    -0.00136880   -0.00088988    0.00598386
     atom    6 type  1   force =    -0.00130062   -0.00084490    0.00599447
     atom    7 type  2   force =     0.00359121    0.00230146   -0.00447923
     atom    8 type  2   force =     0.00356184    0.00234654   -0.00447980
     atom    9 type  1   force =    -0.00077696   -0.00050444    0.00008188
     atom   10 type  1   force =    -0.00086876   -0.00056504    0.00006628
     atom   11 type  2   force =    -0.00070408   -0.00039213    0.00014290
     atom   12 type  2   force =    -0.00064440   -0.00048433    0.00014292

     Total force =     0.026591     Total SCF correction =     0.002435

     entering subroutine stress ...

     negative rho (up, down):  7.391E-04 6.397E-04
          total   stress  (Ry/bohr**3)                   (kbar)     P=  -35.14
  -0.00026017   0.00002451  -0.00000179        -38.27      3.61     -0.26
   0.00002451  -0.00028196  -0.00000116          3.61    -41.48     -0.17
  -0.00000179  -0.00000116  -0.00017450         -0.26     -0.17    -25.67

 !ASE

     Writing output data file calc.save

     General routines

     Parallel routines

   This run was terminated on:  21:53: 4  18Dec2018

   JOB DONE.
Job  /afs/slac/g/suncat/bin/suncat-tsmpirun -x LD_LIBRARY_PATH -wdir /scratch/qe530336_jOgkH pw.x -in pw.inp

TID   HOST_NAME   COMMAND_LINE            STATUS            TERMINATION_TIME
00000 suncat2052 pw.x -in pw.inp   Done                     12/18/2018 21:53:04
00001 suncat2052 pw.x -in pw.inp   Done                     12/18/2018 21:53:04
00002 suncat2052 pw.x -in pw.inp   Done                     12/18/2018 21:53:04
00003 suncat2052 pw.x -in pw.inp   Done                     12/18/2018 21:53:04
00004 suncat2052 pw.x -in pw.inp   Done                     12/18/2018 21:53:04
00005 suncat2052 pw.x -in pw.inp   Done                     12/18/2018 21:53:04
00006 suncat2052 pw.x -in pw.inp   Done                     12/18/2018 21:53:04
00007 suncat2052 pw.x -in pw.inp   Done                     12/18/2018 21:53:04
00008 suncat2052 pw.x -in pw.inp   Done                     12/18/2018 21:53:04
00009 suncat2052 pw.x -in pw.inp   Done                     12/18/2018 21:53:04
00010 suncat2052 pw.x -in pw.inp   Done                     12/18/2018 21:53:04
00011 suncat2052 pw.x -in pw.inp   Done                     12/18/2018 21:53:04
00012 suncat2052 pw.x -in pw.inp   Done                     12/18/2018 21:53:04
00013 suncat2052 pw.x -in pw.inp   Done                     12/18/2018 21:53:04
00014 suncat2052 pw.x -in pw.inp   Done                     12/18/2018 21:53:04
00015 suncat2052 pw.x -in pw.inp   Done                     12/18/2018 21:53:04
00016 suncat2051 pw.x -in pw.inp   Done                     12/18/2018 21:53:04
00017 suncat2051 pw.x -in pw.inp   Done                     12/18/2018 21:53:04
00018 suncat2051 pw.x -in pw.inp   Done                     12/18/2018 21:53:04
00019 suncat2051 pw.x -in pw.inp   Done                     12/18/2018 21:53:04
00020 suncat2051 pw.x -in pw.inp   Done                     12/18/2018 21:53:04
00021 suncat2051 pw.x -in pw.inp   Done                     12/18/2018 21:53:04
00022 suncat2051 pw.x -in pw.inp   Done                     12/18/2018 21:53:04
00023 suncat2051 pw.x -in pw.inp   Done                     12/18/2018 21:53:04
00024 suncat2051 pw.x -in pw.inp   Done                     12/18/2018 21:53:04
00025 suncat2051 pw.x -in pw.inp   Done                     12/18/2018 21:53:04
00026 suncat2051 pw.x -in pw.inp   Done                     12/18/2018 21:53:04
00027 suncat2051 pw.x -in pw.inp   Done                     12/18/2018 21:53:04
00028 suncat2051 pw.x -in pw.inp   Done                     12/18/2018 21:53:04
00029 suncat2051 pw.x -in pw.inp   Done                     12/18/2018 21:53:04
00030 suncat2051 pw.x -in pw.inp   Done                     12/18/2018 21:53:04
00031 suncat2051 pw.x -in pw.inp   Done                     12/18/2018 21:53:04