     Program PWSCF v.5.1rc2 (svn rev. 11289) starts on 18Dec2018 at 16:51:58

     Current dimensions of program PWSCF are:
     Max number of different atomic species (ntypx) = 10
     Max number of k-points (npk) =  40000
     Max angular momentum in pseudopotentials (lmaxx) =  3
     Presently stress not available with electric field

     IMPORTANT: XC functional enforced from input :
     Exchange-correlation      = BEEF-VDW ( 1  4 27 13 2)
     Any further DFT definition will be discarded
     Please, verify this is what you really want

     Subspace diagonalization in iterative solution of the eigenvalue problem:
     a serial algorithm will be used

     Found symmetry operation: I + ( -0.5000 -0.5000  0.0000)
     This is a supercell, fractional translations are disabled

     Generating pointlists ...
     new r_m :   0.4125 (alat units)  0.7795 (a.u.) for type    1
     new r_m :   0.4125 (alat units)  0.7795 (a.u.) for type    2

     bravais-lattice index     =            0
     lattice parameter (alat)  =       1.8897  a.u.
     unit-cell volume          =    6204.8379 (a.u.)^3
     number of atoms/cell      =           12
     number of atomic types    =            2
     number of electrons       =       174.00
     number of Kohn-Sham states=          117
     kinetic-energy cutoff     =      36.7493  Ry
     charge density cutoff     =     367.4932  Ry
     convergence threshold     =      1.0E-06
     mixing beta               =       0.1000
     number of iterations used =           10  plain     mixing
     Exchange-correlation      = BEEF-VDW ( 1  4 27 13 2)
     nstep                     =           50

     celldm(1)=   1.889726  celldm(2)=   0.000000  celldm(3)=   0.000000
     celldm(4)=   0.000000  celldm(5)=   0.000000  celldm(6)=   0.000000

     crystal axes: (cart. coord. in units of alat)
               a(1) = (   6.285547   0.000000   0.000000 )
               a(2) = (   2.408902   5.805626   0.000000 )
               a(3) = (   0.000000   0.000000  25.196586 )

     reciprocal axes: (cart. coord. in units 2 pi/alat)
               b(1) = (  0.159095 -0.066013  0.000000 )
               b(2) = (  0.000000  0.172247  0.000000 )
               b(3) = (  0.000000  0.000000  0.039688 )

     PseudoPot. # 1 for Mn read from file:
     /afs/slac.stanford.edu/u/if/mamunm/psp/gbrv1.5pbe/Mn.UPF
     MD5 check sum: 82ef2b46521d7a7d9e736dc3972e4928
     Pseudo is Ultrasoft + core correction, Zval = 15.0
     Generated by new atomic code, or converted to UPF format
     Using radial grid of  859 points,  6 beta functions with:
                l(1) =   0
                l(2) =   0
                l(3) =   1
                l(4) =   1
                l(5) =   2
                l(6) =   2
     Q(r) pseudized with  8 coefficients,  rinner =    0.950   0.950   0.950
                                                       0.950   0.950

     PseudoPot. # 2 for Pb read from file:
     /afs/slac.stanford.edu/u/if/mamunm/psp/gbrv1.5pbe/Pb.UPF
     MD5 check sum: 3d1c1779aa92214d1e8f3a7db79003e2
     Pseudo is Ultrasoft + core correction, Zval = 14.0
     Generated by new atomic code, or converted to UPF format
     Using radial grid of  899 points,  6 beta functions with:
                l(1) =   0
                l(2) =   0
                l(3) =   1
                l(4) =   1
                l(5) =   2
                l(6) =   2
     Q(r) pseudized with  6 coefficients,  rinner =    1.000   1.000   1.000
                                                       1.000   1.000

     vdW kernel table read from file vdW_kernel_table
     MD5 check sum: 095c7af220d748ca6e76c0b4c6cfb241

     atomic species   valence    mass     pseudopotential
        Mn1           15.00    54.93804     Mn( 1.00)
        Pb1           14.00   207.20000     Pb( 1.00)

     Starting magnetic structure
     atomic species   magnetization
        Mn1          0.133
        Pb1          0.143

     No symmetry found

   Cartesian axes

     site n.     atom                  positions (alat units)
         1           Mn1 tau(   1) = (   0.0000000   0.0000000  10.0000000  )
         2           Mn1 tau(   2) = (   4.3472247   2.9028130  10.0000000  )
         3           Pb1 tau(   3) = (   3.1427736   0.0000000  10.0000000  )
         4           Pb1 tau(   4) = (   1.2044511   2.9028130  10.0000000  )
         5           Mn1 tau(   5) = (   6.2855472   4.1971072  12.5982929  )
         6           Mn1 tau(   6) = (   1.9383225   1.2942942  12.5982929  )
         7           Pb1 tau(   7) = (   3.1427736   4.1971072  12.5982929  )
         8           Pb1 tau(   8) = (   5.0810960   1.2942942  12.5982929  )
         9           Mn1 tau(   9) = (   3.8766449   2.5885884  15.1965857  )
        10           Mn1 tau(  10) = (   8.2238696   5.4914014  15.1965857  )
        11           Pb1 tau(  11) = (   7.0194185   2.5885884  15.1965857  )
        12           Pb1 tau(  12) = (   5.0810960   5.4914014  15.1965857  )

     number of k points=    40  Fermi-Dirac smearing, width (Ry)=  0.0110
                       cart. coord. in units 2pi/alat
        k(    1) = (   0.0000000   0.0000000   0.0000000), wk =   0.0277778
        k(    2) = (   0.0000000   0.0287078   0.0000000), wk =   0.0555556
        k(    3) = (   0.0000000   0.0574156   0.0000000), wk =   0.0555556
        k(    4) = (   0.0000000  -0.0861234   0.0000000), wk =   0.0277778
        k(    5) = (   0.0265159  -0.0110021   0.0000000), wk =   0.0555556
        k(    6) = (   0.0265159   0.0177057   0.0000000), wk =   0.0555556
        k(    7) = (   0.0265159   0.0464135   0.0000000), wk =   0.0555556
        k(    8) = (   0.0265159  -0.0971255   0.0000000), wk =   0.0555556
        k(    9) = (   0.0265159  -0.0684177   0.0000000), wk =   0.0555556
        k(   10) = (   0.0265159  -0.0397099   0.0000000), wk =   0.0555556
        k(   11) = (   0.0530317  -0.0220042   0.0000000), wk =   0.0555556
        k(   12) = (   0.0530317   0.0067036   0.0000000), wk =   0.0555556
        k(   13) = (   0.0530317   0.0354114   0.0000000), wk =   0.0555556
        k(   14) = (   0.0530317  -0.1081276   0.0000000), wk =   0.0555556
        k(   15) = (   0.0530317  -0.0794198   0.0000000), wk =   0.0555556
        k(   16) = (   0.0530317  -0.0507120   0.0000000), wk =   0.0555556
        k(   17) = (  -0.0795476   0.0330063   0.0000000), wk =   0.0277778
        k(   18) = (  -0.0795476   0.0617141   0.0000000), wk =   0.0555556
        k(   19) = (  -0.0795476   0.0904219   0.0000000), wk =   0.0555556
        k(   20) = (  -0.0795476  -0.0531170   0.0000000), wk =   0.0277778
        k(   21) = (   0.0000000   0.0000000   0.0000000), wk =   0.0277778
        k(   22) = (   0.0000000   0.0287078   0.0000000), wk =   0.0555556
        k(   23) = (   0.0000000   0.0574156   0.0000000), wk =   0.0555556
        k(   24) = (   0.0000000  -0.0861234   0.0000000), wk =   0.0277778
        k(   25) = (   0.0265159  -0.0110021   0.0000000), wk =   0.0555556
        k(   26) = (   0.0265159   0.0177057   0.0000000), wk =   0.0555556
        k(   27) = (   0.0265159   0.0464135   0.0000000), wk =   0.0555556
        k(   28) = (   0.0265159  -0.0971255   0.0000000), wk =   0.0555556
        k(   29) = (   0.0265159  -0.0684177   0.0000000), wk =   0.0555556
        k(   30) = (   0.0265159  -0.0397099   0.0000000), wk =   0.0555556
        k(   31) = (   0.0530317  -0.0220042   0.0000000), wk =   0.0555556
        k(   32) = (   0.0530317   0.0067036   0.0000000), wk =   0.0555556
        k(   33) = (   0.0530317   0.0354114   0.0000000), wk =   0.0555556
        k(   34) = (   0.0530317  -0.1081276   0.0000000), wk =   0.0555556
        k(   35) = (   0.0530317  -0.0794198   0.0000000), wk =   0.0555556
        k(   36) = (   0.0530317  -0.0507120   0.0000000), wk =   0.0555556
        k(   37) = (  -0.0795476   0.0330063   0.0000000), wk =   0.0277778
        k(   38) = (  -0.0795476   0.0617141   0.0000000), wk =   0.0555556
        k(   39) = (  -0.0795476   0.0904219   0.0000000), wk =   0.0555556
        k(   40) = (  -0.0795476  -0.0531170   0.0000000), wk =   0.0277778

     Largest allocated arrays     est. size (Mb)     dimensions
     Largest temporary arrays     est. size (Mb)     dimensions

     Check: negative/imaginary core charge=   -0.000004    0.000000

     Initial potential from superposition of free atoms
     Check: negative starting charge=(component1):   -0.058748
     Check: negative starting charge=(component2):   -0.044067

     starting charge  170.98538, renormalised to  174.00000

     negative rho (up, down):  5.978E-02 4.484E-02

     *
     * You are using vdW-DF for exchange-correlation in this calculation.
     * Please cite the following three references that made this development
     * possible:
     *
     *   M. Dion, H. Rydberg, E. Schroder, D. C. Langreth, and
     *   B. I. Lundqvist, Phys. Rev. Lett. 92, 246401 (2004).
     *
     *   T. Thonhauser, V. R. Cooper, S. Li, A. Puzder, P. Hyldgaard, and
     *   D. C. Langreth, Phys. Rev. B 76, 125112 (2007).
     *
     *   G. Roman-Perez and J. M. Soler, Phys. Rev. Lett. 103, 096102 (2009).
     *
     *
     * If you are using vdW-DF2, please also cite:
     *
     *   K. Lee, E. D. Murray, L. Kong, B. I. Lundqvist, and
     *   D. C. Langreth, Phys. Rev. B 82, 081101(R) (2010).
     *
     *
     * If you are calculating the stress with vdW-DF, please also cite:
     *
     *   R. Sabatini, E. Kucukbenli, B. Kolb, T. Thonhauser, and
     *   S. de Gironcoli, J. Phys.: Condens. Matter 24, 424209 (2012).
     *

     Carrying out vdW-DF run using the following parameters:

     Nqs =      20    Nr_points =    1024   r_max =   100.000
     q_mesh =
               0.00001000     0.04494208     0.09755937     0.15916263
               0.23128650     0.31572767     0.41458969     0.53033537
               0.66584808     0.82450364     1.01025438     1.22772762
               1.48234092     1.78043706     2.12944203     2.53805004
               3.01644009     3.57652955     4.23227104     5.00000000

     Gradients computed in reciprocal space

     Adding external electric field

     Computed dipole along edir(3) :
        Dipole               -0.0000 Ry au,         -0.0000 Debye
        Dipole field         -0.0000 Ry au

        Potential amp.        0.0000 Ry
        Total length         46.4243 bohr

[...]

     Starting wfc are  132 randomized atomic wfcs

     Self-consistent Calculation

     iteration #  1     ecut=    36.75 Ry     beta=0.10
     Davidson diagonalization with overlap
     ethr =  1.00E-02,  avg # of iterations =  4.1

     Threshold (ethr) on eigenvalues was too large:
     Diagonalizing with lowered threshold

     Davidson diagonalization with overlap
     ethr =  6.24E-04,  avg # of iterations =  5.2

[...]

     Magnetic moment per site:
     atom:    1    charge:    6.0589    magn:    0.8550    constr:    0.0000
     atom:    2    charge:    6.0420    magn:    0.8526    constr:    0.0000
     atom:    3    charge:    1.7668    magn:    0.2288    constr:    0.0000
[...]
                l(3) =   1
                l(4) =   1
                l(5) =   2
                l(6) =   2
     Q(r) pseudized with  8 coefficients,  rinner =    0.950   0.950   0.950
                                                       0.950   0.950

     PseudoPot. # 2 for Pb read from file:
     /afs/slac.stanford.edu/u/if/mamunm/psp/gbrv1.5pbe/Pb.UPF
     MD5 check sum: 3d1c1779aa92214d1e8f3a7db79003e2
     Pseudo is Ultrasoft + core correction, Zval = 14.0
     Generated by new atomic code, or converted to UPF format
     Using radial grid of  899 points,  6 beta functions with:
                l(1) =   0
                l(2) =   0
                l(3) =   1
                l(4) =   1
                l(5) =   2
                l(6) =   2
     Q(r) pseudized with  6 coefficients,  rinner =    1.000   1.000   1.000
                                                       1.000   1.000

     vdW kernel table read from file vdW_kernel_table
     MD5 check sum: 095c7af220d748ca6e76c0b4c6cfb241

     atomic species   valence    mass     pseudopotential
        Mn1           15.00    54.93804     Mn( 1.00)
        Pb1           14.00   207.20000     Pb( 1.00)

     Starting magnetic structure
     atomic species   magnetization
        Mn1          0.133
        Pb1          0.143

     No symmetry found

   Cartesian axes

     site n.     atom                  positions (alat units)
         1           Mn1 tau(   1) = (   0.0000000   0.0000000  10.0000000  )
         2           Mn1 tau(   2) = (   4.3472247   2.9028130  10.0000000  )
         3           Pb1 tau(   3) = (   3.1427736   0.0000000  10.0000000  )
         4           Pb1 tau(   4) = (   1.2044511   2.9028130  10.0000000  )
         5           Mn1 tau(   5) = (   6.2855472   4.1971072  12.5982929  )
         6           Mn1 tau(   6) = (   1.9383225   1.2942942  12.5982929  )
         7           Pb1 tau(   7) = (   3.1427736   4.1971072  12.5982929  )
         8           Pb1 tau(   8) = (   5.0810960   1.2942942  12.5982929  )
         9           Mn1 tau(   9) = (   3.4121601   2.2784627  14.8921288  )
        10           Mn1 tau(  10) = (   7.7604368   5.1819892  14.8938359  )
        11           Pb1 tau(  11) = (   6.6710099   2.3569905  15.3524724  )
        12           Pb1 tau(  12) = (   4.7336512   5.2584628  15.3524687  )

     number of k points=    40  Fermi-Dirac smearing, width (Ry)=  0.0110
                       cart. coord. in units 2pi/alat
        k(    1) = (   0.0000000   0.0000000   0.0000000), wk =   0.0277778
        k(    2) = (   0.0000000   0.0287078   0.0000000), wk =   0.0555556
        k(    3) = (   0.0000000   0.0574156   0.0000000), wk =   0.0555556
        k(    4) = (   0.0000000  -0.0861234   0.0000000), wk =   0.0277778
        k(    5) = (   0.0265159  -0.0110021   0.0000000), wk =   0.0555556
        k(    6) = (   0.0265159   0.0177057   0.0000000), wk =   0.0555556
        k(    7) = (   0.0265159   0.0464135   0.0000000), wk =   0.0555556
        k(    8) = (   0.0265159  -0.0971255   0.0000000), wk =   0.0555556
        k(    9) = (   0.0265159  -0.0684177   0.0000000), wk =   0.0555556
        k(   10) = (   0.0265159  -0.0397099   0.0000000), wk =   0.0555556
        k(   11) = (   0.0530317  -0.0220042   0.0000000), wk =   0.0555556
        k(   12) = (   0.0530317   0.0067036   0.0000000), wk =   0.0555556
        k(   13) = (   0.0530317   0.0354114   0.0000000), wk =   0.0555556
        k(   14) = (   0.0530317  -0.1081276   0.0000000), wk =   0.0555556
        k(   15) = (   0.0530317  -0.0794198   0.0000000), wk =   0.0555556
        k(   16) = (   0.0530317  -0.0507120   0.0000000), wk =   0.0555556
        k(   17) = (  -0.0795476   0.0330063   0.0000000), wk =   0.0277778
        k(   18) = (  -0.0795476   0.0617141   0.0000000), wk =   0.0555556
        k(   19) = (  -0.0795476   0.0904219   0.0000000), wk =   0.0555556
        k(   20) = (  -0.0795476  -0.0531170   0.0000000), wk =   0.0277778
        k(   21) = (   0.0000000   0.0000000   0.0000000), wk =   0.0277778
        k(   22) = (   0.0000000   0.0287078   0.0000000), wk =   0.0555556
        k(   23) = (   0.0000000   0.0574156   0.0000000), wk =   0.0555556
        k(   24) = (   0.0000000  -0.0861234   0.0000000), wk =   0.0277778
        k(   25) = (   0.0265159  -0.0110021   0.0000000), wk =   0.0555556
        k(   26) = (   0.0265159   0.0177057   0.0000000), wk =   0.0555556
        k(   27) = (   0.0265159   0.0464135   0.0000000), wk =   0.0555556
        k(   28) = (   0.0265159  -0.0971255   0.0000000), wk =   0.0555556
        k(   29) = (   0.0265159  -0.0684177   0.0000000), wk =   0.0555556
        k(   30) = (   0.0265159  -0.0397099   0.0000000), wk =   0.0555556
        k(   31) = (   0.0530317  -0.0220042   0.0000000), wk =   0.0555556
        k(   32) = (   0.0530317   0.0067036   0.0000000), wk =   0.0555556
        k(   33) = (   0.0530317   0.0354114   0.0000000), wk =   0.0555556
        k(   34) = (   0.0530317  -0.1081276   0.0000000), wk =   0.0555556
        k(   35) = (   0.0530317  -0.0794198   0.0000000), wk =   0.0555556
        k(   36) = (   0.0530317  -0.0507120   0.0000000), wk =   0.0555556
        k(   37) = (  -0.0795476   0.0330063   0.0000000), wk =   0.0277778
        k(   38) = (  -0.0795476   0.0617141   0.0000000), wk =   0.0555556
        k(   39) = (  -0.0795476   0.0904219   0.0000000), wk =   0.0555556
        k(   40) = (  -0.0795476  -0.0531170   0.0000000), wk =   0.0277778

     Largest allocated arrays     est. size (Mb)     dimensions
     Largest temporary arrays     est. size (Mb)     dimensions

     Check: negative/imaginary core charge=   -0.000004    0.000000

     Initial potential from superposition of free atoms
     Check: negative starting charge=(component1):   -0.058311
     Check: negative starting charge=(component2):   -0.043738

     starting charge  170.98538, renormalised to  174.00000

[...]

     *
     * You are using vdW-DF for exchange-correlation in this calculation.
     * Please cite the following three references that made this development
     * possible:
     *
     *   M. Dion, H. Rydberg, E. Schroder, D. C. Langreth, and
     *   B. I. Lundqvist, Phys. Rev. Lett. 92, 246401 (2004).
     *
     *   T. Thonhauser, V. R. Cooper, S. Li, A. Puzder, P. Hyldgaard, and
     *   D. C. Langreth, Phys. Rev. B 76, 125112 (2007).
     *
     *   G. Roman-Perez and J. M. Soler, Phys. Rev. Lett. 103, 096102 (2009).
     *
     *
     * If you are using vdW-DF2, please also cite:
     *
     *   K. Lee, E. D. Murray, L. Kong, B. I. Lundqvist, and
     *   D. C. Langreth, Phys. Rev. B 82, 081101(R) (2010).
     *
     *
     * If you are calculating the stress with vdW-DF, please also cite:
     *
     *   R. Sabatini, E. Kucukbenli, B. Kolb, T. Thonhauser, and
     *   S. de Gironcoli, J. Phys.: Condens. Matter 24, 424209 (2012).
     *

     Carrying out vdW-DF run using the following parameters:

     Nqs =      20    Nr_points =    1024   r_max =   100.000
     q_mesh =
               0.00001000     0.04494208     0.09755937     0.15916263
               0.23128650     0.31572767     0.41458969     0.53033537
               0.66584808     0.82450364     1.01025438     1.22772762
               1.48234092     1.78043706     2.12944203     2.53805004
               3.01644009     3.57652955     4.23227104     5.00000000

     Gradients computed in reciprocal space

[...]

     Starting wfc are  132 randomized atomic wfcs

     Self-consistent Calculation

[...]

     total energy              =   -2268.55300664 Ry
     Harris-Foulkes estimate   =   -2268.55300520 Ry
     estimated scf accuracy    <       0.00000149 Ry

[...]

     iteration # 23     ecut=    36.75 Ry     beta=0.10
     Davidson diagonalization with overlap
     ethr =  8.55E-10,  avg # of iterations =  3.4

[...]

     negative rho (up, down):  5.450E-02 5.731E-02

[...]

     Adding external electric field

     Computed dipole along edir(3) :
        Dipole                0.0154 Ry au,          0.0393 Debye
        Dipole field          0.0000 Ry au

        Potential amp.       -0.0029 Ry
        Total length         46.4243 bohr

     Magnetic moment per site:
     atom:    1    charge:    6.0243    magn:    1.6311    constr:    0.0000
     atom:    2    charge:    6.0075    magn:    1.6270    constr:    0.0000
     atom:    3    charge:    1.7489    magn:   -0.0029    constr:    0.0000
     atom:    4    charge:    1.7489    magn:   -0.0029    constr:    0.0000
     atom:    5    charge:    6.0289    magn:    1.5541    constr:    0.0000
     atom:    6    charge:    6.0212    magn:    1.5522    constr:    0.0000
     atom:    7    charge:    1.7461    magn:   -0.0012    constr:    0.0000
     atom:    8    charge:    1.7461    magn:   -0.0012    constr:    0.0000
     atom:    9    charge:    6.0232    magn:    1.5825    constr:    0.0000
     atom:   10    charge:    6.0203    magn:    1.5821    constr:    0.0000
     atom:   11    charge:    1.7481    magn:   -0.0031    constr:    0.0000
     atom:   12    charge:    1.7481    magn:   -0.0031    constr:    0.0000

     End of self-consistent calculation

 ------ SPIN UP ------------

[...]

 ------ SPIN DOWN ----------

[...]

          k = 0.0530-0.0507 0.0000 ( 23311 PWs)   bands (ev):

[...]

          k =-0.0795-0.0531 0.0000 ( 23264 PWs)   bands (ev):

   -76.6992 -76.6987 -76.5324 -76.5312 -76.5079 -76.5070 -45.5273 -45.5265
   -45.4950 -45.4941 -45.4718 -45.4620 -45.3703 -45.3689 -45.3345 -45.3339
   -45.3334 -45.3238 -45.3112 -45.3109 -45.3098 -45.3011 -45.2576 -45.2563
   -16.5329 -16.4620 -16.4378 -16.4301 -16.4280 -16.3985 -16.3890 -16.3865
   -16.3580 -16.3460 -16.3391 -16.3284 -16.3184 -16.3016 -16.2988 -16.2754
   -16.2712 -16.2598 -16.2541 -16.2521 -16.2404 -16.2365 -16.2290 -16.2249
   -16.2186 -16.2121 -16.2040 -16.1787 -16.1465 -16.1162  -8.9702  -8.4207
    -7.9702  -7.7594  -6.7738  -5.8119  -3.7993  -3.7060  -3.0458  -2.3742
    -2.1064  -1.6112  -0.9962  -0.7489  -0.4303  -0.2017  -0.0240   0.2193
     0.7525   0.8439   1.0781   1.1455   1.2253   1.2692   1.3038   1.4068
     1.4276   1.5658   1.5730   1.5958   1.6469   1.8744   1.9235   1.9307
     1.9494   2.0047   2.0889   2.1604   2.2421   2.2620   2.3618   2.5442
     2.6243   2.6719   2.7269   2.8037   3.4414   3.5266   3.8657   4.0847
     4.2307   4.3488   4.3843   4.4642   4.7142   5.0428   5.0710   5.2433
     5.4710   5.6350   5.6852   5.7532   5.8709

     the Fermi energy is     0.7849 ev

!    total energy              =   -2268.55298665 Ry
     Harris-Foulkes estimate   =   -2268.55300721 Ry
     estimated scf accuracy    <       0.00000047 Ry

     The total energy is the sum of the following terms:

     one-electron contribution =  -12530.16888533 Ry
     hartree contribution      =    6294.76472863 Ry
     xc contribution           =    -557.89157138 Ry
     ewald contribution        =    4524.79919465 Ry
     electric field correction =       0.00000048 Ry
     smearing contrib. (-TS)   =      -0.05645371 Ry

     total magnetization       =    24.63 Bohr mag/cell
     absolute magnetization    =    26.72 Bohr mag/cell

     convergence has been achieved in  23 iterations

 BEEF-vdW xc energy contributions
           1 :   -494.339581980110
           2 :    454.966556993614
           3 :   -387.659914408437
           4 :    309.509926402533
           5 :   -235.951206323199
           6 :    176.149101579995
           7 :   -132.344814656008
           8 :    101.798123742209
           9 :   -79.4970064978399
          10 :    60.6168044398011
          11 :   -42.3071032490013
          12 :    24.3906052597557
          13 :   -8.70656531364273
          14 :   -2.54430721066751
          15 :    8.43402233656286
          16 :   -9.91862857577053
          17 :    9.17991574455641
          18 :   -8.34346412121897
          19 :    8.49748186371983
          20 :   -9.51264765555891
          21 :    10.5281219249850
          22 :   -10.6610772784602
          23 :    9.54859585539282
          24 :   -7.52439430976892
          25 :    5.40212539472031
          26 :   -4.01154502340944
          27 :    3.75854539976126
          28 :   -4.46131642415037
          29 :    5.51989899313810
          30 :   -6.27276484630261
          31 :   -40.7783733805021
          32 :   -29.4501779723773

     Forces acting on atoms (Ry/au):

     negative rho (up, down):  5.450E-02 5.731E-02
     atom    1 type  1   force =     0.00395330    0.00263943    0.01022090
     atom    2 type  1   force =     0.00394957    0.00263687    0.01024530
     atom    3 type  2   force =    -0.00161444   -0.00111124   -0.00980504
     atom    4 type  2   force =    -0.00164595   -0.00106433   -0.00980691
     atom    5 type  1   force =    -0.00104722   -0.00069879    0.00603067
     atom    6 type  1   force =    -0.00127349   -0.00084957    0.00604290
     atom    7 type  2   force =    -0.00118911   -0.00076742   -0.00648911
     atom    8 type  2   force =    -0.00116531   -0.00080625   -0.00649582
     atom    9 type  1   force =    -0.00033063   -0.00022000   -0.00010607
     atom   10 type  1   force =    -0.00038028   -0.00025503   -0.00025122
     atom   11 type  2   force =     0.00041539    0.00018912    0.00020714
     atom   12 type  2   force =     0.00032818    0.00030721    0.00020726

     Total force =     0.024913     Total SCF correction =     0.002105

     entering subroutine stress ...

     negative rho (up, down):  5.450E-02 5.731E-02
          total   stress  (Ry/bohr**3)                   (kbar)     P=   -9.71
  -0.00009909  -0.00000823  -0.00000366        -14.58     -1.21     -0.54
  -0.00000823  -0.00009226  -0.00000244         -1.21    -13.57     -0.36
  -0.00000366  -0.00000244  -0.00000667         -0.54     -0.36     -0.98

 !ASE

     Writing output data file calc.save

     General routines

     Parallel routines

   This run was terminated on:  20:47: 1  18Dec2018

   JOB DONE.
Job  /afs/slac/g/suncat/bin/suncat-tsmpirun -x LD_LIBRARY_PATH -wdir /scratch/qe530216_7GHxB pw.x -in pw.inp

TID   HOST_NAME   COMMAND_LINE            STATUS            TERMINATION_TIME
00000 suncat2054 pw.x -in pw.inp   Done                     12/18/2018 20:47:01
00001 suncat2054 pw.x -in pw.inp   Done                     12/18/2018 20:47:01
00002 suncat2054 pw.x -in pw.inp   Done                     12/18/2018 20:47:01
00003 suncat2054 pw.x -in pw.inp   Done                     12/18/2018 20:47:01
00004 suncat2054 pw.x -in pw.inp   Done                     12/18/2018 20:47:01
00005 suncat2054 pw.x -in pw.inp   Done                     12/18/2018 20:47:01
00006 suncat2054 pw.x -in pw.inp   Done                     12/18/2018 20:47:01
00007 suncat2054 pw.x -in pw.inp   Done                     12/18/2018 20:47:01
00008 suncat2054 pw.x -in pw.inp   Done                     12/18/2018 20:47:01
00009 suncat2054 pw.x -in pw.inp   Done                     12/18/2018 20:47:01
00010 suncat2054 pw.x -in pw.inp   Done                     12/18/2018 20:47:01
00011 suncat2054 pw.x -in pw.inp   Done                     12/18/2018 20:47:01
00012 suncat2054 pw.x -in pw.inp   Done                     12/18/2018 20:47:01
00013 suncat2054 pw.x -in pw.inp   Done                     12/18/2018 20:47:01
00014 suncat2054 pw.x -in pw.inp   Done                     12/18/2018 20:47:01
00015 suncat2054 pw.x -in pw.inp   Done                     12/18/2018 20:47:01
00016 suncat2053 pw.x -in pw.inp   Done                     12/18/2018 20:47:01
00017 suncat2053 pw.x -in pw.inp   Done                     12/18/2018 20:47:01
00018 suncat2053 pw.x -in pw.inp   Done                     12/18/2018 20:47:01
00019 suncat2053 pw.x -in pw.inp   Done                     12/18/2018 20:47:01
00020 suncat2053 pw.x -in pw.inp   Done                     12/18/2018 20:47:01
00021 suncat2053 pw.x -in pw.inp   Done                     12/18/2018 20:47:01
00022 suncat2053 pw.x -in pw.inp   Done                     12/18/2018 20:47:01
00023 suncat2053 pw.x -in pw.inp   Done                     12/18/2018 20:47:01
00024 suncat2053 pw.x -in pw.inp   Done                     12/18/2018 20:47:01
00025 suncat2053 pw.x -in pw.inp   Done                     12/18/2018 20:47:01
00026 suncat2053 pw.x -in pw.inp   Done                     12/18/2018 20:47:01
00027 suncat2053 pw.x -in pw.inp   Done                     12/18/2018 20:47:01
00028 suncat2053 pw.x -in pw.inp   Done                     12/18/2018 20:47:01
00029 suncat2053 pw.x -in pw.inp   Done                     12/18/2018 20:47:01
00030 suncat2053 pw.x -in pw.inp   Done                     12/18/2018 20:47:01
00031 suncat2053 pw.x -in pw.inp   Done                     12/18/2018 20:47:01