     Program PWSCF v.5.1rc2 (svn rev. 11289) starts on 19Dec2018 at  7:52:19

     Current dimensions of program PWSCF are:
     Max number of different atomic species (ntypx) = 10
     Max number of k-points (npk) =  40000
     Max angular momentum in pseudopotentials (lmaxx) =  3
     Presently stress not available with electric field

     IMPORTANT: XC functional enforced from input :
     Exchange-correlation      = BEEF-VDW ( 1  4 27 13 2)
     Any further DFT definition will be discarded
     Please, verify this is what you really want

     Subspace diagonalization in iterative solution of the eigenvalue problem:
     a serial algorithm will be used

     Found symmetry operation: I + ( -0.5000  0.5000  0.0000)
     This is a supercell, fractional translations are disabled

     bravais-lattice index     =            0
     lattice parameter (alat)  =       1.8897  a.u.
     unit-cell volume          =    4500.4963 (a.u.)^3
     number of atoms/cell      =           12
     number of atomic types    =            2
     number of electrons       =       228.00
     number of Kohn-Sham states=          144
     kinetic-energy cutoff     =      36.7493  Ry
     charge density cutoff     =     367.4932  Ry
     convergence threshold     =      1.0E-06
     mixing beta               =       0.1000
     number of iterations used =           10  plain     mixing
     Exchange-correlation      = BEEF-VDW ( 1  4 27 13 2)
     nstep                     =           50

     celldm(1)=   1.889726  celldm(2)=   0.000000  celldm(3)=   0.000000
     celldm(4)=   0.000000  celldm(5)=   0.000000  celldm(6)=   0.000000

     crystal axes: (cart. coord. in units of alat)
               a(1) = (   5.542170   0.000000   0.000000 )
               a(2) = (   2.592308   4.898529   0.000000 )
               a(3) = (   0.000000   0.000000  24.565088 )

     reciprocal axes: (cart. coord. in units 2 pi/alat)
               b(1) = (  0.180435 -0.095486  0.000000 )
               b(2) = (  0.000000  0.204143  0.000000 )
               b(3) = (  0.000000  0.000000  0.040708 )

     PseudoPot. # 1 for Cu read from file:
     /afs/slac.stanford.edu/u/if/mamunm/psp/gbrv1.5pbe/Cu.UPF
     MD5 check sum: 6e991ff952a84172a2a52a1c1e996048
     Pseudo is Ultrasoft + core correction, Zval = 19.0
     Generated by new atomic code, or converted to UPF format
     Using radial grid of  867 points,  6 beta functions with:
                l(1) =   0
                l(2) =   0
                l(3) =   1
                l(4) =   1
                l(5) =   2
                l(6) =   2
     Q(r) pseudized with  8 coefficients,  rinner =    1.150   1.150   1.150
                                                       1.150   1.150

     PseudoPot. # 2 for Ag read from file:
     /afs/slac.stanford.edu/u/if/mamunm/psp/gbrv1.5pbe/Ag.UPF
     MD5 check sum: d66d668201baa78d5eb5b04ef7011058
     Pseudo is Ultrasoft + core correction, Zval = 19.0
     Generated by new atomic code, or converted to UPF format
     Using radial grid of  887 points,  6 beta functions with:
                l(1) =   0
                l(2) =   0
                l(3) =   1
                l(4) =   1
                l(5) =   2
                l(6) =   2
     Q(r) pseudized with  6 coefficients,  rinner =    1.300   1.300   1.300
                                                       1.300   1.300

     vdW kernel table read from file vdW_kernel_table
     MD5 check sum: 095c7af220d748ca6e76c0b4c6cfb241

     atomic species   valence    mass     pseudopotential
        Cu1           19.00    63.54600     Cu( 1.00)
        Ag1           19.00   107.86820     Ag( 1.00)

     No symmetry found

   Cartesian axes

     site n.     atom                  positions (alat units)
         1           Cu1 tau(   1) = (   0.0000000   0.0000000  10.0000000  )
         2           Cu1 tau(   2) = (   4.0672389   2.4492644  10.0000000  )
         3           Ag1 tau(   3) = (   2.7710849   0.0000000  10.0000000  )
         4           Ag1 tau(   4) = (   1.2961541   2.4492644  10.0000000  )
         5           Cu1 tau(   5) = (   5.5421697   3.3374579  12.2825442  )
         6           Cu1 tau(   6) = (   1.4749308   0.8881936  12.2825442  )
         7           Ag1 tau(   7) = (   2.7710849   3.3374579  12.2825442  )
         8           Ag1 tau(   8) = (   4.2460157   0.8881936  12.2825442  )
         9           Cu1 tau(   9) = (   2.9498616   1.7763872  14.5650884  )
        10           Cu1 tau(  10) = (   7.0171005   4.2256515  14.5650884  )
        11           Ag1 tau(  11) = (   5.7209465   1.7763872  14.5650884  )
        12           Ag1 tau(  12) = (   4.2460157   4.2256515  14.5650884  )

     number of k points=    20  Fermi-Dirac smearing, width (Ry)=  0.0110
                       cart. coord. in units 2pi/alat
        k(    1) = (   0.0000000   0.0000000   0.0000000), wk =   0.0555556
        k(    2) = (   0.0000000   0.0340238   0.0000000), wk =   0.1111111
        k(    3) = (   0.0000000   0.0680476   0.0000000), wk =   0.1111111
        k(    4) = (   0.0000000  -0.1020715   0.0000000), wk =   0.0555556
        k(    5) = (   0.0300725  -0.0159144   0.0000000), wk =   0.1111111
        k(    6) = (   0.0300725   0.0181094   0.0000000), wk =   0.1111111
        k(    7) = (   0.0300725   0.0521333   0.0000000), wk =   0.1111111
        k(    8) = (   0.0300725  -0.1179859   0.0000000), wk =   0.1111111
        k(    9) = (   0.0300725  -0.0839620   0.0000000), wk =   0.1111111
        k(   10) = (   0.0300725  -0.0499382   0.0000000), wk =   0.1111111
        k(   11) = (   0.0601449  -0.0318288   0.0000000), wk =   0.1111111
        k(   12) = (   0.0601449   0.0021950   0.0000000), wk =   0.1111111
        k(   13) = (   0.0601449   0.0362189   0.0000000), wk =   0.1111111
        k(   14) = (   0.0601449  -0.1339002   0.0000000), wk =   0.1111111
        k(   15) = (   0.0601449  -0.0998764   0.0000000), wk =   0.1111111
        k(   16) = (   0.0601449  -0.0658526   0.0000000), wk =   0.1111111
        k(   17) = (  -0.0902174   0.0477432   0.0000000), wk =   0.0555556
        k(   18) = (  -0.0902174   0.0817670   0.0000000), wk =   0.1111111
        k(   19) = (  -0.0902174   0.1157908   0.0000000), wk =   0.1111111
        k(   20) = (  -0.0902174  -0.0543283   0.0000000), wk =   0.0555556

     Largest allocated arrays     est. size (Mb)     dimensions
     Largest temporary arrays     est. size (Mb)     dimensions

     Initial potential from superposition of free atoms
     Check: negative starting charge=   -0.001629

     starting charge  218.99970, renormalised to  228.00000

     negative rho (up, down):  1.696E-03 0.000E+00

     *
     * You are using vdW-DF for exchange-correlation in this calculation.
     * Please cite the following three references that made this development
     * possible:
     *
     *   M. Dion, H. Rydberg, E. Schroder, D. C. Langreth, and
     *   B. I. Lundqvist, Phys. Rev. Lett. 92, 246401 (2004).
     *
     *   T. Thonhauser, V. R. Cooper, S. Li, A. Puzder, P. Hyldgaard, and
     *   D. C. Langreth, Phys. Rev. B 76, 125112 (2007).
     *
     *   G. Roman-Perez and J. M. Soler, Phys. Rev. Lett. 103, 096102 (2009).
     *
     *
     * If you are using vdW-DF2, please also cite:
     *
     *   K. Lee, E. D. Murray, L. Kong, B. I. Lundqvist, and
     *   D. C. Langreth, Phys. Rev. B 82, 081101(R) (2010).
     *
     *
     * If you are calculating the stress with vdW-DF, please also cite:
     *
     *   R. Sabatini, E. Kucukbenli, B. Kolb, T. Thonhauser, and
     *   S. de Gironcoli, J. Phys.: Condens. Matter 24, 424209 (2012).
     *

     Carrying out vdW-DF run using the following parameters:

     Nqs =      20    Nr_points =    1024   r_max =   100.000
     q_mesh =
               0.00001000     0.04494208     0.09755937     0.15916263
               0.23128650     0.31572767     0.41458969     0.53033537
               0.66584808     0.82450364     1.01025438     1.22772762
               1.48234092     1.78043706     2.12944203     2.53805004
               3.01644009     3.57652955     4.23227104     5.00000000

     Gradients computed in reciprocal space

     Adding external electric field

     Computed dipole along edir(3) :
        Dipole                0.0000 Ry au,          0.0000 Debye
        Dipole field          0.0000 Ry au

        Potential amp.       -0.0000 Ry
        Total length         45.2608 bohr

     Starting wfc are  156 randomized atomic wfcs

     Self-consistent Calculation

     iteration #  1     ecut=    36.75 Ry     beta=0.10
     Davidson diagonalization with overlap
     ethr =  1.00E-02,  avg # of iterations =  7.0

[...]

     total energy              =   -4207.74953834 Ry
     Harris-Foulkes estimate   =   -4216.65472012 Ry
     estimated scf accuracy    <      51.37084775 Ry

[...]

     End of self-consistent calculation

          k = 0.0000 0.0000 0.0000 ( 16927 PWs)   bands (ev):

  -111.4187-111.4178-111.1718-111.1714-111.1710-111.1706 -91.4748 -91.4682
   -91.2036 -91.2035 -91.1970 -91.1969 -68.8411 -68.8399 -68.8272 -68.8241
   -68.8229 -68.8130 -68.6046 -68.6042 -68.6035 -68.6031 -68.5916 -68.5912
   -68.5775 -68.5771 -68.5582 -68.5578 -68.5571 -68.5567 -55.0157 -54.9730
   -54.9649 -54.9551 -54.9469 -54.9219 -54.7494 -54.7493 -54.7050 -54.7033
   -54.6969 -54.6952 -54.6691 -54.6668 -54.6610 -54.6587 -54.6557 -54.6556
    -6.4497  -5.1957  -5.0822  -5.0810  -5.0761  -4.9543  -4.6618  -4.6461
    -4.6193  -4.4947  -4.4075  -4.3700  -4.3288  -4.1068  -3.9980  -3.7355
    -3.7305  -3.7271  -3.5006  -3.4662  -3.4171  -3.4119  -3.3654  -3.2960
    -3.2516  -3.1609  -3.1239  -3.1204  -3.0781  -2.8558  -2.7446  -2.2710
    -1.9036  -1.8199  -1.7229  -1.6844  -1.6463  -1.5714  -1.4887  -1.4656
    -1.4368  -1.4124  -1.3998  -1.3190  -1.1843  -1.1816  -1.1815  -1.1415
    -1.1304  -1.0472  -1.0172  -1.0094  -1.0005  -0.9972  -0.9803  -0.9244
    -0.8803  -0.8714  -0.7879  -0.7788  -0.7257  -0.7038  -0.4797   1.1131
     1.1572   1.1660   1.2647   1.8587   1.9524   2.2186   2.2441   2.4002
     3.0540   4.4293   4.4776   4.8932   4.9398   5.0087   5.2855   5.3267
     5.8828   6.0031   6.1554   6.3223   6.6664   6.7265   6.8231   8.5215
     8.5628   8.8210   8.8304   8.9290   9.0874   9.1888   9.9133  10.2459

[...]

          k =-0.0902 0.0477 0.0000 ( 16922 PWs)   bands (ev):

[...]

     the Fermi energy is     0.8017 ev

!    total energy              =   -4209.42044070 Ry
     Harris-Foulkes estimate   =   -4209.42043354 Ry
     estimated scf accuracy    <       0.00000094 Ry

     The total energy is the sum of the following terms:

     one-electron contribution =  -30564.27481013 Ry
     hartree contribution      =   15285.23424442 Ry
     xc contribution           =    -420.54429834 Ry
     ewald contribution        =   11490.19051196 Ry
     electric field correction =       0.00000000 Ry
     smearing contrib. (-TS)   =      -0.02608861 Ry

     convergence has been achieved in  16 iterations

 BEEF-vdW xc energy contributions
           1 :   -369.260149904131
           2 :    334.639094195536
           3 :   -276.355560474793
[...]

[...]

   This run was terminated on:   8:24:27  19Dec2018

[...]

     Program PWSCF v.5.1rc2 (svn rev. 11289) starts on 19Dec2018 at  8:58:26

     Current dimensions of program PWSCF are:
     Max number of different atomic species (ntypx) = 10
     Max number of k-points (npk) =  40000
     Max angular momentum in pseudopotentials (lmaxx) =  3
     Presently stress not available with electric field

     IMPORTANT: XC functional enforced from input :
     Exchange-correlation      = BEEF-VDW ( 1  4 27 13 2)
     Any further DFT definition will be discarded
     Please, verify this is what you really want

     Subspace diagonalization in iterative solution of the eigenvalue problem:
     a serial algorithm will be used

     Found symmetry operation: I + ( -0.5000  0.5000  0.0000)
     This is a supercell, fractional translations are disabled

     bravais-lattice index     =            0
     lattice parameter (alat)  =       1.8897  a.u.
     unit-cell volume          =    4500.4963 (a.u.)^3
     number of atoms/cell      =           12
     number of atomic types    =            2
     number of electrons       =       228.00
     number of Kohn-Sham states=          144
     kinetic-energy cutoff     =      36.7493  Ry
     charge density cutoff     =     367.4932  Ry
     convergence threshold     =      1.0E-06
     mixing beta               =       0.1000
     number of iterations used =           10  plain     mixing
     Exchange-correlation      = BEEF-VDW ( 1  4 27 13 2)
     nstep                     =           50

     celldm(1)=   1.889726  celldm(2)=   0.000000  celldm(3)=   0.000000
     celldm(4)=   0.000000  celldm(5)=   0.000000  celldm(6)=   0.000000

     crystal axes: (cart. coord. in units of alat)
               a(1) = (   5.542170   0.000000   0.000000 )
               a(2) = (   2.592308   4.898529   0.000000 )
               a(3) = (   0.000000   0.000000  24.565088 )

     reciprocal axes: (cart. coord. in units 2 pi/alat)
               b(1) = (  0.180435 -0.095486  0.000000 )
               b(2) = (  0.000000  0.204143  0.000000 )
               b(3) = (  0.000000  0.000000  0.040708 )

     PseudoPot. # 1 for Cu read from file:
     /afs/slac.stanford.edu/u/if/mamunm/psp/gbrv1.5pbe/Cu.UPF
     MD5 check sum: 6e991ff952a84172a2a52a1c1e996048
     Pseudo is Ultrasoft + core correction, Zval = 19.0
     Generated by new atomic code, or converted to UPF format
     Using radial grid of  867 points,  6 beta functions with:
                l(1) =   0
                l(2) =   0
                l(3) =   1
                l(4) =   1
                l(5) =   2
                l(6) =   2
     Q(r) pseudized with  8 coefficients,  rinner =    1.150   1.150   1.150
                                                       1.150   1.150

     PseudoPot. # 2 for Ag read from file:
     /afs/slac.stanford.edu/u/if/mamunm/psp/gbrv1.5pbe/Ag.UPF
     MD5 check sum: d66d668201baa78d5eb5b04ef7011058
     Pseudo is Ultrasoft + core correction, Zval = 19.0
     Generated by new atomic code, or converted to UPF format
     Using radial grid of  887 points,  6 beta functions with:
                l(1) =   0
                l(2) =   0
                l(3) =   1
                l(4) =   1
                l(5) =   2
                l(6) =   2
     Q(r) pseudized with  6 coefficients,  rinner =    1.300   1.300   1.300
                                                       1.300   1.300

     vdW kernel table read from file vdW_kernel_table
     MD5 check sum: 095c7af220d748ca6e76c0b4c6cfb241

     atomic species   valence    mass     pseudopotential
        Cu1           19.00    63.54600     Cu( 1.00)
        Ag1           19.00   107.86820     Ag( 1.00)

     No symmetry found

   Cartesian axes

     site n.     atom                  positions (alat units)
         1           Cu1 tau(   1) = (   0.0000000   0.0000000  10.0000000  )
         2           Cu1 tau(   2) = (   4.0672389   2.4492644  10.0000000  )
         3           Ag1 tau(   3) = (   2.7710849   0.0000000  10.0000000  )
         4           Ag1 tau(   4) = (   1.2961541   2.4492644  10.0000000  )
         5           Cu1 tau(   5) = (   5.5421697   3.3374579  12.2825442  )
         6           Cu1 tau(   6) = (   1.4749308   0.8881936  12.2825442  )
         7           Ag1 tau(   7) = (   2.7710849   3.3374579  12.2825442  )
         8           Ag1 tau(   8) = (   4.2460157   0.8881936  12.2825442  )
         9           Cu1 tau(   9) = (   2.9284373   1.7634963  14.4776698  )
        10           Cu1 tau(  10) = (   6.9956757   4.2127554  14.4776793  )
        11           Ag1 tau(  11) = (   5.7363985   1.7856903  14.6230551  )
        12           Ag1 tau(  12) = (   4.2614660   4.2349588  14.6230557  )

     number of k points=    20  Fermi-Dirac smearing, width (Ry)=  0.0110
                       cart. coord. in units 2pi/alat
        k(    1) = (   0.0000000   0.0000000   0.0000000), wk =   0.0555556
        k(    2) = (   0.0000000   0.0340238   0.0000000), wk =   0.1111111
        k(    3) = (   0.0000000   0.0680476   0.0000000), wk =   0.1111111
        k(    4) = (   0.0000000  -0.1020715   0.0000000), wk =   0.0555556
        k(    5) = (   0.0300725  -0.0159144   0.0000000), wk =   0.1111111
        k(    6) = (   0.0300725   0.0181094   0.0000000), wk =   0.1111111
        k(    7) = (   0.0300725   0.0521333   0.0000000), wk =   0.1111111
        k(    8) = (   0.0300725  -0.1179859   0.0000000), wk =   0.1111111
        k(    9) = (   0.0300725  -0.0839620   0.0000000), wk =   0.1111111
        k(   10) = (   0.0300725  -0.0499382   0.0000000), wk =   0.1111111
        k(   11) = (   0.0601449  -0.0318288   0.0000000), wk =   0.1111111
        k(   12) = (   0.0601449   0.0021950   0.0000000), wk =   0.1111111
        k(   13) = (   0.0601449   0.0362189   0.0000000), wk =   0.1111111
        k(   14) = (   0.0601449  -0.1339002   0.0000000), wk =   0.1111111
        k(   15) = (   0.0601449  -0.0998764   0.0000000), wk =   0.1111111
        k(   16) = (   0.0601449  -0.0658526   0.0000000), wk =   0.1111111
        k(   17) = (  -0.0902174   0.0477432   0.0000000), wk =   0.0555556
        k(   18) = (  -0.0902174   0.0817670   0.0000000), wk =   0.1111111
        k(   19) = (  -0.0902174   0.1157908   0.0000000), wk =   0.1111111
        k(   20) = (  -0.0902174  -0.0543283   0.0000000), wk =   0.0555556

     Largest allocated arrays     est. size (Mb)     dimensions
     Largest temporary arrays     est. size (Mb)     dimensions

     Initial potential from superposition of free atoms
     Check: negative starting charge=   -0.001624

     starting charge  218.99970, renormalised to  228.00000

[...]

     *
     * You are using vdW-DF for exchange-correlation in this calculation.
     * Please cite the following three references that made this development
     * possible:
     *
     *   M. Dion, H. Rydberg, E. Schroder, D. C. Langreth, and
     *   B. I. Lundqvist, Phys. Rev. Lett. 92, 246401 (2004).
     *
     *   T. Thonhauser, V. R. Cooper, S. Li, A. Puzder, P. Hyldgaard, and
     *   D. C. Langreth, Phys. Rev. B 76, 125112 (2007).
     *
     *   G. Roman-Perez and J. M. Soler, Phys. Rev. Lett. 103, 096102 (2009).
     *
     *
     * If you are using vdW-DF2, please also cite:
     *
     *   K. Lee, E. D. Murray, L. Kong, B. I. Lundqvist, and
     *   D. C. Langreth, Phys. Rev. B 82, 081101(R) (2010).
     *
     *
     * If you are calculating the stress with vdW-DF, please also cite:
     *
     *   R. Sabatini, E. Kucukbenli, B. Kolb, T. Thonhauser, and
     *   S. de Gironcoli, J. Phys.: Condens. Matter 24, 424209 (2012).
     *

     Carrying out vdW-DF run using the following parameters:

     Nqs =      20    Nr_points =    1024   r_max =   100.000
     q_mesh =
               0.00001000     0.04494208     0.09755937     0.15916263
               0.23128650     0.31572767     0.41458969     0.53033537
               0.66584808     0.82450364     1.01025438     1.22772762
               1.48234092     1.78043706     2.12944203     2.53805004
               3.01644009     3.57652955     4.23227104     5.00000000

     Gradients computed in reciprocal space

[...]

     Starting wfc are  156 randomized atomic wfcs

     Self-consistent Calculation

[...]

     total energy              =   -4209.42287972 Ry
     Harris-Foulkes estimate   =   -4209.42287886 Ry
     estimated scf accuracy    <       0.00000147 Ry

     iteration # 18     ecut=    36.75 Ry     beta=0.10
     Davidson diagonalization with overlap
     ethr =  6.45E-10,  avg # of iterations =  2.9

[...]

     negative rho (up, down):  1.707E-03 0.000E+00

     Adding external electric field

     Computed dipole along edir(3) :
        Dipole                0.0041 Ry au,          0.0104 Debye
        Dipole field          0.0000 Ry au

        Potential amp.       -0.0010 Ry
        Total length         45.2608 bohr

     End of self-consistent calculation

[...]

          k = 0.0601-0.0659 0.0000 ( 16904 PWs)   bands (ev):

[...]

          k =-0.0902-0.0543 0.0000 ( 16976 PWs)   bands (ev):

  -111.4127-111.4118-111.2172-111.2163-111.1691-111.1682 -91.4867 -91.4801
   -91.1958 -91.1893 -91.1567 -91.1501 -68.8350 -68.8339 -68.8199 -68.8187
   -68.8176 -68.8058 -68.6460 -68.6449 -68.6329 -68.6189 -68.6095 -68.6084
   -68.6012 -68.6001 -68.5883 -68.5742 -68.5563 -68.5552 -55.0279 -54.9783
   -54.9723 -54.9699 -54.9639 -54.9336 -54.7423 -54.7063 -54.6970 -54.6887
   -54.6607 -54.6593 -54.6524 -54.6511 -54.6483 -54.6178 -54.6123 -54.6096
    -5.2449  -4.9620  -4.9112  -4.7270  -4.6710  -4.6294  -4.4817  -4.4539
    -4.3932  -4.2694  -4.2062  -4.1877  -4.1407  -4.0767  -3.9486  -3.7795
    -3.6543  -3.6032  -3.4364  -3.4123  -3.4039  -3.3725  -3.2783  -3.2067
    -3.1315  -3.1012  -2.9710  -2.9628  -2.9506  -2.8858  -2.8743  -2.6916
    -2.3506  -2.2838  -2.0716  -2.0112  -1.9726  -1.9303  -1.8106  -1.7694
    -1.7691  -1.6981  -1.6729  -1.6528  -1.5677  -1.5635  -1.4818  -1.4273
    -1.3792  -1.3559  -1.3530  -1.3226  -1.2395  -1.1857  -1.1518  -1.1286
    -1.1137  -1.0992  -1.0755  -0.9661  -0.8795  -0.8732  -0.8415  -0.7770
     0.3757   0.6181   1.0717   1.2127   1.5904   1.9004   3.6624   3.7543
     3.8163   4.2220   5.9837   6.0380   6.6539   6.6559   6.6920   6.8355
     6.8748   6.9299   6.9468   7.3927   7.4651   7.6376   7.9454   7.9875
     8.2623   8.3731   8.6929   8.7559   8.8292   8.8843   9.1742   9.5469

     the Fermi energy is     0.8041 ev

!    total energy              =   -4209.42288464 Ry
     Harris-Foulkes estimate   =   -4209.42288001 Ry
     estimated scf accuracy    <       0.00000044 Ry

     The total energy is the sum of the following terms:

     one-electron contribution =  -30621.32149098 Ry
     hartree contribution      =   15313.77059632 Ry
     xc contribution           =    -420.55111171 Ry
     ewald contribution        =   11518.70527915 Ry
     electric field correction =       0.00000005 Ry
     smearing contrib. (-TS)   =      -0.02615746 Ry

     convergence has been achieved in  18 iterations

 BEEF-vdW xc energy contributions
           1 :   -369.267398689274
           2 :    334.650509609673
           3 :   -276.372478087504
           4 :    211.136764306211
           5 :   -154.141096912731
           6 :    113.563539318669
           7 :   -89.1969526244835
           8 :    75.1657117089869
           9 :   -64.5874573809310
          10 :    53.3746551679378
          11 :   -41.3707944480878
          12 :    30.8574785313316
          13 :   -23.9910997865724
          14 :    21.0247898013051
          15 :   -20.2863105123711
          16 :    19.5410083502184
          17 :   -17.5303839163757
          18 :    14.5785681429488
          19 :   -11.9950741869457
          20 :    10.8792740884588
          21 :   -11.2642176283169
          22 :    12.1606574824796
          23 :   -12.3551162808539
          24 :    11.2990572522958
          25 :   -9.44327671621323
          26 :    7.83250668226884
          27 :   -7.31604005755815
          28 :    7.96155752217589
          29 :   -9.06559127667225
          30 :    9.70100034251300
          31 :   -32.4682453922728
          32 :   -22.8612441298886

     Forces acting on atoms (Ry/au):

     negative rho (up, down):  1.707E-03 0.000E+00
     atom    1 type  1   force =     0.00494861    0.00298045    0.00766248
     atom    2 type  1   force =     0.00494838    0.00298077    0.00766145
     atom    3 type  2   force =    -0.00541420   -0.00326022   -0.00627373
     atom    4 type  2   force =    -0.00541391   -0.00326063   -0.00627375
     atom    5 type  1   force =    -0.00131193   -0.00078981    0.00300753
     atom    6 type  1   force =    -0.00131088   -0.00078976    0.00300659
     atom    7 type  2   force =     0.00405850    0.00244441   -0.00349793
     atom    8 type  2   force =     0.00405855    0.00244404   -0.00349789
     atom    9 type  1   force =    -0.00141145   -0.00085118    0.00006606
     atom   10 type  1   force =    -0.00141197   -0.00085100    0.00006484
     atom   11 type  2   force =    -0.00087020   -0.00052297   -0.00096278
     atom   12 type  2   force =    -0.00086950   -0.00052411   -0.00096287

     Total force =     0.021077     Total SCF correction =     0.002433
     SCF correction compared to forces is large: reduce conv_thr to get better values

     entering subroutine stress ...

     negative rho (up, down):  1.707E-03 0.000E+00
          total   stress  (Ry/bohr**3)                   (kbar)     P=  -10.06
  -0.00008608  -0.00000478  -0.00000405        -12.66     -0.70     -0.60
  -0.00000478  -0.00008102  -0.00000244         -0.70    -11.92     -0.36
  -0.00000405  -0.00000244  -0.00003806         -0.60     -0.36     -5.60

 !ASE

     Writing output data file calc.save

     General routines

     Parallel routines

   This run was terminated on:   9:16:20  19Dec2018

   JOB DONE.
Job  /afs/slac/g/suncat/bin/suncat-tsmpirun -x LD_LIBRARY_PATH -wdir /scratch/qe529780_skVD2 pw.x -in pw.inp

TID   HOST_NAME   COMMAND_LINE            STATUS            TERMINATION_TIME
00000 suncat0266 pw.x -in pw.inp   Done                     12/19/2018 09:16:20
00001 suncat0266 pw.x -in pw.inp   Done                     12/19/2018 09:16:20
00002 suncat0266 pw.x -in pw.inp   Done                     12/19/2018 09:16:20
00003 suncat0266 pw.x -in pw.inp   Done                     12/19/2018 09:16:20
00004 suncat0266 pw.x -in pw.inp   Done                     12/19/2018 09:16:20
00005 suncat0266 pw.x -in pw.inp   Done                     12/19/2018 09:16:20
00006 suncat0266 pw.x -in pw.inp   Done                     12/19/2018 09:16:20
00007 suncat0266 pw.x -in pw.inp   Done                     12/19/2018 09:16:20
00008 suncat0264 pw.x -in pw.inp   Done                     12/19/2018 09:16:20
00009 suncat0264 pw.x -in pw.inp   Done                     12/19/2018 09:16:20
00010 suncat0264 pw.x -in pw.inp   Done                     12/19/2018 09:16:20
00011 suncat0264 pw.x -in pw.inp   Done                     12/19/2018 09:16:20
00012 suncat0264 pw.x -in pw.inp   Done                     12/19/2018 09:16:20
00013 suncat0264 pw.x -in pw.inp   Done                     12/19/2018 09:16:20
00014 suncat0264 pw.x -in pw.inp   Done                     12/19/2018 09:16:20
00015 suncat0264 pw.x -in pw.inp   Done                     12/19/2018 09:16:20
00016 suncat0262 pw.x -in pw.inp   Done                     12/19/2018 09:16:20
00017 suncat0262 pw.x -in pw.inp   Done                     12/19/2018 09:16:20
00018 suncat0262 pw.x -in pw.inp   Done                     12/19/2018 09:16:20
00019 suncat0262 pw.x -in pw.inp   Done                     12/19/2018 09:16:20
00020 suncat0262 pw.x -in pw.inp   Done                     12/19/2018 09:16:20
00021 suncat0262 pw.x -in pw.inp   Done                     12/19/2018 09:16:20
00022 suncat0262 pw.x -in pw.inp   Done                     12/19/2018 09:16:20
00023 suncat0262 pw.x -in pw.inp   Done                     12/19/2018 09:16:20
00024 suncat0254 pw.x -in pw.inp   Done                     12/19/2018 09:16:20
00025 suncat0254 pw.x -in pw.inp   Done                     12/19/2018 09:16:20
00026 suncat0254 pw.x -in pw.inp   Done                     12/19/2018 09:16:20
00027 suncat0254 pw.x -in pw.inp   Done                     12/19/2018 09:16:20
00028 suncat0254 pw.x -in pw.inp   Done                     12/19/2018 09:16:20
00029 suncat0254 pw.x -in pw.inp   Done                     12/19/2018 09:16:20
00030 suncat0254 pw.x -in pw.inp   Done                     12/19/2018 09:16:20
00031 suncat0254 pw.x -in pw.inp   Done                     12/19/2018 09:16:20