     Program PWSCF v.5.1rc2 (svn rev. 11289) starts on 19Dec2018 at  7:55:48

     Current dimensions of program PWSCF are:
     Max number of different atomic species (ntypx) = 10
     Max number of k-points (npk) =  40000
     Max angular momentum in pseudopotentials (lmaxx) =  3
     Presently stress not available with electric field

     IMPORTANT: XC functional enforced from input :
     Exchange-correlation      = BEEF-VDW ( 1  4 27 13 2)
     Any further DFT definition will be discarded
     Please, verify this is what you really want

     Subspace diagonalization in iterative solution of the eigenvalue problem:
     a serial algorithm will be used

     Found symmetry operation: I + (  0.5000 -0.5000  0.0000)
     This is a supercell, fractional translations are disabled

     bravais-lattice index     =            0
     lattice parameter (alat)  =       1.8897  a.u.
     unit-cell volume          =    4872.0139 (a.u.)^3
     number of atoms/cell      =           12
     number of atomic types    =            2
     number of electrons       =       186.00
     number of Kohn-Sham states=          123
     kinetic-energy cutoff     =      36.7493  Ry
     charge density cutoff     =     367.4932  Ry
     convergence threshold     =      1.0E-06
     mixing beta               =       0.1000
     number of iterations used =           10  plain     mixing
     Exchange-correlation      = BEEF-VDW ( 1  4 27 13 2)
     nstep                     =           50

     celldm(1)=   1.889726  celldm(2)=   0.000000  celldm(3)=   0.000000
     celldm(4)=   0.000000  celldm(5)=   0.000000  celldm(6)=   0.000000

     crystal axes: (cart. coord. in units of alat)
               a(1) = (   5.602999   0.000000   0.000000 )
               a(2) = (   1.993727   5.236282   0.000000 )
               a(3) = (   0.000000   0.000000  24.607546 )

     reciprocal axes: (cart. coord. in units 2 pi/alat)
               b(1) = (  0.178476 -0.067955  0.000000 )
               b(2) = (  0.000000  0.190975  0.000000 )
               b(3) = (  0.000000  0.000000  0.040638 )

     PseudoPot. # 1 for Cu read from file:
     /afs/slac.stanford.edu/u/if/mamunm/psp/gbrv1.5pbe/Cu.UPF
     MD5 check sum: 6e991ff952a84172a2a52a1c1e996048
     Pseudo is Ultrasoft + core correction, Zval = 19.0
     Generated by new atomic code, or converted to UPF format
     Using radial grid of  867 points,  6 beta functions with:
                l(1) =   0
                l(2) =   0
                l(3) =   1
                l(4) =   1
                l(5) =   2
                l(6) =   2
     Q(r) pseudized with  8 coefficients,  rinner =    1.150   1.150   1.150
                                                       1.150   1.150

     PseudoPot. # 2 for Cd read from file:
     /afs/slac.stanford.edu/u/if/mamunm/psp/gbrv1.5pbe/Cd.UPF
     MD5 check sum: 17164a7926edb8e0dc231208abae86a6
     Pseudo is Ultrasoft + core correction, Zval = 12.0
     Generated by new atomic code, or converted to UPF format
     Using radial grid of  889 points,  6 beta functions with:
                l(1) =   0
                l(2) =   0
                l(3) =   1
                l(4) =   1
                l(5) =   2
                l(6) =   2
     Q(r) pseudized with  6 coefficients,  rinner =    1.000   1.000   1.000
                                                       1.000   1.000

     vdW kernel table read from file vdW_kernel_table
     MD5 check sum: 095c7af220d748ca6e76c0b4c6cfb241

     atomic species   valence    mass     pseudopotential
        Cu1           19.00    63.54600     Cu( 1.00)
        Cd1           12.00   112.41400     Cd( 1.00)

     No symmetry found

   Cartesian axes

     site n.     atom                  positions (alat units)
         1           Cu1 tau(   1) = (   0.0000000   0.0000000  10.0000000  )
         2           Cu1 tau(   2) = (   3.7983629   2.6181412  10.0000000  )
         3           Cd1 tau(   3) = (   2.8014996   0.0000000  10.0000000  )
         4           Cd1 tau(   4) = (   0.9968633   2.6181412  10.0000000  )
         5           Cu1 tau(   5) = (   5.6029991   3.8620435  12.3037730  )
         6           Cu1 tau(   6) = (   1.8046362   1.2439023  12.3037730  )
         7           Cd1 tau(   7) = (   2.8014996   3.8620435  12.3037730  )
         8           Cd1 tau(   8) = (   4.6061358   1.2439023  12.3037730  )
         9           Cu1 tau(   9) = (   3.6092724   2.4878046  14.6075461  )
        10           Cu1 tau(  10) = (   7.4076353   5.1059458  14.6075461  )
        11           Cd1 tau(  11) = (   6.4107720   2.4878046  14.6075461  )
        12           Cd1 tau(  12) = (   4.6061358   5.1059458  14.6075461  )

     number of k points=    20  Fermi-Dirac smearing, width (Ry)=  0.0110
                       cart. coord. in units 2pi/alat
        k(    1) = (   0.0000000   0.0000000   0.0000000), wk =   0.0555556
        k(    2) = (   0.0000000   0.0318292   0.0000000), wk =   0.1111111
        k(    3) = (   0.0000000   0.0636584   0.0000000), wk =   0.1111111
        k(    4) = (   0.0000000  -0.0954876   0.0000000), wk =   0.0555556
        k(    5) = (   0.0297460  -0.0113258   0.0000000), wk =   0.1111111
        k(    6) = (   0.0297460   0.0205033   0.0000000), wk =   0.1111111
        k(    7) = (   0.0297460   0.0523325   0.0000000), wk =   0.1111111
        k(    8) = (   0.0297460  -0.1068134   0.0000000), wk =   0.1111111
        k(    9) = (   0.0297460  -0.0749842   0.0000000), wk =   0.1111111
        k(   10) = (   0.0297460  -0.0431550   0.0000000), wk =   0.1111111
        k(   11) = (   0.0594919  -0.0226517   0.0000000), wk =   0.1111111
        k(   12) = (   0.0594919   0.0091775   0.0000000), wk =   0.1111111
        k(   13) = (   0.0594919   0.0410067   0.0000000), wk =   0.1111111
        k(   14) = (   0.0594919  -0.1181393   0.0000000), wk =   0.1111111
        k(   15) = (   0.0594919  -0.0863101   0.0000000), wk =   0.1111111
        k(   16) = (   0.0594919  -0.0544809   0.0000000), wk =   0.1111111
        k(   17) = (  -0.0892379   0.0339775   0.0000000), wk =   0.0555556
        k(   18) = (  -0.0892379   0.0658067   0.0000000), wk =   0.1111111
        k(   19) = (  -0.0892379   0.0976359   0.0000000), wk =   0.1111111
        k(   20) = (  -0.0892379  -0.0615100   0.0000000), wk =   0.0555556

     Largest allocated arrays     est. size (Mb)     dimensions
     Largest temporary arrays     est. size (Mb)     dimensions

     Initial potential from superposition of free atoms
     Check: negative starting charge=   -0.134142

     starting charge  176.99974, renormalised to  186.00000

     negative rho (up, down):  1.410E-01 0.000E+00

     *
     * You are using vdW-DF for exchange-correlation in this calculation.
     * Please cite the following three references that made this development
     * possible:
     *
     *   M. Dion, H. Rydberg, E. Schroder, D. C. Langreth, and
     *   B. I. Lundqvist, Phys. Rev. Lett. 92, 246401 (2004).
     *
     *   T. Thonhauser, V. R. Cooper, S. Li, A. Puzder, P. Hyldgaard, and
     *   D. C. Langreth, Phys. Rev. B 76, 125112 (2007).
     *
     *   G. Roman-Perez and J. M. Soler, Phys. Rev. Lett. 103, 096102 (2009).
     *
     *
     * If you are using vdW-DF2, please also cite:
     *
     *   K. Lee, E. D. Murray, L. Kong, B. I. Lundqvist, and
     *   D. C. Langreth, Phys. Rev. B 82, 081101(R) (2010).
     *
     *
     * If you are calculating the stress with vdW-DF, please also cite:
     *
     *   R. Sabatini, E. Kucukbenli, B. Kolb, T. Thonhauser, and
     *   S. de Gironcoli, J. Phys.: Condens. Matter 24, 424209 (2012).
     *

     Carrying out vdW-DF run using the following parameters:

     Nqs =      20    Nr_points =    1024   r_max =   100.000
     q_mesh =
               0.00001000     0.04494208     0.09755937     0.15916263
               0.23128650     0.31572767     0.41458969     0.53033537
               0.66584808     0.82450364     1.01025438     1.22772762
               1.48234092     1.78043706     2.12944203     2.53805004
               3.01644009     3.57652955     4.23227104     5.00000000

     Gradients computed in reciprocal space

     Adding external electric field

     Computed dipole along edir(3) :
        Dipole               -0.0000 Ry au,         -0.0000 Debye
        Dipole field         -0.0000 Ry au

        Potential amp.        0.0000 Ry
        Total length         45.3390 bohr

     Starting wfc are  132 randomized atomic wfcs

     Self-consistent Calculation

     iteration #  1     ecut=    36.75 Ry     beta=0.10
     Davidson diagonalization with overlap
     ethr =  1.00E-02,  avg # of iterations =  7.5

[...]

     total energy              =   -3121.81511560 Ry
     Harris-Foulkes estimate   =   -3130.92074605 Ry
     estimated scf accuracy    <      51.13523022 Ry

[...]

     End of self-consistent calculation

          k = 0.0000 0.0000 0.0000 ( 18339 PWs)   bands (ev):

  -112.4381-112.4379-112.0472-112.0471-112.0470-112.0468 -69.8538 -69.8514
   -69.8512 -69.8504 -69.8322 -69.8320 -69.4896 -69.4894 -69.4894 -69.4891
   -69.4607 -69.4605 -69.4574 -69.4571 -69.4207 -69.4205 -69.4204 -69.4202
    -9.1639  -9.1462  -9.1058  -9.0678  -8.9769  -8.8353  -8.8214  -8.7931
    -8.7892  -8.7213  -8.6487  -8.6335  -8.6318  -8.5896  -8.5866  -8.5773
    -8.5546  -8.4658  -8.4623  -8.4400  -8.4120  -8.4019  -8.3066  -8.2842
    -8.2579  -8.2441  -8.1559  -8.1228  -8.0942  -7.9659  -7.8754  -5.9092
    -3.7791  -3.6199  -3.3053  -3.2292  -2.8856  -2.7675  -2.7076  -2.6188
    -2.6025  -2.5068  -2.4887  -2.4192  -2.4134  -2.3996  -2.3715  -2.3419
    -2.2952  -2.2634  -2.2185  -2.1959  -2.1584  -2.0470  -2.0326  -2.0306
    -2.0187  -1.9774  -1.9717  -1.9675  -1.9394  -1.8603  -1.6826  -0.9647
    -0.8947  -0.6903  -0.4925  -0.3437  -0.2571  -0.1080  -0.0678   1.6012
     1.6272   1.9010   2.0430   2.7419   2.9101   3.1266   3.4194   3.7665
     3.9229   4.0688   4.1002   4.6156   5.3784   5.5684   5.7345   5.8040
     6.1006   6.6478   6.9598   7.1737   7.3179   7.3702   7.7428   8.4783
     8.4926   8.6375   8.7970

[...]

          k =-0.0892 0.0340 0.0000 ( 18312 PWs)   bands (ev):

[...]

     the Fermi energy is     0.3277 ev

!    total energy              =   -3126.03880020 Ry
     Harris-Foulkes estimate   =   -3126.03879796 Ry
     estimated scf accuracy    <       0.00000069 Ry

     The total energy is the sum of the following terms:

     one-electron contribution =  -19221.72567068 Ry
     hartree contribution      =    9663.46785202 Ry
     xc contribution           =    -484.90632245 Ry
     ewald contribution        =    6917.15235623 Ry
     electric field correction =       0.00000000 Ry
     smearing contrib. (-TS)   =      -0.02701532 Ry

     convergence has been achieved in  17 iterations

 BEEF-vdW xc energy contributions
           1 :   -427.392649694906
           2 :    389.226803661434
           3 :   -324.729752715144
           4 :    252.000336776339
           5 :   -187.580635649580
           6 :    140.468261331827
           7 :   -110.601111342278
           8 :    91.8108191531193
           9 :   -76.9163969589115
[...]
00031 suncat0163 pw.x -in pw.inp   Done                     12/19/2018 08:11:10

[...]

     Found symmetry operation: I + (  0.5000 -0.5000  0.0000)
     This is a supercell, fractional translations are disabled

[...]

     Total force =     0.030535     Total SCF correction =     0.003951
     SCF correction compared to forces is large: reduce conv_thr to get better values

[...]

   This run was terminated on:   8:27:11  19Dec2018

[...]

   This run was terminated on:   8:42:10  19Dec2018

[...]

     Program PWSCF v.5.1rc2 (svn rev. 11289) starts on 19Dec2018 at  8:42:16

     Current dimensions of program PWSCF are:
     Max number of different atomic species (ntypx) = 10
     Max number of k-points (npk) =  40000
     Max angular momentum in pseudopotentials (lmaxx) =  3
     Presently stress not available with electric field

     IMPORTANT: XC functional enforced from input :
     Exchange-correlation      = BEEF-VDW ( 1  4 27 13 2)
     Any further DFT definition will be discarded
     Please, verify this is what you really want

     Subspace diagonalization in iterative solution of the eigenvalue problem:
     a serial algorithm will be used

     bravais-lattice index     =            0
     lattice parameter (alat)  =       1.8897  a.u.
     unit-cell volume          =    4872.0139 (a.u.)^3
     number of atoms/cell      =           12
     number of atomic types    =            2
     number of electrons       =       186.00
     number of Kohn-Sham states=          123
     kinetic-energy cutoff     =      36.7493  Ry
     charge density cutoff     =     367.4932  Ry
     convergence threshold     =      1.0E-06
     mixing beta               =       0.1000
     number of iterations used =           10  plain     mixing
     Exchange-correlation      = BEEF-VDW ( 1  4 27 13 2)
     nstep                     =           50

     celldm(1)=   1.889726  celldm(2)=   0.000000  celldm(3)=   0.000000
     celldm(4)=   0.000000  celldm(5)=   0.000000  celldm(6)=   0.000000

     crystal axes: (cart. coord. in units of alat)
               a(1) = (   5.602999   0.000000   0.000000 )
               a(2) = (   1.993727   5.236282   0.000000 )
               a(3) = (   0.000000   0.000000  24.607546 )

     reciprocal axes: (cart. coord. in units 2 pi/alat)
               b(1) = (  0.178476 -0.067955  0.000000 )
               b(2) = (  0.000000  0.190975  0.000000 )
               b(3) = (  0.000000  0.000000  0.040638 )

     PseudoPot. # 1 for Cu read from file:
     /afs/slac.stanford.edu/u/if/mamunm/psp/gbrv1.5pbe/Cu.UPF
     MD5 check sum: 6e991ff952a84172a2a52a1c1e996048
     Pseudo is Ultrasoft + core correction, Zval = 19.0
     Generated by new atomic code, or converted to UPF format
     Using radial grid of  867 points,  6 beta functions with:
                l(1) =   0
                l(2) =   0
                l(3) =   1
                l(4) =   1
                l(5) =   2
                l(6) =   2
     Q(r) pseudized with  8 coefficients,  rinner =    1.150   1.150   1.150
                                                       1.150   1.150

     PseudoPot. # 2 for Cd read from file:
     /afs/slac.stanford.edu/u/if/mamunm/psp/gbrv1.5pbe/Cd.UPF
     MD5 check sum: 17164a7926edb8e0dc231208abae86a6
     Pseudo is Ultrasoft + core correction, Zval = 12.0
     Generated by new atomic code, or converted to UPF format
     Using radial grid of  889 points,  6 beta functions with:
                l(1) =   0
                l(2) =   0
                l(3) =   1
                l(4) =   1
                l(5) =   2
                l(6) =   2
     Q(r) pseudized with  6 coefficients,  rinner =    1.000   1.000   1.000
                                                       1.000   1.000

     vdW kernel table read from file vdW_kernel_table
     MD5 check sum: 095c7af220d748ca6e76c0b4c6cfb241

     atomic species   valence    mass     pseudopotential
        Cu1           19.00    63.54600     Cu( 1.00)
        Cd1           12.00   112.41400     Cd( 1.00)

     No symmetry found

   Cartesian axes

     site n.     atom                  positions (alat units)
         1           Cu1 tau(   1) = (   0.0000000   0.0000000  10.0000000  )
         2           Cu1 tau(   2) = (   3.7983629   2.6181412  10.0000000  )
         3           Cd1 tau(   3) = (   2.8014996   0.0000000  10.0000000  )
         4           Cd1 tau(   4) = (   0.9968633   2.6181412  10.0000000  )
         5           Cu1 tau(   5) = (   5.6029991   3.8620435  12.3037730  )
         6           Cu1 tau(   6) = (   1.8046362   1.2439023  12.3037730  )
         7           Cd1 tau(   7) = (   2.8014996   3.8620435  12.3037730  )
         8           Cd1 tau(   8) = (   4.6061358   1.2439023  12.3037730  )
         9           Cu1 tau(   9) = (   3.6042568   2.4843004  14.5600256  )
        10           Cu1 tau(  10) = (   7.4026039   5.1024959  14.5600081  )
        11           Cd1 tau(  11) = (   6.4237987   2.4967988  14.8245582  )
        12           Cd1 tau(  12) = (   4.6191719   5.1149181  14.8245473  )

     number of k points=    20  Fermi-Dirac smearing, width (Ry)=  0.0110
                       cart. coord. in units 2pi/alat
        k(    1) = (   0.0000000   0.0000000   0.0000000), wk =   0.0555556
        k(    2) = (   0.0000000   0.0318292   0.0000000), wk =   0.1111111
        k(    3) = (   0.0000000   0.0636584   0.0000000), wk =   0.1111111
        k(    4) = (   0.0000000  -0.0954876   0.0000000), wk =   0.0555556
        k(    5) = (   0.0297460  -0.0113258   0.0000000), wk =   0.1111111
        k(    6) = (   0.0297460   0.0205033   0.0000000), wk =   0.1111111
        k(    7) = (   0.0297460   0.0523325   0.0000000), wk =   0.1111111
        k(    8) = (   0.0297460  -0.1068134   0.0000000), wk =   0.1111111
        k(    9) = (   0.0297460  -0.0749842   0.0000000), wk =   0.1111111
        k(   10) = (   0.0297460  -0.0431550   0.0000000), wk =   0.1111111
        k(   11) = (   0.0594919  -0.0226517   0.0000000), wk =   0.1111111
        k(   12) = (   0.0594919   0.0091775   0.0000000), wk =   0.1111111
        k(   13) = (   0.0594919   0.0410067   0.0000000), wk =   0.1111111
        k(   14) = (   0.0594919  -0.1181393   0.0000000), wk =   0.1111111
        k(   15) = (   0.0594919  -0.0863101   0.0000000), wk =   0.1111111
        k(   16) = (   0.0594919  -0.0544809   0.0000000), wk =   0.1111111
        k(   17) = (  -0.0892379   0.0339775   0.0000000), wk =   0.0555556
        k(   18) = (  -0.0892379   0.0658067   0.0000000), wk =   0.1111111
        k(   19) = (  -0.0892379   0.0976359   0.0000000), wk =   0.1111111
        k(   20) = (  -0.0892379  -0.0615100   0.0000000), wk =   0.0555556

     Largest allocated arrays     est. size (Mb)     dimensions
     Largest temporary arrays     est. size (Mb)     dimensions

     Initial potential from superposition of free atoms
     Check: negative starting charge=   -0.132854

     starting charge  176.99974, renormalised to  186.00000

[...]

     *
     * You are using vdW-DF for exchange-correlation in this calculation.
     * Please cite the following three references that made this development
     * possible:
     *
     *   M. Dion, H. Rydberg, E. Schroder, D. C. Langreth, and
     *   B. I. Lundqvist, Phys. Rev. Lett. 92, 246401 (2004).
     *
     *   T. Thonhauser, V. R. Cooper, S. Li, A. Puzder, P. Hyldgaard, and
     *   D. C. Langreth, Phys. Rev. B 76, 125112 (2007).
     *
     *   G. Roman-Perez and J. M. Soler, Phys. Rev. Lett. 103, 096102 (2009).
     *
     *
     * If you are using vdW-DF2, please also cite:
     *
     *   K. Lee, E. D. Murray, L. Kong, B. I. Lundqvist, and
     *   D. C. Langreth, Phys. Rev. B 82, 081101(R) (2010).
     *
     *
     * If you are calculating the stress with vdW-DF, please also cite:
     *
     *   R. Sabatini, E. Kucukbenli, B. Kolb, T. Thonhauser, and
     *   S. de Gironcoli, J. Phys.: Condens. Matter 24, 424209 (2012).
     *

     Carrying out vdW-DF run using the following parameters:

     Nqs =      20    Nr_points =    1024   r_max =   100.000
     q_mesh =
               0.00001000     0.04494208     0.09755937     0.15916263
               0.23128650     0.31572767     0.41458969     0.53033537
               0.66584808     0.82450364     1.01025438     1.22772762
               1.48234092     1.78043706     2.12944203     2.53805004
               3.01644009     3.57652955     4.23227104     5.00000000

     Gradients computed in reciprocal space

[...]

     Starting wfc are  132 randomized atomic wfcs

     Self-consistent Calculation

[...]

     total energy              =   -3126.04546315 Ry
     Harris-Foulkes estimate   =   -3126.04546254 Ry
     estimated scf accuracy    <       0.00000116 Ry

     iteration # 16     ecut=    36.75 Ry     beta=0.10
     Davidson diagonalization with overlap
     ethr =  6.23E-10,  avg # of iterations =  2.1

[...]

     negative rho (up, down):  1.381E-01 0.000E+00

     Adding external electric field

     Computed dipole along edir(3) :
        Dipole                0.0276 Ry au,          0.0702 Debye
        Dipole field          0.0001 Ry au

        Potential amp.       -0.0065 Ry
        Total length         45.3390 bohr

     End of self-consistent calculation

[...]

          k = 0.0595-0.0545 0.0000 ( 18302 PWs)   bands (ev):

[...]

          k =-0.0892-0.0615 0.0000 ( 18384 PWs)   bands (ev):

  -112.3150-112.3149-112.0498-112.0497-112.0258-112.0257 -69.7348 -69.7345
   -69.7326 -69.7292 -69.7031 -69.7029 -69.4856 -69.4853 -69.4690 -69.4688
   -69.4625 -69.4591 -69.4401 -69.4367 -69.4274 -69.4272 -69.3979 -69.3976
    -9.0403  -8.9821  -8.9172  -8.8339  -8.7929  -8.7610  -8.7417  -8.7116
    -8.6582  -8.6365  -8.6078  -8.5393  -8.5056  -8.4865  -8.4865  -8.4837
    -8.4633  -8.4558  -8.3946  -8.3803  -8.3529  -8.3130  -8.2826  -8.2312
    -8.2206  -8.1637  -8.1325  -8.1046  -8.0421  -7.9370  -5.7744  -5.6731
    -4.0937  -3.9939  -3.9114  -3.6888  -3.2596  -2.9646  -2.9171  -2.9026
    -2.7652  -2.7108  -2.6130  -2.6073  -2.5833  -2.5346  -2.4796  -2.4248
    -2.3623  -2.3408  -2.3285  -2.3001  -2.2910  -2.2581  -2.1421  -2.1269
    -2.1197  -2.0841  -2.0819  -1.9978  -1.9755  -1.9470  -1.9301  -1.9180
    -1.7821  -1.3929  -1.0138  -0.6388  -0.5493  -0.4340   1.3379   1.3862
     2.0559   2.4176   4.2345   4.5725   4.7476   4.7732   4.9126   5.0801
     5.0935   5.2050   5.8192   5.8316   6.2873   6.3513   6.3523   6.6251
     6.6767   6.7549   6.7951   6.8522   7.1795   7.3019   7.3227   7.4786
     7.7890   7.8643   8.2438

     the Fermi energy is     0.3527 ev

!    total energy              =   -3126.04546738 Ry
     Harris-Foulkes estimate   =   -3126.04546306 Ry
     estimated scf accuracy    <       0.00000066 Ry

     The total energy is the sum of the following terms:

     one-electron contribution =  -19077.99170536 Ry
     hartree contribution      =    9591.92555038 Ry
     xc contribution           =    -484.84256765 Ry
     ewald contribution        =    6844.88923056 Ry
     electric field correction =       0.00000197 Ry
     smearing contrib. (-TS)   =      -0.02597728 Ry

     convergence has been achieved in  16 iterations

 BEEF-vdW xc energy contributions
           1 :   -427.320821161469
           2 :    389.097735590508
           3 :   -324.536208237581
           4 :    251.794481416149
           5 :   -187.435118131621
           6 :    140.420245736239
           7 :   -110.623110300596
           8 :    91.8309907069675
           9 :   -76.8729473665911
          10 :    61.7419744595710
          11 :   -46.7055474972893
          12 :    34.4971710865905
          13 :   -27.3887437830346
          14 :    25.2576023441612
          15 :   -25.7159380721837
          16 :    25.8263680508867
          17 :   -23.9689736906877
          18 :    20.5661019395804
          19 :   -17.3509756420228
          20 :    15.8923508260138
          21 :   -16.4806871629364
          22 :    18.0686646948786
          23 :   -19.1459239965089
          24 :    18.8123853794719
          25 :   -17.2894286719356
          26 :    15.5984371980720
          27 :   -14.7426106329081
          28 :    15.0180944740549
          29 :   -15.9082087496221
          30 :    16.5531639667270
          31 :   -36.1827669393243
          32 :   -25.5904827525551

     Forces acting on atoms (Ry/au):

     negative rho (up, down):  1.381E-01 0.000E+00
     atom    1 type  1   force =     0.00118298    0.00081480    0.00357155
     atom    2 type  1   force =     0.00118284    0.00081389    0.00356957
     atom    3 type  2   force =    -0.00174552   -0.00120120   -0.01628226
     atom    4 type  2   force =    -0.00174273   -0.00120025   -0.01628758
     atom    5 type  1   force =    -0.00044267   -0.00030566    0.01035094
     atom    6 type  1   force =    -0.00044198   -0.00030537    0.01035246
     atom    7 type  2   force =     0.00141604    0.00097800    0.00124290
     atom    8 type  2   force =     0.00141277    0.00097202    0.00124720
     atom    9 type  1   force =     0.00087408    0.00060265    0.00048802
     atom   10 type  1   force =     0.00087744    0.00060486    0.00049309
     atom   11 type  2   force =    -0.00128231   -0.00088361    0.00063253
     atom   12 type  2   force =    -0.00129094   -0.00089011    0.00062158

     Total force =     0.028307     Total SCF correction =     0.001697

     entering subroutine stress ...

     negative rho (up, down):  1.381E-01 0.000E+00
          total   stress  (Ry/bohr**3)                   (kbar)     P=  -15.75
  -0.00014055   0.00000834   0.00000001        -20.68      1.23      0.00
   0.00000834  -0.00014691   0.00000001          1.23    -21.61      0.00
   0.00000001   0.00000001  -0.00003364          0.00      0.00     -4.95

 !ASE

     Writing output data file calc.save

     General routines

     Parallel routines

   This run was terminated on:   8:57: 2  19Dec2018

   JOB DONE.
Job  /afs/slac/g/suncat/bin/suncat-tsmpirun -x LD_LIBRARY_PATH -wdir /scratch/qe529783_2pJLX pw.x -in pw.inp

TID   HOST_NAME   COMMAND_LINE            STATUS            TERMINATION_TIME
00000 suncat0166 pw.x -in pw.inp   Done                     12/19/2018 08:57:02
00001 suncat0166 pw.x -in pw.inp   Done                     12/19/2018 08:57:02
00002 suncat0166 pw.x -in pw.inp   Done                     12/19/2018 08:57:02
00003 suncat0166 pw.x -in pw.inp   Done                     12/19/2018 08:57:02
00004 suncat0166 pw.x -in pw.inp   Done                     12/19/2018 08:57:02
00005 suncat0166 pw.x -in pw.inp   Done                     12/19/2018 08:57:02
00006 suncat0166 pw.x -in pw.inp   Done                     12/19/2018 08:57:02
00007 suncat0166 pw.x -in pw.inp   Done                     12/19/2018 08:57:02
00008 suncat0165 pw.x -in pw.inp   Done                     12/19/2018 08:57:02
00009 suncat0165 pw.x -in pw.inp   Done                     12/19/2018 08:57:02
00010 suncat0165 pw.x -in pw.inp   Done                     12/19/2018 08:57:02
00011 suncat0165 pw.x -in pw.inp   Done                     12/19/2018 08:57:02
00012 suncat0165 pw.x -in pw.inp   Done                     12/19/2018 08:57:02
00013 suncat0165 pw.x -in pw.inp   Done                     12/19/2018 08:57:02
00014 suncat0165 pw.x -in pw.inp   Done                     12/19/2018 08:57:02
00015 suncat0165 pw.x -in pw.inp   Done                     12/19/2018 08:57:02
00016 suncat0164 pw.x -in pw.inp   Done                     12/19/2018 08:57:02
00017 suncat0164 pw.x -in pw.inp   Done                     12/19/2018 08:57:02
00018 suncat0164 pw.x -in pw.inp   Done                     12/19/2018 08:57:02
00019 suncat0164 pw.x -in pw.inp   Done                     12/19/2018 08:57:02
00020 suncat0164 pw.x -in pw.inp   Done                     12/19/2018 08:57:02
00021 suncat0164 pw.x -in pw.inp   Done                     12/19/2018 08:57:02
00022 suncat0164 pw.x -in pw.inp   Done                     12/19/2018 08:57:02
00023 suncat0164 pw.x -in pw.inp   Done                     12/19/2018 08:57:02
00024 suncat0163 pw.x -in pw.inp   Done                     12/19/2018 08:57:02
00025 suncat0163 pw.x -in pw.inp   Done                     12/19/2018 08:57:02
00026 suncat0163 pw.x -in pw.inp   Done                     12/19/2018 08:57:02
00027 suncat0163 pw.x -in pw.inp   Done                     12/19/2018 08:57:02
00028 suncat0163 pw.x -in pw.inp   Done                     12/19/2018 08:57:02
00029 suncat0163 pw.x -in pw.inp   Done                     12/19/2018 08:57:02
00030 suncat0163 pw.x -in pw.inp   Done                     12/19/2018 08:57:02
00031 suncat0163 pw.x -in pw.inp   Done                     12/19/2018 08:57:02