     Program PWSCF v.5.1rc2 (svn rev. 11289) starts on 18Dec2018 at 19:36:51

     Current dimensions of program PWSCF are:
     Max number of different atomic species (ntypx) = 10
     Max number of k-points (npk) =  40000
     Max angular momentum in pseudopotentials (lmaxx) =  3
     Presently stress not available with electric field

     IMPORTANT: XC functional enforced from input :
     Exchange-correlation      = BEEF-VDW ( 1  4 27 13 2)
     Any further DFT definition will be discarded
     Please, verify this is what you really want

     Subspace diagonalization in iterative solution of the eigenvalue problem:
     a serial algorithm will be used

     Found symmetry operation: I + (  0.5000  0.0000  0.0000)
     This is a supercell, fractional translations are disabled

     bravais-lattice index     =            0
     lattice parameter (alat)  =       1.8897  a.u.
     unit-cell volume          =    4993.6802 (a.u.)^3
     number of atoms/cell      =           12
     number of atomic types    =            2
     number of electrons       =       144.00
     number of Kohn-Sham states=          102
     kinetic-energy cutoff     =      36.7493  Ry
     charge density cutoff     =     367.4932  Ry
     convergence threshold     =      1.0E-06
     mixing beta               =       0.1000
     number of iterations used =           10  plain     mixing
     Exchange-correlation      = BEEF-VDW ( 1  4 27 13 2)
     nstep                     =           50

     celldm(1)=   1.889726  celldm(2)=   0.000000  celldm(3)=   0.000000
     celldm(4)=   0.000000  celldm(5)=   0.000000  celldm(6)=   0.000000

     crystal axes: (cart. coord. in units of alat)
               a(1) = (   5.817450   0.000000   0.000000 )
               a(2) = (  -2.908725   5.130691   0.000000 )
               a(3) = (   0.000000   0.000000  24.792231 )

     reciprocal axes: (cart. coord. in units 2 pi/alat)
               b(1) = (  0.171897  0.097453  0.000000 )
               b(2) = (  0.000000  0.194906  0.000000 )
               b(3) = (  0.000000  0.000000  0.040335 )

     PseudoPot. # 1 for Nb read from file:
     /afs/slac.stanford.edu/u/if/mamunm/psp/gbrv1.5pbe/Nb.UPF
     MD5 check sum: 573aab8a2fa660278ed4a62cd769473f
     Pseudo is Ultrasoft + core correction, Zval = 13.0
     Generated by new atomic code, or converted to UPF format
     Using radial grid of  887 points,  6 beta functions with:
                l(1) =   0
                l(2) =   0
                l(3) =   1
                l(4) =   1
                l(5) =   2
                l(6) =   2
     Q(r) pseudized with  6 coefficients,  rinner =    1.000   1.000   1.000
                                                       1.000   1.000

     PseudoPot. # 2 for Au read from file:
     /afs/slac.stanford.edu/u/if/mamunm/psp/gbrv1.5pbe/Au.UPF
     MD5 check sum: 9d7f43293ad2c663164586bc4b293ffc
     Pseudo is Ultrasoft + core correction, Zval = 11.0
     Generated by new atomic code, or converted to UPF format
     Using radial grid of  985 points,  7 beta functions with:
                l(1) =   0
                l(2) =   0
                l(3) =   1
                l(4) =   1
                l(5) =   2
                l(6) =   2
                l(7) =   3
     Q(r) pseudized with  6 coefficients,  rinner =    1.900   1.900   1.900
                                                       1.900   1.900   1.900
                                                       1.900

     vdW kernel table read from file vdW_kernel_table
     MD5 check sum: 095c7af220d748ca6e76c0b4c6cfb241

     atomic species   valence    mass     pseudopotential
        Nb1           13.00    92.90637     Nb( 1.00)
        Au1           11.00   196.96657     Au( 1.00)

     No symmetry found

   Cartesian axes

     site n.     atom                  positions (alat units)
         1           Nb1 tau(   1) = (   0.0000000   0.0000000  10.0000000  )
         2           Nb1 tau(   2) = (   2.9087249   0.0000000  10.0000000  )
         3           Au1 tau(   3) = (   1.4543624   2.5653456  10.0000000  )
         4           Au1 tau(   4) = (  -1.4543624   2.5653456  10.0000000  )
         5           Nb1 tau(   5) = (   2.9087249   1.6490333  12.3961155  )
         6           Nb1 tau(   6) = (  -0.0000000   1.6490333  12.3961155  )
         7           Au1 tau(   7) = (  -1.4543624   4.2143788  12.3961155  )
         8           Au1 tau(   8) = (   1.4543624   4.2143788  12.3961155  )
         9           Nb1 tau(   9) = (   0.0000000   3.2980665  14.7922311  )
        10           Nb1 tau(  10) = (   2.9087249   3.2980665  14.7922311  )
        11           Au1 tau(  11) = (   4.3630873   0.7327209  14.7922311  )
        12           Au1 tau(  12) = (   1.4543624   0.7327209  14.7922311  )

     number of k points=    20  Fermi-Dirac smearing, width (Ry)=  0.0110
                       cart. coord. in units 2pi/alat
        k(    1) = (   0.0000000   0.0000000   0.0000000), wk =   0.0555556
        k(    2) = (   0.0000000   0.0324843   0.0000000), wk =   0.1111111
        k(    3) = (   0.0000000   0.0649685   0.0000000), wk =   0.1111111
        k(    4) = (   0.0000000  -0.0974528   0.0000000), wk =   0.0555556
        k(    5) = (   0.0286494   0.0162421   0.0000000), wk =   0.1111111
        k(    6) = (   0.0286494   0.0487264   0.0000000), wk =   0.1111111
        k(    7) = (   0.0286494   0.0812106   0.0000000), wk =   0.1111111
        k(    8) = (   0.0286494  -0.0812106   0.0000000), wk =   0.1111111
        k(    9) = (   0.0286494  -0.0487264   0.0000000), wk =   0.1111111
        k(   10) = (   0.0286494  -0.0162421   0.0000000), wk =   0.1111111
        k(   11) = (   0.0572989   0.0324843   0.0000000), wk =   0.1111111
        k(   12) = (   0.0572989   0.0649685   0.0000000), wk =   0.1111111
        k(   13) = (   0.0572989   0.0974528   0.0000000), wk =   0.1111111
        k(   14) = (   0.0572989  -0.0649685   0.0000000), wk =   0.1111111
        k(   15) = (   0.0572989  -0.0324843   0.0000000), wk =   0.1111111
        k(   16) = (   0.0572989  -0.0000000   0.0000000), wk =   0.1111111
        k(   17) = (  -0.0859483  -0.0487264   0.0000000), wk =   0.0555556
        k(   18) = (  -0.0859483  -0.0162421   0.0000000), wk =   0.1111111
        k(   19) = (  -0.0859483   0.0162421   0.0000000), wk =   0.1111111
        k(   20) = (  -0.0859483  -0.1461791   0.0000000), wk =   0.0555556

     Largest allocated arrays     est. size (Mb)     dimensions
     Largest temporary arrays     est. size (Mb)     dimensions

     Check: negative/imaginary core charge=   -0.000002    0.000000

     Initial potential from superposition of free atoms
     Check: negative starting charge=   -0.003768

     starting charge  143.98287, renormalised to  144.00000

     negative rho (up, down):  3.768E-03 0.000E+00

     *
     * You are using vdW-DF for exchange-correlation in this calculation.
     * Please cite the following three references that made this development
     * possible:
     *
     *   M. Dion, H. Rydberg, E. Schroder, D. C. Langreth, and
     *   B. I. Lundqvist, Phys. Rev. Lett. 92, 246401 (2004).
     *
     *   T. Thonhauser, V. R. Cooper, S. Li, A. Puzder, P. Hyldgaard, and
     *   D. C. Langreth, Phys. Rev. B 76, 125112 (2007).
     *
     *   G. Roman-Perez and J. M. Soler, Phys. Rev. Lett. 103, 096102 (2009).
     *
     *
     * If you are using vdW-DF2, please also cite:
     *
     *   K. Lee, E. D. Murray, L. Kong, B. I. Lundqvist, and
     *   D. C. Langreth, Phys. Rev. B 82, 081101(R) (2010).
     *
     *
     * If you are calculating the stress with vdW-DF, please also cite:
     *
     *   R. Sabatini, E. Kucukbenli, B. Kolb, T. Thonhauser, and
     *   S. de Gironcoli, J. Phys.: Condens. Matter 24, 424209 (2012).
     *

     Carrying out vdW-DF run using the following parameters:

     Nqs =      20    Nr_points =    1024   r_max =   100.000
     q_mesh =
               0.00001000     0.04494208     0.09755937     0.15916263
               0.23128650     0.31572767     0.41458969     0.53033537
               0.66584808     0.82450364     1.01025438     1.22772762
               1.48234092     1.78043706     2.12944203     2.53805004
               3.01644009     3.57652955     4.23227104     5.00000000

     Gradients computed in reciprocal space

     Adding external electric field

     Computed dipole along edir(3) :
        Dipole                0.0000 Ry au,          0.0000 Debye
        Dipole field          0.0000 Ry au

        Potential amp.       -0.0000 Ry
        Total length         45.6793 bohr

     Starting wfc are  132 randomized atomic wfcs

     Self-consistent Calculation

     iteration #  1     ecut=    36.75 Ry     beta=0.10
     Davidson diagonalization with overlap
     ethr =  1.00E-02,  avg # of iterations =  5.4

     Threshold (ethr) on eigenvalues was too large:
     Diagonalizing with lowered threshold

     Davidson diagonalization with overlap
     ethr =  9.61E-04,  avg # of iterations =  2.0

[...]

     total energy              =   -1411.50477741 Ry
     Harris-Foulkes estimate   =   -1411.72022643 Ry
     estimated scf accuracy    <       1.52542303 Ry

[...]

     End of self-consistent calculation

          k = 0.0000 0.0000 0.0000 ( 18819 PWs)   bands (ev):

   -54.0050 -53.9975 -53.9235 -53.9168 -53.8820 -53.7999 -30.2478 -30.2057
   -30.1909 -30.1679 -30.1255 -30.1130 -30.1122 -30.0404 -30.0323 -30.0168
   -30.0102 -29.9267 -29.9239 -29.6229 -29.5478 -29.4925 -29.4540 -29.4385
    -6.3027  -5.0932  -4.9686  -4.8055  -4.5786  -4.5406  -4.5268  -4.4073
    -4.3455  -4.2846  -4.2395  -4.2155  -3.9821  -3.9728  -3.7176  -3.5349
    -3.2310  -3.1891  -3.1546  -3.0365  -2.8985  -2.7545  -2.7273  -2.7177
    -2.6157  -2.5025  -2.4079  -2.3677  -2.3319  -1.9363  -1.7189  -1.1101
    -0.9151  -0.1517  -0.0988   0.0692   0.2050   0.3695   0.4256   0.6919
     0.7418   0.7690   0.8569   0.8599   1.3338   1.4838   1.6869   1.7787
     2.0553   2.1507   2.3706   2.5404   2.6571   2.7501   3.0404   3.1242
     3.3125   3.5503   3.6689   3.7553   4.0271   4.1262   4.2590   4.2805
     4.3061   4.3786   4.4329   4.7671   4.8122   4.8131   5.0490   5.3045
     5.3193   5.5425   5.9416   6.1652   6.3322   6.3608

[...]

          k =-0.0859-0.0487 0.0000 ( 18798 PWs)   bands (ev):

[...]

     the Fermi energy is     1.5677 ev

!    total energy              =   -1411.41069390 Ry
     Harris-Foulkes estimate   =   -1411.41069376 Ry
     estimated scf accuracy    <       0.00000065 Ry

     The total energy is the sum of the following terms:

     one-electron contribution =   -9950.91340873 Ry
     hartree contribution      =    5018.42651828 Ry
     xc contribution           =    -497.85138337 Ry
     ewald contribution        =    4018.99354467 Ry
     electric field correction =       0.00000000 Ry
     smearing contrib. (-TS)   =      -0.06596476 Ry

     convergence has been achieved in  16 iterations

 BEEF-vdW xc energy contributions
           1 :   -441.057646798757
           2 :    408.392508246271
           3 :   -350.451723229107
           4 :    279.262518028468
[...]

     Program PWSCF v.5.1rc2 (svn rev. 11289) starts on 18Dec2018 at 19:50: 0

[...]

     Threshold (ethr) on eigenvalues was too large:
     Diagonalizing with lowered threshold

     Davidson diagonalization with overlap
     ethr =  9.84E-04,  avg # of iterations =  2.2

[...]

   This run was terminated on:  20: 3: 0  18Dec2018

[...]

     Program PWSCF v.5.1rc2 (svn rev. 11289) starts on 18Dec2018 at 20: 3: 6

[...]

     Program PWSCF v.5.1rc2 (svn rev. 11289) starts on 18Dec2018 at 20:15:57

     Current dimensions of program PWSCF are:
     Max number of different atomic species (ntypx) = 10
     Max number of k-points (npk) =  40000
     Max angular momentum in pseudopotentials (lmaxx) =  3
     Presently stress not available with electric field

     IMPORTANT: XC functional enforced from input :
     Exchange-correlation      = BEEF-VDW ( 1  4 27 13 2)
     Any further DFT definition will be discarded
     Please, verify this is what you really want

     Subspace diagonalization in iterative solution of the eigenvalue problem:
     a serial algorithm will be used

     Found symmetry operation: I + (  0.5000  0.0000  0.0000)
     This is a supercell, fractional translations are disabled

     bravais-lattice index     =            0
     lattice parameter (alat)  =       1.8897  a.u.
     unit-cell volume          =    4993.6802 (a.u.)^3
     number of atoms/cell      =           12
     number of atomic types    =            2
     number of electrons       =       144.00
     number of Kohn-Sham states=          102
     kinetic-energy cutoff     =      36.7493  Ry
     charge density cutoff     =     367.4932  Ry
     convergence threshold     =      1.0E-06
     mixing beta               =       0.1000
     number of iterations used =           10  plain     mixing
     Exchange-correlation      = BEEF-VDW ( 1  4 27 13 2)
     nstep                     =           50

     celldm(1)=   1.889726  celldm(2)=   0.000000  celldm(3)=   0.000000
     celldm(4)=   0.000000  celldm(5)=   0.000000  celldm(6)=   0.000000

     crystal axes: (cart. coord. in units of alat)
               a(1) = (   5.817450   0.000000   0.000000 )
               a(2) = (  -2.908725   5.130691   0.000000 )
               a(3) = (   0.000000   0.000000  24.792231 )

     reciprocal axes: (cart. coord. in units 2 pi/alat)
               b(1) = (  0.171897  0.097453  0.000000 )
               b(2) = (  0.000000  0.194906  0.000000 )
               b(3) = (  0.000000  0.000000  0.040335 )

     PseudoPot. # 1 for Nb read from file:
     /afs/slac.stanford.edu/u/if/mamunm/psp/gbrv1.5pbe/Nb.UPF
     MD5 check sum: 573aab8a2fa660278ed4a62cd769473f
     Pseudo is Ultrasoft + core correction, Zval = 13.0
     Generated by new atomic code, or converted to UPF format
     Using radial grid of  887 points,  6 beta functions with:
                l(1) =   0
                l(2) =   0
                l(3) =   1
                l(4) =   1
                l(5) =   2
                l(6) =   2
     Q(r) pseudized with  6 coefficients,  rinner =    1.000   1.000   1.000
                                                       1.000   1.000

     PseudoPot. # 2 for Au read from file:
     /afs/slac.stanford.edu/u/if/mamunm/psp/gbrv1.5pbe/Au.UPF
     MD5 check sum: 9d7f43293ad2c663164586bc4b293ffc
     Pseudo is Ultrasoft + core correction, Zval = 11.0
     Generated by new atomic code, or converted to UPF format
     Using radial grid of  985 points,  7 beta functions with:
                l(1) =   0
                l(2) =   0
                l(3) =   1
                l(4) =   1
                l(5) =   2
                l(6) =   2
                l(7) =   3
     Q(r) pseudized with  6 coefficients,  rinner =    1.900   1.900   1.900
                                                       1.900   1.900   1.900
                                                       1.900

     vdW kernel table read from file vdW_kernel_table
     MD5 check sum: 095c7af220d748ca6e76c0b4c6cfb241

     atomic species   valence    mass     pseudopotential
        Nb1           13.00    92.90637     Nb( 1.00)
        Au1           11.00   196.96657     Au( 1.00)

     No symmetry found

   Cartesian axes

     site n.     atom                  positions (alat units)
         1           Nb1 tau(   1) = (   0.0000000   0.0000000  10.0000000  )
         2           Nb1 tau(   2) = (   2.9087249   0.0000000  10.0000000  )
         3           Au1 tau(   3) = (   1.4543624   2.5653456  10.0000000  )
         4           Au1 tau(   4) = (  -1.4543624   2.5653456  10.0000000  )
         5           Nb1 tau(   5) = (   2.9087249   1.6490333  12.3961155  )
         6           Nb1 tau(   6) = (  -0.0000000   1.6490333  12.3961155  )
         7           Au1 tau(   7) = (  -1.4543624   4.2143788  12.3961155  )
         8           Au1 tau(   8) = (   1.4543624   4.2143788  12.3961155  )
         9           Nb1 tau(   9) = (   0.0000002   3.2679791  14.6534228  )
        10           Nb1 tau(  10) = (   2.9087241   3.2679780  14.6534221  )
        11           Au1 tau(  11) = (   4.3630893   0.7586620  14.8364399  )
        12           Au1 tau(  12) = (   1.4543611   0.7586596  14.8364367  )

     number of k points=    20  Fermi-Dirac smearing, width (Ry)=  0.0110
                       cart. coord. in units 2pi/alat
        k(    1) = (   0.0000000   0.0000000   0.0000000), wk =   0.0555556
        k(    2) = (   0.0000000   0.0324843   0.0000000), wk =   0.1111111
        k(    3) = (   0.0000000   0.0649685   0.0000000), wk =   0.1111111
        k(    4) = (   0.0000000  -0.0974528   0.0000000), wk =   0.0555556
        k(    5) = (   0.0286494   0.0162421   0.0000000), wk =   0.1111111
        k(    6) = (   0.0286494   0.0487264   0.0000000), wk =   0.1111111
        k(    7) = (   0.0286494   0.0812106   0.0000000), wk =   0.1111111
        k(    8) = (   0.0286494  -0.0812106   0.0000000), wk =   0.1111111
        k(    9) = (   0.0286494  -0.0487264   0.0000000), wk =   0.1111111
        k(   10) = (   0.0286494  -0.0162421   0.0000000), wk =   0.1111111
        k(   11) = (   0.0572989   0.0324843   0.0000000), wk =   0.1111111
        k(   12) = (   0.0572989   0.0649685   0.0000000), wk =   0.1111111
        k(   13) = (   0.0572989   0.0974528   0.0000000), wk =   0.1111111
        k(   14) = (   0.0572989  -0.0649685   0.0000000), wk =   0.1111111
        k(   15) = (   0.0572989  -0.0324843   0.0000000), wk =   0.1111111
        k(   16) = (   0.0572989  -0.0000000   0.0000000), wk =   0.1111111
        k(   17) = (  -0.0859483  -0.0487264   0.0000000), wk =   0.0555556
        k(   18) = (  -0.0859483  -0.0162421   0.0000000), wk =   0.1111111
        k(   19) = (  -0.0859483   0.0162421   0.0000000), wk =   0.1111111
        k(   20) = (  -0.0859483  -0.1461791   0.0000000), wk =   0.0555556

     Largest allocated arrays     est. size (Mb)     dimensions
     Largest temporary arrays     est. size (Mb)     dimensions

     Check: negative/imaginary core charge=   -0.000002    0.000000

     Initial potential from superposition of free atoms
     Check: negative starting charge=   -0.003880

     starting charge  143.98287, renormalised to  144.00000

[...]

     *
     * You are using vdW-DF for exchange-correlation in this calculation.
     * Please cite the following three references that made this development
     * possible:
     *
     *   M. Dion, H. Rydberg, E. Schroder, D. C. Langreth, and
     *   B. I. Lundqvist, Phys. Rev. Lett. 92, 246401 (2004).
     *
     *   T. Thonhauser, V. R. Cooper, S. Li, A. Puzder, P. Hyldgaard, and
     *   D. C. Langreth, Phys. Rev. B 76, 125112 (2007).
     *
     *   G. Roman-Perez and J. M. Soler, Phys. Rev. Lett. 103, 096102 (2009).
     *
     *
     * If you are using vdW-DF2, please also cite:
     *
     *   K. Lee, E. D. Murray, L. Kong, B. I. Lundqvist, and
     *   D. C. Langreth, Phys. Rev. B 82, 081101(R) (2010).
     *
     *
     * If you are calculating the stress with vdW-DF, please also cite:
     *
     *   R. Sabatini, E. Kucukbenli, B. Kolb, T. Thonhauser, and
     *   S. de Gironcoli, J. Phys.: Condens. Matter 24, 424209 (2012).
     *

     Carrying out vdW-DF run using the following parameters:

     Nqs =      20    Nr_points =    1024   r_max =   100.000
     q_mesh =
               0.00001000     0.04494208     0.09755937     0.15916263
               0.23128650     0.31572767     0.41458969     0.53033537
               0.66584808     0.82450364     1.01025438     1.22772762
               1.48234092     1.78043706     2.12944203     2.53805004
               3.01644009     3.57652955     4.23227104     5.00000000

     Gradients computed in reciprocal space

[...]

     Starting wfc are  132 randomized atomic wfcs

     Self-consistent Calculation

[...]

     total energy              =   -1411.42177881 Ry
     Harris-Foulkes estimate   =   -1411.42177786 Ry
     estimated scf accuracy    <       0.00000144 Ry

     iteration # 16     ecut=    36.75 Ry     beta=0.10
     Davidson diagonalization with overlap
     ethr =  1.00E-09,  avg # of iterations =  2.0

[...]

     negative rho (up, down):  3.546E-03 0.000E+00

     Adding external electric field

     Computed dipole along edir(3) :
        Dipole               -0.0325 Ry au,         -0.0827 Debye
        Dipole field         -0.0001 Ry au

        Potential amp.        0.0075 Ry
        Total length         45.6793 bohr

     End of self-consistent calculation

[...]

          k = 0.0573-0.0000 0.0000 ( 18743 PWs)   bands (ev):

[...]

          k =-0.0859-0.1462 0.0000 ( 18798 PWs)   bands (ev):

   -54.0285 -54.0284 -53.9513 -53.9513 -53.8504 -53.8504 -30.2547 -30.2546
   -30.1410 -30.1410 -30.0803 -30.0803 -30.0229 -30.0229 -29.9812 -29.9811
   -29.9199 -29.9199 -29.8788 -29.8787 -29.8217 -29.8217 -29.5474 -29.5473
    -4.9296  -4.9296  -4.2609  -4.2609  -4.0494  -4.0494  -3.9811  -3.9811
    -3.7820  -3.7820  -3.7096  -3.7096  -3.6336  -3.6336  -3.4889  -3.4889
    -3.2070  -3.2070  -3.1498  -3.1498  -2.9769  -2.9769  -2.9432  -2.9432
    -2.8699  -2.8699  -2.8178  -2.8178  -2.6687  -2.6687  -2.5584  -2.5584
    -2.4482  -2.4482  -0.7912  -0.7912  -0.2177  -0.2177   0.2566   0.2566
     0.6727   0.6727   0.8802   0.8802   1.3244   1.3244   1.5275   1.5275
     1.8047   1.8047   1.9237   1.9237   1.9813   1.9813   2.2349   2.2349
     2.2990   2.2991   3.2163   3.2163   3.4563   3.4563   3.6795   3.6795
     4.1857   4.1857   4.8290   4.8291   5.1630   5.1630   5.7776   5.7776
     6.5259   6.5259   6.7547   6.7547   7.2912   7.2912

     the Fermi energy is     1.5255 ev

!    total energy              =   -1411.42177932 Ry
     Harris-Foulkes estimate   =   -1411.42177939 Ry
     estimated scf accuracy    <       0.00000061 Ry

     The total energy is the sum of the following terms:

     one-electron contribution =  -10028.61318799 Ry
     hartree contribution      =    5057.04200914 Ry
     xc contribution           =    -497.95979830 Ry
     ewald contribution        =    4058.17374864 Ry
     electric field correction =       0.00000266 Ry
     smearing contrib. (-TS)   =      -0.06455347 Ry

     convergence has been achieved in  16 iterations

 BEEF-vdW xc energy contributions
           1 :   -441.165764274510
           2 :    408.529718940412
           3 :   -350.627564750603
           4 :    279.455044864301
           5 :   -207.731750084318
           6 :    145.382198546702
           7 :   -97.6022853011394
           8 :    64.7998006088119
           9 :   -44.0144623804682
          10 :    30.9538103940887
          11 :   -21.8020639033678
          12 :    14.2206366385844
          13 :   -7.42855571773077
          14 :    1.61663192866058
          15 :    2.82704602493880
          16 :   -5.87011791770141
          17 :    7.95961302999706
          18 :   -9.78281712363037
          19 :    11.8817677162715
          20 :   -14.3698558593827
          21 :    16.8827942568794
          22 :   -18.7638764084103
          23 :    19.3695424747841
          24 :   -18.3580009693633
          25 :    15.8429856025261
          26 :   -12.3679888649233
          27 :    8.71967633188763
          28 :   -5.66449108212032
          29 :    3.70889478132108
          30 :   -2.97110423804054
          31 :   -38.3566889611204
          32 :   -28.3281874996525

     Forces acting on atoms (Ry/au):

     negative rho (up, down):  3.546E-03 0.000E+00
     atom    1 type  1   force =    -0.00000013    0.01198942    0.02927504
     atom    2 type  1   force =     0.00000018    0.01198987    0.02927439
     atom    3 type  2   force =    -0.00000115   -0.01146276   -0.01193926
     atom    4 type  2   force =     0.00000062   -0.01146316   -0.01193926
     atom    5 type  1   force =     0.00000019   -0.00729698   -0.00749174
     atom    6 type  1   force =    -0.00000018   -0.00729631   -0.00749109
     atom    7 type  2   force =    -0.00000006    0.00717584   -0.01008438
     atom    8 type  2   force =    -0.00000019    0.00717516   -0.01008458
     atom    9 type  1   force =     0.00000017   -0.00015532   -0.00020227
     atom   10 type  1   force =     0.00000001   -0.00015516   -0.00020240
     atom   11 type  2   force =     0.00000053   -0.00025045    0.00044257
     atom   12 type  2   force =     0.00000002   -0.00025015    0.00044298

     Total force =     0.055454     Total SCF correction =     0.002030

     entering subroutine stress ...

     negative rho (up, down):  3.546E-03 0.000E+00
          total   stress  (Ry/bohr**3)                   (kbar)     P=  -14.61
  -0.00015360  -0.00000000   0.00000000        -22.60     -0.00      0.00
  -0.00000000  -0.00011503  -0.00000125         -0.00    -16.92     -0.18
   0.00000000  -0.00000125  -0.00002931          0.00     -0.18     -4.31

 !ASE

     Writing output data file calc.save

     General routines

     Parallel routines

   This run was terminated on:  20:28:43  18Dec2018

   JOB DONE.
Job  /afs/slac/g/suncat/bin/suncat-tsmpirun -x LD_LIBRARY_PATH -wdir /scratch/qe530289_0Qc5w pw.x -in pw.inp

TID   HOST_NAME   COMMAND_LINE            STATUS            TERMINATION_TIME
00000 suncat2022 pw.x -in pw.inp   Done                     12/18/2018 20:28:43
00001 suncat2022 pw.x -in pw.inp   Done                     12/18/2018 20:28:43
00002 suncat2022 pw.x -in pw.inp   Done                     12/18/2018 20:28:43
00003 suncat2022 pw.x -in pw.inp   Done                     12/18/2018 20:28:43
00004 suncat2022 pw.x -in pw.inp   Done                     12/18/2018 20:28:43
00005 suncat2022 pw.x -in pw.inp   Done                     12/18/2018 20:28:43
00006 suncat2022 pw.x -in pw.inp   Done                     12/18/2018 20:28:43
00007 suncat2022 pw.x -in pw.inp   Done                     12/18/2018 20:28:43
00008 suncat2022 pw.x -in pw.inp   Done                     12/18/2018 20:28:43
00009 suncat2022 pw.x -in pw.inp   Done                     12/18/2018 20:28:43
00010 suncat2022 pw.x -in pw.inp   Done                     12/18/2018 20:28:43
00011 suncat2022 pw.x -in pw.inp   Done                     12/18/2018 20:28:43
00012 suncat2022 pw.x -in pw.inp   Done                     12/18/2018 20:28:43
00013 suncat2022 pw.x -in pw.inp   Done                     12/18/2018 20:28:43
00014 suncat2022 pw.x -in pw.inp   Done                     12/18/2018 20:28:43
00015 suncat2022 pw.x -in pw.inp   Done                     12/18/2018 20:28:43
00016 suncat2021 pw.x -in pw.inp   Done                     12/18/2018 20:28:43
00017 suncat2021 pw.x -in pw.inp   Done                     12/18/2018 20:28:43
00018 suncat2021 pw.x -in pw.inp   Done                     12/18/2018 20:28:43
00019 suncat2021 pw.x -in pw.inp   Done                     12/18/2018 20:28:43
00020 suncat2021 pw.x -in pw.inp   Done                     12/18/2018 20:28:43
00021 suncat2021 pw.x -in pw.inp   Done                     12/18/2018 20:28:43
00022 suncat2021 pw.x -in pw.inp   Done                     12/18/2018 20:28:43
00023 suncat2021 pw.x -in pw.inp   Done                     12/18/2018 20:28:43
00024 suncat2021 pw.x -in pw.inp   Done                     12/18/2018 20:28:43
00025 suncat2021 pw.x -in pw.inp   Done                     12/18/2018 20:28:43
00026 suncat2021 pw.x -in pw.inp   Done                     12/18/2018 20:28:43
00027 suncat2021 pw.x -in pw.inp   Done                     12/18/2018 20:28:43
00028 suncat2021 pw.x -in pw.inp   Done                     12/18/2018 20:28:43
00029 suncat2021 pw.x -in pw.inp   Done                     12/18/2018 20:28:43
00030 suncat2021 pw.x -in pw.inp   Done                     12/18/2018 20:28:43
00031 suncat2021 pw.x -in pw.inp   Done                     12/18/2018 20:28:43