     Program PWSCF v.5.1rc2 (svn rev. 11289) starts on 25Dec2018 at  5:18:10

     Current dimensions of program PWSCF are:
     Max number of different atomic species (ntypx) = 10
     Max number of k-points (npk) =  40000
     Max angular momentum in pseudopotentials (lmaxx) =  3
     Presently stress not available with electric field

     IMPORTANT: XC functional enforced from input :
     Exchange-correlation      = BEEF-VDW ( 1  4 27 13 2)
     Any further DFT definition will be discarded
     Please, verify this is what you really want

     Subspace diagonalization in iterative solution of the eigenvalue problem:
     a serial algorithm will be used

     Found symmetry operation: I + ( -0.5000  0.5000  0.0000)
     This is a supercell, fractional translations are disabled

     bravais-lattice index     =            0
     lattice parameter (alat)  =       1.8897  a.u.
     unit-cell volume          =    6593.2207 (a.u.)^3
     number of atoms/cell      =           12
     number of atomic types    =            2
     number of electrons       =       204.00
     number of Kohn-Sham states=          132
     kinetic-energy cutoff     =      36.7493  Ry
     charge density cutoff     =     367.4932  Ry
     convergence threshold     =      1.0E-06
     mixing beta               =       0.1000
     number of iterations used =           10  plain     mixing
     Exchange-correlation      = BEEF-VDW ( 1  4 27 13 2)
     nstep                     =           50

     celldm(1)=   1.889726  celldm(2)=   0.000000  celldm(3)=   0.000000
     celldm(4)=   0.000000  celldm(5)=   0.000000  celldm(6)=   0.000000

     crystal axes: (cart. coord. in units of alat)
               a(1) = (   6.414621   0.000000   0.000000 )
               a(2) = (   2.182239   6.032015   0.000000 )
               a(3) = (   0.000000   0.000000  25.250361 )

     reciprocal axes: (cart. coord. in units 2 pi/alat)
               b(1) = (  0.155894 -0.056399  0.000000 )
               b(2) = (  0.000000  0.165782  0.000000 )
               b(3) = (  0.000000  0.000000  0.039603 )

     PseudoPot. # 1 for Zn read from file:
     /afs/slac.stanford.edu/u/if/mamunm/psp/gbrv1.5pbe/Zn.UPF
     MD5 check sum: df62231357ef9e81f77b2b3087fa5675
     Pseudo is Ultrasoft, Zval = 20.0
     Generated by new atomic code, or converted to UPF format
     Using radial grid of  943 points,  6 beta functions with:
                l(1) =   0
                l(2) =   0
                l(3) =   1
                l(4) =   1
                l(5) =   2
                l(6) =   2
     Q(r) pseudized with  8 coefficients,  rinner =    1.100   1.100   1.100
                                                       1.100   1.100

     PseudoPot. # 2 for Pb read from file:
     /afs/slac.stanford.edu/u/if/mamunm/psp/gbrv1.5pbe/Pb.UPF
     MD5 check sum: 3d1c1779aa92214d1e8f3a7db79003e2
     Pseudo is Ultrasoft + core correction, Zval = 14.0
     Generated by new atomic code, or converted to UPF format
     Using radial grid of  899 points,  6 beta functions with:
                l(1) =   0
                l(2) =   0
                l(3) =   1
                l(4) =   1
                l(5) =   2
                l(6) =   2
     Q(r) pseudized with  6 coefficients,  rinner =    1.000   1.000   1.000
                                                       1.000   1.000

     vdW kernel table read from file vdW_kernel_table
     MD5 check sum: 095c7af220d748ca6e76c0b4c6cfb241

     atomic species   valence    mass     pseudopotential
        Zn1           20.00    65.38000     Zn( 1.00)
        Pb1           14.00   207.20000     Pb( 1.00)

     No symmetry found

   Cartesian axes

     site n.     atom                  positions (alat units)
         1           Zn1 tau(   1) = (   0.0000000   0.0000000  10.0000000  )
         2           Zn1 tau(   2) = (   4.2984303   3.0160073  10.0000000  )
         3           Pb1 tau(   3) = (   3.2073107   0.0000000  10.0000000  )
         4           Pb1 tau(   4) = (   1.0911196   3.0160073  10.0000000  )
         5           Zn1 tau(   5) = (   6.4146214   4.5008395  12.6251806  )
         6           Zn1 tau(   6) = (   2.1161911   1.4848322  12.6251806  )
         7           Pb1 tau(   7) = (   3.2073107   4.5008395  12.6251806  )
         8           Pb1 tau(   8) = (   5.3235018   1.4848322  12.6251806  )
         9           Zn1 tau(   9) = (   4.2323822   2.9696644  15.2503613  )
        10           Zn1 tau(  10) = (   8.5308125   5.9856717  15.2503613  )
        11           Pb1 tau(  11) = (   7.4396929   2.9696644  15.2503613  )
        12           Pb1 tau(  12) = (   5.3235018   5.9856717  15.2503613  )

     number of k points=    20  Fermi-Dirac smearing, width (Ry)=  0.0110
                       cart. coord. in units 2pi/alat
        k(    1) = (   0.0000000   0.0000000   0.0000000), wk =   0.0555556
        k(    2) = (   0.0000000   0.0276303   0.0000000), wk =   0.1111111
        k(    3) = (   0.0000000   0.0552607   0.0000000), wk =   0.1111111
        k(    4) = (   0.0000000  -0.0828910   0.0000000), wk =   0.0555556
        k(    5) = (   0.0259823  -0.0093998   0.0000000), wk =   0.1111111
        k(    6) = (   0.0259823   0.0182306   0.0000000), wk =   0.1111111
        k(    7) = (   0.0259823   0.0458609   0.0000000), wk =   0.1111111
        k(    8) = (   0.0259823  -0.0922908   0.0000000), wk =   0.1111111
        k(    9) = (   0.0259823  -0.0646605   0.0000000), wk =   0.1111111
        k(   10) = (   0.0259823  -0.0370301   0.0000000), wk =   0.1111111
        k(   11) = (   0.0519646  -0.0187996   0.0000000), wk =   0.1111111
        k(   12) = (   0.0519646   0.0088308   0.0000000), wk =   0.1111111
        k(   13) = (   0.0519646   0.0364611   0.0000000), wk =   0.1111111
        k(   14) = (   0.0519646  -0.1016906   0.0000000), wk =   0.1111111
        k(   15) = (   0.0519646  -0.0740603   0.0000000), wk =   0.1111111
        k(   16) = (   0.0519646  -0.0464299   0.0000000), wk =   0.1111111
        k(   17) = (  -0.0779469   0.0281993   0.0000000), wk =   0.0555556
        k(   18) = (  -0.0779469   0.0558297   0.0000000), wk =   0.1111111
        k(   19) = (  -0.0779469   0.0834600   0.0000000), wk =   0.1111111
        k(   20) = (  -0.0779469  -0.0546917   0.0000000), wk =   0.0555556

     Largest allocated arrays     est. size (Mb)     dimensions
     Largest temporary arrays     est. size (Mb)     dimensions

     Check: negative/imaginary core charge=   -0.000001    0.000000

     Initial potential from superposition of free atoms
     Check: negative starting charge=   -0.102335

     starting charge  203.98504, renormalised to  204.00000

     negative rho (up, down):  1.023E-01 0.000E+00

     *
     * You are using vdW-DF for exchange-correlation in this calculation.
     * Please cite the following three references that made this development
     * possible:
     *
     *   M. Dion, H. Rydberg, E. Schroder, D. C. Langreth, and
     *   B. I. Lundqvist, Phys. Rev. Lett. 92, 246401 (2004).
     *
     *   T. Thonhauser, V. R. Cooper, S. Li, A. Puzder, P. Hyldgaard, and
     *   D. C. Langreth, Phys. Rev. B 76, 125112 (2007).
     *
     *   G. Roman-Perez and J. M. Soler, Phys. Rev. Lett. 103, 096102 (2009).
     *
     *
     * If you are using vdW-DF2, please also cite:
     *
     *   K. Lee, E. D. Murray, L. Kong, B. I. Lundqvist, and
     *   D. C. Langreth, Phys. Rev. B 82, 081101(R) (2010).
     *
     *
     * If you are calculating the stress with vdW-DF, please also cite:
     *
     *   R. Sabatini, E. Kucukbenli, B. Kolb, T. Thonhauser, and
     *   S. de Gironcoli, J. Phys.: Condens. Matter 24, 424209 (2012).
     *

     Carrying out vdW-DF run using the following parameters:

     Nqs =      20    Nr_points =    1024   r_max =   100.000
     q_mesh =
               0.00001000     0.04494208     0.09755937     0.15916263
               0.23128650     0.31572767     0.41458969     0.53033537
               0.66584808     0.82450364     1.01025438     1.22772762
               1.48234092     1.78043706     2.12944203     2.53805004
               3.01644009     3.57652955     4.23227104     5.00000000

     Gradients computed in reciprocal space

     Adding external electric field

     Computed dipole along edir(3) :
        Dipole               -0.0000 Ry au,         -0.0000 Debye
        Dipole field         -0.0000 Ry au

        Potential amp.        0.0000 Ry
        Total length         46.5234 bohr

     Starting wfc are  132 randomized atomic wfcs

     Self-consistent Calculation

     iteration #  1     ecut=    36.75 Ry     beta=0.10
     Davidson diagonalization with overlap
     ethr =  1.00E-02,  avg # of iterations =  7.7

     Threshold (ethr) on eigenvalues was too large:
     Diagonalizing with lowered threshold

     Davidson diagonalization with overlap
     ethr =  4.81E-05,  avg # of iterations =  8.5

[...]

     total energy              =   -3772.64081247 Ry
     Harris-Foulkes estimate   =   -3772.65518846 Ry
     estimated scf accuracy    <       0.10411628 Ry

[...]

     End of self-consistent calculation

          k = 0.0000 0.0000 0.0000 ( 24847 PWs)   bands (ev):

  -125.9797-125.9797-125.8382-125.8381-125.8381-125.8381 -80.1676 -80.1673
   -80.1616 -80.1612 -80.1529 -80.1526 -80.0294 -80.0293 -80.0291 -80.0290
   -80.0181 -80.0180 -80.0177 -80.0176 -80.0149 -80.0148 -80.0147 -80.0146
   -17.0165 -16.9991 -16.9933 -16.9749 -16.9737 -16.9706 -16.9568 -16.9562
   -16.9546 -16.9422 -16.9380 -16.9308 -16.9307 -16.9278 -16.9224 -16.9214
   -16.9207 -16.9172 -16.9101 -16.9040 -16.9035 -16.9029 -16.8967 -16.8860
   -16.8732 -16.8672 -16.8451 -16.8327 -16.8180 -16.7985  -9.9397  -8.9114
    -8.0582  -7.8916  -7.7118  -7.6764  -6.9261  -6.8862  -6.8713  -6.8627
    -6.8424  -6.8403  -6.8330  -6.8175  -6.7848  -6.7795  -6.7770  -6.7759
    -6.7710  -6.7404  -6.7270  -6.7167  -6.7150  -6.7065  -6.7000  -6.6956
    -6.6950  -6.6934  -6.6909  -6.6890  -6.6591  -6.6448  -6.3886  -6.3185
    -6.2699  -6.1342  -3.3564  -3.2313  -2.7300  -2.5285  -2.1894  -2.1242
    -1.9037  -1.7251  -1.6128  -1.2590  -0.8188  -0.7067  -0.4173  -0.1570
     0.0440   0.8310   1.4439   1.6337   2.3628   2.8022   3.2647   3.3191
     3.5031   3.6587   3.7730   3.8632   4.2263   4.4650   4.8406   4.8618
     5.0862   5.4122   6.2567   6.3618   6.5559   6.5744   6.6405   6.6721
     6.9898   7.0889   7.2762   7.4260

[...]

          k =-0.0779 0.0282 0.0000 ( 24794 PWs)   bands (ev):

[...]

     the Fermi energy is     0.4078 ev

!    total energy              =   -3772.64075713 Ry
     Harris-Foulkes estimate   =   -3772.64067918 Ry
     estimated scf accuracy    <       0.00000091 Ry

     The total energy is the sum of the following terms:

     one-electron contribution =  -17599.69662772 Ry
     hartree contribution      =    8822.81517435 Ry
     xc contribution           =    -651.86824795 Ry
     ewald contribution        =    5656.14530337 Ry
     electric field correction =       0.00000000 Ry
     smearing contrib. (-TS)   =      -0.03635919 Ry

     convergence has been achieved in  12 iterations

[...]
     Q(r) pseudized with  8 coefficients,  rinner =    1.100   1.100   1.100
                                                       1.100   1.100

     PseudoPot. # 2 for Pb read from file:
     /afs/slac.stanford.edu/u/if/mamunm/psp/gbrv1.5pbe/Pb.UPF
     MD5 check sum: 3d1c1779aa92214d1e8f3a7db79003e2
     Pseudo is Ultrasoft + core correction, Zval = 14.0
     Generated by new atomic code, or converted to UPF format
     Using radial grid of  899 points,  6 beta functions with:
                l(1) =   0
                l(2) =   0
                l(3) =   1
                l(4) =   1
                l(5) =   2
                l(6) =   2
     Q(r) pseudized with  6 coefficients,  rinner =    1.000   1.000   1.000
                                                       1.000   1.000

     vdW kernel table read from file vdW_kernel_table
     MD5 check sum: 095c7af220d748ca6e76c0b4c6cfb241

     atomic species   valence    mass     pseudopotential
        Zn1           20.00    65.38000     Zn( 1.00)
        Pb1           14.00   207.20000     Pb( 1.00)

     No symmetry found

   Cartesian axes

     site n.     atom                  positions (alat units)
         1           Zn1 tau(   1) = (   0.0000000   0.0000000  10.0000000  )
         2           Zn1 tau(   2) = (   4.2984303   3.0160073  10.0000000  )
         3           Pb1 tau(   3) = (   3.2073107   0.0000000  10.0000000  )
         4           Pb1 tau(   4) = (   1.0911196   3.0160073  10.0000000  )
         5           Zn1 tau(   5) = (   6.4146214   4.5008395  12.6251806  )
         6           Zn1 tau(   6) = (   2.1161911   1.4848322  12.6251806  )
         7           Pb1 tau(   7) = (   3.2073107   4.5008395  12.6251806  )
         8           Pb1 tau(   8) = (   5.3235018   1.4848322  12.6251806  )
         9           Zn1 tau(   9) = (   4.2325834   2.9697574  15.2800376  )
        10           Zn1 tau(  10) = (   8.5296172   5.9849067  15.2799815  )
        11           Pb1 tau(  11) = (   7.4440144   2.9726505  15.1989556  )
        12           Pb1 tau(  12) = (   5.3277173   5.9887202  15.1988559  )

     number of k points=    20  Fermi-Dirac smearing, width (Ry)=  0.0110
                       cart. coord. in units 2pi/alat
        k(    1) = (   0.0000000   0.0000000   0.0000000), wk =   0.0555556
        k(    2) = (   0.0000000   0.0276303   0.0000000), wk =   0.1111111
        k(    3) = (   0.0000000   0.0552607   0.0000000), wk =   0.1111111
        k(    4) = (   0.0000000  -0.0828910   0.0000000), wk =   0.0555556
        k(    5) = (   0.0259823  -0.0093998   0.0000000), wk =   0.1111111
        k(    6) = (   0.0259823   0.0182306   0.0000000), wk =   0.1111111
        k(    7) = (   0.0259823   0.0458609   0.0000000), wk =   0.1111111
        k(    8) = (   0.0259823  -0.0922908   0.0000000), wk =   0.1111111
        k(    9) = (   0.0259823  -0.0646605   0.0000000), wk =   0.1111111
        k(   10) = (   0.0259823  -0.0370301   0.0000000), wk =   0.1111111
        k(   11) = (   0.0519646  -0.0187996   0.0000000), wk =   0.1111111
        k(   12) = (   0.0519646   0.0088308   0.0000000), wk =   0.1111111
        k(   13) = (   0.0519646   0.0364611   0.0000000), wk =   0.1111111
        k(   14) = (   0.0519646  -0.1016906   0.0000000), wk =   0.1111111
        k(   15) = (   0.0519646  -0.0740603   0.0000000), wk =   0.1111111
        k(   16) = (   0.0519646  -0.0464299   0.0000000), wk =   0.1111111
        k(   17) = (  -0.0779469   0.0281993   0.0000000), wk =   0.0555556
        k(   18) = (  -0.0779469   0.0558297   0.0000000), wk =   0.1111111
        k(   19) = (  -0.0779469   0.0834600   0.0000000), wk =   0.1111111
        k(   20) = (  -0.0779469  -0.0546917   0.0000000), wk =   0.0555556

     Largest allocated arrays     est. size (Mb)     dimensions
     Largest temporary arrays     est. size (Mb)     dimensions

     Check: negative/imaginary core charge=   -0.000001    0.000000

     Initial potential from superposition of free atoms
     Check: negative starting charge=   -0.102459

     starting charge  203.98504, renormalised to  204.00000

[...]

     *
     * You are using vdW-DF for exchange-correlation in this calculation.
     * Please cite the following three references that made this development
     * possible:
     *
     *   M. Dion, H. Rydberg, E. Schroder, D. C. Langreth, and
     *   B. I. Lundqvist, Phys. Rev. Lett. 92, 246401 (2004).
     *
     *   T. Thonhauser, V. R. Cooper, S. Li, A. Puzder, P. Hyldgaard, and
     *   D. C. Langreth, Phys. Rev. B 76, 125112 (2007).
     *
     *   G. Roman-Perez and J. M. Soler, Phys. Rev. Lett. 103, 096102 (2009).
     *
     *
     * If you are using vdW-DF2, please also cite:
     *
     *   K. Lee, E. D. Murray, L. Kong, B. I. Lundqvist, and
     *   D. C. Langreth, Phys. Rev. B 82, 081101(R) (2010).
     *
     *
     * If you are calculating the stress with vdW-DF, please also cite:
     *
     *   R. Sabatini, E. Kucukbenli, B. Kolb, T. Thonhauser, and
     *   S. de Gironcoli, J. Phys.: Condens. Matter 24, 424209 (2012).
     *

     Carrying out vdW-DF run using the following parameters:

     Nqs =      20    Nr_points =    1024   r_max =   100.000
     q_mesh =
               0.00001000     0.04494208     0.09755937     0.15916263
               0.23128650     0.31572767     0.41458969     0.53033537
               0.66584808     0.82450364     1.01025438     1.22772762
               1.48234092     1.78043706     2.12944203     2.53805004
               3.01644009     3.57652955     4.23227104     5.00000000

     Gradients computed in reciprocal space

[...]

     Starting wfc are  132 randomized atomic wfcs

     Self-consistent Calculation

[...]

     Threshold (ethr) on eigenvalues was too large:
     Diagonalizing with lowered threshold

     Davidson diagonalization with overlap
     ethr =  4.88E-05,  avg # of iterations =  8.4

[...]

     total energy              =   -3772.64111776 Ry
     Harris-Foulkes estimate   =   -3772.64105614 Ry
     estimated scf accuracy    <       0.00000146 Ry

     iteration # 12     ecut=    36.75 Ry     beta=0.10
     Davidson diagonalization with overlap
     ethr =  7.14E-10,  avg # of iterations =  4.4

[...]

     negative rho (up, down):  1.078E-01 0.000E+00

     Adding external electric field

     Computed dipole along edir(3) :
        Dipole               -0.0028 Ry au,         -0.0072 Debye
        Dipole field         -0.0000 Ry au

        Potential amp.        0.0005 Ry
        Total length         46.5234 bohr

     End of self-consistent calculation

[...]

          k = 0.0520-0.0464 0.0000 ( 24764 PWs)   bands (ev):

[...]

          k =-0.0779-0.0547 0.0000 ( 24794 PWs)   bands (ev):

  -126.0042-126.0041-125.8463-125.8463-125.8415-125.8415 -80.1912 -80.1910
   -80.1862 -80.1858 -80.1772 -80.1770 -80.0371 -80.0368 -80.0327 -80.0324
   -80.0262 -80.0259 -80.0232 -80.0230 -80.0213 -80.0210 -80.0186 -80.0183
   -17.0168 -17.0018 -17.0007 -16.9926 -16.9717 -16.9678 -16.9642 -16.9593
   -16.9539 -16.9394 -16.9330 -16.9318 -16.9306 -16.9296 -16.9238 -16.9227
   -16.9162 -16.9158 -16.9123 -16.9079 -16.9042 -16.8990 -16.8931 -16.8832
   -16.8730 -16.8728 -16.8692 -16.8487 -16.8301 -16.8014  -8.9303  -8.8352
    -8.4927  -8.3576  -7.6733  -6.9878  -6.9557  -6.9553  -6.9229  -6.8962
    -6.8921  -6.8901  -6.8772  -6.8701  -6.8668  -6.8095  -6.8025  -6.7989
    -6.7929  -6.7780  -6.7660  -6.7546  -6.7473  -6.7460  -6.7349  -6.7293
    -6.7242  -6.7208  -6.7182  -6.7089  -6.7003  -6.6957  -6.6736  -6.6684
    -6.6170  -6.2071  -4.7452  -4.7404  -4.1527  -3.4484  -3.4145  -1.4924
    -0.3991   0.1072   0.2042   0.2227   0.3934   0.4290   1.4793   1.7184
     1.7298   2.0911   2.1625   2.5990   3.0211   3.0353   3.3539   3.4021
     3.5144   3.8336   3.8623   4.3941   4.4088   4.4958   4.5035   4.5175
     4.5446   4.7384   4.9924   5.0288   5.1409   5.1421   5.3413   5.4015
     5.4508   5.7296   5.7798   6.0836

     the Fermi energy is     0.3936 ev

!    total energy              =   -3772.64119313 Ry
     Harris-Foulkes estimate   =   -3772.64111808 Ry
     estimated scf accuracy    <       0.00000026 Ry

     The total energy is the sum of the following terms:

     one-electron contribution =  -17607.87234010 Ry
     hartree contribution      =    8826.84681563 Ry
     xc contribution           =    -651.88123851 Ry
     ewald contribution        =    5660.30220619 Ry
     electric field correction =       0.00000002 Ry
     smearing contrib. (-TS)   =      -0.03663636 Ry

     convergence has been achieved in  12 iterations

 BEEF-vdW xc energy contributions
           1 :   -580.345931828295
           2 :    533.463630409245
           3 :   -452.936124054479
           4 :    359.281044888168
           5 :   -271.901041785426
           6 :    202.468104055832
           7 :   -152.842308358325
           8 :    117.683152333656
           9 :   -89.5672662422076
          10 :    63.5126401231399
          11 :   -38.7303296235333
          12 :    17.3962426059051
          13 :   -1.97770015348999
          14 :   -6.87307465611457
          15 :    10.6839245738164
          16 :   -12.0039356871739
          17 :    12.8639435175413
          18 :   -13.9639033147496
          19 :    14.9207736223628
          20 :   -15.1071159282386
          21 :    14.3298760024999
          22 :   -12.9234525547361
          23 :    11.3818080658538
          24 :   -9.98126283950148
          25 :    8.73083458547524
          26 :   -7.61217980931758
          27 :    6.79008082229154
          28 :   -6.53539871921942
          29 :    6.91448060106393
          30 :   -7.56208695001396
          31 :   -45.7024038781190
          32 :   -32.4655327523767

     Forces acting on atoms (Ry/au):

     negative rho (up, down):  1.078E-01 0.000E+00
     atom    1 type  1   force =     0.00000361    0.00000097   -0.00143425
     atom    2 type  1   force =    -0.00000256    0.00000162   -0.00143678
     atom    3 type  2   force =    -0.00035473   -0.00021999    0.00368377
     atom    4 type  2   force =    -0.00032391   -0.00025615    0.00369855
     atom    5 type  1   force =     0.00004239    0.00003101   -0.00167860
     atom    6 type  1   force =    -0.00000630   -0.00000751   -0.00167686
     atom    7 type  2   force =    -0.00009095   -0.00006480   -0.00054660
     atom    8 type  2   force =    -0.00009182   -0.00006448   -0.00054763
     atom    9 type  1   force =     0.00023729    0.00016780    0.00064482
     atom   10 type  1   force =     0.00016359    0.00011627    0.00064952
     atom   11 type  2   force =     0.00021911    0.00013646   -0.00068468
     atom   12 type  2   force =     0.00020429    0.00015880   -0.00067125

     Total force =     0.006324     Total SCF correction =     0.001664
     SCF correction compared to forces is large: reduce conv_thr to get better values

     entering subroutine stress ...

     negative rho (up, down):  1.078E-01 0.000E+00
          total   stress  (Ry/bohr**3)                   (kbar)     P=   -6.97
  -0.00006413  -0.00001078   0.00000107         -9.43     -1.59      0.16
  -0.00001078  -0.00005633   0.00000075         -1.59     -8.29      0.11
   0.00000107   0.00000075  -0.00002176          0.16      0.11     -3.20

 !ASE

     Writing output data file calc.save

     General routines

     Parallel routines

   This run was terminated on:   6:14:43  25Dec2018

   JOB DONE.
Job  /afs/slac/g/suncat/bin/suncat-tsmpirun -x LD_LIBRARY_PATH -wdir /scratch/qe109230_gFj9U pw.x -in pw.inp

TID   HOST_NAME   COMMAND_LINE            STATUS            TERMINATION_TIME
00000 suncat0196 pw.x -in pw.inp   Done                     12/25/2018 06:14:43
00001 suncat0196 pw.x -in pw.inp   Done                     12/25/2018 06:14:43
00002 suncat0196 pw.x -in pw.inp   Done                     12/25/2018 06:14:43
00003 suncat0196 pw.x -in pw.inp   Done                     12/25/2018 06:14:43
00004 suncat0196 pw.x -in pw.inp   Done                     12/25/2018 06:14:43
00005 suncat0196 pw.x -in pw.inp   Done                     12/25/2018 06:14:43
00006 suncat0196 pw.x -in pw.inp   Done                     12/25/2018 06:14:43
00007 suncat0196 pw.x -in pw.inp   Done                     12/25/2018 06:14:43
00008 suncat0194 pw.x -in pw.inp   Done                     12/25/2018 06:14:43
00009 suncat0194 pw.x -in pw.inp   Done                     12/25/2018 06:14:43
00010 suncat0194 pw.x -in pw.inp   Done                     12/25/2018 06:14:43
00011 suncat0194 pw.x -in pw.inp   Done                     12/25/2018 06:14:43
00012 suncat0194 pw.x -in pw.inp   Done                     12/25/2018 06:14:43
00013 suncat0194 pw.x -in pw.inp   Done                     12/25/2018 06:14:43
00014 suncat0194 pw.x -in pw.inp   Done                     12/25/2018 06:14:43
00015 suncat0194 pw.x -in pw.inp   Done                     12/25/2018 06:14:43
00016 suncat0167 pw.x -in pw.inp   Done                     12/25/2018 06:14:43
00017 suncat0167 pw.x -in pw.inp   Done                     12/25/2018 06:14:43
00018 suncat0167 pw.x -in pw.inp   Done                     12/25/2018 06:14:43
00019 suncat0167 pw.x -in pw.inp   Done                     12/25/2018 06:14:43
00020 suncat0167 pw.x -in pw.inp   Done                     12/25/2018 06:14:43
00021 suncat0167 pw.x -in pw.inp   Done                     12/25/2018 06:14:43
00022 suncat0167 pw.x -in pw.inp   Done                     12/25/2018 06:14:43
00023 suncat0167 pw.x -in pw.inp   Done                     12/25/2018 06:14:43
00024 suncat0166 pw.x -in pw.inp   Done                     12/25/2018 06:14:43
00025 suncat0166 pw.x -in pw.inp   Done                     12/25/2018 06:14:43
00026 suncat0166 pw.x -in pw.inp   Done                     12/25/2018 06:14:43
00027 suncat0166 pw.x -in pw.inp   Done                     12/25/2018 06:14:43
00028 suncat0166 pw.x -in pw.inp   Done                     12/25/2018 06:14:43
00029 suncat0166 pw.x -in pw.inp   Done                     12/25/2018 06:14:43
00030 suncat0166 pw.x -in pw.inp   Done                     12/25/2018 06:14:43
00031 suncat0166 pw.x -in pw.inp   Done                     12/25/2018 06:14:43
00032 suncat0165 pw.x -in pw.inp   Done                     12/25/2018 06:14:43
00033 suncat0165 pw.x -in pw.inp   Done                     12/25/2018 06:14:43
00034 suncat0165 pw.x -in pw.inp   Done                     12/25/2018 06:14:43
00035 suncat0165 pw.x -in pw.inp   Done                     12/25/2018 06:14:43
00036 suncat0165 pw.x -in pw.inp   Done                     12/25/2018 06:14:43
00037 suncat0165 pw.x -in pw.inp   Done                     12/25/2018 06:14:43
00038 suncat0165 pw.x -in pw.inp   Done                     12/25/2018 06:14:43
00039 suncat0165 pw.x -in pw.inp   Done                     12/25/2018 06:14:43
00040 suncat0164 pw.x -in pw.inp   Done                     12/25/2018 06:14:43
00041 suncat0164 pw.x -in pw.inp   Done                     12/25/2018 06:14:43
00042 suncat0164 pw.x -in pw.inp   Done                     12/25/2018 06:14:43
00043 suncat0164 pw.x -in pw.inp   Done                     12/25/2018 06:14:43
00044 suncat0164 pw.x -in pw.inp   Done                     12/25/2018 06:14:43
00045 suncat0164 pw.x -in pw.inp   Done                     12/25/2018 06:14:43
00046 suncat0164 pw.x -in pw.inp   Done                     12/25/2018 06:14:43
00047 suncat0164 pw.x -in pw.inp   Done                     12/25/2018 06:14:43
00048 suncat0149 pw.x -in pw.inp   Done                     12/25/2018 06:14:43
00049 suncat0149 pw.x -in pw.inp   Done                     12/25/2018 06:14:43
00050 suncat0149 pw.x -in pw.inp   Done                     12/25/2018 06:14:43
00051 suncat0149 pw.x -in pw.inp   Done                     12/25/2018 06:14:43
00052 suncat0149 pw.x -in pw.inp   Done                     12/25/2018 06:14:43
00053 suncat0149 pw.x -in pw.inp   Done                     12/25/2018 06:14:43
00054 suncat0149 pw.x -in pw.inp   Done                     12/25/2018 06:14:43
00055 suncat0149 pw.x -in pw.inp   Done                     12/25/2018 06:14:43
00056 suncat0148 pw.x -in pw.inp   Done                     12/25/2018 06:14:43
00057 suncat0148 pw.x -in pw.inp   Done                     12/25/2018 06:14:43
00058 suncat0148 pw.x -in pw.inp   Done                     12/25/2018 06:14:43
00059 suncat0148 pw.x -in pw.inp   Done                     12/25/2018 06:14:43
00060 suncat0148 pw.x -in pw.inp   Done                     12/25/2018 06:14:43
00061 suncat0148 pw.x -in pw.inp   Done                     12/25/2018 06:14:43
00062 suncat0148 pw.x -in pw.inp   Done                     12/25/2018 06:14:43
00063 suncat0148 pw.x -in pw.inp   Done                     12/25/2018 06:14:43