     Program PWSCF v.5.1rc2 (svn rev. 11289) starts on 25Dec2018 at  8:16:53

     Current dimensions of program PWSCF are:
     Max number of different atomic species (ntypx) = 10
     Max number of k-points (npk) =  40000
     Max angular momentum in pseudopotentials (lmaxx) =  3
     Presently stress not available with electric field

     IMPORTANT: XC functional enforced from input :
     Exchange-correlation      = BEEF-VDW ( 1  4 27 13 2)
     Any further DFT definition will be discarded
     Please, verify this is what you really want

     Subspace diagonalization in iterative solution of the eigenvalue problem:
     a serial algorithm will be used

     Found symmetry operation: I + ( -0.5000  0.5000  0.0000)
     This is a supercell, fractional translations are disabled

     bravais-lattice index     =            0
     lattice parameter (alat)  =       1.8897  a.u.
     unit-cell volume          =    5943.2185 (a.u.)^3
     number of atoms/cell      =           12
     number of atomic types    =            2
     number of electrons       =       156.00
     number of Kohn-Sham states=          108
     kinetic-energy cutoff     =      36.7493  Ry
     charge density cutoff     =     367.4932  Ry
     convergence threshold     =      1.0E-06
     mixing beta               =       0.1000
     number of iterations used =           10  plain     mixing
     Exchange-correlation      = BEEF-VDW ( 1  4 27 13 2)
     nstep                     =           50

     celldm(1)=   1.889726  celldm(2)=   0.000000  celldm(3)=   0.000000
     celldm(4)=   0.000000  celldm(5)=   0.000000  celldm(6)=   0.000000

     crystal axes: (cart. coord. in units of alat)
               a(1) = (   6.287017   0.000000   0.000000 )
               a(2) = (   2.928979   5.563063   0.000000 )
               a(3) = (   0.000000   0.000000  25.180625 )

     reciprocal axes: (cart. coord. in units 2 pi/alat)
               b(1) = (  0.159058 -0.083745  0.000000 )
               b(2) = (  0.000000  0.179757  0.000000 )
               b(3) = (  0.000000  0.000000  0.039713 )

     PseudoPot. # 1 for Zr read from file:
     /afs/slac.stanford.edu/u/if/mamunm/psp/gbrv1.5pbe/Zr.UPF
     MD5 check sum: 5db81b1e868ab7776c4564c113de050b
     Pseudo is Ultrasoft + core correction, Zval = 12.0
     Generated by new atomic code, or converted to UPF format
     Using radial grid of  887 points,  6 beta functions with:
                l(1) =   0
                l(2) =   0
                l(3) =   1
                l(4) =   1
                l(5) =   2
                l(6) =   2
     Q(r) pseudized with  6 coefficients,  rinner =    1.200   1.200   1.200
                                                       1.200   1.200

     PseudoPot. # 2 for Sn read from file:
     /afs/slac.stanford.edu/u/if/mamunm/psp/gbrv1.5pbe/Sn.UPF
     MD5 check sum: 469debedee59599fedebd795477fea03
     Pseudo is Ultrasoft + core correction, Zval = 14.0
     Generated by new atomic code, or converted to UPF format
     Using radial grid of  891 points,  6 beta functions with:
                l(1) =   0
                l(2) =   0
                l(3) =   1
                l(4) =   1
                l(5) =   2
                l(6) =   2
     Q(r) pseudized with  8 coefficients,  rinner =    1.350   1.350   1.350
                                                       1.350   1.350

     vdW kernel table read from file vdW_kernel_table
     MD5 check sum: 095c7af220d748ca6e76c0b4c6cfb241

     atomic species   valence    mass     pseudopotential
        Zr1           12.00    91.22400     Zr( 1.00)
        Sn1           14.00   118.71000     Sn( 1.00)

     No symmetry found

   Cartesian axes

     site n.     atom                  positions (alat units)
         1           Zr1 tau(   1) = (   0.0000000   0.0000000  10.0000000  )
         2           Zr1 tau(   2) = (   4.6079982   2.7815313  10.0000000  )
         3           Sn1 tau(   3) = (   3.1435086   0.0000000  10.0000000  )
         4           Sn1 tau(   4) = (   1.4644896   2.7815313  10.0000000  )
         5           Zr1 tau(   5) = (   6.2870172   3.7950395  12.5903123  )
         6           Zr1 tau(   6) = (   1.6790190   1.0135082  12.5903123  )
         7           Sn1 tau(   7) = (   3.1435086   3.7950395  12.5903123  )
         8           Sn1 tau(   8) = (   4.8225276   1.0135082  12.5903123  )
         9           Zr1 tau(   9) = (   3.3580380   2.0270163  15.1806245  )
        10           Zr1 tau(  10) = (   7.9660362   4.8085477  15.1806245  )
        11           Sn1 tau(  11) = (   6.5015465   2.0270163  15.1806245  )
        12           Sn1 tau(  12) = (   4.8225276   4.8085477  15.1806245  )

     number of k points=    20  Fermi-Dirac smearing, width (Ry)=  0.0110
                       cart. coord. in units 2pi/alat
        k(    1) = (   0.0000000   0.0000000   0.0000000), wk =   0.0555556
        k(    2) = (   0.0000000   0.0299595   0.0000000), wk =   0.1111111
        k(    3) = (   0.0000000   0.0599190   0.0000000), wk =   0.1111111
        k(    4) = (   0.0000000  -0.0898785   0.0000000), wk =   0.0555556
        k(    5) = (   0.0265097  -0.0139575   0.0000000), wk =   0.1111111
        k(    6) = (   0.0265097   0.0160021   0.0000000), wk =   0.1111111
        k(    7) = (   0.0265097   0.0459616   0.0000000), wk =   0.1111111
        k(    8) = (   0.0265097  -0.1038360   0.0000000), wk =   0.1111111
        k(    9) = (   0.0265097  -0.0738765   0.0000000), wk =   0.1111111
        k(   10) = (   0.0265097  -0.0439170   0.0000000), wk =   0.1111111
        k(   11) = (   0.0530193  -0.0279149   0.0000000), wk =   0.1111111
        k(   12) = (   0.0530193   0.0020446   0.0000000), wk =   0.1111111
        k(   13) = (   0.0530193   0.0320041   0.0000000), wk =   0.1111111
        k(   14) = (   0.0530193  -0.1177935   0.0000000), wk =   0.1111111
        k(   15) = (   0.0530193  -0.0878340   0.0000000), wk =   0.1111111
        k(   16) = (   0.0530193  -0.0578744   0.0000000), wk =   0.1111111
        k(   17) = (  -0.0795290   0.0418724   0.0000000), wk =   0.0555556
        k(   18) = (  -0.0795290   0.0718319   0.0000000), wk =   0.1111111
        k(   19) = (  -0.0795290   0.1017914   0.0000000), wk =   0.1111111
        k(   20) = (  -0.0795290  -0.0480062   0.0000000), wk =   0.0555556

     Largest allocated arrays     est. size (Mb)     dimensions
     Largest temporary arrays     est. size (Mb)     dimensions

     Initial potential from superposition of free atoms
     Check: negative starting charge=   -0.368608

     starting charge  149.98683, renormalised to  156.00000

     negative rho (up, down):  3.834E-01 0.000E+00

     *
     * You are using vdW-DF for exchange-correlation in this calculation.
     * Please cite the following three references that made this development
     * possible:
     *
     *   M. Dion, H. Rydberg, E. Schroder, D. C. Langreth, and
     *   B. I. Lundqvist, Phys. Rev. Lett. 92, 246401 (2004).
     *
     *   T. Thonhauser, V. R. Cooper, S. Li, A. Puzder, P. Hyldgaard, and
     *   D. C. Langreth, Phys. Rev. B 76, 125112 (2007).
     *
     *   G. Roman-Perez and J. M. Soler, Phys. Rev. Lett. 103, 096102 (2009).
     *
     *
     * If you are using vdW-DF2, please also cite:
     *
     *   K. Lee, E. D. Murray, L. Kong, B. I. Lundqvist, and
     *   D. C. Langreth, Phys. Rev. B 82, 081101(R) (2010).
     *
     *
     * If you are calculating the stress with vdW-DF, please also cite:
     *
     *   R. Sabatini, E. Kucukbenli, B. Kolb, T. Thonhauser, and
     *   S. de Gironcoli, J. Phys.: Condens. Matter 24, 424209 (2012).
     *

     Carrying out vdW-DF run using the following parameters:

     Nqs =      20    Nr_points =    1024   r_max =   100.000
     q_mesh =
               0.00001000     0.04494208     0.09755937     0.15916263
               0.23128650     0.31572767     0.41458969     0.53033537
               0.66584808     0.82450364     1.01025438     1.22772762
               1.48234092     1.78043706     2.12944203     2.53805004
               3.01644009     3.57652955     4.23227104     5.00000000

     Gradients computed in reciprocal space

     Adding external electric field

     Computed dipole along edir(3) :
        Dipole               -0.0000 Ry au,         -0.0000 Debye
        Dipole field         -0.0000 Ry au

        Potential amp.        0.0000 Ry
        Total length         46.3949 bohr

     Starting wfc are  132 randomized atomic wfcs

     Self-consistent Calculation

     iteration #  1     ecut=    36.75 Ry     beta=0.10
     Davidson diagonalization with overlap
     ethr =  1.00E-02,  avg # of iterations =  5.0

[...]

     total energy              =   -1563.56241975 Ry
     Harris-Foulkes estimate   =   -1564.01216834 Ry
     estimated scf accuracy    <       2.91279330 Ry

[...]

     End of self-consistent calculation

          k = 0.0000 0.0000 0.0000 ( 22375 PWs)   bands (ev):

   -48.1048 -48.1043 -48.0679 -48.0675 -47.6805 -47.6420 -26.2244 -26.2152
   -26.1785 -26.1675 -26.1326 -26.1321 -26.0798 -26.0500 -26.0305 -26.0023
   -25.8522 -25.8064 -25.7520 -25.7111 -25.7110 -25.5509 -25.5029 -25.4127
   -20.3839 -20.3376 -20.2830 -20.2667 -20.2447 -20.2426 -20.2391 -20.2171
   -20.2135 -20.1481 -19.9889 -19.9831 -19.9419 -19.9367 -19.8760 -19.8734
   -19.8728 -19.8725 -19.8493 -19.8457 -19.8224 -19.8202 -19.8098 -19.8034
   -19.8025 -19.8018 -19.8011 -19.7952 -19.7376 -19.7376  -8.2529  -6.9375
    -6.0746  -5.6367  -4.5914  -4.1226  -2.3058  -1.7222  -1.4070  -1.3005
    -1.1099  -0.8577  -0.7990  -0.4898   0.1922   0.2320   0.3068   0.5155
     0.7974   0.8554   0.9858   1.2335   1.2721   1.2827   1.4316   1.5091
     2.0682   2.2423   2.3329   2.4880   2.6685   2.6947   3.1327   3.1936
     3.2212   3.3659   3.4567   3.5257   3.6762   3.8634   3.9597   3.9857
     4.0082   4.0558   4.6123   4.6733   4.6952   4.7659   4.9916   5.0179
     5.2471   5.3370   5.5834   5.7303

[...]

          k =-0.0795 0.0419 0.0000 ( 22358 PWs)   bands (ev):

[...]

     the Fermi energy is     1.6360 ev

!    total energy              =   -1562.92952833 Ry
     Harris-Foulkes estimate   =   -1562.92953191 Ry
     estimated scf accuracy    <       0.00000053 Ry

     The total energy is the sum of the following terms:

     one-electron contribution =   -9978.97742488 Ry
     hartree contribution      =    5019.27662144 Ry
     xc contribution           =    -377.77624620 Ry
     ewald contribution        =    3774.60423253 Ry
     electric field correction =       0.00000000 Ry
     smearing contrib. (-TS)   =      -0.05671121 Ry

     convergence has been achieved in  15 iterations

 BEEF-vdW xc energy contributions
           1 :   -329.677425501634
           2 :    301.288392019531
           3 :   -253.115034428345
           4 :    198.438326617510
           5 :   -149.708918815052
           6 :    114.193732215730
           7 :   -92.5488935876869
           8 :    80.4385693629761
           9 :   -71.9167337102878
          10 :    62.6771436262684
          11 :   -51.6677947751072
          12 :    40.6077865268555
          13 :   -32.0983075051867
[...]
               b(3) = (  0.000000  0.000000  0.039713 )

     PseudoPot. # 1 for Zr read from file:
     /afs/slac.stanford.edu/u/if/mamunm/psp/gbrv1.5pbe/Zr.UPF
     MD5 check sum: 5db81b1e868ab7776c4564c113de050b
     Pseudo is Ultrasoft + core correction, Zval = 12.0
     Generated by new atomic code, or converted to UPF format
     Using radial grid of  887 points,  6 beta functions with:
                l(1) =   0
                l(2) =   0
                l(3) =   1
                l(4) =   1
                l(5) =   2
                l(6) =   2
     Q(r) pseudized with  6 coefficients,  rinner =    1.200   1.200   1.200
                                                       1.200   1.200

     PseudoPot. # 2 for Sn read from file:
     /afs/slac.stanford.edu/u/if/mamunm/psp/gbrv1.5pbe/Sn.UPF
     MD5 check sum: 469debedee59599fedebd795477fea03
     Pseudo is Ultrasoft + core correction, Zval = 14.0
     Generated by new atomic code, or converted to UPF format
     Using radial grid of  891 points,  6 beta functions with:
                l(1) =   0
                l(2) =   0
                l(3) =   1
                l(4) =   1
                l(5) =   2
                l(6) =   2
     Q(r) pseudized with  8 coefficients,  rinner =    1.350   1.350   1.350
                                                       1.350   1.350

     vdW kernel table read from file vdW_kernel_table
     MD5 check sum: 095c7af220d748ca6e76c0b4c6cfb241

     atomic species   valence    mass     pseudopotential
        Zr1           12.00    91.22400     Zr( 1.00)
        Sn1           14.00   118.71000     Sn( 1.00)

     No symmetry found

   Cartesian axes

     site n.     atom                  positions (alat units)
         1           Zr1 tau(   1) = (   0.0000000   0.0000000  10.0000000  )
         2           Zr1 tau(   2) = (   4.6079982   2.7815313  10.0000000  )
         3           Sn1 tau(   3) = (   3.1435086   0.0000000  10.0000000  )
         4           Sn1 tau(   4) = (   1.4644896   2.7815313  10.0000000  )
         5           Zr1 tau(   5) = (   6.2870172   3.7950395  12.5903123  )
         6           Zr1 tau(   6) = (   1.6790190   1.0135082  12.5903123  )
         7           Sn1 tau(   7) = (   3.1435086   3.7950395  12.5903123  )
         8           Sn1 tau(   8) = (   4.8225276   1.0135082  12.5903123  )
         9           Zr1 tau(   9) = (   3.3411761   2.0168386  15.0307308  )
        10           Zr1 tau(  10) = (   7.9491992   4.7983799  15.0307274  )
        11           Sn1 tau(  11) = (   6.5129643   2.0338803  15.4390947  )
        12           Sn1 tau(  12) = (   4.8339489   4.8154366  15.4390939  )

     number of k points=    20  Fermi-Dirac smearing, width (Ry)=  0.0110
                       cart. coord. in units 2pi/alat
        k(    1) = (   0.0000000   0.0000000   0.0000000), wk =   0.0555556
        k(    2) = (   0.0000000   0.0299595   0.0000000), wk =   0.1111111
        k(    3) = (   0.0000000   0.0599190   0.0000000), wk =   0.1111111
        k(    4) = (   0.0000000  -0.0898785   0.0000000), wk =   0.0555556
        k(    5) = (   0.0265097  -0.0139575   0.0000000), wk =   0.1111111
        k(    6) = (   0.0265097   0.0160021   0.0000000), wk =   0.1111111
        k(    7) = (   0.0265097   0.0459616   0.0000000), wk =   0.1111111
        k(    8) = (   0.0265097  -0.1038360   0.0000000), wk =   0.1111111
        k(    9) = (   0.0265097  -0.0738765   0.0000000), wk =   0.1111111
        k(   10) = (   0.0265097  -0.0439170   0.0000000), wk =   0.1111111
        k(   11) = (   0.0530193  -0.0279149   0.0000000), wk =   0.1111111
        k(   12) = (   0.0530193   0.0020446   0.0000000), wk =   0.1111111
        k(   13) = (   0.0530193   0.0320041   0.0000000), wk =   0.1111111
        k(   14) = (   0.0530193  -0.1177935   0.0000000), wk =   0.1111111
        k(   15) = (   0.0530193  -0.0878340   0.0000000), wk =   0.1111111
        k(   16) = (   0.0530193  -0.0578744   0.0000000), wk =   0.1111111
        k(   17) = (  -0.0795290   0.0418724   0.0000000), wk =   0.0555556
        k(   18) = (  -0.0795290   0.0718319   0.0000000), wk =   0.1111111
        k(   19) = (  -0.0795290   0.1017914   0.0000000), wk =   0.1111111
        k(   20) = (  -0.0795290  -0.0480062   0.0000000), wk =   0.0555556

     Largest allocated arrays     est. size (Mb)     dimensions
     Largest temporary arrays     est. size (Mb)     dimensions

     Initial potential from superposition of free atoms
     Check: negative starting charge=   -0.368425

     starting charge  149.98683, renormalised to  156.00000

[...]

     *
     * You are using vdW-DF for exchange-correlation in this calculation.
     * Please cite the following three references that made this development
     * possible:
     *
     *   M. Dion, H. Rydberg, E. Schroder, D. C. Langreth, and
     *   B. I. Lundqvist, Phys. Rev. Lett. 92, 246401 (2004).
     *
     *   T. Thonhauser, V. R. Cooper, S. Li, A. Puzder, P. Hyldgaard, and
     *   D. C. Langreth, Phys. Rev. B 76, 125112 (2007).
     *
     *   G. Roman-Perez and J. M. Soler, Phys. Rev. Lett. 103, 096102 (2009).
     *
     *
     * If you are using vdW-DF2, please also cite:
     *
     *   K. Lee, E. D. Murray, L. Kong, B. I. Lundqvist, and
     *   D. C. Langreth, Phys. Rev. B 82, 081101(R) (2010).
     *
     *
     * If you are calculating the stress with vdW-DF, please also cite:
     *
     *   R. Sabatini, E. Kucukbenli, B. Kolb, T. Thonhauser, and
     *   S. de Gironcoli, J. Phys.: Condens. Matter 24, 424209 (2012).
     *

     Carrying out vdW-DF run using the following parameters:

     Nqs =      20    Nr_points =    1024   r_max =   100.000
     q_mesh =
               0.00001000     0.04494208     0.09755937     0.15916263
               0.23128650     0.31572767     0.41458969     0.53033537
               0.66584808     0.82450364     1.01025438     1.22772762
               1.48234092     1.78043706     2.12944203     2.53805004
               3.01644009     3.57652955     4.23227104     5.00000000

     Gradients computed in reciprocal space

[...]

     Starting wfc are  132 randomized atomic wfcs

     Self-consistent Calculation

[...]

     total energy              =   -1562.95602678 Ry
     Harris-Foulkes estimate   =   -1562.95602746 Ry
     estimated scf accuracy    <       0.00000140 Ry

     iteration # 17     ecut=    36.75 Ry     beta=0.10
     Davidson diagonalization with overlap
     ethr =  8.99E-10,  avg # of iterations =  2.0

[...]

     negative rho (up, down):  3.714E-01 0.000E+00

     Adding external electric field

     Computed dipole along edir(3) :
        Dipole               -0.0724 Ry au,         -0.1840 Debye
        Dipole field         -0.0002 Ry au

        Potential amp.        0.0142 Ry
        Total length         46.3949 bohr

     End of self-consistent calculation

[...]

          k = 0.0530-0.0579 0.0000 ( 22364 PWs)   bands (ev):

[...]

          k =-0.0795-0.0480 0.0000 ( 22296 PWs)   bands (ev):

   -48.1899 -48.1531 -48.0504 -48.0132 -47.7569 -47.7187 -26.3071 -26.2579
   -26.2254 -26.1843 -26.1490 -26.1325 -26.1115 -26.0972 -26.0448 -25.9926
   -25.9282 -25.8763 -25.8256 -25.8021 -25.6826 -25.5868 -25.5425 -25.4918
   -20.4118 -20.3564 -20.3064 -20.2932 -20.2617 -20.2613 -20.2591 -20.2477
   -20.2390 -20.1779 -20.0625 -20.0533 -20.0159 -20.0036 -19.9507 -19.9388
   -19.9368 -19.9246 -19.9187 -19.9090 -19.8928 -19.8826 -19.8775 -19.8760
   -19.8729 -19.8675 -19.8579 -19.8488 -19.8129 -19.7878  -7.4724  -6.6813
    -6.0297  -5.4282  -4.3499  -3.3373  -3.2906  -3.2627  -2.6735  -2.0499
    -1.8896  -1.8040  -1.6264  -1.0321  -0.6688  -0.6662  -0.2812  -0.1781
     0.5127   0.6886   0.9580   1.1545   1.4676   1.9588   2.2273   2.3101
     2.3718   2.4385   2.4492   2.5792   2.7547   2.9116   2.9982   3.1772
     3.3158   3.5233   3.6009   3.8952   4.0476   4.0702   4.2938   4.8786
     4.9649   4.9751   5.2865   5.4446   5.5288   5.5684   5.7432   5.8854
     5.9357   6.0801   6.0858   6.1292

     the Fermi energy is     1.5483 ev

!    total energy              =   -1562.95602443 Ry
     Harris-Foulkes estimate   =   -1562.95602766 Ry
     estimated scf accuracy    <       0.00000043 Ry

     The total energy is the sum of the following terms:

     one-electron contribution =   -9873.48266263 Ry
     hartree contribution      =    4966.24174414 Ry
     xc contribution           =    -377.73421492 Ry
     ewald contribution        =    3722.07174329 Ry
     electric field correction =       0.00001108 Ry
     smearing contrib. (-TS)   =      -0.05264540 Ry

     convergence has been achieved in  17 iterations

 BEEF-vdW xc energy contributions
           1 :   -329.633368067388
           2 :    301.213142779488
           3 :   -252.998065636372
           4 :    198.295665677355
           5 :   -149.574161972427
           6 :    114.097717198417
           7 :   -92.4978280889855
           8 :    80.4082330683674
           9 :   -71.8713491411712
          10 :    62.5980493423279
          11 :   -51.5667773611635
          12 :    40.5152754625994
          13 :   -32.0389207866714
          14 :    27.6232992041669
          15 :   -26.7556003045605
          16 :    27.4376551616300
          17 :   -27.5440394598049
          18 :    26.0496591442512
          19 :   -23.3976432800430
          20 :    20.9160318952918
          21 :   -19.7874344413148
          22 :    20.2693595429212
          23 :   -21.6149867547117
          24 :    22.6496734432716
          25 :   -22.5576335516502
          26 :    21.3505377485755
          27 :   -19.7553660001548
          28 :    18.6584495919249
          29 :   -18.5136312883042
          30 :    19.0966407449525
          31 :   -31.4558377566509
          32 :   -23.1996455716068

     Forces acting on atoms (Ry/au):

     negative rho (up, down):  3.714E-01 0.000E+00
     atom    1 type  1   force =     0.00416699    0.00251467    0.03323912
     atom    2 type  1   force =     0.00416667    0.00251499    0.03324226
     atom    3 type  2   force =    -0.00071047   -0.00042855   -0.03060235
     atom    4 type  2   force =    -0.00071049   -0.00043084   -0.03060113
     atom    5 type  1   force =    -0.01225596   -0.00739787    0.00713108
     atom    6 type  1   force =    -0.01225532   -0.00739913    0.00712870
     atom    7 type  2   force =     0.00750733    0.00454779   -0.00928771
     atom    8 type  2   force =     0.00751966    0.00452598   -0.00928521
     atom    9 type  1   force =     0.00016698    0.00009932   -0.00018829
     atom   10 type  1   force =     0.00015847    0.00009526   -0.00018843
     atom   11 type  2   force =     0.00111917    0.00068764   -0.00029432
     atom   12 type  2   force =     0.00112697    0.00067075   -0.00029372

     Total force =     0.070523     Total SCF correction =     0.004112

     entering subroutine stress ...

     negative rho (up, down):  3.714E-01 0.000E+00
          total   stress  (Ry/bohr**3)                   (kbar)     P=  -14.44
  -0.00015911  -0.00003748  -0.00000468        -23.41     -5.51     -0.69
  -0.00003748  -0.00011964  -0.00000283         -5.51    -17.60     -0.42
  -0.00000468  -0.00000283  -0.00001576         -0.69     -0.42     -2.32

 !ASE

     Writing output data file calc.save

     General routines

     Parallel routines

   This run was terminated on:  10:53:12  25Dec2018

   JOB DONE.
Job  /afs/slac/g/suncat/bin/suncat-tsmpirun -x LD_LIBRARY_PATH -wdir /scratch/qe109305_ns6ed pw.x -in pw.inp

TID   HOST_NAME   COMMAND_LINE            STATUS            TERMINATION_TIME
00000 suncat0029 pw.x -in pw.inp   Done                     12/25/2018 10:53:12
00001 suncat0029 pw.x -in pw.inp   Done                     12/25/2018 10:53:12
00002 suncat0029 pw.x -in pw.inp   Done                     12/25/2018 10:53:12
00003 suncat0029 pw.x -in pw.inp   Done                     12/25/2018 10:53:12
00004 suncat0029 pw.x -in pw.inp   Done                     12/25/2018 10:53:12
00005 suncat0029 pw.x -in pw.inp   Done                     12/25/2018 10:53:12
00006 suncat0029 pw.x -in pw.inp   Done                     12/25/2018 10:53:12
00007 suncat0029 pw.x -in pw.inp   Done                     12/25/2018 10:53:12
00008 suncat0028 pw.x -in pw.inp   Done                     12/25/2018 10:53:12
00009 suncat0028 pw.x -in pw.inp   Done                     12/25/2018 10:53:12
00010 suncat0028 pw.x -in pw.inp   Done                     12/25/2018 10:53:12
00011 suncat0028 pw.x -in pw.inp   Done                     12/25/2018 10:53:12
00012 suncat0028 pw.x -in pw.inp   Done                     12/25/2018 10:53:12
00013 suncat0028 pw.x -in pw.inp   Done                     12/25/2018 10:53:12
00014 suncat0028 pw.x -in pw.inp   Done                     12/25/2018 10:53:12
00015 suncat0028 pw.x -in pw.inp   Done                     12/25/2018 10:53:12
00016 suncat0027 pw.x -in pw.inp   Done                     12/25/2018 10:53:12
00017 suncat0027 pw.x -in pw.inp   Done                     12/25/2018 10:53:12
00018 suncat0027 pw.x -in pw.inp   Done                     12/25/2018 10:53:12
00019 suncat0027 pw.x -in pw.inp   Done                     12/25/2018 10:53:12
00020 suncat0027 pw.x -in pw.inp   Done                     12/25/2018 10:53:12
00021 suncat0027 pw.x -in pw.inp   Done                     12/25/2018 10:53:12
00022 suncat0027 pw.x -in pw.inp   Done                     12/25/2018 10:53:12
00023 suncat0027 pw.x -in pw.inp   Done                     12/25/2018 10:53:12
00024 suncat0021 pw.x -in pw.inp   Done                     12/25/2018 10:53:12
00025 suncat0021 pw.x -in pw.inp   Done                     12/25/2018 10:53:12
00026 suncat0021 pw.x -in pw.inp   Done                     12/25/2018 10:53:12
00027 suncat0021 pw.x -in pw.inp   Done                     12/25/2018 10:53:12
00028 suncat0021 pw.x -in pw.inp   Done                     12/25/2018 10:53:12
00029 suncat0021 pw.x -in pw.inp   Done                     12/25/2018 10:53:12
00030 suncat0021 pw.x -in pw.inp   Done                     12/25/2018 10:53:12
00031 suncat0021 pw.x -in pw.inp   Done                     12/25/2018 10:53:12
00032 suncat0191 pw.x -in pw.inp   Done                     12/25/2018 10:53:12
00033 suncat0191 pw.x -in pw.inp   Done                     12/25/2018 10:53:12
00034 suncat0191 pw.x -in pw.inp   Done                     12/25/2018 10:53:12
00035 suncat0191 pw.x -in pw.inp   Done                     12/25/2018 10:53:12
00036 suncat0191 pw.x -in pw.inp   Done                     12/25/2018 10:53:12
00037 suncat0191 pw.x -in pw.inp   Done                     12/25/2018 10:53:12
00038 suncat0191 pw.x -in pw.inp   Done                     12/25/2018 10:53:12
00039 suncat0191 pw.x -in pw.inp   Done                     12/25/2018 10:53:12
00040 suncat0161 pw.x -in pw.inp   Done                     12/25/2018 10:53:12
00041 suncat0161 pw.x -in pw.inp   Done                     12/25/2018 10:53:12
00042 suncat0161 pw.x -in pw.inp   Done                     12/25/2018 10:53:12
00043 suncat0161 pw.x -in pw.inp   Done                     12/25/2018 10:53:12
00044 suncat0161 pw.x -in pw.inp   Done                     12/25/2018 10:53:12
00045 suncat0161 pw.x -in pw.inp   Done                     12/25/2018 10:53:12
00046 suncat0161 pw.x -in pw.inp   Done                     12/25/2018 10:53:12
00047 suncat0161 pw.x -in pw.inp   Done                     12/25/2018 10:53:12
00048 suncat0159 pw.x -in pw.inp   Done                     12/25/2018 10:53:12
00049 suncat0159 pw.x -in pw.inp   Done                     12/25/2018 10:53:12
00050 suncat0159 pw.x -in pw.inp   Done                     12/25/2018 10:53:12
00051 suncat0159 pw.x -in pw.inp   Done                     12/25/2018 10:53:12
00052 suncat0159 pw.x -in pw.inp   Done                     12/25/2018 10:53:12
00053 suncat0159 pw.x -in pw.inp   Done                     12/25/2018 10:53:12
00054 suncat0159 pw.x -in pw.inp   Done                     12/25/2018 10:53:12
00055 suncat0159 pw.x -in pw.inp   Done                     12/25/2018 10:53:12
00056 suncat0267 pw.x -in pw.inp   Done                     12/25/2018 10:53:12
00057 suncat0267 pw.x -in pw.inp   Done                     12/25/2018 10:53:12
00058 suncat0267 pw.x -in pw.inp   Done                     12/25/2018 10:53:12
00059 suncat0267 pw.x -in pw.inp   Done                     12/25/2018 10:53:12
00060 suncat0267 pw.x -in pw.inp   Done                     12/25/2018 10:53:12
00061 suncat0267 pw.x -in pw.inp   Done                     12/25/2018 10:53:12
00062 suncat0267 pw.x -in pw.inp   Done                     12/25/2018 10:53:12
00063 suncat0267 pw.x -in pw.inp   Done                     12/25/2018 10:53:12