     Program PWSCF v.5.1rc2 (svn rev. 11289) starts on 25Dec2018 at  7:46:28

     Current dimensions of program PWSCF are:
     Max number of different atomic species (ntypx) = 10
     Max number of k-points (npk) =  40000
     Max angular momentum in pseudopotentials (lmaxx) =  3
     Presently stress not available with electric field

     IMPORTANT: XC functional enforced from input :
     Exchange-correlation      = BEEF-VDW ( 1  4 27 13 2)
     Any further DFT definition will be discarded
     Please, verify this is what you really want

     Subspace diagonalization in iterative solution of the eigenvalue problem:
     a serial algorithm will be used

     Found symmetry operation: I + ( -0.5000 -0.5000  0.0000)
     This is a supercell, fractional translations are disabled

     bravais-lattice index     =            0
     lattice parameter (alat)  =       1.8897  a.u.
     unit-cell volume          =    5379.0437 (a.u.)^3
     number of atoms/cell      =           12
     number of atomic types    =            2
     number of electrons       =       168.00
     number of Kohn-Sham states=          114
     kinetic-energy cutoff     =      36.7493  Ry
     charge density cutoff     =     367.4932  Ry
     convergence threshold     =      1.0E-06
     mixing beta               =       0.1000
     number of iterations used =           10  plain     mixing
     Exchange-correlation      = BEEF-VDW ( 1  4 27 13 2)
     nstep                     =           50

     celldm(1)=   1.889726  celldm(2)=   0.000000  celldm(3)=   0.000000
     celldm(4)=   0.000000  celldm(5)=   0.000000  celldm(6)=   0.000000

     crystal axes: (cart. coord. in units of alat)
               a(1) = (   5.824629   0.000000   0.000000 )
               a(2) = (   1.800871   5.539239   0.000000 )
               a(3) = (   0.000000   0.000000  24.705298 )

     reciprocal axes: (cart. coord. in units 2 pi/alat)
               b(1) = (  0.171685 -0.055817  0.000000 )
               b(2) = (  0.000000  0.180530  0.000000 )
               b(3) = (  0.000000  0.000000  0.040477 )

     PseudoPot. # 1 for Zr read from file:
     /afs/slac.stanford.edu/u/if/mamunm/psp/gbrv1.5pbe/Zr.UPF
     MD5 check sum: 5db81b1e868ab7776c4564c113de050b
     Pseudo is Ultrasoft + core correction, Zval = 12.0
     Generated by new atomic code, or converted to UPF format
     Using radial grid of  887 points,  6 beta functions with:
                l(1) =   0
                l(2) =   0
                l(3) =   1
                l(4) =   1
                l(5) =   2
                l(6) =   2
     Q(r) pseudized with  6 coefficients,  rinner =    1.200   1.200   1.200
                                                       1.200   1.200

     PseudoPot. # 2 for Pt read from file:
     /afs/slac.stanford.edu/u/if/mamunm/psp/gbrv1.5pbe/Pt.UPF
     MD5 check sum: f09d6de1a584b5a045c4fc126da2d0c4
     Pseudo is Ultrasoft + core correction, Zval = 16.0
     Generated by new atomic code, or converted to UPF format
     Using radial grid of  985 points,  6 beta functions with:
                l(1) =   0
                l(2) =   0
                l(3) =   1
                l(4) =   1
                l(5) =   2
                l(6) =   2
     Q(r) pseudized with  8 coefficients,  rinner =    1.300   1.300   1.300
                                                       1.300   1.300

     vdW kernel table read from file vdW_kernel_table
     MD5 check sum: 095c7af220d748ca6e76c0b4c6cfb241

     atomic species   valence    mass     pseudopotential
        Zr1           12.00    91.22400     Zr( 1.00)
        Pt1           16.00   195.08400     Pt( 1.00)

     No symmetry found

   Cartesian axes

     site n.     atom                  positions (alat units)
         1           Zr1 tau(   1) = (   0.0000000   0.0000000  10.0000000  )
         2           Zr1 tau(   2) = (   3.8127497   2.7696195  10.0000000  )
         3           Pt1 tau(   3) = (   2.9123145   0.0000000  10.0000000  )
         4           Pt1 tau(   4) = (   0.9004353   2.7696195  10.0000000  )
         5           Zr1 tau(   5) = (   5.8246290   4.2310686  12.3526492  )
         6           Zr1 tau(   6) = (   2.0118792   1.4614491  12.3526492  )
         7           Pt1 tau(   7) = (   2.9123145   4.2310686  12.3526492  )
         8           Pt1 tau(   8) = (   4.9241937   1.4614491  12.3526492  )
         9           Zr1 tau(   9) = (   4.0237584   2.9228983  14.7052985  )
        10           Zr1 tau(  10) = (   0.2110087   0.1532788  14.7052985  )
        11           Pt1 tau(  11) = (   1.1114439   2.9228983  14.7052985  )
        12           Pt1 tau(  12) = (   3.1233232   0.1532788  14.7052985  )

     number of k points=    20  Fermi-Dirac smearing, width (Ry)=  0.0110
                       cart. coord. in units 2pi/alat
        k(    1) = (   0.0000000   0.0000000   0.0000000), wk =   0.0555556
        k(    2) = (   0.0000000   0.0300884   0.0000000), wk =   0.1111111
        k(    3) = (   0.0000000   0.0601767   0.0000000), wk =   0.1111111
        k(    4) = (   0.0000000  -0.0902651   0.0000000), wk =   0.0555556
        k(    5) = (   0.0286141  -0.0093028   0.0000000), wk =   0.1111111
        k(    6) = (   0.0286141   0.0207856   0.0000000), wk =   0.1111111
        k(    7) = (   0.0286141   0.0508740   0.0000000), wk =   0.1111111
        k(    8) = (   0.0286141  -0.0995679   0.0000000), wk =   0.1111111
        k(    9) = (   0.0286141  -0.0694795   0.0000000), wk =   0.1111111
        k(   10) = (   0.0286141  -0.0393912   0.0000000), wk =   0.1111111
        k(   11) = (   0.0572283  -0.0186056   0.0000000), wk =   0.1111111
        k(   12) = (   0.0572283   0.0114828   0.0000000), wk =   0.1111111
        k(   13) = (   0.0572283   0.0415712   0.0000000), wk =   0.1111111
        k(   14) = (   0.0572283  -0.1088707   0.0000000), wk =   0.1111111
        k(   15) = (   0.0572283  -0.0787823   0.0000000), wk =   0.1111111
        k(   16) = (   0.0572283  -0.0486939   0.0000000), wk =   0.1111111
        k(   17) = (  -0.0858424   0.0279083   0.0000000), wk =   0.0555556
        k(   18) = (  -0.0858424   0.0579967   0.0000000), wk =   0.1111111
        k(   19) = (  -0.0858424   0.0880851   0.0000000), wk =   0.1111111
        k(   20) = (  -0.0858424  -0.0623568   0.0000000), wk =   0.0555556

     Largest allocated arrays     est. size (Mb)     dimensions
     Largest temporary arrays     est. size (Mb)     dimensions

     Initial potential from superposition of free atoms
     Check: negative starting charge=   -1.474750

     starting charge  164.98704, renormalised to  168.00000

     negative rho (up, down):  1.502E+00 0.000E+00

     *
     * You are using vdW-DF for exchange-correlation in this calculation.
     * Please cite the following three references that made this development
     * possible:
     *
     *   M. Dion, H. Rydberg, E. Schroder, D. C. Langreth, and
     *   B. I. Lundqvist, Phys. Rev. Lett. 92, 246401 (2004).
     *
     *   T. Thonhauser, V. R. Cooper, S. Li, A. Puzder, P. Hyldgaard, and
     *   D. C. Langreth, Phys. Rev. B 76, 125112 (2007).
     *
     *   G. Roman-Perez and J. M. Soler, Phys. Rev. Lett. 103, 096102 (2009).
     *
     *
     * If you are using vdW-DF2, please also cite:
     *
     *   K. Lee, E. D. Murray, L. Kong, B. I. Lundqvist, and
     *   D. C. Langreth, Phys. Rev. B 82, 081101(R) (2010).
     *
     *
     * If you are calculating the stress with vdW-DF, please also cite:
     *
     *   R. Sabatini, E. Kucukbenli, B. Kolb, T. Thonhauser, and
     *   S. de Gironcoli, J. Phys.: Condens. Matter 24, 424209 (2012).
     *

     Carrying out vdW-DF run using the following parameters:

     Nqs =      20    Nr_points =    1024   r_max =   100.000
     q_mesh =
               0.00001000     0.04494208     0.09755937     0.15916263
               0.23128650     0.31572767     0.41458969     0.53033537
               0.66584808     0.82450364     1.01025438     1.22772762
               1.48234092     1.78043706     2.12944203     2.53805004
               3.01644009     3.57652955     4.23227104     5.00000000

     Gradients computed in reciprocal space

     Adding external electric field

     Computed dipole along edir(3) :
        Dipole                0.0000 Ry au,          0.0000 Debye
        Dipole field          0.0000 Ry au

        Potential amp.       -0.0000 Ry
        Total length         45.5191 bohr

     Starting wfc are  150 randomized atomic wfcs

     Self-consistent Calculation

     iteration #  1     ecut=    36.75 Ry     beta=0.10
     Davidson diagonalization with overlap
     ethr =  1.00E-02,  avg # of iterations =  2.5

[...]

     total energy              =   -1873.19263817 Ry
     Harris-Foulkes estimate   =   -1874.94292819 Ry
     estimated scf accuracy    <      10.56040919 Ry

[...]

     End of self-consistent calculation

          k = 0.0000 0.0000 0.0000 ( 20307 PWs)   bands (ev):

   -51.1330 -51.1312 -51.1274 -51.1246 -51.1194 -51.0987 -50.8543 -50.8539
   -50.8526 -50.8521 -50.8089 -50.8082 -50.7887 -50.7885 -50.6871 -50.6853
   -50.6839 -50.6837 -48.0036 -47.9998 -47.9828 -47.9815 -47.7263 -47.7086
   -26.0443 -26.0324 -26.0183 -25.9882 -25.9726 -25.9669 -25.9481 -25.9438
   -25.9122 -25.8931 -25.8375 -25.7205 -25.7194 -25.6591 -25.6189 -25.5908
   -25.5730 -25.5568  -5.0802  -3.6023  -3.3456  -3.2160  -3.0939  -2.9169
    -2.8670  -2.7841  -2.7275  -2.7221  -2.2746  -2.2454  -2.2113  -1.9730
    -1.9717  -1.8906  -1.6381  -1.5509  -1.5204  -1.4390  -1.4016  -1.3749
    -1.3387  -1.1396  -0.8303  -0.8245  -0.7429  -0.5365  -0.4604  -0.1347
    -0.1252   0.1932   0.3463   0.5287   0.7919   0.8320   1.0650   1.8771
     2.2304   2.4386   2.4516   2.6067   2.6245   2.8266   2.9642   3.0333
     3.0766   3.0963   3.1354   3.1839   3.2891   3.5161   3.7169   3.7515
     3.9049   4.2588   4.2666   4.3350   4.3553   4.4628   4.6376   4.8726
     5.0991   5.4680   5.5151   5.5286   5.5516   5.5616   5.5817   5.6588
     5.7254   6.2051

[...]

          k =-0.0858 0.0279 0.0000 ( 20194 PWs)   bands (ev):

[...]

     the Fermi energy is     2.0935 ev

!    total energy              =   -1873.30752366 Ry
     Harris-Foulkes estimate   =   -1873.30752025 Ry
     estimated scf accuracy    <       0.00000062 Ry

     The total energy is the sum of the following terms:

     one-electron contribution =  -12896.21272754 Ry
     hartree contribution      =    6460.53296138 Ry
     xc contribution           =    -461.85429967 Ry
     ewald contribution        =    5024.30404167 Ry
     electric field correction =       0.00000000 Ry
     smearing contrib. (-TS)   =      -0.07749951 Ry

     convergence has been achieved in  15 iterations

 BEEF-vdW xc energy contributions
           1 :   -407.589092931672
           2 :    376.846428299184
           3 :   -322.612119363464
           4 :    256.498220622663
           5 :   -190.441362246884
           6 :    133.306934715238
           7 :   -89.2846685067547
           8 :    58.1798670412368
           9 :   -37.0138010886911
          10 :    22.0255077920065
          11 :   -10.2691974349029
[...]

     PseudoPot. # 1 for Zr read from file:
     /afs/slac.stanford.edu/u/if/mamunm/psp/gbrv1.5pbe/Zr.UPF
     MD5 check sum: 5db81b1e868ab7776c4564c113de050b
     Pseudo is Ultrasoft + core correction, Zval = 12.0
     Generated by new atomic code, or converted to UPF format
     Using radial grid of  887 points,  6 beta functions with:
                l(1) =   0
                l(2) =   0
                l(3) =   1
                l(4) =   1
                l(5) =   2
                l(6) =   2
     Q(r) pseudized with  6 coefficients,  rinner =    1.200   1.200   1.200
                                                       1.200   1.200

     PseudoPot. # 2 for Pt read from file:
     /afs/slac.stanford.edu/u/if/mamunm/psp/gbrv1.5pbe/Pt.UPF
     MD5 check sum: f09d6de1a584b5a045c4fc126da2d0c4
     Pseudo is Ultrasoft + core correction, Zval = 16.0
     Generated by new atomic code, or converted to UPF format
     Using radial grid of  985 points,  6 beta functions with:
                l(1) =   0
                l(2) =   0
                l(3) =   1
                l(4) =   1
                l(5) =   2
                l(6) =   2
     Q(r) pseudized with  8 coefficients,  rinner =    1.300   1.300   1.300
                                                       1.300   1.300

     vdW kernel table read from file vdW_kernel_table
     MD5 check sum: 095c7af220d748ca6e76c0b4c6cfb241

     atomic species   valence    mass     pseudopotential
        Zr1           12.00    91.22400     Zr( 1.00)
        Pt1           16.00   195.08400     Pt( 1.00)

     No symmetry found

   Cartesian axes

     site n.     atom                  positions (alat units)
         1           Zr1 tau(   1) = (   0.0000000   0.0000000  10.0000000  )
         2           Zr1 tau(   2) = (   3.8127497   2.7696195  10.0000000  )
         3           Pt1 tau(   3) = (   2.9123145   0.0000000  10.0000000  )
         4           Pt1 tau(   4) = (   0.9004353   2.7696195  10.0000000  )
         5           Zr1 tau(   5) = (   5.8246290   4.2310686  12.3526492  )
         6           Zr1 tau(   6) = (   2.0118792   1.4614491  12.3526492  )
         7           Pt1 tau(   7) = (   2.9123145   4.2310686  12.3526492  )
         8           Pt1 tau(   8) = (   4.9241937   1.4614491  12.3526492  )
         9           Zr1 tau(   9) = (   3.9494037   2.8688806  14.6999077  )
        10           Zr1 tau(  10) = (   0.1366271   0.0992557  14.6999068  )
        11           Pt1 tau(  11) = (   1.0393546   2.8705103  14.5027408  )
        12           Pt1 tau(  12) = (   3.0512118   0.1009202  14.5027354  )

     number of k points=    20  Fermi-Dirac smearing, width (Ry)=  0.0110
                       cart. coord. in units 2pi/alat
        k(    1) = (   0.0000000   0.0000000   0.0000000), wk =   0.0555556
        k(    2) = (   0.0000000   0.0300884   0.0000000), wk =   0.1111111
        k(    3) = (   0.0000000   0.0601767   0.0000000), wk =   0.1111111
        k(    4) = (   0.0000000  -0.0902651   0.0000000), wk =   0.0555556
        k(    5) = (   0.0286141  -0.0093028   0.0000000), wk =   0.1111111
        k(    6) = (   0.0286141   0.0207856   0.0000000), wk =   0.1111111
        k(    7) = (   0.0286141   0.0508740   0.0000000), wk =   0.1111111
        k(    8) = (   0.0286141  -0.0995679   0.0000000), wk =   0.1111111
        k(    9) = (   0.0286141  -0.0694795   0.0000000), wk =   0.1111111
        k(   10) = (   0.0286141  -0.0393912   0.0000000), wk =   0.1111111
        k(   11) = (   0.0572283  -0.0186056   0.0000000), wk =   0.1111111
        k(   12) = (   0.0572283   0.0114828   0.0000000), wk =   0.1111111
        k(   13) = (   0.0572283   0.0415712   0.0000000), wk =   0.1111111
        k(   14) = (   0.0572283  -0.1088707   0.0000000), wk =   0.1111111
        k(   15) = (   0.0572283  -0.0787823   0.0000000), wk =   0.1111111
        k(   16) = (   0.0572283  -0.0486939   0.0000000), wk =   0.1111111
        k(   17) = (  -0.0858424   0.0279083   0.0000000), wk =   0.0555556
        k(   18) = (  -0.0858424   0.0579967   0.0000000), wk =   0.1111111
        k(   19) = (  -0.0858424   0.0880851   0.0000000), wk =   0.1111111
        k(   20) = (  -0.0858424  -0.0623568   0.0000000), wk =   0.0555556

     Largest allocated arrays     est. size (Mb)     dimensions
     Largest temporary arrays     est. size (Mb)     dimensions

     Initial potential from superposition of free atoms
     Check: negative starting charge=   -1.473646

     starting charge  164.98704, renormalised to  168.00000

[...]

     *
     * You are using vdW-DF for exchange-correlation in this calculation.
     * Please cite the following three references that made this development
     * possible:
     *
     *   M. Dion, H. Rydberg, E. Schroder, D. C. Langreth, and
     *   B. I. Lundqvist, Phys. Rev. Lett. 92, 246401 (2004).
     *
     *   T. Thonhauser, V. R. Cooper, S. Li, A. Puzder, P. Hyldgaard, and
     *   D. C. Langreth, Phys. Rev. B 76, 125112 (2007).
     *
     *   G. Roman-Perez and J. M. Soler, Phys. Rev. Lett. 103, 096102 (2009).
     *
     *
     * If you are using vdW-DF2, please also cite:
     *
     *   K. Lee, E. D. Murray, L. Kong, B. I. Lundqvist, and
     *   D. C. Langreth, Phys. Rev. B 82, 081101(R) (2010).
     *
     *
     * If you are calculating the stress with vdW-DF, please also cite:
     *
     *   R. Sabatini, E. Kucukbenli, B. Kolb, T. Thonhauser, and
     *   S. de Gironcoli, J. Phys.: Condens. Matter 24, 424209 (2012).
     *

     Carrying out vdW-DF run using the following parameters:

     Nqs =      20    Nr_points =    1024   r_max =   100.000
     q_mesh =
               0.00001000     0.04494208     0.09755937     0.15916263
               0.23128650     0.31572767     0.41458969     0.53033537
               0.66584808     0.82450364     1.01025438     1.22772762
               1.48234092     1.78043706     2.12944203     2.53805004
               3.01644009     3.57652955     4.23227104     5.00000000

     Gradients computed in reciprocal space

[...]

     Starting wfc are  150 randomized atomic wfcs

     Self-consistent Calculation

[...]

     total energy              =   -1873.32157407 Ry
     Harris-Foulkes estimate   =   -1873.32157211 Ry
     estimated scf accuracy    <       0.00000176 Ry

     iteration # 16     ecut=    36.75 Ry     beta=0.10
     Davidson diagonalization with overlap
     ethr =  1.05E-09,  avg # of iterations =  2.1

[...]

     negative rho (up, down):  1.430E+00 0.000E+00

     Adding external electric field

     Computed dipole along edir(3) :
        Dipole                0.0866 Ry au,          0.2201 Debye
        Dipole field          0.0002 Ry au

        Potential amp.       -0.0184 Ry
        Total length         45.5191 bohr

     End of self-consistent calculation

[...]

          k = 0.0572-0.0487 0.0000 ( 20206 PWs)   bands (ev):

[...]

          k =-0.0858-0.0624 0.0000 ( 20134 PWs)   bands (ev):

   -51.0482 -51.0467 -51.0432 -51.0422 -51.0258 -51.0035 -50.9588 -50.9549
   -50.9540 -50.9315 -50.8835 -50.8805 -50.7454 -50.7406 -50.7014 -50.6798
   -50.5742 -50.5719 -47.9338 -47.9175 -47.8840 -47.8681 -47.5729 -47.5556
   -25.9959 -25.9549 -25.9199 -25.9195 -25.9012 -25.8888 -25.8707 -25.8532
   -25.8416 -25.8042 -25.7261 -25.6570 -25.6090 -25.5090 -25.4954 -25.4680
   -25.4578 -25.4531  -3.3888  -3.2273  -2.8677  -2.5754  -2.2399  -2.2255
    -2.1122  -2.0336  -1.9716  -1.9348  -1.9107  -1.8490  -1.7250  -1.6919
    -1.4975  -1.4689  -1.4058  -1.3311  -1.2152  -1.2133  -1.0545  -1.0326
    -0.9683  -0.9612  -0.7736  -0.7344  -0.6532  -0.5998  -0.5269  -0.4505
    -0.3606  -0.2554  -0.1582   0.1794   0.3318   0.4514   0.5126   0.6359
     0.7358   0.8112   0.8230   1.4924   1.5759   1.6263   1.8471   2.0989
     2.1219   2.2097   2.6409   2.7326   2.8266   2.9408   2.9642   3.1578
     3.2318   3.3418   3.5590   3.7933   4.0649   4.2922   4.5144   4.5542
     4.7725   4.8340   5.3192   5.4579   5.6429   5.9802   6.3992   6.4263
     6.4481   6.5770

     the Fermi energy is     2.2075 ev

!    total energy              =   -1873.32157595 Ry
     Harris-Foulkes estimate   =   -1873.32157452 Ry
     estimated scf accuracy    <       0.00000072 Ry

     The total energy is the sum of the following terms:

     one-electron contribution =  -13109.57866912 Ry
     hartree contribution      =    6567.54870521 Ry
     xc contribution           =    -461.98479173 Ry
     ewald contribution        =    5130.76912449 Ry
     electric field correction =       0.00001751 Ry
     smearing contrib. (-TS)   =      -0.07596231 Ry

     convergence has been achieved in  16 iterations

 BEEF-vdW xc energy contributions
           1 :   -407.729793646356
           2 :    377.068644238843
           3 :   -322.938806871977
           4 :    256.874110726062
           5 :   -190.758768470355
           6 :    133.460935879387
           7 :   -89.2305740808785
           8 :    57.9618787278926
           9 :   -36.7458978539857
          10 :    21.8327268702574
          11 :   -10.2243509236918
          12 :   0.413954789496813
          13 :    7.75376032095215
          14 :   -13.7593547601018
          15 :    17.1240573861552
          16 :   -17.8277100835078
          17 :    16.3614340975537
          18 :   -13.5523851555865
          19 :    10.3180843722433
          20 :   -7.45602245427648
          21 :    5.50122429393667
          22 :   -4.65816688533681
          23 :    4.79636885461161
          24 :   -5.51269169347694
          25 :    6.26332638589173
          26 :   -6.55502082769868
          27 :    6.13442771094145
          28 :   -5.08881491425853
          29 :    3.79411032562325
          30 :   -2.72865467718293
          31 :   -36.5620203192468
          32 :   -27.0582837205276

     Forces acting on atoms (Ry/au):

     negative rho (up, down):  1.430E+00 0.000E+00
     atom    1 type  1   force =     0.00324924    0.00235997   -0.00677639
     atom    2 type  1   force =     0.00324923    0.00236053   -0.00677674
     atom    3 type  2   force =     0.00164151    0.00119222    0.03086567
     atom    4 type  2   force =     0.00164118    0.00119247    0.03086546
     atom    5 type  1   force =    -0.00508517   -0.00369455   -0.02722760
     atom    6 type  1   force =    -0.00508590   -0.00369359   -0.02723187
     atom    7 type  2   force =     0.00029636    0.00021530    0.00342960
     atom    8 type  2   force =     0.00029640    0.00021503    0.00342890
     atom    9 type  1   force =     0.00018766    0.00013823    0.00030205
     atom   10 type  1   force =     0.00018899    0.00013547    0.00030228
     atom   11 type  2   force =    -0.00028975   -0.00021000   -0.00059101
     atom   12 type  2   force =    -0.00028976   -0.00021109   -0.00059036

     Total force =     0.060205     Total SCF correction =     0.002066

     entering subroutine stress ...

     negative rho (up, down):  1.430E+00 0.000E+00
          total   stress  (Ry/bohr**3)                   (kbar)     P=  -17.44
  -0.00016123  -0.00002339  -0.00000802        -23.72     -3.44     -1.18
  -0.00002339  -0.00014602  -0.00000583         -3.44    -21.48     -0.86
  -0.00000802  -0.00000583  -0.00004831         -1.18     -0.86     -7.11

 !ASE

     Writing output data file calc.save

     General routines

     Parallel routines

   This run was terminated on:  11:41:47  25Dec2018

   JOB DONE.
Job  /afs/slac/g/suncat/bin/suncat-tsmpirun -x LD_LIBRARY_PATH -wdir /scratch/qe109293_0OFVO pw.x -in pw.inp

TID   HOST_NAME   COMMAND_LINE            STATUS            TERMINATION_TIME
00000 suncat0108 pw.x -in pw.inp   Done                     12/25/2018 11:41:47
00001 suncat0108 pw.x -in pw.inp   Done                     12/25/2018 11:41:47
00002 suncat0108 pw.x -in pw.inp   Done                     12/25/2018 11:41:47
00003 suncat0108 pw.x -in pw.inp   Done                     12/25/2018 11:41:47
00004 suncat0108 pw.x -in pw.inp   Done                     12/25/2018 11:41:47
00005 suncat0108 pw.x -in pw.inp   Done                     12/25/2018 11:41:47
00006 suncat0108 pw.x -in pw.inp   Done                     12/25/2018 11:41:47
00007 suncat0108 pw.x -in pw.inp   Done                     12/25/2018 11:41:47
00008 suncat0107 pw.x -in pw.inp   Done                     12/25/2018 11:41:47
00009 suncat0107 pw.x -in pw.inp   Done                     12/25/2018 11:41:47
00010 suncat0107 pw.x -in pw.inp   Done                     12/25/2018 11:41:47
00011 suncat0107 pw.x -in pw.inp   Done                     12/25/2018 11:41:47
00012 suncat0107 pw.x -in pw.inp   Done                     12/25/2018 11:41:47
00013 suncat0107 pw.x -in pw.inp   Done                     12/25/2018 11:41:47
00014 suncat0107 pw.x -in pw.inp   Done                     12/25/2018 11:41:47
00015 suncat0107 pw.x -in pw.inp   Done                     12/25/2018 11:41:47
00016 suncat0106 pw.x -in pw.inp   Done                     12/25/2018 11:41:47
00017 suncat0106 pw.x -in pw.inp   Done                     12/25/2018 11:41:47
00018 suncat0106 pw.x -in pw.inp   Done                     12/25/2018 11:41:47
00019 suncat0106 pw.x -in pw.inp   Done                     12/25/2018 11:41:47
00020 suncat0106 pw.x -in pw.inp   Done                     12/25/2018 11:41:47
00021 suncat0106 pw.x -in pw.inp   Done                     12/25/2018 11:41:47
00022 suncat0106 pw.x -in pw.inp   Done                     12/25/2018 11:41:47
00023 suncat0106 pw.x -in pw.inp   Done                     12/25/2018 11:41:47
00024 suncat0105 pw.x -in pw.inp   Done                     12/25/2018 11:41:47
00025 suncat0105 pw.x -in pw.inp   Done                     12/25/2018 11:41:47
00026 suncat0105 pw.x -in pw.inp   Done                     12/25/2018 11:41:47
00027 suncat0105 pw.x -in pw.inp   Done                     12/25/2018 11:41:47
00028 suncat0105 pw.x -in pw.inp   Done                     12/25/2018 11:41:47
00029 suncat0105 pw.x -in pw.inp   Done                     12/25/2018 11:41:47
00030 suncat0105 pw.x -in pw.inp   Done                     12/25/2018 11:41:47
00031 suncat0105 pw.x -in pw.inp   Done                     12/25/2018 11:41:47
00032 suncat0238 pw.x -in pw.inp   Done                     12/25/2018 11:41:47
00033 suncat0238 pw.x -in pw.inp   Done                     12/25/2018 11:41:47
00034 suncat0238 pw.x -in pw.inp   Done                     12/25/2018 11:41:47
00035 suncat0238 pw.x -in pw.inp   Done                     12/25/2018 11:41:47
00036 suncat0238 pw.x -in pw.inp   Done                     12/25/2018 11:41:47
00037 suncat0238 pw.x -in pw.inp   Done                     12/25/2018 11:41:47
00038 suncat0238 pw.x -in pw.inp   Done                     12/25/2018 11:41:47
00039 suncat0238 pw.x -in pw.inp   Done                     12/25/2018 11:41:47
00040 suncat0237 pw.x -in pw.inp   Done                     12/25/2018 11:41:47
00041 suncat0237 pw.x -in pw.inp   Done                     12/25/2018 11:41:47
00042 suncat0237 pw.x -in pw.inp   Done                     12/25/2018 11:41:47
00043 suncat0237 pw.x -in pw.inp   Done                     12/25/2018 11:41:47
00044 suncat0237 pw.x -in pw.inp   Done                     12/25/2018 11:41:47
00045 suncat0237 pw.x -in pw.inp   Done                     12/25/2018 11:41:47
00046 suncat0237 pw.x -in pw.inp   Done                     12/25/2018 11:41:47
00047 suncat0237 pw.x -in pw.inp   Done                     12/25/2018 11:41:47
00048 suncat0236 pw.x -in pw.inp   Done                     12/25/2018 11:41:47
00049 suncat0236 pw.x -in pw.inp   Done                     12/25/2018 11:41:47
00050 suncat0236 pw.x -in pw.inp   Done                     12/25/2018 11:41:47
00051 suncat0236 pw.x -in pw.inp   Done                     12/25/2018 11:41:47
00052 suncat0236 pw.x -in pw.inp   Done                     12/25/2018 11:41:47
00053 suncat0236 pw.x -in pw.inp   Done                     12/25/2018 11:41:47
00054 suncat0236 pw.x -in pw.inp   Done                     12/25/2018 11:41:47
00055 suncat0236 pw.x -in pw.inp   Done                     12/25/2018 11:41:47
00056 suncat0235 pw.x -in pw.inp   Done                     12/25/2018 11:41:47
00057 suncat0235 pw.x -in pw.inp   Done                     12/25/2018 11:41:47
00058 suncat0235 pw.x -in pw.inp   Done                     12/25/2018 11:41:47
00059 suncat0235 pw.x -in pw.inp   Done                     12/25/2018 11:41:47
00060 suncat0235 pw.x -in pw.inp   Done                     12/25/2018 11:41:47
00061 suncat0235 pw.x -in pw.inp   Done                     12/25/2018 11:41:47
00062 suncat0235 pw.x -in pw.inp   Done                     12/25/2018 11:41:47
00063 suncat0235 pw.x -in pw.inp   Done                     12/25/2018 11:41:47