     Program PWSCF v.5.1rc2 (svn rev. 11289) starts on 19Dec2018 at  5:39:57

     Current dimensions of program PWSCF are:
     Max number of different atomic species (ntypx) = 10
     Max number of k-points (npk) =  40000
     Max angular momentum in pseudopotentials (lmaxx) =  3
     Presently stress not available with electric field

     IMPORTANT: XC functional enforced from input :
     Exchange-correlation      = BEEF-VDW ( 1  4 27 13 2)
     Any further DFT definition will be discarded
     Please, verify this is what you really want

     Subspace diagonalization in iterative solution of the eigenvalue problem:
     a serial algorithm will be used

     Found symmetry operation: I + ( -0.5000 -0.5000  0.0000)
     This is a supercell, fractional translations are disabled

     Generating pointlists ...
     new r_m :   0.4125 (alat units)  0.7795 (a.u.) for type    1
     new r_m :   0.4125 (alat units)  0.7795 (a.u.) for type    2

     bravais-lattice index     =            0
     lattice parameter (alat)  =       1.8897  a.u.
     unit-cell volume          =    3917.3908 (a.u.)^3
     number of atoms/cell      =           12
     number of atomic types    =            2
     number of electrons       =       192.00
     number of Kohn-Sham states=          126
     kinetic-energy cutoff     =      36.7493  Ry
     charge density cutoff     =     367.4932  Ry
     convergence threshold     =      1.0E-06
     mixing beta               =       0.1000
     number of iterations used =           10  plain     mixing
     Exchange-correlation      = BEEF-VDW ( 1  4 27 13 2)
     nstep                     =           50

     celldm(1)=   1.889726  celldm(2)=   0.000000  celldm(3)=   0.000000
     celldm(4)=   0.000000  celldm(5)=   0.000000  celldm(6)=   0.000000

     crystal axes: (cart. coord. in units of alat)
               a(1) = (   5.219812   0.000000   0.000000 )
               a(2) = (   2.505868   4.578981   0.000000 )
               a(3) = (   0.000000   0.000000  24.287150 )

     reciprocal axes: (cart. coord. in units 2 pi/alat)
               b(1) = (  0.191578 -0.104842  0.000000 )
               b(2) = (  0.000000  0.218389  0.000000 )
               b(3) = (  0.000000  0.000000  0.041174 )

     PseudoPot. # 1 for Co read from file:
     /afs/slac.stanford.edu/u/if/mamunm/psp/gbrv1.5pbe/Co.UPF
     MD5 check sum: 5f91765df6ddd3222702df6e7b74a16d
     Pseudo is Ultrasoft + core correction, Zval = 17.0
     Generated by new atomic code, or converted to UPF format
     Using radial grid of  863 points,  6 beta functions with:
                l(1) =   0
                l(2) =   0
                l(3) =   1
                l(4) =   1
                l(5) =   2
                l(6) =   2
     Q(r) pseudized with  8 coefficients,  rinner =    1.200   1.200   1.200
                                                       1.200   1.200

     PseudoPot. # 2 for Ir read from file:
     /afs/slac.stanford.edu/u/if/mamunm/psp/gbrv1.5pbe/Ir.UPF
     MD5 check sum: 8836f839c3459d2b385c504ce6d91f2c
     Pseudo is Ultrasoft + core correction, Zval = 15.0
     Generated by new atomic code, or converted to UPF format
     Using radial grid of  983 points,  7 beta functions with:
                l(1) =   0
                l(2) =   0
                l(3) =   1
                l(4) =   1
                l(5) =   1
                l(6) =   2
                l(7) =   2
     Q(r) pseudized with  8 coefficients,  rinner =    1.400   1.400   1.400
                                                       1.400   1.400

     vdW kernel table read from file vdW_kernel_table
     MD5 check sum: 095c7af220d748ca6e76c0b4c6cfb241

     atomic species   valence    mass     pseudopotential
        Co1           17.00    58.93319     Co( 1.00)
        Ir1           15.00   192.21700     Ir( 1.00)

     Starting magnetic structure
     atomic species   magnetization
        Co1          0.118
        Ir1          0.133

     No symmetry found

   Cartesian axes

     site n.     atom                  positions (alat units)
         1           Co1 tau(   1) = (   0.0000000   0.0000000  10.0000000  )
         2           Co1 tau(   2) = (   3.8628402   2.2894905  10.0000000  )
         3           Ir1 tau(   3) = (   2.6099062   0.0000000  10.0000000  )
         4           Ir1 tau(   4) = (   1.2529340   2.2894905  10.0000000  )
         5           Co1 tau(   5) = (   5.2198125   3.0937628  12.1435749  )
         6           Co1 tau(   6) = (   1.3569722   0.8042722  12.1435749  )
         7           Ir1 tau(   7) = (   2.6099062   3.0937628  12.1435749  )
         8           Ir1 tau(   8) = (   3.9668785   0.8042722  12.1435749  )
         9           Co1 tau(   9) = (   2.7139445   1.6085444  14.2871497  )
        10           Co1 tau(  10) = (   6.5767847   3.8980350  14.2871497  )
        11           Ir1 tau(  11) = (   5.3238507   1.6085444  14.2871497  )
        12           Ir1 tau(  12) = (   3.9668785   3.8980350  14.2871497  )

     number of k points=    40  Fermi-Dirac smearing, width (Ry)=  0.0110
                       cart. coord. in units 2pi/alat
        k(    1) = (   0.0000000   0.0000000   0.0000000), wk =   0.0277778
        k(    2) = (   0.0000000   0.0363982   0.0000000), wk =   0.0555556
        k(    3) = (   0.0000000   0.0727964   0.0000000), wk =   0.0555556
        k(    4) = (   0.0000000  -0.1091946   0.0000000), wk =   0.0277778
        k(    5) = (   0.0319296  -0.0174736   0.0000000), wk =   0.0555556
        k(    6) = (   0.0319296   0.0189246   0.0000000), wk =   0.0555556
        k(    7) = (   0.0319296   0.0553228   0.0000000), wk =   0.0555556
        k(    8) = (   0.0319296  -0.1266682   0.0000000), wk =   0.0555556
        k(    9) = (   0.0319296  -0.0902700   0.0000000), wk =   0.0555556
        k(   10) = (   0.0319296  -0.0538718   0.0000000), wk =   0.0555556
        k(   11) = (   0.0638593  -0.0349473   0.0000000), wk =   0.0555556
        k(   12) = (   0.0638593   0.0014509   0.0000000), wk =   0.0555556
        k(   13) = (   0.0638593   0.0378491   0.0000000), wk =   0.0555556
        k(   14) = (   0.0638593  -0.1441419   0.0000000), wk =   0.0555556
        k(   15) = (   0.0638593  -0.1077437   0.0000000), wk =   0.0555556
        k(   16) = (   0.0638593  -0.0713455   0.0000000), wk =   0.0555556
        k(   17) = (  -0.0957889   0.0524209   0.0000000), wk =   0.0277778
        k(   18) = (  -0.0957889   0.0888191   0.0000000), wk =   0.0555556
        k(   19) = (  -0.0957889   0.1252173   0.0000000), wk =   0.0555556
        k(   20) = (  -0.0957889  -0.0567737   0.0000000), wk =   0.0277778
        k(   21) = (   0.0000000   0.0000000   0.0000000), wk =   0.0277778
        k(   22) = (   0.0000000   0.0363982   0.0000000), wk =   0.0555556
        k(   23) = (   0.0000000   0.0727964   0.0000000), wk =   0.0555556
        k(   24) = (   0.0000000  -0.1091946   0.0000000), wk =   0.0277778
        k(   25) = (   0.0319296  -0.0174736   0.0000000), wk =   0.0555556
        k(   26) = (   0.0319296   0.0189246   0.0000000), wk =   0.0555556
        k(   27) = (   0.0319296   0.0553228   0.0000000), wk =   0.0555556
        k(   28) = (   0.0319296  -0.1266682   0.0000000), wk =   0.0555556
        k(   29) = (   0.0319296  -0.0902700   0.0000000), wk =   0.0555556
        k(   30) = (   0.0319296  -0.0538718   0.0000000), wk =   0.0555556
        k(   31) = (   0.0638593  -0.0349473   0.0000000), wk =   0.0555556
        k(   32) = (   0.0638593   0.0014509   0.0000000), wk =   0.0555556
        k(   33) = (   0.0638593   0.0378491   0.0000000), wk =   0.0555556
        k(   34) = (   0.0638593  -0.1441419   0.0000000), wk =   0.0555556
        k(   35) = (   0.0638593  -0.1077437   0.0000000), wk =   0.0555556
        k(   36) = (   0.0638593  -0.0713455   0.0000000), wk =   0.0555556
        k(   37) = (  -0.0957889   0.0524209   0.0000000), wk =   0.0277778
        k(   38) = (  -0.0957889   0.0888191   0.0000000), wk =   0.0555556
        k(   39) = (  -0.0957889   0.1252173   0.0000000), wk =   0.0555556
        k(   40) = (  -0.0957889  -0.0567737   0.0000000), wk =   0.0277778

     Largest allocated arrays     est. size (Mb)     dimensions
     Largest temporary arrays     est. size (Mb)     dimensions

     Check: negative/imaginary core charge=   -0.000003    0.000000

     Initial potential from superposition of free atoms
     Check: negative starting charge=(component1):   -1.232546
     Check: negative starting charge=(component2):   -0.942499

     starting charge  182.99977, renormalised to  192.00000

     negative rho (up, down):  1.293E+00 9.889E-01

     *
     * You are using vdW-DF for exchange-correlation in this calculation.
     * Please cite the following three references that made this development
     * possible:
     *
     *   M. Dion, H. Rydberg, E. Schroder, D. C. Langreth, and
     *   B. I. Lundqvist, Phys. Rev. Lett. 92, 246401 (2004).
     *
     *   T. Thonhauser, V. R. Cooper, S. Li, A. Puzder, P. Hyldgaard, and
     *   D. C. Langreth, Phys. Rev. B 76, 125112 (2007).
     *
     *   G. Roman-Perez and J. M. Soler, Phys. Rev. Lett. 103, 096102 (2009).
     *
     *
     * If you are using vdW-DF2, please also cite:
     *
     *   K. Lee, E. D. Murray, L. Kong, B. I. Lundqvist, and
     *   D. C. Langreth, Phys. Rev. B 82, 081101(R) (2010).
     *
     *
     * If you are calculating the stress with vdW-DF, please also cite:
     *
     *   R. Sabatini, E. Kucukbenli, B. Kolb, T. Thonhauser, and
     *   S. de Gironcoli, J. Phys.: Condens. Matter 24, 424209 (2012).
     *

     Carrying out vdW-DF run using the following parameters:

     Nqs =      20    Nr_points =    1024   r_max =   100.000
     q_mesh =
               0.00001000     0.04494208     0.09755937     0.15916263
               0.23128650     0.31572767     0.41458969     0.53033537
               0.66584808     0.82450364     1.01025438     1.22772762
               1.48234092     1.78043706     2.12944203     2.53805004
               3.01644009     3.57652955     4.23227104     5.00000000

     Gradients computed in reciprocal space

     Adding external electric field

     Computed dipole along edir(3) :
        Dipole                0.0000 Ry au,          0.0000 Debye
        Dipole field          0.0000 Ry au

        Potential amp.       -0.0000 Ry
        Total length         44.7487 bohr

[...]

     Starting wfc are  150 randomized atomic wfcs

     Self-consistent Calculation

     iteration #  1     ecut=    36.75 Ry     beta=0.10
     Davidson diagonalization with overlap
     ethr =  1.00E-02,  avg # of iterations =  7.3

[...]

     Magnetic moment per site:
     atom:    1    charge:    8.4211    magn:    0.9733    constr:    0.0000
     atom:    2    charge:    8.4211    magn:    0.9733    constr:    0.0000
     atom:    3    charge:    1.6203    magn:    0.1974    constr:    0.0000
     atom:    4    charge:    1.6203    magn:    0.1974    constr:    0.0000
     atom:    5    charge:    8.4169    magn:    0.9615    constr:    0.0000
     atom:    6    charge:    8.4169    magn:    0.9615    constr:    0.0000
[...]
     Q(r) pseudized with  8 coefficients,  rinner =    1.200   1.200   1.200
                                                       1.200   1.200

     PseudoPot. # 2 for Ir read from file:
     /afs/slac.stanford.edu/u/if/mamunm/psp/gbrv1.5pbe/Ir.UPF
     MD5 check sum: 8836f839c3459d2b385c504ce6d91f2c
     Pseudo is Ultrasoft + core correction, Zval = 15.0
     Generated by new atomic code, or converted to UPF format
     Using radial grid of  983 points,  7 beta functions with:
                l(1) =   0
                l(2) =   0
                l(3) =   1
                l(4) =   1
                l(5) =   1
                l(6) =   2
                l(7) =   2
     Q(r) pseudized with  8 coefficients,  rinner =    1.400   1.400   1.400
                                                       1.400   1.400

     vdW kernel table read from file vdW_kernel_table
     MD5 check sum: 095c7af220d748ca6e76c0b4c6cfb241

     atomic species   valence    mass     pseudopotential
        Co1           17.00    58.93319     Co( 1.00)
        Ir1           15.00   192.21700     Ir( 1.00)

     Starting magnetic structure
     atomic species   magnetization
        Co1          0.118
        Ir1          0.133

     No symmetry found

   Cartesian axes

     site n.     atom                  positions (alat units)
         1           Co1 tau(   1) = (   0.0000000   0.0000000  10.0000000  )
         2           Co1 tau(   2) = (   3.8628402   2.2894905  10.0000000  )
         3           Ir1 tau(   3) = (   2.6099062   0.0000000  10.0000000  )
         4           Ir1 tau(   4) = (   1.2529340   2.2894905  10.0000000  )
         5           Co1 tau(   5) = (   5.2198125   3.0937628  12.1435749  )
         6           Co1 tau(   6) = (   1.3569722   0.8042722  12.1435749  )
         7           Ir1 tau(   7) = (   2.6099062   3.0937628  12.1435749  )
         8           Ir1 tau(   8) = (   3.9668785   0.8042722  12.1435749  )
         9           Co1 tau(   9) = (   2.6307025   1.5592068  14.2452894  )
        10           Co1 tau(  10) = (   6.4935579   3.8487071  14.2452563  )
        11           Ir1 tau(  11) = (   5.2699011   1.5764400  14.2842557  )
        12           Ir1 tau(  12) = (   3.9128163   3.8661207  14.2842555  )

     number of k points=    40  Fermi-Dirac smearing, width (Ry)=  0.0110
                       cart. coord. in units 2pi/alat
        k(    1) = (   0.0000000   0.0000000   0.0000000), wk =   0.0277778
        k(    2) = (   0.0000000   0.0363982   0.0000000), wk =   0.0555556
        k(    3) = (   0.0000000   0.0727964   0.0000000), wk =   0.0555556
        k(    4) = (   0.0000000  -0.1091946   0.0000000), wk =   0.0277778
        k(    5) = (   0.0319296  -0.0174736   0.0000000), wk =   0.0555556
        k(    6) = (   0.0319296   0.0189246   0.0000000), wk =   0.0555556
        k(    7) = (   0.0319296   0.0553228   0.0000000), wk =   0.0555556
        k(    8) = (   0.0319296  -0.1266682   0.0000000), wk =   0.0555556
        k(    9) = (   0.0319296  -0.0902700   0.0000000), wk =   0.0555556
        k(   10) = (   0.0319296  -0.0538718   0.0000000), wk =   0.0555556
        k(   11) = (   0.0638593  -0.0349473   0.0000000), wk =   0.0555556
        k(   12) = (   0.0638593   0.0014509   0.0000000), wk =   0.0555556
        k(   13) = (   0.0638593   0.0378491   0.0000000), wk =   0.0555556
        k(   14) = (   0.0638593  -0.1441419   0.0000000), wk =   0.0555556
        k(   15) = (   0.0638593  -0.1077437   0.0000000), wk =   0.0555556
        k(   16) = (   0.0638593  -0.0713455   0.0000000), wk =   0.0555556
        k(   17) = (  -0.0957889   0.0524209   0.0000000), wk =   0.0277778
        k(   18) = (  -0.0957889   0.0888191   0.0000000), wk =   0.0555556
        k(   19) = (  -0.0957889   0.1252173   0.0000000), wk =   0.0555556
        k(   20) = (  -0.0957889  -0.0567737   0.0000000), wk =   0.0277778
        k(   21) = (   0.0000000   0.0000000   0.0000000), wk =   0.0277778
        k(   22) = (   0.0000000   0.0363982   0.0000000), wk =   0.0555556
        k(   23) = (   0.0000000   0.0727964   0.0000000), wk =   0.0555556
        k(   24) = (   0.0000000  -0.1091946   0.0000000), wk =   0.0277778
        k(   25) = (   0.0319296  -0.0174736   0.0000000), wk =   0.0555556
        k(   26) = (   0.0319296   0.0189246   0.0000000), wk =   0.0555556
        k(   27) = (   0.0319296   0.0553228   0.0000000), wk =   0.0555556
        k(   28) = (   0.0319296  -0.1266682   0.0000000), wk =   0.0555556
        k(   29) = (   0.0319296  -0.0902700   0.0000000), wk =   0.0555556
        k(   30) = (   0.0319296  -0.0538718   0.0000000), wk =   0.0555556
        k(   31) = (   0.0638593  -0.0349473   0.0000000), wk =   0.0555556
        k(   32) = (   0.0638593   0.0014509   0.0000000), wk =   0.0555556
        k(   33) = (   0.0638593   0.0378491   0.0000000), wk =   0.0555556
        k(   34) = (   0.0638593  -0.1441419   0.0000000), wk =   0.0555556
        k(   35) = (   0.0638593  -0.1077437   0.0000000), wk =   0.0555556
        k(   36) = (   0.0638593  -0.0713455   0.0000000), wk =   0.0555556
        k(   37) = (  -0.0957889   0.0524209   0.0000000), wk =   0.0277778
        k(   38) = (  -0.0957889   0.0888191   0.0000000), wk =   0.0555556
        k(   39) = (  -0.0957889   0.1252173   0.0000000), wk =   0.0555556
        k(   40) = (  -0.0957889  -0.0567737   0.0000000), wk =   0.0277778

     Largest allocated arrays     est. size (Mb)     dimensions
     Largest temporary arrays     est. size (Mb)     dimensions

     Check: negative/imaginary core charge=   -0.000003    0.000000

     Initial potential from superposition of free atoms
     Check: negative starting charge=(component1):   -1.231244
     Check: negative starting charge=(component2):   -0.941503

     starting charge  182.99977, renormalised to  192.00000

[...]

     *
     * You are using vdW-DF for exchange-correlation in this calculation.
     * Please cite the following three references that made this development
     * possible:
     *
     *   M. Dion, H. Rydberg, E. Schroder, D. C. Langreth, and
     *   B. I. Lundqvist, Phys. Rev. Lett. 92, 246401 (2004).
     *
     *   T. Thonhauser, V. R. Cooper, S. Li, A. Puzder, P. Hyldgaard, and
     *   D. C. Langreth, Phys. Rev. B 76, 125112 (2007).
     *
     *   G. Roman-Perez and J. M. Soler, Phys. Rev. Lett. 103, 096102 (2009).
     *
     *
     * If you are using vdW-DF2, please also cite:
     *
     *   K. Lee, E. D. Murray, L. Kong, B. I. Lundqvist, and
     *   D. C. Langreth, Phys. Rev. B 82, 081101(R) (2010).
     *
     *
     * If you are calculating the stress with vdW-DF, please also cite:
     *
     *   R. Sabatini, E. Kucukbenli, B. Kolb, T. Thonhauser, and
     *   S. de Gironcoli, J. Phys.: Condens. Matter 24, 424209 (2012).
     *

     Carrying out vdW-DF run using the following parameters:

     Nqs =      20    Nr_points =    1024   r_max =   100.000
     q_mesh =
               0.00001000     0.04494208     0.09755937     0.15916263
               0.23128650     0.31572767     0.41458969     0.53033537
               0.66584808     0.82450364     1.01025438     1.22772762
               1.48234092     1.78043706     2.12944203     2.53805004
               3.01644009     3.57652955     4.23227104     5.00000000

     Gradients computed in reciprocal space

[...]

     Starting wfc are  150 randomized atomic wfcs

     Self-consistent Calculation

[...]

     total energy              =   -2897.01443623 Ry
     Harris-Foulkes estimate   =   -2897.01443584 Ry
     estimated scf accuracy    <       0.00000160 Ry

[...]

     iteration # 36     ecut=    36.75 Ry     beta=0.10
     Davidson diagonalization with overlap
     ethr =  8.32E-10,  avg # of iterations =  1.4

[...]

     negative rho (up, down):  1.026E+00 9.020E-01

[...]

     Adding external electric field

     Computed dipole along edir(3) :
        Dipole                0.0008 Ry au,          0.0021 Debye
        Dipole field          0.0000 Ry au

        Potential amp.       -0.0002 Ry
        Total length         44.7487 bohr

     Magnetic moment per site:
     atom:    1    charge:    8.2918    magn:    0.9692    constr:    0.0000
     atom:    2    charge:    8.2918    magn:    0.9692    constr:    0.0000
     atom:    3    charge:    1.6143    magn:    0.0200    constr:    0.0000
     atom:    4    charge:    1.6143    magn:    0.0200    constr:    0.0000
     atom:    5    charge:    8.2908    magn:    0.9628    constr:    0.0000
     atom:    6    charge:    8.2908    magn:    0.9628    constr:    0.0000
     atom:    7    charge:    1.6217    magn:    0.0246    constr:    0.0000
     atom:    8    charge:    1.6217    magn:    0.0246    constr:    0.0000
     atom:    9    charge:    8.2889    magn:    0.9607    constr:    0.0000
     atom:   10    charge:    8.2889    magn:    0.9607    constr:    0.0000
     atom:   11    charge:    1.6125    magn:    0.0189    constr:    0.0000
     atom:   12    charge:    1.6125    magn:    0.0189    constr:    0.0000

     End of self-consistent calculation

 ------ SPIN UP ------------

[...]

 ------ SPIN DOWN ----------

[...]

          k = 0.0639-0.0713 0.0000 ( 14736 PWs)   bands (ev):

[...]

          k =-0.0958-0.0568 0.0000 ( 14686 PWs)   bands (ev):

   -92.5537 -92.5460 -92.3511 -92.3435 -92.3349 -92.3272 -55.9412 -55.9325
   -55.9118 -55.9079 -55.9027 -55.8190 -55.7566 -55.7482 -55.7468 -55.7388
   -55.7328 -55.7305 -55.6593 -55.6454 -55.6317 -55.6232 -55.6156 -55.6074
   -47.8032 -47.7163 -47.6628 -47.5039 -47.4799 -47.4491 -47.3969 -47.3044
   -47.1920 -47.1415 -47.1330 -47.0846 -47.0171 -47.0095 -46.9882 -46.9850
   -46.9682 -46.9394  -5.7106  -5.0039  -4.2491  -3.9234  -3.4526  -3.3694
    -3.3485  -3.1114  -3.0628  -2.8445  -2.4777  -2.3275  -2.2701  -2.2017
    -2.1368  -1.9375  -1.8000  -1.2940  -1.1825  -1.0974  -0.8841  -0.8206
    -0.7315  -0.6008  -0.3632  -0.3161  -0.1374   0.0888   0.1043   0.1236
     0.2422   0.2988   0.4017   0.4066   0.4477   0.4855   0.4857   0.5246
     0.5710   0.5776   0.6858   0.9685   1.0430   1.1195   1.2618   1.3499
     1.4179   1.4361   1.5025   1.5098   1.5453   1.6487   1.8662   1.8720
     1.9682   2.0732   2.1200   2.1279   2.4464   2.4508   2.6200   2.7584
     2.7884   3.4948   3.6796   3.6969   4.2230   4.7924   5.7339   6.1177
     6.2474   6.6164   7.1660   7.3295   7.8790   7.8939   8.4487   8.4849
     8.6037   8.6075   9.3181   9.6611   9.6954  10.2445

     the Fermi energy is     1.6359 ev

!    total energy              =   -2897.01443759 Ry
     Harris-Foulkes estimate   =   -2897.01443638 Ry
     estimated scf accuracy    <       0.00000061 Ry

     The total energy is the sum of the following terms:

     one-electron contribution =  -24206.40488818 Ry
     hartree contribution      =   12122.09137680 Ry
     xc contribution           =    -514.59286303 Ry
     ewald contribution        =    9701.99349164 Ry
     electric field correction =       0.00000000 Ry
     smearing contrib. (-TS)   =      -0.10155482 Ry

     total magnetization       =    13.28 Bohr mag/cell
     absolute magnetization    =    14.57 Bohr mag/cell

     convergence has been achieved in  36 iterations

 BEEF-vdW xc energy contributions
           1 :   -454.895250676822
           2 :    419.005796054030
           3 :   -356.270293756160
           4 :    281.064786729659
           5 :   -207.824870062605
           6 :    146.618954673851
           7 :   -101.231794302978
           8 :    69.9971197780852
           9 :   -48.4131197066793
          10 :    31.9697151046474
          11 :   -17.9243786603300
          12 :    5.56610282979022
          13 :    4.60724190701467
          14 :   -11.9732730933299
          15 :    16.4243041181307
          16 :   -18.3759114534364
          17 :    18.4069211461011
          18 :   -16.9690492097736
          19 :    14.3981642413872
          20 :   -11.1498037035747
          21 :    7.95852180430563
          22 :   -5.70179579567804
          23 :    4.99447892971307
          24 :   -5.79894249189056
          25 :    7.35162052155471
          26 :   -8.52161132513390
          27 :    8.41412624560371
          28 :   -6.86905247905133
          29 :    4.54418782102351
          30 :   -2.53433853386292
          31 :   -38.7017973685979
          32 :   -28.1608638646863

     Forces acting on atoms (Ry/au):

     negative rho (up, down):  1.026E+00 9.020E-01
     atom    1 type  1   force =     0.00916738    0.00543335    0.00435185
     atom    2 type  1   force =     0.00914519    0.00542067    0.00432717
     atom    3 type  2   force =    -0.00252534   -0.00149529    0.00278490
     atom    4 type  2   force =    -0.00252400   -0.00149747    0.00278492
     atom    5 type  1   force =    -0.00258180   -0.00153024   -0.00078287
     atom    6 type  1   force =    -0.00258454   -0.00153216   -0.00080219
     atom    7 type  2   force =    -0.00331694   -0.00196800   -0.00614256
     atom    8 type  2   force =    -0.00331872   -0.00196495   -0.00614262
     atom    9 type  1   force =    -0.00060949   -0.00036053    0.00066688
     atom   10 type  1   force =    -0.00063636   -0.00037780    0.00069414
     atom   11 type  2   force =    -0.00014604    0.00000114   -0.00086984
     atom   12 type  2   force =    -0.00006933   -0.00012872   -0.00086978

     Total force =     0.020616     Total SCF correction =     0.001337

     entering subroutine stress ...

     negative rho (up, down):  1.026E+00 9.020E-01
          total   stress  (Ry/bohr**3)                   (kbar)     P=  -17.23
  -0.00013757   0.00001983  -0.00001458        -20.24      2.92     -2.15
   0.00001983  -0.00015927  -0.00000864          2.92    -23.43     -1.27
  -0.00001458  -0.00000864  -0.00005458         -2.15     -1.27     -8.03

 !ASE

     Writing output data file calc.save

     General routines

     Parallel routines

   This run was terminated on:  12:31:55  19Dec2018

   JOB DONE.
Job  /afs/slac/g/suncat/bin/suncat-tsmpirun -x LD_LIBRARY_PATH -wdir /scratch/qe529682_eYLJt pw.x -in pw.inp

TID   HOST_NAME   COMMAND_LINE            STATUS            TERMINATION_TIME
00000 suncat0187 pw.x -in pw.inp   Done                     12/19/2018 12:31:55
00001 suncat0187 pw.x -in pw.inp   Done                     12/19/2018 12:31:55
00002 suncat0187 pw.x -in pw.inp   Done                     12/19/2018 12:31:55
00003 suncat0187 pw.x -in pw.inp   Done                     12/19/2018 12:31:55
00004 suncat0187 pw.x -in pw.inp   Done                     12/19/2018 12:31:55
00005 suncat0187 pw.x -in pw.inp   Done                     12/19/2018 12:31:55
00006 suncat0187 pw.x -in pw.inp   Done                     12/19/2018 12:31:55
00007 suncat0187 pw.x -in pw.inp   Done                     12/19/2018 12:31:55
00008 suncat0186 pw.x -in pw.inp   Done                     12/19/2018 12:31:55
00009 suncat0186 pw.x -in pw.inp   Done                     12/19/2018 12:31:55
00010 suncat0186 pw.x -in pw.inp   Done                     12/19/2018 12:31:55
00011 suncat0186 pw.x -in pw.inp   Done                     12/19/2018 12:31:55
00012 suncat0186 pw.x -in pw.inp   Done                     12/19/2018 12:31:55
00013 suncat0186 pw.x -in pw.inp   Done                     12/19/2018 12:31:55
00014 suncat0186 pw.x -in pw.inp   Done                     12/19/2018 12:31:55
00015 suncat0186 pw.x -in pw.inp   Done                     12/19/2018 12:31:55
00016 suncat0185 pw.x -in pw.inp   Done                     12/19/2018 12:31:55
00017 suncat0185 pw.x -in pw.inp   Done                     12/19/2018 12:31:55
00018 suncat0185 pw.x -in pw.inp   Done                     12/19/2018 12:31:55
00019 suncat0185 pw.x -in pw.inp   Done                     12/19/2018 12:31:55
00020 suncat0185 pw.x -in pw.inp   Done                     12/19/2018 12:31:55
00021 suncat0185 pw.x -in pw.inp   Done                     12/19/2018 12:31:55
00022 suncat0185 pw.x -in pw.inp   Done                     12/19/2018 12:31:55
00023 suncat0185 pw.x -in pw.inp   Done                     12/19/2018 12:31:55
00024 suncat0184 pw.x -in pw.inp   Done                     12/19/2018 12:31:55
00025 suncat0184 pw.x -in pw.inp   Done                     12/19/2018 12:31:55
00026 suncat0184 pw.x -in pw.inp   Done                     12/19/2018 12:31:55
00027 suncat0184 pw.x -in pw.inp   Done                     12/19/2018 12:31:55
00028 suncat0184 pw.x -in pw.inp   Done                     12/19/2018 12:31:55
00029 suncat0184 pw.x -in pw.inp   Done                     12/19/2018 12:31:55
00030 suncat0184 pw.x -in pw.inp   Done                     12/19/2018 12:31:55
00031 suncat0184 pw.x -in pw.inp   Done                     12/19/2018 12:31:55