     Program PWSCF v.5.1rc2 (svn rev. 11289) starts on 19Dec2018 at  7: 0:41

     Current dimensions of program PWSCF are:
     Max number of different atomic species (ntypx) = 10
     Max number of k-points (npk) =  40000
     Max angular momentum in pseudopotentials (lmaxx) =  3
     Presently stress not available with electric field

     IMPORTANT: XC functional enforced from input :
     Exchange-correlation      = BEEF-VDW ( 1  4 27 13 2)
     Any further DFT definition will be discarded
     Please, verify this is what you really want

     Subspace diagonalization in iterative solution of the eigenvalue problem:
     a serial algorithm will be used

     Found symmetry operation: I + (  0.5000  0.0000  0.0000)
     This is a supercell, fractional translations are disabled

     bravais-lattice index     =            0
     lattice parameter (alat)  =       1.8897  a.u.
     unit-cell volume          =    5592.8155 (a.u.)^3
     number of atoms/cell      =           12
     number of atomic types    =            2
     number of electrons       =       156.00
     number of Kohn-Sham states=          108
     kinetic-energy cutoff     =      36.7493  Ry
     charge density cutoff     =     367.4932  Ry
     convergence threshold     =      1.0E-06
     mixing beta               =       0.1000
     number of iterations used =           10  plain     mixing
     Exchange-correlation      = BEEF-VDW ( 1  4 27 13 2)
     nstep                     =           50

     celldm(1)=   1.889726  celldm(2)=   0.000000  celldm(3)=   0.000000
     celldm(4)=   0.000000  celldm(5)=   0.000000  celldm(6)=   0.000000

     crystal axes: (cart. coord. in units of alat)
               a(1) = (   6.031741   0.000000   0.000000 )
               a(2) = (  -3.015871   5.487470   0.000000 )
               a(3) = (   0.000000   0.000000  25.039116 )

     reciprocal axes: (cart. coord. in units 2 pi/alat)
               b(1) = (  0.165790  0.091117  0.000000 )
               b(2) = (  0.000000  0.182233  0.000000 )
               b(3) = (  0.000000  0.000000  0.039938 )

     PseudoPot. # 1 for Ta read from file:
     /afs/slac.stanford.edu/u/if/mamunm/psp/gbrv1.5pbe/Ta.UPF
     MD5 check sum: f8bbe9446314a3b8ea5d9f3e3836c939
     Pseudo is Ultrasoft + core correction, Zval = 13.0
     Generated by new atomic code, or converted to UPF format
     Using radial grid of  921 points,  7 beta functions with:
                l(1) =   0
                l(2) =   0
                l(3) =   1
                l(4) =   1
                l(5) =   2
                l(6) =   2
                l(7) =   3
     Q(r) pseudized with  6 coefficients,  rinner =    1.300   1.300   1.300
                                                       1.300   1.300   1.300
                                                       1.300

     PseudoPot. # 2 for Tl read from file:
     /afs/slac.stanford.edu/u/if/mamunm/psp/gbrv1.5pbe/Tl.UPF
     MD5 check sum: b76cf1f7e72655a2b2c53cf6385d7059
     Pseudo is Ultrasoft + core correction, Zval = 13.0
     Generated by new atomic code, or converted to UPF format
     Using radial grid of  899 points,  6 beta functions with:
                l(1) =   0
                l(2) =   0
                l(3) =   1
                l(4) =   1
                l(5) =   2
                l(6) =   2
     Q(r) pseudized with  6 coefficients,  rinner =    1.100   1.100   1.100
                                                       1.100   1.100

     vdW kernel table read from file vdW_kernel_table
     MD5 check sum: 095c7af220d748ca6e76c0b4c6cfb241

     atomic species   valence    mass     pseudopotential
        Ta1           13.00   180.94788     Ta( 1.00)
        Tl1           13.00   204.38000     Tl( 1.00)

     No symmetry found

   Cartesian axes

     site n.     atom                  positions (alat units)
         1           Ta1 tau(   1) = (   0.0000000   0.0000000  10.0000000  )
         2           Ta1 tau(   2) = (   3.0158706   0.0000000  10.0000000  )
         3           Tl1 tau(   3) = (   1.5079353   2.7437352  10.0000000  )
         4           Tl1 tau(   4) = (  -1.5079353   2.7437352  10.0000000  )
         5           Ta1 tau(   5) = (   3.0158706   1.6574988  12.5195582  )
         6           Ta1 tau(   6) = (  -0.0000000   1.6574988  12.5195582  )
         7           Tl1 tau(   7) = (  -1.5079353   4.4012340  12.5195582  )
         8           Tl1 tau(   8) = (   1.5079353   4.4012340  12.5195582  )
         9           Ta1 tau(   9) = (  -0.0000000   3.3149976  15.0391163  )
        10           Ta1 tau(  10) = (   3.0158706   3.3149976  15.0391163  )
        11           Tl1 tau(  11) = (   4.5238059   0.5712623  15.0391163  )
        12           Tl1 tau(  12) = (   1.5079353   0.5712623  15.0391163  )

     number of k points=    20  Fermi-Dirac smearing, width (Ry)=  0.0110
                       cart. coord. in units 2pi/alat
        k(    1) = (   0.0000000   0.0000000   0.0000000), wk =   0.0555556
        k(    2) = (   0.0000000   0.0303722   0.0000000), wk =   0.1111111
        k(    3) = (   0.0000000   0.0607444   0.0000000), wk =   0.1111111
        k(    4) = (   0.0000000  -0.0911167   0.0000000), wk =   0.0555556
        k(    5) = (   0.0276316   0.0151861   0.0000000), wk =   0.1111111
        k(    6) = (   0.0276316   0.0455583   0.0000000), wk =   0.1111111
        k(    7) = (   0.0276316   0.0759306   0.0000000), wk =   0.1111111
        k(    8) = (   0.0276316  -0.0759306   0.0000000), wk =   0.1111111
        k(    9) = (   0.0276316  -0.0455583   0.0000000), wk =   0.1111111
        k(   10) = (   0.0276316  -0.0151861   0.0000000), wk =   0.1111111
        k(   11) = (   0.0552632   0.0303722   0.0000000), wk =   0.1111111
        k(   12) = (   0.0552632   0.0607444   0.0000000), wk =   0.1111111
        k(   13) = (   0.0552632   0.0911167   0.0000000), wk =   0.1111111
        k(   14) = (   0.0552632  -0.0607444   0.0000000), wk =   0.1111111
        k(   15) = (   0.0552632  -0.0303722   0.0000000), wk =   0.1111111
        k(   16) = (   0.0552632   0.0000000   0.0000000), wk =   0.1111111
        k(   17) = (  -0.0828948  -0.0455583   0.0000000), wk =   0.0555556
        k(   18) = (  -0.0828948  -0.0151861   0.0000000), wk =   0.1111111
        k(   19) = (  -0.0828948   0.0151861   0.0000000), wk =   0.1111111
        k(   20) = (  -0.0828948  -0.1366750   0.0000000), wk =   0.0555556

     Largest allocated arrays     est. size (Mb)     dimensions
     Largest temporary arrays     est. size (Mb)     dimensions

     Initial potential from superposition of free atoms
     Check: negative starting charge=   -0.871620

     starting charge  155.96413, renormalised to  156.00000

     negative rho (up, down):  8.718E-01 0.000E+00

     *
     * You are using vdW-DF for exchange-correlation in this calculation.
     * Please cite the following three references that made this development
     * possible:
     *
     *   M. Dion, H. Rydberg, E. Schroder, D. C. Langreth, and
     *   B. I. Lundqvist, Phys. Rev. Lett. 92, 246401 (2004).
     *
     *   T. Thonhauser, V. R. Cooper, S. Li, A. Puzder, P. Hyldgaard, and
     *   D. C. Langreth, Phys. Rev. B 76, 125112 (2007).
     *
     *   G. Roman-Perez and J. M. Soler, Phys. Rev. Lett. 103, 096102 (2009).
     *
     *
     * If you are using vdW-DF2, please also cite:
     *
     *   K. Lee, E. D. Murray, L. Kong, B. I. Lundqvist, and
     *   D. C. Langreth, Phys. Rev. B 82, 081101(R) (2010).
     *
     *
     * If you are calculating the stress with vdW-DF, please also cite:
     *
     *   R. Sabatini, E. Kucukbenli, B. Kolb, T. Thonhauser, and
     *   S. de Gironcoli, J. Phys.: Condens. Matter 24, 424209 (2012).
     *

     Carrying out vdW-DF run using the following parameters:

     Nqs =      20    Nr_points =    1024   r_max =   100.000
     q_mesh =
               0.00001000     0.04494208     0.09755937     0.15916263
               0.23128650     0.31572767     0.41458969     0.53033537
               0.66584808     0.82450364     1.01025438     1.22772762
               1.48234092     1.78043706     2.12944203     2.53805004
               3.01644009     3.57652955     4.23227104     5.00000000

     Gradients computed in reciprocal space

     Adding external electric field

     Computed dipole along edir(3) :
        Dipole                0.0000 Ry au,          0.0000 Debye
        Dipole field          0.0000 Ry au

        Potential amp.       -0.0000 Ry
        Total length         46.1341 bohr

     Starting wfc are  132 randomized atomic wfcs

     Self-consistent Calculation

     iteration #  1     ecut=    36.75 Ry     beta=0.10
     Davidson diagonalization with overlap
     ethr =  1.00E-02,  avg # of iterations =  3.2

     Threshold (ethr) on eigenvalues was too large:
     Diagonalizing with lowered threshold

     Davidson diagonalization with overlap
     ethr =  7.26E-04,  avg # of iterations =  4.4

[...]

     total energy              =   -1739.32148709 Ry
     Harris-Foulkes estimate   =   -1739.52023572 Ry
     estimated scf accuracy    <       1.26635024 Ry

[...]

     End of self-consistent calculation

          k = 0.0000 0.0000 0.0000 ( 21037 PWs)   bands (ev):

   -67.2118 -67.2114 -67.1885 -67.1882 -67.0058 -66.9819 -33.6728 -33.6537
   -33.6254 -33.6067 -33.5832 -33.5545 -33.5479 -33.5341 -33.5311 -33.4905
   -33.4850 -33.4677 -33.4180 -33.1799 -33.1357 -33.1067 -33.1038 -33.0382
   -11.1162 -10.8538 -10.7452 -10.6746 -10.5891 -10.5841 -10.5820 -10.5210
   -10.4624 -10.2606 -10.2457 -10.1687 -10.1578 -10.0896 -10.0795 -10.0069
    -9.9440  -9.8748  -9.8440  -9.8374  -9.7893  -9.7601  -9.7463  -9.6247
    -9.6136  -9.6014  -9.5875  -9.5690  -9.3900  -9.2444  -8.4398  -6.7431
    -5.1465  -4.3875  -3.2072  -2.5556  -1.6934  -1.5344  -1.4905  -0.9111
    -0.8589  -0.3690  -0.3442   0.0085   0.3376   0.3978   0.4864   0.6391
     0.7880   0.8324   1.4860   1.5426   1.6740   1.7961   1.9105   2.2307
     2.2652   2.3553   2.5831   2.5960   2.6280   2.7110   3.0671   3.3222
     3.4771   3.5874   3.6409   3.9254   4.0394   4.0591   4.1801   4.3097
     4.3423   4.4541   4.6548   4.7090   4.8903   5.1976   5.4177   5.4593
     5.4753   6.0715   6.7721   6.8833

[...]

          k =-0.0829-0.0456 0.0000 ( 21070 PWs)   bands (ev):

[...]

     the Fermi energy is     1.7798 ev

!    total energy              =   -1739.37101903 Ry
     Harris-Foulkes estimate   =   -1739.37106499 Ry
     estimated scf accuracy    <       0.00000041 Ry

     The total energy is the sum of the following terms:

     one-electron contribution =  -10425.98894099 Ry
     hartree contribution      =    5245.25236073 Ry
     xc contribution           =    -645.50354766 Ry
     ewald contribution        =    4086.93294689 Ry
     electric field correction =       0.00000000 Ry
     smearing contrib. (-TS)   =      -0.06383800 Ry

     convergence has been achieved in  15 iterations

 BEEF-vdW xc energy contributions
           1 :   -572.612299314238
           2 :    530.960294673236
           3 :   -457.618778243576
           4 :    368.642145139503
[...]

[...]

     Program PWSCF v.5.1rc2 (svn rev. 11289) starts on 19Dec2018 at  7:10:56

[...]

     Program PWSCF v.5.1rc2 (svn rev. 11289) starts on 19Dec2018 at  7:26: 5

[...]

   This run was terminated on:   7:31: 7  19Dec2018

[...]

     Threshold (ethr) on eigenvalues was too large:
     Diagonalizing with lowered threshold

     Davidson diagonalization with overlap
     ethr =  9.97E-04,  avg # of iterations =  2.4

[...]

     Program PWSCF v.5.1rc2 (svn rev. 11289) starts on 19Dec2018 at  7:41:26

     Current dimensions of program PWSCF are:
     Max number of different atomic species (ntypx) = 10
     Max number of k-points (npk) =  40000
     Max angular momentum in pseudopotentials (lmaxx) =  3
     Presently stress not available with electric field

     IMPORTANT: XC functional enforced from input :
     Exchange-correlation      = BEEF-VDW ( 1  4 27 13 2)
     Any further DFT definition will be discarded
     Please, verify this is what you really want

     Subspace diagonalization in iterative solution of the eigenvalue problem:
     a serial algorithm will be used

     Found symmetry operation: I + (  0.5000  0.0000  0.0000)
     This is a supercell, fractional translations are disabled

     bravais-lattice index     =            0
     lattice parameter (alat)  =       1.8897  a.u.
     unit-cell volume          =    5592.8155 (a.u.)^3
     number of atoms/cell      =           12
     number of atomic types    =            2
     number of electrons       =       156.00
     number of Kohn-Sham states=          108
     kinetic-energy cutoff     =      36.7493  Ry
     charge density cutoff     =     367.4932  Ry
     convergence threshold     =      1.0E-06
     mixing beta               =       0.1000
     number of iterations used =           10  plain     mixing
     Exchange-correlation      = BEEF-VDW ( 1  4 27 13 2)
     nstep                     =           50

     celldm(1)=   1.889726  celldm(2)=   0.000000  celldm(3)=   0.000000
     celldm(4)=   0.000000  celldm(5)=   0.000000  celldm(6)=   0.000000

     crystal axes: (cart. coord. in units of alat)
               a(1) = (   6.031741   0.000000   0.000000 )
               a(2) = (  -3.015871   5.487470   0.000000 )
               a(3) = (   0.000000   0.000000  25.039116 )

     reciprocal axes: (cart. coord. in units 2 pi/alat)
               b(1) = (  0.165790  0.091117  0.000000 )
               b(2) = (  0.000000  0.182233  0.000000 )
               b(3) = (  0.000000  0.000000  0.039938 )

     PseudoPot. # 1 for Ta read from file:
     /afs/slac.stanford.edu/u/if/mamunm/psp/gbrv1.5pbe/Ta.UPF
     MD5 check sum: f8bbe9446314a3b8ea5d9f3e3836c939
     Pseudo is Ultrasoft + core correction, Zval = 13.0
     Generated by new atomic code, or converted to UPF format
     Using radial grid of  921 points,  7 beta functions with:
                l(1) =   0
                l(2) =   0
                l(3) =   1
                l(4) =   1
                l(5) =   2
                l(6) =   2
                l(7) =   3
     Q(r) pseudized with  6 coefficients,  rinner =    1.300   1.300   1.300
                                                       1.300   1.300   1.300
                                                       1.300

     PseudoPot. # 2 for Tl read from file:
     /afs/slac.stanford.edu/u/if/mamunm/psp/gbrv1.5pbe/Tl.UPF
     MD5 check sum: b76cf1f7e72655a2b2c53cf6385d7059
     Pseudo is Ultrasoft + core correction, Zval = 13.0
     Generated by new atomic code, or converted to UPF format
     Using radial grid of  899 points,  6 beta functions with:
                l(1) =   0
                l(2) =   0
                l(3) =   1
                l(4) =   1
                l(5) =   2
                l(6) =   2
     Q(r) pseudized with  6 coefficients,  rinner =    1.100   1.100   1.100
                                                       1.100   1.100

     vdW kernel table read from file vdW_kernel_table
     MD5 check sum: 095c7af220d748ca6e76c0b4c6cfb241

     atomic species   valence    mass     pseudopotential
        Ta1           13.00   180.94788     Ta( 1.00)
        Tl1           13.00   204.38000     Tl( 1.00)

     No symmetry found

   Cartesian axes

     site n.     atom                  positions (alat units)
         1           Ta1 tau(   1) = (   0.0000000   0.0000000  10.0000000  )
         2           Ta1 tau(   2) = (   3.0158706   0.0000000  10.0000000  )
         3           Tl1 tau(   3) = (   1.5079353   2.7437352  10.0000000  )
         4           Tl1 tau(   4) = (  -1.5079353   2.7437352  10.0000000  )
         5           Ta1 tau(   5) = (   3.0158706   1.6574988  12.5195582  )
         6           Ta1 tau(   6) = (  -0.0000000   1.6574988  12.5195582  )
         7           Tl1 tau(   7) = (  -1.5079353   4.4012340  12.5195582  )
         8           Tl1 tau(   8) = (   1.5079353   4.4012340  12.5195582  )
         9           Ta1 tau(   9) = (  -0.0001886   3.0309020  14.8359343  )
        10           Ta1 tau(  10) = (   3.0156952   3.0309066  14.8359258  )
        11           Tl1 tau(  11) = (   4.5237947   0.3767553  15.4654461  )
        12           Tl1 tau(  12) = (   1.5079355   0.3767595  15.4654962  )

     number of k points=    20  Fermi-Dirac smearing, width (Ry)=  0.0110
                       cart. coord. in units 2pi/alat
        k(    1) = (   0.0000000   0.0000000   0.0000000), wk =   0.0555556
        k(    2) = (   0.0000000   0.0303722   0.0000000), wk =   0.1111111
        k(    3) = (   0.0000000   0.0607444   0.0000000), wk =   0.1111111
        k(    4) = (   0.0000000  -0.0911167   0.0000000), wk =   0.0555556
        k(    5) = (   0.0276316   0.0151861   0.0000000), wk =   0.1111111
        k(    6) = (   0.0276316   0.0455583   0.0000000), wk =   0.1111111
        k(    7) = (   0.0276316   0.0759306   0.0000000), wk =   0.1111111
        k(    8) = (   0.0276316  -0.0759306   0.0000000), wk =   0.1111111
        k(    9) = (   0.0276316  -0.0455583   0.0000000), wk =   0.1111111
        k(   10) = (   0.0276316  -0.0151861   0.0000000), wk =   0.1111111
        k(   11) = (   0.0552632   0.0303722   0.0000000), wk =   0.1111111
        k(   12) = (   0.0552632   0.0607444   0.0000000), wk =   0.1111111
        k(   13) = (   0.0552632   0.0911167   0.0000000), wk =   0.1111111
        k(   14) = (   0.0552632  -0.0607444   0.0000000), wk =   0.1111111
        k(   15) = (   0.0552632  -0.0303722   0.0000000), wk =   0.1111111
        k(   16) = (   0.0552632   0.0000000   0.0000000), wk =   0.1111111
        k(   17) = (  -0.0828948  -0.0455583   0.0000000), wk =   0.0555556
        k(   18) = (  -0.0828948  -0.0151861   0.0000000), wk =   0.1111111
        k(   19) = (  -0.0828948   0.0151861   0.0000000), wk =   0.1111111
        k(   20) = (  -0.0828948  -0.1366750   0.0000000), wk =   0.0555556

     Largest allocated arrays     est. size (Mb)     dimensions
     Largest temporary arrays     est. size (Mb)     dimensions

     Initial potential from superposition of free atoms
     Check: negative starting charge=   -0.870151

     starting charge  155.96413, renormalised to  156.00000

[...]

     *
     * You are using vdW-DF for exchange-correlation in this calculation.
     * Please cite the following three references that made this development
     * possible:
     *
     *   M. Dion, H. Rydberg, E. Schroder, D. C. Langreth, and
     *   B. I. Lundqvist, Phys. Rev. Lett. 92, 246401 (2004).
     *
     *   T. Thonhauser, V. R. Cooper, S. Li, A. Puzder, P. Hyldgaard, and
     *   D. C. Langreth, Phys. Rev. B 76, 125112 (2007).
     *
     *   G. Roman-Perez and J. M. Soler, Phys. Rev. Lett. 103, 096102 (2009).
     *
     *
     * If you are using vdW-DF2, please also cite:
     *
     *   K. Lee, E. D. Murray, L. Kong, B. I. Lundqvist, and
     *   D. C. Langreth, Phys. Rev. B 82, 081101(R) (2010).
     *
     *
     * If you are calculating the stress with vdW-DF, please also cite:
     *
     *   R. Sabatini, E. Kucukbenli, B. Kolb, T. Thonhauser, and
     *   S. de Gironcoli, J. Phys.: Condens. Matter 24, 424209 (2012).
     *

     Carrying out vdW-DF run using the following parameters:

     Nqs =      20    Nr_points =    1024   r_max =   100.000
     q_mesh =
               0.00001000     0.04494208     0.09755937     0.15916263
               0.23128650     0.31572767     0.41458969     0.53033537
               0.66584808     0.82450364     1.01025438     1.22772762
               1.48234092     1.78043706     2.12944203     2.53805004
               3.01644009     3.57652955     4.23227104     5.00000000

     Gradients computed in reciprocal space

[...]

     Starting wfc are  132 randomized atomic wfcs

     Self-consistent Calculation

[...]

     total energy              =   -1739.44756668 Ry
     Harris-Foulkes estimate   =   -1739.44756842 Ry
     estimated scf accuracy    <       0.00000243 Ry

     iteration # 16     ecut=    36.75 Ry     beta=0.10
     Davidson diagonalization with overlap
     ethr =  1.56E-09,  avg # of iterations =  2.0

[...]

     negative rho (up, down):  9.213E-01 0.000E+00

     Adding external electric field

     Computed dipole along edir(3) :
        Dipole                0.0491 Ry au,          0.1248 Debye
        Dipole field          0.0001 Ry au

        Potential amp.       -0.0102 Ry
        Total length         46.1341 bohr

     End of self-consistent calculation

[...]

          k = 0.0553 0.0000 0.0000 ( 21045 PWs)   bands (ev):

[...]

          k =-0.0829-0.1367 0.0000 ( 21070 PWs)   bands (ev):

   -67.2057 -67.2056 -66.9235 -66.9235 -66.7910 -66.7910 -33.6455 -33.6454
   -33.5596 -33.5596 -33.4536 -33.4535 -33.3455 -33.3455 -33.3239 -33.3238
   -33.2596 -33.2596 -33.1467 -33.1467 -33.0718 -33.0718 -32.7837 -32.7837
   -10.4980 -10.4980 -10.3734 -10.3734 -10.3405 -10.3405 -10.3129 -10.3129
   -10.2707 -10.2707  -9.9068  -9.9068  -9.8836  -9.8836  -9.8341  -9.8341
    -9.8013  -9.8012  -9.7814  -9.7814  -9.7312  -9.7312  -9.7100  -9.7100
    -9.7022  -9.7022  -9.6385  -9.6385  -9.6003  -9.6003  -6.7466  -6.7466
    -5.2479  -5.2479  -4.2479  -4.2478  -1.9509  -1.9509  -0.7032  -0.7032
    -0.0913  -0.0913   0.1475   0.1475   0.6210   0.6210   0.7994   0.7994
     1.0024   1.0024   1.4646   1.4646   1.6252   1.6252   1.9373   1.9373
     2.4347   2.4347   2.4898   2.4898   2.8651   2.8652   3.1934   3.1934
     3.6805   3.6805   3.9140   3.9140   4.1555   4.1555   4.2946   4.2946
     4.7330   4.7331   5.3244   5.3245   5.5897   5.5897   5.7497   5.7497
     6.4876   6.4876   6.7485   6.7487

     the Fermi energy is     1.8029 ev

!    total energy              =   -1739.44752985 Ry
     Harris-Foulkes estimate   =   -1739.44756732 Ry
     estimated scf accuracy    <       0.00000027 Ry

     The total energy is the sum of the following terms:

     one-electron contribution =  -10243.67876186 Ry
     hartree contribution      =    5154.71562995 Ry
     xc contribution           =    -645.50976060 Ry
     ewald contribution        =    3995.08322582 Ry
     electric field correction =       0.00000542 Ry
     smearing contrib. (-TS)   =      -0.05786859 Ry

     convergence has been achieved in  16 iterations

 BEEF-vdW xc energy contributions
           1 :   -572.608596951651
           2 :    530.885576042300
           3 :   -457.453833088017
           4 :    368.425083669662
           5 :   -280.349937848061
           6 :    205.246504580100
           7 :   -148.158174562626
           8 :    107.714779281030
           9 :   -78.8893871809632
          10 :    56.3225598226909
          11 :   -36.6787260391159
          12 :    19.2520815852680
          13 :   -5.06202821164197
          14 :   -4.67079718284879
          15 :    9.69714588635316
          16 :   -11.0447515485560
          17 :    10.5150784493612
          18 :   -9.83657874048333
          19 :    9.98753214713076
          20 :   -11.0015714615703
          21 :    12.2510120627426
          22 :   -12.9754896112850
          23 :    12.7438977246020
          24 :   -11.6421703746987
          25 :    10.1531723451885
          26 :   -8.85638018387976
          27 :    8.12879829367535
          28 :   -7.99331957571087
          29 :    8.15758382067099
          30 :   -8.19761539620617
          31 :   -47.9722769478853
          32 :   -35.4095091516632

     Forces acting on atoms (Ry/au):

     negative rho (up, down):  9.213E-01 0.000E+00
     atom    1 type  1   force =    -0.00000136    0.02076325    0.04648366
     atom    2 type  1   force =    -0.00000249    0.02076245    0.04647970
     atom    3 type  2   force =     0.00001559   -0.00673849   -0.05460516
     atom    4 type  2   force =     0.00001988   -0.00674017   -0.05460594
     atom    5 type  1   force =     0.00000651   -0.03061445   -0.00748587
     atom    6 type  1   force =     0.00000598   -0.03061779   -0.00748752
     atom    7 type  2   force =    -0.00000423    0.01658416    0.01743958
     atom    8 type  2   force =    -0.00002401    0.01658311    0.01743855
     atom    9 type  1   force =     0.00000192    0.00102551   -0.00050668
     atom   10 type  1   force =     0.00000070    0.00102583   -0.00050630
     atom   11 type  2   force =    -0.00000836   -0.00101507   -0.00132112
     atom   12 type  2   force =    -0.00001013   -0.00101834   -0.00132291

     Total force =     0.119962     Total SCF correction =     0.001626

     entering subroutine stress ...

     negative rho (up, down):  9.213E-01 0.000E+00
          total   stress  (Ry/bohr**3)                   (kbar)     P=  -20.48
  -0.00014668  -0.00000001  -0.00000001        -21.58     -0.00     -0.00
  -0.00000001  -0.00023134  -0.00002356         -0.00    -34.03     -3.47
  -0.00000001  -0.00002356  -0.00003967         -0.00     -3.47     -5.84

 !ASE

     Writing output data file calc.save

     General routines

     Parallel routines

   This run was terminated on:   7:46:20  19Dec2018

   JOB DONE.
Job  /afs/slac/g/suncat/bin/suncat-tsmpirun -x LD_LIBRARY_PATH -wdir /scratch/qe530633_4XcAT pw.x -in pw.inp

TID   HOST_NAME   COMMAND_LINE            STATUS            TERMINATION_TIME
00000 suncat2058 pw.x -in pw.inp   Done                     12/19/2018 07:46:20
00001 suncat2058 pw.x -in pw.inp   Done                     12/19/2018 07:46:20
00002 suncat2058 pw.x -in pw.inp   Done                     12/19/2018 07:46:20
00003 suncat2058 pw.x -in pw.inp   Done                     12/19/2018 07:46:20
00004 suncat2058 pw.x -in pw.inp   Done                     12/19/2018 07:46:20
00005 suncat2058 pw.x -in pw.inp   Done                     12/19/2018 07:46:20
00006 suncat2058 pw.x -in pw.inp   Done                     12/19/2018 07:46:20
00007 suncat2058 pw.x -in pw.inp   Done                     12/19/2018 07:46:20
00008 suncat2058 pw.x -in pw.inp   Done                     12/19/2018 07:46:20
00009 suncat2058 pw.x -in pw.inp   Done                     12/19/2018 07:46:20
00010 suncat2058 pw.x -in pw.inp   Done                     12/19/2018 07:46:20
00011 suncat2058 pw.x -in pw.inp   Done                     12/19/2018 07:46:20
00012 suncat2058 pw.x -in pw.inp   Done                     12/19/2018 07:46:20
00013 suncat2058 pw.x -in pw.inp   Done                     12/19/2018 07:46:20
00014 suncat2058 pw.x -in pw.inp   Done                     12/19/2018 07:46:20
00015 suncat2058 pw.x -in pw.inp   Done                     12/19/2018 07:46:20
00016 suncat2057 pw.x -in pw.inp   Done                     12/19/2018 07:46:20
00017 suncat2057 pw.x -in pw.inp   Done                     12/19/2018 07:46:20
00018 suncat2057 pw.x -in pw.inp   Done                     12/19/2018 07:46:20
00019 suncat2057 pw.x -in pw.inp   Done                     12/19/2018 07:46:20
00020 suncat2057 pw.x -in pw.inp   Done                     12/19/2018 07:46:20
00021 suncat2057 pw.x -in pw.inp   Done                     12/19/2018 07:46:20
00022 suncat2057 pw.x -in pw.inp   Done                     12/19/2018 07:46:20
00023 suncat2057 pw.x -in pw.inp   Done                     12/19/2018 07:46:20
00024 suncat2057 pw.x -in pw.inp   Done                     12/19/2018 07:46:20
00025 suncat2057 pw.x -in pw.inp   Done                     12/19/2018 07:46:20
00026 suncat2057 pw.x -in pw.inp   Done                     12/19/2018 07:46:20
00027 suncat2057 pw.x -in pw.inp   Done                     12/19/2018 07:46:20
00028 suncat2057 pw.x -in pw.inp   Done                     12/19/2018 07:46:20
00029 suncat2057 pw.x -in pw.inp   Done                     12/19/2018 07:46:20
00030 suncat2057 pw.x -in pw.inp   Done                     12/19/2018 07:46:20
00031 suncat2057 pw.x -in pw.inp   Done                     12/19/2018 07:46:20