     Program PWSCF v.5.1rc2 (svn rev. 11289) starts on 25Dec2018 at  8:21:40

     Current dimensions of program PWSCF are:
     Max number of different atomic species (ntypx) = 10
     Max number of k-points (npk) =  40000
     Max angular momentum in pseudopotentials (lmaxx) =  3
     Presently stress not available with electric field

     IMPORTANT: XC functional enforced from input :
     Exchange-correlation      = BEEF-VDW ( 1  4 27 13 2)
     Any further DFT definition will be discarded
     Please, verify this is what you really want

     Subspace diagonalization in iterative solution of the eigenvalue problem:
     a serial algorithm will be used

     Found symmetry operation: I + ( -0.5000  0.0000  0.0000)
     This is a supercell, fractional translations are disabled

     bravais-lattice index     =            0
     lattice parameter (alat)  =       1.8897  a.u.
     unit-cell volume          =    5579.7441 (a.u.)^3
     number of atoms/cell      =           12
     number of atomic types    =            2
     number of electrons       =       150.00
     number of Kohn-Sham states=          105
     kinetic-energy cutoff     =      36.7493  Ry
     charge density cutoff     =     367.4932  Ry
     convergence threshold     =      1.0E-06
     mixing beta               =       0.1000
     number of iterations used =           10  plain     mixing
     Exchange-correlation      = BEEF-VDW ( 1  4 27 13 2)
     nstep                     =           50

     celldm(1)=   1.889726  celldm(2)=   0.000000  celldm(3)=   0.000000
     celldm(4)=   0.000000  celldm(5)=   0.000000  celldm(6)=   0.000000

     crystal axes: (cart. coord. in units of alat)
               a(1) = (   5.783403   0.000000   0.000000 )
               a(2) = (  -2.891702   5.720901   0.000000 )
               a(3) = (   0.000000   0.000000  24.990201 )

     reciprocal axes: (cart. coord. in units 2 pi/alat)
               b(1) = (  0.172909  0.087399  0.000000 )
               b(2) = (  0.000000  0.174798  0.000000 )
               b(3) = (  0.000000  0.000000  0.040016 )

     PseudoPot. # 1 for Zr read from file:
     /afs/slac.stanford.edu/u/if/mamunm/psp/gbrv1.5pbe/Zr.UPF
     MD5 check sum: 5db81b1e868ab7776c4564c113de050b
     Pseudo is Ultrasoft + core correction, Zval = 12.0
     Generated by new atomic code, or converted to UPF format
     Using radial grid of  887 points,  6 beta functions with:
                l(1) =   0
                l(2) =   0
                l(3) =   1
                l(4) =   1
                l(5) =   2
                l(6) =   2
     Q(r) pseudized with  6 coefficients,  rinner =    1.200   1.200   1.200
                                                       1.200   1.200

     PseudoPot. # 2 for Ta read from file:
     /afs/slac.stanford.edu/u/if/mamunm/psp/gbrv1.5pbe/Ta.UPF
     MD5 check sum: f8bbe9446314a3b8ea5d9f3e3836c939
     Pseudo is Ultrasoft + core correction, Zval = 13.0
     Generated by new atomic code, or converted to UPF format
     Using radial grid of  921 points,  7 beta functions with:
                l(1) =   0
                l(2) =   0
                l(3) =   1
                l(4) =   1
                l(5) =   2
                l(6) =   2
                l(7) =   3
     Q(r) pseudized with  6 coefficients,  rinner =    1.300   1.300   1.300
                                                       1.300   1.300   1.300
                                                       1.300

     vdW kernel table read from file vdW_kernel_table
     MD5 check sum: 095c7af220d748ca6e76c0b4c6cfb241

     atomic species   valence    mass     pseudopotential
        Zr1           12.00    91.22400     Zr( 1.00)
        Ta1           13.00   180.94788     Ta( 1.00)

     No symmetry found

   Cartesian axes

     site n.     atom                  positions (alat units)
         1           Zr1 tau(   1) = (   0.0000000   0.0000000  10.0000000  )
         2           Zr1 tau(   2) = (   2.8917017   0.0000000  10.0000000  )
         3           Ta1 tau(   3) = (   1.4458508   2.8604506  10.0000000  )
         4           Ta1 tau(   4) = (  -1.4458508   2.8604506  10.0000000  )
         5           Zr1 tau(   5) = (   2.8917017   1.4616471  12.4951005  )
         6           Zr1 tau(   6) = (  -0.0000000   1.4616471  12.4951005  )
         7           Ta1 tau(   7) = (  -1.4458508   4.3220977  12.4951005  )
         8           Ta1 tau(   8) = (   1.4458508   4.3220977  12.4951005  )
         9           Zr1 tau(   9) = (   0.0000000   2.9232942  14.9902010  )
        10           Zr1 tau(  10) = (   2.8917017   2.9232942  14.9902010  )
        11           Ta1 tau(  11) = (   4.3375525   0.0628436  14.9902010  )
        12           Ta1 tau(  12) = (   1.4458508   0.0628436  14.9902010  )

     number of k points=    20  Fermi-Dirac smearing, width (Ry)=  0.0110
                       cart. coord. in units 2pi/alat
        k(    1) = (   0.0000000   0.0000000   0.0000000), wk =   0.0555556
        k(    2) = (   0.0000000   0.0291329   0.0000000), wk =   0.1111111
        k(    3) = (   0.0000000   0.0582659   0.0000000), wk =   0.1111111
        k(    4) = (   0.0000000  -0.0873988   0.0000000), wk =   0.0555556
        k(    5) = (   0.0288181   0.0145665   0.0000000), wk =   0.1111111
        k(    6) = (   0.0288181   0.0436994   0.0000000), wk =   0.1111111
        k(    7) = (   0.0288181   0.0728323   0.0000000), wk =   0.1111111
        k(    8) = (   0.0288181  -0.0728323   0.0000000), wk =   0.1111111
        k(    9) = (   0.0288181  -0.0436994   0.0000000), wk =   0.1111111
        k(   10) = (   0.0288181  -0.0145665   0.0000000), wk =   0.1111111
        k(   11) = (   0.0576362   0.0291329   0.0000000), wk =   0.1111111
        k(   12) = (   0.0576362   0.0582659   0.0000000), wk =   0.1111111
        k(   13) = (   0.0576362   0.0873988   0.0000000), wk =   0.1111111
        k(   14) = (   0.0576362  -0.0582659   0.0000000), wk =   0.1111111
        k(   15) = (   0.0576362  -0.0291329   0.0000000), wk =   0.1111111
        k(   16) = (   0.0576362   0.0000000   0.0000000), wk =   0.1111111
        k(   17) = (  -0.0864543  -0.0436994   0.0000000), wk =   0.0555556
        k(   18) = (  -0.0864543  -0.0145665   0.0000000), wk =   0.1111111
        k(   19) = (  -0.0864543   0.0145665   0.0000000), wk =   0.1111111
        k(   20) = (  -0.0864543  -0.1310982   0.0000000), wk =   0.0555556

     Largest allocated arrays     est. size (Mb)     dimensions
     Largest temporary arrays     est. size (Mb)     dimensions

     Initial potential from superposition of free atoms
     Check: negative starting charge=   -0.935333

     starting charge  149.98043, renormalised to  150.00000

     negative rho (up, down):  9.355E-01 0.000E+00

     *
     * You are using vdW-DF for exchange-correlation in this calculation.
     * Please cite the following three references that made this development
     * possible:
     *
     *   M. Dion, H. Rydberg, E. Schroder, D. C. Langreth, and
     *   B. I. Lundqvist, Phys. Rev. Lett. 92, 246401 (2004).
     *
     *   T. Thonhauser, V. R. Cooper, S. Li, A. Puzder, P. Hyldgaard, and
     *   D. C. Langreth, Phys. Rev. B 76, 125112 (2007).
     *
     *   G. Roman-Perez and J. M. Soler, Phys. Rev. Lett. 103, 096102 (2009).
     *
     *
     * If you are using vdW-DF2, please also cite:
     *
     *   K. Lee, E. D. Murray, L. Kong, B. I. Lundqvist, and
     *   D. C. Langreth, Phys. Rev. B 82, 081101(R) (2010).
     *
     *
     * If you are calculating the stress with vdW-DF, please also cite:
     *
     *   R. Sabatini, E. Kucukbenli, B. Kolb, T. Thonhauser, and
     *   S. de Gironcoli, J. Phys.: Condens. Matter 24, 424209 (2012).
     *

     Carrying out vdW-DF run using the following parameters:

     Nqs =      20    Nr_points =    1024   r_max =   100.000
     q_mesh =
               0.00001000     0.04494208     0.09755937     0.15916263
               0.23128650     0.31572767     0.41458969     0.53033537
               0.66584808     0.82450364     1.01025438     1.22772762
               1.48234092     1.78043706     2.12944203     2.53805004
               3.01644009     3.57652955     4.23227104     5.00000000

     Gradients computed in reciprocal space

     Adding external electric field

     Computed dipole along edir(3) :
        Dipole                0.0000 Ry au,          0.0000 Debye
        Dipole field          0.0000 Ry au

        Potential amp.       -0.0000 Ry
        Total length         46.0440 bohr

     Starting wfc are  156 randomized atomic wfcs

     Self-consistent Calculation

     iteration #  1     ecut=    36.75 Ry     beta=0.10
     Davidson diagonalization with overlap
     ethr =  1.00E-02,  avg # of iterations =  2.0

[...]

     total energy              =   -1456.72140231 Ry
     Harris-Foulkes estimate   =   -1458.14122293 Ry
     estimated scf accuracy    <       7.98605756 Ry

[...]

     End of self-consistent calculation

          k = 0.0000 0.0000 0.0000 ( 21069 PWs)   bands (ev):

   -66.6536 -66.6526 -66.6124 -66.6114 -66.4420 -66.4004 -47.3624 -47.3550
   -47.2178 -47.2108 -47.0153 -46.8704 -33.2352 -33.2265 -33.1870 -33.1045
   -33.1025 -33.0550 -32.9838 -32.9824 -32.9670 -32.9040 -32.8881 -32.7592
   -32.6784 -32.6315 -32.5645 -32.5553 -32.5520 -32.4259 -25.8893 -25.8808
   -25.6990 -25.5859 -25.5393 -25.4274 -25.2836 -25.2764 -25.2650 -25.1380
   -25.1244 -24.9313 -24.8034 -24.7888 -24.7209 -24.7162 -24.6800 -24.4213
    -4.4962  -3.1853  -2.3333  -1.7624  -1.4882  -1.4565  -1.4103  -1.2230
    -1.1102  -0.9099  -0.8197  -0.6372  -0.5599  -0.5339  -0.4196   0.2335
     0.3689   0.5301   0.8016   1.2086   1.2822   1.3477   1.4439   1.5739
     1.7093   1.7622   1.8608   2.3290   2.3358   2.3694   2.4382   2.4666
     2.7314   2.7696   3.0026   3.5403   3.5460   3.6114   3.6213   3.6679
     3.6967   3.8492   3.8744   3.9680   4.0286   4.1025   4.5262   4.5795
     4.6674   4.9157   5.0083   5.0625   5.4895   5.6032   5.6041   5.7105
     6.0435

[...]

          k =-0.0865-0.0437 0.0000 ( 20966 PWs)   bands (ev):

[...]

     the Fermi energy is     1.6595 ev

!    total energy              =   -1457.48808050 Ry
     Harris-Foulkes estimate   =   -1457.48807789 Ry
     estimated scf accuracy    <       0.00000055 Ry

     The total energy is the sum of the following terms:

     one-electron contribution =   -9741.25980905 Ry
     hartree contribution      =    4857.33926317 Ry
     xc contribution           =    -371.69197646 Ry
     ewald contribution        =    3798.23457384 Ry
     electric field correction =       0.00000000 Ry
     smearing contrib. (-TS)   =      -0.11013201 Ry

     convergence has been achieved in  17 iterations

 BEEF-vdW xc energy contributions
           1 :   -324.727549180645
           2 :    298.192078972130
           3 :   -252.271539807207
           4 :    198.220080135721
           5 :   -147.046710908237
           6 :    105.939557475255
           7 :   -76.8538967758930
           8 :    57.4817694800328
           9 :   -43.6812408375569
          10 :    31.9450169126116
          11 :   -20.7713973783135
[...]

     PseudoPot. # 1 for Zr read from file:
     /afs/slac.stanford.edu/u/if/mamunm/psp/gbrv1.5pbe/Zr.UPF
     MD5 check sum: 5db81b1e868ab7776c4564c113de050b
     Pseudo is Ultrasoft + core correction, Zval = 12.0
     Generated by new atomic code, or converted to UPF format
     Using radial grid of  887 points,  6 beta functions with:
                l(1) =   0
                l(2) =   0
                l(3) =   1
                l(4) =   1
                l(5) =   2
                l(6) =   2
     Q(r) pseudized with  6 coefficients,  rinner =    1.200   1.200   1.200
                                                       1.200   1.200

     PseudoPot. # 2 for Ta read from file:
     /afs/slac.stanford.edu/u/if/mamunm/psp/gbrv1.5pbe/Ta.UPF
     MD5 check sum: f8bbe9446314a3b8ea5d9f3e3836c939
     Pseudo is Ultrasoft + core correction, Zval = 13.0
     Generated by new atomic code, or converted to UPF format
     Using radial grid of  921 points,  7 beta functions with:
                l(1) =   0
                l(2) =   0
                l(3) =   1
                l(4) =   1
                l(5) =   2
                l(6) =   2
                l(7) =   3
     Q(r) pseudized with  6 coefficients,  rinner =    1.300   1.300   1.300
                                                       1.300   1.300   1.300
                                                       1.300

     vdW kernel table read from file vdW_kernel_table
     MD5 check sum: 095c7af220d748ca6e76c0b4c6cfb241

     atomic species   valence    mass     pseudopotential
        Zr1           12.00    91.22400     Zr( 1.00)
        Ta1           13.00   180.94788     Ta( 1.00)

     No symmetry found

   Cartesian axes

     site n.     atom                  positions (alat units)
         1           Zr1 tau(   1) = (   0.0000000   0.0000000  10.0000000  )
         2           Zr1 tau(   2) = (   2.8917017   0.0000000  10.0000000  )
         3           Ta1 tau(   3) = (   1.4458508   2.8604506  10.0000000  )
         4           Ta1 tau(   4) = (  -1.4458508   2.8604506  10.0000000  )
         5           Zr1 tau(   5) = (   2.8917017   1.4616471  12.4951005  )
         6           Zr1 tau(   6) = (  -0.0000000   1.4616471  12.4951005  )
         7           Ta1 tau(   7) = (  -1.4458508   4.3220977  12.4951005  )
         8           Ta1 tau(   8) = (   1.4458508   4.3220977  12.4951005  )
         9           Zr1 tau(   9) = (   0.0000114   3.0686729  15.0192998  )
        10           Zr1 tau(  10) = (   2.8916983   3.0686825  15.0192871  )
        11           Ta1 tau(  11) = (   4.3375232   0.1032862  14.7904407  )
        12           Ta1 tau(  12) = (   1.4458388   0.1032905  14.7904619  )

     number of k points=    20  Fermi-Dirac smearing, width (Ry)=  0.0110
                       cart. coord. in units 2pi/alat
        k(    1) = (   0.0000000   0.0000000   0.0000000), wk =   0.0555556
        k(    2) = (   0.0000000   0.0291329   0.0000000), wk =   0.1111111
        k(    3) = (   0.0000000   0.0582659   0.0000000), wk =   0.1111111
        k(    4) = (   0.0000000  -0.0873988   0.0000000), wk =   0.0555556
        k(    5) = (   0.0288181   0.0145665   0.0000000), wk =   0.1111111
        k(    6) = (   0.0288181   0.0436994   0.0000000), wk =   0.1111111
        k(    7) = (   0.0288181   0.0728323   0.0000000), wk =   0.1111111
        k(    8) = (   0.0288181  -0.0728323   0.0000000), wk =   0.1111111
        k(    9) = (   0.0288181  -0.0436994   0.0000000), wk =   0.1111111
        k(   10) = (   0.0288181  -0.0145665   0.0000000), wk =   0.1111111
        k(   11) = (   0.0576362   0.0291329   0.0000000), wk =   0.1111111
        k(   12) = (   0.0576362   0.0582659   0.0000000), wk =   0.1111111
        k(   13) = (   0.0576362   0.0873988   0.0000000), wk =   0.1111111
        k(   14) = (   0.0576362  -0.0582659   0.0000000), wk =   0.1111111
        k(   15) = (   0.0576362  -0.0291329   0.0000000), wk =   0.1111111
        k(   16) = (   0.0576362   0.0000000   0.0000000), wk =   0.1111111
        k(   17) = (  -0.0864543  -0.0436994   0.0000000), wk =   0.0555556
        k(   18) = (  -0.0864543  -0.0145665   0.0000000), wk =   0.1111111
        k(   19) = (  -0.0864543   0.0145665   0.0000000), wk =   0.1111111
        k(   20) = (  -0.0864543  -0.1310982   0.0000000), wk =   0.0555556

     Largest allocated arrays     est. size (Mb)     dimensions
     Largest temporary arrays     est. size (Mb)     dimensions

     Initial potential from superposition of free atoms
     Check: negative starting charge=   -0.931046

     starting charge  149.98043, renormalised to  150.00000

[...]

     *
     * You are using vdW-DF for exchange-correlation in this calculation.
     * Please cite the following three references that made this development
     * possible:
     *
     *   M. Dion, H. Rydberg, E. Schroder, D. C. Langreth, and
     *   B. I. Lundqvist, Phys. Rev. Lett. 92, 246401 (2004).
     *
     *   T. Thonhauser, V. R. Cooper, S. Li, A. Puzder, P. Hyldgaard, and
     *   D. C. Langreth, Phys. Rev. B 76, 125112 (2007).
     *
     *   G. Roman-Perez and J. M. Soler, Phys. Rev. Lett. 103, 096102 (2009).
     *
     *
     * If you are using vdW-DF2, please also cite:
     *
     *   K. Lee, E. D. Murray, L. Kong, B. I. Lundqvist, and
     *   D. C. Langreth, Phys. Rev. B 82, 081101(R) (2010).
     *
     *
     * If you are calculating the stress with vdW-DF, please also cite:
     *
     *   R. Sabatini, E. Kucukbenli, B. Kolb, T. Thonhauser, and
     *   S. de Gironcoli, J. Phys.: Condens. Matter 24, 424209 (2012).
     *

     Carrying out vdW-DF run using the following parameters:

     Nqs =      20    Nr_points =    1024   r_max =   100.000
     q_mesh =
               0.00001000     0.04494208     0.09755937     0.15916263
               0.23128650     0.31572767     0.41458969     0.53033537
               0.66584808     0.82450364     1.01025438     1.22772762
               1.48234092     1.78043706     2.12944203     2.53805004
               3.01644009     3.57652955     4.23227104     5.00000000

     Gradients computed in reciprocal space

[...]

     Starting wfc are  156 randomized atomic wfcs

     Self-consistent Calculation

[...]

     total energy              =   -1457.50671523 Ry
     Harris-Foulkes estimate   =   -1457.50671504 Ry
     estimated scf accuracy    <       0.00000110 Ry

     iteration # 18     ecut=    36.75 Ry     beta=0.10
     Davidson diagonalization with overlap
     ethr =  7.31E-10,  avg # of iterations =  2.0

[...]

     negative rho (up, down):  9.646E-01 0.000E+00

     Adding external electric field

     Computed dipole along edir(3) :
        Dipole                0.0666 Ry au,          0.1692 Debye
        Dipole field          0.0001 Ry au

        Potential amp.       -0.0138 Ry
        Total length         46.0440 bohr

     End of self-consistent calculation

[...]

          k = 0.0576 0.0000 0.0000 ( 20991 PWs)   bands (ev):

[...]

          k =-0.0865-0.1311 0.0000 ( 20966 PWs)   bands (ev):

   -66.5734 -66.5734 -66.4362 -66.4362 -66.2843 -66.2843 -47.2899 -47.2899
   -47.2300 -47.2300 -46.8793 -46.8793 -33.0942 -33.0942 -32.9233 -32.9233
   -32.8628 -32.8628 -32.8406 -32.8406 -32.7672 -32.7672 -32.7646 -32.7646
   -32.6511 -32.6511 -32.5899 -32.5899 -32.3977 -32.3977 -25.5369 -25.5369
   -25.3395 -25.3395 -25.3044 -25.3043 -25.2684 -25.2684 -25.2214 -25.2214
   -25.1499 -25.1499 -24.9759 -24.9759 -24.8180 -24.8180 -24.7177 -24.7177
    -2.7616  -2.7616  -1.5762  -1.5762  -0.9124  -0.9124  -0.4817  -0.4817
    -0.4002  -0.4002   0.1259   0.1259   0.4482   0.4482   0.5777   0.5777
     0.6900   0.6900   0.9134   0.9134   1.1336   1.1336   1.2689   1.2689
     1.5224   1.5224   1.6007   1.6007   1.8781   1.8781   2.0910   2.0910
     2.2456   2.2456   2.3189   2.3189   2.5162   2.5162   3.2522   3.2522
     3.5814   3.5814   3.7232   3.7232   3.9493   3.9494   4.1485   4.1485
     4.3105   4.3105   4.3466   4.3466   4.4909   4.4909   4.8686   4.8686
     5.0537

     the Fermi energy is     1.7170 ev

!    total energy              =   -1457.50671756 Ry
     Harris-Foulkes estimate   =   -1457.50671524 Ry
     estimated scf accuracy    <       0.00000018 Ry

     The total energy is the sum of the following terms:

     one-electron contribution =   -9866.65698278 Ry
     hartree contribution      =    4920.46214934 Ry
     xc contribution           =    -371.87654672 Ry
     ewald contribution        =    3860.67144083 Ry
     electric field correction =       0.00000998 Ry
     smearing contrib. (-TS)   =      -0.10678821 Ry

     convergence has been achieved in  18 iterations

 BEEF-vdW xc energy contributions
           1 :   -324.912415838997
           2 :    298.431413524679
           3 :   -252.575385989602
           4 :    198.538252434588
           5 :   -147.292049473231
           6 :    106.039600273839
           7 :   -76.8007028002291
           8 :    57.3444365905342
           9 :   -43.5673693407827
          10 :    31.9342562804945
          11 :   -20.8667899105669
          12 :    10.7148237842222
          13 :   -2.71470564339705
          14 :   -2.25148567341836
          15 :    4.36583514034254
          16 :   -4.76688804413976
          17 :    4.84986374474840
          18 :   -5.49800083705162
          19 :    6.72047343767150
          20 :   -7.85665771400130
          21 :    8.14629908183053
          22 :   -7.27658596838006
          23 :    5.58358584025092
          24 :   -3.83249838540996
          25 :    2.75814298918561
          26 :   -2.66227609637480
          27 :    3.29503371821562
          28 :   -4.05950815898620
          29 :    4.38925540439760
          30 :   -4.06361297689415
          31 :   -31.4508481589091
          32 :   -23.3946383787139

     Forces acting on atoms (Ry/au):

     negative rho (up, down):  9.646E-01 0.000E+00
     atom    1 type  1   force =    -0.00000042   -0.01593381   -0.01088751
     atom    2 type  1   force =    -0.00000053   -0.01593368   -0.01088677
     atom    3 type  2   force =    -0.00000008    0.00837008    0.03403146
     atom    4 type  2   force =     0.00000055    0.00837019    0.03403197
     atom    5 type  1   force =    -0.00000227    0.01236983   -0.00360399
     atom    6 type  1   force =     0.00000013    0.01236986   -0.00360207
     atom    7 type  2   force =     0.00000012   -0.00534454   -0.02039728
     atom    8 type  2   force =    -0.00000100   -0.00534702   -0.02040232
     atom    9 type  1   force =    -0.00000375    0.00119556    0.00077387
     atom   10 type  1   force =     0.00000157    0.00119362    0.00077512
     atom   11 type  2   force =     0.00000517   -0.00065409    0.00008613
     atom   12 type  2   force =     0.00000051   -0.00065600    0.00008138

     Total force =     0.066540     Total SCF correction =     0.000949

     entering subroutine stress ...

     negative rho (up, down):  9.646E-01 0.000E+00
          total   stress  (Ry/bohr**3)                   (kbar)     P=  -17.02
  -0.00012408   0.00000000  -0.00000000        -18.25      0.00     -0.00
   0.00000000  -0.00016207   0.00001388          0.00    -23.84      2.04
  -0.00000000   0.00001388  -0.00006093         -0.00      2.04     -8.96

 !ASE

     Writing output data file calc.save

     General routines

     Parallel routines

   This run was terminated on:  11: 4:50  25Dec2018

   JOB DONE.
Job  /afs/slac/g/suncat/bin/suncat-tsmpirun -x LD_LIBRARY_PATH -wdir /scratch/qe109308_8WTUG pw.x -in pw.inp

TID   HOST_NAME   COMMAND_LINE            STATUS            TERMINATION_TIME
00000 suncat0079 pw.x -in pw.inp   Done                     12/25/2018 11:04:50
00001 suncat0079 pw.x -in pw.inp   Done                     12/25/2018 11:04:50
00002 suncat0079 pw.x -in pw.inp   Done                     12/25/2018 11:04:50
00003 suncat0079 pw.x -in pw.inp   Done                     12/25/2018 11:04:50
00004 suncat0079 pw.x -in pw.inp   Done                     12/25/2018 11:04:50
00005 suncat0079 pw.x -in pw.inp   Done                     12/25/2018 11:04:50
00006 suncat0079 pw.x -in pw.inp   Done                     12/25/2018 11:04:50
00007 suncat0079 pw.x -in pw.inp   Done                     12/25/2018 11:04:50
00008 suncat0054 pw.x -in pw.inp   Done                     12/25/2018 11:04:50
00009 suncat0054 pw.x -in pw.inp   Done                     12/25/2018 11:04:50
00010 suncat0054 pw.x -in pw.inp   Done                     12/25/2018 11:04:50
00011 suncat0054 pw.x -in pw.inp   Done                     12/25/2018 11:04:50
00012 suncat0054 pw.x -in pw.inp   Done                     12/25/2018 11:04:50
00013 suncat0054 pw.x -in pw.inp   Done                     12/25/2018 11:04:50
00014 suncat0054 pw.x -in pw.inp   Done                     12/25/2018 11:04:50
00015 suncat0054 pw.x -in pw.inp   Done                     12/25/2018 11:04:50
00016 suncat0007 pw.x -in pw.inp   Done                     12/25/2018 11:04:50
00017 suncat0007 pw.x -in pw.inp   Done                     12/25/2018 11:04:50
00018 suncat0007 pw.x -in pw.inp   Done                     12/25/2018 11:04:50
00019 suncat0007 pw.x -in pw.inp   Done                     12/25/2018 11:04:50
00020 suncat0007 pw.x -in pw.inp   Done                     12/25/2018 11:04:50
00021 suncat0007 pw.x -in pw.inp   Done                     12/25/2018 11:04:50
00022 suncat0007 pw.x -in pw.inp   Done                     12/25/2018 11:04:50
00023 suncat0007 pw.x -in pw.inp   Done                     12/25/2018 11:04:50
00024 suncat0006 pw.x -in pw.inp   Done                     12/25/2018 11:04:50
00025 suncat0006 pw.x -in pw.inp   Done                     12/25/2018 11:04:50
00026 suncat0006 pw.x -in pw.inp   Done                     12/25/2018 11:04:50
00027 suncat0006 pw.x -in pw.inp   Done                     12/25/2018 11:04:50
00028 suncat0006 pw.x -in pw.inp   Done                     12/25/2018 11:04:50
00029 suncat0006 pw.x -in pw.inp   Done                     12/25/2018 11:04:50
00030 suncat0006 pw.x -in pw.inp   Done                     12/25/2018 11:04:50
00031 suncat0006 pw.x -in pw.inp   Done                     12/25/2018 11:04:50
00032 suncat0005 pw.x -in pw.inp   Done                     12/25/2018 11:04:50
00033 suncat0005 pw.x -in pw.inp   Done                     12/25/2018 11:04:50
00034 suncat0005 pw.x -in pw.inp   Done                     12/25/2018 11:04:50
00035 suncat0005 pw.x -in pw.inp   Done                     12/25/2018 11:04:50
00036 suncat0005 pw.x -in pw.inp   Done                     12/25/2018 11:04:50
00037 suncat0005 pw.x -in pw.inp   Done                     12/25/2018 11:04:50
00038 suncat0005 pw.x -in pw.inp   Done                     12/25/2018 11:04:50
00039 suncat0005 pw.x -in pw.inp   Done                     12/25/2018 11:04:50
00040 suncat0262 pw.x -in pw.inp   Done                     12/25/2018 11:04:50
00041 suncat0262 pw.x -in pw.inp   Done                     12/25/2018 11:04:50
00042 suncat0262 pw.x -in pw.inp   Done                     12/25/2018 11:04:50
00043 suncat0262 pw.x -in pw.inp   Done                     12/25/2018 11:04:50
00044 suncat0262 pw.x -in pw.inp   Done                     12/25/2018 11:04:50
00045 suncat0262 pw.x -in pw.inp   Done                     12/25/2018 11:04:50
00046 suncat0262 pw.x -in pw.inp   Done                     12/25/2018 11:04:50
00047 suncat0262 pw.x -in pw.inp   Done                     12/25/2018 11:04:50
00048 suncat0258 pw.x -in pw.inp   Done                     12/25/2018 11:04:50
00049 suncat0258 pw.x -in pw.inp   Done                     12/25/2018 11:04:50
00050 suncat0258 pw.x -in pw.inp   Done                     12/25/2018 11:04:50
00051 suncat0258 pw.x -in pw.inp   Done                     12/25/2018 11:04:50
00052 suncat0258 pw.x -in pw.inp   Done                     12/25/2018 11:04:50
00053 suncat0258 pw.x -in pw.inp   Done                     12/25/2018 11:04:50
00054 suncat0258 pw.x -in pw.inp   Done                     12/25/2018 11:04:50
00055 suncat0258 pw.x -in pw.inp   Done                     12/25/2018 11:04:50
00056 suncat0257 pw.x -in pw.inp   Done                     12/25/2018 11:04:50
00057 suncat0257 pw.x -in pw.inp   Done                     12/25/2018 11:04:50
00058 suncat0257 pw.x -in pw.inp   Done                     12/25/2018 11:04:50
00059 suncat0257 pw.x -in pw.inp   Done                     12/25/2018 11:04:50
00060 suncat0257 pw.x -in pw.inp   Done                     12/25/2018 11:04:50
00061 suncat0257 pw.x -in pw.inp   Done                     12/25/2018 11:04:50
00062 suncat0257 pw.x -in pw.inp   Done                     12/25/2018 11:04:50
00063 suncat0257 pw.x -in pw.inp   Done                     12/25/2018 11:04:50