     Program PWSCF v.5.1rc2 (svn rev. 11289) starts on 19Dec2018 at  8:49:45

     Current dimensions of program PWSCF are:
     Max number of different atomic species (ntypx) = 10
     Max number of k-points (npk) =  40000
     Max angular momentum in pseudopotentials (lmaxx) =  3
     Presently stress not available with electric field

     IMPORTANT: XC functional enforced from input :
     Exchange-correlation      = BEEF-VDW ( 1  4 27 13 2)
     Any further DFT definition will be discarded
     Please, verify this is what you really want

     Subspace diagonalization in iterative solution of the eigenvalue problem:
     a serial algorithm will be used

     Found symmetry operation: I + ( -0.5000 -0.5000  0.0000)
     This is a supercell, fractional translations are disabled

     bravais-lattice index     =            0
     lattice parameter (alat)  =       1.8897  a.u.
     unit-cell volume          =    4091.0340 (a.u.)^3
     number of atoms/cell      =           12
     number of atomic types    =            2
     number of electrons       =       204.00
     number of Kohn-Sham states=          132
     kinetic-energy cutoff     =      36.7493  Ry
     charge density cutoff     =     367.4932  Ry
     convergence threshold     =      1.0E-06
     mixing beta               =       0.1000
     number of iterations used =           10  plain     mixing
     Exchange-correlation      = BEEF-VDW ( 1  4 27 13 2)
     nstep                     =           50

     celldm(1)=   1.889726  celldm(2)=   0.000000  celldm(3)=   0.000000
     celldm(4)=   0.000000  celldm(5)=   0.000000  celldm(6)=   0.000000

     crystal axes: (cart. coord. in units of alat)
               a(1) = (   5.354642   0.000000   0.000000 )
               a(2) = (   2.664480   4.644646   0.000000 )
               a(3) = (   0.000000   0.000000  24.375495 )

     reciprocal axes: (cart. coord. in units 2 pi/alat)
               b(1) = (  0.186754 -0.107135  0.000000 )
               b(2) = (  0.000000  0.215302  0.000000 )
               b(3) = (  0.000000  0.000000  0.041025 )

     PseudoPot. # 1 for Cu read from file:
     /afs/slac.stanford.edu/u/if/mamunm/psp/gbrv1.5pbe/Cu.UPF
     MD5 check sum: 6e991ff952a84172a2a52a1c1e996048
     Pseudo is Ultrasoft + core correction, Zval = 19.0
     Generated by new atomic code, or converted to UPF format
     Using radial grid of  867 points,  6 beta functions with:
                l(1) =   0
                l(2) =   0
                l(3) =   1
                l(4) =   1
                l(5) =   2
                l(6) =   2
     Q(r) pseudized with  8 coefficients,  rinner =    1.150   1.150   1.150
                                                       1.150   1.150

     PseudoPot. # 2 for Ir read from file:
     /afs/slac.stanford.edu/u/if/mamunm/psp/gbrv1.5pbe/Ir.UPF
     MD5 check sum: 8836f839c3459d2b385c504ce6d91f2c
     Pseudo is Ultrasoft + core correction, Zval = 15.0
     Generated by new atomic code, or converted to UPF format
     Using radial grid of  983 points,  7 beta functions with:
                l(1) =   0
                l(2) =   0
                l(3) =   1
                l(4) =   1
                l(5) =   1
                l(6) =   2
                l(7) =   2
     Q(r) pseudized with  8 coefficients,  rinner =    1.400   1.400   1.400
                                                       1.400   1.400

     vdW kernel table read from file vdW_kernel_table
     MD5 check sum: 095c7af220d748ca6e76c0b4c6cfb241

     atomic species   valence    mass     pseudopotential
        Cu1           19.00    63.54600     Cu( 1.00)
        Ir1           15.00   192.21700     Ir( 1.00)

     No symmetry found

   Cartesian axes

     site n.     atom                  positions (alat units)
         1           Cu1 tau(   1) = (   0.0000000   0.0000000  10.0000000  )
         2           Cu1 tau(   2) = (   4.0095609   2.3223230  10.0000000  )
         3           Ir1 tau(   3) = (   2.6773209   0.0000000  10.0000000  )
         4           Ir1 tau(   4) = (   1.3322400   2.3223230  10.0000000  )
         5           Cu1 tau(   5) = (   5.3546418   3.1013889  12.1877477  )
         6           Cu1 tau(   6) = (   1.3450809   0.7790659  12.1877477  )
         7           Ir1 tau(   7) = (   2.6773209   3.1013889  12.1877477  )
         8           Ir1 tau(   8) = (   4.0224019   0.7790659  12.1877477  )
         9           Cu1 tau(   9) = (   2.6901619   1.5581319  14.3754955  )
        10           Cu1 tau(  10) = (   6.6997228   3.8804549  14.3754955  )
        11           Ir1 tau(  11) = (   5.3674828   1.5581319  14.3754955  )
        12           Ir1 tau(  12) = (   4.0224019   3.8804549  14.3754955  )

     number of k points=    20  Fermi-Dirac smearing, width (Ry)=  0.0110
                       cart. coord. in units 2pi/alat
        k(    1) = (   0.0000000   0.0000000   0.0000000), wk =   0.0555556
        k(    2) = (   0.0000000   0.0358836   0.0000000), wk =   0.1111111
        k(    3) = (   0.0000000   0.0717672   0.0000000), wk =   0.1111111
        k(    4) = (   0.0000000  -0.1076508   0.0000000), wk =   0.0555556
        k(    5) = (   0.0311256  -0.0178558   0.0000000), wk =   0.1111111
        k(    6) = (   0.0311256   0.0180279   0.0000000), wk =   0.1111111
        k(    7) = (   0.0311256   0.0539115   0.0000000), wk =   0.1111111
        k(    8) = (   0.0311256  -0.1255066   0.0000000), wk =   0.1111111
        k(    9) = (   0.0311256  -0.0896230   0.0000000), wk =   0.1111111
        k(   10) = (   0.0311256  -0.0537394   0.0000000), wk =   0.1111111
        k(   11) = (   0.0622513  -0.0357115   0.0000000), wk =   0.1111111
        k(   12) = (   0.0622513   0.0001721   0.0000000), wk =   0.1111111
        k(   13) = (   0.0622513   0.0360557   0.0000000), wk =   0.1111111
        k(   14) = (   0.0622513  -0.1433623   0.0000000), wk =   0.1111111
        k(   15) = (   0.0622513  -0.1074787   0.0000000), wk =   0.1111111
        k(   16) = (   0.0622513  -0.0715951   0.0000000), wk =   0.1111111
        k(   17) = (  -0.0933769   0.0535673   0.0000000), wk =   0.0555556
        k(   18) = (  -0.0933769   0.0894509   0.0000000), wk =   0.1111111
        k(   19) = (  -0.0933769   0.1253345   0.0000000), wk =   0.1111111
        k(   20) = (  -0.0933769  -0.0540836   0.0000000), wk =   0.0555556

     Largest allocated arrays     est. size (Mb)     dimensions
     Largest temporary arrays     est. size (Mb)     dimensions

     Initial potential from superposition of free atoms
     Check: negative starting charge=   -2.182764

     starting charge  194.99980, renormalised to  204.00000

     negative rho (up, down):  2.284E+00 0.000E+00

     *
     * You are using vdW-DF for exchange-correlation in this calculation.
     * Please cite the following three references that made this development
     * possible:
     *
     *   M. Dion, H. Rydberg, E. Schroder, D. C. Langreth, and
     *   B. I. Lundqvist, Phys. Rev. Lett. 92, 246401 (2004).
     *
     *   T. Thonhauser, V. R. Cooper, S. Li, A. Puzder, P. Hyldgaard, and
     *   D. C. Langreth, Phys. Rev. B 76, 125112 (2007).
     *
     *   G. Roman-Perez and J. M. Soler, Phys. Rev. Lett. 103, 096102 (2009).
     *
     *
     * If you are using vdW-DF2, please also cite:
     *
     *   K. Lee, E. D. Murray, L. Kong, B. I. Lundqvist, and
     *   D. C. Langreth, Phys. Rev. B 82, 081101(R) (2010).
     *
     *
     * If you are calculating the stress with vdW-DF, please also cite:
     *
     *   R. Sabatini, E. Kucukbenli, B. Kolb, T. Thonhauser, and
     *   S. de Gironcoli, J. Phys.: Condens. Matter 24, 424209 (2012).
     *

     Carrying out vdW-DF run using the following parameters:

     Nqs =      20    Nr_points =    1024   r_max =   100.000
     q_mesh =
               0.00001000     0.04494208     0.09755937     0.15916263
               0.23128650     0.31572767     0.41458969     0.53033537
               0.66584808     0.82450364     1.01025438     1.22772762
               1.48234092     1.78043706     2.12944203     2.53805004
               3.01644009     3.57652955     4.23227104     5.00000000

     Gradients computed in reciprocal space

     Adding external electric field

     Computed dipole along edir(3) :
        Dipole                0.0000 Ry au,          0.0000 Debye
        Dipole field          0.0000 Ry au

        Potential amp.       -0.0000 Ry
        Total length         44.9114 bohr

     Starting wfc are  150 randomized atomic wfcs

     Self-consistent Calculation

     iteration #  1     ecut=    36.75 Ry     beta=0.10
     Davidson diagonalization with overlap
     ethr =  1.00E-02,  avg # of iterations =  7.2

[...]

     total energy              =   -3529.06404721 Ry
     Harris-Foulkes estimate   =   -3535.04392360 Ry
     estimated scf accuracy    <      35.62781094 Ry

[...]

     End of self-consistent calculation

          k = 0.0000 0.0000 0.0000 ( 15429 PWs)   bands (ev):

  -111.4081-111.4059-111.1760-111.1754-111.1738-111.1732 -68.8342 -68.8315
   -68.8019 -68.7992 -68.7788 -68.7475 -68.6274 -68.6268 -68.6223 -68.6217
   -68.6196 -68.6190 -68.5963 -68.5957 -68.4697 -68.4691 -68.4671 -68.4665
   -48.0717 -48.0149 -47.9679 -47.8834 -47.8814 -47.7218 -47.6765 -47.6188
   -47.5346 -47.4897 -47.4887 -47.4454 -47.4326 -47.4314 -47.3742 -47.3645
   -47.3287 -47.3198  -7.3354  -5.5084  -4.6177  -4.6151  -4.3806  -4.2118
    -3.9665  -3.7667  -3.6915  -3.6584  -3.4745  -3.4121  -3.3949  -3.2144
    -2.9111  -2.6098  -2.2459  -2.0496  -1.9130  -1.8264  -1.8089  -1.7143
    -1.6804  -1.6337  -1.5777  -1.4923  -1.4842  -1.4586  -1.4126  -1.3709
    -1.3246  -1.2572  -1.1814  -0.9849  -0.8422  -0.8242  -0.8188  -0.7225
    -0.6427  -0.6164  -0.4804  -0.3499  -0.2984  -0.0398  -0.0110   0.0236
     0.1294   0.1772   0.2087   0.4403   0.7723   0.8032   0.9519   1.1994
     1.2173   1.2230   1.4048   1.5953   1.6259   1.6415   1.6852   1.6879
     1.8725   2.2470   2.2541   2.3585   2.5155   3.7307   3.7342   3.7716
     3.9448   4.4393   4.5135   5.6703   5.9335   6.3053   7.2257   7.3341
     7.3510   7.4329   7.4943   7.5326   7.8506   8.0194   8.5665   8.6313
     8.6646   9.5425  10.1457  10.8815

[...]

          k =-0.0934 0.0536 0.0000 ( 15382 PWs)   bands (ev):

[...]

     the Fermi energy is     1.1885 ev

!    total energy              =   -3529.33737355 Ry
     Harris-Foulkes estimate   =   -3529.33736023 Ry
     estimated scf accuracy    <       0.00000079 Ry

     The total energy is the sum of the following terms:

     one-electron contribution =  -26666.10359279 Ry
     hartree contribution      =   13356.24397321 Ry
     xc contribution           =    -551.69344340 Ry
     ewald contribution        =   10332.30898907 Ry
     electric field correction =       0.00000008 Ry
     smearing contrib. (-TS)   =      -0.09329971 Ry

     convergence has been achieved in  18 iterations

 BEEF-vdW xc energy contributions
           1 :   -488.876235758545
           2 :    449.707780351102
           3 :   -381.524138680066
           4 :    300.391450315122
           5 :   -222.247405198706
[...]

[...]

   This run was terminated on:   9:21:40  19Dec2018

[...]

     Program PWSCF v.5.1rc2 (svn rev. 11289) starts on 19Dec2018 at  9:38: 0

[...]

     Total force =     0.037652     Total SCF correction =     0.003605

[...]

     Program PWSCF v.5.1rc2 (svn rev. 11289) starts on 19Dec2018 at 10:10:37

[...]

     Program PWSCF v.5.1rc2 (svn rev. 11289) starts on 19Dec2018 at 10:27: 4

     Current dimensions of program PWSCF are:
     Max number of different atomic species (ntypx) = 10
     Max number of k-points (npk) =  40000
     Max angular momentum in pseudopotentials (lmaxx) =  3
     Presently stress not available with electric field

     IMPORTANT: XC functional enforced from input :
     Exchange-correlation      = BEEF-VDW ( 1  4 27 13 2)
     Any further DFT definition will be discarded
     Please, verify this is what you really want

     Subspace diagonalization in iterative solution of the eigenvalue problem:
     a serial algorithm will be used

     bravais-lattice index     =            0
     lattice parameter (alat)  =       1.8897  a.u.
     unit-cell volume          =    4091.0340 (a.u.)^3
     number of atoms/cell      =           12
     number of atomic types    =            2
     number of electrons       =       204.00
     number of Kohn-Sham states=          132
     kinetic-energy cutoff     =      36.7493  Ry
     charge density cutoff     =     367.4932  Ry
     convergence threshold     =      1.0E-06
     mixing beta               =       0.1000
     number of iterations used =           10  plain     mixing
     Exchange-correlation      = BEEF-VDW ( 1  4 27 13 2)
     nstep                     =           50

     celldm(1)=   1.889726  celldm(2)=   0.000000  celldm(3)=   0.000000
     celldm(4)=   0.000000  celldm(5)=   0.000000  celldm(6)=   0.000000

     crystal axes: (cart. coord. in units of alat)
               a(1) = (   5.354642   0.000000   0.000000 )
               a(2) = (   2.664480   4.644646   0.000000 )
               a(3) = (   0.000000   0.000000  24.375495 )

     reciprocal axes: (cart. coord. in units 2 pi/alat)
               b(1) = (  0.186754 -0.107135  0.000000 )
               b(2) = (  0.000000  0.215302  0.000000 )
               b(3) = (  0.000000  0.000000  0.041025 )

     PseudoPot. # 1 for Cu read from file:
     /afs/slac.stanford.edu/u/if/mamunm/psp/gbrv1.5pbe/Cu.UPF
     MD5 check sum: 6e991ff952a84172a2a52a1c1e996048
     Pseudo is Ultrasoft + core correction, Zval = 19.0
     Generated by new atomic code, or converted to UPF format
     Using radial grid of  867 points,  6 beta functions with:
                l(1) =   0
                l(2) =   0
                l(3) =   1
                l(4) =   1
                l(5) =   2
                l(6) =   2
     Q(r) pseudized with  8 coefficients,  rinner =    1.150   1.150   1.150
                                                       1.150   1.150

     PseudoPot. # 2 for Ir read from file:
     /afs/slac.stanford.edu/u/if/mamunm/psp/gbrv1.5pbe/Ir.UPF
     MD5 check sum: 8836f839c3459d2b385c504ce6d91f2c
     Pseudo is Ultrasoft + core correction, Zval = 15.0
     Generated by new atomic code, or converted to UPF format
     Using radial grid of  983 points,  7 beta functions with:
                l(1) =   0
                l(2) =   0
                l(3) =   1
                l(4) =   1
                l(5) =   1
                l(6) =   2
                l(7) =   2
     Q(r) pseudized with  8 coefficients,  rinner =    1.400   1.400   1.400
                                                       1.400   1.400

     vdW kernel table read from file vdW_kernel_table
     MD5 check sum: 095c7af220d748ca6e76c0b4c6cfb241

     atomic species   valence    mass     pseudopotential
        Cu1           19.00    63.54600     Cu( 1.00)
        Ir1           15.00   192.21700     Ir( 1.00)

     No symmetry found

   Cartesian axes

     site n.     atom                  positions (alat units)
         1           Cu1 tau(   1) = (   0.0000000   0.0000000  10.0000000  )
         2           Cu1 tau(   2) = (   4.0095609   2.3223230  10.0000000  )
         3           Ir1 tau(   3) = (   2.6773209   0.0000000  10.0000000  )
         4           Ir1 tau(   4) = (   1.3322400   2.3223230  10.0000000  )
         5           Cu1 tau(   5) = (   5.3546418   3.1013889  12.1877477  )
         6           Cu1 tau(   6) = (   1.3450809   0.7790659  12.1877477  )
         7           Ir1 tau(   7) = (   2.6773209   3.1013889  12.1877477  )
         8           Ir1 tau(   8) = (   4.0224019   0.7790659  12.1877477  )
         9           Cu1 tau(   9) = (   2.4904001   1.4427320  14.4195712  )
        10           Cu1 tau(  10) = (   6.5002022   3.7645929  14.4195645  )
        11           Ir1 tau(  11) = (   5.1762634   1.4473738  14.3496816  )
        12           Ir1 tau(  12) = (   3.8315827   3.7699387  14.3496667  )

     number of k points=    20  Fermi-Dirac smearing, width (Ry)=  0.0110
                       cart. coord. in units 2pi/alat
        k(    1) = (   0.0000000   0.0000000   0.0000000), wk =   0.0555556
        k(    2) = (   0.0000000   0.0358836   0.0000000), wk =   0.1111111
        k(    3) = (   0.0000000   0.0717672   0.0000000), wk =   0.1111111
        k(    4) = (   0.0000000  -0.1076508   0.0000000), wk =   0.0555556
        k(    5) = (   0.0311256  -0.0178558   0.0000000), wk =   0.1111111
        k(    6) = (   0.0311256   0.0180279   0.0000000), wk =   0.1111111
        k(    7) = (   0.0311256   0.0539115   0.0000000), wk =   0.1111111
        k(    8) = (   0.0311256  -0.1255066   0.0000000), wk =   0.1111111
        k(    9) = (   0.0311256  -0.0896230   0.0000000), wk =   0.1111111
        k(   10) = (   0.0311256  -0.0537394   0.0000000), wk =   0.1111111
        k(   11) = (   0.0622513  -0.0357115   0.0000000), wk =   0.1111111
        k(   12) = (   0.0622513   0.0001721   0.0000000), wk =   0.1111111
        k(   13) = (   0.0622513   0.0360557   0.0000000), wk =   0.1111111
        k(   14) = (   0.0622513  -0.1433623   0.0000000), wk =   0.1111111
        k(   15) = (   0.0622513  -0.1074787   0.0000000), wk =   0.1111111
        k(   16) = (   0.0622513  -0.0715951   0.0000000), wk =   0.1111111
        k(   17) = (  -0.0933769   0.0535673   0.0000000), wk =   0.0555556
        k(   18) = (  -0.0933769   0.0894509   0.0000000), wk =   0.1111111
        k(   19) = (  -0.0933769   0.1253345   0.0000000), wk =   0.1111111
        k(   20) = (  -0.0933769  -0.0540836   0.0000000), wk =   0.0555556

     Largest allocated arrays     est. size (Mb)     dimensions
     Largest temporary arrays     est. size (Mb)     dimensions

     Initial potential from superposition of free atoms
     Check: negative starting charge=   -2.178643

     starting charge  194.99980, renormalised to  204.00000

[...]

     *
     * You are using vdW-DF for exchange-correlation in this calculation.
     * Please cite the following three references that made this development
     * possible:
     *
     *   M. Dion, H. Rydberg, E. Schroder, D. C. Langreth, and
     *   B. I. Lundqvist, Phys. Rev. Lett. 92, 246401 (2004).
     *
     *   T. Thonhauser, V. R. Cooper, S. Li, A. Puzder, P. Hyldgaard, and
     *   D. C. Langreth, Phys. Rev. B 76, 125112 (2007).
     *
     *   G. Roman-Perez and J. M. Soler, Phys. Rev. Lett. 103, 096102 (2009).
     *
     *
     * If you are using vdW-DF2, please also cite:
     *
     *   K. Lee, E. D. Murray, L. Kong, B. I. Lundqvist, and
     *   D. C. Langreth, Phys. Rev. B 82, 081101(R) (2010).
     *
     *
     * If you are calculating the stress with vdW-DF, please also cite:
     *
     *   R. Sabatini, E. Kucukbenli, B. Kolb, T. Thonhauser, and
     *   S. de Gironcoli, J. Phys.: Condens. Matter 24, 424209 (2012).
     *

     Carrying out vdW-DF run using the following parameters:

     Nqs =      20    Nr_points =    1024   r_max =   100.000
     q_mesh =
               0.00001000     0.04494208     0.09755937     0.15916263
               0.23128650     0.31572767     0.41458969     0.53033537
               0.66584808     0.82450364     1.01025438     1.22772762
               1.48234092     1.78043706     2.12944203     2.53805004
               3.01644009     3.57652955     4.23227104     5.00000000

     Gradients computed in reciprocal space

[...]

     Starting wfc are  150 randomized atomic wfcs

     Self-consistent Calculation

[...]

     total energy              =   -3529.34613352 Ry
     Harris-Foulkes estimate   =   -3529.34612575 Ry
     estimated scf accuracy    <       0.00000387 Ry

     iteration # 17     ecut=    36.75 Ry     beta=0.10
     Davidson diagonalization with overlap
     ethr =  1.90E-09,  avg # of iterations =  3.1

[...]

     negative rho (up, down):  1.954E+00 0.000E+00

     Adding external electric field

     Computed dipole along edir(3) :
        Dipole                0.0312 Ry au,          0.0794 Debye
        Dipole field          0.0001 Ry au

        Potential amp.       -0.0086 Ry
        Total length         44.9114 bohr

     End of self-consistent calculation

[...]

          k = 0.0623-0.0716 0.0000 ( 15405 PWs)   bands (ev):

[...]

          k =-0.0934-0.0541 0.0000 ( 15370 PWs)   bands (ev):

  -111.3422-111.3400-111.1296-111.1274-111.0774-111.0752 -68.7778 -68.7751
   -68.7345 -68.7318 -68.7096 -68.6784 -68.5815 -68.5774 -68.5747 -68.5505
   -68.5405 -68.5379 -68.5229 -68.4918 -68.4212 -68.4186 -68.3644 -68.3618
   -48.1468 -48.0984 -48.0771 -47.8963 -47.8182 -47.7318 -47.6848 -47.6242
   -47.5738 -47.5301 -47.4482 -47.4469 -47.4174 -47.4036 -47.3730 -47.3672
   -47.3137 -47.2688  -5.8195  -5.2766  -4.3546  -4.1415  -3.8250  -3.6104
    -3.5821  -3.4255  -3.2445  -3.2071  -2.8964  -2.8005  -2.6766  -2.6192
    -2.4837  -2.4631  -2.3632  -2.3307  -2.1655  -1.9742  -1.9564  -1.7788
    -1.7762  -1.7070  -1.5404  -1.5233  -1.5179  -1.4457  -1.4331  -1.3518
    -1.3471  -1.3397  -1.2729  -1.2119  -1.1974  -1.1723  -1.1653  -1.1648
    -1.1557  -1.0673  -1.0504  -0.9286  -0.8892  -0.8668  -0.7380  -0.6711
    -0.6546  -0.5276  -0.2760  -0.1324  -0.0679  -0.0327  -0.0191   0.0235
     0.8079   0.8120   1.0056   1.0289   1.0826   1.1966   1.3047   1.4175
     1.5022   1.9467   2.1847   2.8695   3.0835   3.2386   5.0197   5.2439
     5.3246   5.7918   5.9062   6.3474   7.1346   7.2443   7.7493   7.8190
     7.8782   7.9215   8.4363   8.7179   8.9557   8.9942   9.0143   9.3542
     9.5033   9.5596   9.6463   9.7533

     the Fermi energy is     1.2334 ev

!    total energy              =   -3529.34614455 Ry
     Harris-Foulkes estimate   =   -3529.34613392 Ry
     estimated scf accuracy    <       0.00000072 Ry

     The total energy is the sum of the following terms:

     one-electron contribution =  -26620.06117968 Ry
     hartree contribution      =   13333.46212997 Ry
     xc contribution           =    -551.73290252 Ry
     ewald contribution        =   10309.07603065 Ry
     electric field correction =       0.00000300 Ry
     smearing contrib. (-TS)   =      -0.09022597 Ry

     convergence has been achieved in  17 iterations

 BEEF-vdW xc energy contributions
           1 :   -488.915879453800
           2 :    449.749805200530
           3 :   -381.572391343747
           4 :    300.446433667267
           5 :   -222.297758272574
           6 :    157.913885172928
           7 :   -110.901983330195
           8 :    78.8829180534793
           9 :   -56.6790004303006
          10 :    39.5454321642463
          11 :   -24.9310618657155
          12 :    12.3955065508514
          13 :   -2.41397213221364
          14 :   -4.79474510454395
          15 :    9.65893359704364
          16 :   -12.8791540109045
          17 :    14.8548258720746
          18 :   -15.4982395631716
          19 :    14.5908120328422
          20 :   -12.3468502572930
          21 :    9.66228454380428
          22 :   -7.77836417314472
          23 :    7.55616487089480
          24 :   -8.88455977667491
          25 :    10.6758222273589
          26 :   -11.5033055817598
          27 :    10.4861572209888
          28 :   -7.84856746030835
          29 :    4.78713014014852
          30 :   -2.73297047379515
          31 :   -40.5213632193351
          32 :   -29.2097232380798

     Forces acting on atoms (Ry/au):

     negative rho (up, down):  1.954E+00 0.000E+00
     atom    1 type  1   force =     0.00745275    0.00445506   -0.00559009
     atom    2 type  1   force =     0.00758323    0.00425268   -0.00559266
     atom    3 type  2   force =     0.00723335    0.00418855    0.01028093
     atom    4 type  2   force =     0.00721321    0.00417975    0.01027928
     atom    5 type  1   force =    -0.00270979   -0.00158757    0.00067787
     atom    6 type  1   force =    -0.00273487   -0.00156699    0.00067656
     atom    7 type  2   force =    -0.01183780   -0.00685523   -0.00435973
     atom    8 type  2   force =    -0.01186029   -0.00687118   -0.00435370
     atom    9 type  1   force =    -0.00056427   -0.00046661   -0.00166669
     atom   10 type  1   force =    -0.00068675   -0.00025557   -0.00167223
     atom   11 type  2   force =     0.00048908    0.00028444    0.00065882
     atom   12 type  2   force =     0.00042215    0.00024267    0.00066164

     Total force =     0.031717     Total SCF correction =     0.006986
     SCF correction compared to forces is large: reduce conv_thr to get better values

     entering subroutine stress ...

     negative rho (up, down):  1.954E+00 0.000E+00
          total   stress  (Ry/bohr**3)                   (kbar)     P=  -27.02
  -0.00021886   0.00003148  -0.00002813        -32.19      4.63     -4.14
   0.00003148  -0.00025498  -0.00001629          4.63    -37.51     -2.40
  -0.00002813  -0.00001629  -0.00007729         -4.14     -2.40    -11.37

 !ASE

     Writing output data file calc.save

     General routines

     Parallel routines

   This run was terminated on:  10:42:32  19Dec2018

   JOB DONE.
Job  /afs/slac/g/suncat/bin/suncat-tsmpirun -x LD_LIBRARY_PATH -wdir /scratch/qe529791_lGqgB pw.x -in pw.inp

TID   HOST_NAME   COMMAND_LINE            STATUS            TERMINATION_TIME
00000 suncat0183 pw.x -in pw.inp   Done                     12/19/2018 10:42:32
00001 suncat0183 pw.x -in pw.inp   Done                     12/19/2018 10:42:32
00002 suncat0183 pw.x -in pw.inp   Done                     12/19/2018 10:42:32
00003 suncat0183 pw.x -in pw.inp   Done                     12/19/2018 10:42:32
00004 suncat0183 pw.x -in pw.inp   Done                     12/19/2018 10:42:32
00005 suncat0183 pw.x -in pw.inp   Done                     12/19/2018 10:42:32
00006 suncat0183 pw.x -in pw.inp   Done                     12/19/2018 10:42:32
00007 suncat0183 pw.x -in pw.inp   Done                     12/19/2018 10:42:32
00008 suncat0182 pw.x -in pw.inp   Done                     12/19/2018 10:42:32
00009 suncat0182 pw.x -in pw.inp   Done                     12/19/2018 10:42:32
00010 suncat0182 pw.x -in pw.inp   Done                     12/19/2018 10:42:32
00011 suncat0182 pw.x -in pw.inp   Done                     12/19/2018 10:42:32
00012 suncat0182 pw.x -in pw.inp   Done                     12/19/2018 10:42:32
00013 suncat0182 pw.x -in pw.inp   Done                     12/19/2018 10:42:32
00014 suncat0182 pw.x -in pw.inp   Done                     12/19/2018 10:42:32
00015 suncat0182 pw.x -in pw.inp   Done                     12/19/2018 10:42:32
00016 suncat0181 pw.x -in pw.inp   Done                     12/19/2018 10:42:32
00017 suncat0181 pw.x -in pw.inp   Done                     12/19/2018 10:42:32
00018 suncat0181 pw.x -in pw.inp   Done                     12/19/2018 10:42:32
00019 suncat0181 pw.x -in pw.inp   Done                     12/19/2018 10:42:32
00020 suncat0181 pw.x -in pw.inp   Done                     12/19/2018 10:42:32
00021 suncat0181 pw.x -in pw.inp   Done                     12/19/2018 10:42:32
00022 suncat0181 pw.x -in pw.inp   Done                     12/19/2018 10:42:32
00023 suncat0181 pw.x -in pw.inp   Done                     12/19/2018 10:42:32
00024 suncat0180 pw.x -in pw.inp   Done                     12/19/2018 10:42:32
00025 suncat0180 pw.x -in pw.inp   Done                     12/19/2018 10:42:32
00026 suncat0180 pw.x -in pw.inp   Done                     12/19/2018 10:42:32
00027 suncat0180 pw.x -in pw.inp   Done                     12/19/2018 10:42:32
00028 suncat0180 pw.x -in pw.inp   Done                     12/19/2018 10:42:32
00029 suncat0180 pw.x -in pw.inp   Done                     12/19/2018 10:42:32
00030 suncat0180 pw.x -in pw.inp   Done                     12/19/2018 10:42:32
00031 suncat0180 pw.x -in pw.inp   Done                     12/19/2018 10:42:32