     Program PWSCF v.5.1rc2 (svn rev. 11289) starts on 29Dec2018 at  1:17:14

     Current dimensions of program PWSCF are:
     Max number of different atomic species (ntypx) = 10
     Max number of k-points (npk) =  40000
     Max angular momentum in pseudopotentials (lmaxx) =  3
     Presently stress not available with electric field

     IMPORTANT: XC functional enforced from input :
     Exchange-correlation      = BEEF-VDW ( 1  4 27 13 2)
     Any further DFT definition will be discarded
     Please, verify this is what you really want

     Subspace diagonalization in iterative solution of the eigenvalue problem:
     a serial algorithm will be used

     Found symmetry operation: I + ( -0.5000 -0.5000  0.0000)
     This is a supercell, fractional translations are disabled

     bravais-lattice index     =            0
     lattice parameter (alat)  =       1.8897  a.u.
     unit-cell volume          =    4323.8585 (a.u.)^3
     number of atoms/cell      =           12
     number of atomic types    =            2
     number of electrons       =       108.00
     number of Kohn-Sham states=           84
     kinetic-energy cutoff     =      36.7493  Ry
     charge density cutoff     =     367.4932  Ry
     convergence threshold     =      1.0E-06
     mixing beta               =       0.1000
     number of iterations used =           10  plain     mixing
     Exchange-correlation      = BEEF-VDW ( 1  4 27 13 2)
     nstep                     =           50

     celldm(1)=   1.889726  celldm(2)=   0.000000  celldm(3)=   0.000000
     celldm(4)=   0.000000  celldm(5)=   0.000000  celldm(6)=   0.000000

     crystal axes: (cart. coord. in units of alat)
               a(1) = (   5.284935   0.000000   0.000000 )
               a(2) = (   1.749901   4.986821   0.000000 )
               a(3) = (   0.000000   0.000000  24.311480 )

     reciprocal axes: (cart. coord. in units 2 pi/alat)
               b(1) = (  0.189217 -0.066397  0.000000 )
               b(2) = (  0.000000  0.200529  0.000000 )
               b(3) = (  0.000000  0.000000  0.041133 )

     PseudoPot. # 1 for Al read from file:
     /afs/slac.stanford.edu/u/if/mamunm/psp/gbrv1.5pbe/Al.UPF
     MD5 check sum: 0a6289f5291fc8f409219462bc851e1f
     Pseudo is Ultrasoft + core correction, Zval =  3.0
     Generated by new atomic code, or converted to UPF format
     Using radial grid of  893 points,  3 beta functions with:
                l(1) =   0
                l(2) =   1
                l(3) =   2
     Q(r) pseudized with  8 coefficients,  rinner =    0.900   0.900   0.900
                                                       0.900   0.900

     PseudoPot. # 2 for Tc read from file:
     /afs/slac.stanford.edu/u/if/mamunm/psp/gbrv1.5pbe/Tc.UPF
     MD5 check sum: 9eb49e5b028550b2339a02317eb7b844
     Pseudo is Ultrasoft + core correction, Zval = 15.0
     Generated by new atomic code, or converted to UPF format
     Using radial grid of  965 points,  6 beta functions with:
                l(1) =   0
                l(2) =   0
                l(3) =   1
                l(4) =   1
                l(5) =   2
                l(6) =   2
     Q(r) pseudized with  8 coefficients,  rinner =    1.300   1.300   1.300
                                                       1.300   1.300

     vdW kernel table read from file vdW_kernel_table
     MD5 check sum: 095c7af220d748ca6e76c0b4c6cfb241

     atomic species   valence    mass     pseudopotential
        Al1            3.00    26.98154     Al( 1.00)
        Tc1           15.00    97.90721     Tc( 1.00)

     No symmetry found

   Cartesian axes

     site n.     atom                  positions (alat units)
         1           Al1 tau(   1) = (   0.0000000   0.0000000  10.0000000  )
         2           Al1 tau(   2) = (   3.5174179   2.4934107  10.0000000  )
         3           Tc1 tau(   3) = (   2.6424676   0.0000000  10.0000000  )
         4           Tc1 tau(   4) = (   0.8749503   2.4934107  10.0000000  )
         5           Al1 tau(   5) = (   5.2849352   3.7463600  12.1557400  )
         6           Al1 tau(   6) = (   1.7675172   1.2529493  12.1557400  )
         7           Tc1 tau(   7) = (   2.6424676   3.7463600  12.1557400  )
         8           Tc1 tau(   8) = (   4.4099848   1.2529493  12.1557400  )
         9           Al1 tau(   9) = (   3.5350345   2.5058986  14.3114799  )
        10           Al1 tau(  10) = (   0.0176166   0.0124879  14.3114799  )
        11           Tc1 tau(  11) = (   0.8925669   2.5058986  14.3114799  )
        12           Tc1 tau(  12) = (   2.6600841   0.0124879  14.3114799  )

     number of k points=    20  Fermi-Dirac smearing, width (Ry)=  0.0110
                       cart. coord. in units 2pi/alat
        k(    1) = (   0.0000000   0.0000000   0.0000000), wk =   0.0555556
        k(    2) = (   0.0000000   0.0334214   0.0000000), wk =   0.1111111
        k(    3) = (   0.0000000   0.0668428   0.0000000), wk =   0.1111111
        k(    4) = (   0.0000000  -0.1002643   0.0000000), wk =   0.0555556
        k(    5) = (   0.0315362  -0.0110662   0.0000000), wk =   0.1111111
        k(    6) = (   0.0315362   0.0223552   0.0000000), wk =   0.1111111
        k(    7) = (   0.0315362   0.0557766   0.0000000), wk =   0.1111111
        k(    8) = (   0.0315362  -0.1113305   0.0000000), wk =   0.1111111
        k(    9) = (   0.0315362  -0.0779091   0.0000000), wk =   0.1111111
        k(   10) = (   0.0315362  -0.0444876   0.0000000), wk =   0.1111111
        k(   11) = (   0.0630724  -0.0221324   0.0000000), wk =   0.1111111
        k(   12) = (   0.0630724   0.0112890   0.0000000), wk =   0.1111111
        k(   13) = (   0.0630724   0.0447104   0.0000000), wk =   0.1111111
        k(   14) = (   0.0630724  -0.1223967   0.0000000), wk =   0.1111111
        k(   15) = (   0.0630724  -0.0889753   0.0000000), wk =   0.1111111
        k(   16) = (   0.0630724  -0.0555538   0.0000000), wk =   0.1111111
        k(   17) = (  -0.0946085   0.0331986   0.0000000), wk =   0.0555556
        k(   18) = (  -0.0946085   0.0666200   0.0000000), wk =   0.1111111
        k(   19) = (  -0.0946085   0.1000415   0.0000000), wk =   0.1111111
        k(   20) = (  -0.0946085  -0.0670657   0.0000000), wk =   0.0555556

     Largest allocated arrays     est. size (Mb)     dimensions
     Largest temporary arrays     est. size (Mb)     dimensions

     Check: negative/imaginary core charge=   -0.000013    0.000000

     Initial potential from superposition of free atoms
     Check: negative starting charge=   -0.754870

     starting charge  101.98504, renormalised to  108.00000

     negative rho (up, down):  7.994E-01 0.000E+00

     *
     * You are using vdW-DF for exchange-correlation in this calculation.
     * Please cite the following three references that made this development
     * possible:
     *
     *   M. Dion, H. Rydberg, E. Schroder, D. C. Langreth, and
     *   B. I. Lundqvist, Phys. Rev. Lett. 92, 246401 (2004).
     *
     *   T. Thonhauser, V. R. Cooper, S. Li, A. Puzder, P. Hyldgaard, and
     *   D. C. Langreth, Phys. Rev. B 76, 125112 (2007).
     *
     *   G. Roman-Perez and J. M. Soler, Phys. Rev. Lett. 103, 096102 (2009).
     *
     *
     * If you are using vdW-DF2, please also cite:
     *
     *   K. Lee, E. D. Murray, L. Kong, B. I. Lundqvist, and
     *   D. C. Langreth, Phys. Rev. B 82, 081101(R) (2010).
     *
     *
     * If you are calculating the stress with vdW-DF, please also cite:
     *
     *   R. Sabatini, E. Kucukbenli, B. Kolb, T. Thonhauser, and
     *   S. de Gironcoli, J. Phys.: Condens. Matter 24, 424209 (2012).
     *

     Carrying out vdW-DF run using the following parameters:

     Nqs =      20    Nr_points =    1024   r_max =   100.000
     q_mesh =
               0.00001000     0.04494208     0.09755937     0.15916263
               0.23128650     0.31572767     0.41458969     0.53033537
               0.66584808     0.82450364     1.01025438     1.22772762
               1.48234092     1.78043706     2.12944203     2.53805004
               3.01644009     3.57652955     4.23227104     5.00000000

     Gradients computed in reciprocal space

     Adding external electric field

     Computed dipole along edir(3) :
        Dipole                0.0000 Ry au,          0.0000 Debye
        Dipole field          0.0000 Ry au

        Potential amp.       -0.0000 Ry
        Total length         44.7935 bohr

     Starting wfc are  102 randomized atomic wfcs

     Self-consistent Calculation

     iteration #  1     ecut=    36.75 Ry     beta=0.10
     Davidson diagonalization with overlap
     ethr =  1.00E-02,  avg # of iterations =  7.9

[...]

     total energy              =   -1093.87817033 Ry
     Harris-Foulkes estimate   =   -1095.89493906 Ry
     estimated scf accuracy    <      12.18897866 Ry

[...]

     End of self-consistent calculation

          k = 0.0000 0.0000 0.0000 ( 16305 PWs)   bands (ev):

   -65.9268 -65.9075 -65.7895 -65.7883 -65.7719 -65.7718 -38.0449 -38.0294
   -38.0270 -38.0219 -37.9998 -37.9472 -37.9467 -37.8496 -37.8241 -37.8184
   -37.7856 -37.7832 -37.7757 -37.7634 -37.7602 -37.7314 -37.7264 -37.7218
    -8.1162  -6.3423  -5.1557  -5.0449  -4.7183  -4.2564  -2.5567  -2.5351
    -2.2798  -2.2585  -2.0648  -2.0411  -1.9417  -1.5016  -1.4250  -1.0288
    -0.9258  -0.5633  -0.5176  -0.4281  -0.3091  -0.0679   0.0313   0.0521
     0.1046   0.1350   0.1398   0.4577   0.6429   0.6996   0.7400   0.7450
     0.7846   0.8622   1.0664   1.1370   1.2655   1.5169   2.1433   2.8353
     3.1366   3.7657   4.0893   4.1242   4.1834   4.3689   4.7906   5.3645
     5.6173   5.6306   5.9058   6.1301   6.2727   6.5337   6.7461   6.8222
     7.1555   7.2625   7.6209   7.7596

[...]

          k =-0.0946 0.0332 0.0000 ( 16280 PWs)   bands (ev):

[...]

     the Fermi energy is     0.5759 ev

!    total energy              =   -1093.01961494 Ry
     Harris-Foulkes estimate   =   -1093.01961279 Ry
     estimated scf accuracy    <       0.00000021 Ry

     The total energy is the sum of the following terms:

     one-electron contribution =   -6901.32607919 Ry
     hartree contribution      =    3450.57236754 Ry
     xc contribution           =    -225.69336966 Ry
     ewald contribution        =    2583.50981769 Ry
     electric field correction =       0.00000001 Ry
     smearing contrib. (-TS)   =      -0.08235132 Ry

     convergence has been achieved in  20 iterations

 BEEF-vdW xc energy contributions
           1 :   -196.331858497147
           2 :    179.144771595596
           3 :   -149.324664316735
           4 :    113.819735005964
           5 :   -79.3053850071795
           6 :    50.1264400556942
           7 :   -27.7568841230727
           8 :    11.5196368992520
           9 :   0.143907672581491
          10 :   -8.67177576308993
          11 :    14.9229467826811
          12 :   -19.1812315836908
          13 :    21.3232633556364
          14 :   -21.0378605712179
          15 :    18.0780560825198
          16 :   -12.5707041093302
          17 :    5.24352193864613
          18 :    2.59520467124653
          19 :   -9.41226636557101
[...]
               a(3) = (   0.000000   0.000000  24.311480 )

     reciprocal axes: (cart. coord. in units 2 pi/alat)
               b(1) = (  0.189217 -0.066397  0.000000 )
               b(2) = (  0.000000  0.200529  0.000000 )
               b(3) = (  0.000000  0.000000  0.041133 )

     PseudoPot. # 1 for Al read from file:
     /afs/slac.stanford.edu/u/if/mamunm/psp/gbrv1.5pbe/Al.UPF
     MD5 check sum: 0a6289f5291fc8f409219462bc851e1f
     Pseudo is Ultrasoft + core correction, Zval =  3.0
     Generated by new atomic code, or converted to UPF format
     Using radial grid of  893 points,  3 beta functions with:
                l(1) =   0
                l(2) =   1
                l(3) =   2
     Q(r) pseudized with  8 coefficients,  rinner =    0.900   0.900   0.900
                                                       0.900   0.900

     PseudoPot. # 2 for Tc read from file:
     /afs/slac.stanford.edu/u/if/mamunm/psp/gbrv1.5pbe/Tc.UPF
     MD5 check sum: 9eb49e5b028550b2339a02317eb7b844
     Pseudo is Ultrasoft + core correction, Zval = 15.0
     Generated by new atomic code, or converted to UPF format
     Using radial grid of  965 points,  6 beta functions with:
                l(1) =   0
                l(2) =   0
                l(3) =   1
                l(4) =   1
                l(5) =   2
                l(6) =   2
     Q(r) pseudized with  8 coefficients,  rinner =    1.300   1.300   1.300
                                                       1.300   1.300

     vdW kernel table read from file vdW_kernel_table
     MD5 check sum: 095c7af220d748ca6e76c0b4c6cfb241

     atomic species   valence    mass     pseudopotential
        Al1            3.00    26.98154     Al( 1.00)
        Tc1           15.00    97.90721     Tc( 1.00)

     No symmetry found

   Cartesian axes

     site n.     atom                  positions (alat units)
         1           Al1 tau(   1) = (   0.0000000   0.0000000  10.0000000  )
         2           Al1 tau(   2) = (   3.5174179   2.4934107  10.0000000  )
         3           Tc1 tau(   3) = (   2.6424676   0.0000000  10.0000000  )
         4           Tc1 tau(   4) = (   0.8749503   2.4934107  10.0000000  )
         5           Al1 tau(   5) = (   5.2849352   3.7463600  12.1557400  )
         6           Al1 tau(   6) = (   1.7675172   1.2529493  12.1557400  )
         7           Tc1 tau(   7) = (   2.6424676   3.7463600  12.1557400  )
         8           Tc1 tau(   8) = (   4.4099848   1.2529493  12.1557400  )
         9           Al1 tau(   9) = (   3.5353097   2.5060572  14.3170911  )
        10           Al1 tau(  10) = (   0.0178573   0.0126935  14.3170911  )
        11           Tc1 tau(  11) = (   0.8923579   2.5057634  14.2549260  )
        12           Tc1 tau(  12) = (   2.6599134   0.0123599  14.2549357  )

     number of k points=    20  Fermi-Dirac smearing, width (Ry)=  0.0110
                       cart. coord. in units 2pi/alat
        k(    1) = (   0.0000000   0.0000000   0.0000000), wk =   0.0555556
        k(    2) = (   0.0000000   0.0334214   0.0000000), wk =   0.1111111
        k(    3) = (   0.0000000   0.0668428   0.0000000), wk =   0.1111111
        k(    4) = (   0.0000000  -0.1002643   0.0000000), wk =   0.0555556
        k(    5) = (   0.0315362  -0.0110662   0.0000000), wk =   0.1111111
        k(    6) = (   0.0315362   0.0223552   0.0000000), wk =   0.1111111
        k(    7) = (   0.0315362   0.0557766   0.0000000), wk =   0.1111111
        k(    8) = (   0.0315362  -0.1113305   0.0000000), wk =   0.1111111
        k(    9) = (   0.0315362  -0.0779091   0.0000000), wk =   0.1111111
        k(   10) = (   0.0315362  -0.0444876   0.0000000), wk =   0.1111111
        k(   11) = (   0.0630724  -0.0221324   0.0000000), wk =   0.1111111
        k(   12) = (   0.0630724   0.0112890   0.0000000), wk =   0.1111111
        k(   13) = (   0.0630724   0.0447104   0.0000000), wk =   0.1111111
        k(   14) = (   0.0630724  -0.1223967   0.0000000), wk =   0.1111111
        k(   15) = (   0.0630724  -0.0889753   0.0000000), wk =   0.1111111
        k(   16) = (   0.0630724  -0.0555538   0.0000000), wk =   0.1111111
        k(   17) = (  -0.0946085   0.0331986   0.0000000), wk =   0.0555556
        k(   18) = (  -0.0946085   0.0666200   0.0000000), wk =   0.1111111
        k(   19) = (  -0.0946085   0.1000415   0.0000000), wk =   0.1111111
        k(   20) = (  -0.0946085  -0.0670657   0.0000000), wk =   0.0555556

     Largest allocated arrays     est. size (Mb)     dimensions
     Largest temporary arrays     est. size (Mb)     dimensions

     Check: negative/imaginary core charge=   -0.000013    0.000000

     Initial potential from superposition of free atoms
     Check: negative starting charge=   -0.753059

     starting charge  101.98504, renormalised to  108.00000

[...]

     *
     * You are using vdW-DF for exchange-correlation in this calculation.
     * Please cite the following three references that made this development
     * possible:
     *
     *   M. Dion, H. Rydberg, E. Schroder, D. C. Langreth, and
     *   B. I. Lundqvist, Phys. Rev. Lett. 92, 246401 (2004).
     *
     *   T. Thonhauser, V. R. Cooper, S. Li, A. Puzder, P. Hyldgaard, and
     *   D. C. Langreth, Phys. Rev. B 76, 125112 (2007).
     *
     *   G. Roman-Perez and J. M. Soler, Phys. Rev. Lett. 103, 096102 (2009).
     *
     *
     * If you are using vdW-DF2, please also cite:
     *
     *   K. Lee, E. D. Murray, L. Kong, B. I. Lundqvist, and
     *   D. C. Langreth, Phys. Rev. B 82, 081101(R) (2010).
     *
     *
     * If you are calculating the stress with vdW-DF, please also cite:
     *
     *   R. Sabatini, E. Kucukbenli, B. Kolb, T. Thonhauser, and
     *   S. de Gironcoli, J. Phys.: Condens. Matter 24, 424209 (2012).
     *

     Carrying out vdW-DF run using the following parameters:

     Nqs =      20    Nr_points =    1024   r_max =   100.000
     q_mesh =
               0.00001000     0.04494208     0.09755937     0.15916263
               0.23128650     0.31572767     0.41458969     0.53033537
               0.66584808     0.82450364     1.01025438     1.22772762
               1.48234092     1.78043706     2.12944203     2.53805004
               3.01644009     3.57652955     4.23227104     5.00000000

     Gradients computed in reciprocal space

[...]

     Starting wfc are  102 randomized atomic wfcs

     Self-consistent Calculation

[...]

     total energy              =   -1093.02123220 Ry
     Harris-Foulkes estimate   =   -1093.02123196 Ry
     estimated scf accuracy    <       0.00000137 Ry

     iteration # 21     ecut=    36.75 Ry     beta=0.10
     Davidson diagonalization with overlap
     ethr =  1.27E-09,  avg # of iterations =  1.0

[...]

     negative rho (up, down):  7.844E-01 0.000E+00

     Adding external electric field

     Computed dipole along edir(3) :
        Dipole                0.0086 Ry au,          0.0219 Debye
        Dipole field          0.0000 Ry au

        Potential amp.       -0.0022 Ry
        Total length         44.7935 bohr

     End of self-consistent calculation

[...]

          k = 0.0631-0.0556 0.0000 ( 16286 PWs)   bands (ev):

[...]

          k =-0.0946-0.0671 0.0000 ( 16212 PWs)   bands (ev):

   -65.9459 -65.9293 -65.7835 -65.7796 -65.7653 -65.7615 -38.0772 -38.0711
   -38.0375 -38.0266 -38.0250 -37.9427 -37.9350 -37.8376 -37.8183 -37.7975
   -37.7886 -37.7884 -37.7874 -37.7573 -37.7511 -37.7335 -37.7220 -37.7176
    -6.1787  -6.0018  -4.7854  -4.5572  -4.3637  -4.2989  -4.2322  -3.4293
    -3.3624  -3.0862  -2.8920  -2.3965  -2.2406  -1.6606  -1.6090  -1.5230
    -1.4597  -1.4588  -1.3542  -1.0625  -0.5454  -0.4419  -0.3688  -0.3363
    -0.3289   0.0342   0.3967   0.3982   0.6035   0.9389   1.0891   1.2931
     1.3087   1.3568   1.5002   1.8442   1.9422   2.6202   3.4241   3.5797
     3.7143   3.9881   4.1112   4.2371   4.4385   4.8175   5.6915   5.9543
     5.9980   6.1443   6.2358   6.4857   6.5184   6.7305   6.9503   7.3310
     7.3580   7.7331   7.8108   8.1606

     the Fermi energy is     0.5774 ev

!    total energy              =   -1093.02123390 Ry
     Harris-Foulkes estimate   =   -1093.02123230 Ry
     estimated scf accuracy    <       0.00000054 Ry

     The total energy is the sum of the following terms:

     one-electron contribution =   -6943.92754515 Ry
     hartree contribution      =    3471.86054525 Ry
     xc contribution           =    -225.73532877 Ry
     ewald contribution        =    2604.86335814 Ry
     electric field correction =       0.00000022 Ry
     smearing contrib. (-TS)   =      -0.08226359 Ry

     convergence has been achieved in  21 iterations

 BEEF-vdW xc energy contributions
           1 :   -196.375443766039
           2 :    179.206126363864
           3 :   -149.405691936295
           4 :    113.901917674987
           5 :   -79.3628296062181
           6 :    50.1433809824961
           7 :   -27.7374538193073
           8 :    11.4824843755199
           9 :   0.177745213288148
          10 :   -8.68871178107563
          11 :    14.9203425536031
          12 :   -19.1650196933445
          13 :    21.3034531586898
          14 :   -21.0259344594218
          15 :    18.0854160350775
          16 :   -12.6048882778692
          17 :    5.30290201987972
          18 :    2.52424510070122
          19 :   -9.35044246363830
          20 :    13.9405908637205
          21 :   -15.7693431666156
          22 :    15.0917731862532
          23 :   -12.6579441155080
          24 :    9.26917426513202
          25 :   -5.45744389946381
          26 :    1.43829136915352
          27 :    2.70142712938039
          28 :   -6.76801681109873
          29 :    10.3518849748752
          30 :   -12.9086856723736
          31 :   -19.8177284981269
          32 :   -14.5108070968747

     Forces acting on atoms (Ry/au):

     negative rho (up, down):  7.844E-01 0.000E+00
     atom    1 type  1   force =    -0.00014480   -0.00010690   -0.00205399
     atom    2 type  1   force =    -0.00014949   -0.00010059   -0.00205380
     atom    3 type  2   force =     0.00014709    0.00010818    0.01296224
     atom    4 type  2   force =     0.00015248    0.00010640    0.01294707
     atom    5 type  1   force =    -0.00005234   -0.00003791   -0.01178421
     atom    6 type  1   force =    -0.00005357   -0.00003594   -0.01178201
     atom    7 type  2   force =    -0.00003820   -0.00002719    0.00112215
     atom    8 type  2   force =    -0.00003600   -0.00002561    0.00110468
     atom    9 type  1   force =     0.00006194    0.00006389    0.00027976
     atom   10 type  1   force =     0.00008354    0.00004158    0.00027993
     atom   11 type  2   force =     0.00002710    0.00001363   -0.00050414
     atom   12 type  2   force =     0.00000224    0.00000046   -0.00051769

     Total force =     0.025002     Total SCF correction =     0.001103

     entering subroutine stress ...

     negative rho (up, down):  7.844E-01 0.000E+00
          total   stress  (Ry/bohr**3)                   (kbar)     P=  -16.61
  -0.00015369   0.00000580   0.00000022        -22.61      0.85      0.03
   0.00000580  -0.00015776   0.00000016          0.85    -23.21      0.02
   0.00000022   0.00000016  -0.00002726          0.03      0.02     -4.01

 !ASE

     Writing output data file calc.save

     General routines

     Parallel routines

   This run was terminated on:   1:43: 1  29Dec2018

   JOB DONE.
Job  /afs/slac/g/suncat/bin/suncat-tsmpirun -x LD_LIBRARY_PATH -wdir /scratch/qe387663_NX1g4 pw.x -in pw.inp

TID   HOST_NAME   COMMAND_LINE            STATUS            TERMINATION_TIME
00000 suncat0184 pw.x -in pw.inp   Done                     12/29/2018 01:43:01
00001 suncat0184 pw.x -in pw.inp   Done                     12/29/2018 01:43:01
00002 suncat0184 pw.x -in pw.inp   Done                     12/29/2018 01:43:01
00003 suncat0184 pw.x -in pw.inp   Done                     12/29/2018 01:43:01
00004 suncat0184 pw.x -in pw.inp   Done                     12/29/2018 01:43:01
00005 suncat0184 pw.x -in pw.inp   Done                     12/29/2018 01:43:01
00006 suncat0184 pw.x -in pw.inp   Done                     12/29/2018 01:43:01
00007 suncat0184 pw.x -in pw.inp   Done                     12/29/2018 01:43:01
00008 suncat0172 pw.x -in pw.inp   Done                     12/29/2018 01:43:01
00009 suncat0172 pw.x -in pw.inp   Done                     12/29/2018 01:43:01
00010 suncat0172 pw.x -in pw.inp   Done                     12/29/2018 01:43:01
00011 suncat0172 pw.x -in pw.inp   Done                     12/29/2018 01:43:01
00012 suncat0172 pw.x -in pw.inp   Done                     12/29/2018 01:43:01
00013 suncat0172 pw.x -in pw.inp   Done                     12/29/2018 01:43:01
00014 suncat0172 pw.x -in pw.inp   Done                     12/29/2018 01:43:01
00015 suncat0172 pw.x -in pw.inp   Done                     12/29/2018 01:43:01
00016 suncat0171 pw.x -in pw.inp   Done                     12/29/2018 01:43:01
00017 suncat0171 pw.x -in pw.inp   Done                     12/29/2018 01:43:01
00018 suncat0171 pw.x -in pw.inp   Done                     12/29/2018 01:43:01
00019 suncat0171 pw.x -in pw.inp   Done                     12/29/2018 01:43:01
00020 suncat0171 pw.x -in pw.inp   Done                     12/29/2018 01:43:01
00021 suncat0171 pw.x -in pw.inp   Done                     12/29/2018 01:43:01
00022 suncat0171 pw.x -in pw.inp   Done                     12/29/2018 01:43:01
00023 suncat0171 pw.x -in pw.inp   Done                     12/29/2018 01:43:01
00024 suncat0115 pw.x -in pw.inp   Done                     12/29/2018 01:43:01
00025 suncat0115 pw.x -in pw.inp   Done                     12/29/2018 01:43:01
00026 suncat0115 pw.x -in pw.inp   Done                     12/29/2018 01:43:01
00027 suncat0115 pw.x -in pw.inp   Done                     12/29/2018 01:43:01
00028 suncat0115 pw.x -in pw.inp   Done                     12/29/2018 01:43:01
00029 suncat0115 pw.x -in pw.inp   Done                     12/29/2018 01:43:01
00030 suncat0115 pw.x -in pw.inp   Done                     12/29/2018 01:43:01
00031 suncat0115 pw.x -in pw.inp   Done                     12/29/2018 01:43:01
00032 suncat0228 pw.x -in pw.inp   Done                     12/29/2018 01:43:01
00033 suncat0228 pw.x -in pw.inp   Done                     12/29/2018 01:43:01
00034 suncat0228 pw.x -in pw.inp   Done                     12/29/2018 01:43:01
00035 suncat0228 pw.x -in pw.inp   Done                     12/29/2018 01:43:01
00036 suncat0228 pw.x -in pw.inp   Done                     12/29/2018 01:43:01
00037 suncat0228 pw.x -in pw.inp   Done                     12/29/2018 01:43:01
00038 suncat0228 pw.x -in pw.inp   Done                     12/29/2018 01:43:01
00039 suncat0228 pw.x -in pw.inp   Done                     12/29/2018 01:43:01
00040 suncat0227 pw.x -in pw.inp   Done                     12/29/2018 01:43:01
00041 suncat0227 pw.x -in pw.inp   Done                     12/29/2018 01:43:01
00042 suncat0227 pw.x -in pw.inp   Done                     12/29/2018 01:43:01
00043 suncat0227 pw.x -in pw.inp   Done                     12/29/2018 01:43:01
00044 suncat0227 pw.x -in pw.inp   Done                     12/29/2018 01:43:01
00045 suncat0227 pw.x -in pw.inp   Done                     12/29/2018 01:43:01
00046 suncat0227 pw.x -in pw.inp   Done                     12/29/2018 01:43:01
00047 suncat0227 pw.x -in pw.inp   Done                     12/29/2018 01:43:01
00048 suncat0215 pw.x -in pw.inp   Done                     12/29/2018 01:43:01
00049 suncat0215 pw.x -in pw.inp   Done                     12/29/2018 01:43:01
00050 suncat0215 pw.x -in pw.inp   Done                     12/29/2018 01:43:01
00051 suncat0215 pw.x -in pw.inp   Done                     12/29/2018 01:43:01
00052 suncat0215 pw.x -in pw.inp   Done                     12/29/2018 01:43:01
00053 suncat0215 pw.x -in pw.inp   Done                     12/29/2018 01:43:01
00054 suncat0215 pw.x -in pw.inp   Done                     12/29/2018 01:43:01
00055 suncat0215 pw.x -in pw.inp   Done                     12/29/2018 01:43:01
00056 suncat0210 pw.x -in pw.inp   Done                     12/29/2018 01:43:01
00057 suncat0210 pw.x -in pw.inp   Done                     12/29/2018 01:43:01
00058 suncat0210 pw.x -in pw.inp   Done                     12/29/2018 01:43:01
00059 suncat0210 pw.x -in pw.inp   Done                     12/29/2018 01:43:01
00060 suncat0210 pw.x -in pw.inp   Done                     12/29/2018 01:43:01
00061 suncat0210 pw.x -in pw.inp   Done                     12/29/2018 01:43:01
00062 suncat0210 pw.x -in pw.inp   Done                     12/29/2018 01:43:01
00063 suncat0210 pw.x -in pw.inp   Done                     12/29/2018 01:43:01