     Program PWSCF v.5.1rc2 (svn rev. 11289) starts on 18Dec2018 at 19:45:28

     Current dimensions of program PWSCF are:
     Max number of different atomic species (ntypx) = 10
     Max number of k-points (npk) =  40000
     Max angular momentum in pseudopotentials (lmaxx) =  3
     Presently stress not available with electric field

     IMPORTANT: XC functional enforced from input :
     Exchange-correlation      = BEEF-VDW ( 1  4 27 13 2)
     Any further DFT definition will be discarded
     Please, verify this is what you really want

     Subspace diagonalization in iterative solution of the eigenvalue problem:
     a serial algorithm will be used

     Found symmetry operation: I + ( -0.5000 -0.5000  0.0000)
     This is a supercell, fractional translations are disabled

     Generating pointlists ...
     new r_m :   0.4125 (alat units)  0.7795 (a.u.) for type    1
     new r_m :   0.4125 (alat units)  0.7795 (a.u.) for type    2

     bravais-lattice index     =            0
     lattice parameter (alat)  =       1.8897  a.u.
     unit-cell volume          =    3753.8010 (a.u.)^3
     number of atoms/cell      =           12
     number of atomic types    =            2
     number of electrons       =       198.00
     number of Kohn-Sham states=          129
     kinetic-energy cutoff     =      36.7493  Ry
     charge density cutoff     =     367.4932  Ry
     convergence threshold     =      1.0E-06
     mixing beta               =       0.1000
     number of iterations used =           10  plain     mixing
     Exchange-correlation      = BEEF-VDW ( 1  4 27 13 2)
     nstep                     =           50

     celldm(1)=   1.889726  celldm(2)=   0.000000  celldm(3)=   0.000000
     celldm(4)=   0.000000  celldm(5)=   0.000000  celldm(6)=   0.000000

     crystal axes: (cart. coord. in units of alat)
               a(1) = (   4.951490   0.000000   0.000000 )
               a(2) = (   1.635988   4.673414   0.000000 )
               a(3) = (   0.000000   0.000000  24.038342 )

     reciprocal axes: (cart. coord. in units 2 pi/alat)
               b(1) = (  0.201959 -0.070698  0.000000 )
               b(2) = (  0.000000  0.213976  0.000000 )
               b(3) = (  0.000000  0.000000  0.041600 )

     PseudoPot. # 1 for Co read from file:
     /afs/slac.stanford.edu/u/if/mamunm/psp/gbrv1.5pbe/Co.UPF
     MD5 check sum: 5f91765df6ddd3222702df6e7b74a16d
     Pseudo is Ultrasoft + core correction, Zval = 17.0
     Generated by new atomic code, or converted to UPF format
     Using radial grid of  863 points,  6 beta functions with:
                l(1) =   0
                l(2) =   0
                l(3) =   1
                l(4) =   1
                l(5) =   2
                l(6) =   2
     Q(r) pseudized with  8 coefficients,  rinner =    1.200   1.200   1.200
                                                       1.200   1.200

     PseudoPot. # 2 for Fe read from file:
     /afs/slac.stanford.edu/u/if/mamunm/psp/gbrv1.5pbe/Fe.UPF
     MD5 check sum: a130daea23fe5165f5d574ae7f82ed95
     Pseudo is Ultrasoft + core correction, Zval = 16.0
     Generated by new atomic code, or converted to UPF format
     Using radial grid of  861 points,  6 beta functions with:
                l(1) =   0
                l(2) =   0
                l(3) =   1
                l(4) =   1
                l(5) =   2
                l(6) =   2
     Q(r) pseudized with  8 coefficients,  rinner =    1.000   1.000   1.000
                                                       1.000   1.000

     vdW kernel table read from file vdW_kernel_table
     MD5 check sum: 095c7af220d748ca6e76c0b4c6cfb241

     atomic species   valence    mass     pseudopotential
        Co1           17.00    58.93319     Co( 1.00)
        Fe1           16.00    55.84500     Fe( 1.00)

     Starting magnetic structure
     atomic species   magnetization
        Co1          0.118
        Fe1          0.125

     No symmetry found

   Cartesian axes

     site n.     atom                  positions (alat units)
         1           Co1 tau(   1) = (   0.0000000   0.0000000  10.0000000  )
         2           Co1 tau(   2) = (   3.2937388   2.3367069  10.0000000  )
         3           Fe1 tau(   3) = (   2.4757450   0.0000000  10.0000000  )
         4           Fe1 tau(   4) = (   0.8179938   2.3367069  10.0000000  )
         5           Co1 tau(   5) = (   4.9514900   3.5127803  12.0191708  )
         6           Co1 tau(   6) = (   1.6577512   1.1760734  12.0191708  )
         7           Fe1 tau(   7) = (   2.4757450   3.5127803  12.0191708  )
         8           Fe1 tau(   8) = (   4.1334961   1.1760734  12.0191708  )
         9           Co1 tau(   9) = (   3.3155023   2.3521468  14.0383416  )
        10           Co1 tau(  10) = (   0.0217635   0.0154399  14.0383416  )
        11           Fe1 tau(  11) = (   0.8397573   2.3521468  14.0383416  )
        12           Fe1 tau(  12) = (   2.4975085   0.0154399  14.0383416  )

     number of k points=    40  Fermi-Dirac smearing, width (Ry)=  0.0110
                       cart. coord. in units 2pi/alat
        k(    1) = (   0.0000000   0.0000000   0.0000000), wk =   0.0277778
        k(    2) = (   0.0000000   0.0356627   0.0000000), wk =   0.0555556
        k(    3) = (   0.0000000   0.0713254   0.0000000), wk =   0.0555556
        k(    4) = (   0.0000000  -0.1069882   0.0000000), wk =   0.0277778
        k(    5) = (   0.0336599  -0.0117831   0.0000000), wk =   0.0555556
        k(    6) = (   0.0336599   0.0238796   0.0000000), wk =   0.0555556
        k(    7) = (   0.0336599   0.0595424   0.0000000), wk =   0.0555556
        k(    8) = (   0.0336599  -0.1187712   0.0000000), wk =   0.0555556
        k(    9) = (   0.0336599  -0.0831085   0.0000000), wk =   0.0555556
        k(   10) = (   0.0336599  -0.0474458   0.0000000), wk =   0.0555556
        k(   11) = (   0.0673198  -0.0235661   0.0000000), wk =   0.0555556
        k(   12) = (   0.0673198   0.0120966   0.0000000), wk =   0.0555556
        k(   13) = (   0.0673198   0.0477593   0.0000000), wk =   0.0555556
        k(   14) = (   0.0673198  -0.1305543   0.0000000), wk =   0.0555556
        k(   15) = (   0.0673198  -0.0948916   0.0000000), wk =   0.0555556
        k(   16) = (   0.0673198  -0.0592289   0.0000000), wk =   0.0555556
        k(   17) = (  -0.1009797   0.0353492   0.0000000), wk =   0.0277778
        k(   18) = (  -0.1009797   0.0710119   0.0000000), wk =   0.0555556
        k(   19) = (  -0.1009797   0.1066747   0.0000000), wk =   0.0555556
        k(   20) = (  -0.1009797  -0.0716389   0.0000000), wk =   0.0277778
        k(   21) = (   0.0000000   0.0000000   0.0000000), wk =   0.0277778
        k(   22) = (   0.0000000   0.0356627   0.0000000), wk =   0.0555556
        k(   23) = (   0.0000000   0.0713254   0.0000000), wk =   0.0555556
        k(   24) = (   0.0000000  -0.1069882   0.0000000), wk =   0.0277778
        k(   25) = (   0.0336599  -0.0117831   0.0000000), wk =   0.0555556
        k(   26) = (   0.0336599   0.0238796   0.0000000), wk =   0.0555556
        k(   27) = (   0.0336599   0.0595424   0.0000000), wk =   0.0555556
        k(   28) = (   0.0336599  -0.1187712   0.0000000), wk =   0.0555556
        k(   29) = (   0.0336599  -0.0831085   0.0000000), wk =   0.0555556
        k(   30) = (   0.0336599  -0.0474458   0.0000000), wk =   0.0555556
        k(   31) = (   0.0673198  -0.0235661   0.0000000), wk =   0.0555556
        k(   32) = (   0.0673198   0.0120966   0.0000000), wk =   0.0555556
        k(   33) = (   0.0673198   0.0477593   0.0000000), wk =   0.0555556
        k(   34) = (   0.0673198  -0.1305543   0.0000000), wk =   0.0555556
        k(   35) = (   0.0673198  -0.0948916   0.0000000), wk =   0.0555556
        k(   36) = (   0.0673198  -0.0592289   0.0000000), wk =   0.0555556
        k(   37) = (  -0.1009797   0.0353492   0.0000000), wk =   0.0277778
        k(   38) = (  -0.1009797   0.0710119   0.0000000), wk =   0.0555556
        k(   39) = (  -0.1009797   0.1066747   0.0000000), wk =   0.0555556
        k(   40) = (  -0.1009797  -0.0716389   0.0000000), wk =   0.0277778

     Largest allocated arrays     est. size (Mb)     dimensions
     Largest temporary arrays     est. size (Mb)     dimensions

     Check: negative/imaginary core charge=   -0.000008    0.000000

     Initial potential from superposition of free atoms
     Check: negative starting charge=(component1):   -0.000179
     Check: negative starting charge=(component2):   -0.000141

     starting charge  185.99992, renormalised to  198.00000

     negative rho (up, down):  1.906E-04 1.499E-04

     *
     * You are using vdW-DF for exchange-correlation in this calculation.
     * Please cite the following three references that made this development
     * possible:
     *
     *   M. Dion, H. Rydberg, E. Schroder, D. C. Langreth, and
     *   B. I. Lundqvist, Phys. Rev. Lett. 92, 246401 (2004).
     *
     *   T. Thonhauser, V. R. Cooper, S. Li, A. Puzder, P. Hyldgaard, and
     *   D. C. Langreth, Phys. Rev. B 76, 125112 (2007).
     *
     *   G. Roman-Perez and J. M. Soler, Phys. Rev. Lett. 103, 096102 (2009).
     *
     *
     * If you are using vdW-DF2, please also cite:
     *
     *   K. Lee, E. D. Murray, L. Kong, B. I. Lundqvist, and
     *   D. C. Langreth, Phys. Rev. B 82, 081101(R) (2010).
     *
     *
     * If you are calculating the stress with vdW-DF, please also cite:
     *
     *   R. Sabatini, E. Kucukbenli, B. Kolb, T. Thonhauser, and
     *   S. de Gironcoli, J. Phys.: Condens. Matter 24, 424209 (2012).
     *

     Carrying out vdW-DF run using the following parameters:

     Nqs =      20    Nr_points =    1024   r_max =   100.000
     q_mesh =
               0.00001000     0.04494208     0.09755937     0.15916263
               0.23128650     0.31572767     0.41458969     0.53033537
               0.66584808     0.82450364     1.01025438     1.22772762
               1.48234092     1.78043706     2.12944203     2.53805004
               3.01644009     3.57652955     4.23227104     5.00000000

     Gradients computed in reciprocal space

     Adding external electric field

     Computed dipole along edir(3) :
        Dipole                0.0000 Ry au,          0.0000 Debye
        Dipole field          0.0000 Ry au

        Potential amp.       -0.0000 Ry
        Total length         44.2902 bohr

[...]

     Starting wfc are  156 randomized atomic wfcs

     Self-consistent Calculation

     iteration #  1     ecut=    36.75 Ry     beta=0.10
     Davidson diagonalization with overlap
     ethr =  1.00E-02,  avg # of iterations =  7.5

[...]

     Magnetic moment per site:
     atom:    1    charge:    8.4325    magn:    0.9434    constr:    0.0000
     atom:    2    charge:    8.4325    magn:    0.9434    constr:    0.0000
     atom:    3    charge:    7.4027    magn:    0.8678    constr:    0.0000
     atom:    4    charge:    7.4027    magn:    0.8678    constr:    0.0000
     atom:    5    charge:    8.4437    magn:    0.9456    constr:    0.0000
     atom:    6    charge:    8.4437    magn:    0.9456    constr:    0.0000
[...]
     Q(r) pseudized with  8 coefficients,  rinner =    1.200   1.200   1.200
                                                       1.200   1.200

     PseudoPot. # 2 for Fe read from file:
     /afs/slac.stanford.edu/u/if/mamunm/psp/gbrv1.5pbe/Fe.UPF
     MD5 check sum: a130daea23fe5165f5d574ae7f82ed95
     Pseudo is Ultrasoft + core correction, Zval = 16.0
     Generated by new atomic code, or converted to UPF format
     Using radial grid of  861 points,  6 beta functions with:
                l(1) =   0
                l(2) =   0
                l(3) =   1
                l(4) =   1
                l(5) =   2
                l(6) =   2
     Q(r) pseudized with  8 coefficients,  rinner =    1.000   1.000   1.000
                                                       1.000   1.000

     vdW kernel table read from file vdW_kernel_table
     MD5 check sum: 095c7af220d748ca6e76c0b4c6cfb241

     atomic species   valence    mass     pseudopotential
        Co1           17.00    58.93319     Co( 1.00)
        Fe1           16.00    55.84500     Fe( 1.00)

     Starting magnetic structure
     atomic species   magnetization
        Co1          0.118
        Fe1          0.125

     No symmetry found

   Cartesian axes

     site n.     atom                  positions (alat units)
         1           Co1 tau(   1) = (   0.0000000   0.0000000  10.0000000  )
         2           Co1 tau(   2) = (   3.2937388   2.3367069  10.0000000  )
         3           Fe1 tau(   3) = (   2.4757450   0.0000000  10.0000000  )
         4           Fe1 tau(   4) = (   0.8179938   2.3367069  10.0000000  )
         5           Co1 tau(   5) = (   4.9514900   3.5127803  12.0191708  )
         6           Co1 tau(   6) = (   1.6577512   1.1760734  12.0191708  )
         7           Fe1 tau(   7) = (   2.4757450   3.5127803  12.0191708  )
         8           Fe1 tau(   8) = (   4.1334961   1.1760734  12.0191708  )
         9           Co1 tau(   9) = (   3.3138621   2.3509804  13.9437973  )
        10           Co1 tau(  10) = (   0.0202365   0.0143582  13.9439596  )
        11           Fe1 tau(  11) = (   0.8373436   2.3503320  14.0562439  )
        12           Fe1 tau(  12) = (   2.4949983   0.0137620  14.0562489  )

     number of k points=    40  Fermi-Dirac smearing, width (Ry)=  0.0110
                       cart. coord. in units 2pi/alat
        k(    1) = (   0.0000000   0.0000000   0.0000000), wk =   0.0277778
        k(    2) = (   0.0000000   0.0356627   0.0000000), wk =   0.0555556
        k(    3) = (   0.0000000   0.0713254   0.0000000), wk =   0.0555556
        k(    4) = (   0.0000000  -0.1069882   0.0000000), wk =   0.0277778
        k(    5) = (   0.0336599  -0.0117831   0.0000000), wk =   0.0555556
        k(    6) = (   0.0336599   0.0238796   0.0000000), wk =   0.0555556
        k(    7) = (   0.0336599   0.0595424   0.0000000), wk =   0.0555556
        k(    8) = (   0.0336599  -0.1187712   0.0000000), wk =   0.0555556
        k(    9) = (   0.0336599  -0.0831085   0.0000000), wk =   0.0555556
        k(   10) = (   0.0336599  -0.0474458   0.0000000), wk =   0.0555556
        k(   11) = (   0.0673198  -0.0235661   0.0000000), wk =   0.0555556
        k(   12) = (   0.0673198   0.0120966   0.0000000), wk =   0.0555556
        k(   13) = (   0.0673198   0.0477593   0.0000000), wk =   0.0555556
        k(   14) = (   0.0673198  -0.1305543   0.0000000), wk =   0.0555556
        k(   15) = (   0.0673198  -0.0948916   0.0000000), wk =   0.0555556
        k(   16) = (   0.0673198  -0.0592289   0.0000000), wk =   0.0555556
        k(   17) = (  -0.1009797   0.0353492   0.0000000), wk =   0.0277778
        k(   18) = (  -0.1009797   0.0710119   0.0000000), wk =   0.0555556
        k(   19) = (  -0.1009797   0.1066747   0.0000000), wk =   0.0555556
        k(   20) = (  -0.1009797  -0.0716389   0.0000000), wk =   0.0277778
        k(   21) = (   0.0000000   0.0000000   0.0000000), wk =   0.0277778
        k(   22) = (   0.0000000   0.0356627   0.0000000), wk =   0.0555556
        k(   23) = (   0.0000000   0.0713254   0.0000000), wk =   0.0555556
        k(   24) = (   0.0000000  -0.1069882   0.0000000), wk =   0.0277778
        k(   25) = (   0.0336599  -0.0117831   0.0000000), wk =   0.0555556
        k(   26) = (   0.0336599   0.0238796   0.0000000), wk =   0.0555556
        k(   27) = (   0.0336599   0.0595424   0.0000000), wk =   0.0555556
        k(   28) = (   0.0336599  -0.1187712   0.0000000), wk =   0.0555556
        k(   29) = (   0.0336599  -0.0831085   0.0000000), wk =   0.0555556
        k(   30) = (   0.0336599  -0.0474458   0.0000000), wk =   0.0555556
        k(   31) = (   0.0673198  -0.0235661   0.0000000), wk =   0.0555556
        k(   32) = (   0.0673198   0.0120966   0.0000000), wk =   0.0555556
        k(   33) = (   0.0673198   0.0477593   0.0000000), wk =   0.0555556
        k(   34) = (   0.0673198  -0.1305543   0.0000000), wk =   0.0555556
        k(   35) = (   0.0673198  -0.0948916   0.0000000), wk =   0.0555556
        k(   36) = (   0.0673198  -0.0592289   0.0000000), wk =   0.0555556
        k(   37) = (  -0.1009797   0.0353492   0.0000000), wk =   0.0277778
        k(   38) = (  -0.1009797   0.0710119   0.0000000), wk =   0.0555556
        k(   39) = (  -0.1009797   0.1066747   0.0000000), wk =   0.0555556
        k(   40) = (  -0.1009797  -0.0716389   0.0000000), wk =   0.0277778

     Largest allocated arrays     est. size (Mb)     dimensions
     Largest temporary arrays     est. size (Mb)     dimensions

     Check: negative/imaginary core charge=   -0.000008    0.000000

     Initial potential from superposition of free atoms
     Check: negative starting charge=(component1):   -0.000177
     Check: negative starting charge=(component2):   -0.000139

     starting charge  185.99992, renormalised to  198.00000

[...]

     *
     * You are using vdW-DF for exchange-correlation in this calculation.
     * Please cite the following three references that made this development
     * possible:
     *
     *   M. Dion, H. Rydberg, E. Schroder, D. C. Langreth, and
     *   B. I. Lundqvist, Phys. Rev. Lett. 92, 246401 (2004).
     *
     *   T. Thonhauser, V. R. Cooper, S. Li, A. Puzder, P. Hyldgaard, and
     *   D. C. Langreth, Phys. Rev. B 76, 125112 (2007).
     *
     *   G. Roman-Perez and J. M. Soler, Phys. Rev. Lett. 103, 096102 (2009).
     *
     *
     * If you are using vdW-DF2, please also cite:
     *
     *   K. Lee, E. D. Murray, L. Kong, B. I. Lundqvist, and
     *   D. C. Langreth, Phys. Rev. B 82, 081101(R) (2010).
     *
     *
     * If you are calculating the stress with vdW-DF, please also cite:
     *
     *   R. Sabatini, E. Kucukbenli, B. Kolb, T. Thonhauser, and
     *   S. de Gironcoli, J. Phys.: Condens. Matter 24, 424209 (2012).
     *

     Carrying out vdW-DF run using the following parameters:

     Nqs =      20    Nr_points =    1024   r_max =   100.000
     q_mesh =
               0.00001000     0.04494208     0.09755937     0.15916263
               0.23128650     0.31572767     0.41458969     0.53033537
               0.66584808     0.82450364     1.01025438     1.22772762
               1.48234092     1.78043706     2.12944203     2.53805004
               3.01644009     3.57652955     4.23227104     5.00000000

     Gradients computed in reciprocal space

[...]

     Starting wfc are  156 randomized atomic wfcs

     Self-consistent Calculation

[...]

     total energy              =   -3305.16600655 Ry
     Harris-Foulkes estimate   =   -3305.16600535 Ry
     estimated scf accuracy    <       0.00000209 Ry

[...]

     iteration # 31     ecut=    36.75 Ry     beta=0.10
     Davidson diagonalization with overlap
     ethr =  5.19E-10,  avg # of iterations =  1.6

[...]

     negative rho (up, down):  4.680E-04 7.149E-04

[...]

     Adding external electric field

     Computed dipole along edir(3) :
        Dipole                0.0108 Ry au,          0.0273 Debye
        Dipole field          0.0000 Ry au

        Potential amp.       -0.0032 Ry
        Total length         44.2902 bohr

     Magnetic moment per site:
     atom:    1    charge:    8.2942    magn:    1.0128    constr:    0.0000
     atom:    2    charge:    8.2940    magn:    1.0129    constr:    0.0000
     atom:    3    charge:    7.0942    magn:    1.4116    constr:    0.0000
     atom:    4    charge:    7.0942    magn:    1.4116    constr:    0.0000
     atom:    5    charge:    8.2937    magn:    1.0408    constr:    0.0000
     atom:    6    charge:    8.2937    magn:    1.0409    constr:    0.0000
     atom:    7    charge:    7.0946    magn:    1.3914    constr:    0.0000
     atom:    8    charge:    7.0946    magn:    1.3914    constr:    0.0000
     atom:    9    charge:    8.2929    magn:    0.9983    constr:    0.0000
     atom:   10    charge:    8.2928    magn:    0.9983    constr:    0.0000
     atom:   11    charge:    7.0875    magn:    1.4173    constr:    0.0000
     atom:   12    charge:    7.0875    magn:    1.4173    constr:    0.0000

     End of self-consistent calculation

 ------ SPIN UP ------------

[...]

 ------ SPIN DOWN ----------

[...]

          k = 0.0673-0.0592 0.0000 ( 14106 PWs)   bands (ev):

[...]

          k =-0.1010-0.0716 0.0000 ( 14176 PWs)   bands (ev):

   -93.3173 -93.3145 -93.0126 -93.0097 -93.0071 -93.0042 -84.8107 -84.8058
   -84.6806 -84.6760 -84.6756 -84.6710 -56.6965 -56.6799 -56.6761 -56.6624
   -56.6581 -56.6565 -56.3884 -56.3850 -56.3842 -56.3833 -56.3809 -56.3689
   -56.3642 -56.3606 -56.3605 -56.3573 -56.3436 -56.3299 -50.9425 -50.9352
   -50.9263 -50.9071 -50.9014 -50.8792 -50.8127 -50.8078 -50.8019 -50.7969
   -50.7844 -50.7787 -50.7781 -50.7774 -50.7757 -50.7745 -50.7144 -50.7134
    -4.9763  -4.9404  -3.3924  -3.2339  -3.2310  -3.1011  -2.1620  -2.1101
    -1.9300  -1.9097  -1.6005  -1.4201  -1.2719  -1.0925  -1.0463  -0.9990
    -0.8227  -0.8142  -0.7081  -0.6644  -0.6075  -0.4616  -0.4593  -0.3787
    -0.3475  -0.2569  -0.2542  -0.2344  -0.0671  -0.0519  -0.0028   0.1285
     0.1342   0.2393   0.2765   0.2781   0.3741   0.5558   0.5771   0.6726
     0.7182   0.9413   0.9667   1.0591   1.0711   1.0813   1.1832   1.2769
     1.2955   1.3285   1.3619   1.4905   1.5528   1.5982   1.6404   1.6883
     1.7551   2.0023   2.1240   2.2064   2.2073   2.3330   2.3449   2.4051
     2.5557   3.1576   3.2902   3.3113   3.7157   3.7508   5.1307   5.2549
     5.2944   5.5348   6.9735   7.0247   7.4957   7.5060   7.6181   7.6656
     7.6929

     the Fermi energy is     0.7361 ev

!    total energy              =   -3305.16601009 Ry
     Harris-Foulkes estimate   =   -3305.16600658 Ry
     estimated scf accuracy    <       0.00000047 Ry

     The total energy is the sum of the following terms:

     one-electron contribution =  -27797.23190497 Ry
     hartree contribution      =   13899.13521386 Ry
     xc contribution           =    -384.56284404 Ry
     ewald contribution        =   10977.55209759 Ry
     electric field correction =       0.00000039 Ry
     smearing contrib. (-TS)   =      -0.05857291 Ry

     total magnetization       =    27.65 Bohr mag/cell
     absolute magnetization    =    29.83 Bohr mag/cell

     convergence has been achieved in  31 iterations

 BEEF-vdW xc energy contributions
           1 :   -337.793084736475
           2 :    305.801885984550
           3 :   -251.913699203856
           4 :    191.426969583604
           5 :   -138.126324331591
           6 :    99.2724887037848
           7 :   -74.5343655747842
           8 :    58.6114076403807
           9 :   -45.4905894206191
          10 :    31.8037948619244
          11 :   -17.7841016685210
          12 :    5.88429703208703
          13 :    1.57155559516571
          14 :   -4.10575324993738
          15 :    3.26403702529774
          16 :   -1.48900705504110
          17 :   0.643004046981503
          18 :   -1.16792372267906
          19 :    2.25329250457054
          20 :   -2.72125514967911
          21 :    1.94114534755329
          22 :  -0.219004109238142
          23 :   -1.49090592169671
          24 :    2.24830480818105
          25 :   -1.70525045212696
          26 :   0.255835511289206
          27 :    1.26193030292774
          28 :   -2.08845946101809
          29 :    1.95805959738368
          30 :   -1.19435096994386
          31 :   -29.0249150494178
          32 :   -20.2687457710224

     Forces acting on atoms (Ry/au):

     negative rho (up, down):  4.680E-04 7.149E-04
     atom    1 type  1   force =     0.00024051    0.00017196    0.01756909
     atom    2 type  1   force =     0.00023541    0.00016559    0.01756625
     atom    3 type  2   force =     0.00057773    0.00041453   -0.00311503
     atom    4 type  2   force =     0.00058170    0.00040778   -0.00311353
     atom    5 type  1   force =     0.00002330    0.00002111   -0.00212501
     atom    6 type  1   force =     0.00008827    0.00005807   -0.00214098
     atom    7 type  2   force =    -0.00008627   -0.00010674   -0.01321610
     atom    8 type  2   force =    -0.00013199   -0.00004829   -0.01321572
     atom    9 type  1   force =    -0.00053661   -0.00038128    0.00151953
     atom   10 type  1   force =    -0.00057527   -0.00040682    0.00150380
     atom   11 type  2   force =    -0.00022555   -0.00012398   -0.00061494
     atom   12 type  2   force =    -0.00019123   -0.00017193   -0.00061736

     Total force =     0.031665     Total SCF correction =     0.001517

     entering subroutine stress ...

     negative rho (up, down):  4.680E-04 7.149E-04
          total   stress  (Ry/bohr**3)                   (kbar)     P=  -17.70
  -0.00013775   0.00003920  -0.00000324        -20.26      5.77     -0.48
   0.00003920  -0.00016519  -0.00000230          5.77    -24.30     -0.34
  -0.00000324  -0.00000230  -0.00005806         -0.48     -0.34     -8.54

 !ASE

     Writing output data file calc.save

     General routines

     Parallel routines

   This run was terminated on:  21:59:47  18Dec2018

   JOB DONE.
Job  /afs/slac/g/suncat/bin/suncat-tsmpirun -x LD_LIBRARY_PATH -wdir /scratch/qe529673_6X0JT pw.x -in pw.inp

TID   HOST_NAME   COMMAND_LINE            STATUS            TERMINATION_TIME
00000 suncat0040 pw.x -in pw.inp   Done                     12/18/2018 21:59:47
00001 suncat0040 pw.x -in pw.inp   Done                     12/18/2018 21:59:47
00002 suncat0040 pw.x -in pw.inp   Done                     12/18/2018 21:59:47
00003 suncat0040 pw.x -in pw.inp   Done                     12/18/2018 21:59:47
00004 suncat0040 pw.x -in pw.inp   Done                     12/18/2018 21:59:47
00005 suncat0040 pw.x -in pw.inp   Done                     12/18/2018 21:59:47
00006 suncat0040 pw.x -in pw.inp   Done                     12/18/2018 21:59:47
00007 suncat0040 pw.x -in pw.inp   Done                     12/18/2018 21:59:47
00008 suncat0039 pw.x -in pw.inp   Done                     12/18/2018 21:59:47
00009 suncat0039 pw.x -in pw.inp   Done                     12/18/2018 21:59:47
00010 suncat0039 pw.x -in pw.inp   Done                     12/18/2018 21:59:47
00011 suncat0039 pw.x -in pw.inp   Done                     12/18/2018 21:59:47
00012 suncat0039 pw.x -in pw.inp   Done                     12/18/2018 21:59:47
00013 suncat0039 pw.x -in pw.inp   Done                     12/18/2018 21:59:47
00014 suncat0039 pw.x -in pw.inp   Done                     12/18/2018 21:59:47
00015 suncat0039 pw.x -in pw.inp   Done                     12/18/2018 21:59:47
00016 suncat0038 pw.x -in pw.inp   Done                     12/18/2018 21:59:47
00017 suncat0038 pw.x -in pw.inp   Done                     12/18/2018 21:59:47
00018 suncat0038 pw.x -in pw.inp   Done                     12/18/2018 21:59:47
00019 suncat0038 pw.x -in pw.inp   Done                     12/18/2018 21:59:47
00020 suncat0038 pw.x -in pw.inp   Done                     12/18/2018 21:59:47
00021 suncat0038 pw.x -in pw.inp   Done                     12/18/2018 21:59:47
00022 suncat0038 pw.x -in pw.inp   Done                     12/18/2018 21:59:47
00023 suncat0038 pw.x -in pw.inp   Done                     12/18/2018 21:59:47
00024 suncat0037 pw.x -in pw.inp   Done                     12/18/2018 21:59:47
00025 suncat0037 pw.x -in pw.inp   Done                     12/18/2018 21:59:47
00026 suncat0037 pw.x -in pw.inp   Done                     12/18/2018 21:59:47
00027 suncat0037 pw.x -in pw.inp   Done                     12/18/2018 21:59:47
00028 suncat0037 pw.x -in pw.inp   Done                     12/18/2018 21:59:47
00029 suncat0037 pw.x -in pw.inp   Done                     12/18/2018 21:59:47
00030 suncat0037 pw.x -in pw.inp   Done                     12/18/2018 21:59:47
00031 suncat0037 pw.x -in pw.inp   Done                     12/18/2018 21:59:47