     Program PWSCF v.5.1rc2 (svn rev. 11289) starts on 24Dec2018 at 19: 0:47

     Current dimensions of program PWSCF are:
     Max number of different atomic species (ntypx) = 10
     Max number of k-points (npk) =  40000
     Max angular momentum in pseudopotentials (lmaxx) =  3
     Presently stress not available with electric field

     IMPORTANT: XC functional enforced from input :
     Exchange-correlation      = BEEF-VDW ( 1  4 27 13 2)
     Any further DFT definition will be discarded
     Please, verify this is what you really want

     Subspace diagonalization in iterative solution of the eigenvalue problem:
     a serial algorithm will be used

     Found symmetry operation: I + ( -0.5000  0.0000  0.0000)
     This is a supercell, fractional translations are disabled

     bravais-lattice index     =            0
     lattice parameter (alat)  =       1.8897  a.u.
     unit-cell volume          =    4383.7366 (a.u.)^3
     number of atoms/cell      =           12
     number of atomic types    =            2
     number of electrons       =       204.00
     number of Kohn-Sham states=          132
     kinetic-energy cutoff     =      36.7493  Ry
     charge density cutoff     =     367.4932  Ry
     convergence threshold     =      1.0E-06
     mixing beta               =       0.1000
     number of iterations used =           10  plain     mixing
     Exchange-correlation      = BEEF-VDW ( 1  4 27 13 2)
     nstep                     =           50

     celldm(1)=   1.889726  celldm(2)=   0.000000  celldm(3)=   0.000000
     celldm(4)=   0.000000  celldm(5)=   0.000000  celldm(6)=   0.000000

     crystal axes: (cart. coord. in units of alat)
               a(1) = (   5.466110   0.000000   0.000000 )
               a(2) = (  -2.733055   4.847795   0.000000 )
               a(3) = (   0.000000   0.000000  24.514624 )

     reciprocal axes: (cart. coord. in units 2 pi/alat)
               b(1) = (  0.182945  0.103140  0.000000 )
               b(2) = (  0.000000  0.206279  0.000000 )
               b(3) = (  0.000000  0.000000  0.040792 )

     PseudoPot. # 1 for Ga read from file:
     /afs/slac.stanford.edu/u/if/mamunm/psp/gbrv1.5pbe/Ga.UPF
     MD5 check sum: ccd671392a58a050fbb373893b4fcd66
     Pseudo is Ultrasoft + core correction, Zval = 19.0
     Generated by new atomic code, or converted to UPF format
     Using radial grid of  871 points,  6 beta functions with:
                l(1) =   0
                l(2) =   0
                l(3) =   1
                l(4) =   1
                l(5) =   2
                l(6) =   2
     Q(r) pseudized with  8 coefficients,  rinner =    1.250   1.250   1.250
                                                       1.250   1.250

     PseudoPot. # 2 for Re read from file:
     /afs/slac.stanford.edu/u/if/mamunm/psp/gbrv1.5pbe/Re.UPF
     MD5 check sum: 85f993410f3e006da9d71c142b4ad953
     Pseudo is Ultrasoft + core correction, Zval = 15.0
     Generated by new atomic code, or converted to UPF format
     Using radial grid of  981 points,  8 beta functions with:
                l(1) =   0
                l(2) =   0
                l(3) =   1
                l(4) =   1
                l(5) =   2
                l(6) =   2
                l(7) =   3
                l(8) =   3
     Q(r) pseudized with  8 coefficients,  rinner =    1.150   1.150   1.150
                                                       1.150   1.150   1.150
                                                       1.150

     vdW kernel table read from file vdW_kernel_table
     MD5 check sum: 095c7af220d748ca6e76c0b4c6cfb241

     atomic species   valence    mass     pseudopotential
        Ga1           19.00    69.72300     Ga( 1.00)
        Re1           15.00   186.20700     Re( 1.00)

     No symmetry found

   Cartesian axes

     site n.     atom                  positions (alat units)
         1           Ga1 tau(   1) = (   0.0000000   0.0000000  10.0000000  )
         2           Ga1 tau(   2) = (   2.7330551   0.0000000  10.0000000  )
         3           Re1 tau(   3) = (   1.3665276   2.4238974  10.0000000  )
         4           Re1 tau(   4) = (  -1.3665276   2.4238974  10.0000000  )
         5           Ga1 tau(   5) = (   2.7330551   1.5408223  12.2573119  )
         6           Ga1 tau(   6) = (  -0.0000000   1.5408223  12.2573119  )
         7           Re1 tau(   7) = (  -1.3665276   3.9647197  12.2573119  )
         8           Re1 tau(   8) = (   1.3665276   3.9647197  12.2573119  )
         9           Ga1 tau(   9) = (  -0.0000000   3.0816446  14.5146238  )
        10           Ga1 tau(  10) = (   2.7330551   3.0816446  14.5146238  )
        11           Re1 tau(  11) = (   4.0995827   0.6577472  14.5146238  )
        12           Re1 tau(  12) = (   1.3665276   0.6577472  14.5146238  )

     number of k points=    20  Fermi-Dirac smearing, width (Ry)=  0.0110
                       cart. coord. in units 2pi/alat
        k(    1) = (   0.0000000   0.0000000   0.0000000), wk =   0.0555556
        k(    2) = (   0.0000000   0.0343799   0.0000000), wk =   0.1111111
        k(    3) = (   0.0000000   0.0687598   0.0000000), wk =   0.1111111
        k(    4) = (   0.0000000  -0.1031397   0.0000000), wk =   0.0555556
        k(    5) = (   0.0304909   0.0171899   0.0000000), wk =   0.1111111
        k(    6) = (   0.0304909   0.0515698   0.0000000), wk =   0.1111111
        k(    7) = (   0.0304909   0.0859497   0.0000000), wk =   0.1111111
        k(    8) = (   0.0304909  -0.0859497   0.0000000), wk =   0.1111111
        k(    9) = (   0.0304909  -0.0515698   0.0000000), wk =   0.1111111
        k(   10) = (   0.0304909  -0.0171899   0.0000000), wk =   0.1111111
        k(   11) = (   0.0609818   0.0343799   0.0000000), wk =   0.1111111
        k(   12) = (   0.0609818   0.0687598   0.0000000), wk =   0.1111111
        k(   13) = (   0.0609818   0.1031397   0.0000000), wk =   0.1111111
        k(   14) = (   0.0609818  -0.0687598   0.0000000), wk =   0.1111111
        k(   15) = (   0.0609818  -0.0343799   0.0000000), wk =   0.1111111
        k(   16) = (   0.0609818   0.0000000   0.0000000), wk =   0.1111111
        k(   17) = (  -0.0914727  -0.0515698   0.0000000), wk =   0.0555556
        k(   18) = (  -0.0914727  -0.0171899   0.0000000), wk =   0.1111111
        k(   19) = (  -0.0914727   0.0171899   0.0000000), wk =   0.1111111
        k(   20) = (  -0.0914727  -0.1547095   0.0000000), wk =   0.0555556

     Largest allocated arrays     est. size (Mb)     dimensions
     Largest temporary arrays     est. size (Mb)     dimensions

     Initial potential from superposition of free atoms
     Check: negative starting charge=   -0.774069

     starting charge  194.99972, renormalised to  204.00000

     negative rho (up, down):  8.098E-01 0.000E+00

     *
     * You are using vdW-DF for exchange-correlation in this calculation.
     * Please cite the following three references that made this development
     * possible:
     *
     *   M. Dion, H. Rydberg, E. Schroder, D. C. Langreth, and
     *   B. I. Lundqvist, Phys. Rev. Lett. 92, 246401 (2004).
     *
     *   T. Thonhauser, V. R. Cooper, S. Li, A. Puzder, P. Hyldgaard, and
     *   D. C. Langreth, Phys. Rev. B 76, 125112 (2007).
     *
     *   G. Roman-Perez and J. M. Soler, Phys. Rev. Lett. 103, 096102 (2009).
     *
     *
     * If you are using vdW-DF2, please also cite:
     *
     *   K. Lee, E. D. Murray, L. Kong, B. I. Lundqvist, and
     *   D. C. Langreth, Phys. Rev. B 82, 081101(R) (2010).
     *
     *
     * If you are calculating the stress with vdW-DF, please also cite:
     *
     *   R. Sabatini, E. Kucukbenli, B. Kolb, T. Thonhauser, and
     *   S. de Gironcoli, J. Phys.: Condens. Matter 24, 424209 (2012).
     *

     Carrying out vdW-DF run using the following parameters:

     Nqs =      20    Nr_points =    1024   r_max =   100.000
     q_mesh =
               0.00001000     0.04494208     0.09755937     0.15916263
               0.23128650     0.31572767     0.41458969     0.53033537
               0.66584808     0.82450364     1.01025438     1.22772762
               1.48234092     1.78043706     2.12944203     2.53805004
               3.01644009     3.57652955     4.23227104     5.00000000

     Gradients computed in reciprocal space

     Adding external electric field

     Computed dipole along edir(3) :
        Dipole               -0.0000 Ry au,         -0.0000 Debye
        Dipole field         -0.0000 Ry au

        Potential amp.        0.0000 Ry
        Total length         45.1678 bohr

     Starting wfc are  150 randomized atomic wfcs

     Self-consistent Calculation

     iteration #  1     ecut=    36.75 Ry     beta=0.10
     Davidson diagonalization with overlap
     ethr =  1.00E-02,  avg # of iterations =  8.7

[...]

     total energy              =   -3650.76993744 Ry
     Harris-Foulkes estimate   =   -3661.44059926 Ry
     estimated scf accuracy    <      59.14328389 Ry

[...]

     End of self-consistent calculation

          k = 0.0000 0.0000 0.0000 ( 16461 PWs)   bands (ev):

   -93.1249 -93.1175 -93.1120 -93.1115 -93.0624 -93.0620 -92.7937 -92.7935
   -92.7932 -92.7931 -92.7840 -92.7840 -92.7767 -92.7767 -92.7160 -92.7158
   -92.7155 -92.7154 -78.9162 -78.8755 -78.6061 -78.6055 -78.5657 -78.5650
   -40.9400 -40.7800 -40.7039 -40.6514 -40.6484 -40.6265 -40.5544 -40.3351
   -40.3255 -40.2820 -40.2645 -40.2605 -40.2543 -40.1911 -40.1549 -40.0923
   -40.0020 -40.0004 -13.7399 -13.6490 -13.6038 -13.5330 -13.5273 -13.5083
   -13.4973 -13.4159 -13.3803 -13.3683 -13.3567 -13.3311 -13.2558 -13.2481
   -13.2368 -13.2257 -13.1417 -13.1272 -13.1187 -13.1169 -13.1052 -13.0897
   -13.0889 -13.0556 -13.0537 -13.0530 -13.0213 -13.0204 -12.9516 -12.9352
    -9.2907  -7.3181  -5.8217  -5.2956  -3.9937  -3.8743  -3.0479  -2.7585
    -2.4618  -2.3482  -2.1642  -1.9345  -1.7366  -1.1538  -1.0835  -1.0576
    -0.8882  -0.4125  -0.0718   0.0547   0.4247   0.4440   0.9217   0.9577
     1.1212   1.2351   1.3037   1.3184   1.7155   1.9302   1.9442   2.0334
     2.2422   2.3213   2.4185   2.5989   3.0312   3.1404   3.1569   3.3235
     3.8311   3.9312   3.9715   4.0397   5.0913   5.1268   5.1502   5.4095
     5.6788   5.9744   6.0199   6.6103   7.2079   7.3917   8.1758   8.1833
     8.1982   8.3743   8.6707   8.7440

[...]

          k =-0.0915-0.0516 0.0000 ( 16514 PWs)   bands (ev):

[...]

     the Fermi energy is     1.7930 ev

!    total energy              =   -3652.17834383 Ry
     Harris-Foulkes estimate   =   -3652.17833911 Ry
     estimated scf accuracy    <       0.00000024 Ry

     The total energy is the sum of the following terms:

     one-electron contribution =  -25029.69433260 Ry
     hartree contribution      =   12512.71314310 Ry
     xc contribution           =    -623.44403702 Ry
     ewald contribution        =    9488.30849324 Ry
     electric field correction =       0.00000000 Ry
     smearing contrib. (-TS)   =      -0.06161055 Ry

     convergence has been achieved in  17 iterations

 BEEF-vdW xc energy contributions
           1 :   -555.996964784746
           2 :    511.457549420788
           3 :   -434.242781967977
[...]
     Using radial grid of  871 points,  6 beta functions with:
                l(1) =   0
                l(2) =   0
                l(3) =   1
                l(4) =   1
                l(5) =   2
                l(6) =   2
     Q(r) pseudized with  8 coefficients,  rinner =    1.250   1.250   1.250
                                                       1.250   1.250

     PseudoPot. # 2 for Re read from file:
     /afs/slac.stanford.edu/u/if/mamunm/psp/gbrv1.5pbe/Re.UPF
     MD5 check sum: 85f993410f3e006da9d71c142b4ad953
     Pseudo is Ultrasoft + core correction, Zval = 15.0
     Generated by new atomic code, or converted to UPF format
     Using radial grid of  981 points,  8 beta functions with:
                l(1) =   0
                l(2) =   0
                l(3) =   1
                l(4) =   1
                l(5) =   2
                l(6) =   2
                l(7) =   3
                l(8) =   3
     Q(r) pseudized with  8 coefficients,  rinner =    1.150   1.150   1.150
                                                       1.150   1.150   1.150
                                                       1.150

     vdW kernel table read from file vdW_kernel_table
     MD5 check sum: 095c7af220d748ca6e76c0b4c6cfb241

     atomic species   valence    mass     pseudopotential
        Ga1           19.00    69.72300     Ga( 1.00)
        Re1           15.00   186.20700     Re( 1.00)

     No symmetry found

   Cartesian axes

     site n.     atom                  positions (alat units)
         1           Ga1 tau(   1) = (   0.0000000   0.0000000  10.0000000  )
         2           Ga1 tau(   2) = (   2.7330551   0.0000000  10.0000000  )
         3           Re1 tau(   3) = (   1.3665276   2.4238974  10.0000000  )
         4           Re1 tau(   4) = (  -1.3665276   2.4238974  10.0000000  )
         5           Ga1 tau(   5) = (   2.7330551   1.5408223  12.2573119  )
         6           Ga1 tau(   6) = (  -0.0000000   1.5408223  12.2573119  )
         7           Re1 tau(   7) = (  -1.3665276   3.9647197  12.2573119  )
         8           Re1 tau(   8) = (   1.3665276   3.9647197  12.2573119  )
         9           Ga1 tau(   9) = (  -0.0014813   2.8456452  14.7670843  )
        10           Ga1 tau(  10) = (   2.7316090   2.8455481  14.7670149  )
        11           Re1 tau(  11) = (   4.0981217   0.3729755  14.3584556  )
        12           Re1 tau(  12) = (   1.3650097   0.3730028  14.3584823  )

     number of k points=    20  Fermi-Dirac smearing, width (Ry)=  0.0110
                       cart. coord. in units 2pi/alat
        k(    1) = (   0.0000000   0.0000000   0.0000000), wk =   0.0555556
        k(    2) = (   0.0000000   0.0343799   0.0000000), wk =   0.1111111
        k(    3) = (   0.0000000   0.0687598   0.0000000), wk =   0.1111111
        k(    4) = (   0.0000000  -0.1031397   0.0000000), wk =   0.0555556
        k(    5) = (   0.0304909   0.0171899   0.0000000), wk =   0.1111111
        k(    6) = (   0.0304909   0.0515698   0.0000000), wk =   0.1111111
        k(    7) = (   0.0304909   0.0859497   0.0000000), wk =   0.1111111
        k(    8) = (   0.0304909  -0.0859497   0.0000000), wk =   0.1111111
        k(    9) = (   0.0304909  -0.0515698   0.0000000), wk =   0.1111111
        k(   10) = (   0.0304909  -0.0171899   0.0000000), wk =   0.1111111
        k(   11) = (   0.0609818   0.0343799   0.0000000), wk =   0.1111111
        k(   12) = (   0.0609818   0.0687598   0.0000000), wk =   0.1111111
        k(   13) = (   0.0609818   0.1031397   0.0000000), wk =   0.1111111
        k(   14) = (   0.0609818  -0.0687598   0.0000000), wk =   0.1111111
        k(   15) = (   0.0609818  -0.0343799   0.0000000), wk =   0.1111111
        k(   16) = (   0.0609818   0.0000000   0.0000000), wk =   0.1111111
        k(   17) = (  -0.0914727  -0.0515698   0.0000000), wk =   0.0555556
        k(   18) = (  -0.0914727  -0.0171899   0.0000000), wk =   0.1111111
        k(   19) = (  -0.0914727   0.0171899   0.0000000), wk =   0.1111111
        k(   20) = (  -0.0914727  -0.1547095   0.0000000), wk =   0.0555556

     Largest allocated arrays     est. size (Mb)     dimensions
     Largest temporary arrays     est. size (Mb)     dimensions

     Initial potential from superposition of free atoms
     Check: negative starting charge=   -0.775010

     starting charge  194.99972, renormalised to  204.00000

[...]

     *
     * You are using vdW-DF for exchange-correlation in this calculation.
     * Please cite the following three references that made this development
     * possible:
     *
     *   M. Dion, H. Rydberg, E. Schroder, D. C. Langreth, and
     *   B. I. Lundqvist, Phys. Rev. Lett. 92, 246401 (2004).
     *
     *   T. Thonhauser, V. R. Cooper, S. Li, A. Puzder, P. Hyldgaard, and
     *   D. C. Langreth, Phys. Rev. B 76, 125112 (2007).
     *
     *   G. Roman-Perez and J. M. Soler, Phys. Rev. Lett. 103, 096102 (2009).
     *
     *
     * If you are using vdW-DF2, please also cite:
     *
     *   K. Lee, E. D. Murray, L. Kong, B. I. Lundqvist, and
     *   D. C. Langreth, Phys. Rev. B 82, 081101(R) (2010).
     *
     *
     * If you are calculating the stress with vdW-DF, please also cite:
     *
     *   R. Sabatini, E. Kucukbenli, B. Kolb, T. Thonhauser, and
     *   S. de Gironcoli, J. Phys.: Condens. Matter 24, 424209 (2012).
     *

     Carrying out vdW-DF run using the following parameters:

     Nqs =      20    Nr_points =    1024   r_max =   100.000
     q_mesh =
               0.00001000     0.04494208     0.09755937     0.15916263
               0.23128650     0.31572767     0.41458969     0.53033537
               0.66584808     0.82450364     1.01025438     1.22772762
               1.48234092     1.78043706     2.12944203     2.53805004
               3.01644009     3.57652955     4.23227104     5.00000000

     Gradients computed in reciprocal space

[...]

     Starting wfc are  150 randomized atomic wfcs

     Self-consistent Calculation

[...]

     total energy              =   -3652.21989686 Ry
     Harris-Foulkes estimate   =   -3652.21989453 Ry
     estimated scf accuracy    <       0.00000266 Ry

     iteration # 17     ecut=    36.75 Ry     beta=0.10
     Davidson diagonalization with overlap
     ethr =  1.30E-09,  avg # of iterations =  2.6

[...]

     negative rho (up, down):  7.861E-01 0.000E+00

     Adding external electric field

     Computed dipole along edir(3) :
        Dipole                0.1155 Ry au,          0.2935 Debye
        Dipole field          0.0003 Ry au

        Potential amp.       -0.0299 Ry
        Total length         45.1678 bohr

     End of self-consistent calculation

[...]

          k = 0.0610 0.0000 0.0000 ( 16472 PWs)   bands (ev):

[...]

          k =-0.0915-0.1547 0.0000 ( 16514 PWs)   bands (ev):

   -92.9983 -92.9983 -92.9903 -92.9903 -92.9394 -92.9393 -92.8316 -92.8316
   -92.7865 -92.7865 -92.7251 -92.7251 -92.6645 -92.6645 -92.6496 -92.6496
   -92.5834 -92.5834 -78.7785 -78.7785 -78.5124 -78.5124 -78.3805 -78.3805
   -40.8790 -40.8790 -40.5042 -40.5042 -40.4748 -40.4747 -40.2606 -40.2606
   -40.2314 -40.2313 -40.1376 -40.1376 -40.1206 -40.1206 -40.0375 -40.0375
   -39.8496 -39.8495 -13.4405 -13.4405 -13.4013 -13.4013 -13.3782 -13.3782
   -13.3666 -13.3666 -13.3478 -13.3478 -13.1710 -13.1710 -13.1538 -13.1538
   -13.1092 -13.1092 -13.1012 -13.1012 -13.0888 -13.0888 -13.0309 -13.0309
   -13.0187 -13.0187 -12.9925 -12.9925 -12.9674 -12.9674 -12.9512 -12.9512
    -7.3256  -7.3256  -5.6980  -5.6979  -4.6082  -4.6082  -3.0274  -3.0273
    -2.1039  -2.1038  -1.3330  -1.3330  -1.1281  -1.1280  -0.8354  -0.8353
    -0.6430  -0.6430  -0.3533  -0.3533   0.2581   0.2582   0.4992   0.4992
     0.7899   0.7899   1.1182   1.1182   1.2773   1.2773   1.8187   1.8189
     2.3184   2.3185   2.8405   2.8405   3.0237   3.0238   3.4412   3.4413
     4.2378   4.2378   4.8715   4.8716   5.5434   5.5435   6.2567   6.2568
     6.4800   6.4800   7.1415   7.1416   7.3528   7.3528   7.6950   7.6951
     8.0794   8.0794   8.5765   8.5765

     the Fermi energy is     1.9412 ev

!    total energy              =   -3652.21990095 Ry
     Harris-Foulkes estimate   =   -3652.21989678 Ry
     estimated scf accuracy    <       0.00000038 Ry

     The total energy is the sum of the following terms:

     one-electron contribution =  -24773.59947721 Ry
     hartree contribution      =   12385.33008762 Ry
     xc contribution           =    -623.51945986 Ry
     ewald contribution        =    9359.62270021 Ry
     electric field correction =       0.00003823 Ry
     smearing contrib. (-TS)   =      -0.05378994 Ry

     convergence has been achieved in  17 iterations

 BEEF-vdW xc energy contributions
           1 :   -556.073250918182
           2 :    511.535030820292
           3 :   -434.319997141114
           4 :    343.043238794824
           5 :   -255.789126948949
           6 :    184.215024071928
           7 :   -131.455951841214
           8 :    94.0642601163577
           9 :   -66.1941849464878
          10 :    43.4092433368900
          11 :   -24.2536076248120
          12 :    9.40760050844926
          13 :   0.282659538205280
          14 :   -5.24935973447111
          15 :    7.23123289173441
          16 :   -8.19990372336702
          17 :    9.23112039208797
          18 :   -10.2132154350587
          19 :    10.4899744399261
          20 :   -9.79613580044099
          21 :    8.68990082098492
          22 :   -8.16984113269166
          23 :    8.84414723044370
          24 :   -10.3698586312638
          25 :    11.6389342711416
          26 :   -11.5822656323438
          27 :    9.97158998407065
          28 :   -7.60552345029294
          29 :    5.74098349006886
          30 :   -5.20336829576274
          31 :   -43.6231755944597
          32 :   -31.2126883879525

     Forces acting on atoms (Ry/au):

     negative rho (up, down):  7.861E-01 0.000E+00
     atom    1 type  1   force =    -0.00002120   -0.00016229   -0.03842626
     atom    2 type  1   force =    -0.00001895   -0.00017613   -0.03842408
     atom    3 type  2   force =    -0.00003797    0.00863137    0.03938771
     atom    4 type  2   force =    -0.00004027    0.00863222    0.03939458
     atom    5 type  1   force =    -0.00002631    0.01951389   -0.00808338
     atom    6 type  1   force =    -0.00005097    0.01951755   -0.00807808
     atom    7 type  2   force =     0.00009320   -0.02829368    0.00692927
     atom    8 type  2   force =     0.00008885   -0.02830484    0.00691704
     atom    9 type  1   force =     0.00009382   -0.00052475   -0.00060660
     atom   10 type  1   force =     0.00008041   -0.00051583   -0.00059623
     atom   11 type  2   force =    -0.00008117    0.00084529    0.00079685
     atom   12 type  2   force =    -0.00007942    0.00083721    0.00078919

     Total force =     0.093804     Total SCF correction =     0.002430

     entering subroutine stress ...

     negative rho (up, down):  7.861E-01 0.000E+00
          total   stress  (Ry/bohr**3)                   (kbar)     P=  -21.25
  -0.00014447  -0.00000003  -0.00000006        -21.25     -0.00     -0.01
  -0.00000003  -0.00027333  -0.00001688         -0.00    -40.21     -2.48
  -0.00000006  -0.00001688  -0.00001552         -0.01     -2.48     -2.28

 !ASE

     Writing output data file calc.save

     General routines

     Parallel routines

   This run was terminated on:   0:54:32  25Dec2018

   JOB DONE.
Job  /afs/slac/g/suncat/bin/suncat-tsmpirun -x LD_LIBRARY_PATH -wdir /scratch/qe108979_qOccN pw.x -in pw.inp

TID   HOST_NAME   COMMAND_LINE            STATUS            TERMINATION_TIME
00000 suncat0015 pw.x -in pw.inp   Done                     12/25/2018 00:54:32
00001 suncat0015 pw.x -in pw.inp   Done                     12/25/2018 00:54:32
00002 suncat0015 pw.x -in pw.inp   Done                     12/25/2018 00:54:32
00003 suncat0015 pw.x -in pw.inp   Done                     12/25/2018 00:54:32
00004 suncat0015 pw.x -in pw.inp   Done                     12/25/2018 00:54:32
00005 suncat0015 pw.x -in pw.inp   Done                     12/25/2018 00:54:32
00006 suncat0015 pw.x -in pw.inp   Done                     12/25/2018 00:54:32
00007 suncat0015 pw.x -in pw.inp   Done                     12/25/2018 00:54:32
00008 suncat0188 pw.x -in pw.inp   Done                     12/25/2018 00:54:32
00009 suncat0188 pw.x -in pw.inp   Done                     12/25/2018 00:54:32
00010 suncat0188 pw.x -in pw.inp   Done                     12/25/2018 00:54:32
00011 suncat0188 pw.x -in pw.inp   Done                     12/25/2018 00:54:32
00012 suncat0188 pw.x -in pw.inp   Done                     12/25/2018 00:54:32
00013 suncat0188 pw.x -in pw.inp   Done                     12/25/2018 00:54:32
00014 suncat0188 pw.x -in pw.inp   Done                     12/25/2018 00:54:32
00015 suncat0188 pw.x -in pw.inp   Done                     12/25/2018 00:54:32
00016 suncat0143 pw.x -in pw.inp   Done                     12/25/2018 00:54:32
00017 suncat0143 pw.x -in pw.inp   Done                     12/25/2018 00:54:32
00018 suncat0143 pw.x -in pw.inp   Done                     12/25/2018 00:54:32
00019 suncat0143 pw.x -in pw.inp   Done                     12/25/2018 00:54:32
00020 suncat0143 pw.x -in pw.inp   Done                     12/25/2018 00:54:32
00021 suncat0143 pw.x -in pw.inp   Done                     12/25/2018 00:54:32
00022 suncat0143 pw.x -in pw.inp   Done                     12/25/2018 00:54:32
00023 suncat0143 pw.x -in pw.inp   Done                     12/25/2018 00:54:32
00024 suncat0138 pw.x -in pw.inp   Done                     12/25/2018 00:54:32
00025 suncat0138 pw.x -in pw.inp   Done                     12/25/2018 00:54:32
00026 suncat0138 pw.x -in pw.inp   Done                     12/25/2018 00:54:32
00027 suncat0138 pw.x -in pw.inp   Done                     12/25/2018 00:54:32
00028 suncat0138 pw.x -in pw.inp   Done                     12/25/2018 00:54:32
00029 suncat0138 pw.x -in pw.inp   Done                     12/25/2018 00:54:32
00030 suncat0138 pw.x -in pw.inp   Done                     12/25/2018 00:54:32
00031 suncat0138 pw.x -in pw.inp   Done                     12/25/2018 00:54:32
00032 suncat0251 pw.x -in pw.inp   Done                     12/25/2018 00:54:32
00033 suncat0251 pw.x -in pw.inp   Done                     12/25/2018 00:54:32
00034 suncat0251 pw.x -in pw.inp   Done                     12/25/2018 00:54:32
00035 suncat0251 pw.x -in pw.inp   Done                     12/25/2018 00:54:32
00036 suncat0251 pw.x -in pw.inp   Done                     12/25/2018 00:54:32
00037 suncat0251 pw.x -in pw.inp   Done                     12/25/2018 00:54:32
00038 suncat0251 pw.x -in pw.inp   Done                     12/25/2018 00:54:32
00039 suncat0251 pw.x -in pw.inp   Done                     12/25/2018 00:54:32
00040 suncat0250 pw.x -in pw.inp   Done                     12/25/2018 00:54:32
00041 suncat0250 pw.x -in pw.inp   Done                     12/25/2018 00:54:32
00042 suncat0250 pw.x -in pw.inp   Done                     12/25/2018 00:54:32
00043 suncat0250 pw.x -in pw.inp   Done                     12/25/2018 00:54:32
00044 suncat0250 pw.x -in pw.inp   Done                     12/25/2018 00:54:32
00045 suncat0250 pw.x -in pw.inp   Done                     12/25/2018 00:54:32
00046 suncat0250 pw.x -in pw.inp   Done                     12/25/2018 00:54:32
00047 suncat0250 pw.x -in pw.inp   Done                     12/25/2018 00:54:32
00048 suncat0249 pw.x -in pw.inp   Done                     12/25/2018 00:54:32
00049 suncat0249 pw.x -in pw.inp   Done                     12/25/2018 00:54:32
00050 suncat0249 pw.x -in pw.inp   Done                     12/25/2018 00:54:32
00051 suncat0249 pw.x -in pw.inp   Done                     12/25/2018 00:54:32
00052 suncat0249 pw.x -in pw.inp   Done                     12/25/2018 00:54:32
00053 suncat0249 pw.x -in pw.inp   Done                     12/25/2018 00:54:32
00054 suncat0249 pw.x -in pw.inp   Done                     12/25/2018 00:54:32
00055 suncat0249 pw.x -in pw.inp   Done                     12/25/2018 00:54:32
00056 suncat0231 pw.x -in pw.inp   Done                     12/25/2018 00:54:32
00057 suncat0231 pw.x -in pw.inp   Done                     12/25/2018 00:54:32
00058 suncat0231 pw.x -in pw.inp   Done                     12/25/2018 00:54:32
00059 suncat0231 pw.x -in pw.inp   Done                     12/25/2018 00:54:32
00060 suncat0231 pw.x -in pw.inp   Done                     12/25/2018 00:54:32
00061 suncat0231 pw.x -in pw.inp   Done                     12/25/2018 00:54:32
00062 suncat0231 pw.x -in pw.inp   Done                     12/25/2018 00:54:32
00063 suncat0231 pw.x -in pw.inp   Done                     12/25/2018 00:54:32