     Program PWSCF v.5.1rc2 (svn rev. 11289) starts on 25Dec2018 at  7:40:46

     Current dimensions of program PWSCF are:
     Max number of different atomic species (ntypx) = 10
     Max number of k-points (npk) =  40000
     Max angular momentum in pseudopotentials (lmaxx) =  3
     Presently stress not available with electric field

     IMPORTANT: XC functional enforced from input :
     Exchange-correlation      = BEEF-VDW ( 1  4 27 13 2)
     Any further DFT definition will be discarded
     Please, verify this is what you really want

     Subspace diagonalization in iterative solution of the eigenvalue problem:
     a serial algorithm will be used

     Found symmetry operation: I + (  0.5000  0.5000  0.0000)
     This is a supercell, fractional translations are disabled

     bravais-lattice index     =            0
     lattice parameter (alat)  =       1.8897  a.u.
     unit-cell volume          =    5245.2249 (a.u.)^3
     number of atoms/cell      =           12
     number of atomic types    =            2
     number of electrons       =       168.00
     number of Kohn-Sham states=          114
     kinetic-energy cutoff     =      36.7493  Ry
     charge density cutoff     =     367.4932  Ry
     convergence threshold     =      1.0E-06
     mixing beta               =       0.1000
     number of iterations used =           10  plain     mixing
     Exchange-correlation      = BEEF-VDW ( 1  4 27 13 2)
     nstep                     =           50

     celldm(1)=   1.889726  celldm(2)=   0.000000  celldm(3)=   0.000000
     celldm(4)=   0.000000  celldm(5)=   0.000000  celldm(6)=   0.000000

     crystal axes: (cart. coord. in units of alat)
               a(1) = (   5.845125   0.000000   0.000000 )
               a(2) = (   2.347142   5.353168   0.000000 )
               a(3) = (   0.000000   0.000000  24.840646 )

     reciprocal axes: (cart. coord. in units 2 pi/alat)
               b(1) = (  0.171083 -0.075013  0.000000 )
               b(2) = (  0.000000  0.186805  0.000000 )
               b(3) = (  0.000000  0.000000  0.040257 )

     PseudoPot. # 1 for Zr read from file:
     /afs/slac.stanford.edu/u/if/mamunm/psp/gbrv1.5pbe/Zr.UPF
     MD5 check sum: 5db81b1e868ab7776c4564c113de050b
     Pseudo is Ultrasoft + core correction, Zval = 12.0
     Generated by new atomic code, or converted to UPF format
     Using radial grid of  887 points,  6 beta functions with:
                l(1) =   0
                l(2) =   0
                l(3) =   1
                l(4) =   1
                l(5) =   2
                l(6) =   2
     Q(r) pseudized with  6 coefficients,  rinner =    1.200   1.200   1.200
                                                       1.200   1.200

     PseudoPot. # 2 for Pd read from file:
     /afs/slac.stanford.edu/u/if/mamunm/psp/gbrv1.5pbe/Pd.UPF
     MD5 check sum: 2d733d2bc2cbfd217af676df1668a4bc
     Pseudo is Ultrasoft + core correction, Zval = 16.0
     Generated by new atomic code, or converted to UPF format
     Using radial grid of  887 points,  6 beta functions with:
                l(1) =   0
                l(2) =   0
                l(3) =   1
                l(4) =   1
                l(5) =   2
                l(6) =   2
     Q(r) pseudized with  8 coefficients,  rinner =    1.130   1.130   1.130
                                                       1.130   1.130

     vdW kernel table read from file vdW_kernel_table
     MD5 check sum: 095c7af220d748ca6e76c0b4c6cfb241

     atomic species   valence    mass     pseudopotential
        Zr1           12.00    91.22400     Zr( 1.00)
        Pd1           16.00   106.42000     Pd( 1.00)

     No symmetry found

   Cartesian axes

     site n.     atom                  positions (alat units)
         1           Zr1 tau(   1) = (   0.0000000   0.0000000  10.0000000  )
         2           Zr1 tau(   2) = (   4.0961335   2.6765838  10.0000000  )
         3           Pd1 tau(   3) = (   2.9225623   0.0000000  10.0000000  )
         4           Pd1 tau(   4) = (   1.1735712   2.6765838  10.0000000  )
         5           Zr1 tau(   5) = (   5.8451246   3.8194473  12.4203231  )
         6           Zr1 tau(   6) = (   1.7489911   1.1428635  12.4203231  )
         7           Pd1 tau(   7) = (   2.9225623   3.8194473  12.4203231  )
         8           Pd1 tau(   8) = (   4.6715534   1.1428635  12.4203231  )
         9           Zr1 tau(   9) = (   3.4979822   2.2857270  14.8406463  )
        10           Zr1 tau(  10) = (   7.5941157   4.9623108  14.8406463  )
        11           Pd1 tau(  11) = (   6.4205445   2.2857270  14.8406463  )
        12           Pd1 tau(  12) = (   4.6715534   4.9623108  14.8406463  )

     number of k points=    20  Fermi-Dirac smearing, width (Ry)=  0.0110
                       cart. coord. in units 2pi/alat
        k(    1) = (   0.0000000   0.0000000   0.0000000), wk =   0.0555556
        k(    2) = (   0.0000000   0.0311342   0.0000000), wk =   0.1111111
        k(    3) = (   0.0000000   0.0622684   0.0000000), wk =   0.1111111
        k(    4) = (   0.0000000  -0.0934026   0.0000000), wk =   0.0555556
        k(    5) = (   0.0285138  -0.0125021   0.0000000), wk =   0.1111111
        k(    6) = (   0.0285138   0.0186321   0.0000000), wk =   0.1111111
        k(    7) = (   0.0285138   0.0497663   0.0000000), wk =   0.1111111
        k(    8) = (   0.0285138  -0.1059048   0.0000000), wk =   0.1111111
        k(    9) = (   0.0285138  -0.0747705   0.0000000), wk =   0.1111111
        k(   10) = (   0.0285138  -0.0436363   0.0000000), wk =   0.1111111
        k(   11) = (   0.0570276  -0.0250042   0.0000000), wk =   0.1111111
        k(   12) = (   0.0570276   0.0061300   0.0000000), wk =   0.1111111
        k(   13) = (   0.0570276   0.0372642   0.0000000), wk =   0.1111111
        k(   14) = (   0.0570276  -0.1184069   0.0000000), wk =   0.1111111
        k(   15) = (   0.0570276  -0.0872727   0.0000000), wk =   0.1111111
        k(   16) = (   0.0570276  -0.0561384   0.0000000), wk =   0.1111111
        k(   17) = (  -0.0855414   0.0375064   0.0000000), wk =   0.0555556
        k(   18) = (  -0.0855414   0.0686406   0.0000000), wk =   0.1111111
        k(   19) = (  -0.0855414   0.0997748   0.0000000), wk =   0.1111111
        k(   20) = (  -0.0855414  -0.0558963   0.0000000), wk =   0.0555556

     Largest allocated arrays     est. size (Mb)     dimensions
     Largest temporary arrays     est. size (Mb)     dimensions

     Initial potential from superposition of free atoms
     Check: negative starting charge=   -0.817709

     starting charge  164.98706, renormalised to  168.00000

     negative rho (up, down):  8.326E-01 0.000E+00

     *
     * You are using vdW-DF for exchange-correlation in this calculation.
     * Please cite the following three references that made this development
     * possible:
     *
     *   M. Dion, H. Rydberg, E. Schroder, D. C. Langreth, and
     *   B. I. Lundqvist, Phys. Rev. Lett. 92, 246401 (2004).
     *
     *   T. Thonhauser, V. R. Cooper, S. Li, A. Puzder, P. Hyldgaard, and
     *   D. C. Langreth, Phys. Rev. B 76, 125112 (2007).
     *
     *   G. Roman-Perez and J. M. Soler, Phys. Rev. Lett. 103, 096102 (2009).
     *
     *
     * If you are using vdW-DF2, please also cite:
     *
     *   K. Lee, E. D. Murray, L. Kong, B. I. Lundqvist, and
     *   D. C. Langreth, Phys. Rev. B 82, 081101(R) (2010).
     *
     *
     * If you are calculating the stress with vdW-DF, please also cite:
     *
     *   R. Sabatini, E. Kucukbenli, B. Kolb, T. Thonhauser, and
     *   S. de Gironcoli, J. Phys.: Condens. Matter 24, 424209 (2012).
     *

     Carrying out vdW-DF run using the following parameters:

     Nqs =      20    Nr_points =    1024   r_max =   100.000
     q_mesh =
               0.00001000     0.04494208     0.09755937     0.15916263
               0.23128650     0.31572767     0.41458969     0.53033537
               0.66584808     0.82450364     1.01025438     1.22772762
               1.48234092     1.78043706     2.12944203     2.53805004
               3.01644009     3.57652955     4.23227104     5.00000000

     Gradients computed in reciprocal space

     Adding external electric field

     Computed dipole along edir(3) :
        Dipole               -0.0000 Ry au,         -0.0000 Debye
        Dipole field         -0.0000 Ry au

        Potential amp.        0.0000 Ry
        Total length         45.7685 bohr

     Starting wfc are  150 randomized atomic wfcs

     Self-consistent Calculation

     iteration #  1     ecut=    36.75 Ry     beta=0.10
     Davidson diagonalization with overlap
     ethr =  1.00E-02,  avg # of iterations =  2.5

[...]

     total energy              =   -1796.20796250 Ry
     Harris-Foulkes estimate   =   -1799.88092496 Ry
     estimated scf accuracy    <      21.25228623 Ry

[...]

     End of self-consistent calculation

          k = 0.0000 0.0000 0.0000 ( 19777 PWs)   bands (ev):

   -48.9933 -48.9877 -48.9500 -48.9333 -48.9274 -48.9094 -48.7389 -48.7382
   -48.7350 -48.7346 -48.6438 -48.6418 -48.6034 -48.6033 -48.5725 -48.5671
   -48.5641 -48.5638 -48.0191 -48.0126 -47.9739 -47.9711 -47.7576 -47.7162
   -26.1105 -26.0726 -26.0710 -26.0689 -26.0620 -26.0141 -25.9772 -25.9534
   -25.9379 -25.9363 -25.9049 -25.7484 -25.6860 -25.6208 -25.5932 -25.5920
   -25.5677 -25.4465  -4.0915  -2.8707  -2.7763  -2.6799  -2.6499  -2.5902
    -2.5342  -2.5257  -2.4717  -2.3974  -2.1774  -2.1214  -2.0967  -2.0956
    -1.9728  -1.4619  -1.4524  -1.4522  -1.4267  -1.4261  -1.3051  -1.2473
    -1.1184  -1.1009  -1.0090  -0.7814  -0.7106  -0.6501  -0.5939  -0.4807
    -0.4530  -0.0181   0.3653   1.0243   1.3693   1.3732   1.3916   1.6149
     1.6867   1.7731   1.8367   2.0783   2.1060   2.3664   2.5337   2.5738
     2.6337   2.7152   2.8030   3.2535   3.4646   3.4845   3.4876   3.8074
     3.9081   3.9667   4.1859   4.1999   4.2168   4.6175   4.6579   4.9196
     4.9980   5.2202   5.2410   5.2974   5.3278   5.4416   5.4873   5.4951
     5.6886   5.7142

[...]

          k =-0.0855 0.0375 0.0000 ( 19724 PWs)   bands (ev):

[...]

     the Fermi energy is     1.8367 ev

!    total energy              =   -1797.60378305 Ry
     Harris-Foulkes estimate   =   -1797.60378854 Ry
     estimated scf accuracy    <       0.00000013 Ry

     The total energy is the sum of the following terms:

     one-electron contribution =  -13310.29672029 Ry
     hartree contribution      =    6674.09599390 Ry
     xc contribution           =    -305.18664700 Ry
     ewald contribution        =    5143.86996508 Ry
     electric field correction =       0.00000000 Ry
     smearing contrib. (-TS)   =      -0.08637473 Ry

     convergence has been achieved in  17 iterations

 BEEF-vdW xc energy contributions
           1 :   -264.269230615155
           2 :    240.822840025735
           3 :   -200.846206992143
           4 :    155.097907154686
           5 :   -113.869023342887
           6 :    83.5290799680195
           7 :   -65.2578441752407
           8 :    56.0537253539708
           9 :   -51.1287240822821
          10 :    46.3945003682585
          11 :   -39.9793855731906
[...]
     MD5 check sum: 5db81b1e868ab7776c4564c113de050b
     Pseudo is Ultrasoft + core correction, Zval = 12.0
     Generated by new atomic code, or converted to UPF format
     Using radial grid of  887 points,  6 beta functions with:
                l(1) =   0
                l(2) =   0
                l(3) =   1
                l(4) =   1
                l(5) =   2
                l(6) =   2
     Q(r) pseudized with  6 coefficients,  rinner =    1.200   1.200   1.200
                                                       1.200   1.200

     PseudoPot. # 2 for Pd read from file:
     /afs/slac.stanford.edu/u/if/mamunm/psp/gbrv1.5pbe/Pd.UPF
     MD5 check sum: 2d733d2bc2cbfd217af676df1668a4bc
     Pseudo is Ultrasoft + core correction, Zval = 16.0
     Generated by new atomic code, or converted to UPF format
     Using radial grid of  887 points,  6 beta functions with:
                l(1) =   0
                l(2) =   0
                l(3) =   1
                l(4) =   1
                l(5) =   2
                l(6) =   2
     Q(r) pseudized with  8 coefficients,  rinner =    1.130   1.130   1.130
                                                       1.130   1.130

     vdW kernel table read from file vdW_kernel_table
     MD5 check sum: 095c7af220d748ca6e76c0b4c6cfb241

     atomic species   valence    mass     pseudopotential
        Zr1           12.00    91.22400     Zr( 1.00)
        Pd1           16.00   106.42000     Pd( 1.00)

     No symmetry found

   Cartesian axes

     site n.     atom                  positions (alat units)
         1           Zr1 tau(   1) = (   0.0000000   0.0000000  10.0000000  )
         2           Zr1 tau(   2) = (   4.0961335   2.6765838  10.0000000  )
         3           Pd1 tau(   3) = (   2.9225623   0.0000000  10.0000000  )
         4           Pd1 tau(   4) = (   1.1735712   2.6765838  10.0000000  )
         5           Zr1 tau(   5) = (   5.8451246   3.8194473  12.4203231  )
         6           Zr1 tau(   6) = (   1.7489911   1.1428635  12.4203231  )
         7           Pd1 tau(   7) = (   2.9225623   3.8194473  12.4203231  )
         8           Pd1 tau(   8) = (   4.6715534   1.1428635  12.4203231  )
         9           Zr1 tau(   9) = (   3.7177333   2.4293219  14.8119418  )
        10           Zr1 tau(  10) = (   7.8138697   5.1059053  14.8119385  )
        11           Pd1 tau(  11) = (   6.6336118   2.4249535  14.7258171  )
        12           Pd1 tau(  12) = (   4.8846212   5.1015362  14.7258174  )

     number of k points=    20  Fermi-Dirac smearing, width (Ry)=  0.0110
                       cart. coord. in units 2pi/alat
        k(    1) = (   0.0000000   0.0000000   0.0000000), wk =   0.0555556
        k(    2) = (   0.0000000   0.0311342   0.0000000), wk =   0.1111111
        k(    3) = (   0.0000000   0.0622684   0.0000000), wk =   0.1111111
        k(    4) = (   0.0000000  -0.0934026   0.0000000), wk =   0.0555556
        k(    5) = (   0.0285138  -0.0125021   0.0000000), wk =   0.1111111
        k(    6) = (   0.0285138   0.0186321   0.0000000), wk =   0.1111111
        k(    7) = (   0.0285138   0.0497663   0.0000000), wk =   0.1111111
        k(    8) = (   0.0285138  -0.1059048   0.0000000), wk =   0.1111111
        k(    9) = (   0.0285138  -0.0747705   0.0000000), wk =   0.1111111
        k(   10) = (   0.0285138  -0.0436363   0.0000000), wk =   0.1111111
        k(   11) = (   0.0570276  -0.0250042   0.0000000), wk =   0.1111111
        k(   12) = (   0.0570276   0.0061300   0.0000000), wk =   0.1111111
        k(   13) = (   0.0570276   0.0372642   0.0000000), wk =   0.1111111
        k(   14) = (   0.0570276  -0.1184069   0.0000000), wk =   0.1111111
        k(   15) = (   0.0570276  -0.0872727   0.0000000), wk =   0.1111111
        k(   16) = (   0.0570276  -0.0561384   0.0000000), wk =   0.1111111
        k(   17) = (  -0.0855414   0.0375064   0.0000000), wk =   0.0555556
        k(   18) = (  -0.0855414   0.0686406   0.0000000), wk =   0.1111111
        k(   19) = (  -0.0855414   0.0997748   0.0000000), wk =   0.1111111
        k(   20) = (  -0.0855414  -0.0558963   0.0000000), wk =   0.0555556

     Largest allocated arrays     est. size (Mb)     dimensions
     Largest temporary arrays     est. size (Mb)     dimensions

     Initial potential from superposition of free atoms
     Check: negative starting charge=   -0.818971

     starting charge  164.98706, renormalised to  168.00000

[...]

     *
     * You are using vdW-DF for exchange-correlation in this calculation.
     * Please cite the following three references that made this development
     * possible:
     *
     *   M. Dion, H. Rydberg, E. Schroder, D. C. Langreth, and
     *   B. I. Lundqvist, Phys. Rev. Lett. 92, 246401 (2004).
     *
     *   T. Thonhauser, V. R. Cooper, S. Li, A. Puzder, P. Hyldgaard, and
     *   D. C. Langreth, Phys. Rev. B 76, 125112 (2007).
     *
     *   G. Roman-Perez and J. M. Soler, Phys. Rev. Lett. 103, 096102 (2009).
     *
     *
     * If you are using vdW-DF2, please also cite:
     *
     *   K. Lee, E. D. Murray, L. Kong, B. I. Lundqvist, and
     *   D. C. Langreth, Phys. Rev. B 82, 081101(R) (2010).
     *
     *
     * If you are calculating the stress with vdW-DF, please also cite:
     *
     *   R. Sabatini, E. Kucukbenli, B. Kolb, T. Thonhauser, and
     *   S. de Gironcoli, J. Phys.: Condens. Matter 24, 424209 (2012).
     *

     Carrying out vdW-DF run using the following parameters:

     Nqs =      20    Nr_points =    1024   r_max =   100.000
     q_mesh =
               0.00001000     0.04494208     0.09755937     0.15916263
               0.23128650     0.31572767     0.41458969     0.53033537
               0.66584808     0.82450364     1.01025438     1.22772762
               1.48234092     1.78043706     2.12944203     2.53805004
               3.01644009     3.57652955     4.23227104     5.00000000

     Gradients computed in reciprocal space

[...]

     Starting wfc are  150 randomized atomic wfcs

     Self-consistent Calculation

[...]

     total energy              =   -1797.61032857 Ry
     Harris-Foulkes estimate   =   -1797.61033048 Ry
     estimated scf accuracy    <       0.00000110 Ry

     iteration # 18     ecut=    36.75 Ry     beta=0.10
     Davidson diagonalization with overlap
     ethr =  6.52E-10,  avg # of iterations =  2.4

[...]

     negative rho (up, down):  8.533E-01 0.000E+00

     Adding external electric field

     Computed dipole along edir(3) :
        Dipole                0.0395 Ry au,          0.1005 Debye
        Dipole field          0.0001 Ry au

        Potential amp.       -0.0087 Ry
        Total length         45.7685 bohr

     End of self-consistent calculation

[...]

          k = 0.0570-0.0561 0.0000 ( 19722 PWs)   bands (ev):

[...]

          k =-0.0855-0.0559 0.0000 ( 19670 PWs)   bands (ev):

   -48.9983 -48.9874 -48.9616 -48.9608 -48.9509 -48.9174 -48.8360 -48.8228
   -48.7781 -48.7327 -48.7282 -48.7200 -48.7005 -48.6855 -48.5995 -48.5547
   -48.5237 -48.5179 -47.9960 -47.9599 -47.9401 -47.9041 -47.7270 -47.6907
   -26.0958 -26.0600 -26.0336 -26.0318 -26.0159 -25.9889 -25.9788 -25.9289
   -25.9270 -25.9228 -25.8651 -25.7110 -25.6657 -25.6266 -25.5825 -25.5720
   -25.5280 -25.4365  -2.6998  -2.5514  -2.1899  -2.1576  -2.0990  -2.0429
    -2.0055  -1.9425  -1.9218  -1.8196  -1.8117  -1.6626  -1.6205  -1.5944
    -1.5117  -1.4765  -1.3453  -1.2967  -1.1954  -1.1597  -1.1003  -1.0504
    -0.9936  -0.9452  -0.9071  -0.8570  -0.8452  -0.7619  -0.6828  -0.6221
    -0.5487  -0.3853  -0.2261  -0.1031   0.3756   0.4355   0.6919   0.7415
     0.7718   1.0373   1.1237   1.2572   1.3568   1.4199   1.5001   1.7465
     1.7885   2.0433   2.2841   2.2987   2.4396   2.4690   3.0323   3.1675
     3.3891   3.5480   3.7893   3.8460   3.9787   4.0872   4.1587   4.6876
     4.7921   4.8094   4.9386   5.3007   5.6554   5.7533   6.0666   6.4994
     6.8044   6.8134

     the Fermi energy is     1.8977 ev

!    total energy              =   -1797.61031999 Ry
     Harris-Foulkes estimate   =   -1797.61032933 Ry
     estimated scf accuracy    <       0.00000053 Ry

     The total energy is the sum of the following terms:

     one-electron contribution =  -13455.30916966 Ry
     hartree contribution      =    6746.55779452 Ry
     xc contribution           =    -305.25248290 Ry
     ewald contribution        =    5216.47832046 Ry
     electric field correction =       0.00000375 Ry
     smearing contrib. (-TS)   =      -0.08478617 Ry

     convergence has been achieved in  18 iterations

 BEEF-vdW xc energy contributions
           1 :   -264.342853945454
           2 :    240.946567401556
           3 :   -201.030332288465
           4 :    155.300078922571
           5 :   -114.016332424798
           6 :    83.5626363543728
           7 :   -65.1722159926973
           8 :    55.9043467712988
           9 :   -51.0006979433059
          10 :    46.3530921455217
          11 :   -40.0347583065288
          12 :    32.4416647393990
          13 :   -25.2996074505322
          14 :    20.2729158137118
          15 :   -17.9716763276037
          16 :    17.7794023838027
          17 :   -18.3956453574462
          18 :    18.6248029423122
          19 :   -17.9307484605085
          20 :    16.5192401237882
          21 :   -15.0179153237902
          22 :    14.0116947086098
          23 :   -13.7118438179681
          24 :    13.9073931510840
          25 :   -14.1663591388016
          26 :    14.1176144626983
          27 :   -13.6355416877636
          28 :    12.8458418746665
          29 :   -11.9957121897706
          30 :    11.2938039260549
          31 :   -27.4449719782415
          32 :   -20.3654347599499

     Forces acting on atoms (Ry/au):

     negative rho (up, down):  8.533E-01 0.000E+00
     atom    1 type  1   force =    -0.00649420   -0.00424335    0.00238838
     atom    2 type  1   force =    -0.00649417   -0.00424378    0.00238799
     atom    3 type  2   force =    -0.00089113   -0.00058246    0.01285792
     atom    4 type  2   force =    -0.00089117   -0.00058218    0.01285792
     atom    5 type  1   force =     0.00856228    0.00559481   -0.01507947
     atom    6 type  1   force =     0.00856154    0.00559458   -0.01507957
     atom    7 type  2   force =    -0.00135535   -0.00088628   -0.00010131
     atom    8 type  2   force =    -0.00135604   -0.00088545   -0.00010101
     atom    9 type  1   force =    -0.00004981   -0.00003327   -0.00082295
     atom   10 type  1   force =    -0.00005034   -0.00003230   -0.00082259
     atom   11 type  2   force =     0.00022907    0.00014993    0.00075732
     atom   12 type  2   force =     0.00022932    0.00014974    0.00075737

     Total force =     0.033714     Total SCF correction =     0.003386
     SCF correction compared to forces is large: reduce conv_thr to get better values

     entering subroutine stress ...

     negative rho (up, down):  8.533E-01 0.000E+00
          total   stress  (Ry/bohr**3)                   (kbar)     P=  -13.13
  -0.00011648  -0.00000110   0.00001300        -17.13     -0.16      1.91
  -0.00000110  -0.00011551   0.00000850         -0.16    -16.99      1.25
   0.00001300   0.00000850  -0.00003571          1.91      1.25     -5.25

 !ASE

     Writing output data file calc.save

     General routines

     Parallel routines

   This run was terminated on:   9:58: 5  25Dec2018

   JOB DONE.
Job  /afs/slac/g/suncat/bin/suncat-tsmpirun -x LD_LIBRARY_PATH -wdir /scratch/qe109290_4FGFD pw.x -in pw.inp

TID   HOST_NAME   COMMAND_LINE            STATUS            TERMINATION_TIME
00000 suncat0169 pw.x -in pw.inp   Done                     12/25/2018 09:58:05
00001 suncat0169 pw.x -in pw.inp   Done                     12/25/2018 09:58:05
00002 suncat0169 pw.x -in pw.inp   Done                     12/25/2018 09:58:05
00003 suncat0169 pw.x -in pw.inp   Done                     12/25/2018 09:58:05
00004 suncat0169 pw.x -in pw.inp   Done                     12/25/2018 09:58:05
00005 suncat0169 pw.x -in pw.inp   Done                     12/25/2018 09:58:05
00006 suncat0169 pw.x -in pw.inp   Done                     12/25/2018 09:58:05
00007 suncat0169 pw.x -in pw.inp   Done                     12/25/2018 09:58:05
00008 suncat0168 pw.x -in pw.inp   Done                     12/25/2018 09:58:05
00009 suncat0168 pw.x -in pw.inp   Done                     12/25/2018 09:58:05
00010 suncat0168 pw.x -in pw.inp   Done                     12/25/2018 09:58:05
00011 suncat0168 pw.x -in pw.inp   Done                     12/25/2018 09:58:05
00012 suncat0168 pw.x -in pw.inp   Done                     12/25/2018 09:58:05
00013 suncat0168 pw.x -in pw.inp   Done                     12/25/2018 09:58:05
00014 suncat0168 pw.x -in pw.inp   Done                     12/25/2018 09:58:05
00015 suncat0168 pw.x -in pw.inp   Done                     12/25/2018 09:58:05
00016 suncat0110 pw.x -in pw.inp   Done                     12/25/2018 09:58:05
00017 suncat0110 pw.x -in pw.inp   Done                     12/25/2018 09:58:05
00018 suncat0110 pw.x -in pw.inp   Done                     12/25/2018 09:58:05
00019 suncat0110 pw.x -in pw.inp   Done                     12/25/2018 09:58:05
00020 suncat0110 pw.x -in pw.inp   Done                     12/25/2018 09:58:05
00021 suncat0110 pw.x -in pw.inp   Done                     12/25/2018 09:58:05
00022 suncat0110 pw.x -in pw.inp   Done                     12/25/2018 09:58:05
00023 suncat0110 pw.x -in pw.inp   Done                     12/25/2018 09:58:05
00024 suncat0109 pw.x -in pw.inp   Done                     12/25/2018 09:58:05
00025 suncat0109 pw.x -in pw.inp   Done                     12/25/2018 09:58:05
00026 suncat0109 pw.x -in pw.inp   Done                     12/25/2018 09:58:05
00027 suncat0109 pw.x -in pw.inp   Done                     12/25/2018 09:58:05
00028 suncat0109 pw.x -in pw.inp   Done                     12/25/2018 09:58:05
00029 suncat0109 pw.x -in pw.inp   Done                     12/25/2018 09:58:05
00030 suncat0109 pw.x -in pw.inp   Done                     12/25/2018 09:58:05
00031 suncat0109 pw.x -in pw.inp   Done                     12/25/2018 09:58:05
00032 suncat0277 pw.x -in pw.inp   Done                     12/25/2018 09:58:05
00033 suncat0277 pw.x -in pw.inp   Done                     12/25/2018 09:58:05
00034 suncat0277 pw.x -in pw.inp   Done                     12/25/2018 09:58:05
00035 suncat0277 pw.x -in pw.inp   Done                     12/25/2018 09:58:05
00036 suncat0277 pw.x -in pw.inp   Done                     12/25/2018 09:58:05
00037 suncat0277 pw.x -in pw.inp   Done                     12/25/2018 09:58:05
00038 suncat0277 pw.x -in pw.inp   Done                     12/25/2018 09:58:05
00039 suncat0277 pw.x -in pw.inp   Done                     12/25/2018 09:58:05
00040 suncat0276 pw.x -in pw.inp   Done                     12/25/2018 09:58:05
00041 suncat0276 pw.x -in pw.inp   Done                     12/25/2018 09:58:05
00042 suncat0276 pw.x -in pw.inp   Done                     12/25/2018 09:58:05
00043 suncat0276 pw.x -in pw.inp   Done                     12/25/2018 09:58:05
00044 suncat0276 pw.x -in pw.inp   Done                     12/25/2018 09:58:05
00045 suncat0276 pw.x -in pw.inp   Done                     12/25/2018 09:58:05
00046 suncat0276 pw.x -in pw.inp   Done                     12/25/2018 09:58:05
00047 suncat0276 pw.x -in pw.inp   Done                     12/25/2018 09:58:05
00048 suncat0274 pw.x -in pw.inp   Done                     12/25/2018 09:58:05
00049 suncat0274 pw.x -in pw.inp   Done                     12/25/2018 09:58:05
00050 suncat0274 pw.x -in pw.inp   Done                     12/25/2018 09:58:05
00051 suncat0274 pw.x -in pw.inp   Done                     12/25/2018 09:58:05
00052 suncat0274 pw.x -in pw.inp   Done                     12/25/2018 09:58:05
00053 suncat0274 pw.x -in pw.inp   Done                     12/25/2018 09:58:05
00054 suncat0274 pw.x -in pw.inp   Done                     12/25/2018 09:58:05
00055 suncat0274 pw.x -in pw.inp   Done                     12/25/2018 09:58:05
00056 suncat0273 pw.x -in pw.inp   Done                     12/25/2018 09:58:05
00057 suncat0273 pw.x -in pw.inp   Done                     12/25/2018 09:58:05
00058 suncat0273 pw.x -in pw.inp   Done                     12/25/2018 09:58:05
00059 suncat0273 pw.x -in pw.inp   Done                     12/25/2018 09:58:05
00060 suncat0273 pw.x -in pw.inp   Done                     12/25/2018 09:58:05
00061 suncat0273 pw.x -in pw.inp   Done                     12/25/2018 09:58:05
00062 suncat0273 pw.x -in pw.inp   Done                     12/25/2018 09:58:05
00063 suncat0273 pw.x -in pw.inp   Done                     12/25/2018 09:58:05