     Program PWSCF v.5.1rc2 (svn rev. 11289) starts on 18Dec2018 at 19:26:56

     Current dimensions of program PWSCF are:
     Max number of different atomic species (ntypx) = 10
     Max number of k-points (npk) =  40000
     Max angular momentum in pseudopotentials (lmaxx) =  3
     Presently stress not available with electric field

     IMPORTANT: XC functional enforced from input :
     Exchange-correlation      = BEEF-VDW ( 1  4 27 13 2)
     Any further DFT definition will be discarded
     Please, verify this is what you really want

     Subspace diagonalization in iterative solution of the eigenvalue problem:
     a serial algorithm will be used

     Found symmetry operation: I + (  0.5000 -0.5000  0.0000)
     This is a supercell, fractional translations are disabled

     bravais-lattice index     =            0
     lattice parameter (alat)  =       1.8897  a.u.
     unit-cell volume          =    4894.5749 (a.u.)^3
     number of atoms/cell      =           12
     number of atomic types    =            2
     number of electrons       =       162.00
     number of Kohn-Sham states=          111
     kinetic-energy cutoff     =      36.7493  Ry
     charge density cutoff     =     367.4932  Ry
     convergence threshold     =      1.0E-06
     mixing beta               =       0.1000
     number of iterations used =           10  plain     mixing
     Exchange-correlation      = BEEF-VDW ( 1  4 27 13 2)
     nstep                     =           50

     celldm(1)=   1.889726  celldm(2)=   0.000000  celldm(3)=   0.000000
     celldm(4)=   0.000000  celldm(5)=   0.000000  celldm(6)=   0.000000

     crystal axes: (cart. coord. in units of alat)
               a(1) = (   5.596277   0.000000   0.000000 )
               a(2) = (   1.869520   5.274771   0.000000 )
               a(3) = (   0.000000   0.000000  24.570588 )

     reciprocal axes: (cart. coord. in units 2 pi/alat)
               b(1) = (  0.178690 -0.063333  0.000000 )
               b(2) = (  0.000000  0.189582  0.000000 )
               b(3) = (  0.000000  0.000000  0.040699 )

     PseudoPot. # 1 for Mo read from file:
     /afs/slac.stanford.edu/u/if/mamunm/psp/gbrv1.5pbe/Mo.UPF
     MD5 check sum: 30c4dcd161f5d35cd49bb5239c51a633
     Pseudo is Ultrasoft + core correction, Zval = 14.0
     Generated by new atomic code, or converted to UPF format
     Using radial grid of  889 points,  6 beta functions with:
                l(1) =   0
                l(2) =   0
                l(3) =   1
                l(4) =   1
                l(5) =   2
                l(6) =   2
     Q(r) pseudized with  6 coefficients,  rinner =    1.000   1.000   1.000
                                                       1.000   1.000

     PseudoPot. # 2 for Ta read from file:
     /afs/slac.stanford.edu/u/if/mamunm/psp/gbrv1.5pbe/Ta.UPF
     MD5 check sum: f8bbe9446314a3b8ea5d9f3e3836c939
     Pseudo is Ultrasoft + core correction, Zval = 13.0
     Generated by new atomic code, or converted to UPF format
     Using radial grid of  921 points,  7 beta functions with:
                l(1) =   0
                l(2) =   0
                l(3) =   1
                l(4) =   1
                l(5) =   2
                l(6) =   2
                l(7) =   3
     Q(r) pseudized with  6 coefficients,  rinner =    1.300   1.300   1.300
                                                       1.300   1.300   1.300
                                                       1.300

     vdW kernel table read from file vdW_kernel_table
     MD5 check sum: 095c7af220d748ca6e76c0b4c6cfb241

     atomic species   valence    mass     pseudopotential
        Mo1           14.00    95.95000     Mo( 1.00)
        Ta1           13.00   180.94788     Ta( 1.00)

     No symmetry found

   Cartesian axes

     site n.     atom                  positions (alat units)
         1           Mo1 tau(   1) = (   0.0000000   0.0000000  10.0000000  )
         2           Mo1 tau(   2) = (   3.7328983   2.6373856  10.0000000  )
         3           Ta1 tau(   3) = (   2.7981385   0.0000000  10.0000000  )
         4           Ta1 tau(   4) = (   0.9347599   2.6373856  10.0000000  )
         5           Mo1 tau(   5) = (   5.5962769   3.9539090  12.2852941  )
         6           Mo1 tau(   6) = (   1.8633786   1.3165234  12.2852941  )
         7           Ta1 tau(   7) = (   2.7981385   3.9539090  12.2852941  )
         8           Ta1 tau(   8) = (   4.6615170   1.3165234  12.2852941  )
         9           Mo1 tau(   9) = (   3.7267572   2.6330467  14.5705882  )
        10           Mo1 tau(  10) = (   7.4596555   5.2704323  14.5705882  )
        11           Ta1 tau(  11) = (   6.5248956   2.6330467  14.5705882  )
        12           Ta1 tau(  12) = (   4.6615170   5.2704323  14.5705882  )

     number of k points=    20  Fermi-Dirac smearing, width (Ry)=  0.0110
                       cart. coord. in units 2pi/alat
        k(    1) = (   0.0000000   0.0000000   0.0000000), wk =   0.0555556
        k(    2) = (   0.0000000   0.0315969   0.0000000), wk =   0.1111111
        k(    3) = (   0.0000000   0.0631939   0.0000000), wk =   0.1111111
        k(    4) = (   0.0000000  -0.0947908   0.0000000), wk =   0.0555556
        k(    5) = (   0.0297817  -0.0105554   0.0000000), wk =   0.1111111
        k(    6) = (   0.0297817   0.0210415   0.0000000), wk =   0.1111111
        k(    7) = (   0.0297817   0.0526385   0.0000000), wk =   0.1111111
        k(    8) = (   0.0297817  -0.1053463   0.0000000), wk =   0.1111111
        k(    9) = (   0.0297817  -0.0737493   0.0000000), wk =   0.1111111
        k(   10) = (   0.0297817  -0.0421524   0.0000000), wk =   0.1111111
        k(   11) = (   0.0595634  -0.0211109   0.0000000), wk =   0.1111111
        k(   12) = (   0.0595634   0.0104861   0.0000000), wk =   0.1111111
        k(   13) = (   0.0595634   0.0420830   0.0000000), wk =   0.1111111
        k(   14) = (   0.0595634  -0.1159017   0.0000000), wk =   0.1111111
        k(   15) = (   0.0595634  -0.0843048   0.0000000), wk =   0.1111111
        k(   16) = (   0.0595634  -0.0527078   0.0000000), wk =   0.1111111
        k(   17) = (  -0.0893451   0.0316663   0.0000000), wk =   0.0555556
        k(   18) = (  -0.0893451   0.0632632   0.0000000), wk =   0.1111111
        k(   19) = (  -0.0893451   0.0948602   0.0000000), wk =   0.1111111
        k(   20) = (  -0.0893451  -0.0631245   0.0000000), wk =   0.0555556

     Largest allocated arrays     est. size (Mb)     dimensions
     Largest temporary arrays     est. size (Mb)     dimensions

     Initial potential from superposition of free atoms
     Check: negative starting charge=   -0.567699

     starting charge  161.98695, renormalised to  162.00000

     negative rho (up, down):  5.677E-01 0.000E+00

     *
     * You are using vdW-DF for exchange-correlation in this calculation.
     * Please cite the following three references that made this development
     * possible:
     *
     *   M. Dion, H. Rydberg, E. Schroder, D. C. Langreth, and
     *   B. I. Lundqvist, Phys. Rev. Lett. 92, 246401 (2004).
     *
     *   T. Thonhauser, V. R. Cooper, S. Li, A. Puzder, P. Hyldgaard, and
     *   D. C. Langreth, Phys. Rev. B 76, 125112 (2007).
     *
     *   G. Roman-Perez and J. M. Soler, Phys. Rev. Lett. 103, 096102 (2009).
     *
     *
     * If you are using vdW-DF2, please also cite:
     *
     *   K. Lee, E. D. Murray, L. Kong, B. I. Lundqvist, and
     *   D. C. Langreth, Phys. Rev. B 82, 081101(R) (2010).
     *
     *
     * If you are calculating the stress with vdW-DF, please also cite:
     *
     *   R. Sabatini, E. Kucukbenli, B. Kolb, T. Thonhauser, and
     *   S. de Gironcoli, J. Phys.: Condens. Matter 24, 424209 (2012).
     *

     Carrying out vdW-DF run using the following parameters:

     Nqs =      20    Nr_points =    1024   r_max =   100.000
     q_mesh =
               0.00001000     0.04494208     0.09755937     0.15916263
               0.23128650     0.31572767     0.41458969     0.53033537
               0.66584808     0.82450364     1.01025438     1.22772762
               1.48234092     1.78043706     2.12944203     2.53805004
               3.01644009     3.57652955     4.23227104     5.00000000

     Gradients computed in reciprocal space

     Adding external electric field

     Computed dipole along edir(3) :
        Dipole               -0.0000 Ry au,         -0.0000 Debye
        Dipole field         -0.0000 Ry au

        Potential amp.        0.0000 Ry
        Total length         45.2709 bohr

     Starting wfc are  156 randomized atomic wfcs

     Self-consistent Calculation

     iteration #  1     ecut=    36.75 Ry     beta=0.10
     Davidson diagonalization with overlap
     ethr =  1.00E-02,  avg # of iterations =  2.0

[...]

     total energy              =   -1698.67688243 Ry
     Harris-Foulkes estimate   =   -1699.79031925 Ry
     estimated scf accuracy    <       6.38784091 Ry

[...]

     End of self-consistent calculation

          k = 0.0000 0.0000 0.0000 ( 18423 PWs)   bands (ev):

   -66.2296 -66.2292 -66.2191 -66.2190 -65.9712 -65.9606 -58.7026 -58.6883
   -58.6226 -58.6210 -58.6092 -58.6091 -33.2435 -33.2201 -33.1940 -33.1835
   -33.1783 -33.1505 -33.0742 -33.0509 -33.0340 -32.9632 -32.8609 -32.8560
   -32.8192 -32.7423 -32.6891 -32.6728 -32.6554 -32.6324 -32.6177 -32.5993
   -32.5030 -32.3523 -32.2911 -32.2779 -32.2362 -32.1799 -32.1625 -32.1293
   -32.1149 -32.0751 -32.0727 -32.0600 -32.0430 -32.0423 -32.0357 -31.9946
    -4.7001  -3.1069  -2.5963  -2.3366  -2.1601  -2.0153  -1.8592  -1.8044
    -1.7855  -1.7200  -1.2640  -1.2101  -0.8128  -0.1801  -0.1297  -0.1098
    -0.0440  -0.0415  -0.0094   0.1076   0.1530   0.4369   0.6973   1.1287
     1.3835   1.4017   1.5245   1.6158   1.8408   2.3768   2.4208   2.4601
     2.7272   2.7568   3.0472   3.5023   3.6966   3.8850   3.9528   4.0145
     4.4634   4.4909   4.4941   4.5168   4.5968   4.6105   4.7033   4.8000
     4.8448   4.8483   4.9553   5.0083   5.0913   5.1066   5.2292   5.2901
     5.5422   5.6086   5.8015   6.0202   6.0469   6.1307   6.5991

[...]

          k =-0.0893 0.0317 0.0000 ( 18430 PWs)   bands (ev):

[...]

     the Fermi energy is     2.0938 ev

!    total energy              =   -1699.03425947 Ry
     Harris-Foulkes estimate   =   -1699.03425927 Ry
     estimated scf accuracy    <       0.00000093 Ry

     The total energy is the sum of the following terms:

     one-electron contribution =  -13135.03037426 Ry
     hartree contribution      =    6555.48792307 Ry
     xc contribution           =    -381.59500843 Ry
     ewald contribution        =    5262.17640799 Ry
     electric field correction =       0.00000000 Ry
     smearing contrib. (-TS)   =      -0.07320785 Ry

     convergence has been achieved in  16 iterations

 BEEF-vdW xc energy contributions
           1 :   -333.478900116503
           2 :    307.000682329337
           3 :   -260.990677816972
           4 :    206.528768649309
           5 :   -154.797135372855
           6 :    113.559875538220
           7 :   -85.5095801712423
           8 :    68.7874344953636
           9 :   -59.0500132651217
[...]
00030 suncat2043 pw.x -in pw.inp   Done                     12/18/2018 19:31:18
00031 suncat2043 pw.x -in pw.inp   Done                     12/18/2018 19:31:18

     Program PWSCF v.5.1rc2 (svn rev. 11289) starts on 18Dec2018 at 19:31:27

[...]

     Total force =     0.031953     Total SCF correction =     0.002700

[...]

     Program PWSCF v.5.1rc2 (svn rev. 11289) starts on 18Dec2018 at 19:36: 3

     Current dimensions of program PWSCF are:
     Max number of different atomic species (ntypx) = 10
     Max number of k-points (npk) =  40000
     Max angular momentum in pseudopotentials (lmaxx) =  3
     Presently stress not available with electric field

     IMPORTANT: XC functional enforced from input :
     Exchange-correlation      = BEEF-VDW ( 1  4 27 13 2)
     Any further DFT definition will be discarded
     Please, verify this is what you really want

     Subspace diagonalization in iterative solution of the eigenvalue problem:
     a serial algorithm will be used

     Found symmetry operation: I + (  0.5000 -0.5000  0.0000)
     This is a supercell, fractional translations are disabled

     bravais-lattice index     =            0
     lattice parameter (alat)  =       1.8897  a.u.
     unit-cell volume          =    4894.5749 (a.u.)^3
     number of atoms/cell      =           12
     number of atomic types    =            2
     number of electrons       =       162.00
     number of Kohn-Sham states=          111
     kinetic-energy cutoff     =      36.7493  Ry
     charge density cutoff     =     367.4932  Ry
     convergence threshold     =      1.0E-06
     mixing beta               =       0.1000
     number of iterations used =           10  plain     mixing
     Exchange-correlation      = BEEF-VDW ( 1  4 27 13 2)
     nstep                     =           50

     celldm(1)=   1.889726  celldm(2)=   0.000000  celldm(3)=   0.000000
     celldm(4)=   0.000000  celldm(5)=   0.000000  celldm(6)=   0.000000

     crystal axes: (cart. coord. in units of alat)
               a(1) = (   5.596277   0.000000   0.000000 )
               a(2) = (   1.869520   5.274771   0.000000 )
               a(3) = (   0.000000   0.000000  24.570588 )

     reciprocal axes: (cart. coord. in units 2 pi/alat)
               b(1) = (  0.178690 -0.063333  0.000000 )
               b(2) = (  0.000000  0.189582  0.000000 )
               b(3) = (  0.000000  0.000000  0.040699 )

     PseudoPot. # 1 for Mo read from file:
     /afs/slac.stanford.edu/u/if/mamunm/psp/gbrv1.5pbe/Mo.UPF
     MD5 check sum: 30c4dcd161f5d35cd49bb5239c51a633
     Pseudo is Ultrasoft + core correction, Zval = 14.0
     Generated by new atomic code, or converted to UPF format
     Using radial grid of  889 points,  6 beta functions with:
                l(1) =   0
                l(2) =   0
                l(3) =   1
                l(4) =   1
                l(5) =   2
                l(6) =   2
     Q(r) pseudized with  6 coefficients,  rinner =    1.000   1.000   1.000
                                                       1.000   1.000

     PseudoPot. # 2 for Ta read from file:
     /afs/slac.stanford.edu/u/if/mamunm/psp/gbrv1.5pbe/Ta.UPF
     MD5 check sum: f8bbe9446314a3b8ea5d9f3e3836c939
     Pseudo is Ultrasoft + core correction, Zval = 13.0
     Generated by new atomic code, or converted to UPF format
     Using radial grid of  921 points,  7 beta functions with:
                l(1) =   0
                l(2) =   0
                l(3) =   1
                l(4) =   1
                l(5) =   2
                l(6) =   2
                l(7) =   3
     Q(r) pseudized with  6 coefficients,  rinner =    1.300   1.300   1.300
                                                       1.300   1.300   1.300
                                                       1.300

     vdW kernel table read from file vdW_kernel_table
     MD5 check sum: 095c7af220d748ca6e76c0b4c6cfb241

     atomic species   valence    mass     pseudopotential
        Mo1           14.00    95.95000     Mo( 1.00)
        Ta1           13.00   180.94788     Ta( 1.00)

     No symmetry found

   Cartesian axes

     site n.     atom                  positions (alat units)
         1           Mo1 tau(   1) = (   0.0000000   0.0000000  10.0000000  )
         2           Mo1 tau(   2) = (   3.7328983   2.6373856  10.0000000  )
         3           Ta1 tau(   3) = (   2.7981385   0.0000000  10.0000000  )
         4           Ta1 tau(   4) = (   0.9347599   2.6373856  10.0000000  )
         5           Mo1 tau(   5) = (   5.5962769   3.9539090  12.2852941  )
         6           Mo1 tau(   6) = (   1.8633786   1.3165234  12.2852941  )
         7           Ta1 tau(   7) = (   2.7981385   3.9539090  12.2852941  )
         8           Ta1 tau(   8) = (   4.6615170   1.3165234  12.2852941  )
         9           Mo1 tau(   9) = (   3.7282720   2.6341152  14.5430052  )
        10           Mo1 tau(  10) = (   7.4611667   5.2715024  14.5430058  )
        11           Ta1 tau(  11) = (   6.5265517   2.6342154  14.4994710  )
        12           Ta1 tau(  12) = (   4.6631786   5.2716090  14.4994708  )

     number of k points=    20  Fermi-Dirac smearing, width (Ry)=  0.0110
                       cart. coord. in units 2pi/alat
        k(    1) = (   0.0000000   0.0000000   0.0000000), wk =   0.0555556
        k(    2) = (   0.0000000   0.0315969   0.0000000), wk =   0.1111111
        k(    3) = (   0.0000000   0.0631939   0.0000000), wk =   0.1111111
        k(    4) = (   0.0000000  -0.0947908   0.0000000), wk =   0.0555556
        k(    5) = (   0.0297817  -0.0105554   0.0000000), wk =   0.1111111
        k(    6) = (   0.0297817   0.0210415   0.0000000), wk =   0.1111111
        k(    7) = (   0.0297817   0.0526385   0.0000000), wk =   0.1111111
        k(    8) = (   0.0297817  -0.1053463   0.0000000), wk =   0.1111111
        k(    9) = (   0.0297817  -0.0737493   0.0000000), wk =   0.1111111
        k(   10) = (   0.0297817  -0.0421524   0.0000000), wk =   0.1111111
        k(   11) = (   0.0595634  -0.0211109   0.0000000), wk =   0.1111111
        k(   12) = (   0.0595634   0.0104861   0.0000000), wk =   0.1111111
        k(   13) = (   0.0595634   0.0420830   0.0000000), wk =   0.1111111
        k(   14) = (   0.0595634  -0.1159017   0.0000000), wk =   0.1111111
        k(   15) = (   0.0595634  -0.0843048   0.0000000), wk =   0.1111111
        k(   16) = (   0.0595634  -0.0527078   0.0000000), wk =   0.1111111
        k(   17) = (  -0.0893451   0.0316663   0.0000000), wk =   0.0555556
        k(   18) = (  -0.0893451   0.0632632   0.0000000), wk =   0.1111111
        k(   19) = (  -0.0893451   0.0948602   0.0000000), wk =   0.1111111
        k(   20) = (  -0.0893451  -0.0631245   0.0000000), wk =   0.0555556

     Largest allocated arrays     est. size (Mb)     dimensions
     Largest temporary arrays     est. size (Mb)     dimensions

     Initial potential from superposition of free atoms
     Check: negative starting charge=   -0.567226

     starting charge  161.98695, renormalised to  162.00000

[...]

     *
     * You are using vdW-DF for exchange-correlation in this calculation.
     * Please cite the following three references that made this development
     * possible:
     *
     *   M. Dion, H. Rydberg, E. Schroder, D. C. Langreth, and
     *   B. I. Lundqvist, Phys. Rev. Lett. 92, 246401 (2004).
     *
     *   T. Thonhauser, V. R. Cooper, S. Li, A. Puzder, P. Hyldgaard, and
     *   D. C. Langreth, Phys. Rev. B 76, 125112 (2007).
     *
     *   G. Roman-Perez and J. M. Soler, Phys. Rev. Lett. 103, 096102 (2009).
     *
     *
     * If you are using vdW-DF2, please also cite:
     *
     *   K. Lee, E. D. Murray, L. Kong, B. I. Lundqvist, and
     *   D. C. Langreth, Phys. Rev. B 82, 081101(R) (2010).
     *
     *
     * If you are calculating the stress with vdW-DF, please also cite:
     *
     *   R. Sabatini, E. Kucukbenli, B. Kolb, T. Thonhauser, and
     *   S. de Gironcoli, J. Phys.: Condens. Matter 24, 424209 (2012).
     *

     Carrying out vdW-DF run using the following parameters:

     Nqs =      20    Nr_points =    1024   r_max =   100.000
     q_mesh =
               0.00001000     0.04494208     0.09755937     0.15916263
               0.23128650     0.31572767     0.41458969     0.53033537
               0.66584808     0.82450364     1.01025438     1.22772762
               1.48234092     1.78043706     2.12944203     2.53805004
               3.01644009     3.57652955     4.23227104     5.00000000

     Gradients computed in reciprocal space

[...]

     Starting wfc are  156 randomized atomic wfcs

     Self-consistent Calculation

[...]

     total energy              =   -1699.03714436 Ry
     Harris-Foulkes estimate   =   -1699.03714416 Ry
     estimated scf accuracy    <       0.00000333 Ry

     iteration # 16     ecut=    36.75 Ry     beta=0.10
     Davidson diagonalization with overlap
     ethr =  1.72E-09,  avg # of iterations =  1.9

[...]

     negative rho (up, down):  5.959E-01 0.000E+00

     Adding external electric field

     Computed dipole along edir(3) :
        Dipole                0.0105 Ry au,          0.0268 Debye
        Dipole field          0.0000 Ry au

        Potential amp.       -0.0024 Ry
        Total length         45.2709 bohr

     End of self-consistent calculation

[...]

          k = 0.0596-0.0527 0.0000 ( 18418 PWs)   bands (ev):

[...]

          k =-0.0893-0.0631 0.0000 ( 18404 PWs)   bands (ev):

   -66.2329 -66.2231 -66.1676 -66.1577 -65.9428 -65.9322 -58.6785 -58.6658
   -58.6194 -58.6053 -58.6043 -58.5901 -33.1010 -33.0852 -33.0174 -32.9660
   -32.9253 -32.8990 -32.8436 -32.7661 -32.7342 -32.7265 -32.7216 -32.6932
   -32.6849 -32.6449 -32.6384 -32.6276 -32.6104 -32.6051 -32.5977 -32.5799
   -32.5411 -32.5182 -32.5139 -32.4667 -32.4590 -32.3716 -32.3710 -32.3136
   -32.3117 -32.2822 -32.2716 -32.2704 -32.2213 -32.1178 -32.1073 -32.0700
    -2.6697  -2.6296  -1.6619  -1.5640  -1.1406  -1.0559  -0.9364  -0.9295
    -0.9181  -0.3416  -0.1026  -0.0620   0.0530   0.1550   0.1587   0.1749
     0.1932   0.3097   0.3752   0.7894   0.9136   1.0355   1.0400   1.0871
     1.2337   1.2833   1.3058   1.3817   1.6335   1.6881   1.7410   1.7839
     1.8108   1.9661   1.9710   2.0232   2.0913   2.1493   2.3456   2.7468
     2.9956   3.1631   3.2057   3.2482   3.3111   3.5664   3.5934   3.6159
     3.8786   3.9250   4.1483   4.3163   4.3637   4.6274   4.6853   4.8039
     4.9745   5.2172   5.3918   5.6730   5.6989   5.8238   6.1566

     the Fermi energy is     2.0971 ev

!    total energy              =   -1699.03714476 Ry
     Harris-Foulkes estimate   =   -1699.03714441 Ry
     estimated scf accuracy    <       0.00000086 Ry

     The total energy is the sum of the following terms:

     one-electron contribution =  -13226.14464363 Ry
     hartree contribution      =    6601.09769450 Ry
     xc contribution           =    -381.71579961 Ry
     ewald contribution        =    5307.79867081 Ry
     electric field correction =       0.00000028 Ry
     smearing contrib. (-TS)   =      -0.07306711 Ry

     convergence has been achieved in  16 iterations

 BEEF-vdW xc energy contributions
           1 :   -333.599626438364
           2 :    307.156485619200
           3 :   -261.190166927918
           4 :    206.744023517519
           5 :   -154.977110231321
           6 :    113.659698591144
           7 :   -85.5180232458181
           8 :    68.7354797228224
           9 :   -58.9950597490745
          10 :    51.8855225627903
          11 :   -44.6166529225642
          12 :    36.5134776660616
          13 :   -28.4393084664258
          14 :    21.7084715079678
          15 :   -17.1327018881645
          16 :    14.6013944690744
          17 :   -13.2622576847848
          18 :    12.0662965543808
          19 :   -10.3249144943926
          20 :    7.97917826187029
          21 :   -5.48858462874779
          22 :    3.45525908893688
          23 :   -2.23387943725038
          24 :    1.74445415646096
          25 :   -1.56408655067878
          26 :    1.19970249724628
          27 :  -0.359828648822258
          28 :  -0.929409045295301
          29 :    2.39795504224037
          30 :   -3.71993425795768
          31 :   -32.2765002398543
          32 :   -24.2756406799491

     Forces acting on atoms (Ry/au):

     negative rho (up, down):  5.959E-01 0.000E+00
     atom    1 type  1   force =    -0.00027535   -0.00019457    0.00462260
     atom    2 type  1   force =    -0.00027521   -0.00019444    0.00462232
     atom    3 type  2   force =    -0.00032265   -0.00022874    0.01745901
     atom    4 type  2   force =    -0.00031917   -0.00022491    0.01745891
     atom    5 type  1   force =     0.00018806    0.00013282   -0.01367313
     atom    6 type  1   force =     0.00018587    0.00013135   -0.01367317
     atom    7 type  2   force =     0.00013432    0.00009209   -0.00864677
     atom    8 type  2   force =     0.00013113    0.00009535   -0.00864835
     atom    9 type  1   force =     0.00014900    0.00010646   -0.00069590
     atom   10 type  1   force =     0.00015090    0.00010507   -0.00069645
     atom   11 type  2   force =     0.00013030    0.00009092    0.00093525
     atom   12 type  2   force =     0.00012281    0.00008859    0.00093569

     Total force =     0.034342     Total SCF correction =     0.006197
     SCF correction compared to forces is large: reduce conv_thr to get better values

     entering subroutine stress ...

     negative rho (up, down):  5.959E-01 0.000E+00
          total   stress  (Ry/bohr**3)                   (kbar)     P=  -27.45
  -0.00024687  -0.00000064   0.00000152        -36.32     -0.09      0.22
  -0.00000064  -0.00024642   0.00000107         -0.09    -36.25      0.16
   0.00000152   0.00000107  -0.00006654          0.22      0.16     -9.79

 !ASE

     Writing output data file calc.save

     General routines

     Parallel routines

   This run was terminated on:  19:40:26  18Dec2018

   JOB DONE.
Job  /afs/slac/g/suncat/bin/suncat-tsmpirun -x LD_LIBRARY_PATH -wdir /scratch/qe530279_bd5sX pw.x -in pw.inp

TID   HOST_NAME   COMMAND_LINE            STATUS            TERMINATION_TIME
00000 suncat2044 pw.x -in pw.inp   Done                     12/18/2018 19:40:26
00001 suncat2044 pw.x -in pw.inp   Done                     12/18/2018 19:40:26
00002 suncat2044 pw.x -in pw.inp   Done                     12/18/2018 19:40:26
00003 suncat2044 pw.x -in pw.inp   Done                     12/18/2018 19:40:26
00004 suncat2044 pw.x -in pw.inp   Done                     12/18/2018 19:40:26
00005 suncat2044 pw.x -in pw.inp   Done                     12/18/2018 19:40:26
00006 suncat2044 pw.x -in pw.inp   Done                     12/18/2018 19:40:26
00007 suncat2044 pw.x -in pw.inp   Done                     12/18/2018 19:40:26
00008 suncat2044 pw.x -in pw.inp   Done                     12/18/2018 19:40:26
00009 suncat2044 pw.x -in pw.inp   Done                     12/18/2018 19:40:26
00010 suncat2044 pw.x -in pw.inp   Done                     12/18/2018 19:40:26
00011 suncat2044 pw.x -in pw.inp   Done                     12/18/2018 19:40:26
00012 suncat2044 pw.x -in pw.inp   Done                     12/18/2018 19:40:26
00013 suncat2044 pw.x -in pw.inp   Done                     12/18/2018 19:40:26
00014 suncat2044 pw.x -in pw.inp   Done                     12/18/2018 19:40:26
00015 suncat2044 pw.x -in pw.inp   Done                     12/18/2018 19:40:26
00016 suncat2043 pw.x -in pw.inp   Done                     12/18/2018 19:40:26
00017 suncat2043 pw.x -in pw.inp   Done                     12/18/2018 19:40:26
00018 suncat2043 pw.x -in pw.inp   Done                     12/18/2018 19:40:26
00019 suncat2043 pw.x -in pw.inp   Done                     12/18/2018 19:40:26
00020 suncat2043 pw.x -in pw.inp   Done                     12/18/2018 19:40:26
00021 suncat2043 pw.x -in pw.inp   Done                     12/18/2018 19:40:26
00022 suncat2043 pw.x -in pw.inp   Done                     12/18/2018 19:40:26
00023 suncat2043 pw.x -in pw.inp   Done                     12/18/2018 19:40:26
00024 suncat2043 pw.x -in pw.inp   Done                     12/18/2018 19:40:26
00025 suncat2043 pw.x -in pw.inp   Done                     12/18/2018 19:40:26
00026 suncat2043 pw.x -in pw.inp   Done                     12/18/2018 19:40:26
00027 suncat2043 pw.x -in pw.inp   Done                     12/18/2018 19:40:26
00028 suncat2043 pw.x -in pw.inp   Done                     12/18/2018 19:40:26
00029 suncat2043 pw.x -in pw.inp   Done                     12/18/2018 19:40:26
00030 suncat2043 pw.x -in pw.inp   Done                     12/18/2018 19:40:26
00031 suncat2043 pw.x -in pw.inp   Done                     12/18/2018 19:40:26