     Program PWSCF v.5.1rc2 (svn rev. 11289) starts on 24Dec2018 at 23: 2:29

     Current dimensions of program PWSCF are:
     Max number of different atomic species (ntypx) = 10
     Max number of k-points (npk) =  40000
     Max angular momentum in pseudopotentials (lmaxx) =  3
     Presently stress not available with electric field

     IMPORTANT: XC functional enforced from input :
     Exchange-correlation      = BEEF-VDW ( 1  4 27 13 2)
     Any further DFT definition will be discarded
     Please, verify this is what you really want

     Subspace diagonalization in iterative solution of the eigenvalue problem:
     a serial algorithm will be used

     Found symmetry operation: I + (  0.5000  0.0000  0.0000)
     This is a supercell, fractional translations are disabled

     bravais-lattice index     =            0
     lattice parameter (alat)  =       1.8897  a.u.
     unit-cell volume          =    5395.9797 (a.u.)^3
     number of atoms/cell      =           12
     number of atomic types    =            2
     number of electrons       =       156.00
     number of Kohn-Sham states=          108
     kinetic-energy cutoff     =      36.7493  Ry
     charge density cutoff     =     367.4932  Ry
     convergence threshold     =      1.0E-06
     mixing beta               =       0.1000
     number of iterations used =           10  plain     mixing
     Exchange-correlation      = BEEF-VDW ( 1  4 27 13 2)
     nstep                     =           50

     celldm(1)=   1.889726  celldm(2)=   0.000000  celldm(3)=   0.000000
     celldm(4)=   0.000000  celldm(5)=   0.000000  celldm(6)=   0.000000

     crystal axes: (cart. coord. in units of alat)
               a(1) = (   5.909851   0.000000   0.000000 )
               a(2) = (  -2.954926   5.421755   0.000000 )
               a(3) = (   0.000000   0.000000  24.954983 )

     reciprocal axes: (cart. coord. in units 2 pi/alat)
               b(1) = (  0.169209  0.092221  0.000000 )
               b(2) = (  0.000000  0.184442  0.000000 )
               b(3) = (  0.000000  0.000000  0.040072 )

     PseudoPot. # 1 for In read from file:
     /afs/slac.stanford.edu/u/if/mamunm/psp/gbrv1.5pbe/In.UPF
     MD5 check sum: 90777abd96fbb83f2e67db2a40c566b9
     Pseudo is Ultrasoft + core correction, Zval = 13.0
     Generated by new atomic code, or converted to UPF format
     Using radial grid of  889 points,  6 beta functions with:
                l(1) =   0
                l(2) =   0
                l(3) =   1
                l(4) =   1
                l(5) =   2
                l(6) =   2
     Q(r) pseudized with  6 coefficients,  rinner =    1.400   1.400   1.400
                                                       1.400   1.400

     PseudoPot. # 2 for Ta read from file:
     /afs/slac.stanford.edu/u/if/mamunm/psp/gbrv1.5pbe/Ta.UPF
     MD5 check sum: f8bbe9446314a3b8ea5d9f3e3836c939
     Pseudo is Ultrasoft + core correction, Zval = 13.0
     Generated by new atomic code, or converted to UPF format
     Using radial grid of  921 points,  7 beta functions with:
                l(1) =   0
                l(2) =   0
                l(3) =   1
                l(4) =   1
                l(5) =   2
                l(6) =   2
                l(7) =   3
     Q(r) pseudized with  6 coefficients,  rinner =    1.300   1.300   1.300
                                                       1.300   1.300   1.300
                                                       1.300

     vdW kernel table read from file vdW_kernel_table
     MD5 check sum: 095c7af220d748ca6e76c0b4c6cfb241

     atomic species   valence    mass     pseudopotential
        In1           13.00   114.81800     In( 1.00)
        Ta1           13.00   180.94788     Ta( 1.00)

     No symmetry found

   Cartesian axes

     site n.     atom                  positions (alat units)
         1           In1 tau(   1) = (   0.0000000   0.0000000  10.0000000  )
         2           In1 tau(   2) = (   2.9549255   0.0000000  10.0000000  )
         3           Ta1 tau(   3) = (   1.4774628   2.7108775  10.0000000  )
         4           Ta1 tau(   4) = (  -1.4774628   2.7108775  10.0000000  )
         5           In1 tau(   5) = (   2.9549255   1.6104720  12.4774916  )
         6           In1 tau(   6) = (   0.0000000   1.6104720  12.4774916  )
         7           Ta1 tau(   7) = (  -1.4774628   4.3213496  12.4774916  )
         8           Ta1 tau(   8) = (   1.4774628   4.3213496  12.4774916  )
         9           In1 tau(   9) = (   0.0000000   3.2209441  14.9549832  )
        10           In1 tau(  10) = (   2.9549255   3.2209441  14.9549832  )
        11           Ta1 tau(  11) = (   4.4323883   0.5100665  14.9549832  )
        12           Ta1 tau(  12) = (   1.4774628   0.5100665  14.9549832  )

     number of k points=    20  Fermi-Dirac smearing, width (Ry)=  0.0110
                       cart. coord. in units 2pi/alat
        k(    1) = (   0.0000000   0.0000000   0.0000000), wk =   0.0555556
        k(    2) = (   0.0000000   0.0307404   0.0000000), wk =   0.1111111
        k(    3) = (   0.0000000   0.0614807   0.0000000), wk =   0.1111111
        k(    4) = (   0.0000000  -0.0922211   0.0000000), wk =   0.0555556
        k(    5) = (   0.0282015   0.0153702   0.0000000), wk =   0.1111111
        k(    6) = (   0.0282015   0.0461105   0.0000000), wk =   0.1111111
        k(    7) = (   0.0282015   0.0768509   0.0000000), wk =   0.1111111
        k(    8) = (   0.0282015  -0.0768509   0.0000000), wk =   0.1111111
        k(    9) = (   0.0282015  -0.0461105   0.0000000), wk =   0.1111111
        k(   10) = (   0.0282015  -0.0153702   0.0000000), wk =   0.1111111
        k(   11) = (   0.0564030   0.0307404   0.0000000), wk =   0.1111111
        k(   12) = (   0.0564030   0.0614807   0.0000000), wk =   0.1111111
        k(   13) = (   0.0564030   0.0922211   0.0000000), wk =   0.1111111
        k(   14) = (   0.0564030  -0.0614807   0.0000000), wk =   0.1111111
        k(   15) = (   0.0564030  -0.0307404   0.0000000), wk =   0.1111111
        k(   16) = (   0.0564030   0.0000000   0.0000000), wk =   0.1111111
        k(   17) = (  -0.0846045  -0.0461105   0.0000000), wk =   0.0555556
        k(   18) = (  -0.0846045  -0.0153702   0.0000000), wk =   0.1111111
        k(   19) = (  -0.0846045   0.0153702   0.0000000), wk =   0.1111111
        k(   20) = (  -0.0846045  -0.1383316   0.0000000), wk =   0.0555556

     Largest allocated arrays     est. size (Mb)     dimensions
     Largest temporary arrays     est. size (Mb)     dimensions

     Initial potential from superposition of free atoms
     Check: negative starting charge=   -0.567738

     starting charge  146.99332, renormalised to  156.00000

     negative rho (up, down):  6.025E-01 0.000E+00

     *
     * You are using vdW-DF for exchange-correlation in this calculation.
     * Please cite the following three references that made this development
     * possible:
     *
     *   M. Dion, H. Rydberg, E. Schroder, D. C. Langreth, and
     *   B. I. Lundqvist, Phys. Rev. Lett. 92, 246401 (2004).
     *
     *   T. Thonhauser, V. R. Cooper, S. Li, A. Puzder, P. Hyldgaard, and
     *   D. C. Langreth, Phys. Rev. B 76, 125112 (2007).
     *
     *   G. Roman-Perez and J. M. Soler, Phys. Rev. Lett. 103, 096102 (2009).
     *
     *
     * If you are using vdW-DF2, please also cite:
     *
     *   K. Lee, E. D. Murray, L. Kong, B. I. Lundqvist, and
     *   D. C. Langreth, Phys. Rev. B 82, 081101(R) (2010).
     *
     *
     * If you are calculating the stress with vdW-DF, please also cite:
     *
     *   R. Sabatini, E. Kucukbenli, B. Kolb, T. Thonhauser, and
     *   S. de Gironcoli, J. Phys.: Condens. Matter 24, 424209 (2012).
     *

     Carrying out vdW-DF run using the following parameters:

     Nqs =      20    Nr_points =    1024   r_max =   100.000
     q_mesh =
               0.00001000     0.04494208     0.09755937     0.15916263
               0.23128650     0.31572767     0.41458969     0.53033537
               0.66584808     0.82450364     1.01025438     1.22772762
               1.48234092     1.78043706     2.12944203     2.53805004
               3.01644009     3.57652955     4.23227104     5.00000000

     Gradients computed in reciprocal space

     Adding external electric field

     Computed dipole along edir(3) :
        Dipole                0.0000 Ry au,          0.0000 Debye
        Dipole field          0.0000 Ry au

        Potential amp.       -0.0000 Ry
        Total length         45.9791 bohr

     Starting wfc are  132 randomized atomic wfcs

     Self-consistent Calculation

     iteration #  1     ecut=    36.75 Ry     beta=0.10
     Davidson diagonalization with overlap
     ethr =  1.00E-02,  avg # of iterations =  6.5

[...]

     total energy              =   -1669.24780474 Ry
     Harris-Foulkes estimate   =   -1670.64938714 Ry
     estimated scf accuracy    <       8.94531185 Ry

[...]

     End of self-consistent calculation

          k = 0.0000 0.0000 0.0000 ( 20267 PWs)   bands (ev):

   -67.2369 -67.2364 -67.2064 -67.2059 -66.9985 -66.9670 -33.7302 -33.6934
   -33.6696 -33.6347 -33.6331 -33.6255 -33.6254 -33.5713 -33.5644 -33.5521
   -33.5126 -33.4684 -33.4053 -33.1739 -33.1188 -33.0861 -33.0827 -32.9992
   -13.8442 -13.6523 -13.5691 -13.5099 -13.4749 -13.4596 -13.4096 -13.4010
   -13.3493 -13.2734 -13.2007 -13.1855 -13.1643 -13.1489 -13.1336 -13.0927
   -12.9901 -12.9605 -12.9508 -12.9482 -12.9205 -12.9100 -12.8795 -12.8539
   -12.8362 -12.8104 -12.7981 -12.7976 -12.6534 -12.6148  -7.9782  -6.2424
    -4.5964  -3.8702  -2.6180  -2.2796  -1.9266  -1.9040  -1.8621  -1.2950
    -1.2930  -0.7045  -0.6391  -0.2615   0.0334   0.1304   0.1808   0.3122
     0.5391   0.5548   1.2491   1.3321   1.3920   1.4092   1.6571   1.9511
     2.0089   2.0181   2.2934   2.3897   2.5073   2.7742   2.9169   3.1448
     3.5633   3.9107   4.0562   4.1192   4.1404   4.1418   4.1817   4.3572
     4.3842   4.6957   4.9007   5.1482   5.2943   5.3724   5.3842   5.4570
     5.6596   6.1323   6.7414   6.8284

[...]

          k =-0.0846-0.0461 0.0000 ( 20344 PWs)   bands (ev):

[...]

     the Fermi energy is     1.5669 ev

!    total energy              =   -1667.58271492 Ry
     Harris-Foulkes estimate   =   -1667.58270965 Ry
     estimated scf accuracy    <       0.00000018 Ry

     The total energy is the sum of the following terms:

     one-electron contribution =  -10965.42139704 Ry
     hartree contribution      =    5514.55723379 Ry
     xc contribution           =    -496.42017815 Ry
     ewald contribution        =    4279.76072940 Ry
     electric field correction =       0.00000000 Ry
     smearing contrib. (-TS)   =      -0.05910293 Ry

     convergence has been achieved in  17 iterations

 BEEF-vdW xc energy contributions
           1 :   -436.219131346542
           2 :    401.305135237611
           3 :   -341.136120920874
           4 :    270.850057149985
           5 :   -205.084113936023
           6 :    153.053920118508
           7 :   -116.688407963895
           8 :    92.1550453910899
           9 :   -73.4726342346527
          10 :    56.0865209207884
[...]
     /afs/slac.stanford.edu/u/if/mamunm/psp/gbrv1.5pbe/In.UPF
     MD5 check sum: 90777abd96fbb83f2e67db2a40c566b9
     Pseudo is Ultrasoft + core correction, Zval = 13.0
     Generated by new atomic code, or converted to UPF format
     Using radial grid of  889 points,  6 beta functions with:
                l(1) =   0
                l(2) =   0
                l(3) =   1
                l(4) =   1
                l(5) =   2
                l(6) =   2
     Q(r) pseudized with  6 coefficients,  rinner =    1.400   1.400   1.400
                                                       1.400   1.400

     PseudoPot. # 2 for Ta read from file:
     /afs/slac.stanford.edu/u/if/mamunm/psp/gbrv1.5pbe/Ta.UPF
     MD5 check sum: f8bbe9446314a3b8ea5d9f3e3836c939
     Pseudo is Ultrasoft + core correction, Zval = 13.0
     Generated by new atomic code, or converted to UPF format
     Using radial grid of  921 points,  7 beta functions with:
                l(1) =   0
                l(2) =   0
                l(3) =   1
                l(4) =   1
                l(5) =   2
                l(6) =   2
                l(7) =   3
     Q(r) pseudized with  6 coefficients,  rinner =    1.300   1.300   1.300
                                                       1.300   1.300   1.300
                                                       1.300

     vdW kernel table read from file vdW_kernel_table
     MD5 check sum: 095c7af220d748ca6e76c0b4c6cfb241

     atomic species   valence    mass     pseudopotential
        In1           13.00   114.81800     In( 1.00)
        Ta1           13.00   180.94788     Ta( 1.00)

     No symmetry found

   Cartesian axes

     site n.     atom                  positions (alat units)
         1           In1 tau(   1) = (   0.0000000   0.0000000  10.0000000  )
         2           In1 tau(   2) = (   2.9549255   0.0000000  10.0000000  )
         3           Ta1 tau(   3) = (   1.4774628   2.7108775  10.0000000  )
         4           Ta1 tau(   4) = (  -1.4774628   2.7108775  10.0000000  )
         5           In1 tau(   5) = (   2.9549255   1.6104720  12.4774916  )
         6           In1 tau(   6) = (   0.0000000   1.6104720  12.4774916  )
         7           Ta1 tau(   7) = (  -1.4774628   4.3213496  12.4774916  )
         8           Ta1 tau(   8) = (   1.4774628   4.3213496  12.4774916  )
         9           In1 tau(   9) = (  -0.0000092   3.1173712  15.2565053  )
        10           In1 tau(  10) = (   2.9549259   3.1173650  15.2565041  )
        11           Ta1 tau(  11) = (   4.4323866   0.3367257  14.7916636  )
        12           Ta1 tau(  12) = (   1.4774608   0.3367469  14.7916713  )

     number of k points=    20  Fermi-Dirac smearing, width (Ry)=  0.0110
                       cart. coord. in units 2pi/alat
        k(    1) = (   0.0000000   0.0000000   0.0000000), wk =   0.0555556
        k(    2) = (   0.0000000   0.0307404   0.0000000), wk =   0.1111111
        k(    3) = (   0.0000000   0.0614807   0.0000000), wk =   0.1111111
        k(    4) = (   0.0000000  -0.0922211   0.0000000), wk =   0.0555556
        k(    5) = (   0.0282015   0.0153702   0.0000000), wk =   0.1111111
        k(    6) = (   0.0282015   0.0461105   0.0000000), wk =   0.1111111
        k(    7) = (   0.0282015   0.0768509   0.0000000), wk =   0.1111111
        k(    8) = (   0.0282015  -0.0768509   0.0000000), wk =   0.1111111
        k(    9) = (   0.0282015  -0.0461105   0.0000000), wk =   0.1111111
        k(   10) = (   0.0282015  -0.0153702   0.0000000), wk =   0.1111111
        k(   11) = (   0.0564030   0.0307404   0.0000000), wk =   0.1111111
        k(   12) = (   0.0564030   0.0614807   0.0000000), wk =   0.1111111
        k(   13) = (   0.0564030   0.0922211   0.0000000), wk =   0.1111111
        k(   14) = (   0.0564030  -0.0614807   0.0000000), wk =   0.1111111
        k(   15) = (   0.0564030  -0.0307404   0.0000000), wk =   0.1111111
        k(   16) = (   0.0564030   0.0000000   0.0000000), wk =   0.1111111
        k(   17) = (  -0.0846045  -0.0461105   0.0000000), wk =   0.0555556
        k(   18) = (  -0.0846045  -0.0153702   0.0000000), wk =   0.1111111
        k(   19) = (  -0.0846045   0.0153702   0.0000000), wk =   0.1111111
        k(   20) = (  -0.0846045  -0.1383316   0.0000000), wk =   0.0555556

     Largest allocated arrays     est. size (Mb)     dimensions
     Largest temporary arrays     est. size (Mb)     dimensions

     Initial potential from superposition of free atoms
     Check: negative starting charge=   -0.567758

     starting charge  146.99332, renormalised to  156.00000

[...]

     *
     * You are using vdW-DF for exchange-correlation in this calculation.
     * Please cite the following three references that made this development
     * possible:
     *
     *   M. Dion, H. Rydberg, E. Schroder, D. C. Langreth, and
     *   B. I. Lundqvist, Phys. Rev. Lett. 92, 246401 (2004).
     *
     *   T. Thonhauser, V. R. Cooper, S. Li, A. Puzder, P. Hyldgaard, and
     *   D. C. Langreth, Phys. Rev. B 76, 125112 (2007).
     *
     *   G. Roman-Perez and J. M. Soler, Phys. Rev. Lett. 103, 096102 (2009).
     *
     *
     * If you are using vdW-DF2, please also cite:
     *
     *   K. Lee, E. D. Murray, L. Kong, B. I. Lundqvist, and
     *   D. C. Langreth, Phys. Rev. B 82, 081101(R) (2010).
     *
     *
     * If you are calculating the stress with vdW-DF, please also cite:
     *
     *   R. Sabatini, E. Kucukbenli, B. Kolb, T. Thonhauser, and
     *   S. de Gironcoli, J. Phys.: Condens. Matter 24, 424209 (2012).
     *

     Carrying out vdW-DF run using the following parameters:

     Nqs =      20    Nr_points =    1024   r_max =   100.000
     q_mesh =
               0.00001000     0.04494208     0.09755937     0.15916263
               0.23128650     0.31572767     0.41458969     0.53033537
               0.66584808     0.82450364     1.01025438     1.22772762
               1.48234092     1.78043706     2.12944203     2.53805004
               3.01644009     3.57652955     4.23227104     5.00000000

     Gradients computed in reciprocal space

[...]

     Starting wfc are  132 randomized atomic wfcs

     Self-consistent Calculation

[...]

     total energy              =   -1667.63017222 Ry
     Harris-Foulkes estimate   =   -1667.63017119 Ry
     estimated scf accuracy    <       0.00000440 Ry

     iteration # 17     ecut=    36.75 Ry     beta=0.10
     Davidson diagonalization with overlap
     ethr =  2.82E-09,  avg # of iterations =  2.0

[...]

     negative rho (up, down):  5.904E-01 0.000E+00

     Adding external electric field

     Computed dipole along edir(3) :
        Dipole                0.0195 Ry au,          0.0495 Debye
        Dipole field          0.0000 Ry au

        Potential amp.       -0.0042 Ry
        Total length         45.9791 bohr

     End of self-consistent calculation

[...]

          k = 0.0564 0.0000 0.0000 ( 20333 PWs)   bands (ev):

[...]

          k =-0.0846-0.1383 0.0000 ( 20344 PWs)   bands (ev):

   -67.2486 -67.2486 -67.0253 -67.0253 -66.8826 -66.8826 -33.7193 -33.7193
   -33.6214 -33.6214 -33.5305 -33.5305 -33.4440 -33.4440 -33.3800 -33.3800
   -33.3473 -33.3473 -33.2398 -33.2397 -33.1728 -33.1728 -32.9244 -32.9244
   -13.4612 -13.4612 -13.3757 -13.3757 -13.3335 -13.3335 -13.3166 -13.3166
   -13.2881 -13.2881 -13.0245 -13.0245 -12.9961 -12.9961 -12.9804 -12.9804
   -12.9669 -12.9669 -12.9557 -12.9557 -12.9216 -12.9216 -12.9096 -12.9096
   -12.8874 -12.8874 -12.8700 -12.8700 -12.8386 -12.8386  -6.2724  -6.2724
    -4.7635  -4.7635  -3.6441  -3.6441  -2.1992  -2.1992  -1.1080  -1.1080
    -0.3762  -0.3761  -0.1070  -0.1070   0.3919   0.3919   0.5092   0.5092
     0.6631   0.6631   1.2273   1.2273   1.3614   1.3615   1.7482   1.7482
     2.1461   2.1461   2.2881   2.2881   2.7203   2.7203   2.9750   2.9750
     3.5949   3.5949   3.7692   3.7692   4.0511   4.0511   4.2910   4.2911
     4.7533   4.7533   5.4366   5.4366   5.8451   5.8451   5.9356   5.9357
     6.5492   6.5492   6.6960   6.6960

     the Fermi energy is     1.5684 ev

!    total energy              =   -1667.63017819 Ry
     Harris-Foulkes estimate   =   -1667.63017275 Ry
     estimated scf accuracy    <       0.00000099 Ry

     The total energy is the sum of the following terms:

     one-electron contribution =  -10848.62038770 Ry
     hartree contribution      =    5456.46234346 Ry
     xc contribution           =    -496.42120212 Ry
     ewald contribution        =    4221.00186516 Ry
     electric field correction =       0.00000088 Ry
     smearing contrib. (-TS)   =      -0.05279788 Ry

     convergence has been achieved in  17 iterations

 BEEF-vdW xc energy contributions
           1 :   -436.217409650271
           2 :    401.270681859343
           3 :   -341.057875053107
           4 :    270.740757993477
           5 :   -204.962773274165
           6 :    152.924513742192
           7 :   -116.532520896313
           8 :    91.9465175469517
           9 :   -73.2056424658730
          10 :    55.7946883775255
          11 :   -38.4221095156387
          12 :    22.5301142689889
          13 :   -10.3648249362710
          14 :    3.04487094086278
          15 :   0.231820651895191
          16 :   -1.60084826766433
          17 :    3.18206775420083
          18 :   -5.93030448929085
          19 :    9.35551098733242
          20 :   -12.1496809779205
          21 :    13.2034831477980
          22 :   -12.3395990766942
          23 :    10.3575633946731
          24 :   -8.46752404357738
          25 :    7.55143427380773
          26 :   -7.72957608264164
          27 :    8.44470883897270
          28 :   -8.92543306302616
          29 :    8.68321601553447
          30 :   -7.74169241681830
          31 :   -39.1831997502242
          32 :   -28.8867786906494

     Forces acting on atoms (Ry/au):

     negative rho (up, down):  5.904E-01 0.000E+00
     atom    1 type  1   force =    -0.00000219   -0.00709825   -0.04404408
     atom    2 type  1   force =     0.00000199   -0.00709827   -0.04404385
     atom    3 type  2   force =     0.00000023    0.02017922    0.04589078
     atom    4 type  2   force =    -0.00000001    0.02018161    0.04589423
     atom    5 type  1   force =    -0.00000063    0.01137991    0.00753936
     atom    6 type  1   force =     0.00000058    0.01138033    0.00753924
     atom    7 type  2   force =    -0.00000030   -0.02472227   -0.00900563
     atom    8 type  2   force =     0.00000046   -0.02472411   -0.00900788
     atom    9 type  1   force =     0.00000273    0.00046306    0.00004383
     atom   10 type  1   force =    -0.00000277    0.00046475    0.00004474
     atom   11 type  2   force =     0.00000013   -0.00019763   -0.00042174
     atom   12 type  2   force =    -0.00000022   -0.00020835   -0.00042901

     Total force =     0.103757     Total SCF correction =     0.001645

     entering subroutine stress ...

     negative rho (up, down):  5.904E-01 0.000E+00
          total   stress  (Ry/bohr**3)                   (kbar)     P=  -18.38
  -0.00013375  -0.00000000   0.00000000        -19.68     -0.00      0.00
  -0.00000000  -0.00021009  -0.00002261         -0.00    -30.90     -3.33
   0.00000000  -0.00002261  -0.00003109          0.00     -3.33     -4.57

 !ASE

     Writing output data file calc.save

     General routines

     Parallel routines

   This run was terminated on:   2:35: 2  25Dec2018

   JOB DONE.
Job  /afs/slac/g/suncat/bin/suncat-tsmpirun -x LD_LIBRARY_PATH -wdir /scratch/qe109031_Os9Om pw.x -in pw.inp

TID   HOST_NAME   COMMAND_LINE            STATUS            TERMINATION_TIME
00000 suncat0078 pw.x -in pw.inp   Done                     12/25/2018 02:35:02
00001 suncat0078 pw.x -in pw.inp   Done                     12/25/2018 02:35:02
00002 suncat0078 pw.x -in pw.inp   Done                     12/25/2018 02:35:02
00003 suncat0078 pw.x -in pw.inp   Done                     12/25/2018 02:35:02
00004 suncat0078 pw.x -in pw.inp   Done                     12/25/2018 02:35:02
00005 suncat0078 pw.x -in pw.inp   Done                     12/25/2018 02:35:02
00006 suncat0078 pw.x -in pw.inp   Done                     12/25/2018 02:35:02
00007 suncat0078 pw.x -in pw.inp   Done                     12/25/2018 02:35:02
00008 suncat0052 pw.x -in pw.inp   Done                     12/25/2018 02:35:02
00009 suncat0052 pw.x -in pw.inp   Done                     12/25/2018 02:35:02
00010 suncat0052 pw.x -in pw.inp   Done                     12/25/2018 02:35:02
00011 suncat0052 pw.x -in pw.inp   Done                     12/25/2018 02:35:02
00012 suncat0052 pw.x -in pw.inp   Done                     12/25/2018 02:35:02
00013 suncat0052 pw.x -in pw.inp   Done                     12/25/2018 02:35:02
00014 suncat0052 pw.x -in pw.inp   Done                     12/25/2018 02:35:02
00015 suncat0052 pw.x -in pw.inp   Done                     12/25/2018 02:35:02
00016 suncat0046 pw.x -in pw.inp   Done                     12/25/2018 02:35:02
00017 suncat0046 pw.x -in pw.inp   Done                     12/25/2018 02:35:02
00018 suncat0046 pw.x -in pw.inp   Done                     12/25/2018 02:35:02
00019 suncat0046 pw.x -in pw.inp   Done                     12/25/2018 02:35:02
00020 suncat0046 pw.x -in pw.inp   Done                     12/25/2018 02:35:02
00021 suncat0046 pw.x -in pw.inp   Done                     12/25/2018 02:35:02
00022 suncat0046 pw.x -in pw.inp   Done                     12/25/2018 02:35:02
00023 suncat0046 pw.x -in pw.inp   Done                     12/25/2018 02:35:02
00024 suncat0044 pw.x -in pw.inp   Done                     12/25/2018 02:35:02
00025 suncat0044 pw.x -in pw.inp   Done                     12/25/2018 02:35:02
00026 suncat0044 pw.x -in pw.inp   Done                     12/25/2018 02:35:02
00027 suncat0044 pw.x -in pw.inp   Done                     12/25/2018 02:35:02
00028 suncat0044 pw.x -in pw.inp   Done                     12/25/2018 02:35:02
00029 suncat0044 pw.x -in pw.inp   Done                     12/25/2018 02:35:02
00030 suncat0044 pw.x -in pw.inp   Done                     12/25/2018 02:35:02
00031 suncat0044 pw.x -in pw.inp   Done                     12/25/2018 02:35:02
00032 suncat0190 pw.x -in pw.inp   Done                     12/25/2018 02:35:02
00033 suncat0190 pw.x -in pw.inp   Done                     12/25/2018 02:35:02
00034 suncat0190 pw.x -in pw.inp   Done                     12/25/2018 02:35:02
00035 suncat0190 pw.x -in pw.inp   Done                     12/25/2018 02:35:02
00036 suncat0190 pw.x -in pw.inp   Done                     12/25/2018 02:35:02
00037 suncat0190 pw.x -in pw.inp   Done                     12/25/2018 02:35:02
00038 suncat0190 pw.x -in pw.inp   Done                     12/25/2018 02:35:02
00039 suncat0190 pw.x -in pw.inp   Done                     12/25/2018 02:35:02
00040 suncat0009 pw.x -in pw.inp   Done                     12/25/2018 02:35:02
00041 suncat0009 pw.x -in pw.inp   Done                     12/25/2018 02:35:02
00042 suncat0009 pw.x -in pw.inp   Done                     12/25/2018 02:35:02
00043 suncat0009 pw.x -in pw.inp   Done                     12/25/2018 02:35:02
00044 suncat0009 pw.x -in pw.inp   Done                     12/25/2018 02:35:02
00045 suncat0009 pw.x -in pw.inp   Done                     12/25/2018 02:35:02
00046 suncat0009 pw.x -in pw.inp   Done                     12/25/2018 02:35:02
00047 suncat0009 pw.x -in pw.inp   Done                     12/25/2018 02:35:02
00048 suncat0205 pw.x -in pw.inp   Done                     12/25/2018 02:35:02
00049 suncat0205 pw.x -in pw.inp   Done                     12/25/2018 02:35:02
00050 suncat0205 pw.x -in pw.inp   Done                     12/25/2018 02:35:02
00051 suncat0205 pw.x -in pw.inp   Done                     12/25/2018 02:35:02
00052 suncat0205 pw.x -in pw.inp   Done                     12/25/2018 02:35:02
00053 suncat0205 pw.x -in pw.inp   Done                     12/25/2018 02:35:02
00054 suncat0205 pw.x -in pw.inp   Done                     12/25/2018 02:35:02
00055 suncat0205 pw.x -in pw.inp   Done                     12/25/2018 02:35:02
00056 suncat0204 pw.x -in pw.inp   Done                     12/25/2018 02:35:02
00057 suncat0204 pw.x -in pw.inp   Done                     12/25/2018 02:35:02
00058 suncat0204 pw.x -in pw.inp   Done                     12/25/2018 02:35:02
00059 suncat0204 pw.x -in pw.inp   Done                     12/25/2018 02:35:02
00060 suncat0204 pw.x -in pw.inp   Done                     12/25/2018 02:35:02
00061 suncat0204 pw.x -in pw.inp   Done                     12/25/2018 02:35:02
00062 suncat0204 pw.x -in pw.inp   Done                     12/25/2018 02:35:02
00063 suncat0204 pw.x -in pw.inp   Done                     12/25/2018 02:35:02