     Program PWSCF v.5.1rc2 (svn rev. 11289) starts on 18Dec2018 at 21: 5: 0

     Current dimensions of program PWSCF are:
     Max number of different atomic species (ntypx) = 10
     Max number of k-points (npk) =  40000
     Max angular momentum in pseudopotentials (lmaxx) =  3
     Presently stress not available with electric field

     IMPORTANT: XC functional enforced from input :
     Exchange-correlation      = BEEF-VDW ( 1  4 27 13 2)
     Any further DFT definition will be discarded
     Please, verify this is what you really want

     Subspace diagonalization in iterative solution of the eigenvalue problem:
     a serial algorithm will be used

     Found symmetry operation: I + (  0.5000  0.0000  0.0000)
     This is a supercell, fractional translations are disabled

     Generating pointlists ...
     new r_m :   0.4125 (alat units)  0.7795 (a.u.) for type    1
     new r_m :   0.4125 (alat units)  0.7795 (a.u.) for type    2

     bravais-lattice index     =            0
     lattice parameter (alat)  =       1.8897  a.u.
     unit-cell volume          =    4518.8940 (a.u.)^3
     number of atoms/cell      =           12
     number of atomic types    =            2
     number of electrons       =       210.00
     number of Kohn-Sham states=          135
     kinetic-energy cutoff     =      36.7493  Ry
     charge density cutoff     =     367.4932  Ry
     convergence threshold     =      1.0E-06
     mixing beta               =       0.1000
     number of iterations used =           10  plain     mixing
     Exchange-correlation      = BEEF-VDW ( 1  4 27 13 2)
     nstep                     =           50

     celldm(1)=   1.889726  celldm(2)=   0.000000  celldm(3)=   0.000000
     celldm(4)=   0.000000  celldm(5)=   0.000000  celldm(6)=   0.000000

     crystal axes: (cart. coord. in units of alat)
               a(1) = (   5.504435   0.000000   0.000000 )
               a(2) = (  -2.752217   4.950221   0.000000 )
               a(3) = (   0.000000   0.000000  24.575267 )

     reciprocal axes: (cart. coord. in units 2 pi/alat)
               b(1) = (  0.181672  0.101006  0.000000 )
               b(2) = (  0.000000  0.202011  0.000000 )
               b(3) = (  0.000000  0.000000  0.040691 )

     PseudoPot. # 1 for Fe read from file:
     /afs/slac.stanford.edu/u/if/mamunm/psp/gbrv1.5pbe/Fe.UPF
     MD5 check sum: a130daea23fe5165f5d574ae7f82ed95
     Pseudo is Ultrasoft + core correction, Zval = 16.0
     Generated by new atomic code, or converted to UPF format
     Using radial grid of  861 points,  6 beta functions with:
                l(1) =   0
                l(2) =   0
                l(3) =   1
                l(4) =   1
                l(5) =   2
                l(6) =   2
     Q(r) pseudized with  8 coefficients,  rinner =    1.000   1.000   1.000
                                                       1.000   1.000

     PseudoPot. # 2 for Ag read from file:
     /afs/slac.stanford.edu/u/if/mamunm/psp/gbrv1.5pbe/Ag.UPF
     MD5 check sum: d66d668201baa78d5eb5b04ef7011058
     Pseudo is Ultrasoft + core correction, Zval = 19.0
     Generated by new atomic code, or converted to UPF format
     Using radial grid of  887 points,  6 beta functions with:
                l(1) =   0
                l(2) =   0
                l(3) =   1
                l(4) =   1
                l(5) =   2
                l(6) =   2
     Q(r) pseudized with  6 coefficients,  rinner =    1.300   1.300   1.300
                                                       1.300   1.300

     vdW kernel table read from file vdW_kernel_table
     MD5 check sum: 095c7af220d748ca6e76c0b4c6cfb241

     atomic species   valence    mass     pseudopotential
        Fe1           16.00    55.84500     Fe( 1.00)
        Ag1           19.00   107.86820     Ag( 1.00)

     Starting magnetic structure
     atomic species   magnetization
        Fe1          0.125
        Ag1          0.105

     No symmetry found

   Cartesian axes

     site n.     atom                  positions (alat units)
         1           Fe1 tau(   1) = (   0.0000000   0.0000000  10.0000000  )
         2           Fe1 tau(   2) = (   2.7522174   0.0000000  10.0000000  )
         3           Ag1 tau(   3) = (   1.3761087   2.4751104  10.0000000  )
         4           Ag1 tau(   4) = (  -1.3761087   2.4751104  10.0000000  )
         5           Fe1 tau(   5) = (   2.7522174   1.5301742  12.2876336  )
         6           Fe1 tau(   6) = (   0.0000000   1.5301742  12.2876336  )
         7           Ag1 tau(   7) = (  -1.3761087   4.0052847  12.2876336  )
         8           Ag1 tau(   8) = (   1.3761087   4.0052847  12.2876336  )
         9           Fe1 tau(   9) = (   0.0000000   3.0603485  14.5752671  )
        10           Fe1 tau(  10) = (   2.7522174   3.0603485  14.5752671  )
        11           Ag1 tau(  11) = (   4.1283261   0.5852380  14.5752671  )
        12           Ag1 tau(  12) = (   1.3761087   0.5852380  14.5752671  )

     number of k points=    40  Fermi-Dirac smearing, width (Ry)=  0.0110
                       cart. coord. in units 2pi/alat
        k(    1) = (   0.0000000   0.0000000   0.0000000), wk =   0.0277778
        k(    2) = (   0.0000000   0.0336685   0.0000000), wk =   0.0555556
        k(    3) = (   0.0000000   0.0673371   0.0000000), wk =   0.0555556
        k(    4) = (   0.0000000  -0.1010056   0.0000000), wk =   0.0277778
        k(    5) = (   0.0302786   0.0168343   0.0000000), wk =   0.0555556
        k(    6) = (   0.0302786   0.0505028   0.0000000), wk =   0.0555556
        k(    7) = (   0.0302786   0.0841713   0.0000000), wk =   0.0555556
        k(    8) = (   0.0302786  -0.0841713   0.0000000), wk =   0.0555556
        k(    9) = (   0.0302786  -0.0505028   0.0000000), wk =   0.0555556
        k(   10) = (   0.0302786  -0.0168343   0.0000000), wk =   0.0555556
        k(   11) = (   0.0605572   0.0336685   0.0000000), wk =   0.0555556
        k(   12) = (   0.0605572   0.0673371   0.0000000), wk =   0.0555556
        k(   13) = (   0.0605572   0.1010056   0.0000000), wk =   0.0555556
        k(   14) = (   0.0605572  -0.0673371   0.0000000), wk =   0.0555556
        k(   15) = (   0.0605572  -0.0336685   0.0000000), wk =   0.0555556
        k(   16) = (   0.0605572  -0.0000000   0.0000000), wk =   0.0555556
        k(   17) = (  -0.0908358  -0.0505028   0.0000000), wk =   0.0277778
        k(   18) = (  -0.0908358  -0.0168343   0.0000000), wk =   0.0555556
        k(   19) = (  -0.0908358   0.0168343   0.0000000), wk =   0.0555556
        k(   20) = (  -0.0908358  -0.1515084   0.0000000), wk =   0.0277778
        k(   21) = (   0.0000000   0.0000000   0.0000000), wk =   0.0277778
        k(   22) = (   0.0000000   0.0336685   0.0000000), wk =   0.0555556
        k(   23) = (   0.0000000   0.0673371   0.0000000), wk =   0.0555556
        k(   24) = (   0.0000000  -0.1010056   0.0000000), wk =   0.0277778
        k(   25) = (   0.0302786   0.0168343   0.0000000), wk =   0.0555556
        k(   26) = (   0.0302786   0.0505028   0.0000000), wk =   0.0555556
        k(   27) = (   0.0302786   0.0841713   0.0000000), wk =   0.0555556
        k(   28) = (   0.0302786  -0.0841713   0.0000000), wk =   0.0555556
        k(   29) = (   0.0302786  -0.0505028   0.0000000), wk =   0.0555556
        k(   30) = (   0.0302786  -0.0168343   0.0000000), wk =   0.0555556
        k(   31) = (   0.0605572   0.0336685   0.0000000), wk =   0.0555556
        k(   32) = (   0.0605572   0.0673371   0.0000000), wk =   0.0555556
        k(   33) = (   0.0605572   0.1010056   0.0000000), wk =   0.0555556
        k(   34) = (   0.0605572  -0.0673371   0.0000000), wk =   0.0555556
        k(   35) = (   0.0605572  -0.0336685   0.0000000), wk =   0.0555556
        k(   36) = (   0.0605572  -0.0000000   0.0000000), wk =   0.0555556
        k(   37) = (  -0.0908358  -0.0505028   0.0000000), wk =   0.0277778
        k(   38) = (  -0.0908358  -0.0168343   0.0000000), wk =   0.0555556
        k(   39) = (  -0.0908358   0.0168343   0.0000000), wk =   0.0555556
        k(   40) = (  -0.0908358  -0.1515084   0.0000000), wk =   0.0277778

     Largest allocated arrays     est. size (Mb)     dimensions
     Largest temporary arrays     est. size (Mb)     dimensions

     Check: negative/imaginary core charge=   -0.000005    0.000000

     Initial potential from superposition of free atoms
     Check: negative starting charge=(component1):   -0.000868
     Check: negative starting charge=(component2):   -0.000703

     starting charge  200.99968, renormalised to  210.00000

     negative rho (up, down):  9.067E-04 7.341E-04

     *
     * You are using vdW-DF for exchange-correlation in this calculation.
     * Please cite the following three references that made this development
     * possible:
     *
     *   M. Dion, H. Rydberg, E. Schroder, D. C. Langreth, and
     *   B. I. Lundqvist, Phys. Rev. Lett. 92, 246401 (2004).
     *
     *   T. Thonhauser, V. R. Cooper, S. Li, A. Puzder, P. Hyldgaard, and
     *   D. C. Langreth, Phys. Rev. B 76, 125112 (2007).
     *
     *   G. Roman-Perez and J. M. Soler, Phys. Rev. Lett. 103, 096102 (2009).
     *
     *
     * If you are using vdW-DF2, please also cite:
     *
     *   K. Lee, E. D. Murray, L. Kong, B. I. Lundqvist, and
     *   D. C. Langreth, Phys. Rev. B 82, 081101(R) (2010).
     *
     *
     * If you are calculating the stress with vdW-DF, please also cite:
     *
     *   R. Sabatini, E. Kucukbenli, B. Kolb, T. Thonhauser, and
     *   S. de Gironcoli, J. Phys.: Condens. Matter 24, 424209 (2012).
     *

     Carrying out vdW-DF run using the following parameters:

     Nqs =      20    Nr_points =    1024   r_max =   100.000
     q_mesh =
               0.00001000     0.04494208     0.09755937     0.15916263
               0.23128650     0.31572767     0.41458969     0.53033537
               0.66584808     0.82450364     1.01025438     1.22772762
               1.48234092     1.78043706     2.12944203     2.53805004
               3.01644009     3.57652955     4.23227104     5.00000000

     Gradients computed in reciprocal space

     Adding external electric field

     Computed dipole along edir(3) :
        Dipole                0.0000 Ry au,          0.0000 Debye
        Dipole field          0.0000 Ry au

        Potential amp.       -0.0000 Ry
        Total length         45.2795 bohr

[...]

     Starting wfc are  156 randomized atomic wfcs

     Self-consistent Calculation

     iteration #  1     ecut=    36.75 Ry     beta=0.10
     Davidson diagonalization with overlap
     ethr =  1.00E-02,  avg # of iterations =  7.3

[...]

     Magnetic moment per site:
     atom:    1    charge:    7.3596    magn:    0.8365    constr:    0.0000
     atom:    2    charge:    7.3596    magn:    0.8365    constr:    0.0000
     atom:    3    charge:    5.1210    magn:    0.5203    constr:    0.0000
     atom:    4    charge:    5.1210    magn:    0.5203    constr:    0.0000
     atom:    5    charge:    7.3684    magn:    0.8385    constr:    0.0000
     atom:    6    charge:    7.3684    magn:    0.8385    constr:    0.0000
[...]
                                                       1.000   1.000

     PseudoPot. # 2 for Ag read from file:
     /afs/slac.stanford.edu/u/if/mamunm/psp/gbrv1.5pbe/Ag.UPF
     MD5 check sum: d66d668201baa78d5eb5b04ef7011058
     Pseudo is Ultrasoft + core correction, Zval = 19.0
     Generated by new atomic code, or converted to UPF format
     Using radial grid of  887 points,  6 beta functions with:
                l(1) =   0
                l(2) =   0
                l(3) =   1
                l(4) =   1
                l(5) =   2
                l(6) =   2
     Q(r) pseudized with  6 coefficients,  rinner =    1.300   1.300   1.300
                                                       1.300   1.300

     vdW kernel table read from file vdW_kernel_table
     MD5 check sum: 095c7af220d748ca6e76c0b4c6cfb241

     atomic species   valence    mass     pseudopotential
        Fe1           16.00    55.84500     Fe( 1.00)
        Ag1           19.00   107.86820     Ag( 1.00)

     Starting magnetic structure
     atomic species   magnetization
        Fe1          0.125
        Ag1          0.105

     No symmetry found

   Cartesian axes

     site n.     atom                  positions (alat units)
         1           Fe1 tau(   1) = (   0.0000000   0.0000000  10.0000000  )
         2           Fe1 tau(   2) = (   2.7522174   0.0000000  10.0000000  )
         3           Ag1 tau(   3) = (   1.3761087   2.4751104  10.0000000  )
         4           Ag1 tau(   4) = (  -1.3761087   2.4751104  10.0000000  )
         5           Fe1 tau(   5) = (   2.7522174   1.5301742  12.2876336  )
         6           Fe1 tau(   6) = (   0.0000000   1.5301742  12.2876336  )
         7           Ag1 tau(   7) = (  -1.3761087   4.0052847  12.2876336  )
         8           Ag1 tau(   8) = (   1.3761087   4.0052847  12.2876336  )
         9           Fe1 tau(   9) = (   0.0001035   2.8751519  14.3742521  )
        10           Fe1 tau(  10) = (   2.7523222   2.8751015  14.3742135  )
        11           Ag1 tau(  11) = (   4.1283073   0.4868724  14.7083508  )
        12           Ag1 tau(  12) = (   1.3762755   0.4868699  14.7083502  )

     number of k points=    40  Fermi-Dirac smearing, width (Ry)=  0.0110
                       cart. coord. in units 2pi/alat
        k(    1) = (   0.0000000   0.0000000   0.0000000), wk =   0.0277778
        k(    2) = (   0.0000000   0.0336685   0.0000000), wk =   0.0555556
        k(    3) = (   0.0000000   0.0673371   0.0000000), wk =   0.0555556
        k(    4) = (   0.0000000  -0.1010056   0.0000000), wk =   0.0277778
        k(    5) = (   0.0302786   0.0168343   0.0000000), wk =   0.0555556
        k(    6) = (   0.0302786   0.0505028   0.0000000), wk =   0.0555556
        k(    7) = (   0.0302786   0.0841713   0.0000000), wk =   0.0555556
        k(    8) = (   0.0302786  -0.0841713   0.0000000), wk =   0.0555556
        k(    9) = (   0.0302786  -0.0505028   0.0000000), wk =   0.0555556
        k(   10) = (   0.0302786  -0.0168343   0.0000000), wk =   0.0555556
        k(   11) = (   0.0605572   0.0336685   0.0000000), wk =   0.0555556
        k(   12) = (   0.0605572   0.0673371   0.0000000), wk =   0.0555556
        k(   13) = (   0.0605572   0.1010056   0.0000000), wk =   0.0555556
        k(   14) = (   0.0605572  -0.0673371   0.0000000), wk =   0.0555556
        k(   15) = (   0.0605572  -0.0336685   0.0000000), wk =   0.0555556
        k(   16) = (   0.0605572  -0.0000000   0.0000000), wk =   0.0555556
        k(   17) = (  -0.0908358  -0.0505028   0.0000000), wk =   0.0277778
        k(   18) = (  -0.0908358  -0.0168343   0.0000000), wk =   0.0555556
        k(   19) = (  -0.0908358   0.0168343   0.0000000), wk =   0.0555556
        k(   20) = (  -0.0908358  -0.1515084   0.0000000), wk =   0.0277778
        k(   21) = (   0.0000000   0.0000000   0.0000000), wk =   0.0277778
        k(   22) = (   0.0000000   0.0336685   0.0000000), wk =   0.0555556
        k(   23) = (   0.0000000   0.0673371   0.0000000), wk =   0.0555556
        k(   24) = (   0.0000000  -0.1010056   0.0000000), wk =   0.0277778
        k(   25) = (   0.0302786   0.0168343   0.0000000), wk =   0.0555556
        k(   26) = (   0.0302786   0.0505028   0.0000000), wk =   0.0555556
        k(   27) = (   0.0302786   0.0841713   0.0000000), wk =   0.0555556
        k(   28) = (   0.0302786  -0.0841713   0.0000000), wk =   0.0555556
        k(   29) = (   0.0302786  -0.0505028   0.0000000), wk =   0.0555556
        k(   30) = (   0.0302786  -0.0168343   0.0000000), wk =   0.0555556
        k(   31) = (   0.0605572   0.0336685   0.0000000), wk =   0.0555556
        k(   32) = (   0.0605572   0.0673371   0.0000000), wk =   0.0555556
        k(   33) = (   0.0605572   0.1010056   0.0000000), wk =   0.0555556
        k(   34) = (   0.0605572  -0.0673371   0.0000000), wk =   0.0555556
        k(   35) = (   0.0605572  -0.0336685   0.0000000), wk =   0.0555556
        k(   36) = (   0.0605572  -0.0000000   0.0000000), wk =   0.0555556
        k(   37) = (  -0.0908358  -0.0505028   0.0000000), wk =   0.0277778
        k(   38) = (  -0.0908358  -0.0168343   0.0000000), wk =   0.0555556
        k(   39) = (  -0.0908358   0.0168343   0.0000000), wk =   0.0555556
        k(   40) = (  -0.0908358  -0.1515084   0.0000000), wk =   0.0277778

     Largest allocated arrays     est. size (Mb)     dimensions
     Largest temporary arrays     est. size (Mb)     dimensions

     Check: negative/imaginary core charge=   -0.000005    0.000000

     Initial potential from superposition of free atoms
     Check: negative starting charge=(component1):   -0.000888
     Check: negative starting charge=(component2):   -0.000719

     starting charge  200.99968, renormalised to  210.00000

[...]

     *
     * You are using vdW-DF for exchange-correlation in this calculation.
     * Please cite the following three references that made this development
     * possible:
     *
     *   M. Dion, H. Rydberg, E. Schroder, D. C. Langreth, and
     *   B. I. Lundqvist, Phys. Rev. Lett. 92, 246401 (2004).
     *
     *   T. Thonhauser, V. R. Cooper, S. Li, A. Puzder, P. Hyldgaard, and
     *   D. C. Langreth, Phys. Rev. B 76, 125112 (2007).
     *
     *   G. Roman-Perez and J. M. Soler, Phys. Rev. Lett. 103, 096102 (2009).
     *
     *
     * If you are using vdW-DF2, please also cite:
     *
     *   K. Lee, E. D. Murray, L. Kong, B. I. Lundqvist, and
     *   D. C. Langreth, Phys. Rev. B 82, 081101(R) (2010).
     *
     *
     * If you are calculating the stress with vdW-DF, please also cite:
     *
     *   R. Sabatini, E. Kucukbenli, B. Kolb, T. Thonhauser, and
     *   S. de Gironcoli, J. Phys.: Condens. Matter 24, 424209 (2012).
     *

     Carrying out vdW-DF run using the following parameters:

     Nqs =      20    Nr_points =    1024   r_max =   100.000
     q_mesh =
               0.00001000     0.04494208     0.09755937     0.15916263
               0.23128650     0.31572767     0.41458969     0.53033537
               0.66584808     0.82450364     1.01025438     1.22772762
               1.48234092     1.78043706     2.12944203     2.53805004
               3.01644009     3.57652955     4.23227104     5.00000000

     Gradients computed in reciprocal space

[...]

     Starting wfc are  156 randomized atomic wfcs

     Self-consistent Calculation

[...]

     total energy              =   -3287.59043923 Ry
     Harris-Foulkes estimate   =   -3287.59043662 Ry
     estimated scf accuracy    <       0.00000181 Ry

[...]

     iteration # 31     ecut=    36.75 Ry     beta=0.10
     Davidson diagonalization with overlap
     ethr =  8.63E-10,  avg # of iterations =  1.6

[...]

     negative rho (up, down):  7.367E-04 1.131E-03

[...]

     Adding external electric field

     Computed dipole along edir(3) :
        Dipole               -0.0202 Ry au,         -0.0513 Debye
        Dipole field         -0.0001 Ry au

        Potential amp.        0.0051 Ry
        Total length         45.2795 bohr

     Magnetic moment per site:
     atom:    1    charge:    7.0932    magn:    1.4150    constr:    0.0000
     atom:    2    charge:    7.0932    magn:    1.4150    constr:    0.0000
     atom:    3    charge:    5.0773    magn:    0.0134    constr:    0.0000
     atom:    4    charge:    5.0773    magn:    0.0134    constr:    0.0000
     atom:    5    charge:    7.1002    magn:    1.3841    constr:    0.0000
     atom:    6    charge:    7.1002    magn:    1.3841    constr:    0.0000
     atom:    7    charge:    5.0909    magn:    0.0141    constr:    0.0000
     atom:    8    charge:    5.0909    magn:    0.0141    constr:    0.0000
     atom:    9    charge:    7.1021    magn:    1.3914    constr:    0.0000
     atom:   10    charge:    7.1021    magn:    1.3913    constr:    0.0000
     atom:   11    charge:    5.0815    magn:    0.0113    constr:    0.0000
     atom:   12    charge:    5.0816    magn:    0.0113    constr:    0.0000

     End of self-consistent calculation

 ------ SPIN UP ------------

[...]

 ------ SPIN DOWN ----------

[...]

          k = 0.0606-0.0000 0.0000 ( 16982 PWs)   bands (ev):

[...]

          k =-0.0908-0.1515 0.0000 ( 17034 PWs)   bands (ev):

   -91.3206 -91.3206 -91.0561 -91.0561 -90.9224 -90.9224 -84.3105 -84.3105
   -84.2516 -84.2516 -84.2318 -84.2318 -54.8174 -54.8174 -54.8070 -54.8070
   -54.7969 -54.7969 -54.5607 -54.5607 -54.5515 -54.5515 -54.5039 -54.5039
   -54.4374 -54.4373 -54.4253 -54.4253 -54.3612 -54.3612 -50.4858 -50.4858
   -50.4281 -50.4281 -50.4229 -50.4229 -50.4036 -50.4036 -50.3765 -50.3765
   -50.3534 -50.3534 -50.3364 -50.3364 -50.3051 -50.3051 -50.2487 -50.2487
    -4.7083  -4.7082  -4.4011  -4.4011  -4.3043  -4.3043  -4.2612  -4.2611
    -3.9869  -3.9869  -3.8931  -3.8930  -3.6456  -3.6455  -3.5250  -3.5249
    -3.4147  -3.4144  -3.4036  -3.4036  -3.3558  -3.3556  -3.2600  -3.2599
    -3.1273  -3.1272  -3.0257  -3.0255  -2.9391  -2.9390  -2.8578  -2.8576
    -1.9743  -1.9742  -0.8199  -0.8198  -0.0133  -0.0132   0.2864   0.2864
     0.4447   0.4448   0.8191   0.8191   1.0209   1.0210   1.1779   1.1779
     1.2546   1.2546   1.3405   1.3406   1.3865   1.3866   1.5544   1.5544
     1.5997   1.5997   1.9953   1.9953   2.1409   2.1409   2.3083   2.3083
     2.7749   2.7750   2.8684   2.8684   3.3874   3.3875   4.4264   4.4265
     5.1539   5.1540   6.3376   6.3376   6.8895   6.8896   7.1118   7.1118
     7.5942   7.5943   8.0127   8.0128   8.1731   8.1731   8.6289

     the Fermi energy is     1.1566 ev

!    total energy              =   -3287.59044985 Ry
     Harris-Foulkes estimate   =   -3287.59043958 Ry
     estimated scf accuracy    <       0.00000076 Ry

     The total energy is the sum of the following terms:

     one-electron contribution =  -25273.13635076 Ry
     hartree contribution      =   12629.62421027 Ry
     xc contribution           =    -362.15797866 Ry
     ewald contribution        =    9718.15373403 Ry
     electric field correction =       0.00000113 Ry
     smearing contrib. (-TS)   =      -0.07406586 Ry

     total magnetization       =    18.04 Bohr mag/cell
     absolute magnetization    =    19.56 Bohr mag/cell

     convergence has been achieved in  31 iterations

 BEEF-vdW xc energy contributions
           1 :   -315.518274496773
           2 :    285.506294561452
           3 :   -235.446543667225
           4 :    180.342475665640
           5 :   -133.566817538523
           6 :    102.015436924621
           7 :   -85.1456523712487
           8 :    77.4866659288686
           9 :   -72.6062944471661
          10 :    66.2700200027355
          11 :   -57.5498640918099
          12 :    47.9537678521000
          13 :   -39.6344014813155
          14 :    33.8740554279327
          15 :   -30.5624103064105
          16 :    28.6161395972226
          17 :   -26.8248414724246
          18 :    24.5277096338083
          19 :   -21.8127611751503
          20 :    19.2420752408680
          21 :   -17.3641565658379
          22 :    16.3192553666903
          23 :   -15.7674323744925
          24 :    15.1411429555592
          25 :   -14.0411564823626
          26 :    12.4995564090632
          27 :   -10.9467060807227
          28 :    9.90498186407177
          29 :   -9.62664984568897
          30 :    9.91433949986646
          31 :   -29.5073686715556
          32 :   -21.1478110058845

     Forces acting on atoms (Ry/au):

     negative rho (up, down):  7.367E-04 1.131E-03
     atom    1 type  1   force =    -0.00001511    0.01065581    0.01907037
     atom    2 type  1   force =    -0.00001522    0.01065612    0.01907346
     atom    3 type  2   force =    -0.00001547   -0.01150428   -0.01861504
     atom    4 type  2   force =    -0.00001069   -0.01150419   -0.01861512
     atom    5 type  1   force =     0.00001304   -0.00873365    0.00059586
     atom    6 type  1   force =     0.00001317   -0.00871963    0.00061627
     atom    7 type  2   force =    -0.00001295    0.00969199   -0.00272663
     atom    8 type  2   force =    -0.00002376    0.00969201   -0.00272644
     atom    9 type  1   force =     0.00001501    0.00047491    0.00037989
     atom   10 type  1   force =     0.00001482    0.00049872    0.00038537
     atom   11 type  2   force =     0.00007201   -0.00060435    0.00128099
     atom   12 type  2   force =    -0.00003487   -0.00060346    0.00128102

     Total force =     0.047675     Total SCF correction =     0.002650

     entering subroutine stress ...

     negative rho (up, down):  7.367E-04 1.131E-03
          total   stress  (Ry/bohr**3)                   (kbar)     P=   -7.08
  -0.00007091  -0.00000000   0.00000000        -10.43     -0.00      0.00
  -0.00000000  -0.00006111   0.00000121         -0.00     -8.99      0.18
   0.00000000   0.00000121  -0.00001245          0.00      0.18     -1.83

 !ASE

     Writing output data file calc.save

     General routines

     Parallel routines

   This run was terminated on:   7:56: 4  19Dec2018

   JOB DONE.
Job  /afs/slac/g/suncat/bin/suncat-tsmpirun -x LD_LIBRARY_PATH -wdir /scratch/qe529912_Dg0VH pw.x -in pw.inp

TID   HOST_NAME   COMMAND_LINE            STATUS            TERMINATION_TIME
00000 suncat1060 pw.x -in pw.inp   Done                     12/19/2018 07:56:05
00001 suncat1060 pw.x -in pw.inp   Done                     12/19/2018 07:56:05
00002 suncat1060 pw.x -in pw.inp   Done                     12/19/2018 07:56:05
00003 suncat1060 pw.x -in pw.inp   Done                     12/19/2018 07:56:05
00004 suncat1060 pw.x -in pw.inp   Done                     12/19/2018 07:56:05
00005 suncat1060 pw.x -in pw.inp   Done                     12/19/2018 07:56:05
00006 suncat1060 pw.x -in pw.inp   Done                     12/19/2018 07:56:05
00007 suncat1060 pw.x -in pw.inp   Done                     12/19/2018 07:56:05
00008 suncat1059 pw.x -in pw.inp   Done                     12/19/2018 07:56:05
00009 suncat1059 pw.x -in pw.inp   Done                     12/19/2018 07:56:05
00010 suncat1059 pw.x -in pw.inp   Done                     12/19/2018 07:56:05
00011 suncat1059 pw.x -in pw.inp   Done                     12/19/2018 07:56:05
00012 suncat1059 pw.x -in pw.inp   Done                     12/19/2018 07:56:05
00013 suncat1059 pw.x -in pw.inp   Done                     12/19/2018 07:56:05
00014 suncat1059 pw.x -in pw.inp   Done                     12/19/2018 07:56:05
00015 suncat1059 pw.x -in pw.inp   Done                     12/19/2018 07:56:05
00016 suncat1059 pw.x -in pw.inp   Done                     12/19/2018 07:56:05
00017 suncat1059 pw.x -in pw.inp   Done                     12/19/2018 07:56:05
00018 suncat1059 pw.x -in pw.inp   Done                     12/19/2018 07:56:05
00019 suncat1059 pw.x -in pw.inp   Done                     12/19/2018 07:56:05
00020 suncat1058 pw.x -in pw.inp   Done                     12/19/2018 07:56:05
00021 suncat1058 pw.x -in pw.inp   Done                     12/19/2018 07:56:05
00022 suncat1058 pw.x -in pw.inp   Done                     12/19/2018 07:56:05
00023 suncat1058 pw.x -in pw.inp   Done                     12/19/2018 07:56:05
00024 suncat1058 pw.x -in pw.inp   Done                     12/19/2018 07:56:05
00025 suncat1058 pw.x -in pw.inp   Done                     12/19/2018 07:56:05
00026 suncat1058 pw.x -in pw.inp   Done                     12/19/2018 07:56:05
00027 suncat1058 pw.x -in pw.inp   Done                     12/19/2018 07:56:05
00028 suncat1058 pw.x -in pw.inp   Done                     12/19/2018 07:56:05
00029 suncat1058 pw.x -in pw.inp   Done                     12/19/2018 07:56:05
00030 suncat1058 pw.x -in pw.inp   Done                     12/19/2018 07:56:05
00031 suncat1058 pw.x -in pw.inp   Done                     12/19/2018 07:56:05