     Program PWSCF v.5.1rc2 (svn rev. 11289) starts on 24Dec2018 at 22: 5: 2

     Current dimensions of program PWSCF are:
     Max number of different atomic species (ntypx) = 10
     Max number of k-points (npk) =  40000
     Max angular momentum in pseudopotentials (lmaxx) =  3
     Presently stress not available with electric field

     IMPORTANT: XC functional enforced from input :
     Exchange-correlation      = BEEF-VDW ( 1  4 27 13 2)
     Any further DFT definition will be discarded
     Please, verify this is what you really want

     Subspace diagonalization in iterative solution of the eigenvalue problem:
     a serial algorithm will be used

     Found symmetry operation: I + (  0.5000  0.0000  0.0000)
     This is a supercell, fractional translations are disabled

     bravais-lattice index     =            0
     lattice parameter (alat)  =       1.8897  a.u.
     unit-cell volume          =    5774.2923 (a.u.)^3
     number of atoms/cell      =           12
     number of atomic types    =            2
     number of electrons       =       150.00
     number of Kohn-Sham states=          105
     kinetic-energy cutoff     =      36.7493  Ry
     charge density cutoff     =     367.4932  Ry
     convergence threshold     =      1.0E-06
     mixing beta               =       0.1000
     number of iterations used =           10  plain     mixing
     Exchange-correlation      = BEEF-VDW ( 1  4 27 13 2)
     nstep                     =           50

     celldm(1)=   1.889726  celldm(2)=   0.000000  celldm(3)=   0.000000
     celldm(4)=   0.000000  celldm(5)=   0.000000  celldm(6)=   0.000000

     crystal axes: (cart. coord. in units of alat)
               a(1) = (   6.250879   0.000000   0.000000 )
               a(2) = (  -3.125440   5.449201   0.000000 )
               a(3) = (   0.000000   0.000000  25.120496 )

     reciprocal axes: (cart. coord. in units 2 pi/alat)
               b(1) = (  0.159977  0.091757  0.000000 )
               b(2) = (  0.000000  0.183513  0.000000 )
               b(3) = (  0.000000  0.000000  0.039808 )

     PseudoPot. # 1 for In read from file:
     /afs/slac.stanford.edu/u/if/mamunm/psp/gbrv1.5pbe/In.UPF
     MD5 check sum: 90777abd96fbb83f2e67db2a40c566b9
     Pseudo is Ultrasoft + core correction, Zval = 13.0
     Generated by new atomic code, or converted to UPF format
     Using radial grid of  889 points,  6 beta functions with:
                l(1) =   0
                l(2) =   0
                l(3) =   1
                l(4) =   1
                l(5) =   2
                l(6) =   2
     Q(r) pseudized with  6 coefficients,  rinner =    1.400   1.400   1.400
                                                       1.400   1.400

     PseudoPot. # 2 for Hf read from file:
     /afs/slac.stanford.edu/u/if/mamunm/psp/gbrv1.5pbe/Hf.UPF
     MD5 check sum: 8ee9378dfe14276e333edf04c5e4aa26
     Pseudo is Ultrasoft + core correction, Zval = 12.0
     Generated by new atomic code, or converted to UPF format
     Using radial grid of  921 points,  8 beta functions with:
                l(1) =   0
                l(2) =   0
                l(3) =   0
                l(4) =   1
                l(5) =   1
                l(6) =   2
                l(7) =   2
                l(8) =   3
     Q(r) pseudized with  6 coefficients,  rinner =    1.200   1.200   1.200
                                                       1.200   1.200   1.200
                                                       1.200

     vdW kernel table read from file vdW_kernel_table
     MD5 check sum: 095c7af220d748ca6e76c0b4c6cfb241

     atomic species   valence    mass     pseudopotential
        In1           13.00   114.81800     In( 1.00)
        Hf1           12.00   178.49000     Hf( 1.00)

     No symmetry found

   Cartesian axes

     site n.     atom                  positions (alat units)
         1           In1 tau(   1) = (   0.0000000   0.0000000  10.0000000  )
         2           In1 tau(   2) = (   3.1254396   0.0000000  10.0000000  )
         3           Hf1 tau(   3) = (   1.5627198   2.7246006  10.0000000  )
         4           Hf1 tau(   4) = (  -1.5627198   2.7246006  10.0000000  )
         5           In1 tau(   5) = (   3.1254396   1.7926247  12.5602479  )
         6           In1 tau(   6) = (   0.0000000   1.7926247  12.5602479  )
         7           Hf1 tau(   7) = (  -1.5627198   4.5172253  12.5602479  )
         8           Hf1 tau(   8) = (   1.5627198   4.5172253  12.5602479  )
         9           In1 tau(   9) = (   0.0000000   3.5852494  15.1204958  )
        10           In1 tau(  10) = (   3.1254396   3.5852494  15.1204958  )
        11           Hf1 tau(  11) = (   4.6881594   0.8606488  15.1204958  )
        12           Hf1 tau(  12) = (   1.5627198   0.8606488  15.1204958  )

     number of k points=    20  Fermi-Dirac smearing, width (Ry)=  0.0110
                       cart. coord. in units 2pi/alat
        k(    1) = (   0.0000000   0.0000000   0.0000000), wk =   0.0555556
        k(    2) = (   0.0000000   0.0305855   0.0000000), wk =   0.1111111
        k(    3) = (   0.0000000   0.0611710   0.0000000), wk =   0.1111111
        k(    4) = (   0.0000000  -0.0917566   0.0000000), wk =   0.0555556
        k(    5) = (   0.0266629   0.0152928   0.0000000), wk =   0.1111111
        k(    6) = (   0.0266629   0.0458783   0.0000000), wk =   0.1111111
        k(    7) = (   0.0266629   0.0764638   0.0000000), wk =   0.1111111
        k(    8) = (   0.0266629  -0.0764638   0.0000000), wk =   0.1111111
        k(    9) = (   0.0266629  -0.0458783   0.0000000), wk =   0.1111111
        k(   10) = (   0.0266629  -0.0152928   0.0000000), wk =   0.1111111
        k(   11) = (   0.0533258   0.0305855   0.0000000), wk =   0.1111111
        k(   12) = (   0.0533258   0.0611710   0.0000000), wk =   0.1111111
        k(   13) = (   0.0533258   0.0917566   0.0000000), wk =   0.1111111
        k(   14) = (   0.0533258  -0.0611710   0.0000000), wk =   0.1111111
        k(   15) = (   0.0533258  -0.0305855   0.0000000), wk =   0.1111111
        k(   16) = (   0.0533258  -0.0000000   0.0000000), wk =   0.1111111
        k(   17) = (  -0.0799887  -0.0458783   0.0000000), wk =   0.0555556
        k(   18) = (  -0.0799887  -0.0152928   0.0000000), wk =   0.1111111
        k(   19) = (  -0.0799887   0.0152928   0.0000000), wk =   0.1111111
        k(   20) = (  -0.0799887  -0.1376349   0.0000000), wk =   0.0555556

     Largest allocated arrays     est. size (Mb)     dimensions
     Largest temporary arrays     est. size (Mb)     dimensions

     Check: negative/imaginary core charge=   -0.000002    0.000000

     Initial potential from superposition of free atoms
     Check: negative starting charge=   -0.645941

     starting charge  128.99999, renormalised to  150.00000

     negative rho (up, down):  7.511E-01 0.000E+00

     *
     * You are using vdW-DF for exchange-correlation in this calculation.
     * Please cite the following three references that made this development
     * possible:
     *
     *   M. Dion, H. Rydberg, E. Schroder, D. C. Langreth, and
     *   B. I. Lundqvist, Phys. Rev. Lett. 92, 246401 (2004).
     *
     *   T. Thonhauser, V. R. Cooper, S. Li, A. Puzder, P. Hyldgaard, and
     *   D. C. Langreth, Phys. Rev. B 76, 125112 (2007).
     *
     *   G. Roman-Perez and J. M. Soler, Phys. Rev. Lett. 103, 096102 (2009).
     *
     *
     * If you are using vdW-DF2, please also cite:
     *
     *   K. Lee, E. D. Murray, L. Kong, B. I. Lundqvist, and
     *   D. C. Langreth, Phys. Rev. B 82, 081101(R) (2010).
     *
     *
     * If you are calculating the stress with vdW-DF, please also cite:
     *
     *   R. Sabatini, E. Kucukbenli, B. Kolb, T. Thonhauser, and
     *   S. de Gironcoli, J. Phys.: Condens. Matter 24, 424209 (2012).
     *

     Carrying out vdW-DF run using the following parameters:

     Nqs =      20    Nr_points =    1024   r_max =   100.000
     q_mesh =
               0.00001000     0.04494208     0.09755937     0.15916263
               0.23128650     0.31572767     0.41458969     0.53033537
               0.66584808     0.82450364     1.01025438     1.22772762
               1.48234092     1.78043706     2.12944203     2.53805004
               3.01644009     3.57652955     4.23227104     5.00000000

     Gradients computed in reciprocal space

     Adding external electric field

     Computed dipole along edir(3) :
        Dipole               -0.0000 Ry au,         -0.0000 Debye
        Dipole field         -0.0000 Ry au

        Potential amp.        0.0000 Ry
        Total length         46.2841 bohr

     Starting wfc are  132 randomized atomic wfcs

     Self-consistent Calculation

     iteration #  1     ecut=    36.75 Ry     beta=0.10
     Davidson diagonalization with overlap
     ethr =  1.00E-02,  avg # of iterations =  8.7

[...]

     total energy              =   -1753.49283372 Ry
     Harris-Foulkes estimate   =   -1793.47784887 Ry
     estimated scf accuracy    <     225.28897047 Ry

[...]

     End of self-consistent calculation

          k = 0.0000 0.0000 0.0000 ( 21779 PWs)   bands (ev):

   -61.6671 -61.6669 -61.6449 -61.6446 -61.0967 -61.0737 -30.3525 -30.3443
   -30.3054 -30.2964 -30.2164 -30.2158 -30.1861 -30.1575 -30.1366 -30.1100
   -29.7977 -29.7942 -29.7731 -29.7728 -29.7456 -29.5333 -29.4861 -29.3357
   -13.5906 -13.4818 -13.4206 -13.3702 -13.3516 -13.3415 -13.3245 -13.3155
   -13.2731 -13.2352 -13.1957 -13.1820 -13.1796 -13.1608 -13.1580 -13.0817
   -13.0588 -13.0348 -13.0330 -13.0254 -13.0111 -13.0032 -12.9752 -12.9617
   -12.9614 -12.9440 -12.9421 -12.9214 -12.8188 -12.7932  -7.4713  -5.9442
    -4.4853  -3.8197  -2.7717  -2.2898  -1.6119  -1.4470  -1.3764  -1.1333
    -0.7244  -0.5865  -0.2963   0.0899   0.4781   0.4898   0.4970   0.8154
     0.9326   1.1275   1.4442   1.5065   1.5099   1.7344   1.8130   1.9212
     2.3336   2.4295   2.7137   2.7447   2.8935   3.2600   3.4276   3.6759
     4.1041   4.1421   4.1945   4.2686   4.4012   4.5465   4.6122   4.6468
     4.7298   4.7718   4.8228   5.1146   5.2617   5.4585   5.5014   5.6422
     5.8297

[...]

          k =-0.0800-0.0459 0.0000 ( 21712 PWs)   bands (ev):

[...]

     the Fermi energy is     1.3541 ev

!    total energy              =   -1772.00918285 Ry
     Harris-Foulkes estimate   =   -1772.00917706 Ry
     estimated scf accuracy    <       0.00000037 Ry

     The total energy is the sum of the following terms:

     one-electron contribution =   -9460.50912462 Ry
     hartree contribution      =    4763.78252506 Ry
     xc contribution           =    -699.08806775 Ry
     ewald contribution        =    3623.86403032 Ry
     electric field correction =       0.00000000 Ry
     smearing contrib. (-TS)   =      -0.05854585 Ry

     convergence has been achieved in  19 iterations

 BEEF-vdW xc energy contributions
           1 :   -625.769208977008
           2 :    579.022617093823
           3 :   -497.387356306134
           4 :    399.613251930683
           5 :   -304.322146347452
           6 :    224.199979326328
           7 :   -163.778542260430
           8 :    120.952904625076
[...]
     MD5 check sum: 90777abd96fbb83f2e67db2a40c566b9
     Pseudo is Ultrasoft + core correction, Zval = 13.0
     Generated by new atomic code, or converted to UPF format
     Using radial grid of  889 points,  6 beta functions with:
                l(1) =   0
                l(2) =   0
                l(3) =   1
                l(4) =   1
                l(5) =   2
                l(6) =   2
     Q(r) pseudized with  6 coefficients,  rinner =    1.400   1.400   1.400
                                                       1.400   1.400

     PseudoPot. # 2 for Hf read from file:
     /afs/slac.stanford.edu/u/if/mamunm/psp/gbrv1.5pbe/Hf.UPF
     MD5 check sum: 8ee9378dfe14276e333edf04c5e4aa26
     Pseudo is Ultrasoft + core correction, Zval = 12.0
     Generated by new atomic code, or converted to UPF format
     Using radial grid of  921 points,  8 beta functions with:
                l(1) =   0
                l(2) =   0
                l(3) =   0
                l(4) =   1
                l(5) =   1
                l(6) =   2
                l(7) =   2
                l(8) =   3
     Q(r) pseudized with  6 coefficients,  rinner =    1.200   1.200   1.200
                                                       1.200   1.200   1.200
                                                       1.200

     vdW kernel table read from file vdW_kernel_table
     MD5 check sum: 095c7af220d748ca6e76c0b4c6cfb241

     atomic species   valence    mass     pseudopotential
        In1           13.00   114.81800     In( 1.00)
        Hf1           12.00   178.49000     Hf( 1.00)

     No symmetry found

   Cartesian axes

     site n.     atom                  positions (alat units)
         1           In1 tau(   1) = (   0.0000000   0.0000000  10.0000000  )
         2           In1 tau(   2) = (   3.1254396   0.0000000  10.0000000  )
         3           Hf1 tau(   3) = (   1.5627198   2.7246006  10.0000000  )
         4           Hf1 tau(   4) = (  -1.5627198   2.7246006  10.0000000  )
         5           In1 tau(   5) = (   3.1254396   1.7926247  12.5602479  )
         6           In1 tau(   6) = (   0.0000000   1.7926247  12.5602479  )
         7           Hf1 tau(   7) = (  -1.5627198   4.5172253  12.5602479  )
         8           Hf1 tau(   8) = (   1.5627198   4.5172253  12.5602479  )
         9           In1 tau(   9) = (  -0.0000141   3.5712042  15.3292355  )
        10           In1 tau(  10) = (   3.1254520   3.5712165  15.3291912  )
        11           Hf1 tau(  11) = (   4.6882450   0.8464317  15.0175181  )
        12           Hf1 tau(  12) = (   1.5626337   0.8464557  15.0175354  )

     number of k points=    20  Fermi-Dirac smearing, width (Ry)=  0.0110
                       cart. coord. in units 2pi/alat
        k(    1) = (   0.0000000   0.0000000   0.0000000), wk =   0.0555556
        k(    2) = (   0.0000000   0.0305855   0.0000000), wk =   0.1111111
        k(    3) = (   0.0000000   0.0611710   0.0000000), wk =   0.1111111
        k(    4) = (   0.0000000  -0.0917566   0.0000000), wk =   0.0555556
        k(    5) = (   0.0266629   0.0152928   0.0000000), wk =   0.1111111
        k(    6) = (   0.0266629   0.0458783   0.0000000), wk =   0.1111111
        k(    7) = (   0.0266629   0.0764638   0.0000000), wk =   0.1111111
        k(    8) = (   0.0266629  -0.0764638   0.0000000), wk =   0.1111111
        k(    9) = (   0.0266629  -0.0458783   0.0000000), wk =   0.1111111
        k(   10) = (   0.0266629  -0.0152928   0.0000000), wk =   0.1111111
        k(   11) = (   0.0533258   0.0305855   0.0000000), wk =   0.1111111
        k(   12) = (   0.0533258   0.0611710   0.0000000), wk =   0.1111111
        k(   13) = (   0.0533258   0.0917566   0.0000000), wk =   0.1111111
        k(   14) = (   0.0533258  -0.0611710   0.0000000), wk =   0.1111111
        k(   15) = (   0.0533258  -0.0305855   0.0000000), wk =   0.1111111
        k(   16) = (   0.0533258  -0.0000000   0.0000000), wk =   0.1111111
        k(   17) = (  -0.0799887  -0.0458783   0.0000000), wk =   0.0555556
        k(   18) = (  -0.0799887  -0.0152928   0.0000000), wk =   0.1111111
        k(   19) = (  -0.0799887   0.0152928   0.0000000), wk =   0.1111111
        k(   20) = (  -0.0799887  -0.1376349   0.0000000), wk =   0.0555556

     Largest allocated arrays     est. size (Mb)     dimensions
     Largest temporary arrays     est. size (Mb)     dimensions

     Check: negative/imaginary core charge=   -0.000002    0.000000

     Initial potential from superposition of free atoms
     Check: negative starting charge=   -0.646755

     starting charge  128.99999, renormalised to  150.00000

[...]

     *
     * You are using vdW-DF for exchange-correlation in this calculation.
     * Please cite the following three references that made this development
     * possible:
     *
     *   M. Dion, H. Rydberg, E. Schroder, D. C. Langreth, and
     *   B. I. Lundqvist, Phys. Rev. Lett. 92, 246401 (2004).
     *
     *   T. Thonhauser, V. R. Cooper, S. Li, A. Puzder, P. Hyldgaard, and
     *   D. C. Langreth, Phys. Rev. B 76, 125112 (2007).
     *
     *   G. Roman-Perez and J. M. Soler, Phys. Rev. Lett. 103, 096102 (2009).
     *
     *
     * If you are using vdW-DF2, please also cite:
     *
     *   K. Lee, E. D. Murray, L. Kong, B. I. Lundqvist, and
     *   D. C. Langreth, Phys. Rev. B 82, 081101(R) (2010).
     *
     *
     * If you are calculating the stress with vdW-DF, please also cite:
     *
     *   R. Sabatini, E. Kucukbenli, B. Kolb, T. Thonhauser, and
     *   S. de Gironcoli, J. Phys.: Condens. Matter 24, 424209 (2012).
     *

     Carrying out vdW-DF run using the following parameters:

     Nqs =      20    Nr_points =    1024   r_max =   100.000
     q_mesh =
               0.00001000     0.04494208     0.09755937     0.15916263
               0.23128650     0.31572767     0.41458969     0.53033537
               0.66584808     0.82450364     1.01025438     1.22772762
               1.48234092     1.78043706     2.12944203     2.53805004
               3.01644009     3.57652955     4.23227104     5.00000000

     Gradients computed in reciprocal space

[...]

     Starting wfc are  132 randomized atomic wfcs

     Self-consistent Calculation

[...]

     total energy              =   -1772.02243374 Ry
     Harris-Foulkes estimate   =   -1772.02243262 Ry
     estimated scf accuracy    <       0.00000106 Ry

     iteration # 20     ecut=    36.75 Ry     beta=0.10
     Davidson diagonalization with overlap
     ethr =  7.04E-10,  avg # of iterations =  2.0

[...]

     negative rho (up, down):  6.826E-01 0.000E+00

     Adding external electric field

     Computed dipole along edir(3) :
        Dipole               -0.0405 Ry au,         -0.1029 Debye
        Dipole field         -0.0001 Ry au

        Potential amp.        0.0082 Ry
        Total length         46.2841 bohr

     End of self-consistent calculation

[...]

          k = 0.0533-0.0000 0.0000 ( 21739 PWs)   bands (ev):

[...]

          k =-0.0800-0.1376 0.0000 ( 21712 PWs)   bands (ev):

   -61.7189 -61.7189 -61.5647 -61.5646 -61.1401 -61.1400 -30.3900 -30.3900
   -30.2370 -30.2370 -30.2074 -30.2074 -30.0750 -30.0750 -30.0584 -30.0584
   -29.9442 -29.9440 -29.8209 -29.8209 -29.6235 -29.6234 -29.5372 -29.5372
   -13.4030 -13.4030 -13.3659 -13.3659 -13.3360 -13.3360 -13.3203 -13.3203
   -13.2752 -13.2752 -13.1153 -13.1153 -13.1092 -13.1092 -13.0952 -13.0952
   -13.0805 -13.0805 -13.0733 -13.0733 -13.0599 -13.0599 -13.0479 -13.0479
   -13.0211 -13.0211 -13.0120 -13.0120 -12.9758 -12.9758  -6.0039  -6.0039
    -4.6876  -4.6876  -3.6925  -3.6925  -1.8634  -1.8633  -1.0832  -1.0832
    -0.0560  -0.0560   0.1165   0.1165   0.6182   0.6182   0.8855   0.8856
     1.1507   1.1507   1.4315   1.4315   1.6392   1.6392   2.0628   2.0628
     2.5130   2.5131   2.8881   2.8882   3.1986   3.1988   3.3193   3.3194
     3.8407   3.8408   3.9069   3.9070   4.1480   4.1481   4.3357   4.3359
     4.8260   4.8261   5.2919   5.2920   5.5906   5.5906   5.7473   5.7474
     6.0133

     the Fermi energy is     1.2977 ev

!    total energy              =   -1772.02243845 Ry
     Harris-Foulkes estimate   =   -1772.02243373 Ry
     estimated scf accuracy    <       0.00000035 Ry

     The total energy is the sum of the following terms:

     one-electron contribution =   -9377.19716098 Ry
     hartree contribution      =    4722.02340146 Ry
     xc contribution           =    -699.06092142 Ry
     ewald contribution        =    3582.27181051 Ry
     electric field correction =       0.00000357 Ry
     smearing contrib. (-TS)   =      -0.05957159 Ry

     convergence has been achieved in  20 iterations

 BEEF-vdW xc energy contributions
           1 :   -625.739105415351
           2 :    578.966047751889
           3 :   -497.298659069438
           4 :    399.511681961170
           5 :   -304.237748576218
           6 :    224.152349468299
           7 :   -163.762449081875
           8 :    120.940437816074
           9 :   -90.5832053786231
          10 :    68.0681928404205
          11 :   -50.9145947137034
          12 :    38.3925570397066
          13 :   -30.0624278544879
          14 :    24.5834748499046
          15 :   -19.6675466187270
          16 :    13.0866165516122
          17 :   -3.92886854062010
          18 :   -6.82350952580930
          19 :    16.7841860462288
          20 :   -23.4110260696027
          21 :    25.2564557783268
          22 :   -22.5614787973567
          23 :    16.9829422842586
          24 :   -10.7518368051839
          25 :    5.77987595150057
          26 :   -3.13596364715795
          27 :    2.99628077175487
          28 :   -4.90489043473565
          29 :    8.08462070439521
          30 :   -11.6437574163440
          31 :   -48.7626361806297
          32 :   -35.3173207045339

     Forces acting on atoms (Ry/au):

     negative rho (up, down):  6.826E-01 0.000E+00
     atom    1 type  1   force =    -0.00000077    0.00032358   -0.02278283
     atom    2 type  1   force =     0.00000071    0.00031916   -0.02278843
     atom    3 type  2   force =    -0.00000009    0.00426269    0.02167336
     atom    4 type  2   force =     0.00000005    0.00426370    0.02167328
     atom    5 type  1   force =    -0.00000052    0.00640483   -0.00308061
     atom    6 type  1   force =     0.00000025    0.00638044   -0.00309125
     atom    7 type  2   force =    -0.00011743   -0.01158709    0.00268659
     atom    8 type  2   force =     0.00011760   -0.01158762    0.00268678
     atom    9 type  1   force =     0.00000289    0.00163989    0.00084794
     atom   10 type  1   force =    -0.00000285    0.00161802    0.00085308
     atom   11 type  2   force =    -0.00012143   -0.00101696    0.00066333
     atom   12 type  2   force =     0.00012160   -0.00102063    0.00065877

     Total force =     0.049070     Total SCF correction =     0.002477

     entering subroutine stress ...

     negative rho (up, down):  6.826E-01 0.000E+00
          total   stress  (Ry/bohr**3)                   (kbar)     P=   -9.98
  -0.00005806   0.00000000  -0.00000000         -8.54      0.00     -0.00
   0.00000000  -0.00013198  -0.00000861          0.00    -19.41     -1.27
  -0.00000000  -0.00000861  -0.00001347         -0.00     -1.27     -1.98

 !ASE

     Writing output data file calc.save

     General routines

     Parallel routines

   This run was terminated on:   0:24:33  25Dec2018

   JOB DONE.
Job  /afs/slac/g/suncat/bin/suncat-tsmpirun -x LD_LIBRARY_PATH -wdir /scratch/qe109017_dVz49 pw.x -in pw.inp

TID   HOST_NAME   COMMAND_LINE            STATUS            TERMINATION_TIME
00000 suncat0024 pw.x -in pw.inp   Done                     12/25/2018 00:24:33
00001 suncat0024 pw.x -in pw.inp   Done                     12/25/2018 00:24:33
00002 suncat0024 pw.x -in pw.inp   Done                     12/25/2018 00:24:33
00003 suncat0024 pw.x -in pw.inp   Done                     12/25/2018 00:24:33
00004 suncat0024 pw.x -in pw.inp   Done                     12/25/2018 00:24:33
00005 suncat0024 pw.x -in pw.inp   Done                     12/25/2018 00:24:33
00006 suncat0024 pw.x -in pw.inp   Done                     12/25/2018 00:24:33
00007 suncat0024 pw.x -in pw.inp   Done                     12/25/2018 00:24:33
00008 suncat0023 pw.x -in pw.inp   Done                     12/25/2018 00:24:33
00009 suncat0023 pw.x -in pw.inp   Done                     12/25/2018 00:24:33
00010 suncat0023 pw.x -in pw.inp   Done                     12/25/2018 00:24:33
00011 suncat0023 pw.x -in pw.inp   Done                     12/25/2018 00:24:33
00012 suncat0023 pw.x -in pw.inp   Done                     12/25/2018 00:24:33
00013 suncat0023 pw.x -in pw.inp   Done                     12/25/2018 00:24:33
00014 suncat0023 pw.x -in pw.inp   Done                     12/25/2018 00:24:33
00015 suncat0023 pw.x -in pw.inp   Done                     12/25/2018 00:24:33
00016 suncat0022 pw.x -in pw.inp   Done                     12/25/2018 00:24:33
00017 suncat0022 pw.x -in pw.inp   Done                     12/25/2018 00:24:33
00018 suncat0022 pw.x -in pw.inp   Done                     12/25/2018 00:24:33
00019 suncat0022 pw.x -in pw.inp   Done                     12/25/2018 00:24:33
00020 suncat0022 pw.x -in pw.inp   Done                     12/25/2018 00:24:33
00021 suncat0022 pw.x -in pw.inp   Done                     12/25/2018 00:24:33
00022 suncat0022 pw.x -in pw.inp   Done                     12/25/2018 00:24:33
00023 suncat0022 pw.x -in pw.inp   Done                     12/25/2018 00:24:33
00024 suncat0018 pw.x -in pw.inp   Done                     12/25/2018 00:24:33
00025 suncat0018 pw.x -in pw.inp   Done                     12/25/2018 00:24:33
00026 suncat0018 pw.x -in pw.inp   Done                     12/25/2018 00:24:33
00027 suncat0018 pw.x -in pw.inp   Done                     12/25/2018 00:24:33
00028 suncat0018 pw.x -in pw.inp   Done                     12/25/2018 00:24:33
00029 suncat0018 pw.x -in pw.inp   Done                     12/25/2018 00:24:33
00030 suncat0018 pw.x -in pw.inp   Done                     12/25/2018 00:24:33
00031 suncat0018 pw.x -in pw.inp   Done                     12/25/2018 00:24:33
00032 suncat0017 pw.x -in pw.inp   Done                     12/25/2018 00:24:33
00033 suncat0017 pw.x -in pw.inp   Done                     12/25/2018 00:24:33
00034 suncat0017 pw.x -in pw.inp   Done                     12/25/2018 00:24:33
00035 suncat0017 pw.x -in pw.inp   Done                     12/25/2018 00:24:33
00036 suncat0017 pw.x -in pw.inp   Done                     12/25/2018 00:24:33
00037 suncat0017 pw.x -in pw.inp   Done                     12/25/2018 00:24:33
00038 suncat0017 pw.x -in pw.inp   Done                     12/25/2018 00:24:33
00039 suncat0017 pw.x -in pw.inp   Done                     12/25/2018 00:24:33
00040 suncat0016 pw.x -in pw.inp   Done                     12/25/2018 00:24:33
00041 suncat0016 pw.x -in pw.inp   Done                     12/25/2018 00:24:33
00042 suncat0016 pw.x -in pw.inp   Done                     12/25/2018 00:24:33
00043 suncat0016 pw.x -in pw.inp   Done                     12/25/2018 00:24:33
00044 suncat0016 pw.x -in pw.inp   Done                     12/25/2018 00:24:33
00045 suncat0016 pw.x -in pw.inp   Done                     12/25/2018 00:24:33
00046 suncat0016 pw.x -in pw.inp   Done                     12/25/2018 00:24:33
00047 suncat0016 pw.x -in pw.inp   Done                     12/25/2018 00:24:33
00048 suncat0014 pw.x -in pw.inp   Done                     12/25/2018 00:24:33
00049 suncat0014 pw.x -in pw.inp   Done                     12/25/2018 00:24:33
00050 suncat0014 pw.x -in pw.inp   Done                     12/25/2018 00:24:33
00051 suncat0014 pw.x -in pw.inp   Done                     12/25/2018 00:24:33
00052 suncat0014 pw.x -in pw.inp   Done                     12/25/2018 00:24:33
00053 suncat0014 pw.x -in pw.inp   Done                     12/25/2018 00:24:33
00054 suncat0014 pw.x -in pw.inp   Done                     12/25/2018 00:24:33
00055 suncat0014 pw.x -in pw.inp   Done                     12/25/2018 00:24:33
00056 suncat0198 pw.x -in pw.inp   Done                     12/25/2018 00:24:33
00057 suncat0198 pw.x -in pw.inp   Done                     12/25/2018 00:24:33
00058 suncat0198 pw.x -in pw.inp   Done                     12/25/2018 00:24:33
00059 suncat0198 pw.x -in pw.inp   Done                     12/25/2018 00:24:33
00060 suncat0198 pw.x -in pw.inp   Done                     12/25/2018 00:24:33
00061 suncat0198 pw.x -in pw.inp   Done                     12/25/2018 00:24:33
00062 suncat0198 pw.x -in pw.inp   Done                     12/25/2018 00:24:33
00063 suncat0198 pw.x -in pw.inp   Done                     12/25/2018 00:24:33