     Program PWSCF v.5.1rc2 (svn rev. 11289) starts on 19Dec2018 at  8: 7:57

     Current dimensions of program PWSCF are:
     Max number of different atomic species (ntypx) = 10
     Max number of k-points (npk) =  40000
     Max angular momentum in pseudopotentials (lmaxx) =  3
     Presently stress not available with electric field

     IMPORTANT: XC functional enforced from input :
     Exchange-correlation      = BEEF-VDW ( 1  4 27 13 2)
     Any further DFT definition will be discarded
     Please, verify this is what you really want

     Subspace diagonalization in iterative solution of the eigenvalue problem:
     a serial algorithm will be used

     Found symmetry operation: I + ( -0.5000 -0.5000  0.0000)
     This is a supercell, fractional translations are disabled

     bravais-lattice index     =            0
     lattice parameter (alat)  =       1.8897  a.u.
     unit-cell volume          =    4525.6960 (a.u.)^3
     number of atoms/cell      =           12
     number of atomic types    =            2
     number of electrons       =       162.00
     number of Kohn-Sham states=          111
     kinetic-energy cutoff     =      36.7493  Ry
     charge density cutoff     =     367.4932  Ry
     convergence threshold     =      1.0E-06
     mixing beta               =       0.1000
     number of iterations used =           10  plain     mixing
     Exchange-correlation      = BEEF-VDW ( 1  4 27 13 2)
     nstep                     =           50

     celldm(1)=   1.889726  celldm(2)=   0.000000  celldm(3)=   0.000000
     celldm(4)=   0.000000  celldm(5)=   0.000000  celldm(6)=   0.000000

     crystal axes: (cart. coord. in units of alat)
               a(1) = (   5.399388   0.000000   0.000000 )
               a(2) = (   1.806504   5.088215   0.000000 )
               a(3) = (   0.000000   0.000000  24.410618 )

     reciprocal axes: (cart. coord. in units 2 pi/alat)
               b(1) = (  0.185206 -0.065755  0.000000 )
               b(2) = (  0.000000  0.196533  0.000000 )
               b(3) = (  0.000000  0.000000  0.040966 )

     PseudoPot. # 1 for Ti read from file:
     /afs/slac.stanford.edu/u/if/mamunm/psp/gbrv1.5pbe/Ti.UPF
     MD5 check sum: 88a00a6731bd790ddea75d31a80cb452
     Pseudo is Ultrasoft + core correction, Zval = 12.0
     Generated by new atomic code, or converted to UPF format
     Using radial grid of  851 points,  6 beta functions with:
                l(1) =   0
                l(2) =   0
                l(3) =   1
                l(4) =   1
                l(5) =   2
                l(6) =   2
     Q(r) pseudized with  6 coefficients,  rinner =    1.000   1.000   1.000
                                                       1.000   1.000

     PseudoPot. # 2 for Re read from file:
     /afs/slac.stanford.edu/u/if/mamunm/psp/gbrv1.5pbe/Re.UPF
     MD5 check sum: 85f993410f3e006da9d71c142b4ad953
     Pseudo is Ultrasoft + core correction, Zval = 15.0
     Generated by new atomic code, or converted to UPF format
     Using radial grid of  981 points,  8 beta functions with:
                l(1) =   0
                l(2) =   0
                l(3) =   1
                l(4) =   1
                l(5) =   2
                l(6) =   2
                l(7) =   3
                l(8) =   3
     Q(r) pseudized with  8 coefficients,  rinner =    1.150   1.150   1.150
                                                       1.150   1.150   1.150
                                                       1.150

     vdW kernel table read from file vdW_kernel_table
     MD5 check sum: 095c7af220d748ca6e76c0b4c6cfb241

     atomic species   valence    mass     pseudopotential
        Ti1           12.00    47.86700     Ti( 1.00)
        Re1           15.00   186.20700     Re( 1.00)

     No symmetry found

   Cartesian axes

     site n.     atom                  positions (alat units)
         1           Ti1 tau(   1) = (   0.0000000   0.0000000  10.0000000  )
         2           Ti1 tau(   2) = (   3.6029458   2.5441076  10.0000000  )
         3           Re1 tau(   3) = (   2.6996940   0.0000000  10.0000000  )
         4           Re1 tau(   4) = (   0.9032518   2.5441076  10.0000000  )
         5           Ti1 tau(   5) = (   5.3993879   3.8126091  12.2053090  )
         6           Ti1 tau(   6) = (   1.7964421   1.2685015  12.2053090  )
         7           Re1 tau(   7) = (   2.6996940   3.8126091  12.2053090  )
         8           Re1 tau(   8) = (   4.4961361   1.2685015  12.2053090  )
         9           Ti1 tau(   9) = (   3.5928843   2.5370030  14.4106179  )
        10           Ti1 tau(  10) = (   7.1958300   5.0811106  14.4106179  )
        11           Re1 tau(  11) = (   6.2925782   2.5370030  14.4106179  )
        12           Re1 tau(  12) = (   4.4961361   5.0811106  14.4106179  )

     number of k points=    20  Fermi-Dirac smearing, width (Ry)=  0.0110
                       cart. coord. in units 2pi/alat
        k(    1) = (   0.0000000   0.0000000   0.0000000), wk =   0.0555556
        k(    2) = (   0.0000000   0.0327554   0.0000000), wk =   0.1111111
        k(    3) = (   0.0000000   0.0655109   0.0000000), wk =   0.1111111
        k(    4) = (   0.0000000  -0.0982663   0.0000000), wk =   0.0555556
        k(    5) = (   0.0308677  -0.0109592   0.0000000), wk =   0.1111111
        k(    6) = (   0.0308677   0.0217963   0.0000000), wk =   0.1111111
        k(    7) = (   0.0308677   0.0545517   0.0000000), wk =   0.1111111
        k(    8) = (   0.0308677  -0.1092255   0.0000000), wk =   0.1111111
        k(    9) = (   0.0308677  -0.0764700   0.0000000), wk =   0.1111111
        k(   10) = (   0.0308677  -0.0437146   0.0000000), wk =   0.1111111
        k(   11) = (   0.0617354  -0.0219183   0.0000000), wk =   0.1111111
        k(   12) = (   0.0617354   0.0108371   0.0000000), wk =   0.1111111
        k(   13) = (   0.0617354   0.0435925   0.0000000), wk =   0.1111111
        k(   14) = (   0.0617354  -0.1201846   0.0000000), wk =   0.1111111
        k(   15) = (   0.0617354  -0.0874292   0.0000000), wk =   0.1111111
        k(   16) = (   0.0617354  -0.0546738   0.0000000), wk =   0.1111111
        k(   17) = (  -0.0926031   0.0328775   0.0000000), wk =   0.0555556
        k(   18) = (  -0.0926031   0.0656329   0.0000000), wk =   0.1111111
        k(   19) = (  -0.0926031   0.0983884   0.0000000), wk =   0.1111111
        k(   20) = (  -0.0926031  -0.0653888   0.0000000), wk =   0.0555556

     Largest allocated arrays     est. size (Mb)     dimensions
     Largest temporary arrays     est. size (Mb)     dimensions

     Check: negative/imaginary core charge=   -0.000003    0.000000

     Initial potential from superposition of free atoms
     Check: negative starting charge=   -0.791911

     starting charge  152.99947, renormalised to  162.00000

     negative rho (up, down):  8.385E-01 0.000E+00

     *
     * You are using vdW-DF for exchange-correlation in this calculation.
     * Please cite the following three references that made this development
     * possible:
     *
     *   M. Dion, H. Rydberg, E. Schroder, D. C. Langreth, and
     *   B. I. Lundqvist, Phys. Rev. Lett. 92, 246401 (2004).
     *
     *   T. Thonhauser, V. R. Cooper, S. Li, A. Puzder, P. Hyldgaard, and
     *   D. C. Langreth, Phys. Rev. B 76, 125112 (2007).
     *
     *   G. Roman-Perez and J. M. Soler, Phys. Rev. Lett. 103, 096102 (2009).
     *
     *
     * If you are using vdW-DF2, please also cite:
     *
     *   K. Lee, E. D. Murray, L. Kong, B. I. Lundqvist, and
     *   D. C. Langreth, Phys. Rev. B 82, 081101(R) (2010).
     *
     *
     * If you are calculating the stress with vdW-DF, please also cite:
     *
     *   R. Sabatini, E. Kucukbenli, B. Kolb, T. Thonhauser, and
     *   S. de Gironcoli, J. Phys.: Condens. Matter 24, 424209 (2012).
     *

     Carrying out vdW-DF run using the following parameters:

     Nqs =      20    Nr_points =    1024   r_max =   100.000
     q_mesh =
               0.00001000     0.04494208     0.09755937     0.15916263
               0.23128650     0.31572767     0.41458969     0.53033537
               0.66584808     0.82450364     1.01025438     1.22772762
               1.48234092     1.78043706     2.12944203     2.53805004
               3.01644009     3.57652955     4.23227104     5.00000000

     Gradients computed in reciprocal space

     Adding external electric field

     Computed dipole along edir(3) :
        Dipole               -0.0000 Ry au,         -0.0000 Debye
        Dipole field         -0.0000 Ry au

        Potential amp.        0.0000 Ry
        Total length         44.9761 bohr

     Starting wfc are  138 randomized atomic wfcs

     Self-consistent Calculation

     iteration #  1     ecut=    36.75 Ry     beta=0.10
     Davidson diagonalization with overlap
     ethr =  1.00E-02,  avg # of iterations =  2.1

[...]

     total energy              =   -1872.71599081 Ry
     Harris-Foulkes estimate   =   -1874.66812248 Ry
     estimated scf accuracy    <      11.52533057 Ry

[...]

     End of self-consistent calculation

          k = 0.0000 0.0000 0.0000 ( 17023 PWs)   bands (ev):

   -78.3371 -78.3300 -78.1676 -78.1675 -78.1609 -78.1608 -55.1443 -55.1440
   -55.1265 -55.1261 -54.8852 -54.8675 -40.1225 -40.1026 -40.1020 -40.0993
   -40.0781 -39.9571 -39.9544 -39.9515 -39.9393 -39.9353 -39.9347 -39.9090
   -39.8453 -39.8307 -39.8260 -39.8033 -39.7696 -39.7692 -31.4669 -31.4548
   -31.4482 -31.4441 -31.4129 -31.4000 -31.2989 -31.2946 -31.2854 -31.2780
   -31.2425 -31.2387 -31.1919 -31.1058 -31.0903 -31.0870 -31.0825 -31.0222
    -5.3465  -3.6497  -2.8751  -2.4780  -2.3223  -2.2834  -2.2684  -2.1786
    -2.1335  -2.0700  -1.4981  -1.3824  -1.2363  -0.4547  -0.4457  -0.3995
    -0.3790  -0.3466  -0.2335  -0.2083  -0.0700   0.1807   0.4598   0.4650
     0.6303   1.1171   1.1591   1.3430   1.6397   1.8331   1.9839   2.0139
     2.2632   2.4249   2.5739   3.0528   3.1937   3.3955   3.4458   3.4804
     3.8686   3.8838   3.8929   3.9205   3.9756   4.1039   4.1211   4.1673
     4.1707   4.2915   4.3104   4.3110   4.4045   4.4867   4.6620   4.6724
     4.7462   4.7801   4.7969   4.9257   5.1789   5.3793   5.4562

[...]

          k =-0.0926 0.0329 0.0000 ( 17030 PWs)   bands (ev):

[...]

     the Fermi energy is     1.7314 ev

!    total energy              =   -1872.39637997 Ry
     Harris-Foulkes estimate   =   -1872.39637848 Ry
     estimated scf accuracy    <       0.00000050 Ry

     The total energy is the sum of the following terms:

     one-electron contribution =  -14429.59405165 Ry
     hartree contribution      =    7200.07597266 Ry
     xc contribution           =    -437.12882158 Ry
     ewald contribution        =    5794.32886002 Ry
     electric field correction =       0.00000006 Ry
     smearing contrib. (-TS)   =      -0.07833948 Ry

     convergence has been achieved in  18 iterations

 BEEF-vdW xc energy contributions
           1 :   -385.465645248125
           2 :    354.898460871815
           3 :   -301.454052275113
           4 :    237.279526474274
           5 :   -174.464151941627
           6 :    121.383433048073
[...]
00031 suncat2043 pw.x -in pw.inp   Done                     12/19/2018 08:12:48

     Program PWSCF v.5.1rc2 (svn rev. 11289) starts on 19Dec2018 at  8:12:54

[...]

     iteration # 12     ecut=    36.75 Ry     beta=0.10
     Davidson diagonalization with overlap
     c_bands:  1 eigenvalues not converged
     ethr =  9.50E-07,  avg # of iterations =  4.9

[...]

     Total force =     0.025723     Total SCF correction =     0.001327

[...]

     Program PWSCF v.5.1rc2 (svn rev. 11289) starts on 19Dec2018 at  8:17:46

     Current dimensions of program PWSCF are:
     Max number of different atomic species (ntypx) = 10
     Max number of k-points (npk) =  40000
     Max angular momentum in pseudopotentials (lmaxx) =  3
     Presently stress not available with electric field

     IMPORTANT: XC functional enforced from input :
     Exchange-correlation      = BEEF-VDW ( 1  4 27 13 2)
     Any further DFT definition will be discarded
     Please, verify this is what you really want

     Subspace diagonalization in iterative solution of the eigenvalue problem:
     a serial algorithm will be used

     bravais-lattice index     =            0
     lattice parameter (alat)  =       1.8897  a.u.
     unit-cell volume          =    4525.6960 (a.u.)^3
     number of atoms/cell      =           12
     number of atomic types    =            2
     number of electrons       =       162.00
     number of Kohn-Sham states=          111
     kinetic-energy cutoff     =      36.7493  Ry
     charge density cutoff     =     367.4932  Ry
     convergence threshold     =      1.0E-06
     mixing beta               =       0.1000
     number of iterations used =           10  plain     mixing
     Exchange-correlation      = BEEF-VDW ( 1  4 27 13 2)
     nstep                     =           50

     celldm(1)=   1.889726  celldm(2)=   0.000000  celldm(3)=   0.000000
     celldm(4)=   0.000000  celldm(5)=   0.000000  celldm(6)=   0.000000

     crystal axes: (cart. coord. in units of alat)
               a(1) = (   5.399388   0.000000   0.000000 )
               a(2) = (   1.806504   5.088215   0.000000 )
               a(3) = (   0.000000   0.000000  24.410618 )

     reciprocal axes: (cart. coord. in units 2 pi/alat)
               b(1) = (  0.185206 -0.065755  0.000000 )
               b(2) = (  0.000000  0.196533  0.000000 )
               b(3) = (  0.000000  0.000000  0.040966 )

     PseudoPot. # 1 for Ti read from file:
     /afs/slac.stanford.edu/u/if/mamunm/psp/gbrv1.5pbe/Ti.UPF
     MD5 check sum: 88a00a6731bd790ddea75d31a80cb452
     Pseudo is Ultrasoft + core correction, Zval = 12.0
     Generated by new atomic code, or converted to UPF format
     Using radial grid of  851 points,  6 beta functions with:
                l(1) =   0
                l(2) =   0
                l(3) =   1
                l(4) =   1
                l(5) =   2
                l(6) =   2
     Q(r) pseudized with  6 coefficients,  rinner =    1.000   1.000   1.000
                                                       1.000   1.000

     PseudoPot. # 2 for Re read from file:
     /afs/slac.stanford.edu/u/if/mamunm/psp/gbrv1.5pbe/Re.UPF
     MD5 check sum: 85f993410f3e006da9d71c142b4ad953
     Pseudo is Ultrasoft + core correction, Zval = 15.0
     Generated by new atomic code, or converted to UPF format
     Using radial grid of  981 points,  8 beta functions with:
                l(1) =   0
                l(2) =   0
                l(3) =   1
                l(4) =   1
                l(5) =   2
                l(6) =   2
                l(7) =   3
                l(8) =   3
     Q(r) pseudized with  8 coefficients,  rinner =    1.150   1.150   1.150
                                                       1.150   1.150   1.150
                                                       1.150

     vdW kernel table read from file vdW_kernel_table
     MD5 check sum: 095c7af220d748ca6e76c0b4c6cfb241

     atomic species   valence    mass     pseudopotential
        Ti1           12.00    47.86700     Ti( 1.00)
        Re1           15.00   186.20700     Re( 1.00)

     No symmetry found

   Cartesian axes

     site n.     atom                  positions (alat units)
         1           Ti1 tau(   1) = (   0.0000000   0.0000000  10.0000000  )
         2           Ti1 tau(   2) = (   3.6029458   2.5441076  10.0000000  )
         3           Re1 tau(   3) = (   2.6996940   0.0000000  10.0000000  )
         4           Re1 tau(   4) = (   0.9032518   2.5441076  10.0000000  )
         5           Ti1 tau(   5) = (   5.3993879   3.8126091  12.2053090  )
         6           Ti1 tau(   6) = (   1.7964421   1.2685015  12.2053090  )
         7           Re1 tau(   7) = (   2.6996940   3.8126091  12.2053090  )
         8           Re1 tau(   8) = (   4.4961361   1.2685015  12.2053090  )
         9           Ti1 tau(   9) = (   3.5950735   2.5385181  14.3829144  )
        10           Ti1 tau(  10) = (   7.1979966   5.0826701  14.3829056  )
        11           Re1 tau(  11) = (   6.2940607   2.5380466  14.3528693  )
        12           Re1 tau(  12) = (   4.4975599   5.0820952  14.3528456  )

     number of k points=    20  Fermi-Dirac smearing, width (Ry)=  0.0110
                       cart. coord. in units 2pi/alat
        k(    1) = (   0.0000000   0.0000000   0.0000000), wk =   0.0555556
        k(    2) = (   0.0000000   0.0327554   0.0000000), wk =   0.1111111
        k(    3) = (   0.0000000   0.0655109   0.0000000), wk =   0.1111111
        k(    4) = (   0.0000000  -0.0982663   0.0000000), wk =   0.0555556
        k(    5) = (   0.0308677  -0.0109592   0.0000000), wk =   0.1111111
        k(    6) = (   0.0308677   0.0217963   0.0000000), wk =   0.1111111
        k(    7) = (   0.0308677   0.0545517   0.0000000), wk =   0.1111111
        k(    8) = (   0.0308677  -0.1092255   0.0000000), wk =   0.1111111
        k(    9) = (   0.0308677  -0.0764700   0.0000000), wk =   0.1111111
        k(   10) = (   0.0308677  -0.0437146   0.0000000), wk =   0.1111111
        k(   11) = (   0.0617354  -0.0219183   0.0000000), wk =   0.1111111
        k(   12) = (   0.0617354   0.0108371   0.0000000), wk =   0.1111111
        k(   13) = (   0.0617354   0.0435925   0.0000000), wk =   0.1111111
        k(   14) = (   0.0617354  -0.1201846   0.0000000), wk =   0.1111111
        k(   15) = (   0.0617354  -0.0874292   0.0000000), wk =   0.1111111
        k(   16) = (   0.0617354  -0.0546738   0.0000000), wk =   0.1111111
        k(   17) = (  -0.0926031   0.0328775   0.0000000), wk =   0.0555556
        k(   18) = (  -0.0926031   0.0656329   0.0000000), wk =   0.1111111
        k(   19) = (  -0.0926031   0.0983884   0.0000000), wk =   0.1111111
        k(   20) = (  -0.0926031  -0.0653888   0.0000000), wk =   0.0555556

     Largest allocated arrays     est. size (Mb)     dimensions
     Largest temporary arrays     est. size (Mb)     dimensions

     Check: negative/imaginary core charge=   -0.000003    0.000000

     Initial potential from superposition of free atoms
     Check: negative starting charge=   -0.788958

     starting charge  152.99947, renormalised to  162.00000

[...]

     *
     * You are using vdW-DF for exchange-correlation in this calculation.
     * Please cite the following three references that made this development
     * possible:
     *
     *   M. Dion, H. Rydberg, E. Schroder, D. C. Langreth, and
     *   B. I. Lundqvist, Phys. Rev. Lett. 92, 246401 (2004).
     *
     *   T. Thonhauser, V. R. Cooper, S. Li, A. Puzder, P. Hyldgaard, and
     *   D. C. Langreth, Phys. Rev. B 76, 125112 (2007).
     *
     *   G. Roman-Perez and J. M. Soler, Phys. Rev. Lett. 103, 096102 (2009).
     *
     *
     * If you are using vdW-DF2, please also cite:
     *
     *   K. Lee, E. D. Murray, L. Kong, B. I. Lundqvist, and
     *   D. C. Langreth, Phys. Rev. B 82, 081101(R) (2010).
     *
     *
     * If you are calculating the stress with vdW-DF, please also cite:
     *
     *   R. Sabatini, E. Kucukbenli, B. Kolb, T. Thonhauser, and
     *   S. de Gironcoli, J. Phys.: Condens. Matter 24, 424209 (2012).
     *

     Carrying out vdW-DF run using the following parameters:

     Nqs =      20    Nr_points =    1024   r_max =   100.000
     q_mesh =
               0.00001000     0.04494208     0.09755937     0.15916263
               0.23128650     0.31572767     0.41458969     0.53033537
               0.66584808     0.82450364     1.01025438     1.22772762
               1.48234092     1.78043706     2.12944203     2.53805004
               3.01644009     3.57652955     4.23227104     5.00000000

     Gradients computed in reciprocal space

[...]

     Starting wfc are  138 randomized atomic wfcs

     Self-consistent Calculation

[...]

     total energy              =   -1872.39834038 Ry
     Harris-Foulkes estimate   =   -1872.39833992 Ry
     estimated scf accuracy    <       0.00000157 Ry

     iteration # 18     ecut=    36.75 Ry     beta=0.10
     Davidson diagonalization with overlap
     ethr =  9.69E-10,  avg # of iterations =  2.0

[...]

     negative rho (up, down):  7.994E-01 0.000E+00

     Adding external electric field

     Computed dipole along edir(3) :
        Dipole                0.0126 Ry au,          0.0321 Debye
        Dipole field          0.0000 Ry au

        Potential amp.       -0.0032 Ry
        Total length         44.9761 bohr

     End of self-consistent calculation

[...]

          k = 0.0617-0.0547 0.0000 ( 17008 PWs)   bands (ev):

[...]

          k =-0.0926-0.0654 0.0000 ( 17048 PWs)   bands (ev):

   -78.3226 -78.3159 -78.1535 -78.1467 -78.1267 -78.1198 -55.1338 -55.1155
   -55.1091 -55.0908 -54.8263 -54.8061 -40.1009 -40.0922 -40.0796 -40.0675
   -40.0627 -39.9397 -39.9285 -39.9231 -39.9205 -39.9106 -39.8920 -39.8844
   -39.8123 -39.7991 -39.7880 -39.7782 -39.7536 -39.7360 -31.4662 -31.4412
   -31.4242 -31.4240 -31.4100 -31.3963 -31.3288 -31.3035 -31.2997 -31.2785
   -31.2370 -31.2131 -31.1604 -31.0750 -31.0524 -31.0340 -31.0326 -30.9731
    -3.5120  -3.1362  -2.5543  -2.5218  -1.3878  -1.3390  -1.3000  -1.2686
    -0.9407  -0.9342  -0.9262  -0.7514  -0.7153  -0.6498  -0.2799  -0.2793
     0.0982   0.1130   0.2491   0.4105   0.4639   0.6864   0.7812   0.8148
     0.8229   1.0551   1.1805   1.1953   1.2395   1.3416   1.3428   1.4103
     1.4594   1.6189   1.7406   1.8161   1.9096   1.9492   2.2426   2.3410
     2.7054   2.7435   2.7608   2.9832   3.0418   3.2112   3.2439   3.2501
     3.3104   3.4819   3.6201   3.6276   3.8225   4.0012   4.2260   4.2455
     4.4279   4.4949   4.6146   4.7738   5.0492   5.1167   5.2805

     the Fermi energy is     1.7429 ev

!    total energy              =   -1872.39834261 Ry
     Harris-Foulkes estimate   =   -1872.39834062 Ry
     estimated scf accuracy    <       0.00000033 Ry

     The total energy is the sum of the following terms:

     one-electron contribution =  -14520.18085748 Ry
     hartree contribution      =    7245.51868577 Ry
     xc contribution           =    -437.22690102 Ry
     ewald contribution        =    5839.57019299 Ry
     electric field correction =       0.00000044 Ry
     smearing contrib. (-TS)   =      -0.07946332 Ry

     convergence has been achieved in  18 iterations

 BEEF-vdW xc energy contributions
           1 :   -385.564466516321
           2 :    355.029316058970
           3 :   -301.623720426651
           4 :    237.461136009390
           5 :   -174.611531665152
           6 :    121.460123473398
           7 :   -81.2691147075209
           8 :    52.9560854301945
           9 :   -33.1666771717448
          10 :    18.4198716748032
          11 :   -6.45161181534621
          12 :   -3.52888635525568
          13 :    11.3765191564242
          14 :   -16.7748473597566
          15 :    19.7288801165195
          16 :   -20.6308579971756
          17 :    20.0598954261857
          18 :   -18.5840677587381
          19 :    16.6917623354040
          20 :   -14.8045249713929
          21 :    13.2542280157159
          22 :   -12.1888917796157
          23 :    11.4754678466863
          24 :   -10.7130490799747
          25 :    9.40534652201330
          26 :   -7.23173370301112
          27 :    4.26270957508598
          28 :  -0.977118208514696
          29 :   -1.95100915633111
          30 :    3.97734147690318
          31 :   -34.2110351986698
          32 :   -25.0426280718485

     Forces acting on atoms (Ry/au):

     negative rho (up, down):  7.994E-01 0.000E+00
     atom    1 type  1   force =    -0.00045638   -0.00032080    0.00490782
     atom    2 type  1   force =    -0.00045597   -0.00032274    0.00490670
     atom    3 type  2   force =    -0.00018414   -0.00013341    0.01371478
     atom    4 type  2   force =    -0.00017835   -0.00012219    0.01371137
     atom    5 type  1   force =     0.00012993    0.00008850   -0.01036960
     atom    6 type  1   force =     0.00012651    0.00009076   -0.01036960
     atom    7 type  2   force =     0.00013350    0.00008630   -0.00817180
     atom    8 type  2   force =     0.00012551    0.00009568   -0.00817366
     atom    9 type  1   force =     0.00016399    0.00011916   -0.00081606
     atom   10 type  1   force =     0.00016860    0.00011192   -0.00081536
     atom   11 type  2   force =     0.00021047    0.00014595    0.00073222
     atom   12 type  2   force =     0.00021632    0.00016087    0.00074321

     Total force =     0.027863     Total SCF correction =     0.002034

     entering subroutine stress ...

     negative rho (up, down):  7.994E-01 0.000E+00
          total   stress  (Ry/bohr**3)                   (kbar)     P=  -23.50
  -0.00021128   0.00000807   0.00000187        -31.08      1.19      0.27
   0.00000807  -0.00021701   0.00000132          1.19    -31.92      0.19
   0.00000187   0.00000132  -0.00005086          0.27      0.19     -7.48

 !ASE

     Writing output data file calc.save

     General routines

     Parallel routines

   This run was terminated on:   8:22:25  19Dec2018

   JOB DONE.
Job  /afs/slac/g/suncat/bin/suncat-tsmpirun -x LD_LIBRARY_PATH -wdir /scratch/qe530710_uhGR2 pw.x -in pw.inp

TID   HOST_NAME   COMMAND_LINE            STATUS            TERMINATION_TIME
00000 suncat2044 pw.x -in pw.inp   Done                     12/19/2018 08:22:25
00001 suncat2044 pw.x -in pw.inp   Done                     12/19/2018 08:22:25
00002 suncat2044 pw.x -in pw.inp   Done                     12/19/2018 08:22:25
00003 suncat2044 pw.x -in pw.inp   Done                     12/19/2018 08:22:25
00004 suncat2044 pw.x -in pw.inp   Done                     12/19/2018 08:22:25
00005 suncat2044 pw.x -in pw.inp   Done                     12/19/2018 08:22:25
00006 suncat2044 pw.x -in pw.inp   Done                     12/19/2018 08:22:25
00007 suncat2044 pw.x -in pw.inp   Done                     12/19/2018 08:22:25
00008 suncat2044 pw.x -in pw.inp   Done                     12/19/2018 08:22:25
00009 suncat2044 pw.x -in pw.inp   Done                     12/19/2018 08:22:25
00010 suncat2044 pw.x -in pw.inp   Done                     12/19/2018 08:22:25
00011 suncat2044 pw.x -in pw.inp   Done                     12/19/2018 08:22:25
00012 suncat2044 pw.x -in pw.inp   Done                     12/19/2018 08:22:25
00013 suncat2044 pw.x -in pw.inp   Done                     12/19/2018 08:22:25
00014 suncat2044 pw.x -in pw.inp   Done                     12/19/2018 08:22:25
00015 suncat2044 pw.x -in pw.inp   Done                     12/19/2018 08:22:25
00016 suncat2043 pw.x -in pw.inp   Done                     12/19/2018 08:22:25
00017 suncat2043 pw.x -in pw.inp   Done                     12/19/2018 08:22:25
00018 suncat2043 pw.x -in pw.inp   Done                     12/19/2018 08:22:25
00019 suncat2043 pw.x -in pw.inp   Done                     12/19/2018 08:22:25
00020 suncat2043 pw.x -in pw.inp   Done                     12/19/2018 08:22:25
00021 suncat2043 pw.x -in pw.inp   Done                     12/19/2018 08:22:25
00022 suncat2043 pw.x -in pw.inp   Done                     12/19/2018 08:22:25
00023 suncat2043 pw.x -in pw.inp   Done                     12/19/2018 08:22:25
00024 suncat2043 pw.x -in pw.inp   Done                     12/19/2018 08:22:25
00025 suncat2043 pw.x -in pw.inp   Done                     12/19/2018 08:22:25
00026 suncat2043 pw.x -in pw.inp   Done                     12/19/2018 08:22:25
00027 suncat2043 pw.x -in pw.inp   Done                     12/19/2018 08:22:25
00028 suncat2043 pw.x -in pw.inp   Done                     12/19/2018 08:22:25
00029 suncat2043 pw.x -in pw.inp   Done                     12/19/2018 08:22:25
00030 suncat2043 pw.x -in pw.inp   Done                     12/19/2018 08:22:25
00031 suncat2043 pw.x -in pw.inp   Done                     12/19/2018 08:22:25