     Program PWSCF v.5.1rc2 (svn rev. 11289) starts on 19Dec2018 at  6:42:44

     Current dimensions of program PWSCF are:
     Max number of different atomic species (ntypx) = 10
     Max number of k-points (npk) =  40000
     Max angular momentum in pseudopotentials (lmaxx) =  3
     Presently stress not available with electric field

     IMPORTANT: XC functional enforced from input :
     Exchange-correlation      = BEEF-VDW ( 1  4 27 13 2)
     Any further DFT definition will be discarded
     Please, verify this is what you really want

     Subspace diagonalization in iterative solution of the eigenvalue problem:
     a serial algorithm will be used

     Found symmetry operation: I + ( -0.5000  0.0000  0.0000)
     This is a supercell, fractional translations are disabled

     bravais-lattice index     =            0
     lattice parameter (alat)  =       1.8897  a.u.
     unit-cell volume          =    4974.5520 (a.u.)^3
     number of atoms/cell      =           12
     number of atomic types    =            2
     number of electrons       =       144.00
     number of Kohn-Sham states=          102
     kinetic-energy cutoff     =      36.7493  Ry
     charge density cutoff     =     367.4932  Ry
     convergence threshold     =      1.0E-06
     mixing beta               =       0.1000
     number of iterations used =           10  plain     mixing
     Exchange-correlation      = BEEF-VDW ( 1  4 27 13 2)
     nstep                     =           50

     celldm(1)=   1.889726  celldm(2)=   0.000000  celldm(3)=   0.000000
     celldm(4)=   0.000000  celldm(5)=   0.000000  celldm(6)=   0.000000

     crystal axes: (cart. coord. in units of alat)
               a(1) = (   5.830239   0.000000   0.000000 )
               a(2) = (  -2.915119   5.101403   0.000000 )
               a(3) = (   0.000000   0.000000  24.784571 )

     reciprocal axes: (cart. coord. in units 2 pi/alat)
               b(1) = (  0.171520  0.098012  0.000000 )
               b(2) = (  0.000000  0.196024  0.000000 )
               b(3) = (  0.000000  0.000000  0.040348 )

     PseudoPot. # 1 for Ta read from file:
     /afs/slac.stanford.edu/u/if/mamunm/psp/gbrv1.5pbe/Ta.UPF
     MD5 check sum: f8bbe9446314a3b8ea5d9f3e3836c939
     Pseudo is Ultrasoft + core correction, Zval = 13.0
     Generated by new atomic code, or converted to UPF format
     Using radial grid of  921 points,  7 beta functions with:
                l(1) =   0
                l(2) =   0
                l(3) =   1
                l(4) =   1
                l(5) =   2
                l(6) =   2
                l(7) =   3
     Q(r) pseudized with  6 coefficients,  rinner =    1.300   1.300   1.300
                                                       1.300   1.300   1.300
                                                       1.300

     PseudoPot. # 2 for Au read from file:
     /afs/slac.stanford.edu/u/if/mamunm/psp/gbrv1.5pbe/Au.UPF
     MD5 check sum: 9d7f43293ad2c663164586bc4b293ffc
     Pseudo is Ultrasoft + core correction, Zval = 11.0
     Generated by new atomic code, or converted to UPF format
     Using radial grid of  985 points,  7 beta functions with:
                l(1) =   0
                l(2) =   0
                l(3) =   1
                l(4) =   1
                l(5) =   2
                l(6) =   2
                l(7) =   3
     Q(r) pseudized with  6 coefficients,  rinner =    1.900   1.900   1.900
                                                       1.900   1.900   1.900
                                                       1.900

     vdW kernel table read from file vdW_kernel_table
     MD5 check sum: 095c7af220d748ca6e76c0b4c6cfb241

     atomic species   valence    mass     pseudopotential
        Ta1           13.00   180.94788     Ta( 1.00)
        Au1           11.00   196.96657     Au( 1.00)

     No symmetry found

   Cartesian axes

     site n.     atom                  positions (alat units)
         1           Ta1 tau(   1) = (   0.0000000   0.0000000  10.0000000  )
         2           Ta1 tau(   2) = (   2.9151193   0.0000000  10.0000000  )
         3           Au1 tau(   3) = (   1.4575596   2.5507016  10.0000000  )
         4           Au1 tau(   4) = (  -1.4575596   2.5507016  10.0000000  )
         5           Ta1 tau(   5) = (   2.9151193   1.6658006  12.3922853  )
         6           Ta1 tau(   6) = (   0.0000000   1.6658006  12.3922853  )
         7           Au1 tau(   7) = (  -1.4575596   4.2165022  12.3922853  )
         8           Au1 tau(   8) = (   1.4575596   4.2165022  12.3922853  )
         9           Ta1 tau(   9) = (   0.0000000   3.3316011  14.7845705  )
        10           Ta1 tau(  10) = (   2.9151193   3.3316011  14.7845705  )
        11           Au1 tau(  11) = (   4.3726789   0.7808995  14.7845705  )
        12           Au1 tau(  12) = (   1.4575596   0.7808995  14.7845705  )

     number of k points=    20  Fermi-Dirac smearing, width (Ry)=  0.0110
                       cart. coord. in units 2pi/alat
        k(    1) = (   0.0000000   0.0000000   0.0000000), wk =   0.0555556
        k(    2) = (   0.0000000   0.0326707   0.0000000), wk =   0.1111111
        k(    3) = (   0.0000000   0.0653415   0.0000000), wk =   0.1111111
        k(    4) = (   0.0000000  -0.0980122   0.0000000), wk =   0.0555556
        k(    5) = (   0.0285866   0.0163354   0.0000000), wk =   0.1111111
        k(    6) = (   0.0285866   0.0490061   0.0000000), wk =   0.1111111
        k(    7) = (   0.0285866   0.0816769   0.0000000), wk =   0.1111111
        k(    8) = (   0.0285866  -0.0816769   0.0000000), wk =   0.1111111
        k(    9) = (   0.0285866  -0.0490061   0.0000000), wk =   0.1111111
        k(   10) = (   0.0285866  -0.0163354   0.0000000), wk =   0.1111111
        k(   11) = (   0.0571732   0.0326707   0.0000000), wk =   0.1111111
        k(   12) = (   0.0571732   0.0653415   0.0000000), wk =   0.1111111
        k(   13) = (   0.0571732   0.0980122   0.0000000), wk =   0.1111111
        k(   14) = (   0.0571732  -0.0653415   0.0000000), wk =   0.1111111
        k(   15) = (   0.0571732  -0.0326707   0.0000000), wk =   0.1111111
        k(   16) = (   0.0571732   0.0000000   0.0000000), wk =   0.1111111
        k(   17) = (  -0.0857598  -0.0490061   0.0000000), wk =   0.0555556
        k(   18) = (  -0.0857598  -0.0163354   0.0000000), wk =   0.1111111
        k(   19) = (  -0.0857598   0.0163354   0.0000000), wk =   0.1111111
        k(   20) = (  -0.0857598  -0.1470184   0.0000000), wk =   0.0555556

     Largest allocated arrays     est. size (Mb)     dimensions
     Largest temporary arrays     est. size (Mb)     dimensions

     Check: negative/imaginary core charge=   -0.000001    0.000000

     Initial potential from superposition of free atoms
     Check: negative starting charge=   -0.569090

     starting charge  143.99259, renormalised to  144.00000

     negative rho (up, down):  5.691E-01 0.000E+00

     *
     * You are using vdW-DF for exchange-correlation in this calculation.
     * Please cite the following three references that made this development
     * possible:
     *
     *   M. Dion, H. Rydberg, E. Schroder, D. C. Langreth, and
     *   B. I. Lundqvist, Phys. Rev. Lett. 92, 246401 (2004).
     *
     *   T. Thonhauser, V. R. Cooper, S. Li, A. Puzder, P. Hyldgaard, and
     *   D. C. Langreth, Phys. Rev. B 76, 125112 (2007).
     *
     *   G. Roman-Perez and J. M. Soler, Phys. Rev. Lett. 103, 096102 (2009).
     *
     *
     * If you are using vdW-DF2, please also cite:
     *
     *   K. Lee, E. D. Murray, L. Kong, B. I. Lundqvist, and
     *   D. C. Langreth, Phys. Rev. B 82, 081101(R) (2010).
     *
     *
     * If you are calculating the stress with vdW-DF, please also cite:
     *
     *   R. Sabatini, E. Kucukbenli, B. Kolb, T. Thonhauser, and
     *   S. de Gironcoli, J. Phys.: Condens. Matter 24, 424209 (2012).
     *

     Carrying out vdW-DF run using the following parameters:

     Nqs =      20    Nr_points =    1024   r_max =   100.000
     q_mesh =
               0.00001000     0.04494208     0.09755937     0.15916263
               0.23128650     0.31572767     0.41458969     0.53033537
               0.66584808     0.82450364     1.01025438     1.22772762
               1.48234092     1.78043706     2.12944203     2.53805004
               3.01644009     3.57652955     4.23227104     5.00000000

     Gradients computed in reciprocal space

     Adding external electric field

     Computed dipole along edir(3) :
        Dipole               -0.0000 Ry au,         -0.0000 Debye
        Dipole field         -0.0000 Ry au

        Potential amp.        0.0000 Ry
        Total length         45.6651 bohr

     Starting wfc are  132 randomized atomic wfcs

     Self-consistent Calculation

     iteration #  1     ecut=    36.75 Ry     beta=0.10
     Davidson diagonalization with overlap
     ethr =  1.00E-02,  avg # of iterations =  3.6

[...]

     total energy              =   -1559.39715429 Ry
     Harris-Foulkes estimate   =   -1559.76663822 Ry
     estimated scf accuracy    <       2.25753333 Ry

[...]

     End of self-consistent calculation

          k = 0.0000 0.0000 0.0000 ( 18799 PWs)   bands (ev):

   -67.2869 -67.2861 -67.2504 -67.2497 -67.0672 -67.0298 -33.7791 -33.7642
   -33.7135 -33.7124 -33.7007 -33.6967 -33.6887 -33.6448 -33.6186 -33.5925
   -33.5698 -33.5259 -33.4975 -33.1610 -33.0985 -33.0880 -33.0820 -33.0201
    -7.0808  -5.5812  -5.1983  -5.0649  -4.9059  -4.9004  -4.7344  -4.7054
    -4.5326  -4.4678  -4.4490  -4.4082  -4.3217  -4.1563  -3.8657  -3.6444
    -3.3416  -3.2804  -3.2423  -3.1537  -3.0109  -2.8860  -2.8578  -2.8552
    -2.7555  -2.6281  -2.5269  -2.4885  -2.4507  -2.0285  -1.8272  -1.2163
    -1.0675  -0.3944  -0.1486   0.0913   0.1388   0.3925   0.4016   0.4215
     0.6486   0.7651   0.7668   0.8609   1.3450   1.4576   1.5601   1.8903
     2.0184   2.3569   2.4170   2.6542   2.6728   2.7199   2.7606   3.3476
     3.6196   4.0526   4.1585   4.2707   4.3363   4.3683   4.3726   4.7389
     4.8263   4.9269   5.0069   5.0361   5.1191   5.2538   5.3014   5.6176
     5.6776   5.7530   6.2365   6.7223   6.7514   6.8281

[...]

          k =-0.0858-0.0490 0.0000 ( 18704 PWs)   bands (ev):

[...]

     the Fermi energy is     1.6537 ev

!    total energy              =   -1559.37872771 Ry
     Harris-Foulkes estimate   =   -1559.37872689 Ry
     estimated scf accuracy    <       0.00000048 Ry

     The total energy is the sum of the following terms:

     one-electron contribution =   -9980.46980016 Ry
     hartree contribution      =    5027.81468520 Ry
     xc contribution           =    -645.02406751 Ry
     ewald contribution        =    4038.35981967 Ry
     electric field correction =       0.00000000 Ry
     smearing contrib. (-TS)   =      -0.05936491 Ry

     convergence has been achieved in  15 iterations

 BEEF-vdW xc energy contributions
           1 :   -573.304282879468
           2 :    531.921983924330
           3 :   -458.336973210542
           4 :    367.557312740196
           5 :   -275.533994538275
           6 :    194.747594664639
           7 :   -131.792448797749
[...]
00030 suncat2057 pw.x -in pw.inp   Done                     12/19/2018 06:47:05
00031 suncat2057 pw.x -in pw.inp   Done                     12/19/2018 06:47:05

[...]

   This run was terminated on:   6:51:30  19Dec2018

[...]

   This run was terminated on:   6:55:53  19Dec2018

[...]

     Program PWSCF v.5.1rc2 (svn rev. 11289) starts on 19Dec2018 at  6:55:59

     Current dimensions of program PWSCF are:
     Max number of different atomic species (ntypx) = 10
     Max number of k-points (npk) =  40000
     Max angular momentum in pseudopotentials (lmaxx) =  3
     Presently stress not available with electric field

     IMPORTANT: XC functional enforced from input :
     Exchange-correlation      = BEEF-VDW ( 1  4 27 13 2)
     Any further DFT definition will be discarded
     Please, verify this is what you really want

     Subspace diagonalization in iterative solution of the eigenvalue problem:
     a serial algorithm will be used

     Found symmetry operation: I + ( -0.5000  0.0000  0.0000)
     This is a supercell, fractional translations are disabled

     bravais-lattice index     =            0
     lattice parameter (alat)  =       1.8897  a.u.
     unit-cell volume          =    4974.5520 (a.u.)^3
     number of atoms/cell      =           12
     number of atomic types    =            2
     number of electrons       =       144.00
     number of Kohn-Sham states=          102
     kinetic-energy cutoff     =      36.7493  Ry
     charge density cutoff     =     367.4932  Ry
     convergence threshold     =      1.0E-06
     mixing beta               =       0.1000
     number of iterations used =           10  plain     mixing
     Exchange-correlation      = BEEF-VDW ( 1  4 27 13 2)
     nstep                     =           50

     celldm(1)=   1.889726  celldm(2)=   0.000000  celldm(3)=   0.000000
     celldm(4)=   0.000000  celldm(5)=   0.000000  celldm(6)=   0.000000

     crystal axes: (cart. coord. in units of alat)
               a(1) = (   5.830239   0.000000   0.000000 )
               a(2) = (  -2.915119   5.101403   0.000000 )
               a(3) = (   0.000000   0.000000  24.784571 )

     reciprocal axes: (cart. coord. in units 2 pi/alat)
               b(1) = (  0.171520  0.098012  0.000000 )
               b(2) = (  0.000000  0.196024  0.000000 )
               b(3) = (  0.000000  0.000000  0.040348 )

     PseudoPot. # 1 for Ta read from file:
     /afs/slac.stanford.edu/u/if/mamunm/psp/gbrv1.5pbe/Ta.UPF
     MD5 check sum: f8bbe9446314a3b8ea5d9f3e3836c939
     Pseudo is Ultrasoft + core correction, Zval = 13.0
     Generated by new atomic code, or converted to UPF format
     Using radial grid of  921 points,  7 beta functions with:
                l(1) =   0
                l(2) =   0
                l(3) =   1
                l(4) =   1
                l(5) =   2
                l(6) =   2
                l(7) =   3
     Q(r) pseudized with  6 coefficients,  rinner =    1.300   1.300   1.300
                                                       1.300   1.300   1.300
                                                       1.300

     PseudoPot. # 2 for Au read from file:
     /afs/slac.stanford.edu/u/if/mamunm/psp/gbrv1.5pbe/Au.UPF
     MD5 check sum: 9d7f43293ad2c663164586bc4b293ffc
     Pseudo is Ultrasoft + core correction, Zval = 11.0
     Generated by new atomic code, or converted to UPF format
     Using radial grid of  985 points,  7 beta functions with:
                l(1) =   0
                l(2) =   0
                l(3) =   1
                l(4) =   1
                l(5) =   2
                l(6) =   2
                l(7) =   3
     Q(r) pseudized with  6 coefficients,  rinner =    1.900   1.900   1.900
                                                       1.900   1.900   1.900
                                                       1.900

     vdW kernel table read from file vdW_kernel_table
     MD5 check sum: 095c7af220d748ca6e76c0b4c6cfb241

     atomic species   valence    mass     pseudopotential
        Ta1           13.00   180.94788     Ta( 1.00)
        Au1           11.00   196.96657     Au( 1.00)

     No symmetry found

   Cartesian axes

     site n.     atom                  positions (alat units)
         1           Ta1 tau(   1) = (   0.0000000   0.0000000  10.0000000  )
         2           Ta1 tau(   2) = (   2.9151193   0.0000000  10.0000000  )
         3           Au1 tau(   3) = (   1.4575596   2.5507016  10.0000000  )
         4           Au1 tau(   4) = (  -1.4575596   2.5507016  10.0000000  )
         5           Ta1 tau(   5) = (   2.9151193   1.6658006  12.3922853  )
         6           Ta1 tau(   6) = (   0.0000000   1.6658006  12.3922853  )
         7           Au1 tau(   7) = (  -1.4575596   4.2165022  12.3922853  )
         8           Au1 tau(   8) = (   1.4575596   4.2165022  12.3922853  )
         9           Ta1 tau(   9) = (  -0.0000019   3.2924413  14.6502967  )
        10           Ta1 tau(  10) = (   2.9151196   3.2924453  14.6502980  )
        11           Au1 tau(  11) = (   4.3726779   0.8001847  14.8362233  )
        12           Au1 tau(  12) = (   1.4575606   0.8001845  14.8362171  )

     number of k points=    20  Fermi-Dirac smearing, width (Ry)=  0.0110
                       cart. coord. in units 2pi/alat
        k(    1) = (   0.0000000   0.0000000   0.0000000), wk =   0.0555556
        k(    2) = (   0.0000000   0.0326707   0.0000000), wk =   0.1111111
        k(    3) = (   0.0000000   0.0653415   0.0000000), wk =   0.1111111
        k(    4) = (   0.0000000  -0.0980122   0.0000000), wk =   0.0555556
        k(    5) = (   0.0285866   0.0163354   0.0000000), wk =   0.1111111
        k(    6) = (   0.0285866   0.0490061   0.0000000), wk =   0.1111111
        k(    7) = (   0.0285866   0.0816769   0.0000000), wk =   0.1111111
        k(    8) = (   0.0285866  -0.0816769   0.0000000), wk =   0.1111111
        k(    9) = (   0.0285866  -0.0490061   0.0000000), wk =   0.1111111
        k(   10) = (   0.0285866  -0.0163354   0.0000000), wk =   0.1111111
        k(   11) = (   0.0571732   0.0326707   0.0000000), wk =   0.1111111
        k(   12) = (   0.0571732   0.0653415   0.0000000), wk =   0.1111111
        k(   13) = (   0.0571732   0.0980122   0.0000000), wk =   0.1111111
        k(   14) = (   0.0571732  -0.0653415   0.0000000), wk =   0.1111111
        k(   15) = (   0.0571732  -0.0326707   0.0000000), wk =   0.1111111
        k(   16) = (   0.0571732   0.0000000   0.0000000), wk =   0.1111111
        k(   17) = (  -0.0857598  -0.0490061   0.0000000), wk =   0.0555556
        k(   18) = (  -0.0857598  -0.0163354   0.0000000), wk =   0.1111111
        k(   19) = (  -0.0857598   0.0163354   0.0000000), wk =   0.1111111
        k(   20) = (  -0.0857598  -0.1470184   0.0000000), wk =   0.0555556

     Largest allocated arrays     est. size (Mb)     dimensions
     Largest temporary arrays     est. size (Mb)     dimensions

     Check: negative/imaginary core charge=   -0.000001    0.000000

     Initial potential from superposition of free atoms
     Check: negative starting charge=   -0.567943

     starting charge  143.99259, renormalised to  144.00000

[...]

     *
     * You are using vdW-DF for exchange-correlation in this calculation.
     * Please cite the following three references that made this development
     * possible:
     *
     *   M. Dion, H. Rydberg, E. Schroder, D. C. Langreth, and
     *   B. I. Lundqvist, Phys. Rev. Lett. 92, 246401 (2004).
     *
     *   T. Thonhauser, V. R. Cooper, S. Li, A. Puzder, P. Hyldgaard, and
     *   D. C. Langreth, Phys. Rev. B 76, 125112 (2007).
     *
     *   G. Roman-Perez and J. M. Soler, Phys. Rev. Lett. 103, 096102 (2009).
     *
     *
     * If you are using vdW-DF2, please also cite:
     *
     *   K. Lee, E. D. Murray, L. Kong, B. I. Lundqvist, and
     *   D. C. Langreth, Phys. Rev. B 82, 081101(R) (2010).
     *
     *
     * If you are calculating the stress with vdW-DF, please also cite:
     *
     *   R. Sabatini, E. Kucukbenli, B. Kolb, T. Thonhauser, and
     *   S. de Gironcoli, J. Phys.: Condens. Matter 24, 424209 (2012).
     *

     Carrying out vdW-DF run using the following parameters:

     Nqs =      20    Nr_points =    1024   r_max =   100.000
     q_mesh =
               0.00001000     0.04494208     0.09755937     0.15916263
               0.23128650     0.31572767     0.41458969     0.53033537
               0.66584808     0.82450364     1.01025438     1.22772762
               1.48234092     1.78043706     2.12944203     2.53805004
               3.01644009     3.57652955     4.23227104     5.00000000

     Gradients computed in reciprocal space

[...]

     Starting wfc are  132 randomized atomic wfcs

     Self-consistent Calculation

[...]

     total energy              =   -1559.39140742 Ry
     Harris-Foulkes estimate   =   -1559.39140642 Ry
     estimated scf accuracy    <       0.00000210 Ry

     iteration # 15     ecut=    36.75 Ry     beta=0.10
     Davidson diagonalization with overlap
     ethr =  1.46E-09,  avg # of iterations =  2.0

[...]

     negative rho (up, down):  5.920E-01 0.000E+00

     Adding external electric field

     Computed dipole along edir(3) :
        Dipole               -0.0287 Ry au,         -0.0731 Debye
        Dipole field         -0.0001 Ry au

        Potential amp.        0.0066 Ry
        Total length         45.6651 bohr

     End of self-consistent calculation

[...]

          k = 0.0572 0.0000 0.0000 ( 18697 PWs)   bands (ev):

[...]

          k =-0.0858-0.1470 0.0000 ( 18704 PWs)   bands (ev):

   -67.3301 -67.3301 -67.2001 -67.2001 -67.0383 -67.0383 -33.7985 -33.7985
   -33.7289 -33.7289 -33.6711 -33.6711 -33.5817 -33.5817 -33.5290 -33.5290
   -33.4537 -33.4537 -33.3891 -33.3891 -33.3326 -33.3326 -33.0734 -33.0734
    -5.5242  -5.5242  -4.5473  -4.5473  -4.3339  -4.3339  -4.2923  -4.2923
    -3.9687  -3.9687  -3.8893  -3.8893  -3.8051  -3.8051  -3.6446  -3.6446
    -3.3255  -3.3255  -3.2602  -3.2602  -3.0849  -3.0849  -3.0424  -3.0424
    -2.9637  -2.9637  -2.9127  -2.9127  -2.7750  -2.7750  -2.6687  -2.6687
    -2.5569  -2.5569  -1.0839  -1.0839  -0.4498  -0.4498   0.0233   0.0233
     0.7179   0.7179   0.8201   0.8201   1.4081   1.4081   1.6523   1.6523
     1.9840   1.9840   2.1645   2.1645   2.2382   2.2382   2.4439   2.4439
     2.6164   2.6164   3.5286   3.5286   3.9234   3.9234   4.1829   4.1830
     4.5975   4.5975   5.0153   5.0153   5.4610   5.4610   6.0232   6.0232
     6.6751   6.6751   7.0181   7.0182   7.5006   7.5007

     the Fermi energy is     1.6220 ev

!    total energy              =   -1559.39140869 Ry
     Harris-Foulkes estimate   =   -1559.39140772 Ry
     estimated scf accuracy    <       0.00000070 Ry

     The total energy is the sum of the following terms:

     one-electron contribution =  -10050.02449213 Ry
     hartree contribution      =    5062.45280255 Ry
     xc contribution           =    -645.14585241 Ry
     ewald contribution        =    4073.38419289 Ry
     electric field correction =       0.00000209 Ry
     smearing contrib. (-TS)   =      -0.05806168 Ry

     convergence has been achieved in  15 iterations

 BEEF-vdW xc energy contributions
           1 :   -573.424925634861
           2 :    532.070292776534
           3 :   -458.520434530455
           4 :    367.751426673895
           5 :   -275.690997729562
           6 :    194.823037924408
           7 :   -131.772056730406
           8 :    87.2860712645976
           9 :   -58.0642553838001
          10 :    39.2639580702186
          11 :   -26.5733114148555
          12 :    17.2172283146641
          13 :   -9.92688970271718
          14 :    4.31900277511852
          15 :  -0.229806022112825
          16 :   -2.66006927396427
          17 :    4.84519771152247
          18 :   -6.80714672999102
          19 :    8.81120721970547
          20 :   -10.8274262187152
          21 :    12.5964636838690
          22 :   -13.7817872418274
          23 :    14.1177363514275
          24 :   -13.5029123648704
          25 :    12.0292956067370
          26 :   -9.96928117259381
          27 :    7.72935657859080
          28 :   -5.76786936422275
          29 :    4.47593358586244
          30 :   -4.05331855067118
          31 :   -47.6029980460245
          32 :   -35.0557572314735

     Forces acting on atoms (Ry/au):

     negative rho (up, down):  5.920E-01 0.000E+00
     atom    1 type  1   force =     0.00000014    0.01613196    0.03396867
     atom    2 type  1   force =    -0.00000000    0.01613124    0.03396751
     atom    3 type  2   force =     0.00000239   -0.01131338   -0.01415319
     atom    4 type  2   force =    -0.00000135   -0.01131373   -0.01415679
     atom    5 type  1   force =     0.00000036   -0.01127793   -0.01121063
     atom    6 type  1   force =    -0.00000075   -0.01127878   -0.01121108
     atom    7 type  2   force =    -0.00000033    0.00726733   -0.00950199
     atom    8 type  2   force =     0.00000018    0.00726888   -0.00950174
     atom    9 type  1   force =    -0.00000010   -0.00040557    0.00010289
     atom   10 type  1   force =     0.00000025   -0.00040464    0.00010333
     atom   11 type  2   force =    -0.00000116   -0.00040323    0.00079674
     atom   12 type  2   force =     0.00000038   -0.00040215    0.00079628

     Total force =     0.065412     Total SCF correction =     0.000963

     entering subroutine stress ...

     negative rho (up, down):  5.920E-01 0.000E+00
          total   stress  (Ry/bohr**3)                   (kbar)     P=  -20.66
  -0.00019149  -0.00000000   0.00000000        -28.17     -0.00      0.00
  -0.00000000  -0.00017045  -0.00001038         -0.00    -25.07     -1.53
   0.00000000  -0.00001038  -0.00005938          0.00     -1.53     -8.73

 !ASE

     Writing output data file calc.save

     General routines

     Parallel routines

   This run was terminated on:   7: 0:14  19Dec2018

   JOB DONE.
Job  /afs/slac/g/suncat/bin/suncat-tsmpirun -x LD_LIBRARY_PATH -wdir /scratch/qe530621_keHDe pw.x -in pw.inp

TID   HOST_NAME   COMMAND_LINE            STATUS            TERMINATION_TIME
00000 suncat2058 pw.x -in pw.inp   Done                     12/19/2018 07:00:14
00001 suncat2058 pw.x -in pw.inp   Done                     12/19/2018 07:00:14
00002 suncat2058 pw.x -in pw.inp   Done                     12/19/2018 07:00:14
00003 suncat2058 pw.x -in pw.inp   Done                     12/19/2018 07:00:14
00004 suncat2058 pw.x -in pw.inp   Done                     12/19/2018 07:00:14
00005 suncat2058 pw.x -in pw.inp   Done                     12/19/2018 07:00:14
00006 suncat2058 pw.x -in pw.inp   Done                     12/19/2018 07:00:14
00007 suncat2058 pw.x -in pw.inp   Done                     12/19/2018 07:00:14
00008 suncat2058 pw.x -in pw.inp   Done                     12/19/2018 07:00:14
00009 suncat2058 pw.x -in pw.inp   Done                     12/19/2018 07:00:14
00010 suncat2058 pw.x -in pw.inp   Done                     12/19/2018 07:00:14
00011 suncat2058 pw.x -in pw.inp   Done                     12/19/2018 07:00:14
00012 suncat2058 pw.x -in pw.inp   Done                     12/19/2018 07:00:14
00013 suncat2058 pw.x -in pw.inp   Done                     12/19/2018 07:00:14
00014 suncat2058 pw.x -in pw.inp   Done                     12/19/2018 07:00:14
00015 suncat2058 pw.x -in pw.inp   Done                     12/19/2018 07:00:14
00016 suncat2057 pw.x -in pw.inp   Done                     12/19/2018 07:00:14
00017 suncat2057 pw.x -in pw.inp   Done                     12/19/2018 07:00:14
00018 suncat2057 pw.x -in pw.inp   Done                     12/19/2018 07:00:14
00019 suncat2057 pw.x -in pw.inp   Done                     12/19/2018 07:00:14
00020 suncat2057 pw.x -in pw.inp   Done                     12/19/2018 07:00:14
00021 suncat2057 pw.x -in pw.inp   Done                     12/19/2018 07:00:14
00022 suncat2057 pw.x -in pw.inp   Done                     12/19/2018 07:00:14
00023 suncat2057 pw.x -in pw.inp   Done                     12/19/2018 07:00:14
00024 suncat2057 pw.x -in pw.inp   Done                     12/19/2018 07:00:14
00025 suncat2057 pw.x -in pw.inp   Done                     12/19/2018 07:00:14
00026 suncat2057 pw.x -in pw.inp   Done                     12/19/2018 07:00:14
00027 suncat2057 pw.x -in pw.inp   Done                     12/19/2018 07:00:14
00028 suncat2057 pw.x -in pw.inp   Done                     12/19/2018 07:00:14
00029 suncat2057 pw.x -in pw.inp   Done                     12/19/2018 07:00:14
00030 suncat2057 pw.x -in pw.inp   Done                     12/19/2018 07:00:14
00031 suncat2057 pw.x -in pw.inp   Done                     12/19/2018 07:00:14