     Program PWSCF v.5.1rc2 (svn rev. 11289) starts on 25Dec2018 at  8: 7: 4

     Current dimensions of program PWSCF are:
     Max number of different atomic species (ntypx) = 10
     Max number of k-points (npk) =  40000
     Max angular momentum in pseudopotentials (lmaxx) =  3
     Presently stress not available with electric field

     IMPORTANT: XC functional enforced from input :
     Exchange-correlation      = BEEF-VDW ( 1  4 27 13 2)
     Any further DFT definition will be discarded
     Please, verify this is what you really want

     Subspace diagonalization in iterative solution of the eigenvalue problem:
     a serial algorithm will be used

     Found symmetry operation: I + ( -0.5000 -0.5000  0.0000)
     This is a supercell, fractional translations are disabled

     bravais-lattice index     =            0
     lattice parameter (alat)  =       1.8897  a.u.
     unit-cell volume          =    5046.6992 (a.u.)^3
     number of atoms/cell      =           12
     number of atomic types    =            2
     number of electrons       =       168.00
     number of Kohn-Sham states=          114
     kinetic-energy cutoff     =      36.7493  Ry
     charge density cutoff     =     367.4932  Ry
     convergence threshold     =      1.0E-06
     mixing beta               =       0.1000
     number of iterations used =           10  plain     mixing
     Exchange-correlation      = BEEF-VDW ( 1  4 27 13 2)
     nstep                     =           50

     celldm(1)=   1.889726  celldm(2)=   0.000000  celldm(3)=   0.000000
     celldm(4)=   0.000000  celldm(5)=   0.000000  celldm(6)=   0.000000

     crystal axes: (cart. coord. in units of alat)
               a(1) = (   5.675000   0.000000   0.000000 )
               a(2) = (   1.894787   5.349337   0.000000 )
               a(3) = (   0.000000   0.000000  24.634570 )

     reciprocal axes: (cart. coord. in units 2 pi/alat)
               b(1) = (  0.176211 -0.062416  0.000000 )
               b(2) = (  0.000000  0.186939  0.000000 )
               b(3) = (  0.000000  0.000000  0.040593 )

     PseudoPot. # 1 for Zr read from file:
     /afs/slac.stanford.edu/u/if/mamunm/psp/gbrv1.5pbe/Zr.UPF
     MD5 check sum: 5db81b1e868ab7776c4564c113de050b
     Pseudo is Ultrasoft + core correction, Zval = 12.0
     Generated by new atomic code, or converted to UPF format
     Using radial grid of  887 points,  6 beta functions with:
                l(1) =   0
                l(2) =   0
                l(3) =   1
                l(4) =   1
                l(5) =   2
                l(6) =   2
     Q(r) pseudized with  6 coefficients,  rinner =    1.200   1.200   1.200
                                                       1.200   1.200

     PseudoPot. # 2 for Ru read from file:
     /afs/slac.stanford.edu/u/if/mamunm/psp/gbrv1.5pbe/Ru.UPF
     MD5 check sum: 7158a806dd851261a58e6920c40ebe78
     Pseudo is Ultrasoft + core correction, Zval = 16.0
     Generated by new atomic code, or converted to UPF format
     Using radial grid of  967 points,  6 beta functions with:
                l(1) =   0
                l(2) =   0
                l(3) =   1
                l(4) =   1
                l(5) =   2
                l(6) =   2
     Q(r) pseudized with  8 coefficients,  rinner =    1.300   1.300   1.300
                                                       1.300   1.300

     vdW kernel table read from file vdW_kernel_table
     MD5 check sum: 095c7af220d748ca6e76c0b4c6cfb241

     atomic species   valence    mass     pseudopotential
        Zr1           12.00    91.22400     Zr( 1.00)
        Ru1           16.00   101.07000     Ru( 1.00)

     No symmetry found

   Cartesian axes

     site n.     atom                  positions (alat units)
         1           Zr1 tau(   1) = (   0.0000000   0.0000000  10.0000000  )
         2           Zr1 tau(   2) = (   3.7848934   2.6746686  10.0000000  )
         3           Ru1 tau(   3) = (   2.8375000   0.0000000  10.0000000  )
         4           Ru1 tau(   4) = (   0.9473934   2.6746686  10.0000000  )
         5           Zr1 tau(   5) = (   5.6750000   4.0103492  12.3172849  )
         6           Zr1 tau(   6) = (   1.8901066   1.3356806  12.3172849  )
         7           Ru1 tau(   7) = (   2.8375000   4.0103492  12.3172849  )
         8           Ru1 tau(   8) = (   4.7276066   1.3356806  12.3172849  )
         9           Zr1 tau(   9) = (   3.7802132   2.6713612  14.6345698  )
        10           Zr1 tau(  10) = (   7.5651066   5.3460298  14.6345698  )
        11           Ru1 tau(  11) = (   6.6177132   2.6713612  14.6345698  )
        12           Ru1 tau(  12) = (   4.7276066   5.3460298  14.6345698  )

     number of k points=    20  Fermi-Dirac smearing, width (Ry)=  0.0110
                       cart. coord. in units 2pi/alat
        k(    1) = (   0.0000000   0.0000000   0.0000000), wk =   0.0555556
        k(    2) = (   0.0000000   0.0311565   0.0000000), wk =   0.1111111
        k(    3) = (   0.0000000   0.0623130   0.0000000), wk =   0.1111111
        k(    4) = (   0.0000000  -0.0934695   0.0000000), wk =   0.0555556
        k(    5) = (   0.0293686  -0.0104026   0.0000000), wk =   0.1111111
        k(    6) = (   0.0293686   0.0207539   0.0000000), wk =   0.1111111
        k(    7) = (   0.0293686   0.0519104   0.0000000), wk =   0.1111111
        k(    8) = (   0.0293686  -0.1038722   0.0000000), wk =   0.1111111
        k(    9) = (   0.0293686  -0.0727156   0.0000000), wk =   0.1111111
        k(   10) = (   0.0293686  -0.0415591   0.0000000), wk =   0.1111111
        k(   11) = (   0.0587372  -0.0208053   0.0000000), wk =   0.1111111
        k(   12) = (   0.0587372   0.0103512   0.0000000), wk =   0.1111111
        k(   13) = (   0.0587372   0.0415078   0.0000000), wk =   0.1111111
        k(   14) = (   0.0587372  -0.1142748   0.0000000), wk =   0.1111111
        k(   15) = (   0.0587372  -0.0831183   0.0000000), wk =   0.1111111
        k(   16) = (   0.0587372  -0.0519618   0.0000000), wk =   0.1111111
        k(   17) = (  -0.0881057   0.0312079   0.0000000), wk =   0.0555556
        k(   18) = (  -0.0881057   0.0623644   0.0000000), wk =   0.1111111
        k(   19) = (  -0.0881057   0.0935209   0.0000000), wk =   0.1111111
        k(   20) = (  -0.0881057  -0.0622616   0.0000000), wk =   0.0555556

     Largest allocated arrays     est. size (Mb)     dimensions
     Largest temporary arrays     est. size (Mb)     dimensions

     Initial potential from superposition of free atoms
     Check: negative starting charge=   -0.795939

     starting charge  161.98701, renormalised to  168.00000

     negative rho (up, down):  8.255E-01 0.000E+00

     *
     * You are using vdW-DF for exchange-correlation in this calculation.
     * Please cite the following three references that made this development
     * possible:
     *
     *   M. Dion, H. Rydberg, E. Schroder, D. C. Langreth, and
     *   B. I. Lundqvist, Phys. Rev. Lett. 92, 246401 (2004).
     *
     *   T. Thonhauser, V. R. Cooper, S. Li, A. Puzder, P. Hyldgaard, and
     *   D. C. Langreth, Phys. Rev. B 76, 125112 (2007).
     *
     *   G. Roman-Perez and J. M. Soler, Phys. Rev. Lett. 103, 096102 (2009).
     *
     *
     * If you are using vdW-DF2, please also cite:
     *
     *   K. Lee, E. D. Murray, L. Kong, B. I. Lundqvist, and
     *   D. C. Langreth, Phys. Rev. B 82, 081101(R) (2010).
     *
     *
     * If you are calculating the stress with vdW-DF, please also cite:
     *
     *   R. Sabatini, E. Kucukbenli, B. Kolb, T. Thonhauser, and
     *   S. de Gironcoli, J. Phys.: Condens. Matter 24, 424209 (2012).
     *

     Carrying out vdW-DF run using the following parameters:

     Nqs =      20    Nr_points =    1024   r_max =   100.000
     q_mesh =
               0.00001000     0.04494208     0.09755937     0.15916263
               0.23128650     0.31572767     0.41458969     0.53033537
               0.66584808     0.82450364     1.01025438     1.22772762
               1.48234092     1.78043706     2.12944203     2.53805004
               3.01644009     3.57652955     4.23227104     5.00000000

     Gradients computed in reciprocal space

     Adding external electric field

     Computed dipole along edir(3) :
        Dipole                0.0000 Ry au,          0.0000 Debye
        Dipole field          0.0000 Ry au

        Potential amp.       -0.0000 Ry
        Total length         45.3888 bohr

     Starting wfc are  156 randomized atomic wfcs

     Self-consistent Calculation

     iteration #  1     ecut=    36.75 Ry     beta=0.10
     Davidson diagonalization with overlap
     ethr =  1.00E-02,  avg # of iterations =  2.0

[...]

     total energy              =   -1770.09516363 Ry
     Harris-Foulkes estimate   =   -1770.74135302 Ry
     estimated scf accuracy    <       4.23225778 Ry

[...]

     End of self-consistent calculation

          k = 0.0000 0.0000 0.0000 ( 18979 PWs)   bands (ev):

   -70.6628 -70.6586 -70.1485 -70.1485 -70.1444 -70.1443 -47.4986 -47.4981
   -47.4638 -47.4628 -47.0923 -47.0580 -40.7220 -40.6490 -40.6361 -40.6333
   -40.6224 -40.6150 -40.2057 -40.2044 -40.1983 -40.1962 -40.1832 -40.1799
   -40.1096 -40.1094 -40.0705 -40.0661 -40.0632 -40.0630 -25.5881 -25.5780
   -25.5771 -25.5689 -25.5571 -25.5248 -25.4255 -25.4027 -25.3798 -25.3497
   -25.2564 -25.2000 -25.1976 -25.0553 -25.0281 -25.0278 -24.9626 -24.8590
    -3.7164  -2.3024  -2.2943  -2.0050  -1.9603  -1.9346  -1.8787  -1.8576
    -1.8022  -1.7275  -1.2900  -1.0427  -1.0006  -0.7196  -0.6160  -0.5836
    -0.4754  -0.3863  -0.2561  -0.2256  -0.2133  -0.0689   0.0945   0.4878
     0.6342   0.7104   0.8880   1.1714   1.3701   1.5577   1.5749   1.6082
     1.7024   1.9928   2.6763   2.7943   2.9599   2.9629   2.9974   3.1324
     3.3875   3.4312   3.5150   3.6372   3.8891   3.9564   4.0012   4.0225
     4.0634   4.0876   4.3085   4.3457   4.4640   4.4781   4.9820   5.0085
     5.0111   5.0796   5.2227   5.4860   5.5035   5.8493   5.9605   5.9737
     6.1857   6.2568

[...]

          k =-0.0881 0.0312 0.0000 ( 19004 PWs)   bands (ev):

[...]

     the Fermi energy is     1.9265 ev

!    total energy              =   -1769.57970985 Ry
     Harris-Foulkes estimate   =   -1769.57971131 Ry
     estimated scf accuracy    <       0.00000024 Ry

     The total energy is the sum of the following terms:

     one-electron contribution =  -13851.22485546 Ry
     hartree contribution      =    6921.89809831 Ry
     xc contribution           =    -271.66492609 Ry
     ewald contribution        =    5431.47126646 Ry
     electric field correction =       0.00000000 Ry
     smearing contrib. (-TS)   =      -0.05929307 Ry

     convergence has been achieved in  16 iterations

 BEEF-vdW xc energy contributions
           1 :   -234.505160483660
           2 :    214.055696324804
           3 :   -178.984725871758
           4 :    138.416623170880
           5 :   -101.226543767347
           6 :    73.1659304539504
           7 :   -55.6858639093907
           8 :    46.5875327249754
           9 :   -41.8605786072973
          10 :    37.7460669809583
          11 :   -32.1678758669233
[...]

     PseudoPot. # 1 for Zr read from file:
     /afs/slac.stanford.edu/u/if/mamunm/psp/gbrv1.5pbe/Zr.UPF
     MD5 check sum: 5db81b1e868ab7776c4564c113de050b
     Pseudo is Ultrasoft + core correction, Zval = 12.0
     Generated by new atomic code, or converted to UPF format
     Using radial grid of  887 points,  6 beta functions with:
                l(1) =   0
                l(2) =   0
                l(3) =   1
                l(4) =   1
                l(5) =   2
                l(6) =   2
     Q(r) pseudized with  6 coefficients,  rinner =    1.200   1.200   1.200
                                                       1.200   1.200

     PseudoPot. # 2 for Ru read from file:
     /afs/slac.stanford.edu/u/if/mamunm/psp/gbrv1.5pbe/Ru.UPF
     MD5 check sum: 7158a806dd851261a58e6920c40ebe78
     Pseudo is Ultrasoft + core correction, Zval = 16.0
     Generated by new atomic code, or converted to UPF format
     Using radial grid of  967 points,  6 beta functions with:
                l(1) =   0
                l(2) =   0
                l(3) =   1
                l(4) =   1
                l(5) =   2
                l(6) =   2
     Q(r) pseudized with  8 coefficients,  rinner =    1.300   1.300   1.300
                                                       1.300   1.300

     vdW kernel table read from file vdW_kernel_table
     MD5 check sum: 095c7af220d748ca6e76c0b4c6cfb241

     atomic species   valence    mass     pseudopotential
        Zr1           12.00    91.22400     Zr( 1.00)
        Ru1           16.00   101.07000     Ru( 1.00)

     No symmetry found

   Cartesian axes

     site n.     atom                  positions (alat units)
         1           Zr1 tau(   1) = (   0.0000000   0.0000000  10.0000000  )
         2           Zr1 tau(   2) = (   3.7848934   2.6746686  10.0000000  )
         3           Ru1 tau(   3) = (   2.8375000   0.0000000  10.0000000  )
         4           Ru1 tau(   4) = (   0.9473934   2.6746686  10.0000000  )
         5           Zr1 tau(   5) = (   5.6750000   4.0103492  12.3172849  )
         6           Zr1 tau(   6) = (   1.8901066   1.3356806  12.3172849  )
         7           Ru1 tau(   7) = (   2.8375000   4.0103492  12.3172849  )
         8           Ru1 tau(   8) = (   4.7276066   1.3356806  12.3172849  )
         9           Zr1 tau(   9) = (   3.7818399   2.6725110  14.6671284  )
        10           Zr1 tau(  10) = (   7.5667315   5.3471784  14.6671271  )
        11           Ru1 tau(  11) = (   6.6183359   2.6718020  14.4675882  )
        12           Ru1 tau(  12) = (   4.7282297   5.3464693  14.4675913  )

     number of k points=    20  Fermi-Dirac smearing, width (Ry)=  0.0110
                       cart. coord. in units 2pi/alat
        k(    1) = (   0.0000000   0.0000000   0.0000000), wk =   0.0555556
        k(    2) = (   0.0000000   0.0311565   0.0000000), wk =   0.1111111
        k(    3) = (   0.0000000   0.0623130   0.0000000), wk =   0.1111111
        k(    4) = (   0.0000000  -0.0934695   0.0000000), wk =   0.0555556
        k(    5) = (   0.0293686  -0.0104026   0.0000000), wk =   0.1111111
        k(    6) = (   0.0293686   0.0207539   0.0000000), wk =   0.1111111
        k(    7) = (   0.0293686   0.0519104   0.0000000), wk =   0.1111111
        k(    8) = (   0.0293686  -0.1038722   0.0000000), wk =   0.1111111
        k(    9) = (   0.0293686  -0.0727156   0.0000000), wk =   0.1111111
        k(   10) = (   0.0293686  -0.0415591   0.0000000), wk =   0.1111111
        k(   11) = (   0.0587372  -0.0208053   0.0000000), wk =   0.1111111
        k(   12) = (   0.0587372   0.0103512   0.0000000), wk =   0.1111111
        k(   13) = (   0.0587372   0.0415078   0.0000000), wk =   0.1111111
        k(   14) = (   0.0587372  -0.1142748   0.0000000), wk =   0.1111111
        k(   15) = (   0.0587372  -0.0831183   0.0000000), wk =   0.1111111
        k(   16) = (   0.0587372  -0.0519618   0.0000000), wk =   0.1111111
        k(   17) = (  -0.0881057   0.0312079   0.0000000), wk =   0.0555556
        k(   18) = (  -0.0881057   0.0623644   0.0000000), wk =   0.1111111
        k(   19) = (  -0.0881057   0.0935209   0.0000000), wk =   0.1111111
        k(   20) = (  -0.0881057  -0.0622616   0.0000000), wk =   0.0555556

     Largest allocated arrays     est. size (Mb)     dimensions
     Largest temporary arrays     est. size (Mb)     dimensions

     Initial potential from superposition of free atoms
     Check: negative starting charge=   -0.796153

     starting charge  161.98701, renormalised to  168.00000

[...]

     *
     * You are using vdW-DF for exchange-correlation in this calculation.
     * Please cite the following three references that made this development
     * possible:
     *
     *   M. Dion, H. Rydberg, E. Schroder, D. C. Langreth, and
     *   B. I. Lundqvist, Phys. Rev. Lett. 92, 246401 (2004).
     *
     *   T. Thonhauser, V. R. Cooper, S. Li, A. Puzder, P. Hyldgaard, and
     *   D. C. Langreth, Phys. Rev. B 76, 125112 (2007).
     *
     *   G. Roman-Perez and J. M. Soler, Phys. Rev. Lett. 103, 096102 (2009).
     *
     *
     * If you are using vdW-DF2, please also cite:
     *
     *   K. Lee, E. D. Murray, L. Kong, B. I. Lundqvist, and
     *   D. C. Langreth, Phys. Rev. B 82, 081101(R) (2010).
     *
     *
     * If you are calculating the stress with vdW-DF, please also cite:
     *
     *   R. Sabatini, E. Kucukbenli, B. Kolb, T. Thonhauser, and
     *   S. de Gironcoli, J. Phys.: Condens. Matter 24, 424209 (2012).
     *

     Carrying out vdW-DF run using the following parameters:

     Nqs =      20    Nr_points =    1024   r_max =   100.000
     q_mesh =
               0.00001000     0.04494208     0.09755937     0.15916263
               0.23128650     0.31572767     0.41458969     0.53033537
               0.66584808     0.82450364     1.01025438     1.22772762
               1.48234092     1.78043706     2.12944203     2.53805004
               3.01644009     3.57652955     4.23227104     5.00000000

     Gradients computed in reciprocal space

[...]

     Starting wfc are  156 randomized atomic wfcs

     Self-consistent Calculation

[...]

     total energy              =   -1769.59488400 Ry
     Harris-Foulkes estimate   =   -1769.59488601 Ry
     estimated scf accuracy    <       0.00000102 Ry

     iteration # 17     ecut=    36.75 Ry     beta=0.10
     Davidson diagonalization with overlap
     ethr =  6.06E-10,  avg # of iterations =  2.0

[...]

     negative rho (up, down):  8.223E-01 0.000E+00

     Adding external electric field

     Computed dipole along edir(3) :
        Dipole                0.0694 Ry au,          0.1765 Debye
        Dipole field          0.0002 Ry au

        Potential amp.       -0.0157 Ry
        Total length         45.3888 bohr

     End of self-consistent calculation

[...]

          k = 0.0587-0.0520 0.0000 ( 18994 PWs)   bands (ev):

[...]

          k =-0.0881-0.0623 0.0000 ( 18972 PWs)   bands (ev):

   -70.5599 -70.5558 -70.0920 -70.0877 -70.0677 -70.0636 -47.4548 -47.4271
   -47.4196 -47.3914 -46.8749 -46.8348 -40.6044 -40.5376 -40.5317 -40.5269
   -40.5135 -40.5117 -40.1453 -40.1274 -40.1269 -40.1209 -40.1207 -40.0898
   -40.0783 -40.0235 -40.0180 -40.0156 -39.9877 -39.9837 -25.5553 -25.5425
   -25.5294 -25.4987 -25.4882 -25.4485 -25.4047 -25.3550 -25.3456 -25.3068
   -25.1400 -25.1330 -25.0690 -24.8905 -24.8471 -24.8132 -24.7982 -24.6576
    -1.9396  -1.7283  -1.2180  -1.1919  -1.0583  -0.9443  -0.8812  -0.8106
    -0.7052  -0.5823  -0.5023  -0.4279  -0.3505  -0.2490  -0.2118  -0.0847
    -0.0811   0.1443   0.1981   0.3432   0.4332   0.5337   0.5487   0.5981
     0.6431   0.7640   0.9091   0.9918   1.0221   1.1334   1.1518   1.1804
     1.3782   1.5218   1.5294   1.5300   1.5421   1.6483   1.6915   1.9053
     1.9766   2.4487   2.6519   2.9220   3.0581   3.1094   3.1103   3.2493
     3.3374   3.7232   3.7949   3.7960   3.8959   3.8972   3.9775   4.0144
     4.3017   4.6528   4.6891   4.8199   5.1763   5.2351   5.6288   5.8593
     6.0002   6.5026

     the Fermi energy is     1.9874 ev

!    total energy              =   -1769.59488256 Ry
     Harris-Foulkes estimate   =   -1769.59488544 Ry
     estimated scf accuracy    <       0.00000064 Ry

     The total energy is the sum of the following terms:

     one-electron contribution =  -14007.73015547 Ry
     hartree contribution      =    7000.70552861 Ry
     xc contribution           =    -271.76688264 Ry
     ewald contribution        =    5509.25513946 Ry
     electric field correction =       0.00001201 Ry
     smearing contrib. (-TS)   =      -0.05852454 Ry

     convergence has been achieved in  17 iterations

 BEEF-vdW xc energy contributions
           1 :   -234.611835303149
           2 :    214.209828073636
           3 :   -179.198830109051
           4 :    138.652741499723
           5 :   -101.409998413828
           6 :    73.2260417474577
           7 :   -55.6020067428435
           8 :    46.4071961000084
           9 :   -41.6730931370480
          10 :    37.6298769159080
          11 :   -32.1483486014098
          12 :    25.1283395163903
          13 :   -17.8913433315695
          14 :    12.0722274921941
          15 :   -8.64915680163989
          16 :    7.54644120484937
          17 :   -7.85844545391495
          18 :    8.42649809189368
          19 :   -8.40403969776389
          20 :    7.54732979622699
          21 :   -6.15900816942190
          22 :    4.78874164357029
          23 :   -3.89030512257170
          24 :    3.61346804563141
          25 :   -3.79837127576462
          26 :    4.11979748480707
          27 :   -4.26971428423076
          28 :    4.08374678288948
          29 :   -3.57407689151836
          30 :    2.88281674995170
          31 :   -25.4217992873248
          32 :   -19.1169924471334

     Forces acting on atoms (Ry/au):

     negative rho (up, down):  8.223E-01 0.000E+00
     atom    1 type  1   force =    -0.00030174   -0.00021327   -0.01268421
     atom    2 type  1   force =    -0.00030180   -0.00021341   -0.01268409
     atom    3 type  2   force =    -0.00002674   -0.00001865    0.03515888
     atom    4 type  2   force =    -0.00002644   -0.00001905    0.03516171
     atom    5 type  1   force =     0.00016154    0.00010192   -0.01461677
     atom    6 type  1   force =     0.00015021    0.00011818   -0.01461668
     atom    7 type  2   force =     0.00001823    0.00001324   -0.00599952
     atom    8 type  2   force =     0.00002307    0.00001645   -0.00600003
     atom    9 type  1   force =     0.00006094    0.00004319   -0.00179881
     atom   10 type  1   force =     0.00006139    0.00004326   -0.00179871
     atom   11 type  2   force =     0.00009089    0.00006365   -0.00006158
     atom   12 type  2   force =     0.00009046    0.00006450   -0.00006020

     Total force =     0.057449     Total SCF correction =     0.003497

     entering subroutine stress ...

     negative rho (up, down):  8.223E-01 0.000E+00
          total   stress  (Ry/bohr**3)                   (kbar)     P=  -19.46
  -0.00018436  -0.00002256   0.00000082        -27.12     -3.32      0.12
  -0.00002256  -0.00016838   0.00000058         -3.32    -24.77      0.09
   0.00000082   0.00000058  -0.00004412          0.12      0.09     -6.49

 !ASE

     Writing output data file calc.save

     General routines

     Parallel routines

   This run was terminated on:   9:11:10  25Dec2018

   JOB DONE.
Job  /afs/slac/g/suncat/bin/suncat-tsmpirun -x LD_LIBRARY_PATH -wdir /scratch/qe109301_rdPx9 pw.x -in pw.inp

TID   HOST_NAME   COMMAND_LINE            STATUS            TERMINATION_TIME
00000 suncat0081 pw.x -in pw.inp   Done                     12/25/2018 09:11:10
00001 suncat0081 pw.x -in pw.inp   Done                     12/25/2018 09:11:10
00002 suncat0081 pw.x -in pw.inp   Done                     12/25/2018 09:11:10
00003 suncat0081 pw.x -in pw.inp   Done                     12/25/2018 09:11:10
00004 suncat0081 pw.x -in pw.inp   Done                     12/25/2018 09:11:10
00005 suncat0081 pw.x -in pw.inp   Done                     12/25/2018 09:11:10
00006 suncat0081 pw.x -in pw.inp   Done                     12/25/2018 09:11:10
00007 suncat0081 pw.x -in pw.inp   Done                     12/25/2018 09:11:10
00008 suncat0080 pw.x -in pw.inp   Done                     12/25/2018 09:11:10
00009 suncat0080 pw.x -in pw.inp   Done                     12/25/2018 09:11:10
00010 suncat0080 pw.x -in pw.inp   Done                     12/25/2018 09:11:10
00011 suncat0080 pw.x -in pw.inp   Done                     12/25/2018 09:11:10
00012 suncat0080 pw.x -in pw.inp   Done                     12/25/2018 09:11:10
00013 suncat0080 pw.x -in pw.inp   Done                     12/25/2018 09:11:10
00014 suncat0080 pw.x -in pw.inp   Done                     12/25/2018 09:11:10
00015 suncat0080 pw.x -in pw.inp   Done                     12/25/2018 09:11:10
00016 suncat0172 pw.x -in pw.inp   Done                     12/25/2018 09:11:10
00017 suncat0172 pw.x -in pw.inp   Done                     12/25/2018 09:11:10
00018 suncat0172 pw.x -in pw.inp   Done                     12/25/2018 09:11:10
00019 suncat0172 pw.x -in pw.inp   Done                     12/25/2018 09:11:10
00020 suncat0172 pw.x -in pw.inp   Done                     12/25/2018 09:11:10
00021 suncat0172 pw.x -in pw.inp   Done                     12/25/2018 09:11:10
00022 suncat0172 pw.x -in pw.inp   Done                     12/25/2018 09:11:10
00023 suncat0172 pw.x -in pw.inp   Done                     12/25/2018 09:11:10
00024 suncat0171 pw.x -in pw.inp   Done                     12/25/2018 09:11:10
00025 suncat0171 pw.x -in pw.inp   Done                     12/25/2018 09:11:10
00026 suncat0171 pw.x -in pw.inp   Done                     12/25/2018 09:11:10
00027 suncat0171 pw.x -in pw.inp   Done                     12/25/2018 09:11:10
00028 suncat0171 pw.x -in pw.inp   Done                     12/25/2018 09:11:10
00029 suncat0171 pw.x -in pw.inp   Done                     12/25/2018 09:11:10
00030 suncat0171 pw.x -in pw.inp   Done                     12/25/2018 09:11:10
00031 suncat0171 pw.x -in pw.inp   Done                     12/25/2018 09:11:10
00032 suncat0270 pw.x -in pw.inp   Done                     12/25/2018 09:11:10
00033 suncat0270 pw.x -in pw.inp   Done                     12/25/2018 09:11:10
00034 suncat0270 pw.x -in pw.inp   Done                     12/25/2018 09:11:10
00035 suncat0270 pw.x -in pw.inp   Done                     12/25/2018 09:11:10
00036 suncat0270 pw.x -in pw.inp   Done                     12/25/2018 09:11:10
00037 suncat0270 pw.x -in pw.inp   Done                     12/25/2018 09:11:10
00038 suncat0270 pw.x -in pw.inp   Done                     12/25/2018 09:11:10
00039 suncat0270 pw.x -in pw.inp   Done                     12/25/2018 09:11:10
00040 suncat0268 pw.x -in pw.inp   Done                     12/25/2018 09:11:10
00041 suncat0268 pw.x -in pw.inp   Done                     12/25/2018 09:11:10
00042 suncat0268 pw.x -in pw.inp   Done                     12/25/2018 09:11:10
00043 suncat0268 pw.x -in pw.inp   Done                     12/25/2018 09:11:10
00044 suncat0268 pw.x -in pw.inp   Done                     12/25/2018 09:11:10
00045 suncat0268 pw.x -in pw.inp   Done                     12/25/2018 09:11:10
00046 suncat0268 pw.x -in pw.inp   Done                     12/25/2018 09:11:10
00047 suncat0268 pw.x -in pw.inp   Done                     12/25/2018 09:11:10
00048 suncat0207 pw.x -in pw.inp   Done                     12/25/2018 09:11:10
00049 suncat0207 pw.x -in pw.inp   Done                     12/25/2018 09:11:10
00050 suncat0207 pw.x -in pw.inp   Done                     12/25/2018 09:11:10
00051 suncat0207 pw.x -in pw.inp   Done                     12/25/2018 09:11:10
00052 suncat0207 pw.x -in pw.inp   Done                     12/25/2018 09:11:10
00053 suncat0207 pw.x -in pw.inp   Done                     12/25/2018 09:11:10
00054 suncat0207 pw.x -in pw.inp   Done                     12/25/2018 09:11:10
00055 suncat0207 pw.x -in pw.inp   Done                     12/25/2018 09:11:10
00056 suncat0206 pw.x -in pw.inp   Done                     12/25/2018 09:11:10
00057 suncat0206 pw.x -in pw.inp   Done                     12/25/2018 09:11:10
00058 suncat0206 pw.x -in pw.inp   Done                     12/25/2018 09:11:10
00059 suncat0206 pw.x -in pw.inp   Done                     12/25/2018 09:11:10
00060 suncat0206 pw.x -in pw.inp   Done                     12/25/2018 09:11:10
00061 suncat0206 pw.x -in pw.inp   Done                     12/25/2018 09:11:10
00062 suncat0206 pw.x -in pw.inp   Done                     12/25/2018 09:11:10
00063 suncat0206 pw.x -in pw.inp   Done                     12/25/2018 09:11:10