     Program PWSCF v.5.1rc2 (svn rev. 11289) starts on 19Dec2018 at  3:29: 3

     Current dimensions of program PWSCF are:
     Max number of different atomic species (ntypx) = 10
     Max number of k-points (npk) =  40000
     Max angular momentum in pseudopotentials (lmaxx) =  3
     Presently stress not available with electric field

     IMPORTANT: XC functional enforced from input :
     Exchange-correlation      = BEEF-VDW ( 1  4 27 13 2)
     Any further DFT definition will be discarded
     Please, verify this is what you really want

     Subspace diagonalization in iterative solution of the eigenvalue problem:
     a serial algorithm will be used

     Found symmetry operation: I + ( -0.5000 -0.5000  0.0000)
     This is a supercell, fractional translations are disabled

     bravais-lattice index     =            0
     lattice parameter (alat)  =       1.8897  a.u.
     unit-cell volume          =    5273.0086 (a.u.)^3
     number of atoms/cell      =           12
     number of atomic types    =            2
     number of electrons       =       168.00
     number of Kohn-Sham states=          114
     kinetic-energy cutoff     =      36.7493  Ry
     charge density cutoff     =     367.4932  Ry
     convergence threshold     =      1.0E-06
     mixing beta               =       0.1000
     number of iterations used =           10  plain     mixing
     Exchange-correlation      = BEEF-VDW ( 1  4 27 13 2)
     nstep                     =           50

     celldm(1)=   1.889726  celldm(2)=   0.000000  celldm(3)=   0.000000
     celldm(4)=   0.000000  celldm(5)=   0.000000  celldm(6)=   0.000000

     crystal axes: (cart. coord. in units of alat)
               a(1) = (   5.807540   0.000000   0.000000 )
               a(2) = (   2.057170   5.430983   0.000000 )
               a(3) = (   0.000000   0.000000  24.773720 )

     reciprocal axes: (cart. coord. in units 2 pi/alat)
               b(1) = (  0.172190 -0.065223  0.000000 )
               b(2) = (  0.000000  0.184129  0.000000 )
               b(3) = (  0.000000  0.000000  0.040365 )

     PseudoPot. # 1 for Rh read from file:
     /afs/slac.stanford.edu/u/if/mamunm/psp/gbrv1.5pbe/Rh.UPF
     MD5 check sum: 761627e959a2e3a1f56b0b5fe687810e
     Pseudo is Ultrasoft + core correction, Zval = 15.0
     Generated by new atomic code, or converted to UPF format
     Using radial grid of  969 points,  7 beta functions with:
                l(1) =   0
                l(2) =   0
                l(3) =   1
                l(4) =   1
                l(5) =   2
                l(6) =   2
                l(7) =   2
     Q(r) pseudized with  8 coefficients,  rinner =    1.200   1.200   1.200
                                                       1.200   1.200

     PseudoPot. # 2 for Tl read from file:
     /afs/slac.stanford.edu/u/if/mamunm/psp/gbrv1.5pbe/Tl.UPF
     MD5 check sum: b76cf1f7e72655a2b2c53cf6385d7059
     Pseudo is Ultrasoft + core correction, Zval = 13.0
     Generated by new atomic code, or converted to UPF format
     Using radial grid of  899 points,  6 beta functions with:
                l(1) =   0
                l(2) =   0
                l(3) =   1
                l(4) =   1
                l(5) =   2
                l(6) =   2
     Q(r) pseudized with  6 coefficients,  rinner =    1.100   1.100   1.100
                                                       1.100   1.100

     vdW kernel table read from file vdW_kernel_table
     MD5 check sum: 095c7af220d748ca6e76c0b4c6cfb241

     atomic species   valence    mass     pseudopotential
        Rh1           15.00   102.90550     Rh( 1.00)
        Tl1           13.00   204.38000     Tl( 1.00)

     No symmetry found

   Cartesian axes

     site n.     atom                  positions (alat units)
         1           Rh1 tau(   1) = (   0.0000000   0.0000000  10.0000000  )
         2           Rh1 tau(   2) = (   3.9323551   2.7154914  10.0000000  )
         3           Tl1 tau(   3) = (   2.9037701   0.0000000  10.0000000  )
         4           Tl1 tau(   4) = (   1.0285850   2.7154914  10.0000000  )
         5           Rh1 tau(   5) = (   5.8075402   4.0104022  12.3868598  )
         6           Rh1 tau(   6) = (   1.8751851   1.2949108  12.3868598  )
         7           Tl1 tau(   7) = (   2.9037701   4.0104022  12.3868598  )
         8           Tl1 tau(   8) = (   4.7789552   1.2949108  12.3868598  )
         9           Rh1 tau(   9) = (   3.7503702   2.5898216  14.7737197  )
        10           Rh1 tau(  10) = (   7.6827253   5.3053130  14.7737197  )
        11           Tl1 tau(  11) = (   6.6541403   2.5898216  14.7737197  )
        12           Tl1 tau(  12) = (   4.7789552   5.3053130  14.7737197  )

     number of k points=    20  Fermi-Dirac smearing, width (Ry)=  0.0110
                       cart. coord. in units 2pi/alat
        k(    1) = (   0.0000000   0.0000000   0.0000000), wk =   0.0555556
        k(    2) = (   0.0000000   0.0306881   0.0000000), wk =   0.1111111
        k(    3) = (   0.0000000   0.0613762   0.0000000), wk =   0.1111111
        k(    4) = (   0.0000000  -0.0920644   0.0000000), wk =   0.0555556
        k(    5) = (   0.0286983  -0.0108705   0.0000000), wk =   0.1111111
        k(    6) = (   0.0286983   0.0198177   0.0000000), wk =   0.1111111
        k(    7) = (   0.0286983   0.0505058   0.0000000), wk =   0.1111111
        k(    8) = (   0.0286983  -0.1029348   0.0000000), wk =   0.1111111
        k(    9) = (   0.0286983  -0.0722467   0.0000000), wk =   0.1111111
        k(   10) = (   0.0286983  -0.0415586   0.0000000), wk =   0.1111111
        k(   11) = (   0.0573966  -0.0217409   0.0000000), wk =   0.1111111
        k(   12) = (   0.0573966   0.0089472   0.0000000), wk =   0.1111111
        k(   13) = (   0.0573966   0.0396353   0.0000000), wk =   0.1111111
        k(   14) = (   0.0573966  -0.1138053   0.0000000), wk =   0.1111111
        k(   15) = (   0.0573966  -0.0831172   0.0000000), wk =   0.1111111
        k(   16) = (   0.0573966  -0.0524291   0.0000000), wk =   0.1111111
        k(   17) = (  -0.0860950   0.0326114   0.0000000), wk =   0.0555556
        k(   18) = (  -0.0860950   0.0632995   0.0000000), wk =   0.1111111
        k(   19) = (  -0.0860950   0.0939877   0.0000000), wk =   0.1111111
        k(   20) = (  -0.0860950  -0.0594530   0.0000000), wk =   0.0555556

     Largest allocated arrays     est. size (Mb)     dimensions
     Largest temporary arrays     est. size (Mb)     dimensions

     Check: negative/imaginary core charge=   -0.000001    0.000000

     Initial potential from superposition of free atoms
     Check: negative starting charge=   -0.629776

     starting charge  164.97021, renormalised to  168.00000

     negative rho (up, down):  6.413E-01 0.000E+00

     *
     * You are using vdW-DF for exchange-correlation in this calculation.
     * Please cite the following three references that made this development
     * possible:
     *
     *   M. Dion, H. Rydberg, E. Schroder, D. C. Langreth, and
     *   B. I. Lundqvist, Phys. Rev. Lett. 92, 246401 (2004).
     *
     *   T. Thonhauser, V. R. Cooper, S. Li, A. Puzder, P. Hyldgaard, and
     *   D. C. Langreth, Phys. Rev. B 76, 125112 (2007).
     *
     *   G. Roman-Perez and J. M. Soler, Phys. Rev. Lett. 103, 096102 (2009).
     *
     *
     * If you are using vdW-DF2, please also cite:
     *
     *   K. Lee, E. D. Murray, L. Kong, B. I. Lundqvist, and
     *   D. C. Langreth, Phys. Rev. B 82, 081101(R) (2010).
     *
     *
     * If you are calculating the stress with vdW-DF, please also cite:
     *
     *   R. Sabatini, E. Kucukbenli, B. Kolb, T. Thonhauser, and
     *   S. de Gironcoli, J. Phys.: Condens. Matter 24, 424209 (2012).
     *

     Carrying out vdW-DF run using the following parameters:

     Nqs =      20    Nr_points =    1024   r_max =   100.000
     q_mesh =
               0.00001000     0.04494208     0.09755937     0.15916263
               0.23128650     0.31572767     0.41458969     0.53033537
               0.66584808     0.82450364     1.01025438     1.22772762
               1.48234092     1.78043706     2.12944203     2.53805004
               3.01644009     3.57652955     4.23227104     5.00000000

     Gradients computed in reciprocal space

     Adding external electric field

     Computed dipole along edir(3) :
        Dipole               -0.0000 Ry au,         -0.0000 Debye
        Dipole field         -0.0000 Ry au

        Potential amp.        0.0000 Ry
        Total length         45.6452 bohr

     Starting wfc are  126 randomized atomic wfcs

     Self-consistent Calculation

     iteration #  1     ecut=    36.75 Ry     beta=0.10
     Davidson diagonalization with overlap
     ethr =  1.00E-02,  avg # of iterations =  8.7

     Threshold (ethr) on eigenvalues was too large:
     Diagonalizing with lowered threshold

     Davidson diagonalization with overlap
     ethr =  4.94E-04,  avg # of iterations =  2.4

[...]

     total energy              =   -1914.04946108 Ry
     Harris-Foulkes estimate   =   -1914.18262511 Ry
     estimated scf accuracy    <       0.83262712 Ry

[...]

     End of self-consistent calculation

          k = 0.0000 0.0000 0.0000 ( 19819 PWs)   bands (ev):

   -44.4756 -44.4329 -44.4291 -44.4250 -44.4092 -44.4063 -44.3353 -44.3350
   -44.3054 -44.3043 -44.3019 -44.3001 -44.2939 -44.2938 -44.1647 -44.1640
   -44.1610 -44.1602 -10.7947 -10.7019 -10.6432 -10.6382 -10.6095 -10.6084
   -10.5807 -10.4912 -10.4826 -10.4193 -10.3997 -10.3807 -10.3612 -10.3537
   -10.3377 -10.2914 -10.2745 -10.2513 -10.2503 -10.2313 -10.1907 -10.1705
   -10.1576 -10.1274 -10.1013 -10.0855  -9.9443  -9.9317  -9.8978  -9.8208
    -8.1320  -6.5108  -5.0438  -4.7079  -4.2891  -4.2157  -1.3993  -1.3610
    -1.2004  -1.0335  -0.9211  -0.9143  -0.8144  -0.5878  -0.4941  -0.4601
    -0.2766  -0.1316  -0.0970  -0.0466   0.0319   0.1082   0.3028   0.3316
     0.3662   0.3869   0.4568   0.5202   0.5256   0.5853   0.5877   0.6514
     0.6613   0.7977   0.8612   0.9808   1.0937   1.1468   1.3946   1.7434
     1.7636   2.0966   2.2650   2.9742   3.5441   3.9557   4.0423   4.8329
     4.8805   4.9859   5.2273   5.4648   5.4745   6.0133   6.3159   6.3876
     6.4199   6.9104   7.2743   7.3648   7.8841   8.1239   8.5325   8.6605
     8.6618   8.6834

[...]

          k =-0.0861 0.0326 0.0000 ( 19822 PWs)   bands (ev):

[...]

     the Fermi energy is     1.1830 ev

!    total energy              =   -1913.89415980 Ry
     Harris-Foulkes estimate   =   -1913.89419344 Ry
     estimated scf accuracy    <       0.00000053 Ry

     The total energy is the sum of the following terms:

     one-electron contribution =  -13091.58994494 Ry
     hartree contribution      =    6610.30949601 Ry
     xc contribution           =    -570.97318052 Ry
     ewald contribution        =    5138.41171352 Ry
     electric field correction =       0.00000000 Ry
     smearing contrib. (-TS)   =      -0.05224387 Ry

     convergence has been achieved in  15 iterations

 BEEF-vdW xc energy contributions
           1 :   -505.097389546577
           2 :    467.443740630969
           3 :   -401.579982736917
[...]
     Davidson diagonalization with overlap
     c_bands:  1 eigenvalues not converged
     ethr =  2.21E-06,  avg # of iterations =  6.2

[...]

   This run was terminated on:   3:58:33  19Dec2018

[...]

     Program PWSCF v.5.1rc2 (svn rev. 11289) starts on 19Dec2018 at  3:58:39

[...]

     Found symmetry operation: I + ( -0.5000 -0.5000  0.0000)
     This is a supercell, fractional translations are disabled

[...]

   This run was terminated on:   4: 3:21  19Dec2018

[...]

     Program PWSCF v.5.1rc2 (svn rev. 11289) starts on 19Dec2018 at  4: 3:28

     Current dimensions of program PWSCF are:
     Max number of different atomic species (ntypx) = 10
     Max number of k-points (npk) =  40000
     Max angular momentum in pseudopotentials (lmaxx) =  3
     Presently stress not available with electric field

     IMPORTANT: XC functional enforced from input :
     Exchange-correlation      = BEEF-VDW ( 1  4 27 13 2)
     Any further DFT definition will be discarded
     Please, verify this is what you really want

     Subspace diagonalization in iterative solution of the eigenvalue problem:
     a serial algorithm will be used

     bravais-lattice index     =            0
     lattice parameter (alat)  =       1.8897  a.u.
     unit-cell volume          =    5273.0086 (a.u.)^3
     number of atoms/cell      =           12
     number of atomic types    =            2
     number of electrons       =       168.00
     number of Kohn-Sham states=          114
     kinetic-energy cutoff     =      36.7493  Ry
     charge density cutoff     =     367.4932  Ry
     convergence threshold     =      1.0E-06
     mixing beta               =       0.1000
     number of iterations used =           10  plain     mixing
     Exchange-correlation      = BEEF-VDW ( 1  4 27 13 2)
     nstep                     =           50

     celldm(1)=   1.889726  celldm(2)=   0.000000  celldm(3)=   0.000000
     celldm(4)=   0.000000  celldm(5)=   0.000000  celldm(6)=   0.000000

     crystal axes: (cart. coord. in units of alat)
               a(1) = (   5.807540   0.000000   0.000000 )
               a(2) = (   2.057170   5.430983   0.000000 )
               a(3) = (   0.000000   0.000000  24.773720 )

     reciprocal axes: (cart. coord. in units 2 pi/alat)
               b(1) = (  0.172190 -0.065223  0.000000 )
               b(2) = (  0.000000  0.184129  0.000000 )
               b(3) = (  0.000000  0.000000  0.040365 )

     PseudoPot. # 1 for Rh read from file:
     /afs/slac.stanford.edu/u/if/mamunm/psp/gbrv1.5pbe/Rh.UPF
     MD5 check sum: 761627e959a2e3a1f56b0b5fe687810e
     Pseudo is Ultrasoft + core correction, Zval = 15.0
     Generated by new atomic code, or converted to UPF format
     Using radial grid of  969 points,  7 beta functions with:
                l(1) =   0
                l(2) =   0
                l(3) =   1
                l(4) =   1
                l(5) =   2
                l(6) =   2
                l(7) =   2
     Q(r) pseudized with  8 coefficients,  rinner =    1.200   1.200   1.200
                                                       1.200   1.200

     PseudoPot. # 2 for Tl read from file:
     /afs/slac.stanford.edu/u/if/mamunm/psp/gbrv1.5pbe/Tl.UPF
     MD5 check sum: b76cf1f7e72655a2b2c53cf6385d7059
     Pseudo is Ultrasoft + core correction, Zval = 13.0
     Generated by new atomic code, or converted to UPF format
     Using radial grid of  899 points,  6 beta functions with:
                l(1) =   0
                l(2) =   0
                l(3) =   1
                l(4) =   1
                l(5) =   2
                l(6) =   2
     Q(r) pseudized with  6 coefficients,  rinner =    1.100   1.100   1.100
                                                       1.100   1.100

     vdW kernel table read from file vdW_kernel_table
     MD5 check sum: 095c7af220d748ca6e76c0b4c6cfb241

     atomic species   valence    mass     pseudopotential
        Rh1           15.00   102.90550     Rh( 1.00)
        Tl1           13.00   204.38000     Tl( 1.00)

     No symmetry found

   Cartesian axes

     site n.     atom                  positions (alat units)
         1           Rh1 tau(   1) = (   0.0000000   0.0000000  10.0000000  )
         2           Rh1 tau(   2) = (   3.9323551   2.7154914  10.0000000  )
         3           Tl1 tau(   3) = (   2.9037701   0.0000000  10.0000000  )
         4           Tl1 tau(   4) = (   1.0285850   2.7154914  10.0000000  )
         5           Rh1 tau(   5) = (   5.8075402   4.0104022  12.3868598  )
         6           Rh1 tau(   6) = (   1.8751851   1.2949108  12.3868598  )
         7           Tl1 tau(   7) = (   2.9037701   4.0104022  12.3868598  )
         8           Tl1 tau(   8) = (   4.7789552   1.2949108  12.3868598  )
         9           Rh1 tau(   9) = (   3.7575570   2.5947819  14.5975648  )
        10           Rh1 tau(  10) = (   7.6899440   5.3102901  14.5975412  )
        11           Tl1 tau(  11) = (   6.6666916   2.5985497  15.0334329  )
        12           Tl1 tau(  12) = (   4.7915388   5.3139664  15.0334590  )

     number of k points=    20  Fermi-Dirac smearing, width (Ry)=  0.0110
                       cart. coord. in units 2pi/alat
        k(    1) = (   0.0000000   0.0000000   0.0000000), wk =   0.0555556
        k(    2) = (   0.0000000   0.0306881   0.0000000), wk =   0.1111111
        k(    3) = (   0.0000000   0.0613762   0.0000000), wk =   0.1111111
        k(    4) = (   0.0000000  -0.0920644   0.0000000), wk =   0.0555556
        k(    5) = (   0.0286983  -0.0108705   0.0000000), wk =   0.1111111
        k(    6) = (   0.0286983   0.0198177   0.0000000), wk =   0.1111111
        k(    7) = (   0.0286983   0.0505058   0.0000000), wk =   0.1111111
        k(    8) = (   0.0286983  -0.1029348   0.0000000), wk =   0.1111111
        k(    9) = (   0.0286983  -0.0722467   0.0000000), wk =   0.1111111
        k(   10) = (   0.0286983  -0.0415586   0.0000000), wk =   0.1111111
        k(   11) = (   0.0573966  -0.0217409   0.0000000), wk =   0.1111111
        k(   12) = (   0.0573966   0.0089472   0.0000000), wk =   0.1111111
        k(   13) = (   0.0573966   0.0396353   0.0000000), wk =   0.1111111
        k(   14) = (   0.0573966  -0.1138053   0.0000000), wk =   0.1111111
        k(   15) = (   0.0573966  -0.0831172   0.0000000), wk =   0.1111111
        k(   16) = (   0.0573966  -0.0524291   0.0000000), wk =   0.1111111
        k(   17) = (  -0.0860950   0.0326114   0.0000000), wk =   0.0555556
        k(   18) = (  -0.0860950   0.0632995   0.0000000), wk =   0.1111111
        k(   19) = (  -0.0860950   0.0939877   0.0000000), wk =   0.1111111
        k(   20) = (  -0.0860950  -0.0594530   0.0000000), wk =   0.0555556

     Largest allocated arrays     est. size (Mb)     dimensions
     Largest temporary arrays     est. size (Mb)     dimensions

     Check: negative/imaginary core charge=   -0.000001    0.000000

     Initial potential from superposition of free atoms
     Check: negative starting charge=   -0.630646

     starting charge  164.97021, renormalised to  168.00000

[...]

     *
     * You are using vdW-DF for exchange-correlation in this calculation.
     * Please cite the following three references that made this development
     * possible:
     *
     *   M. Dion, H. Rydberg, E. Schroder, D. C. Langreth, and
     *   B. I. Lundqvist, Phys. Rev. Lett. 92, 246401 (2004).
     *
     *   T. Thonhauser, V. R. Cooper, S. Li, A. Puzder, P. Hyldgaard, and
     *   D. C. Langreth, Phys. Rev. B 76, 125112 (2007).
     *
     *   G. Roman-Perez and J. M. Soler, Phys. Rev. Lett. 103, 096102 (2009).
     *
     *
     * If you are using vdW-DF2, please also cite:
     *
     *   K. Lee, E. D. Murray, L. Kong, B. I. Lundqvist, and
     *   D. C. Langreth, Phys. Rev. B 82, 081101(R) (2010).
     *
     *
     * If you are calculating the stress with vdW-DF, please also cite:
     *
     *   R. Sabatini, E. Kucukbenli, B. Kolb, T. Thonhauser, and
     *   S. de Gironcoli, J. Phys.: Condens. Matter 24, 424209 (2012).
     *

     Carrying out vdW-DF run using the following parameters:

     Nqs =      20    Nr_points =    1024   r_max =   100.000
     q_mesh =
               0.00001000     0.04494208     0.09755937     0.15916263
               0.23128650     0.31572767     0.41458969     0.53033537
               0.66584808     0.82450364     1.01025438     1.22772762
               1.48234092     1.78043706     2.12944203     2.53805004
               3.01644009     3.57652955     4.23227104     5.00000000

     Gradients computed in reciprocal space

[...]

     Starting wfc are  126 randomized atomic wfcs

     Self-consistent Calculation

[...]

     total energy              =   -1913.92100853 Ry
     Harris-Foulkes estimate   =   -1913.92100783 Ry
     estimated scf accuracy    <       0.00000226 Ry

     iteration # 16     ecut=    36.75 Ry     beta=0.10
     Davidson diagonalization with overlap
     ethr =  1.34E-09,  avg # of iterations =  2.5

[...]

     negative rho (up, down):  6.585E-01 0.000E+00

     Adding external electric field

     Computed dipole along edir(3) :
        Dipole                0.0477 Ry au,          0.1212 Debye
        Dipole field          0.0001 Ry au

        Potential amp.       -0.0104 Ry
        Total length         45.6452 bohr

     End of self-consistent calculation

[...]

          k = 0.0574-0.0524 0.0000 ( 19875 PWs)   bands (ev):

[...]

          k =-0.0861-0.0595 0.0000 ( 19778 PWs)   bands (ev):

   -44.3625 -44.3213 -44.3204 -44.3189 -44.3099 -44.3071 -44.2956 -44.2752
   -44.2646 -44.2454 -44.2425 -44.2336 -44.2249 -44.2244 -44.2089 -44.2043
   -44.1059 -44.1023 -10.6393 -10.5364 -10.5081 -10.5038 -10.4450 -10.4134
   -10.3631 -10.3278 -10.2986 -10.2941 -10.2721 -10.2697 -10.2500 -10.1907
   -10.1605 -10.1506 -10.1487 -10.1389 -10.1322 -10.1217 -10.0945 -10.0735
   -10.0490 -10.0307 -10.0141 -10.0012  -9.9855  -9.8700  -9.8549  -9.7467
    -6.3219  -6.0729  -5.3549  -4.9638  -3.8804  -2.8813  -2.8000  -2.4940
    -2.2337  -1.8744  -1.8712  -1.6532  -1.3003  -1.1198  -1.0751  -0.9699
    -0.8872  -0.7596  -0.6373  -0.5050  -0.4041  -0.3769  -0.2153  -0.1841
    -0.0978   0.1127   0.1296   0.2921   0.5188   0.5634   0.5834   0.6392
     0.6739   0.9320   1.0148   1.1234   1.3360   1.3706   1.8641   1.9424
     2.2117   3.2081   3.5472   3.9754   4.2910   5.0881   5.5314   6.2403
     6.2840   6.3069   6.6381   6.8184   6.8998   7.0245   7.2560   7.3214
     7.5567   7.6461   7.8917   7.9513   7.9649   8.0670   8.0845   8.4284
     8.4499   8.4729

     the Fermi energy is     1.2454 ev

!    total energy              =   -1913.92098477 Ry
     Harris-Foulkes estimate   =   -1913.92100877 Ry
     estimated scf accuracy    <       0.00000093 Ry

     The total energy is the sum of the following terms:

     one-electron contribution =  -13030.19517510 Ry
     hartree contribution      =    6580.05741186 Ry
     xc contribution           =    -570.89219547 Ry
     ewald contribution        =    5107.16034283 Ry
     electric field correction =       0.00000542 Ry
     smearing contrib. (-TS)   =      -0.05137432 Ry

     convergence has been achieved in  16 iterations

 BEEF-vdW xc energy contributions
           1 :   -505.015693699974
           2 :    467.325489972715
           3 :   -401.414824027710
           4 :    322.438988388138
           5 :   -245.813600573423
           6 :    182.468394792184
           7 :   -136.506444140778
           8 :    105.745230079856
           9 :   -84.4593912912876
          10 :    66.8166155364304
          11 :   -49.4451157606660
          12 :    32.1799890686206
          13 :   -17.0518845266953
          14 :    6.38271951231172
          15 :   -1.13737725981548
          16 :   0.321558481488069
          17 :   -1.55747629925713
          18 :    2.34392997553834
          19 :   -1.24445765021312
          20 :   -1.62281406647605
          21 :    4.96818334402417
          22 :   -7.27860740679387
          23 :    7.74056688254075
          24 :   -6.63384550711828
          25 :    5.04119553156340
          26 :   -4.12819315741592
          27 :    4.45286122723007
          28 :   -5.70146310039161
          29 :    6.95996431074252
          30 :   -7.31757047656720
          31 :   -43.4722804971838
          32 :   -32.1117243760298

     Forces acting on atoms (Ry/au):

     negative rho (up, down):  6.585E-01 0.000E+00
     atom    1 type  1   force =     0.00077119    0.00053296    0.03436234
     atom    2 type  1   force =     0.00075361    0.00052051    0.03439024
     atom    3 type  2   force =    -0.00313792   -0.00227650   -0.02978847
     atom    4 type  2   force =    -0.00324088   -0.00213029   -0.02978098
     atom    5 type  1   force =    -0.00135866   -0.00093866    0.00952727
     atom    6 type  1   force =    -0.00135106   -0.00093207    0.00945860
     atom    7 type  2   force =     0.00284265    0.00211820   -0.01441421
     atom    8 type  2   force =     0.00298662    0.00191104   -0.01441357
     atom    9 type  1   force =    -0.00009787   -0.00006659   -0.00010548
     atom   10 type  1   force =    -0.00008958   -0.00005933   -0.00010351
     atom   11 type  2   force =     0.00092672    0.00070534    0.00043320
     atom   12 type  2   force =     0.00099518    0.00061540    0.00043457

     Total force =     0.069275     Total SCF correction =     0.003451

     entering subroutine stress ...

     negative rho (up, down):  6.585E-01 0.000E+00
          total   stress  (Ry/bohr**3)                   (kbar)     P=  -25.80
  -0.00022631  -0.00003742   0.00000478        -33.29     -5.50      0.70
  -0.00003742  -0.00019796   0.00000330         -5.50    -29.12      0.49
   0.00000478   0.00000330  -0.00010192          0.70      0.49    -14.99

 !ASE

     Writing output data file calc.save

     General routines

     Parallel routines

   This run was terminated on:   4: 8:11  19Dec2018

   JOB DONE.
Job  /afs/slac/g/suncat/bin/suncat-tsmpirun -x LD_LIBRARY_PATH -wdir /scratch/qe530494_Y5mIO pw.x -in pw.inp

TID   HOST_NAME   COMMAND_LINE            STATUS            TERMINATION_TIME
00000 suncat2046 pw.x -in pw.inp   Done                     12/19/2018 04:08:11
00001 suncat2046 pw.x -in pw.inp   Done                     12/19/2018 04:08:11
00002 suncat2046 pw.x -in pw.inp   Done                     12/19/2018 04:08:11
00003 suncat2046 pw.x -in pw.inp   Done                     12/19/2018 04:08:11
00004 suncat2046 pw.x -in pw.inp   Done                     12/19/2018 04:08:11
00005 suncat2046 pw.x -in pw.inp   Done                     12/19/2018 04:08:11
00006 suncat2046 pw.x -in pw.inp   Done                     12/19/2018 04:08:11
00007 suncat2046 pw.x -in pw.inp   Done                     12/19/2018 04:08:11
00008 suncat2046 pw.x -in pw.inp   Done                     12/19/2018 04:08:11
00009 suncat2046 pw.x -in pw.inp   Done                     12/19/2018 04:08:11
00010 suncat2046 pw.x -in pw.inp   Done                     12/19/2018 04:08:11
00011 suncat2046 pw.x -in pw.inp   Done                     12/19/2018 04:08:11
00012 suncat2046 pw.x -in pw.inp   Done                     12/19/2018 04:08:11
00013 suncat2046 pw.x -in pw.inp   Done                     12/19/2018 04:08:11
00014 suncat2046 pw.x -in pw.inp   Done                     12/19/2018 04:08:11
00015 suncat2046 pw.x -in pw.inp   Done                     12/19/2018 04:08:11
00016 suncat2045 pw.x -in pw.inp   Done                     12/19/2018 04:08:11
00017 suncat2045 pw.x -in pw.inp   Done                     12/19/2018 04:08:11
00018 suncat2045 pw.x -in pw.inp   Done                     12/19/2018 04:08:11
00019 suncat2045 pw.x -in pw.inp   Done                     12/19/2018 04:08:11
00020 suncat2045 pw.x -in pw.inp   Done                     12/19/2018 04:08:11
00021 suncat2045 pw.x -in pw.inp   Done                     12/19/2018 04:08:11
00022 suncat2045 pw.x -in pw.inp   Done                     12/19/2018 04:08:11
00023 suncat2045 pw.x -in pw.inp   Done                     12/19/2018 04:08:11
00024 suncat2045 pw.x -in pw.inp   Done                     12/19/2018 04:08:11
00025 suncat2045 pw.x -in pw.inp   Done                     12/19/2018 04:08:11
00026 suncat2045 pw.x -in pw.inp   Done                     12/19/2018 04:08:11
00027 suncat2045 pw.x -in pw.inp   Done                     12/19/2018 04:08:11
00028 suncat2045 pw.x -in pw.inp   Done                     12/19/2018 04:08:11
00029 suncat2045 pw.x -in pw.inp   Done                     12/19/2018 04:08:11
00030 suncat2045 pw.x -in pw.inp   Done                     12/19/2018 04:08:11
00031 suncat2045 pw.x -in pw.inp   Done                     12/19/2018 04:08:11