     Program PWSCF v.5.1rc2 (svn rev. 11289) starts on 29Dec2018 at 15:20:15

     Current dimensions of program PWSCF are:
     Max number of different atomic species (ntypx) = 10
     Max number of k-points (npk) =  40000
     Max angular momentum in pseudopotentials (lmaxx) =  3
     Presently stress not available with electric field

     IMPORTANT: XC functional enforced from input :
     Exchange-correlation      = BEEF-VDW ( 1  4 27 13 2)
     Any further DFT definition will be discarded
     Please, verify this is what you really want

     Subspace diagonalization in iterative solution of the eigenvalue problem:
     a serial algorithm will be used

     Found symmetry operation: I + ( -0.5000 -0.5000  0.0000)
     This is a supercell, fractional translations are disabled

     bravais-lattice index     =            0
     lattice parameter (alat)  =       1.8897  a.u.
     unit-cell volume          =    4742.9228 (a.u.)^3
     number of atoms/cell      =           12
     number of atomic types    =            2
     number of electrons       =       168.00
     number of Kohn-Sham states=          114
     kinetic-energy cutoff     =      36.7493  Ry
     charge density cutoff     =     367.4932  Ry
     convergence threshold     =      1.0E-06
     mixing beta               =       0.1000
     number of iterations used =           10  plain     mixing
     Exchange-correlation      = BEEF-VDW ( 1  4 27 13 2)
     nstep                     =           50

     celldm(1)=   1.889726  celldm(2)=   0.000000  celldm(3)=   0.000000
     celldm(4)=   0.000000  celldm(5)=   0.000000  celldm(6)=   0.000000

     crystal axes: (cart. coord. in units of alat)
               a(1) = (   5.511233   0.000000   0.000000 )
               a(2) = (   1.804676   5.207382   0.000000 )
               a(3) = (   0.000000   0.000000  24.489575 )

     reciprocal axes: (cart. coord. in units 2 pi/alat)
               b(1) = (  0.181448 -0.062883  0.000000 )
               b(2) = (  0.000000  0.192035  0.000000 )
               b(3) = (  0.000000  0.000000  0.040834 )

     PseudoPot. # 1 for Nb read from file:
     /afs/slac.stanford.edu/u/if/mamunm/psp/gbrv1.5pbe/Nb.UPF
     MD5 check sum: 573aab8a2fa660278ed4a62cd769473f
     Pseudo is Ultrasoft + core correction, Zval = 13.0
     Generated by new atomic code, or converted to UPF format
     Using radial grid of  887 points,  6 beta functions with:
                l(1) =   0
                l(2) =   0
                l(3) =   1
                l(4) =   1
                l(5) =   2
                l(6) =   2
     Q(r) pseudized with  6 coefficients,  rinner =    1.000   1.000   1.000
                                                       1.000   1.000

     PseudoPot. # 2 for Tc read from file:
     /afs/slac.stanford.edu/u/if/mamunm/psp/gbrv1.5pbe/Tc.UPF
     MD5 check sum: 9eb49e5b028550b2339a02317eb7b844
     Pseudo is Ultrasoft + core correction, Zval = 15.0
     Generated by new atomic code, or converted to UPF format
     Using radial grid of  965 points,  6 beta functions with:
                l(1) =   0
                l(2) =   0
                l(3) =   1
                l(4) =   1
                l(5) =   2
                l(6) =   2
     Q(r) pseudized with  8 coefficients,  rinner =    1.300   1.300   1.300
                                                       1.300   1.300

     vdW kernel table read from file vdW_kernel_table
     MD5 check sum: 095c7af220d748ca6e76c0b4c6cfb241

     atomic species   valence    mass     pseudopotential
        Nb1           13.00    92.90637     Nb( 1.00)
        Tc1           15.00    97.90721     Tc( 1.00)

     No symmetry found

   Cartesian axes

     site n.     atom                  positions (alat units)
         1           Nb1 tau(   1) = (   0.0000000   0.0000000  10.0000000  )
         2           Nb1 tau(   2) = (   3.6579545   2.6036911  10.0000000  )
         3           Tc1 tau(   3) = (   2.7556164   0.0000000  10.0000000  )
         4           Tc1 tau(   4) = (   0.9023382   2.6036911  10.0000000  )
         5           Nb1 tau(   5) = (   5.5112328   3.9228338  12.2447873  )
         6           Nb1 tau(   6) = (   1.8532782   1.3191427  12.2447873  )
         7           Tc1 tau(   7) = (   2.7556164   3.9228338  12.2447873  )
         8           Tc1 tau(   8) = (   4.6088946   1.3191427  12.2447873  )
         9           Nb1 tau(   9) = (   3.7065565   2.6382854  14.4895746  )
        10           Nb1 tau(  10) = (   0.0486019   0.0345943  14.4895746  )
        11           Tc1 tau(  11) = (   0.9509401   2.6382854  14.4895746  )
        12           Tc1 tau(  12) = (   2.8042183   0.0345943  14.4895746  )

     number of k points=    20  Fermi-Dirac smearing, width (Ry)=  0.0110
                       cart. coord. in units 2pi/alat
        k(    1) = (   0.0000000   0.0000000   0.0000000), wk =   0.0555556
        k(    2) = (   0.0000000   0.0320058   0.0000000), wk =   0.1111111
        k(    3) = (   0.0000000   0.0640117   0.0000000), wk =   0.1111111
        k(    4) = (   0.0000000  -0.0960175   0.0000000), wk =   0.0555556
        k(    5) = (   0.0302413  -0.0104804   0.0000000), wk =   0.1111111
        k(    6) = (   0.0302413   0.0215254   0.0000000), wk =   0.1111111
        k(    7) = (   0.0302413   0.0535312   0.0000000), wk =   0.1111111
        k(    8) = (   0.0302413  -0.1064980   0.0000000), wk =   0.1111111
        k(    9) = (   0.0302413  -0.0744921   0.0000000), wk =   0.1111111
        k(   10) = (   0.0302413  -0.0424863   0.0000000), wk =   0.1111111
        k(   11) = (   0.0604825  -0.0209609   0.0000000), wk =   0.1111111
        k(   12) = (   0.0604825   0.0110449   0.0000000), wk =   0.1111111
        k(   13) = (   0.0604825   0.0430508   0.0000000), wk =   0.1111111
        k(   14) = (   0.0604825  -0.1169784   0.0000000), wk =   0.1111111
        k(   15) = (   0.0604825  -0.0849726   0.0000000), wk =   0.1111111
        k(   16) = (   0.0604825  -0.0529667   0.0000000), wk =   0.1111111
        k(   17) = (  -0.0907238   0.0314413   0.0000000), wk =   0.0555556
        k(   18) = (  -0.0907238   0.0634472   0.0000000), wk =   0.1111111
        k(   19) = (  -0.0907238   0.0954530   0.0000000), wk =   0.1111111
        k(   20) = (  -0.0907238  -0.0645762   0.0000000), wk =   0.0555556

     Largest allocated arrays     est. size (Mb)     dimensions
     Largest temporary arrays     est. size (Mb)     dimensions

     Check: negative/imaginary core charge=   -0.000014    0.000000

     Initial potential from superposition of free atoms
     Check: negative starting charge=   -0.750009

     starting charge  161.98343, renormalised to  168.00000

     negative rho (up, down):  7.779E-01 0.000E+00

     *
     * You are using vdW-DF for exchange-correlation in this calculation.
     * Please cite the following three references that made this development
     * possible:
     *
     *   M. Dion, H. Rydberg, E. Schroder, D. C. Langreth, and
     *   B. I. Lundqvist, Phys. Rev. Lett. 92, 246401 (2004).
     *
     *   T. Thonhauser, V. R. Cooper, S. Li, A. Puzder, P. Hyldgaard, and
     *   D. C. Langreth, Phys. Rev. B 76, 125112 (2007).
     *
     *   G. Roman-Perez and J. M. Soler, Phys. Rev. Lett. 103, 096102 (2009).
     *
     *
     * If you are using vdW-DF2, please also cite:
     *
     *   K. Lee, E. D. Murray, L. Kong, B. I. Lundqvist, and
     *   D. C. Langreth, Phys. Rev. B 82, 081101(R) (2010).
     *
     *
     * If you are calculating the stress with vdW-DF, please also cite:
     *
     *   R. Sabatini, E. Kucukbenli, B. Kolb, T. Thonhauser, and
     *   S. de Gironcoli, J. Phys.: Condens. Matter 24, 424209 (2012).
     *

     Carrying out vdW-DF run using the following parameters:

     Nqs =      20    Nr_points =    1024   r_max =   100.000
     q_mesh =
               0.00001000     0.04494208     0.09755937     0.15916263
               0.23128650     0.31572767     0.41458969     0.53033537
               0.66584808     0.82450364     1.01025438     1.22772762
               1.48234092     1.78043706     2.12944203     2.53805004
               3.01644009     3.57652955     4.23227104     5.00000000

     Gradients computed in reciprocal space

     Adding external electric field

     Computed dipole along edir(3) :
        Dipole               -0.0000 Ry au,         -0.0000 Debye
        Dipole field         -0.0000 Ry au

        Potential amp.        0.0000 Ry
        Total length         45.1216 bohr

     Starting wfc are  156 randomized atomic wfcs

     Self-consistent Calculation

     iteration #  1     ecut=    36.75 Ry     beta=0.10
     Davidson diagonalization with overlap
     ethr =  1.00E-02,  avg # of iterations =  2.3

[...]

     total energy              =   -1763.92508169 Ry
     Harris-Foulkes estimate   =   -1764.68842809 Ry
     estimated scf accuracy    <       5.18084028 Ry

[...]

     End of self-consistent calculation

          k = 0.0000 0.0000 0.0000 ( 17819 PWs)   bands (ev):

   -64.9661 -64.9553 -64.5102 -64.5101 -64.4999 -64.4998 -53.2830 -53.2704
   -53.2444 -53.2442 -53.2416 -53.2289 -37.1053 -37.0283 -37.0126 -36.9780
   -36.9685 -36.9456 -36.6041 -36.5938 -36.5793 -36.5725 -36.5603 -36.5490
   -36.5474 -36.5422 -36.5314 -36.5287 -36.4443 -36.4430 -29.4139 -29.4076
   -29.3950 -29.3850 -29.3546 -29.3413 -29.3309 -29.3115 -29.2981 -29.1968
   -29.1832 -29.1815 -29.1679 -29.1266 -29.1069 -29.0789 -29.0384 -29.0308
    -3.9690  -2.5856  -2.4356  -2.4037  -2.3194  -2.2375  -2.2269  -2.1777
    -2.0926  -2.0418  -1.5051  -1.1752  -1.1373  -0.8243  -0.7714  -0.7250
    -0.6101  -0.5280  -0.3563  -0.2813  -0.2694  -0.1766   0.0852   0.6186
     0.8265   0.8815   1.0862   1.4665   1.5266   1.7908   1.9047   2.1412
     2.1527   2.7203   2.8003   3.0312   3.2427   3.3246   3.3906   3.6064
     3.6226   3.6944   3.7295   3.9399   3.9459   3.9965   4.0482   4.0546
     4.0570   4.2717   4.2797   4.2811   4.2937   4.3120   4.6117   4.7300
     4.9220   4.9358   5.2495   5.2967   5.6405   5.7421   5.8153   5.8621
     5.8925   6.0280

[...]

          k =-0.0907 0.0314 0.0000 ( 17800 PWs)   bands (ev):

[...]

     the Fermi energy is     2.1457 ev

!    total energy              =   -1763.02048001 Ry
     Harris-Foulkes estimate   =   -1763.02047454 Ry
     estimated scf accuracy    <       0.00000088 Ry

     The total energy is the sum of the following terms:

     one-electron contribution =  -14664.68319653 Ry
     hartree contribution      =    7326.69145628 Ry
     xc contribution           =    -312.80200311 Ry
     ewald contribution        =    5887.83993998 Ry
     electric field correction =       0.00000000 Ry
     smearing contrib. (-TS)   =      -0.06667662 Ry

     convergence has been achieved in  16 iterations

 BEEF-vdW xc energy contributions
           1 :   -272.026470581582
           2 :    249.217854658493
           3 :   -209.258963517846
           4 :    161.137585875766
           5 :   -114.073594303479
           6 :    74.7126631893580
           7 :   -45.7832147571096
           8 :    26.3694941056649
           9 :   -13.4224760550500
[...]
     MD5 check sum: 573aab8a2fa660278ed4a62cd769473f
     Pseudo is Ultrasoft + core correction, Zval = 13.0
     Generated by new atomic code, or converted to UPF format
     Using radial grid of  887 points,  6 beta functions with:
                l(1) =   0
                l(2) =   0
                l(3) =   1
                l(4) =   1
                l(5) =   2
                l(6) =   2
     Q(r) pseudized with  6 coefficients,  rinner =    1.000   1.000   1.000
                                                       1.000   1.000

     PseudoPot. # 2 for Tc read from file:
     /afs/slac.stanford.edu/u/if/mamunm/psp/gbrv1.5pbe/Tc.UPF
     MD5 check sum: 9eb49e5b028550b2339a02317eb7b844
     Pseudo is Ultrasoft + core correction, Zval = 15.0
     Generated by new atomic code, or converted to UPF format
     Using radial grid of  965 points,  6 beta functions with:
                l(1) =   0
                l(2) =   0
                l(3) =   1
                l(4) =   1
                l(5) =   2
                l(6) =   2
     Q(r) pseudized with  8 coefficients,  rinner =    1.300   1.300   1.300
                                                       1.300   1.300

     vdW kernel table read from file vdW_kernel_table
     MD5 check sum: 095c7af220d748ca6e76c0b4c6cfb241

     atomic species   valence    mass     pseudopotential
        Nb1           13.00    92.90637     Nb( 1.00)
        Tc1           15.00    97.90721     Tc( 1.00)

     No symmetry found

   Cartesian axes

     site n.     atom                  positions (alat units)
         1           Nb1 tau(   1) = (   0.0000000   0.0000000  10.0000000  )
         2           Nb1 tau(   2) = (   3.6579545   2.6036911  10.0000000  )
         3           Tc1 tau(   3) = (   2.7556164   0.0000000  10.0000000  )
         4           Tc1 tau(   4) = (   0.9023382   2.6036911  10.0000000  )
         5           Nb1 tau(   5) = (   5.5112328   3.9228338  12.2447873  )
         6           Nb1 tau(   6) = (   1.8532782   1.3191427  12.2447873  )
         7           Tc1 tau(   7) = (   2.7556164   3.9228338  12.2447873  )
         8           Tc1 tau(   8) = (   4.6088946   1.3191427  12.2447873  )
         9           Nb1 tau(   9) = (   3.6860484   2.6236879  14.4832697  )
        10           Nb1 tau(  10) = (   0.0280931   0.0199962  14.4832701  )
        11           Tc1 tau(  11) = (   0.9330288   2.6255382  14.3674075  )
        12           Tc1 tau(  12) = (   2.7863049   0.0218436  14.3674060  )

     number of k points=    20  Fermi-Dirac smearing, width (Ry)=  0.0110
                       cart. coord. in units 2pi/alat
        k(    1) = (   0.0000000   0.0000000   0.0000000), wk =   0.0555556
        k(    2) = (   0.0000000   0.0320058   0.0000000), wk =   0.1111111
        k(    3) = (   0.0000000   0.0640117   0.0000000), wk =   0.1111111
        k(    4) = (   0.0000000  -0.0960175   0.0000000), wk =   0.0555556
        k(    5) = (   0.0302413  -0.0104804   0.0000000), wk =   0.1111111
        k(    6) = (   0.0302413   0.0215254   0.0000000), wk =   0.1111111
        k(    7) = (   0.0302413   0.0535312   0.0000000), wk =   0.1111111
        k(    8) = (   0.0302413  -0.1064980   0.0000000), wk =   0.1111111
        k(    9) = (   0.0302413  -0.0744921   0.0000000), wk =   0.1111111
        k(   10) = (   0.0302413  -0.0424863   0.0000000), wk =   0.1111111
        k(   11) = (   0.0604825  -0.0209609   0.0000000), wk =   0.1111111
        k(   12) = (   0.0604825   0.0110449   0.0000000), wk =   0.1111111
        k(   13) = (   0.0604825   0.0430508   0.0000000), wk =   0.1111111
        k(   14) = (   0.0604825  -0.1169784   0.0000000), wk =   0.1111111
        k(   15) = (   0.0604825  -0.0849726   0.0000000), wk =   0.1111111
        k(   16) = (   0.0604825  -0.0529667   0.0000000), wk =   0.1111111
        k(   17) = (  -0.0907238   0.0314413   0.0000000), wk =   0.0555556
        k(   18) = (  -0.0907238   0.0634472   0.0000000), wk =   0.1111111
        k(   19) = (  -0.0907238   0.0954530   0.0000000), wk =   0.1111111
        k(   20) = (  -0.0907238  -0.0645762   0.0000000), wk =   0.0555556

     Largest allocated arrays     est. size (Mb)     dimensions
     Largest temporary arrays     est. size (Mb)     dimensions

     Check: negative/imaginary core charge=   -0.000014    0.000000

     Initial potential from superposition of free atoms
     Check: negative starting charge=   -0.747667

     starting charge  161.98343, renormalised to  168.00000

[...]

     *
     * You are using vdW-DF for exchange-correlation in this calculation.
     * Please cite the following three references that made this development
     * possible:
     *
     *   M. Dion, H. Rydberg, E. Schroder, D. C. Langreth, and
     *   B. I. Lundqvist, Phys. Rev. Lett. 92, 246401 (2004).
     *
     *   T. Thonhauser, V. R. Cooper, S. Li, A. Puzder, P. Hyldgaard, and
     *   D. C. Langreth, Phys. Rev. B 76, 125112 (2007).
     *
     *   G. Roman-Perez and J. M. Soler, Phys. Rev. Lett. 103, 096102 (2009).
     *
     *
     * If you are using vdW-DF2, please also cite:
     *
     *   K. Lee, E. D. Murray, L. Kong, B. I. Lundqvist, and
     *   D. C. Langreth, Phys. Rev. B 82, 081101(R) (2010).
     *
     *
     * If you are calculating the stress with vdW-DF, please also cite:
     *
     *   R. Sabatini, E. Kucukbenli, B. Kolb, T. Thonhauser, and
     *   S. de Gironcoli, J. Phys.: Condens. Matter 24, 424209 (2012).
     *

     Carrying out vdW-DF run using the following parameters:

     Nqs =      20    Nr_points =    1024   r_max =   100.000
     q_mesh =
               0.00001000     0.04494208     0.09755937     0.15916263
               0.23128650     0.31572767     0.41458969     0.53033537
               0.66584808     0.82450364     1.01025438     1.22772762
               1.48234092     1.78043706     2.12944203     2.53805004
               3.01644009     3.57652955     4.23227104     5.00000000

     Gradients computed in reciprocal space

[...]

     Starting wfc are  156 randomized atomic wfcs

     Self-consistent Calculation

[...]

     total energy              =   -1763.02902371 Ry
     Harris-Foulkes estimate   =   -1763.02902282 Ry
     estimated scf accuracy    <       0.00000157 Ry

     iteration # 18     ecut=    36.75 Ry     beta=0.10
     Davidson diagonalization with overlap
     ethr =  9.32E-10,  avg # of iterations =  2.0

[...]

     negative rho (up, down):  7.847E-01 0.000E+00

     Adding external electric field

     Computed dipole along edir(3) :
        Dipole                0.0373 Ry au,          0.0947 Debye
        Dipole field          0.0001 Ry au

        Potential amp.       -0.0089 Ry
        Total length         45.1216 bohr

     End of self-consistent calculation

[...]

          k = 0.0605-0.0530 0.0000 ( 17869 PWs)   bands (ev):

[...]

          k =-0.0907-0.0646 0.0000 ( 17920 PWs)   bands (ev):

   -64.9188 -64.9088 -64.4781 -64.4682 -64.4646 -64.4542 -53.2416 -53.2394
   -53.2189 -53.2129 -53.1545 -53.1206 -37.0376 -36.9588 -36.9502 -36.9376
   -36.9209 -36.8928 -36.5672 -36.5425 -36.5232 -36.5215 -36.5139 -36.5080
   -36.5059 -36.5000 -36.4908 -36.4847 -36.4222 -36.4057 -29.4507 -29.3756
   -29.3610 -29.3310 -29.3264 -29.3171 -29.3168 -29.3066 -29.3063 -29.2287
   -29.1973 -29.1496 -29.0893 -29.0623 -29.0333 -29.0220 -29.0164 -29.0031
    -2.1397  -2.0214  -1.4205  -1.3687  -1.3344  -1.1267  -1.0912  -0.9829
    -0.9567  -0.7081  -0.5976  -0.5902  -0.3579  -0.3427  -0.3157  -0.2561
    -0.1371   0.0068   0.0451   0.3035   0.4094   0.5316   0.6573   0.7421
     0.9952   0.9983   1.0073   1.1378   1.2212   1.2264   1.3098   1.3594
     1.4182   1.5271   1.5477   1.5563   1.6339   1.7268   1.9259   2.0096
     2.2939   2.4873   2.5053   2.7390   2.8836   3.0038   3.0570   3.0962
     3.2520   3.2767   3.3911   3.5641   3.5903   3.8303   3.8406   3.9942
     4.1620   4.5088   4.5749   4.8819   5.1591   5.2548   5.4092   5.5064
     5.6894   5.8849

     the Fermi energy is     2.1691 ev

!    total energy              =   -1763.02902763 Ry
     Harris-Foulkes estimate   =   -1763.02902380 Ry
     estimated scf accuracy    <       0.00000032 Ry

     The total energy is the sum of the following terms:

     one-electron contribution =  -14806.61697920 Ry
     hartree contribution      =    7397.91349956 Ry
     xc contribution           =    -312.93582646 Ry
     ewald contribution        =    5958.67670583 Ry
     electric field correction =       0.00000368 Ry
     smearing contrib. (-TS)   =      -0.06643104 Ry

     convergence has been achieved in  18 iterations

 BEEF-vdW xc energy contributions
           1 :   -272.163133866833
           2 :    249.404640738305
           3 :   -209.511092647599
           4 :    161.421427764312
           5 :   -114.318089125449
           6 :    74.8456247355517
           7 :   -45.7727065488450
           8 :    26.2461286099073
           9 :   -13.2657507388570
          10 :    3.51070305856979
          11 :    5.20422886433585
          12 :   -13.3483992142944
          13 :    19.9816774864395
          14 :   -23.6639471427043
          15 :    23.4380323033333
          16 :   -19.4496286198582
          17 :    12.9610169341896
          18 :   -5.85615693529257
          19 :  -7.662685399458269E-002
          20 :    3.72349686338225
          21 :   -4.87146088048388
          22 :    4.03932352668852
          23 :   -2.06654268083787
          24 :  -0.319353396692691
          25 :    2.74741053798925
          26 :   -5.18774526528244
          27 :    7.73388748958251
          28 :   -10.3474453489452
          29 :    12.7198138234295
          30 :   -14.3291136019065
          31 :   -27.7979379303957
          32 :   -20.6667562841602

     Forces acting on atoms (Ry/au):

     negative rho (up, down):  7.847E-01 0.000E+00
     atom    1 type  1   force =     0.00312047    0.00222087   -0.00459571
     atom    2 type  1   force =     0.00312054    0.00222126   -0.00459567
     atom    3 type  2   force =     0.00126798    0.00090240    0.02937989
     atom    4 type  2   force =     0.00126799    0.00090273    0.02937963
     atom    5 type  1   force =    -0.00207799   -0.00147897   -0.01461141
     atom    6 type  1   force =    -0.00207783   -0.00147908   -0.01461103
     atom    7 type  2   force =    -0.00144280   -0.00102692   -0.01104115
     atom    8 type  2   force =    -0.00144282   -0.00102690   -0.01104066
     atom    9 type  1   force =    -0.00039643   -0.00028214    0.00094210
     atom   10 type  1   force =    -0.00039611   -0.00028200    0.00094206
     atom   11 type  2   force =    -0.00047154   -0.00033585   -0.00007398
     atom   12 type  2   force =    -0.00047144   -0.00033540   -0.00007406

     Total force =     0.049958     Total SCF correction =     0.003395

     entering subroutine stress ...

     negative rho (up, down):  7.847E-01 0.000E+00
          total   stress  (Ry/bohr**3)                   (kbar)     P=  -21.36
  -0.00019170   0.00000127  -0.00001040        -28.20      0.19     -1.53
   0.00000127  -0.00019258  -0.00000741          0.19    -28.33     -1.09
  -0.00001040  -0.00000741  -0.00005140         -1.53     -1.09     -7.56

 !ASE

     Writing output data file calc.save

     General routines

     Parallel routines

   This run was terminated on:  16:33:29  29Dec2018

   JOB DONE.
Job  /afs/slac/g/suncat/bin/suncat-tsmpirun -x LD_LIBRARY_PATH -wdir /scratch/qe387697_gCYKM pw.x -in pw.inp

TID   HOST_NAME   COMMAND_LINE            STATUS            TERMINATION_TIME
00000 suncat0024 pw.x -in pw.inp   Done                     12/29/2018 16:33:29
00001 suncat0024 pw.x -in pw.inp   Done                     12/29/2018 16:33:29
00002 suncat0024 pw.x -in pw.inp   Done                     12/29/2018 16:33:29
00003 suncat0024 pw.x -in pw.inp   Done                     12/29/2018 16:33:29
00004 suncat0024 pw.x -in pw.inp   Done                     12/29/2018 16:33:29
00005 suncat0024 pw.x -in pw.inp   Done                     12/29/2018 16:33:29
00006 suncat0024 pw.x -in pw.inp   Done                     12/29/2018 16:33:29
00007 suncat0024 pw.x -in pw.inp   Done                     12/29/2018 16:33:29
00008 suncat0023 pw.x -in pw.inp   Done                     12/29/2018 16:33:29
00009 suncat0023 pw.x -in pw.inp   Done                     12/29/2018 16:33:29
00010 suncat0023 pw.x -in pw.inp   Done                     12/29/2018 16:33:29
00011 suncat0023 pw.x -in pw.inp   Done                     12/29/2018 16:33:29
00012 suncat0023 pw.x -in pw.inp   Done                     12/29/2018 16:33:29
00013 suncat0023 pw.x -in pw.inp   Done                     12/29/2018 16:33:29
00014 suncat0023 pw.x -in pw.inp   Done                     12/29/2018 16:33:29
00015 suncat0023 pw.x -in pw.inp   Done                     12/29/2018 16:33:29
00016 suncat0190 pw.x -in pw.inp   Done                     12/29/2018 16:33:29
00017 suncat0190 pw.x -in pw.inp   Done                     12/29/2018 16:33:29
00018 suncat0190 pw.x -in pw.inp   Done                     12/29/2018 16:33:29
00019 suncat0190 pw.x -in pw.inp   Done                     12/29/2018 16:33:29
00020 suncat0190 pw.x -in pw.inp   Done                     12/29/2018 16:33:29
00021 suncat0190 pw.x -in pw.inp   Done                     12/29/2018 16:33:29
00022 suncat0190 pw.x -in pw.inp   Done                     12/29/2018 16:33:29
00023 suncat0190 pw.x -in pw.inp   Done                     12/29/2018 16:33:29
00024 suncat0009 pw.x -in pw.inp   Done                     12/29/2018 16:33:29
00025 suncat0009 pw.x -in pw.inp   Done                     12/29/2018 16:33:29
00026 suncat0009 pw.x -in pw.inp   Done                     12/29/2018 16:33:29
00027 suncat0009 pw.x -in pw.inp   Done                     12/29/2018 16:33:29
00028 suncat0009 pw.x -in pw.inp   Done                     12/29/2018 16:33:29
00029 suncat0009 pw.x -in pw.inp   Done                     12/29/2018 16:33:29
00030 suncat0009 pw.x -in pw.inp   Done                     12/29/2018 16:33:29
00031 suncat0009 pw.x -in pw.inp   Done                     12/29/2018 16:33:29
00032 suncat0185 pw.x -in pw.inp   Done                     12/29/2018 16:33:29
00033 suncat0185 pw.x -in pw.inp   Done                     12/29/2018 16:33:29
00034 suncat0185 pw.x -in pw.inp   Done                     12/29/2018 16:33:29
00035 suncat0185 pw.x -in pw.inp   Done                     12/29/2018 16:33:29
00036 suncat0185 pw.x -in pw.inp   Done                     12/29/2018 16:33:29
00037 suncat0185 pw.x -in pw.inp   Done                     12/29/2018 16:33:29
00038 suncat0185 pw.x -in pw.inp   Done                     12/29/2018 16:33:29
00039 suncat0185 pw.x -in pw.inp   Done                     12/29/2018 16:33:29
00040 suncat0183 pw.x -in pw.inp   Done                     12/29/2018 16:33:29
00041 suncat0183 pw.x -in pw.inp   Done                     12/29/2018 16:33:29
00042 suncat0183 pw.x -in pw.inp   Done                     12/29/2018 16:33:29
00043 suncat0183 pw.x -in pw.inp   Done                     12/29/2018 16:33:29
00044 suncat0183 pw.x -in pw.inp   Done                     12/29/2018 16:33:29
00045 suncat0183 pw.x -in pw.inp   Done                     12/29/2018 16:33:29
00046 suncat0183 pw.x -in pw.inp   Done                     12/29/2018 16:33:29
00047 suncat0183 pw.x -in pw.inp   Done                     12/29/2018 16:33:29
00048 suncat0182 pw.x -in pw.inp   Done                     12/29/2018 16:33:29
00049 suncat0182 pw.x -in pw.inp   Done                     12/29/2018 16:33:29
00050 suncat0182 pw.x -in pw.inp   Done                     12/29/2018 16:33:29
00051 suncat0182 pw.x -in pw.inp   Done                     12/29/2018 16:33:29
00052 suncat0182 pw.x -in pw.inp   Done                     12/29/2018 16:33:29
00053 suncat0182 pw.x -in pw.inp   Done                     12/29/2018 16:33:29
00054 suncat0182 pw.x -in pw.inp   Done                     12/29/2018 16:33:29
00055 suncat0182 pw.x -in pw.inp   Done                     12/29/2018 16:33:29
00056 suncat0181 pw.x -in pw.inp   Done                     12/29/2018 16:33:29
00057 suncat0181 pw.x -in pw.inp   Done                     12/29/2018 16:33:29
00058 suncat0181 pw.x -in pw.inp   Done                     12/29/2018 16:33:29
00059 suncat0181 pw.x -in pw.inp   Done                     12/29/2018 16:33:29
00060 suncat0181 pw.x -in pw.inp   Done                     12/29/2018 16:33:29
00061 suncat0181 pw.x -in pw.inp   Done                     12/29/2018 16:33:29
00062 suncat0181 pw.x -in pw.inp   Done                     12/29/2018 16:33:29
00063 suncat0181 pw.x -in pw.inp   Done                     12/29/2018 16:33:29