     Program PWSCF v.5.1rc2 (svn rev. 11289) starts on 24Dec2018 at 21:31:21

     Current dimensions of program PWSCF are:
     Max number of different atomic species (ntypx) = 10
     Max number of k-points (npk) =  40000
     Max angular momentum in pseudopotentials (lmaxx) =  3
     Presently stress not available with electric field

     IMPORTANT: XC functional enforced from input :
     Exchange-correlation      = BEEF-VDW ( 1  4 27 13 2)
     Any further DFT definition will be discarded
     Please, verify this is what you really want

     Subspace diagonalization in iterative solution of the eigenvalue problem:
     a serial algorithm will be used

     Found symmetry operation: I + ( -0.5000 -0.5000  0.0000)
     This is a supercell, fractional translations are disabled

     bravais-lattice index     =            0
     lattice parameter (alat)  =       1.8897  a.u.
     unit-cell volume          =    7291.3471 (a.u.)^3
     number of atoms/cell      =           12
     number of atomic types    =            2
     number of electrons       =       156.00
     number of Kohn-Sham states=          108
     kinetic-energy cutoff     =      36.7493  Ry
     charge density cutoff     =     367.4932  Ry
     convergence threshold     =      1.0E-06
     mixing beta               =       0.1000
     number of iterations used =           10  plain     mixing
     Exchange-correlation      = BEEF-VDW ( 1  4 27 13 2)
     nstep                     =           50

     celldm(1)=   1.889726  celldm(2)=   0.000000  celldm(3)=   0.000000
     celldm(4)=   0.000000  celldm(5)=   0.000000  celldm(6)=   0.000000

     crystal axes: (cart. coord. in units of alat)
               a(1) = (   6.903708   0.000000   0.000000 )
               a(2) = (   3.244984   6.093542   0.000000 )
               a(3) = (   0.000000   0.000000  25.683780 )

     reciprocal axes: (cart. coord. in units 2 pi/alat)
               b(1) = (  0.144850 -0.077137  0.000000 )
               b(2) = (  0.000000  0.164108  0.000000 )
               b(3) = (  0.000000  0.000000  0.038935 )

     PseudoPot. # 1 for Hg read from file:
     /afs/slac.stanford.edu/u/if/mamunm/psp/gbrv1.5pbe/Hg.UPF
     MD5 check sum: 8f42caffe07f7fd9c0a564347f8c5498
     Pseudo is Ultrasoft + core correction, Zval = 12.0
     Generated by new atomic code, or converted to UPF format
     Using radial grid of  985 points,  6 beta functions with:
                l(1) =   0
                l(2) =   0
                l(3) =   1
                l(4) =   1
                l(5) =   2
                l(6) =   2
     Q(r) pseudized with  8 coefficients,  rinner =    2.000   2.000   2.000
                                                       2.000   2.000

     PseudoPot. # 2 for Pb read from file:
     /afs/slac.stanford.edu/u/if/mamunm/psp/gbrv1.5pbe/Pb.UPF
     MD5 check sum: 3d1c1779aa92214d1e8f3a7db79003e2
     Pseudo is Ultrasoft + core correction, Zval = 14.0
     Generated by new atomic code, or converted to UPF format
     Using radial grid of  899 points,  6 beta functions with:
                l(1) =   0
                l(2) =   0
                l(3) =   1
                l(4) =   1
                l(5) =   2
                l(6) =   2
     Q(r) pseudized with  6 coefficients,  rinner =    1.000   1.000   1.000
                                                       1.000   1.000

     vdW kernel table read from file vdW_kernel_table
     MD5 check sum: 095c7af220d748ca6e76c0b4c6cfb241

     atomic species   valence    mass     pseudopotential
        Hg1           12.00   200.59200     Hg( 1.00)
        Pb1           14.00   207.20000     Pb( 1.00)

     No symmetry found

   Cartesian axes

     site n.     atom                  positions (alat units)
         1           Hg1 tau(   1) = (   0.0000000   0.0000000  10.0000000  )
         2           Hg1 tau(   2) = (   5.0743456   3.0467712  10.0000000  )
         3           Pb1 tau(   3) = (   3.4518538   0.0000000  10.0000000  )
         4           Pb1 tau(   4) = (   1.6224918   3.0467712  10.0000000  )
         5           Hg1 tau(   5) = (   6.9037076   4.1451685  12.8418899  )
         6           Hg1 tau(   6) = (   1.8293620   1.0983973  12.8418899  )
         7           Pb1 tau(   7) = (   3.4518538   4.1451685  12.8418899  )
         8           Pb1 tau(   8) = (   5.2812158   1.0983973  12.8418899  )
         9           Hg1 tau(   9) = (   3.6587240   2.1967946  15.6837798  )
        10           Hg1 tau(  10) = (   8.7330696   5.2435658  15.6837798  )
        11           Pb1 tau(  11) = (   7.1105778   2.1967946  15.6837798  )
        12           Pb1 tau(  12) = (   5.2812158   5.2435658  15.6837798  )

     number of k points=    20  Fermi-Dirac smearing, width (Ry)=  0.0110
                       cart. coord. in units 2pi/alat
        k(    1) = (   0.0000000   0.0000000   0.0000000), wk =   0.0555556
        k(    2) = (   0.0000000   0.0273514   0.0000000), wk =   0.1111111
        k(    3) = (   0.0000000   0.0547027   0.0000000), wk =   0.1111111
        k(    4) = (   0.0000000  -0.0820541   0.0000000), wk =   0.0555556
        k(    5) = (   0.0241416  -0.0128561   0.0000000), wk =   0.1111111
        k(    6) = (   0.0241416   0.0144953   0.0000000), wk =   0.1111111
        k(    7) = (   0.0241416   0.0418466   0.0000000), wk =   0.1111111
        k(    8) = (   0.0241416  -0.0949102   0.0000000), wk =   0.1111111
        k(    9) = (   0.0241416  -0.0675588   0.0000000), wk =   0.1111111
        k(   10) = (   0.0241416  -0.0402075   0.0000000), wk =   0.1111111
        k(   11) = (   0.0482832  -0.0257122   0.0000000), wk =   0.1111111
        k(   12) = (   0.0482832   0.0016392   0.0000000), wk =   0.1111111
        k(   13) = (   0.0482832   0.0289905   0.0000000), wk =   0.1111111
        k(   14) = (   0.0482832  -0.1077663   0.0000000), wk =   0.1111111
        k(   15) = (   0.0482832  -0.0804149   0.0000000), wk =   0.1111111
        k(   16) = (   0.0482832  -0.0530635   0.0000000), wk =   0.1111111
        k(   17) = (  -0.0724249   0.0385683   0.0000000), wk =   0.0555556
        k(   18) = (  -0.0724249   0.0659196   0.0000000), wk =   0.1111111
        k(   19) = (  -0.0724249   0.0932710   0.0000000), wk =   0.1111111
        k(   20) = (  -0.0724249  -0.0434858   0.0000000), wk =   0.0555556

     Largest allocated arrays     est. size (Mb)     dimensions
     Largest temporary arrays     est. size (Mb)     dimensions

     Initial potential from superposition of free atoms
     Check: negative starting charge=   -0.101932

     starting charge  155.98554, renormalised to  156.00000

     negative rho (up, down):  1.019E-01 0.000E+00

     *
     * You are using vdW-DF for exchange-correlation in this calculation.
     * Please cite the following three references that made this development
     * possible:
     *
     *   M. Dion, H. Rydberg, E. Schroder, D. C. Langreth, and
     *   B. I. Lundqvist, Phys. Rev. Lett. 92, 246401 (2004).
     *
     *   T. Thonhauser, V. R. Cooper, S. Li, A. Puzder, P. Hyldgaard, and
     *   D. C. Langreth, Phys. Rev. B 76, 125112 (2007).
     *
     *   G. Roman-Perez and J. M. Soler, Phys. Rev. Lett. 103, 096102 (2009).
     *
     *
     * If you are using vdW-DF2, please also cite:
     *
     *   K. Lee, E. D. Murray, L. Kong, B. I. Lundqvist, and
     *   D. C. Langreth, Phys. Rev. B 82, 081101(R) (2010).
     *
     *
     * If you are calculating the stress with vdW-DF, please also cite:
     *
     *   R. Sabatini, E. Kucukbenli, B. Kolb, T. Thonhauser, and
     *   S. de Gironcoli, J. Phys.: Condens. Matter 24, 424209 (2012).
     *

     Carrying out vdW-DF run using the following parameters:

     Nqs =      20    Nr_points =    1024   r_max =   100.000
     q_mesh =
               0.00001000     0.04494208     0.09755937     0.15916263
               0.23128650     0.31572767     0.41458969     0.53033537
               0.66584808     0.82450364     1.01025438     1.22772762
               1.48234092     1.78043706     2.12944203     2.53805004
               3.01644009     3.57652955     4.23227104     5.00000000

     Gradients computed in reciprocal space

     Adding external electric field

     Computed dipole along edir(3) :
        Dipole               -0.0000 Ry au,         -0.0000 Debye
        Dipole field         -0.0000 Ry au

        Potential amp.        0.0000 Ry
        Total length         47.3219 bohr

     Starting wfc are  108 randomized atomic wfcs

     Self-consistent Calculation

     iteration #  1     ecut=    36.75 Ry     beta=0.10
     Davidson diagonalization with overlap
     ethr =  1.00E-02,  avg # of iterations =  7.4

     Threshold (ethr) on eigenvalues was too large:
     Diagonalizing with lowered threshold

     Davidson diagonalization with overlap
     ethr =  4.43E-05,  avg # of iterations =  9.1

[...]

     total energy              =   -1650.70277824 Ry
     Harris-Foulkes estimate   =   -1650.71123890 Ry
     estimated scf accuracy    <       0.07208833 Ry

[...]

     End of self-consistent calculation

          k = 0.0000 0.0000 0.0000 ( 27429 PWs)   bands (ev):

   -17.0715 -17.0639 -17.0191 -17.0094 -17.0060 -17.0056 -17.0003 -16.9941
   -16.9933 -16.9908 -16.9888 -16.9876 -16.9857 -16.9824 -16.9599 -16.9356
   -16.9341 -16.9172 -16.9140 -16.9139 -16.8844 -16.8668 -16.8641 -16.8563
   -16.8555 -16.8367 -16.8363 -16.8274 -16.7954 -16.7360  -9.5796  -8.8348
    -8.2767  -7.9886  -7.4988  -7.3130  -6.6552  -6.5032  -6.4821  -6.4505
    -6.4348  -6.4119  -6.3836  -6.3230  -6.2303  -6.2028  -6.2022  -6.1898
    -6.1860  -6.1831  -6.1763  -6.1293  -6.1048  -6.1021  -6.0595  -6.0362
    -6.0285  -6.0014  -5.9999  -5.9651  -5.9112  -5.7821  -5.7719  -5.7397
    -5.6310  -5.5595  -3.4406  -3.4069  -2.9475  -2.9009  -2.5734  -1.9047
    -1.8804  -1.8138  -1.2096  -1.0805  -0.7877  -0.4864  -0.3586  -0.2680
    -0.0734  -0.0174   1.2384   2.0543   2.5755   2.7429   3.5001   3.6340
     3.9908   4.1920   4.2152   4.2702   4.2759   4.8025   4.9421   4.9831
     5.0252   5.7711   5.7915   5.9258   5.9855   6.2819   6.4827   6.5546
     6.5771   6.7809   6.8984   7.0729

[...]

          k =-0.0724 0.0386 0.0000 ( 27456 PWs)   bands (ev):

[...]

     the Fermi energy is     0.4919 ev

!    total energy              =   -1650.69825229 Ry
     Harris-Foulkes estimate   =   -1650.69821715 Ry
     estimated scf accuracy    <       0.00000026 Ry

     The total energy is the sum of the following terms:

     one-electron contribution =   -7945.02131284 Ry
     hartree contribution      =    4050.95614080 Ry
     xc contribution           =    -634.04334021 Ry
     ewald contribution        =    2877.45436759 Ry
     electric field correction =       0.00000000 Ry
     smearing contrib. (-TS)   =      -0.04410763 Ry

     convergence has been achieved in  13 iterations

 BEEF-vdW xc energy contributions
           1 :   -561.566749210420
           2 :    519.325959717796
           3 :   -445.637914544926
           4 :    357.626168374083
           5 :   -272.428650152458
           6 :    201.895409600513
           7 :   -150.168124537896
[...]
     Generated by new atomic code, or converted to UPF format
     Using radial grid of  985 points,  6 beta functions with:
                l(1) =   0
                l(2) =   0
                l(3) =   1
                l(4) =   1
                l(5) =   2
                l(6) =   2
     Q(r) pseudized with  8 coefficients,  rinner =    2.000   2.000   2.000
                                                       2.000   2.000

     PseudoPot. # 2 for Pb read from file:
     /afs/slac.stanford.edu/u/if/mamunm/psp/gbrv1.5pbe/Pb.UPF
     MD5 check sum: 3d1c1779aa92214d1e8f3a7db79003e2
     Pseudo is Ultrasoft + core correction, Zval = 14.0
     Generated by new atomic code, or converted to UPF format
     Using radial grid of  899 points,  6 beta functions with:
                l(1) =   0
                l(2) =   0
                l(3) =   1
                l(4) =   1
                l(5) =   2
                l(6) =   2
     Q(r) pseudized with  6 coefficients,  rinner =    1.000   1.000   1.000
                                                       1.000   1.000

     vdW kernel table read from file vdW_kernel_table
     MD5 check sum: 095c7af220d748ca6e76c0b4c6cfb241

     atomic species   valence    mass     pseudopotential
        Hg1           12.00   200.59200     Hg( 1.00)
        Pb1           14.00   207.20000     Pb( 1.00)

     No symmetry found

   Cartesian axes

     site n.     atom                  positions (alat units)
         1           Hg1 tau(   1) = (   0.0000000   0.0000000  10.0000000  )
         2           Hg1 tau(   2) = (   5.0743456   3.0467712  10.0000000  )
         3           Pb1 tau(   3) = (   3.4518538   0.0000000  10.0000000  )
         4           Pb1 tau(   4) = (   1.6224918   3.0467712  10.0000000  )
         5           Hg1 tau(   5) = (   6.9037076   4.1451685  12.8418899  )
         6           Hg1 tau(   6) = (   1.8293620   1.0983973  12.8418899  )
         7           Pb1 tau(   7) = (   3.4518538   4.1451685  12.8418899  )
         8           Pb1 tau(   8) = (   5.2812158   1.0983973  12.8418899  )
         9           Hg1 tau(   9) = (   3.6876083   2.2142741  15.9345679  )
        10           Hg1 tau(  10) = (   8.7620066   5.2608485  15.9345585  )
        11           Pb1 tau(  11) = (   7.1292681   2.2078547  15.5553773  )
        12           Pb1 tau(  12) = (   5.3000852   5.2546585  15.5560174  )

     number of k points=    20  Fermi-Dirac smearing, width (Ry)=  0.0110
                       cart. coord. in units 2pi/alat
        k(    1) = (   0.0000000   0.0000000   0.0000000), wk =   0.0555556
        k(    2) = (   0.0000000   0.0273514   0.0000000), wk =   0.1111111
        k(    3) = (   0.0000000   0.0547027   0.0000000), wk =   0.1111111
        k(    4) = (   0.0000000  -0.0820541   0.0000000), wk =   0.0555556
        k(    5) = (   0.0241416  -0.0128561   0.0000000), wk =   0.1111111
        k(    6) = (   0.0241416   0.0144953   0.0000000), wk =   0.1111111
        k(    7) = (   0.0241416   0.0418466   0.0000000), wk =   0.1111111
        k(    8) = (   0.0241416  -0.0949102   0.0000000), wk =   0.1111111
        k(    9) = (   0.0241416  -0.0675588   0.0000000), wk =   0.1111111
        k(   10) = (   0.0241416  -0.0402075   0.0000000), wk =   0.1111111
        k(   11) = (   0.0482832  -0.0257122   0.0000000), wk =   0.1111111
        k(   12) = (   0.0482832   0.0016392   0.0000000), wk =   0.1111111
        k(   13) = (   0.0482832   0.0289905   0.0000000), wk =   0.1111111
        k(   14) = (   0.0482832  -0.1077663   0.0000000), wk =   0.1111111
        k(   15) = (   0.0482832  -0.0804149   0.0000000), wk =   0.1111111
        k(   16) = (   0.0482832  -0.0530635   0.0000000), wk =   0.1111111
        k(   17) = (  -0.0724249   0.0385683   0.0000000), wk =   0.0555556
        k(   18) = (  -0.0724249   0.0659196   0.0000000), wk =   0.1111111
        k(   19) = (  -0.0724249   0.0932710   0.0000000), wk =   0.1111111
        k(   20) = (  -0.0724249  -0.0434858   0.0000000), wk =   0.0555556

     Largest allocated arrays     est. size (Mb)     dimensions
     Largest temporary arrays     est. size (Mb)     dimensions

     Initial potential from superposition of free atoms
     Check: negative starting charge=   -0.100744

     starting charge  155.98554, renormalised to  156.00000

[...]

     *
     * You are using vdW-DF for exchange-correlation in this calculation.
     * Please cite the following three references that made this development
     * possible:
     *
     *   M. Dion, H. Rydberg, E. Schroder, D. C. Langreth, and
     *   B. I. Lundqvist, Phys. Rev. Lett. 92, 246401 (2004).
     *
     *   T. Thonhauser, V. R. Cooper, S. Li, A. Puzder, P. Hyldgaard, and
     *   D. C. Langreth, Phys. Rev. B 76, 125112 (2007).
     *
     *   G. Roman-Perez and J. M. Soler, Phys. Rev. Lett. 103, 096102 (2009).
     *
     *
     * If you are using vdW-DF2, please also cite:
     *
     *   K. Lee, E. D. Murray, L. Kong, B. I. Lundqvist, and
     *   D. C. Langreth, Phys. Rev. B 82, 081101(R) (2010).
     *
     *
     * If you are calculating the stress with vdW-DF, please also cite:
     *
     *   R. Sabatini, E. Kucukbenli, B. Kolb, T. Thonhauser, and
     *   S. de Gironcoli, J. Phys.: Condens. Matter 24, 424209 (2012).
     *

     Carrying out vdW-DF run using the following parameters:

     Nqs =      20    Nr_points =    1024   r_max =   100.000
     q_mesh =
               0.00001000     0.04494208     0.09755937     0.15916263
               0.23128650     0.31572767     0.41458969     0.53033537
               0.66584808     0.82450364     1.01025438     1.22772762
               1.48234092     1.78043706     2.12944203     2.53805004
               3.01644009     3.57652955     4.23227104     5.00000000

     Gradients computed in reciprocal space

[...]

     Starting wfc are  108 randomized atomic wfcs

     Self-consistent Calculation

[...]

     Threshold (ethr) on eigenvalues was too large:
     Diagonalizing with lowered threshold

     Davidson diagonalization with overlap
     ethr =  4.58E-05,  avg # of iterations =  9.5

[...]

     total energy              =   -1650.70250166 Ry
     Harris-Foulkes estimate   =   -1650.70245887 Ry
     estimated scf accuracy    <       0.00000275 Ry

     iteration # 13     ecut=    36.75 Ry     beta=0.10
     Davidson diagonalization with overlap
     ethr =  1.76E-09,  avg # of iterations =  3.0

[...]

     negative rho (up, down):  1.043E-01 0.000E+00

     Adding external electric field

     Computed dipole along edir(3) :
        Dipole               -0.0192 Ry au,         -0.0487 Debye
        Dipole field         -0.0000 Ry au

        Potential amp.        0.0031 Ry
        Total length         47.3219 bohr

     End of self-consistent calculation

[...]

          k = 0.0483-0.0531 0.0000 ( 27456 PWs)   bands (ev):

[...]

          k =-0.0724-0.0435 0.0000 ( 27350 PWs)   bands (ev):

   -17.0925 -17.0837 -17.0397 -17.0322 -17.0289 -17.0242 -17.0144 -17.0115
   -17.0095 -17.0094 -17.0075 -17.0050 -17.0028 -17.0003 -16.9712 -16.9554
   -16.9522 -16.9371 -16.9330 -16.9246 -16.8995 -16.8762 -16.8758 -16.8754
   -16.8673 -16.8498 -16.8498 -16.8438 -16.8058 -16.7457  -9.0841  -8.8055
    -8.1383  -7.8242  -7.5147  -6.7306  -6.6671  -6.6281  -6.5337  -6.5336
    -6.5145  -6.4848  -6.4598  -6.4331  -6.4270  -6.3649  -6.3173  -6.2881
    -6.2663  -6.2298  -6.2238  -6.2206  -6.2084  -6.1561  -6.1247  -6.1151
    -6.1069  -6.1018  -6.0761  -6.0421  -6.0099  -5.9971  -5.9280  -5.9124
    -5.8953  -5.8120  -5.1224  -4.0683  -3.9577  -3.9268  -2.9275  -1.5217
    -0.2765  -0.0218   0.0687   0.4341   0.4434   0.4865   1.0051   1.4883
     1.9367   2.0091   2.1501   2.2971   2.6429   2.6554   2.8164   3.4050
     3.5233   3.5413   3.8155   4.1243   4.2107   4.2865   4.3286   4.5242
     4.7080   4.8743   4.8848   4.9288   5.0663   5.0889   5.1798   5.1836
     5.5648   5.6197   5.7571   5.9338

     the Fermi energy is     0.4549 ev

!    total energy              =   -1650.70254689 Ry
     Harris-Foulkes estimate   =   -1650.70250220 Ry
     estimated scf accuracy    <       0.00000020 Ry

     The total energy is the sum of the following terms:

     one-electron contribution =   -7886.81222342 Ry
     hartree contribution      =    4021.76517175 Ry
     xc contribution           =    -634.03799513 Ry
     ewald contribution        =    2848.42722143 Ry
     electric field correction =       0.00000063 Ry
     smearing contrib. (-TS)   =      -0.04472215 Ry

     convergence has been achieved in  13 iterations

 BEEF-vdW xc energy contributions
           1 :   -561.555882081430
           2 :    519.287259218050
           3 :   -445.574165673723
           4 :    357.567333456975
           5 :   -272.403778242537
           6 :    201.908357888304
           7 :   -150.193760539122
           8 :    114.580671813116
           9 :   -88.8765584370789
          10 :    67.1823106158669
          11 :   -46.4530545871066
          12 :    26.9158082464438
          13 :   -10.6611206334446
          14 :  -0.419733469635275
          15 :    6.07885167130564
          16 :   -7.86473621300706
          17 :    8.15514439401909
          18 :   -8.83771328572107
          19 :    10.4636309130250
          20 :   -12.2986414516058
          21 :    13.1174007429997
          22 :   -12.1772417199766
          23 :    9.76419074714079
          24 :   -7.02775271841335
          25 :    5.27569673494054
          26 :   -5.20628039563428
          27 :    6.54310511957362
          28 :   -8.25840243388257
          29 :    9.20901480831958
          30 :   -8.78786691522259
          31 :   -47.6102293118039
          32 :   -34.8201093143794

     Forces acting on atoms (Ry/au):

     negative rho (up, down):  1.043E-01 0.000E+00
     atom    1 type  1   force =     0.00007162    0.00004218   -0.00473763
     atom    2 type  1   force =     0.00007277    0.00004613   -0.00473707
     atom    3 type  2   force =     0.00003520    0.00002225    0.00712016
     atom    4 type  2   force =     0.00003792    0.00002512    0.00710625
     atom    5 type  1   force =     0.00351893    0.00212158   -0.00263985
     atom    6 type  1   force =     0.00352970    0.00210663   -0.00263794
     atom    7 type  2   force =    -0.00433404   -0.00260286    0.00136308
     atom    8 type  2   force =    -0.00434277   -0.00260306    0.00134815
     atom    9 type  1   force =     0.00012303    0.00007269    0.00025882
     atom   10 type  1   force =     0.00012551    0.00007569    0.00025843
     atom   11 type  2   force =     0.00057912    0.00034222   -0.00134381
     atom   12 type  2   force =     0.00058300    0.00035143   -0.00135860

     Total force =     0.015919     Total SCF correction =     0.001828
     SCF correction compared to forces is large: reduce conv_thr to get better values

     entering subroutine stress ...

     negative rho (up, down):  1.043E-01 0.000E+00
          total   stress  (Ry/bohr**3)                   (kbar)     P=   -3.22
  -0.00003377  -0.00000519   0.00000099         -4.97     -0.76      0.15
  -0.00000519  -0.00002824   0.00000059         -0.76     -4.15      0.09
   0.00000099   0.00000059  -0.00000362          0.15      0.09     -0.53

 !ASE

     Writing output data file calc.save

     General routines

     Parallel routines

   This run was terminated on:  23:48:27  24Dec2018

   JOB DONE.
Job  /afs/slac/g/suncat/bin/suncat-tsmpirun -x LD_LIBRARY_PATH -wdir /scratch/qe109012_ee0he pw.x -in pw.inp

TID   HOST_NAME   COMMAND_LINE            STATUS            TERMINATION_TIME
00000 suncat0048 pw.x -in pw.inp   Done                     12/24/2018 23:48:27
00001 suncat0048 pw.x -in pw.inp   Done                     12/24/2018 23:48:27
00002 suncat0048 pw.x -in pw.inp   Done                     12/24/2018 23:48:27
00003 suncat0048 pw.x -in pw.inp   Done                     12/24/2018 23:48:27
00004 suncat0048 pw.x -in pw.inp   Done                     12/24/2018 23:48:27
00005 suncat0048 pw.x -in pw.inp   Done                     12/24/2018 23:48:27
00006 suncat0048 pw.x -in pw.inp   Done                     12/24/2018 23:48:27
00007 suncat0048 pw.x -in pw.inp   Done                     12/24/2018 23:48:27
00008 suncat0047 pw.x -in pw.inp   Done                     12/24/2018 23:48:27
00009 suncat0047 pw.x -in pw.inp   Done                     12/24/2018 23:48:27
00010 suncat0047 pw.x -in pw.inp   Done                     12/24/2018 23:48:27
00011 suncat0047 pw.x -in pw.inp   Done                     12/24/2018 23:48:27
00012 suncat0047 pw.x -in pw.inp   Done                     12/24/2018 23:48:27
00013 suncat0047 pw.x -in pw.inp   Done                     12/24/2018 23:48:27
00014 suncat0047 pw.x -in pw.inp   Done                     12/24/2018 23:48:27
00015 suncat0047 pw.x -in pw.inp   Done                     12/24/2018 23:48:27
00016 suncat0193 pw.x -in pw.inp   Done                     12/24/2018 23:48:27
00017 suncat0193 pw.x -in pw.inp   Done                     12/24/2018 23:48:27
00018 suncat0193 pw.x -in pw.inp   Done                     12/24/2018 23:48:27
00019 suncat0193 pw.x -in pw.inp   Done                     12/24/2018 23:48:27
00020 suncat0193 pw.x -in pw.inp   Done                     12/24/2018 23:48:27
00021 suncat0193 pw.x -in pw.inp   Done                     12/24/2018 23:48:27
00022 suncat0193 pw.x -in pw.inp   Done                     12/24/2018 23:48:27
00023 suncat0193 pw.x -in pw.inp   Done                     12/24/2018 23:48:27
00024 suncat0192 pw.x -in pw.inp   Done                     12/24/2018 23:48:27
00025 suncat0192 pw.x -in pw.inp   Done                     12/24/2018 23:48:27
00026 suncat0192 pw.x -in pw.inp   Done                     12/24/2018 23:48:27
00027 suncat0192 pw.x -in pw.inp   Done                     12/24/2018 23:48:27
00028 suncat0192 pw.x -in pw.inp   Done                     12/24/2018 23:48:27
00029 suncat0192 pw.x -in pw.inp   Done                     12/24/2018 23:48:27
00030 suncat0192 pw.x -in pw.inp   Done                     12/24/2018 23:48:27
00031 suncat0192 pw.x -in pw.inp   Done                     12/24/2018 23:48:27
00032 suncat0155 pw.x -in pw.inp   Done                     12/24/2018 23:48:27
00033 suncat0155 pw.x -in pw.inp   Done                     12/24/2018 23:48:27
00034 suncat0155 pw.x -in pw.inp   Done                     12/24/2018 23:48:27
00035 suncat0155 pw.x -in pw.inp   Done                     12/24/2018 23:48:27
00036 suncat0155 pw.x -in pw.inp   Done                     12/24/2018 23:48:27
00037 suncat0155 pw.x -in pw.inp   Done                     12/24/2018 23:48:27
00038 suncat0155 pw.x -in pw.inp   Done                     12/24/2018 23:48:27
00039 suncat0155 pw.x -in pw.inp   Done                     12/24/2018 23:48:27
00040 suncat0154 pw.x -in pw.inp   Done                     12/24/2018 23:48:27
00041 suncat0154 pw.x -in pw.inp   Done                     12/24/2018 23:48:27
00042 suncat0154 pw.x -in pw.inp   Done                     12/24/2018 23:48:27
00043 suncat0154 pw.x -in pw.inp   Done                     12/24/2018 23:48:27
00044 suncat0154 pw.x -in pw.inp   Done                     12/24/2018 23:48:27
00045 suncat0154 pw.x -in pw.inp   Done                     12/24/2018 23:48:27
00046 suncat0154 pw.x -in pw.inp   Done                     12/24/2018 23:48:27
00047 suncat0154 pw.x -in pw.inp   Done                     12/24/2018 23:48:27
00048 suncat0209 pw.x -in pw.inp   Done                     12/24/2018 23:48:27
00049 suncat0209 pw.x -in pw.inp   Done                     12/24/2018 23:48:27
00050 suncat0209 pw.x -in pw.inp   Done                     12/24/2018 23:48:27
00051 suncat0209 pw.x -in pw.inp   Done                     12/24/2018 23:48:27
00052 suncat0209 pw.x -in pw.inp   Done                     12/24/2018 23:48:27
00053 suncat0209 pw.x -in pw.inp   Done                     12/24/2018 23:48:27
00054 suncat0209 pw.x -in pw.inp   Done                     12/24/2018 23:48:27
00055 suncat0209 pw.x -in pw.inp   Done                     12/24/2018 23:48:27
00056 suncat0203 pw.x -in pw.inp   Done                     12/24/2018 23:48:27
00057 suncat0203 pw.x -in pw.inp   Done                     12/24/2018 23:48:27
00058 suncat0203 pw.x -in pw.inp   Done                     12/24/2018 23:48:27
00059 suncat0203 pw.x -in pw.inp   Done                     12/24/2018 23:48:27
00060 suncat0203 pw.x -in pw.inp   Done                     12/24/2018 23:48:27
00061 suncat0203 pw.x -in pw.inp   Done                     12/24/2018 23:48:27
00062 suncat0203 pw.x -in pw.inp   Done                     12/24/2018 23:48:27
00063 suncat0203 pw.x -in pw.inp   Done                     12/24/2018 23:48:27