     Program PWSCF v.5.1rc2 (svn rev. 11289) starts on 19Dec2018 at  7: 8:41

     Current dimensions of program PWSCF are:
     Max number of different atomic species (ntypx) = 10
     Max number of k-points (npk) =  40000
     Max angular momentum in pseudopotentials (lmaxx) =  3
     Presently stress not available with electric field

     IMPORTANT: XC functional enforced from input :
     Exchange-correlation      = BEEF-VDW ( 1  4 27 13 2)
     Any further DFT definition will be discarded
     Please, verify this is what you really want

     Subspace diagonalization in iterative solution of the eigenvalue problem:
     a serial algorithm will be used

     Found symmetry operation: I + (  0.5000  0.5000  0.0000)
     This is a supercell, fractional translations are disabled

     bravais-lattice index     =            0
     lattice parameter (alat)  =       1.8897  a.u.
     unit-cell volume          =    4481.5164 (a.u.)^3
     number of atoms/cell      =           12
     number of atomic types    =            2
     number of electrons       =       162.00
     number of Kohn-Sham states=          111
     kinetic-energy cutoff     =      36.7493  Ry
     charge density cutoff     =     367.4932  Ry
     convergence threshold     =      1.0E-06
     mixing beta               =       0.1000
     number of iterations used =           10  plain     mixing
     Exchange-correlation      = BEEF-VDW ( 1  4 27 13 2)
     nstep                     =           50

     celldm(1)=   1.889726  celldm(2)=   0.000000  celldm(3)=   0.000000
     celldm(4)=   0.000000  celldm(5)=   0.000000  celldm(6)=   0.000000

     crystal axes: (cart. coord. in units of alat)
               a(1) = (   5.374210   0.000000   0.000000 )
               a(2) = (   1.791456   5.066836   0.000000 )
               a(3) = (   0.000000   0.000000  24.388041 )

     reciprocal axes: (cart. coord. in units 2 pi/alat)
               b(1) = (  0.186074 -0.065789  0.000000 )
               b(2) = (  0.000000  0.197362  0.000000 )
               b(3) = (  0.000000  0.000000  0.041004 )

     PseudoPot. # 1 for Cr read from file:
     /afs/slac.stanford.edu/u/if/mamunm/psp/gbrv1.5pbe/Cr.UPF
     MD5 check sum: 0d52af634a40206e4dee301ad30da4bf
     Pseudo is Ultrasoft + core correction, Zval = 14.0
     Generated by new atomic code, or converted to UPF format
     Using radial grid of  857 points,  6 beta functions with:
                l(1) =   0
                l(2) =   0
                l(3) =   1
                l(4) =   1
                l(5) =   2
                l(6) =   2
     Q(r) pseudized with  8 coefficients,  rinner =    0.950   0.950   0.950
                                                       0.950   0.950

     PseudoPot. # 2 for Ta read from file:
     /afs/slac.stanford.edu/u/if/mamunm/psp/gbrv1.5pbe/Ta.UPF
     MD5 check sum: f8bbe9446314a3b8ea5d9f3e3836c939
     Pseudo is Ultrasoft + core correction, Zval = 13.0
     Generated by new atomic code, or converted to UPF format
     Using radial grid of  921 points,  7 beta functions with:
                l(1) =   0
                l(2) =   0
                l(3) =   1
                l(4) =   1
                l(5) =   2
                l(6) =   2
                l(7) =   3
     Q(r) pseudized with  6 coefficients,  rinner =    1.300   1.300   1.300
                                                       1.300   1.300   1.300
                                                       1.300

     vdW kernel table read from file vdW_kernel_table
     MD5 check sum: 095c7af220d748ca6e76c0b4c6cfb241

     atomic species   valence    mass     pseudopotential
        Cr1           14.00    51.99610     Cr( 1.00)
        Ta1           13.00   180.94788     Ta( 1.00)

     No symmetry found

   Cartesian axes

     site n.     atom                  positions (alat units)
         1           Cr1 tau(   1) = (   0.0000000   0.0000000  10.0000000  )
         2           Cr1 tau(   2) = (   3.5828333   2.5334178  10.0000000  )
         3           Ta1 tau(   3) = (   2.6871052   0.0000000  10.0000000  )
         4           Ta1 tau(   4) = (   0.8957281   2.5334178  10.0000000  )
         5           Cr1 tau(   5) = (   5.3742104   3.8000987  12.1940203  )
         6           Cr1 tau(   6) = (   1.7913771   1.2666809  12.1940203  )
         7           Ta1 tau(   7) = (   2.6871052   3.8000987  12.1940203  )
         8           Ta1 tau(   8) = (   4.4784824   1.2666809  12.1940203  )
         9           Cr1 tau(   9) = (   3.5827543   2.5333619  14.3880406  )
        10           Cr1 tau(  10) = (   7.1655876   5.0667797  14.3880406  )
        11           Ta1 tau(  11) = (   6.2698595   2.5333619  14.3880406  )
        12           Ta1 tau(  12) = (   4.4784824   5.0667797  14.3880406  )

     number of k points=    20  Fermi-Dirac smearing, width (Ry)=  0.0110
                       cart. coord. in units 2pi/alat
        k(    1) = (   0.0000000   0.0000000   0.0000000), wk =   0.0555556
        k(    2) = (   0.0000000   0.0328936   0.0000000), wk =   0.1111111
        k(    3) = (   0.0000000   0.0657873   0.0000000), wk =   0.1111111
        k(    4) = (   0.0000000  -0.0986809   0.0000000), wk =   0.0555556
        k(    5) = (   0.0310123  -0.0109649   0.0000000), wk =   0.1111111
        k(    6) = (   0.0310123   0.0219288   0.0000000), wk =   0.1111111
        k(    7) = (   0.0310123   0.0548224   0.0000000), wk =   0.1111111
        k(    8) = (   0.0310123  -0.1096458   0.0000000), wk =   0.1111111
        k(    9) = (   0.0310123  -0.0767521   0.0000000), wk =   0.1111111
        k(   10) = (   0.0310123  -0.0438585   0.0000000), wk =   0.1111111
        k(   11) = (   0.0620246  -0.0219297   0.0000000), wk =   0.1111111
        k(   12) = (   0.0620246   0.0109639   0.0000000), wk =   0.1111111
        k(   13) = (   0.0620246   0.0438575   0.0000000), wk =   0.1111111
        k(   14) = (   0.0620246  -0.1206107   0.0000000), wk =   0.1111111
        k(   15) = (   0.0620246  -0.0877170   0.0000000), wk =   0.1111111
        k(   16) = (   0.0620246  -0.0548234   0.0000000), wk =   0.1111111
        k(   17) = (  -0.0930369   0.0328946   0.0000000), wk =   0.0555556
        k(   18) = (  -0.0930369   0.0657882   0.0000000), wk =   0.1111111
        k(   19) = (  -0.0930369   0.0986819   0.0000000), wk =   0.1111111
        k(   20) = (  -0.0930369  -0.0657863   0.0000000), wk =   0.0555556

     Largest allocated arrays     est. size (Mb)     dimensions
     Largest temporary arrays     est. size (Mb)     dimensions

     Check: negative/imaginary core charge=   -0.000001    0.000000

     Initial potential from superposition of free atoms
     Check: negative starting charge=   -0.581908

     starting charge  155.99324, renormalised to  162.00000

     negative rho (up, down):  6.043E-01 0.000E+00

     *
     * You are using vdW-DF for exchange-correlation in this calculation.
     * Please cite the following three references that made this development
     * possible:
     *
     *   M. Dion, H. Rydberg, E. Schroder, D. C. Langreth, and
     *   B. I. Lundqvist, Phys. Rev. Lett. 92, 246401 (2004).
     *
     *   T. Thonhauser, V. R. Cooper, S. Li, A. Puzder, P. Hyldgaard, and
     *   D. C. Langreth, Phys. Rev. B 76, 125112 (2007).
     *
     *   G. Roman-Perez and J. M. Soler, Phys. Rev. Lett. 103, 096102 (2009).
     *
     *
     * If you are using vdW-DF2, please also cite:
     *
     *   K. Lee, E. D. Murray, L. Kong, B. I. Lundqvist, and
     *   D. C. Langreth, Phys. Rev. B 82, 081101(R) (2010).
     *
     *
     * If you are calculating the stress with vdW-DF, please also cite:
     *
     *   R. Sabatini, E. Kucukbenli, B. Kolb, T. Thonhauser, and
     *   S. de Gironcoli, J. Phys.: Condens. Matter 24, 424209 (2012).
     *

     Carrying out vdW-DF run using the following parameters:

     Nqs =      20    Nr_points =    1024   r_max =   100.000
     q_mesh =
               0.00001000     0.04494208     0.09755937     0.15916263
               0.23128650     0.31572767     0.41458969     0.53033537
               0.66584808     0.82450364     1.01025438     1.22772762
               1.48234092     1.78043706     2.12944203     2.53805004
               3.01644009     3.57652955     4.23227104     5.00000000

     Gradients computed in reciprocal space

     Adding external electric field

     Computed dipole along edir(3) :
        Dipole                0.0000 Ry au,          0.0000 Debye
        Dipole field          0.0000 Ry au

        Potential amp.       -0.0000 Ry
        Total length         44.9345 bohr

     Starting wfc are  138 randomized atomic wfcs

     Self-consistent Calculation

     iteration #  1     ecut=    36.75 Ry     beta=0.10
     Davidson diagonalization with overlap
     ethr =  1.00E-02,  avg # of iterations =  2.4

[...]

     total energy              =   -1917.30654390 Ry
     Harris-Foulkes estimate   =   -1917.95442668 Ry
     estimated scf accuracy    <       4.14370364 Ry

[...]

     End of self-consistent calculation

          k = 0.0000 0.0000 0.0000 ( 16891 PWs)   bands (ev):

   -69.9175 -69.9107 -69.8250 -69.8248 -69.8188 -69.8188 -66.6012 -66.6010
   -66.5856 -66.5855 -66.3266 -66.3113 -41.2752 -41.2655 -41.2587 -41.2388
   -41.2350 -41.2334 -41.2292 -41.2158 -41.1984 -41.1936 -41.1655 -41.1615
   -41.0894 -41.0892 -41.0729 -41.0691 -41.0635 -41.0574 -33.0792 -33.0649
   -33.0608 -33.0362 -33.0271 -33.0266 -32.9374 -32.9250 -32.8863 -32.8631
   -32.8540 -32.6929 -32.6917 -32.6694 -32.6532 -32.6387 -32.6043 -32.5044
    -5.5501  -3.7828  -2.7137  -2.3678  -2.2209  -2.1359  -2.1059  -1.8606
    -1.8517  -1.7658  -1.3650  -1.2708  -0.9799  -0.2637  -0.1885  -0.1684
    -0.1479  -0.1396  -0.0579  -0.0263   0.1521   0.3497   0.5956   0.8042
     0.8332   1.1097   1.1281   1.1487   1.3180   1.7705   1.8373   1.8501
     1.9266   2.0408   2.3199   2.5762   2.9270   2.9795   3.1077   3.1650
     3.1774   3.2425   3.3187   3.3815   3.4516   3.5263   3.6534   3.7249
     3.8076   3.8154   4.0104   4.1180   4.1881   4.2728   4.5334   4.5627
     4.5993   4.6595   4.9052   4.9629   5.3035   5.6268   5.6808

[...]

          k =-0.0930 0.0329 0.0000 ( 16918 PWs)   bands (ev):

[...]

     the Fermi energy is     1.5639 ev

!    total energy              =   -1916.75398206 Ry
     Harris-Foulkes estimate   =   -1916.75400198 Ry
     estimated scf accuracy    <       0.00000044 Ry

     The total energy is the sum of the following terms:

     one-electron contribution =  -14753.39608755 Ry
     hartree contribution      =    7363.91323177 Ry
     xc contribution           =    -401.17652777 Ry
     ewald contribution        =    5874.00080560 Ry
     electric field correction =       0.00000001 Ry
     smearing contrib. (-TS)   =      -0.09540412 Ry

     convergence has been achieved in  23 iterations

 BEEF-vdW xc energy contributions
           1 :   -351.266754248356
           2 :    321.625415616488
           3 :   -270.728553792682
           4 :    211.699790303866
           5 :   -157.189728061681
           6 :    115.132231578048
           7 :   -87.1938314574861
[...]

     Program PWSCF v.5.1rc2 (svn rev. 11289) starts on 19Dec2018 at  7:25: 2

[...]

     Program PWSCF v.5.1rc2 (svn rev. 11289) starts on 19Dec2018 at  7:40:50

     Current dimensions of program PWSCF are:
     Max number of different atomic species (ntypx) = 10
     Max number of k-points (npk) =  40000
     Max angular momentum in pseudopotentials (lmaxx) =  3
     Presently stress not available with electric field

     IMPORTANT: XC functional enforced from input :
     Exchange-correlation      = BEEF-VDW ( 1  4 27 13 2)
     Any further DFT definition will be discarded
     Please, verify this is what you really want

     Subspace diagonalization in iterative solution of the eigenvalue problem:
     a serial algorithm will be used

     Found symmetry operation: I + (  0.5000  0.5000  0.0000)
     This is a supercell, fractional translations are disabled

     bravais-lattice index     =            0
     lattice parameter (alat)  =       1.8897  a.u.
     unit-cell volume          =    4481.5164 (a.u.)^3
     number of atoms/cell      =           12
     number of atomic types    =            2
     number of electrons       =       162.00
     number of Kohn-Sham states=          111
     kinetic-energy cutoff     =      36.7493  Ry
     charge density cutoff     =     367.4932  Ry
     convergence threshold     =      1.0E-06
     mixing beta               =       0.1000
     number of iterations used =           10  plain     mixing
     Exchange-correlation      = BEEF-VDW ( 1  4 27 13 2)
     nstep                     =           50

     celldm(1)=   1.889726  celldm(2)=   0.000000  celldm(3)=   0.000000
     celldm(4)=   0.000000  celldm(5)=   0.000000  celldm(6)=   0.000000

     crystal axes: (cart. coord. in units of alat)
               a(1) = (   5.374210   0.000000   0.000000 )
               a(2) = (   1.791456   5.066836   0.000000 )
               a(3) = (   0.000000   0.000000  24.388041 )

     reciprocal axes: (cart. coord. in units 2 pi/alat)
               b(1) = (  0.186074 -0.065789  0.000000 )
               b(2) = (  0.000000  0.197362  0.000000 )
               b(3) = (  0.000000  0.000000  0.041004 )

     PseudoPot. # 1 for Cr read from file:
     /afs/slac.stanford.edu/u/if/mamunm/psp/gbrv1.5pbe/Cr.UPF
     MD5 check sum: 0d52af634a40206e4dee301ad30da4bf
     Pseudo is Ultrasoft + core correction, Zval = 14.0
     Generated by new atomic code, or converted to UPF format
     Using radial grid of  857 points,  6 beta functions with:
                l(1) =   0
                l(2) =   0
                l(3) =   1
                l(4) =   1
                l(5) =   2
                l(6) =   2
     Q(r) pseudized with  8 coefficients,  rinner =    0.950   0.950   0.950
                                                       0.950   0.950

     PseudoPot. # 2 for Ta read from file:
     /afs/slac.stanford.edu/u/if/mamunm/psp/gbrv1.5pbe/Ta.UPF
     MD5 check sum: f8bbe9446314a3b8ea5d9f3e3836c939
     Pseudo is Ultrasoft + core correction, Zval = 13.0
     Generated by new atomic code, or converted to UPF format
     Using radial grid of  921 points,  7 beta functions with:
                l(1) =   0
                l(2) =   0
                l(3) =   1
                l(4) =   1
                l(5) =   2
                l(6) =   2
                l(7) =   3
     Q(r) pseudized with  6 coefficients,  rinner =    1.300   1.300   1.300
                                                       1.300   1.300   1.300
                                                       1.300

     vdW kernel table read from file vdW_kernel_table
     MD5 check sum: 095c7af220d748ca6e76c0b4c6cfb241

     atomic species   valence    mass     pseudopotential
        Cr1           14.00    51.99610     Cr( 1.00)
        Ta1           13.00   180.94788     Ta( 1.00)

     No symmetry found

   Cartesian axes

     site n.     atom                  positions (alat units)
         1           Cr1 tau(   1) = (   0.0000000   0.0000000  10.0000000  )
         2           Cr1 tau(   2) = (   3.5828333   2.5334178  10.0000000  )
         3           Ta1 tau(   3) = (   2.6871052   0.0000000  10.0000000  )
         4           Ta1 tau(   4) = (   0.8957281   2.5334178  10.0000000  )
         5           Cr1 tau(   5) = (   5.3742104   3.8000987  12.1940203  )
         6           Cr1 tau(   6) = (   1.7913771   1.2666809  12.1940203  )
         7           Ta1 tau(   7) = (   2.6871052   3.8000987  12.1940203  )
         8           Ta1 tau(   8) = (   4.4784824   1.2666809  12.1940203  )
         9           Cr1 tau(   9) = (   3.5827723   2.5333758  14.2909049  )
        10           Cr1 tau(  10) = (   7.1656010   5.0667885  14.2909545  )
        11           Ta1 tau(  11) = (   6.2698898   2.5333705  14.3636484  )
        12           Ta1 tau(  12) = (   4.4785021   5.0668071  14.3636500  )

     number of k points=    20  Fermi-Dirac smearing, width (Ry)=  0.0110
                       cart. coord. in units 2pi/alat
        k(    1) = (   0.0000000   0.0000000   0.0000000), wk =   0.0555556
        k(    2) = (   0.0000000   0.0328936   0.0000000), wk =   0.1111111
        k(    3) = (   0.0000000   0.0657873   0.0000000), wk =   0.1111111
        k(    4) = (   0.0000000  -0.0986809   0.0000000), wk =   0.0555556
        k(    5) = (   0.0310123  -0.0109649   0.0000000), wk =   0.1111111
        k(    6) = (   0.0310123   0.0219288   0.0000000), wk =   0.1111111
        k(    7) = (   0.0310123   0.0548224   0.0000000), wk =   0.1111111
        k(    8) = (   0.0310123  -0.1096458   0.0000000), wk =   0.1111111
        k(    9) = (   0.0310123  -0.0767521   0.0000000), wk =   0.1111111
        k(   10) = (   0.0310123  -0.0438585   0.0000000), wk =   0.1111111
        k(   11) = (   0.0620246  -0.0219297   0.0000000), wk =   0.1111111
        k(   12) = (   0.0620246   0.0109639   0.0000000), wk =   0.1111111
        k(   13) = (   0.0620246   0.0438575   0.0000000), wk =   0.1111111
        k(   14) = (   0.0620246  -0.1206107   0.0000000), wk =   0.1111111
        k(   15) = (   0.0620246  -0.0877170   0.0000000), wk =   0.1111111
        k(   16) = (   0.0620246  -0.0548234   0.0000000), wk =   0.1111111
        k(   17) = (  -0.0930369   0.0328946   0.0000000), wk =   0.0555556
        k(   18) = (  -0.0930369   0.0657882   0.0000000), wk =   0.1111111
        k(   19) = (  -0.0930369   0.0986819   0.0000000), wk =   0.1111111
        k(   20) = (  -0.0930369  -0.0657863   0.0000000), wk =   0.0555556

     Largest allocated arrays     est. size (Mb)     dimensions
     Largest temporary arrays     est. size (Mb)     dimensions

     Check: negative/imaginary core charge=   -0.000001    0.000000

     Initial potential from superposition of free atoms
     Check: negative starting charge=   -0.579737

     starting charge  155.99324, renormalised to  162.00000

[...]

     *
     * You are using vdW-DF for exchange-correlation in this calculation.
     * Please cite the following three references that made this development
     * possible:
     *
     *   M. Dion, H. Rydberg, E. Schroder, D. C. Langreth, and
     *   B. I. Lundqvist, Phys. Rev. Lett. 92, 246401 (2004).
     *
     *   T. Thonhauser, V. R. Cooper, S. Li, A. Puzder, P. Hyldgaard, and
     *   D. C. Langreth, Phys. Rev. B 76, 125112 (2007).
     *
     *   G. Roman-Perez and J. M. Soler, Phys. Rev. Lett. 103, 096102 (2009).
     *
     *
     * If you are using vdW-DF2, please also cite:
     *
     *   K. Lee, E. D. Murray, L. Kong, B. I. Lundqvist, and
     *   D. C. Langreth, Phys. Rev. B 82, 081101(R) (2010).
     *
     *
     * If you are calculating the stress with vdW-DF, please also cite:
     *
     *   R. Sabatini, E. Kucukbenli, B. Kolb, T. Thonhauser, and
     *   S. de Gironcoli, J. Phys.: Condens. Matter 24, 424209 (2012).
     *

     Carrying out vdW-DF run using the following parameters:

     Nqs =      20    Nr_points =    1024   r_max =   100.000
     q_mesh =
               0.00001000     0.04494208     0.09755937     0.15916263
               0.23128650     0.31572767     0.41458969     0.53033537
               0.66584808     0.82450364     1.01025438     1.22772762
               1.48234092     1.78043706     2.12944203     2.53805004
               3.01644009     3.57652955     4.23227104     5.00000000

     Gradients computed in reciprocal space

[...]

     Starting wfc are  138 randomized atomic wfcs

     Self-consistent Calculation

[...]

     iteration # 11     ecut=    36.75 Ry     beta=0.10
     Davidson diagonalization with overlap
     c_bands:  1 eigenvalues not converged
     ethr =  2.39E-06,  avg # of iterations =  5.7

[...]

     total energy              =   -1916.75835896 Ry
     Harris-Foulkes estimate   =   -1916.75836213 Ry
     estimated scf accuracy    <       0.00000154 Ry

     iteration # 21     ecut=    36.75 Ry     beta=0.10
     Davidson diagonalization with overlap
     ethr =  9.48E-10,  avg # of iterations =  2.4

[...]

     negative rho (up, down):  6.045E-01 0.000E+00

     Adding external electric field

     Computed dipole along edir(3) :
        Dipole                0.0168 Ry au,          0.0427 Debye
        Dipole field          0.0000 Ry au

        Potential amp.       -0.0042 Ry
        Total length         44.9345 bohr

     End of self-consistent calculation

[...]

          k = 0.0620-0.0548 0.0000 ( 16865 PWs)   bands (ev):

[...]

          k =-0.0930-0.0658 0.0000 ( 16872 PWs)   bands (ev):

   -69.9049 -69.8992 -69.8133 -69.8078 -69.7811 -69.7753 -66.5870 -66.5765
   -66.5707 -66.5602 -66.2431 -66.2259 -41.2560 -41.2427 -41.2406 -41.2336
   -41.2137 -41.2133 -41.2085 -41.1849 -41.1693 -41.1675 -41.1408 -41.1220
   -41.0732 -41.0534 -41.0488 -41.0439 -41.0342 -41.0294 -33.0990 -33.0413
   -33.0406 -33.0328 -33.0230 -33.0041 -32.9661 -32.9093 -32.9021 -32.8610
   -32.7973 -32.6826 -32.6706 -32.6197 -32.5781 -32.5682 -32.5660 -32.4394
    -3.5242  -3.2715  -2.5049  -2.3405  -1.4950  -1.1853  -1.1733  -1.1371
    -1.0931  -0.8078  -0.6771  -0.3574  -0.2082  -0.1001  -0.0077   0.0567
     0.1814   0.2444   0.2857   0.4010   0.4245   0.6129   0.7930   0.9006
     0.9026   0.9671   1.0041   1.0901   1.1587   1.2752   1.3099   1.3312
     1.3920   1.4421   1.4445   1.5475   1.6503   1.7669   1.9417   2.0385
     2.1824   2.2854   2.5359   2.6736   2.7123   2.9179   3.1060   3.1217
     3.1470   3.2365   3.2500   3.3590   3.5549   3.5553   3.8540   3.8780
     3.9602   4.3117   4.3215   4.4224   4.7036   5.0879   5.4812

     the Fermi energy is     1.5770 ev

!    total energy              =   -1916.75833161 Ry
     Harris-Foulkes estimate   =   -1916.75835907 Ry
     estimated scf accuracy    <       0.00000088 Ry

     The total energy is the sum of the following terms:

     one-electron contribution =  -14881.26205777 Ry
     hartree contribution      =    7428.00517928 Ry
     xc contribution           =    -401.28829943 Ry
     ewald contribution        =    5937.88315059 Ry
     electric field correction =       0.00000079 Ry
     smearing contrib. (-TS)   =      -0.09630507 Ry

     convergence has been achieved in  21 iterations

 BEEF-vdW xc energy contributions
           1 :   -351.382544600507
           2 :    321.783932324473
           3 :   -270.934830918271
           4 :    211.912003894718
           5 :   -157.345479587203
           6 :    115.190972934750
           7 :   -87.1655557060293
           8 :    70.0506433761225
           9 :   -58.6838829351078
          10 :    48.8774808249396
          11 :   -38.9296168515468
          12 :    29.4005975286445
          13 :   -21.7765185712659
          14 :    17.0393189953607
          15 :   -14.9470941821986
          16 :    14.2473017041282
          17 :   -13.4926171541181
          18 :    11.8634743160821
          19 :   -9.50982092655050
          20 :    7.27516834995822
          21 :   -6.04480918820190
          22 :    6.14992781553440
          23 :   -7.17941434469572
          24 :    8.26581071264519
          25 :   -8.62070307807187
          26 :    7.96946312972318
          27 :   -6.64165621164318
          28 :    5.30826169382863
          29 :   -4.56412014172452
          30 :    4.61109228741395
          31 :   -32.4474906563199
          32 :   -23.8237592212491

     Forces acting on atoms (Ry/au):

     negative rho (up, down):  6.045E-01 0.000E+00
     atom    1 type  1   force =    -0.00000186   -0.00000146    0.02063995
     atom    2 type  1   force =    -0.00000211   -0.00000120    0.02064017
     atom    3 type  2   force =    -0.00000952    0.00000250    0.00255073
     atom    4 type  2   force =    -0.00000172   -0.00001055    0.00255118
     atom    5 type  1   force =     0.00000271    0.00000203   -0.00661642
     atom    6 type  1   force =     0.00000134    0.00000084   -0.00661430
     atom    7 type  2   force =     0.00000226    0.00000192   -0.01588010
     atom    8 type  2   force =     0.00000294    0.00000181   -0.01588046
     atom    9 type  1   force =     0.00000172    0.00000104    0.00081354
     atom   10 type  1   force =     0.00000241    0.00000178    0.00079987
     atom   11 type  2   force =     0.00000341   -0.00000357   -0.00150205
     atom   12 type  2   force =    -0.00000157    0.00000487   -0.00150210

     Total force =     0.038246     Total SCF correction =     0.002502

     entering subroutine stress ...

     negative rho (up, down):  6.045E-01 0.000E+00
          total   stress  (Ry/bohr**3)                   (kbar)     P=  -28.01
  -0.00025142  -0.00001097   0.00000002        -36.99     -1.61      0.00
  -0.00001097  -0.00024366   0.00000001         -1.61    -35.84      0.00
   0.00000002   0.00000001  -0.00007606          0.00      0.00    -11.19

 !ASE

     Writing output data file calc.save

     General routines

     Parallel routines

   This run was terminated on:   7:55:33  19Dec2018

   JOB DONE.
Job  /afs/slac/g/suncat/bin/suncat-tsmpirun -x LD_LIBRARY_PATH -wdir /scratch/qe529763_DIm8Z pw.x -in pw.inp

TID   HOST_NAME   COMMAND_LINE            STATUS            TERMINATION_TIME
00000 suncat0166 pw.x -in pw.inp   Done                     12/19/2018 07:55:33
00001 suncat0166 pw.x -in pw.inp   Done                     12/19/2018 07:55:33
00002 suncat0166 pw.x -in pw.inp   Done                     12/19/2018 07:55:33
00003 suncat0166 pw.x -in pw.inp   Done                     12/19/2018 07:55:33
00004 suncat0166 pw.x -in pw.inp   Done                     12/19/2018 07:55:33
00005 suncat0166 pw.x -in pw.inp   Done                     12/19/2018 07:55:33
00006 suncat0166 pw.x -in pw.inp   Done                     12/19/2018 07:55:33
00007 suncat0166 pw.x -in pw.inp   Done                     12/19/2018 07:55:33
00008 suncat0165 pw.x -in pw.inp   Done                     12/19/2018 07:55:33
00009 suncat0165 pw.x -in pw.inp   Done                     12/19/2018 07:55:33
00010 suncat0165 pw.x -in pw.inp   Done                     12/19/2018 07:55:33
00011 suncat0165 pw.x -in pw.inp   Done                     12/19/2018 07:55:33
00012 suncat0165 pw.x -in pw.inp   Done                     12/19/2018 07:55:33
00013 suncat0165 pw.x -in pw.inp   Done                     12/19/2018 07:55:33
00014 suncat0165 pw.x -in pw.inp   Done                     12/19/2018 07:55:33
00015 suncat0165 pw.x -in pw.inp   Done                     12/19/2018 07:55:33
00016 suncat0164 pw.x -in pw.inp   Done                     12/19/2018 07:55:33
00017 suncat0164 pw.x -in pw.inp   Done                     12/19/2018 07:55:33
00018 suncat0164 pw.x -in pw.inp   Done                     12/19/2018 07:55:33
00019 suncat0164 pw.x -in pw.inp   Done                     12/19/2018 07:55:33
00020 suncat0164 pw.x -in pw.inp   Done                     12/19/2018 07:55:33
00021 suncat0164 pw.x -in pw.inp   Done                     12/19/2018 07:55:33
00022 suncat0164 pw.x -in pw.inp   Done                     12/19/2018 07:55:33
00023 suncat0164 pw.x -in pw.inp   Done                     12/19/2018 07:55:33
00024 suncat0163 pw.x -in pw.inp   Done                     12/19/2018 07:55:33
00025 suncat0163 pw.x -in pw.inp   Done                     12/19/2018 07:55:33
00026 suncat0163 pw.x -in pw.inp   Done                     12/19/2018 07:55:33
00027 suncat0163 pw.x -in pw.inp   Done                     12/19/2018 07:55:33
00028 suncat0163 pw.x -in pw.inp   Done                     12/19/2018 07:55:33
00029 suncat0163 pw.x -in pw.inp   Done                     12/19/2018 07:55:33
00030 suncat0163 pw.x -in pw.inp   Done                     12/19/2018 07:55:33
00031 suncat0163 pw.x -in pw.inp   Done                     12/19/2018 07:55:33