     Program PWSCF v.5.1rc2 (svn rev. 11289) starts on 25Dec2018 at  5:59: 7

     Current dimensions of program PWSCF are:
     Max number of different atomic species (ntypx) = 10
     Max number of k-points (npk) =  40000
     Max angular momentum in pseudopotentials (lmaxx) =  3
     Presently stress not available with electric field

     IMPORTANT: XC functional enforced from input :
     Exchange-correlation      = BEEF-VDW ( 1  4 27 13 2)
     Any further DFT definition will be discarded
     Please, verify this is what you really want

     Subspace diagonalization in iterative solution of the eigenvalue problem:
     a serial algorithm will be used

     Found symmetry operation: I + ( -0.5000 -0.5000  0.0000)
     This is a supercell, fractional translations are disabled

     bravais-lattice index     =            0
     lattice parameter (alat)  =       1.8897  a.u.
     unit-cell volume          =    4277.6623 (a.u.)^3
     number of atoms/cell      =           12
     number of atomic types    =            2
     number of electrons       =       210.00
     number of Kohn-Sham states=          135
     kinetic-energy cutoff     =      36.7493  Ry
     charge density cutoff     =     367.4932  Ry
     convergence threshold     =      1.0E-06
     mixing beta               =       0.1000
     number of iterations used =           10  plain     mixing
     Exchange-correlation      = BEEF-VDW ( 1  4 27 13 2)
     nstep                     =           50

     celldm(1)=   1.889726  celldm(2)=   0.000000  celldm(3)=   0.000000
     celldm(4)=   0.000000  celldm(5)=   0.000000  celldm(6)=   0.000000

     crystal axes: (cart. coord. in units of alat)
               a(1) = (   5.260573   0.000000   0.000000 )
               a(2) = (   1.753568   4.959700   0.000000 )
               a(3) = (   0.000000   0.000000  24.295253 )

     reciprocal axes: (cart. coord. in units 2 pi/alat)
               b(1) = (  0.190093 -0.067210  0.000000 )
               b(2) = (  0.000000  0.201625  0.000000 )
               b(3) = (  0.000000  0.000000  0.041160 )

     PseudoPot. # 1 for Zn read from file:
     /afs/slac.stanford.edu/u/if/mamunm/psp/gbrv1.5pbe/Zn.UPF
     MD5 check sum: df62231357ef9e81f77b2b3087fa5675
     Pseudo is Ultrasoft, Zval = 20.0
     Generated by new atomic code, or converted to UPF format
     Using radial grid of  943 points,  6 beta functions with:
                l(1) =   0
                l(2) =   0
                l(3) =   1
                l(4) =   1
                l(5) =   2
                l(6) =   2
     Q(r) pseudized with  8 coefficients,  rinner =    1.100   1.100   1.100
                                                       1.100   1.100

     PseudoPot. # 2 for Rh read from file:
     /afs/slac.stanford.edu/u/if/mamunm/psp/gbrv1.5pbe/Rh.UPF
     MD5 check sum: 761627e959a2e3a1f56b0b5fe687810e
     Pseudo is Ultrasoft + core correction, Zval = 15.0
     Generated by new atomic code, or converted to UPF format
     Using radial grid of  969 points,  7 beta functions with:
                l(1) =   0
                l(2) =   0
                l(3) =   1
                l(4) =   1
                l(5) =   2
                l(6) =   2
                l(7) =   2
     Q(r) pseudized with  8 coefficients,  rinner =    1.200   1.200   1.200
                                                       1.200   1.200

     vdW kernel table read from file vdW_kernel_table
     MD5 check sum: 095c7af220d748ca6e76c0b4c6cfb241

     atomic species   valence    mass     pseudopotential
        Zn1           20.00    65.38000     Zn( 1.00)
        Rh1           15.00   102.90550     Rh( 1.00)

     No symmetry found

   Cartesian axes

     site n.     atom                  positions (alat units)
         1           Zn1 tau(   1) = (   0.0000000   0.0000000  10.0000000  )
         2           Zn1 tau(   2) = (   3.5070702   2.4798501  10.0000000  )
         3           Rh1 tau(   3) = (   2.6302864   0.0000000  10.0000000  )
         4           Rh1 tau(   4) = (   0.8767838   2.4798501  10.0000000  )
         5           Zn1 tau(   5) = (   5.2605728   3.7197522  12.1476265  )
         6           Zn1 tau(   6) = (   1.7535026   1.2399021  12.1476265  )
         7           Rh1 tau(   7) = (   2.6302864   3.7197522  12.1476265  )
         8           Rh1 tau(   8) = (   4.3837890   1.2399021  12.1476265  )
         9           Zn1 tau(   9) = (   3.5070051   2.4798041  14.2952530  )
        10           Zn1 tau(  10) = (   7.0140754   4.9596542  14.2952530  )
        11           Rh1 tau(  11) = (   6.1372915   2.4798041  14.2952530  )
        12           Rh1 tau(  12) = (   4.3837890   4.9596542  14.2952530  )

     number of k points=    20  Fermi-Dirac smearing, width (Ry)=  0.0110
                       cart. coord. in units 2pi/alat
        k(    1) = (   0.0000000   0.0000000   0.0000000), wk =   0.0555556
        k(    2) = (   0.0000000   0.0336042   0.0000000), wk =   0.1111111
        k(    3) = (   0.0000000   0.0672084   0.0000000), wk =   0.1111111
        k(    4) = (   0.0000000  -0.1008125   0.0000000), wk =   0.0555556
        k(    5) = (   0.0316822  -0.0112017   0.0000000), wk =   0.1111111
        k(    6) = (   0.0316822   0.0224025   0.0000000), wk =   0.1111111
        k(    7) = (   0.0316822   0.0560067   0.0000000), wk =   0.1111111
        k(    8) = (   0.0316822  -0.1120142   0.0000000), wk =   0.1111111
        k(    9) = (   0.0316822  -0.0784100   0.0000000), wk =   0.1111111
        k(   10) = (   0.0316822  -0.0448059   0.0000000), wk =   0.1111111
        k(   11) = (   0.0633645  -0.0224033   0.0000000), wk =   0.1111111
        k(   12) = (   0.0633645   0.0112008   0.0000000), wk =   0.1111111
        k(   13) = (   0.0633645   0.0448050   0.0000000), wk =   0.1111111
        k(   14) = (   0.0633645  -0.1232159   0.0000000), wk =   0.1111111
        k(   15) = (   0.0633645  -0.0896117   0.0000000), wk =   0.1111111
        k(   16) = (   0.0633645  -0.0560075   0.0000000), wk =   0.1111111
        k(   17) = (  -0.0950467   0.0336050   0.0000000), wk =   0.0555556
        k(   18) = (  -0.0950467   0.0672092   0.0000000), wk =   0.1111111
        k(   19) = (  -0.0950467   0.1008134   0.0000000), wk =   0.1111111
        k(   20) = (  -0.0950467  -0.0672075   0.0000000), wk =   0.0555556

     Largest allocated arrays     est. size (Mb)     dimensions
     Largest temporary arrays     est. size (Mb)     dimensions

     Initial potential from superposition of free atoms
     Check: negative starting charge=   -0.327548

     starting charge  206.99856, renormalised to  210.00000

     negative rho (up, down):  3.323E-01 0.000E+00

     *
     * You are using vdW-DF for exchange-correlation in this calculation.
     * Please cite the following three references that made this development
     * possible:
     *
     *   M. Dion, H. Rydberg, E. Schroder, D. C. Langreth, and
     *   B. I. Lundqvist, Phys. Rev. Lett. 92, 246401 (2004).
     *
     *   T. Thonhauser, V. R. Cooper, S. Li, A. Puzder, P. Hyldgaard, and
     *   D. C. Langreth, Phys. Rev. B 76, 125112 (2007).
     *
     *   G. Roman-Perez and J. M. Soler, Phys. Rev. Lett. 103, 096102 (2009).
     *
     *
     * If you are using vdW-DF2, please also cite:
     *
     *   K. Lee, E. D. Murray, L. Kong, B. I. Lundqvist, and
     *   D. C. Langreth, Phys. Rev. B 82, 081101(R) (2010).
     *
     *
     * If you are calculating the stress with vdW-DF, please also cite:
     *
     *   R. Sabatini, E. Kucukbenli, B. Kolb, T. Thonhauser, and
     *   S. de Gironcoli, J. Phys.: Condens. Matter 24, 424209 (2012).
     *

     Carrying out vdW-DF run using the following parameters:

     Nqs =      20    Nr_points =    1024   r_max =   100.000
     q_mesh =
               0.00001000     0.04494208     0.09755937     0.15916263
               0.23128650     0.31572767     0.41458969     0.53033537
               0.66584808     0.82450364     1.01025438     1.22772762
               1.48234092     1.78043706     2.12944203     2.53805004
               3.01644009     3.57652955     4.23227104     5.00000000

     Gradients computed in reciprocal space

     Adding external electric field

     Computed dipole along edir(3) :
        Dipole               -0.0000 Ry au,         -0.0000 Debye
        Dipole field         -0.0000 Ry au

        Potential amp.        0.0000 Ry
        Total length         44.7636 bohr

     Starting wfc are  150 randomized atomic wfcs

     Self-consistent Calculation

     iteration #  1     ecut=    36.75 Ry     beta=0.10
     Davidson diagonalization with overlap
     ethr =  1.00E-02,  avg # of iterations =  7.2

[...]

     total energy              =   -3809.59147938 Ry
     Harris-Foulkes estimate   =   -3811.87371530 Ry
     estimated scf accuracy    <      12.60171532 Ry

[...]

     End of self-consistent calculation

          k = 0.0000 0.0000 0.0000 ( 16189 PWs)   bands (ev):

  -124.7865-124.7865-124.7864-124.7864-124.7376-124.7374 -78.9824 -78.9822
   -78.9822 -78.9821 -78.9654 -78.9652 -78.9627 -78.9626 -78.9623 -78.9623
   -78.9622 -78.9621 -78.9371 -78.9367 -78.9162 -78.9144 -78.9142 -78.9130
   -44.9774 -44.9496 -44.9423 -44.9415 -44.9336 -44.8694 -44.7226 -44.7225
   -44.6424 -44.6384 -44.6334 -44.6276 -44.6163 -44.6163 -44.5635 -44.5593
   -44.5531 -44.5485  -7.0106  -6.2267  -6.2004  -6.1760  -6.1750  -6.1561
    -6.1421  -6.1362  -6.0861  -6.0602  -6.0582  -5.9685  -5.8957  -5.8813
    -5.8799  -5.8762  -5.8710  -5.8660  -5.8631  -5.8004  -5.7885  -5.7790
    -5.7570  -5.6776  -5.6480  -5.6174  -5.5811  -5.5690  -5.4619  -5.4044
    -5.3995  -4.8586  -3.5207  -3.4718  -3.2303  -2.9805  -1.6958  -1.4741
    -1.4304  -1.3907  -1.2863  -1.2746  -1.2143  -0.9378  -0.6930  -0.5702
    -0.4632  -0.3577  -0.2376  -0.1965  -0.0351   0.0677   0.1848   0.2584
     0.2987   0.4635   0.5017   0.5359   0.6360   0.6542   0.6622   0.7730
     1.1824   1.2413   1.2498   1.6559   1.8195   2.0817   2.3774   2.5326
     2.5914   4.5289   4.7965   4.8698   4.8938   5.1537   5.6946   6.2333
     6.5674   6.6248   6.6303   6.9727   7.1313   7.2007   7.3967   8.1077
     8.4169   8.4239   8.8414   9.2126   9.3801   9.4222   9.5439

[...]

          k =-0.0950 0.0336 0.0000 ( 16156 PWs)   bands (ev):

[...]

     the Fermi energy is     0.8392 ev

!    total energy              =   -3810.07473569 Ry
     Harris-Foulkes estimate   =   -3810.07473220 Ry
     estimated scf accuracy    <       0.00000036 Ry

     The total energy is the sum of the following terms:

     one-electron contribution =  -27619.18839562 Ry
     hartree contribution      =   13825.53003862 Ry
     xc contribution           =    -447.25145116 Ry
     ewald contribution        =   10430.90121324 Ry
     electric field correction =       0.00000000 Ry
     smearing contrib. (-TS)   =      -0.06614076 Ry

     convergence has been achieved in  16 iterations

 BEEF-vdW xc energy contributions
           1 :   -394.218459293104
           2 :    359.318141565400
           3 :   -300.055044275420
           4 :    232.662308688384
           5 :   -172.257171945403
[...]
                l(4) =   1
                l(5) =   2
                l(6) =   2
     Q(r) pseudized with  8 coefficients,  rinner =    1.100   1.100   1.100
                                                       1.100   1.100

     PseudoPot. # 2 for Rh read from file:
     /afs/slac.stanford.edu/u/if/mamunm/psp/gbrv1.5pbe/Rh.UPF
     MD5 check sum: 761627e959a2e3a1f56b0b5fe687810e
     Pseudo is Ultrasoft + core correction, Zval = 15.0
     Generated by new atomic code, or converted to UPF format
     Using radial grid of  969 points,  7 beta functions with:
                l(1) =   0
                l(2) =   0
                l(3) =   1
                l(4) =   1
                l(5) =   2
                l(6) =   2
                l(7) =   2
     Q(r) pseudized with  8 coefficients,  rinner =    1.200   1.200   1.200
                                                       1.200   1.200

     vdW kernel table read from file vdW_kernel_table
     MD5 check sum: 095c7af220d748ca6e76c0b4c6cfb241

     atomic species   valence    mass     pseudopotential
        Zn1           20.00    65.38000     Zn( 1.00)
        Rh1           15.00   102.90550     Rh( 1.00)

     No symmetry found

   Cartesian axes

     site n.     atom                  positions (alat units)
         1           Zn1 tau(   1) = (   0.0000000   0.0000000  10.0000000  )
         2           Zn1 tau(   2) = (   3.5070702   2.4798501  10.0000000  )
         3           Rh1 tau(   3) = (   2.6302864   0.0000000  10.0000000  )
         4           Rh1 tau(   4) = (   0.8767838   2.4798501  10.0000000  )
         5           Zn1 tau(   5) = (   5.2605728   3.7197522  12.1476265  )
         6           Zn1 tau(   6) = (   1.7535026   1.2399021  12.1476265  )
         7           Rh1 tau(   7) = (   2.6302864   3.7197522  12.1476265  )
         8           Rh1 tau(   8) = (   4.3837890   1.2399021  12.1476265  )
         9           Zn1 tau(   9) = (   3.5068884   2.4799831  14.3758363  )
        10           Zn1 tau(  10) = (   1.7536301   4.9594839  14.3758337  )
        11           Rh1 tau(  11) = (   0.8768834   2.4799220  14.2209885  )
        12           Rh1 tau(  12) = (   4.3836353   4.9595428  14.2209983  )

     number of k points=    20  Fermi-Dirac smearing, width (Ry)=  0.0110
                       cart. coord. in units 2pi/alat
        k(    1) = (   0.0000000   0.0000000   0.0000000), wk =   0.0555556
        k(    2) = (   0.0000000   0.0336042   0.0000000), wk =   0.1111111
        k(    3) = (   0.0000000   0.0672084   0.0000000), wk =   0.1111111
        k(    4) = (   0.0000000  -0.1008125   0.0000000), wk =   0.0555556
        k(    5) = (   0.0316822  -0.0112017   0.0000000), wk =   0.1111111
        k(    6) = (   0.0316822   0.0224025   0.0000000), wk =   0.1111111
        k(    7) = (   0.0316822   0.0560067   0.0000000), wk =   0.1111111
        k(    8) = (   0.0316822  -0.1120142   0.0000000), wk =   0.1111111
        k(    9) = (   0.0316822  -0.0784100   0.0000000), wk =   0.1111111
        k(   10) = (   0.0316822  -0.0448059   0.0000000), wk =   0.1111111
        k(   11) = (   0.0633645  -0.0224033   0.0000000), wk =   0.1111111
        k(   12) = (   0.0633645   0.0112008   0.0000000), wk =   0.1111111
        k(   13) = (   0.0633645   0.0448050   0.0000000), wk =   0.1111111
        k(   14) = (   0.0633645  -0.1232159   0.0000000), wk =   0.1111111
        k(   15) = (   0.0633645  -0.0896117   0.0000000), wk =   0.1111111
        k(   16) = (   0.0633645  -0.0560075   0.0000000), wk =   0.1111111
        k(   17) = (  -0.0950467   0.0336050   0.0000000), wk =   0.0555556
        k(   18) = (  -0.0950467   0.0672092   0.0000000), wk =   0.1111111
        k(   19) = (  -0.0950467   0.1008134   0.0000000), wk =   0.1111111
        k(   20) = (  -0.0950467  -0.0672075   0.0000000), wk =   0.0555556

     Largest allocated arrays     est. size (Mb)     dimensions
     Largest temporary arrays     est. size (Mb)     dimensions

     Initial potential from superposition of free atoms
     Check: negative starting charge=   -0.327232

     starting charge  206.99856, renormalised to  210.00000

[...]

     *
     * You are using vdW-DF for exchange-correlation in this calculation.
     * Please cite the following three references that made this development
     * possible:
     *
     *   M. Dion, H. Rydberg, E. Schroder, D. C. Langreth, and
     *   B. I. Lundqvist, Phys. Rev. Lett. 92, 246401 (2004).
     *
     *   T. Thonhauser, V. R. Cooper, S. Li, A. Puzder, P. Hyldgaard, and
     *   D. C. Langreth, Phys. Rev. B 76, 125112 (2007).
     *
     *   G. Roman-Perez and J. M. Soler, Phys. Rev. Lett. 103, 096102 (2009).
     *
     *
     * If you are using vdW-DF2, please also cite:
     *
     *   K. Lee, E. D. Murray, L. Kong, B. I. Lundqvist, and
     *   D. C. Langreth, Phys. Rev. B 82, 081101(R) (2010).
     *
     *
     * If you are calculating the stress with vdW-DF, please also cite:
     *
     *   R. Sabatini, E. Kucukbenli, B. Kolb, T. Thonhauser, and
     *   S. de Gironcoli, J. Phys.: Condens. Matter 24, 424209 (2012).
     *

     Carrying out vdW-DF run using the following parameters:

     Nqs =      20    Nr_points =    1024   r_max =   100.000
     q_mesh =
               0.00001000     0.04494208     0.09755937     0.15916263
               0.23128650     0.31572767     0.41458969     0.53033537
               0.66584808     0.82450364     1.01025438     1.22772762
               1.48234092     1.78043706     2.12944203     2.53805004
               3.01644009     3.57652955     4.23227104     5.00000000

     Gradients computed in reciprocal space

[...]

     Starting wfc are  150 randomized atomic wfcs

     Self-consistent Calculation

[...]

     iteration #  9     ecut=    36.75 Ry     beta=0.10
     Davidson diagonalization with overlap
     c_bands:  1 eigenvalues not converged
     ethr =  6.49E-06,  avg # of iterations =  4.2

[...]

     total energy              =   -3810.07892803 Ry
     Harris-Foulkes estimate   =   -3810.07892739 Ry
     estimated scf accuracy    <       0.00000197 Ry

     iteration # 17     ecut=    36.75 Ry     beta=0.10
     Davidson diagonalization with overlap
     ethr =  9.39E-10,  avg # of iterations =  1.8

[...]

     negative rho (up, down):  3.339E-01 0.000E+00

     Adding external electric field

     Computed dipole along edir(3) :
        Dipole                0.0033 Ry au,          0.0083 Debye
        Dipole field          0.0000 Ry au

        Potential amp.       -0.0009 Ry
        Total length         44.7636 bohr

     End of self-consistent calculation

[...]

          k = 0.0634-0.0560 0.0000 ( 16101 PWs)   bands (ev):

[...]

          k =-0.0950-0.0672 0.0000 ( 16016 PWs)   bands (ev):

  -124.7873-124.7871-124.7803-124.7802-124.7236-124.7235 -78.9838 -78.9835
   -78.9757 -78.9754 -78.9655 -78.9623 -78.9617 -78.9615 -78.9592 -78.9563
   -78.9561 -78.9560 -78.9217 -78.9215 -78.9020 -78.9020 -78.9017 -78.8987
   -44.9616 -44.9432 -44.9379 -44.9304 -44.9235 -44.8529 -44.7562 -44.7192
   -44.6676 -44.6568 -44.6493 -44.6384 -44.6279 -44.6125 -44.5944 -44.5858
   -44.5555 -44.5465  -6.0549  -6.0317  -5.9793  -5.9715  -5.9548  -5.9529
    -5.9271  -5.9230  -5.9079  -5.8807  -5.8544  -5.8508  -5.8131  -5.7986
    -5.7866  -5.7690  -5.7590  -5.7584  -5.7300  -5.7105  -5.7083  -5.6770
    -5.6614  -5.6298  -5.6233  -5.5921  -5.5746  -5.5422  -5.4508  -5.3763
    -4.7795  -4.4643  -3.2006  -3.1081  -3.1054  -3.0938  -2.9531  -2.5350
    -2.4152  -2.0537  -1.8261  -1.6367  -1.5981  -1.5898  -1.5548  -1.4311
    -1.1375  -0.9776  -0.8950  -0.7816  -0.5364  -0.5171  -0.4812  -0.4797
    -0.4310  -0.1685   0.0150   0.4085   0.4829   0.5531   0.5721   0.6283
     1.0078   1.1729   1.2010   1.3902   1.9349   2.5276   3.1076   3.1640
     3.5921   4.5712   4.6435   4.7915   6.3181   6.5181   6.7980   6.8479
     7.0527   7.2498   7.3719   7.6295   7.7062   8.4668   8.4871   8.5407
     8.6075   8.7111   8.8219   8.9648   9.2883   9.4696   9.6213

     the Fermi energy is     0.8410 ev

!    total energy              =   -3810.07893042 Ry
     Harris-Foulkes estimate   =   -3810.07892810 Ry
     estimated scf accuracy    <       0.00000092 Ry

     The total energy is the sum of the following terms:

     one-electron contribution =  -27565.63923341 Ry
     hartree contribution      =   13798.76805890 Ry
     xc contribution           =    -447.24293777 Ry
     ewald contribution        =   10404.10180236 Ry
     electric field correction =       0.00000003 Ry
     smearing contrib. (-TS)   =      -0.06662052 Ry

     convergence has been achieved in  17 iterations

 BEEF-vdW xc energy contributions
           1 :   -394.212892429858
           2 :    359.318021509902
           3 :   -300.058008236277
           4 :    232.658330344822
           5 :   -172.235798689438
           6 :    127.477176360980
           7 :   -99.0442692974607
           8 :    81.8055796133267
           9 :   -69.0801710296776
          10 :    56.3566240834039
          11 :   -42.7265151959871
          12 :    29.8827215811837
          13 :   -19.9358961290424
          14 :    13.6784107791240
          15 :   -10.2445839698904
          16 :    7.99352368677580
          17 :   -5.69335213049567
          18 :    3.11402112781741
          19 :  -0.766998095870690
          20 :  -0.809632157510919
          21 :    1.58196848374598
          22 :   -1.99844315933490
          23 :    2.54108429730206
          24 :   -3.30197830901761
          25 :    3.95233923529827
          26 :   -4.09860538249177
          27 :    3.68758026903265
          28 :   -3.10436760770028
          29 :    2.88211851085941
          30 :   -3.26973019814830
          31 :   -33.8955221919832
          32 :   -24.1988268312075

     Forces acting on atoms (Ry/au):

     negative rho (up, down):  3.339E-01 0.000E+00
     atom    1 type  1   force =     0.00000131   -0.00000504   -0.01063025
     atom    2 type  1   force =    -0.00000228    0.00000402   -0.01063121
     atom    3 type  2   force =    -0.00000133   -0.00000082    0.01630636
     atom    4 type  2   force =     0.00000019    0.00000026    0.01630513
     atom    5 type  1   force =     0.00000999   -0.00001149   -0.01146699
     atom    6 type  1   force =    -0.00000873    0.00001213   -0.01146545
     atom    7 type  2   force =    -0.00000066   -0.00000047    0.00592334
     atom    8 type  2   force =     0.00000010    0.00000022    0.00597297
     atom    9 type  1   force =     0.00004167   -0.00005919    0.00008398
     atom   10 type  1   force =    -0.00004127    0.00005912    0.00008333
     atom   11 type  2   force =    -0.00006825   -0.00004885   -0.00023876
     atom   12 type  2   force =     0.00006926    0.00005012   -0.00024244

     Total force =     0.033040     Total SCF correction =     0.000977

     entering subroutine stress ...

     negative rho (up, down):  3.339E-01 0.000E+00
          total   stress  (Ry/bohr**3)                   (kbar)     P=  -23.22
  -0.00018038   0.00000423   0.00000000        -26.54      0.62      0.00
   0.00000423  -0.00018337   0.00000000          0.62    -26.98      0.00
   0.00000000   0.00000000  -0.00010975          0.00      0.00    -16.14

 !ASE

     Writing output data file calc.save

     General routines

     Parallel routines

   This run was terminated on:   7:36:49  25Dec2018

   JOB DONE.
Job  /afs/slac/g/suncat/bin/suncat-tsmpirun -x LD_LIBRARY_PATH -wdir /scratch/qe109239_Nzcwo pw.x -in pw.inp

TID   HOST_NAME   COMMAND_LINE            STATUS            TERMINATION_TIME
00000 suncat0136 pw.x -in pw.inp   Done                     12/25/2018 07:36:49
00001 suncat0136 pw.x -in pw.inp   Done                     12/25/2018 07:36:49
00002 suncat0136 pw.x -in pw.inp   Done                     12/25/2018 07:36:49
00003 suncat0136 pw.x -in pw.inp   Done                     12/25/2018 07:36:49
00004 suncat0136 pw.x -in pw.inp   Done                     12/25/2018 07:36:49
00005 suncat0136 pw.x -in pw.inp   Done                     12/25/2018 07:36:49
00006 suncat0136 pw.x -in pw.inp   Done                     12/25/2018 07:36:49
00007 suncat0136 pw.x -in pw.inp   Done                     12/25/2018 07:36:49
00008 suncat0135 pw.x -in pw.inp   Done                     12/25/2018 07:36:49
00009 suncat0135 pw.x -in pw.inp   Done                     12/25/2018 07:36:49
00010 suncat0135 pw.x -in pw.inp   Done                     12/25/2018 07:36:49
00011 suncat0135 pw.x -in pw.inp   Done                     12/25/2018 07:36:49
00012 suncat0135 pw.x -in pw.inp   Done                     12/25/2018 07:36:49
00013 suncat0135 pw.x -in pw.inp   Done                     12/25/2018 07:36:49
00014 suncat0135 pw.x -in pw.inp   Done                     12/25/2018 07:36:49
00015 suncat0135 pw.x -in pw.inp   Done                     12/25/2018 07:36:49
00016 suncat0134 pw.x -in pw.inp   Done                     12/25/2018 07:36:49
00017 suncat0134 pw.x -in pw.inp   Done                     12/25/2018 07:36:49
00018 suncat0134 pw.x -in pw.inp   Done                     12/25/2018 07:36:49
00019 suncat0134 pw.x -in pw.inp   Done                     12/25/2018 07:36:49
00020 suncat0134 pw.x -in pw.inp   Done                     12/25/2018 07:36:49
00021 suncat0134 pw.x -in pw.inp   Done                     12/25/2018 07:36:49
00022 suncat0134 pw.x -in pw.inp   Done                     12/25/2018 07:36:49
00023 suncat0134 pw.x -in pw.inp   Done                     12/25/2018 07:36:49
00024 suncat0232 pw.x -in pw.inp   Done                     12/25/2018 07:36:49
00025 suncat0232 pw.x -in pw.inp   Done                     12/25/2018 07:36:49
00026 suncat0232 pw.x -in pw.inp   Done                     12/25/2018 07:36:49
00027 suncat0232 pw.x -in pw.inp   Done                     12/25/2018 07:36:49
00028 suncat0232 pw.x -in pw.inp   Done                     12/25/2018 07:36:49
00029 suncat0232 pw.x -in pw.inp   Done                     12/25/2018 07:36:49
00030 suncat0232 pw.x -in pw.inp   Done                     12/25/2018 07:36:49
00031 suncat0232 pw.x -in pw.inp   Done                     12/25/2018 07:36:49
00032 suncat0220 pw.x -in pw.inp   Done                     12/25/2018 07:36:49
00033 suncat0220 pw.x -in pw.inp   Done                     12/25/2018 07:36:49
00034 suncat0220 pw.x -in pw.inp   Done                     12/25/2018 07:36:49
00035 suncat0220 pw.x -in pw.inp   Done                     12/25/2018 07:36:49
00036 suncat0220 pw.x -in pw.inp   Done                     12/25/2018 07:36:49
00037 suncat0220 pw.x -in pw.inp   Done                     12/25/2018 07:36:49
00038 suncat0220 pw.x -in pw.inp   Done                     12/25/2018 07:36:49
00039 suncat0220 pw.x -in pw.inp   Done                     12/25/2018 07:36:49
00040 suncat0219 pw.x -in pw.inp   Done                     12/25/2018 07:36:49
00041 suncat0219 pw.x -in pw.inp   Done                     12/25/2018 07:36:49
00042 suncat0219 pw.x -in pw.inp   Done                     12/25/2018 07:36:49
00043 suncat0219 pw.x -in pw.inp   Done                     12/25/2018 07:36:49
00044 suncat0219 pw.x -in pw.inp   Done                     12/25/2018 07:36:49
00045 suncat0219 pw.x -in pw.inp   Done                     12/25/2018 07:36:49
00046 suncat0219 pw.x -in pw.inp   Done                     12/25/2018 07:36:49
00047 suncat0219 pw.x -in pw.inp   Done                     12/25/2018 07:36:49
00048 suncat0201 pw.x -in pw.inp   Done                     12/25/2018 07:36:49
00049 suncat0201 pw.x -in pw.inp   Done                     12/25/2018 07:36:49
00050 suncat0201 pw.x -in pw.inp   Done                     12/25/2018 07:36:49
00051 suncat0201 pw.x -in pw.inp   Done                     12/25/2018 07:36:49
00052 suncat0201 pw.x -in pw.inp   Done                     12/25/2018 07:36:49
00053 suncat0201 pw.x -in pw.inp   Done                     12/25/2018 07:36:49
00054 suncat0201 pw.x -in pw.inp   Done                     12/25/2018 07:36:49
00055 suncat0201 pw.x -in pw.inp   Done                     12/25/2018 07:36:49
00056 suncat0200 pw.x -in pw.inp   Done                     12/25/2018 07:36:49
00057 suncat0200 pw.x -in pw.inp   Done                     12/25/2018 07:36:49
00058 suncat0200 pw.x -in pw.inp   Done                     12/25/2018 07:36:49
00059 suncat0200 pw.x -in pw.inp   Done                     12/25/2018 07:36:49
00060 suncat0200 pw.x -in pw.inp   Done                     12/25/2018 07:36:49
00061 suncat0200 pw.x -in pw.inp   Done                     12/25/2018 07:36:49
00062 suncat0200 pw.x -in pw.inp   Done                     12/25/2018 07:36:49
00063 suncat0200 pw.x -in pw.inp   Done                     12/25/2018 07:36:49