     Program PWSCF v.5.1rc2 (svn rev. 11289) starts on 18Dec2018 at 19:23:25

     Current dimensions of program PWSCF are:
     Max number of different atomic species (ntypx) = 10
     Max number of k-points (npk) =  40000
     Max angular momentum in pseudopotentials (lmaxx) =  3
     Presently stress not available with electric field

     IMPORTANT: XC functional enforced from input :
     Exchange-correlation      = BEEF-VDW ( 1  4 27 13 2)
     Any further DFT definition will be discarded
     Please, verify this is what you really want

     Subspace diagonalization in iterative solution of the eigenvalue problem:
     a serial algorithm will be used

     Found symmetry operation: I + ( -0.5000  0.0000  0.0000)
     This is a supercell, fractional translations are disabled

     bravais-lattice index     =            0
     lattice parameter (alat)  =       1.8897  a.u.
     unit-cell volume          =    5285.0109 (a.u.)^3
     number of atoms/cell      =           12
     number of atomic types    =            2
     number of electrons       =       150.00
     number of Kohn-Sham states=          105
     kinetic-energy cutoff     =      36.7493  Ry
     charge density cutoff     =     367.4932  Ry
     convergence threshold     =      1.0E-06
     mixing beta               =       0.1000
     number of iterations used =           10  plain     mixing
     Exchange-correlation      = BEEF-VDW ( 1  4 27 13 2)
     nstep                     =           50

     celldm(1)=   1.889726  celldm(2)=   0.000000  celldm(3)=   0.000000
     celldm(4)=   0.000000  celldm(5)=   0.000000  celldm(6)=   0.000000

     crystal axes: (cart. coord. in units of alat)
               a(1) = (   5.744802   0.000000   0.000000 )
               a(2) = (  -2.872401   5.476797   0.000000 )
               a(3) = (   0.000000   0.000000  24.891300 )

     reciprocal axes: (cart. coord. in units 2 pi/alat)
               b(1) = (  0.174070  0.091294  0.000000 )
               b(2) = (  0.000000  0.182588  0.000000 )
               b(3) = (  0.000000  0.000000  0.040175 )

     PseudoPot. # 1 for Cd read from file:
     /afs/slac.stanford.edu/u/if/mamunm/psp/gbrv1.5pbe/Cd.UPF
     MD5 check sum: 17164a7926edb8e0dc231208abae86a6
     Pseudo is Ultrasoft + core correction, Zval = 12.0
     Generated by new atomic code, or converted to UPF format
     Using radial grid of  889 points,  6 beta functions with:
                l(1) =   0
                l(2) =   0
                l(3) =   1
                l(4) =   1
                l(5) =   2
                l(6) =   2
     Q(r) pseudized with  6 coefficients,  rinner =    1.000   1.000   1.000
                                                       1.000   1.000

     PseudoPot. # 2 for Ta read from file:
     /afs/slac.stanford.edu/u/if/mamunm/psp/gbrv1.5pbe/Ta.UPF
     MD5 check sum: f8bbe9446314a3b8ea5d9f3e3836c939
     Pseudo is Ultrasoft + core correction, Zval = 13.0
     Generated by new atomic code, or converted to UPF format
     Using radial grid of  921 points,  7 beta functions with:
                l(1) =   0
                l(2) =   0
                l(3) =   1
                l(4) =   1
                l(5) =   2
                l(6) =   2
                l(7) =   3
     Q(r) pseudized with  6 coefficients,  rinner =    1.300   1.300   1.300
                                                       1.300   1.300   1.300
                                                       1.300

     vdW kernel table read from file vdW_kernel_table
     MD5 check sum: 095c7af220d748ca6e76c0b4c6cfb241

     atomic species   valence    mass     pseudopotential
        Cd1           12.00   112.41400     Cd( 1.00)
        Ta1           13.00   180.94788     Ta( 1.00)

     No symmetry found

   Cartesian axes

     site n.     atom                  positions (alat units)
         1           Cd1 tau(   1) = (   0.0000000   0.0000000  10.0000000  )
         2           Cd1 tau(   2) = (   2.8724011   0.0000000  10.0000000  )
         3           Ta1 tau(   3) = (   1.4362006   2.7383984  10.0000000  )
         4           Ta1 tau(   4) = (  -1.4362006   2.7383984  10.0000000  )
         5           Cd1 tau(   5) = (   2.8724011   1.5064806  12.4456501  )
         6           Cd1 tau(   6) = (   0.0000000   1.5064806  12.4456501  )
         7           Ta1 tau(   7) = (  -1.4362006   4.2448790  12.4456501  )
         8           Ta1 tau(   8) = (   1.4362006   4.2448790  12.4456501  )
         9           Cd1 tau(   9) = (  -0.0000000   3.0129613  14.8913002  )
        10           Cd1 tau(  10) = (   2.8724011   3.0129613  14.8913002  )
        11           Ta1 tau(  11) = (   4.3086017   0.2745629  14.8913002  )
        12           Ta1 tau(  12) = (   1.4362006   0.2745629  14.8913002  )

     number of k points=    20  Fermi-Dirac smearing, width (Ry)=  0.0110
                       cart. coord. in units 2pi/alat
        k(    1) = (   0.0000000   0.0000000   0.0000000), wk =   0.0555556
        k(    2) = (   0.0000000   0.0304314   0.0000000), wk =   0.1111111
        k(    3) = (   0.0000000   0.0608628   0.0000000), wk =   0.1111111
        k(    4) = (   0.0000000  -0.0912942   0.0000000), wk =   0.0555556
        k(    5) = (   0.0290117   0.0152157   0.0000000), wk =   0.1111111
        k(    6) = (   0.0290117   0.0456471   0.0000000), wk =   0.1111111
        k(    7) = (   0.0290117   0.0760785   0.0000000), wk =   0.1111111
        k(    8) = (   0.0290117  -0.0760785   0.0000000), wk =   0.1111111
        k(    9) = (   0.0290117  -0.0456471   0.0000000), wk =   0.1111111
        k(   10) = (   0.0290117  -0.0152157   0.0000000), wk =   0.1111111
        k(   11) = (   0.0580235   0.0304314   0.0000000), wk =   0.1111111
        k(   12) = (   0.0580235   0.0608628   0.0000000), wk =   0.1111111
        k(   13) = (   0.0580235   0.0912942   0.0000000), wk =   0.1111111
        k(   14) = (   0.0580235  -0.0608628   0.0000000), wk =   0.1111111
        k(   15) = (   0.0580235  -0.0304314   0.0000000), wk =   0.1111111
        k(   16) = (   0.0580235   0.0000000   0.0000000), wk =   0.1111111
        k(   17) = (  -0.0870352  -0.0456471   0.0000000), wk =   0.0555556
        k(   18) = (  -0.0870352  -0.0152157   0.0000000), wk =   0.1111111
        k(   19) = (  -0.0870352   0.0152157   0.0000000), wk =   0.1111111
        k(   20) = (  -0.0870352  -0.1369414   0.0000000), wk =   0.0555556

     Largest allocated arrays     est. size (Mb)     dimensions
     Largest temporary arrays     est. size (Mb)     dimensions

     Initial potential from superposition of free atoms
     Check: negative starting charge=   -0.696634

     starting charge  146.99308, renormalised to  150.00000

     negative rho (up, down):  7.109E-01 0.000E+00

     *
     * You are using vdW-DF for exchange-correlation in this calculation.
     * Please cite the following three references that made this development
     * possible:
     *
     *   M. Dion, H. Rydberg, E. Schroder, D. C. Langreth, and
     *   B. I. Lundqvist, Phys. Rev. Lett. 92, 246401 (2004).
     *
     *   T. Thonhauser, V. R. Cooper, S. Li, A. Puzder, P. Hyldgaard, and
     *   D. C. Langreth, Phys. Rev. B 76, 125112 (2007).
     *
     *   G. Roman-Perez and J. M. Soler, Phys. Rev. Lett. 103, 096102 (2009).
     *
     *
     * If you are using vdW-DF2, please also cite:
     *
     *   K. Lee, E. D. Murray, L. Kong, B. I. Lundqvist, and
     *   D. C. Langreth, Phys. Rev. B 82, 081101(R) (2010).
     *
     *
     * If you are calculating the stress with vdW-DF, please also cite:
     *
     *   R. Sabatini, E. Kucukbenli, B. Kolb, T. Thonhauser, and
     *   S. de Gironcoli, J. Phys.: Condens. Matter 24, 424209 (2012).
     *

     Carrying out vdW-DF run using the following parameters:

     Nqs =      20    Nr_points =    1024   r_max =   100.000
     q_mesh =
               0.00001000     0.04494208     0.09755937     0.15916263
               0.23128650     0.31572767     0.41458969     0.53033537
               0.66584808     0.82450364     1.01025438     1.22772762
               1.48234092     1.78043706     2.12944203     2.53805004
               3.01644009     3.57652955     4.23227104     5.00000000

     Gradients computed in reciprocal space

     Adding external electric field

     Computed dipole along edir(3) :
        Dipole               -0.0000 Ry au,         -0.0000 Debye
        Dipole field         -0.0000 Ry au

        Potential amp.        0.0000 Ry
        Total length         45.8618 bohr

     Starting wfc are  132 randomized atomic wfcs

     Self-consistent Calculation

     iteration #  1     ecut=    36.75 Ry     beta=0.10
     Davidson diagonalization with overlap
     ethr =  1.00E-02,  avg # of iterations =  4.6

     Threshold (ethr) on eigenvalues was too large:
     Diagonalizing with lowered threshold

     Davidson diagonalization with overlap
     ethr =  9.15E-04,  avg # of iterations =  3.0

[...]

     total energy              =   -1555.38623550 Ry
     Harris-Foulkes estimate   =   -1555.60235820 Ry
     estimated scf accuracy    <       1.42782132 Ry

[...]

     End of self-consistent calculation

          k = 0.0000 0.0000 0.0000 ( 19867 PWs)   bands (ev):

   -67.3579 -67.3572 -67.3138 -67.3131 -67.0003 -66.9552 -33.8777 -33.8458
   -33.8410 -33.8276 -33.7965 -33.7500 -33.7482 -33.6871 -33.6679 -33.6398
   -33.6095 -33.4954 -33.4140 -33.1445 -33.1342 -33.1319 -33.0720 -32.9197
    -8.3342  -8.2022  -8.0359  -8.0292  -8.0156  -7.9295  -7.8799  -7.8054
    -7.7573  -7.7391  -7.7237  -7.6101  -7.4216  -7.3919  -7.3020  -7.2601
    -7.2517  -7.2213  -7.1766  -7.1699  -7.1494  -7.1239  -7.0707  -6.9774
    -6.9204  -6.9067  -6.8891  -6.8068  -6.7415  -6.7189  -6.4488  -4.9232
    -2.9066  -2.0588  -1.5208  -1.4772  -1.4649  -1.1235  -1.1222  -0.4748
    -0.3499  -0.3286  -0.3272   0.1773   0.4518   0.6001   0.6967   0.7744
     1.2004   1.4197   1.5133   1.5899   1.5908   1.8907   2.1255   2.3060
     2.5104   2.6411   2.6736   2.6796   3.2427   3.3934   3.7318   3.7834
     3.8446   4.4160   4.4519   4.4567   4.5566   4.6316   4.7157   5.0438
     5.1855   5.3392   5.5860   5.6140   5.6379   5.7496   5.8503   5.8863
     6.6982

[...]

          k =-0.0870-0.0456 0.0000 ( 19878 PWs)   bands (ev):

[...]

     the Fermi energy is     1.3216 ev

!    total energy              =   -1555.32376818 Ry
     Harris-Foulkes estimate   =   -1555.32378498 Ry
     estimated scf accuracy    <       0.00000054 Ry

     The total energy is the sum of the following terms:

     one-electron contribution =  -10306.32670259 Ry
     hartree contribution      =    5191.00688047 Ry
     xc contribution           =    -506.11405572 Ry
     ewald contribution        =    4066.17559462 Ry
     electric field correction =       0.00000000 Ry
     smearing contrib. (-TS)   =      -0.06548497 Ry

     convergence has been achieved in  15 iterations

 BEEF-vdW xc energy contributions
           1 :   -444.754167835934
           2 :    409.115658741894
           3 :   -347.698573868180
           4 :    276.037116720886
           5 :   -209.292928395852
[...]
00030 suncat0025 pw.x -in pw.inp   Done                     12/18/2018 19:39:37
00031 suncat0025 pw.x -in pw.inp   Done                     12/18/2018 19:39:37

[...]

   This run was terminated on:  19:56: 1  18Dec2018

[...]

     Program PWSCF v.5.1rc2 (svn rev. 11289) starts on 18Dec2018 at 19:56: 7

[...]

   This run was terminated on:  21:56: 1  18Dec2018

[...]

     Program PWSCF v.5.1rc2 (svn rev. 11289) starts on 18Dec2018 at 21:56: 7

[...]

     Program PWSCF v.5.1rc2 (svn rev. 11289) starts on 18Dec2018 at 22:11:33

     Current dimensions of program PWSCF are:
     Max number of different atomic species (ntypx) = 10
     Max number of k-points (npk) =  40000
     Max angular momentum in pseudopotentials (lmaxx) =  3
     Presently stress not available with electric field

     IMPORTANT: XC functional enforced from input :
     Exchange-correlation      = BEEF-VDW ( 1  4 27 13 2)
     Any further DFT definition will be discarded
     Please, verify this is what you really want

     Subspace diagonalization in iterative solution of the eigenvalue problem:
     a serial algorithm will be used

     Found symmetry operation: I + ( -0.5000  0.0000  0.0000)
     This is a supercell, fractional translations are disabled

     bravais-lattice index     =            0
     lattice parameter (alat)  =       1.8897  a.u.
     unit-cell volume          =    5285.0109 (a.u.)^3
     number of atoms/cell      =           12
     number of atomic types    =            2
     number of electrons       =       150.00
     number of Kohn-Sham states=          105
     kinetic-energy cutoff     =      36.7493  Ry
     charge density cutoff     =     367.4932  Ry
     convergence threshold     =      1.0E-06
     mixing beta               =       0.1000
     number of iterations used =           10  plain     mixing
     Exchange-correlation      = BEEF-VDW ( 1  4 27 13 2)
     nstep                     =           50

     celldm(1)=   1.889726  celldm(2)=   0.000000  celldm(3)=   0.000000
     celldm(4)=   0.000000  celldm(5)=   0.000000  celldm(6)=   0.000000

     crystal axes: (cart. coord. in units of alat)
               a(1) = (   5.744802   0.000000   0.000000 )
               a(2) = (  -2.872401   5.476797   0.000000 )
               a(3) = (   0.000000   0.000000  24.891300 )

     reciprocal axes: (cart. coord. in units 2 pi/alat)
               b(1) = (  0.174070  0.091294  0.000000 )
               b(2) = (  0.000000  0.182588  0.000000 )
               b(3) = (  0.000000  0.000000  0.040175 )

     PseudoPot. # 1 for Cd read from file:
     /afs/slac.stanford.edu/u/if/mamunm/psp/gbrv1.5pbe/Cd.UPF
     MD5 check sum: 17164a7926edb8e0dc231208abae86a6
     Pseudo is Ultrasoft + core correction, Zval = 12.0
     Generated by new atomic code, or converted to UPF format
     Using radial grid of  889 points,  6 beta functions with:
                l(1) =   0
                l(2) =   0
                l(3) =   1
                l(4) =   1
                l(5) =   2
                l(6) =   2
     Q(r) pseudized with  6 coefficients,  rinner =    1.000   1.000   1.000
                                                       1.000   1.000

     PseudoPot. # 2 for Ta read from file:
     /afs/slac.stanford.edu/u/if/mamunm/psp/gbrv1.5pbe/Ta.UPF
     MD5 check sum: f8bbe9446314a3b8ea5d9f3e3836c939
     Pseudo is Ultrasoft + core correction, Zval = 13.0
     Generated by new atomic code, or converted to UPF format
     Using radial grid of  921 points,  7 beta functions with:
                l(1) =   0
                l(2) =   0
                l(3) =   1
                l(4) =   1
                l(5) =   2
                l(6) =   2
                l(7) =   3
     Q(r) pseudized with  6 coefficients,  rinner =    1.300   1.300   1.300
                                                       1.300   1.300   1.300
                                                       1.300

     vdW kernel table read from file vdW_kernel_table
     MD5 check sum: 095c7af220d748ca6e76c0b4c6cfb241

     atomic species   valence    mass     pseudopotential
        Cd1           12.00   112.41400     Cd( 1.00)
        Ta1           13.00   180.94788     Ta( 1.00)

     No symmetry found

   Cartesian axes

     site n.     atom                  positions (alat units)
         1           Cd1 tau(   1) = (   0.0000000   0.0000000  10.0000000  )
         2           Cd1 tau(   2) = (   2.8724011   0.0000000  10.0000000  )
         3           Ta1 tau(   3) = (   1.4362006   2.7383984  10.0000000  )
         4           Ta1 tau(   4) = (  -1.4362006   2.7383984  10.0000000  )
         5           Cd1 tau(   5) = (   2.8724011   1.5064806  12.4456501  )
         6           Cd1 tau(   6) = (   0.0000000   1.5064806  12.4456501  )
         7           Ta1 tau(   7) = (  -1.4362006   4.2448790  12.4456501  )
         8           Ta1 tau(   8) = (   1.4362006   4.2448790  12.4456501  )
         9           Cd1 tau(   9) = (  -0.0000074   2.9156831  15.1515077  )
        10           Cd1 tau(  10) = (   2.8723996   2.9156413  15.1514770  )
        11           Ta1 tau(  11) = (   4.3085901   0.1174608  14.7784661  )
        12           Ta1 tau(  12) = (   1.4361843   0.1174790  14.7784620  )

     number of k points=    20  Fermi-Dirac smearing, width (Ry)=  0.0110
                       cart. coord. in units 2pi/alat
        k(    1) = (   0.0000000   0.0000000   0.0000000), wk =   0.0555556
        k(    2) = (   0.0000000   0.0304314   0.0000000), wk =   0.1111111
        k(    3) = (   0.0000000   0.0608628   0.0000000), wk =   0.1111111
        k(    4) = (   0.0000000  -0.0912942   0.0000000), wk =   0.0555556
        k(    5) = (   0.0290117   0.0152157   0.0000000), wk =   0.1111111
        k(    6) = (   0.0290117   0.0456471   0.0000000), wk =   0.1111111
        k(    7) = (   0.0290117   0.0760785   0.0000000), wk =   0.1111111
        k(    8) = (   0.0290117  -0.0760785   0.0000000), wk =   0.1111111
        k(    9) = (   0.0290117  -0.0456471   0.0000000), wk =   0.1111111
        k(   10) = (   0.0290117  -0.0152157   0.0000000), wk =   0.1111111
        k(   11) = (   0.0580235   0.0304314   0.0000000), wk =   0.1111111
        k(   12) = (   0.0580235   0.0608628   0.0000000), wk =   0.1111111
        k(   13) = (   0.0580235   0.0912942   0.0000000), wk =   0.1111111
        k(   14) = (   0.0580235  -0.0608628   0.0000000), wk =   0.1111111
        k(   15) = (   0.0580235  -0.0304314   0.0000000), wk =   0.1111111
        k(   16) = (   0.0580235   0.0000000   0.0000000), wk =   0.1111111
        k(   17) = (  -0.0870352  -0.0456471   0.0000000), wk =   0.0555556
        k(   18) = (  -0.0870352  -0.0152157   0.0000000), wk =   0.1111111
        k(   19) = (  -0.0870352   0.0152157   0.0000000), wk =   0.1111111
        k(   20) = (  -0.0870352  -0.1369414   0.0000000), wk =   0.0555556

     Largest allocated arrays     est. size (Mb)     dimensions
     Largest temporary arrays     est. size (Mb)     dimensions

     Initial potential from superposition of free atoms
     Check: negative starting charge=   -0.695225

     starting charge  146.99308, renormalised to  150.00000

[...]

     *
     * You are using vdW-DF for exchange-correlation in this calculation.
     * Please cite the following three references that made this development
     * possible:
     *
     *   M. Dion, H. Rydberg, E. Schroder, D. C. Langreth, and
     *   B. I. Lundqvist, Phys. Rev. Lett. 92, 246401 (2004).
     *
     *   T. Thonhauser, V. R. Cooper, S. Li, A. Puzder, P. Hyldgaard, and
     *   D. C. Langreth, Phys. Rev. B 76, 125112 (2007).
     *
     *   G. Roman-Perez and J. M. Soler, Phys. Rev. Lett. 103, 096102 (2009).
     *
     *
     * If you are using vdW-DF2, please also cite:
     *
     *   K. Lee, E. D. Murray, L. Kong, B. I. Lundqvist, and
     *   D. C. Langreth, Phys. Rev. B 82, 081101(R) (2010).
     *
     *
     * If you are calculating the stress with vdW-DF, please also cite:
     *
     *   R. Sabatini, E. Kucukbenli, B. Kolb, T. Thonhauser, and
     *   S. de Gironcoli, J. Phys.: Condens. Matter 24, 424209 (2012).
     *

     Carrying out vdW-DF run using the following parameters:

     Nqs =      20    Nr_points =    1024   r_max =   100.000
     q_mesh =
               0.00001000     0.04494208     0.09755937     0.15916263
               0.23128650     0.31572767     0.41458969     0.53033537
               0.66584808     0.82450364     1.01025438     1.22772762
               1.48234092     1.78043706     2.12944203     2.53805004
               3.01644009     3.57652955     4.23227104     5.00000000

     Gradients computed in reciprocal space

[...]

     Starting wfc are  132 randomized atomic wfcs

     Self-consistent Calculation

[...]

     total energy              =   -1555.34877959 Ry
     Harris-Foulkes estimate   =   -1555.34878279 Ry
     estimated scf accuracy    <       0.00000171 Ry

     iteration # 17     ecut=    36.75 Ry     beta=0.10
     Davidson diagonalization with overlap
     ethr =  1.14E-09,  avg # of iterations =  2.1

[...]

     negative rho (up, down):  7.230E-01 0.000E+00

     Adding external electric field

     Computed dipole along edir(3) :
        Dipole               -0.0149 Ry au,         -0.0378 Debye
        Dipole field         -0.0000 Ry au

        Potential amp.        0.0032 Ry
        Total length         45.8618 bohr

     End of self-consistent calculation

[...]

          k = 0.0580 0.0000 0.0000 ( 19859 PWs)   bands (ev):

[...]

          k =-0.0870-0.1369 0.0000 ( 19878 PWs)   bands (ev):

   -67.4004 -67.4004 -67.1881 -67.1881 -66.9253 -66.9253 -33.8972 -33.8972
   -33.7802 -33.7802 -33.6833 -33.6833 -33.5830 -33.5830 -33.5442 -33.5442
   -33.4066 -33.4066 -33.4058 -33.4058 -33.2445 -33.2445 -32.9727 -32.9727
    -7.8587  -7.8587  -7.7397  -7.7397  -7.6822  -7.6822  -7.6082  -7.6082
    -7.5515  -7.5515  -7.3736  -7.3736  -7.3428  -7.3427  -7.2801  -7.2801
    -7.2583  -7.2583  -7.2349  -7.2349  -7.2033  -7.2032  -7.1693  -7.1693
    -7.0979  -7.0979  -7.0660  -7.0660  -6.9985  -6.9985  -4.8929  -4.8929
    -3.3876  -3.3876  -2.2742  -2.2742  -1.4807  -1.4806  -0.6083  -0.6083
     0.0041   0.0041   0.3629   0.3629   0.6836   0.6836   0.8178   0.8178
     1.0676   1.0676   1.4116   1.4117   1.5538   1.5538   1.8085   1.8085
     2.3494   2.3495   2.4251   2.4251   3.0994   3.0995   3.3806   3.3806
     3.9924   3.9924   4.0980   4.0980   4.2810   4.2810   4.8261   4.8262
     5.3373   5.3373   6.2861   6.2861   6.6456   6.6457   6.8735   6.8736
     7.1130

     the Fermi energy is     1.2971 ev

!    total energy              =   -1555.34877129 Ry
     Harris-Foulkes estimate   =   -1555.34877990 Ry
     estimated scf accuracy    <       0.00000044 Ry

     The total energy is the sum of the following terms:

     one-electron contribution =  -10203.46943995 Ry
     hartree contribution      =    5139.71615606 Ry
     xc contribution           =    -506.13768453 Ry
     ewald contribution        =    4014.60693767 Ry
     electric field correction =       0.00000053 Ry
     smearing contrib. (-TS)   =      -0.06474105 Ry

     convergence has been achieved in  17 iterations

 BEEF-vdW xc energy contributions
           1 :   -444.770792089301
           2 :    409.092247849500
           3 :   -347.627201630827
           4 :    275.942928013966
           5 :   -209.205783835230
           6 :    157.135772572832
           7 :   -122.003038603143
           8 :    100.045780874147
           9 :   -85.0302391883927
          10 :    71.8680930904858
          11 :   -58.5693648549794
          12 :    45.9933168455995
          13 :   -36.1130631032188
          14 :    30.1361492929938
          15 :   -27.5921934141305
          16 :    26.7029892811761
          17 :   -25.5438074050697
          18 :    23.1398939853964
          19 :   -19.8388790165205
          20 :    16.8410368748778
          21 :   -15.2854802744763
          22 :    15.4972186407188
          23 :   -16.8262047293201
          24 :    18.1019012812897
          25 :   -18.3559257885199
          26 :    17.3495444274864
          27 :   -15.6168085767092
          28 :    14.0555772622350
          29 :   -13.3600293728032
          30 :    13.6446757532971
          31 :   -39.8135106996638
          32 :   -29.3546801682139

     Forces acting on atoms (Ry/au):

     negative rho (up, down):  7.230E-01 0.000E+00
     atom    1 type  1   force =    -0.00000058   -0.00608602   -0.02920653
     atom    2 type  1   force =    -0.00000214   -0.00607997   -0.02920017
     atom    3 type  2   force =    -0.00000004    0.01956315    0.03360218
     atom    4 type  2   force =    -0.00000034    0.01956350    0.03360247
     atom    5 type  1   force =     0.00000832    0.00744166    0.00900815
     atom    6 type  1   force =     0.00000156    0.00744502    0.00901628
     atom    7 type  2   force =     0.00000002   -0.02087895   -0.01308703
     atom    8 type  2   force =     0.00000008   -0.02087986   -0.01308753
     atom    9 type  1   force =    -0.00000248   -0.00031578   -0.00005914
     atom   10 type  1   force =    -0.00000505   -0.00031073   -0.00005415
     atom   11 type  2   force =     0.00000028    0.00027111   -0.00026746
     atom   12 type  2   force =     0.00000036    0.00026687   -0.00026706

     Total force =     0.079319     Total SCF correction =     0.002524

     entering subroutine stress ...

     negative rho (up, down):  7.230E-01 0.000E+00
          total   stress  (Ry/bohr**3)                   (kbar)     P=  -17.43
  -0.00017234  -0.00000000  -0.00000000        -25.35     -0.00     -0.00
  -0.00000000  -0.00013767  -0.00002265         -0.00    -20.25     -3.33
  -0.00000000  -0.00002265  -0.00004551         -0.00     -3.33     -6.70

 !ASE

     Writing output data file calc.save

     General routines

     Parallel routines

   This run was terminated on:  22:26:42  18Dec2018

   JOB DONE.
Job  /afs/slac/g/suncat/bin/suncat-tsmpirun -x LD_LIBRARY_PATH -wdir /scratch/qe529656_bb5I5 pw.x -in pw.inp

TID   HOST_NAME   COMMAND_LINE            STATUS            TERMINATION_TIME
00000 suncat0028 pw.x -in pw.inp   Done                     12/18/2018 22:26:42
00001 suncat0028 pw.x -in pw.inp   Done                     12/18/2018 22:26:42
00002 suncat0028 pw.x -in pw.inp   Done                     12/18/2018 22:26:42
00003 suncat0028 pw.x -in pw.inp   Done                     12/18/2018 22:26:42
00004 suncat0028 pw.x -in pw.inp   Done                     12/18/2018 22:26:42
00005 suncat0028 pw.x -in pw.inp   Done                     12/18/2018 22:26:42
00006 suncat0028 pw.x -in pw.inp   Done                     12/18/2018 22:26:42
00007 suncat0028 pw.x -in pw.inp   Done                     12/18/2018 22:26:42
00008 suncat0027 pw.x -in pw.inp   Done                     12/18/2018 22:26:42
00009 suncat0027 pw.x -in pw.inp   Done                     12/18/2018 22:26:42
00010 suncat0027 pw.x -in pw.inp   Done                     12/18/2018 22:26:42
00011 suncat0027 pw.x -in pw.inp   Done                     12/18/2018 22:26:42
00012 suncat0027 pw.x -in pw.inp   Done                     12/18/2018 22:26:42
00013 suncat0027 pw.x -in pw.inp   Done                     12/18/2018 22:26:42
00014 suncat0027 pw.x -in pw.inp   Done                     12/18/2018 22:26:42
00015 suncat0027 pw.x -in pw.inp   Done                     12/18/2018 22:26:42
00016 suncat0026 pw.x -in pw.inp   Done                     12/18/2018 22:26:42
00017 suncat0026 pw.x -in pw.inp   Done                     12/18/2018 22:26:42
00018 suncat0026 pw.x -in pw.inp   Done                     12/18/2018 22:26:42
00019 suncat0026 pw.x -in pw.inp   Done                     12/18/2018 22:26:42
00020 suncat0026 pw.x -in pw.inp   Done                     12/18/2018 22:26:42
00021 suncat0026 pw.x -in pw.inp   Done                     12/18/2018 22:26:42
00022 suncat0026 pw.x -in pw.inp   Done                     12/18/2018 22:26:42
00023 suncat0026 pw.x -in pw.inp   Done                     12/18/2018 22:26:42
00024 suncat0025 pw.x -in pw.inp   Done                     12/18/2018 22:26:42
00025 suncat0025 pw.x -in pw.inp   Done                     12/18/2018 22:26:42
00026 suncat0025 pw.x -in pw.inp   Done                     12/18/2018 22:26:42
00027 suncat0025 pw.x -in pw.inp   Done                     12/18/2018 22:26:42
00028 suncat0025 pw.x -in pw.inp   Done                     12/18/2018 22:26:42
00029 suncat0025 pw.x -in pw.inp   Done                     12/18/2018 22:26:42
00030 suncat0025 pw.x -in pw.inp   Done                     12/18/2018 22:26:42
00031 suncat0025 pw.x -in pw.inp   Done                     12/18/2018 22:26:42