     Program PWSCF v.5.1rc2 (svn rev. 11289) starts on 18Dec2018 at 16:51:53

     Current dimensions of program PWSCF are:
     Max number of different atomic species (ntypx) = 10
     Max number of k-points (npk) =  40000
     Max angular momentum in pseudopotentials (lmaxx) =  3
     Presently stress not available with electric field

     IMPORTANT: XC functional enforced from input :
     Exchange-correlation      = BEEF-VDW ( 1  4 27 13 2)
     Any further DFT definition will be discarded
     Please, verify this is what you really want

     Subspace diagonalization in iterative solution of the eigenvalue problem:
     a serial algorithm will be used

     Found symmetry operation: I + (  0.5000 -0.5000  0.0000)
     This is a supercell, fractional translations are disabled

     Generating pointlists ...
     new r_m :   0.4125 (alat units)  0.7795 (a.u.) for type    1
     new r_m :   0.4125 (alat units)  0.7795 (a.u.) for type    2

     bravais-lattice index     =            0
     lattice parameter (alat)  =       1.8897  a.u.
     unit-cell volume          =    5137.3923 (a.u.)^3
     number of atoms/cell      =           12
     number of atomic types    =            2
     number of electrons       =       162.00
     number of Kohn-Sham states=          111
     kinetic-energy cutoff     =      36.7493  Ry
     charge density cutoff     =     367.4932  Ry
     convergence threshold     =      1.0E-06
     mixing beta               =       0.1000
     number of iterations used =           10  plain     mixing
     Exchange-correlation      = BEEF-VDW ( 1  4 27 13 2)
     nstep                     =           50

     celldm(1)=   1.889726  celldm(2)=   0.000000  celldm(3)=   0.000000
     celldm(4)=   0.000000  celldm(5)=   0.000000  celldm(6)=   0.000000

     crystal axes: (cart. coord. in units of alat)
               a(1) = (   5.884909   0.000000   0.000000 )
               a(2) = (   2.744132   5.205948   0.000000 )
               a(3) = (   0.000000   0.000000  24.848861 )

     reciprocal axes: (cart. coord. in units 2 pi/alat)
               b(1) = (  0.169926 -0.089571  0.000000 )
               b(2) = (  0.000000  0.192088  0.000000 )
               b(3) = (  0.000000  0.000000  0.040243 )

     PseudoPot. # 1 for Mn read from file:
     /afs/slac.stanford.edu/u/if/mamunm/psp/gbrv1.5pbe/Mn.UPF
     MD5 check sum: 82ef2b46521d7a7d9e736dc3972e4928
     Pseudo is Ultrasoft + core correction, Zval = 15.0
     Generated by new atomic code, or converted to UPF format
     Using radial grid of  859 points,  6 beta functions with:
                l(1) =   0
                l(2) =   0
                l(3) =   1
                l(4) =   1
                l(5) =   2
                l(6) =   2
     Q(r) pseudized with  8 coefficients,  rinner =    0.950   0.950   0.950
                                                       0.950   0.950

     PseudoPot. # 2 for Cd read from file:
     /afs/slac.stanford.edu/u/if/mamunm/psp/gbrv1.5pbe/Cd.UPF
     MD5 check sum: 17164a7926edb8e0dc231208abae86a6
     Pseudo is Ultrasoft + core correction, Zval = 12.0
     Generated by new atomic code, or converted to UPF format
     Using radial grid of  889 points,  6 beta functions with:
                l(1) =   0
                l(2) =   0
                l(3) =   1
                l(4) =   1
                l(5) =   2
                l(6) =   2
     Q(r) pseudized with  6 coefficients,  rinner =    1.000   1.000   1.000
                                                       1.000   1.000

     vdW kernel table read from file vdW_kernel_table
     MD5 check sum: 095c7af220d748ca6e76c0b4c6cfb241

     atomic species   valence    mass     pseudopotential
        Mn1           15.00    54.93804     Mn( 1.00)
        Cd1           12.00   112.41400     Cd( 1.00)

     Starting magnetic structure
     atomic species   magnetization
        Mn1          0.133
        Cd1          0.167

     No symmetry found

   Cartesian axes

     site n.     atom                  positions (alat units)
         1           Mn1 tau(   1) = (   0.0000000   0.0000000  10.0000000  )
         2           Mn1 tau(   2) = (   4.3145207   2.6029742  10.0000000  )
         3           Cd1 tau(   3) = (   2.9424547   0.0000000  10.0000000  )
         4           Cd1 tau(   4) = (   1.3720659   2.6029742  10.0000000  )
         5           Mn1 tau(   5) = (   5.8849095   3.5503985  12.4244303  )
         6           Mn1 tau(   6) = (   1.5703888   0.9474243  12.4244303  )
         7           Cd1 tau(   7) = (   2.9424547   3.5503985  12.4244303  )
         8           Cd1 tau(   8) = (   4.5128435   0.9474243  12.4244303  )
         9           Mn1 tau(   9) = (   3.1407776   1.8948486  14.8488606  )
        10           Mn1 tau(  10) = (   7.4552983   4.4978228  14.8488606  )
        11           Cd1 tau(  11) = (   6.0832323   1.8948486  14.8488606  )
        12           Cd1 tau(  12) = (   4.5128435   4.4978228  14.8488606  )

     number of k points=    40  Fermi-Dirac smearing, width (Ry)=  0.0110
                       cart. coord. in units 2pi/alat
        k(    1) = (   0.0000000   0.0000000   0.0000000), wk =   0.0277778
        k(    2) = (   0.0000000   0.0320147   0.0000000), wk =   0.0555556
        k(    3) = (   0.0000000   0.0640293   0.0000000), wk =   0.0555556
        k(    4) = (   0.0000000  -0.0960440   0.0000000), wk =   0.0277778
        k(    5) = (   0.0283210  -0.0149284   0.0000000), wk =   0.0555556
        k(    6) = (   0.0283210   0.0170862   0.0000000), wk =   0.0555556
        k(    7) = (   0.0283210   0.0491009   0.0000000), wk =   0.0555556
        k(    8) = (   0.0283210  -0.1109724   0.0000000), wk =   0.0555556
        k(    9) = (   0.0283210  -0.0789577   0.0000000), wk =   0.0555556
        k(   10) = (   0.0283210  -0.0469431   0.0000000), wk =   0.0555556
        k(   11) = (   0.0566420  -0.0298569   0.0000000), wk =   0.0555556
        k(   12) = (   0.0566420   0.0021578   0.0000000), wk =   0.0555556
        k(   13) = (   0.0566420   0.0341725   0.0000000), wk =   0.0555556
        k(   14) = (   0.0566420  -0.1259008   0.0000000), wk =   0.0555556
        k(   15) = (   0.0566420  -0.0938862   0.0000000), wk =   0.0555556
        k(   16) = (   0.0566420  -0.0618715   0.0000000), wk =   0.0555556
        k(   17) = (  -0.0849631   0.0447853   0.0000000), wk =   0.0277778
        k(   18) = (  -0.0849631   0.0767999   0.0000000), wk =   0.0555556
        k(   19) = (  -0.0849631   0.1088146   0.0000000), wk =   0.0555556
        k(   20) = (  -0.0849631  -0.0512587   0.0000000), wk =   0.0277778
        k(   21) = (   0.0000000   0.0000000   0.0000000), wk =   0.0277778
        k(   22) = (   0.0000000   0.0320147   0.0000000), wk =   0.0555556
        k(   23) = (   0.0000000   0.0640293   0.0000000), wk =   0.0555556
        k(   24) = (   0.0000000  -0.0960440   0.0000000), wk =   0.0277778
        k(   25) = (   0.0283210  -0.0149284   0.0000000), wk =   0.0555556
        k(   26) = (   0.0283210   0.0170862   0.0000000), wk =   0.0555556
        k(   27) = (   0.0283210   0.0491009   0.0000000), wk =   0.0555556
        k(   28) = (   0.0283210  -0.1109724   0.0000000), wk =   0.0555556
        k(   29) = (   0.0283210  -0.0789577   0.0000000), wk =   0.0555556
        k(   30) = (   0.0283210  -0.0469431   0.0000000), wk =   0.0555556
        k(   31) = (   0.0566420  -0.0298569   0.0000000), wk =   0.0555556
        k(   32) = (   0.0566420   0.0021578   0.0000000), wk =   0.0555556
        k(   33) = (   0.0566420   0.0341725   0.0000000), wk =   0.0555556
        k(   34) = (   0.0566420  -0.1259008   0.0000000), wk =   0.0555556
        k(   35) = (   0.0566420  -0.0938862   0.0000000), wk =   0.0555556
        k(   36) = (   0.0566420  -0.0618715   0.0000000), wk =   0.0555556
        k(   37) = (  -0.0849631   0.0447853   0.0000000), wk =   0.0277778
        k(   38) = (  -0.0849631   0.0767999   0.0000000), wk =   0.0555556
        k(   39) = (  -0.0849631   0.1088146   0.0000000), wk =   0.0555556
        k(   40) = (  -0.0849631  -0.0512587   0.0000000), wk =   0.0277778

     Largest allocated arrays     est. size (Mb)     dimensions
     Largest temporary arrays     est. size (Mb)     dimensions

     Check: negative/imaginary core charge=   -0.000004    0.000000

     Initial potential from superposition of free atoms
     Check: negative starting charge=(component1):   -0.079061
     Check: negative starting charge=(component2):   -0.056527

     starting charge  155.99924, renormalised to  162.00000

     negative rho (up, down):  8.210E-02 5.870E-02

     *
     * You are using vdW-DF for exchange-correlation in this calculation.
     * Please cite the following three references that made this development
     * possible:
     *
     *   M. Dion, H. Rydberg, E. Schroder, D. C. Langreth, and
     *   B. I. Lundqvist, Phys. Rev. Lett. 92, 246401 (2004).
     *
     *   T. Thonhauser, V. R. Cooper, S. Li, A. Puzder, P. Hyldgaard, and
     *   D. C. Langreth, Phys. Rev. B 76, 125112 (2007).
     *
     *   G. Roman-Perez and J. M. Soler, Phys. Rev. Lett. 103, 096102 (2009).
     *
     *
     * If you are using vdW-DF2, please also cite:
     *
     *   K. Lee, E. D. Murray, L. Kong, B. I. Lundqvist, and
     *   D. C. Langreth, Phys. Rev. B 82, 081101(R) (2010).
     *
     *
     * If you are calculating the stress with vdW-DF, please also cite:
     *
     *   R. Sabatini, E. Kucukbenli, B. Kolb, T. Thonhauser, and
     *   S. de Gironcoli, J. Phys.: Condens. Matter 24, 424209 (2012).
     *

     Carrying out vdW-DF run using the following parameters:

     Nqs =      20    Nr_points =    1024   r_max =   100.000
     q_mesh =
               0.00001000     0.04494208     0.09755937     0.15916263
               0.23128650     0.31572767     0.41458969     0.53033537
               0.66584808     0.82450364     1.01025438     1.22772762
               1.48234092     1.78043706     2.12944203     2.53805004
               3.01644009     3.57652955     4.23227104     5.00000000

     Gradients computed in reciprocal space

     Adding external electric field

     Computed dipole along edir(3) :
        Dipole                0.0000 Ry au,          0.0000 Debye
        Dipole field          0.0000 Ry au

        Potential amp.       -0.0000 Ry
        Total length         45.7836 bohr

[...]

     Starting wfc are  132 randomized atomic wfcs

     Self-consistent Calculation

     iteration #  1     ecut=    36.75 Ry     beta=0.10
     Davidson diagonalization with overlap
     ethr =  1.00E-02,  avg # of iterations =  8.7

[...]

     Magnetic moment per site:
     atom:    1    charge:    6.0766    magn:    0.8049    constr:    0.0000
     atom:    2    charge:    6.0766    magn:    0.8049    constr:    0.0000
     atom:    3    charge:    2.3329    magn:    0.3539    constr:    0.0000
     atom:    4    charge:    2.3329    magn:    0.3539    constr:    0.0000
     atom:    5    charge:    6.0903    magn:    0.8049    constr:    0.0000
     atom:    6    charge:    6.0903    magn:    0.8049    constr:    0.0000
[...]
                                                       0.950   0.950

     PseudoPot. # 2 for Cd read from file:
     /afs/slac.stanford.edu/u/if/mamunm/psp/gbrv1.5pbe/Cd.UPF
     MD5 check sum: 17164a7926edb8e0dc231208abae86a6
     Pseudo is Ultrasoft + core correction, Zval = 12.0
     Generated by new atomic code, or converted to UPF format
     Using radial grid of  889 points,  6 beta functions with:
                l(1) =   0
                l(2) =   0
                l(3) =   1
                l(4) =   1
                l(5) =   2
                l(6) =   2
     Q(r) pseudized with  6 coefficients,  rinner =    1.000   1.000   1.000
                                                       1.000   1.000

     vdW kernel table read from file vdW_kernel_table
     MD5 check sum: 095c7af220d748ca6e76c0b4c6cfb241

     atomic species   valence    mass     pseudopotential
        Mn1           15.00    54.93804     Mn( 1.00)
        Cd1           12.00   112.41400     Cd( 1.00)

     Starting magnetic structure
     atomic species   magnetization
        Mn1          0.133
        Cd1          0.167

     No symmetry found

   Cartesian axes

     site n.     atom                  positions (alat units)
         1           Mn1 tau(   1) = (   0.0000000   0.0000000  10.0000000  )
         2           Mn1 tau(   2) = (   4.3145207   2.6029742  10.0000000  )
         3           Cd1 tau(   3) = (   2.9424547   0.0000000  10.0000000  )
         4           Cd1 tau(   4) = (   1.3720659   2.6029742  10.0000000  )
         5           Mn1 tau(   5) = (   5.8849095   3.5503985  12.4244303  )
         6           Mn1 tau(   6) = (   1.5703888   0.9474243  12.4244303  )
         7           Cd1 tau(   7) = (   2.9424547   3.5503985  12.4244303  )
         8           Cd1 tau(   8) = (   4.5128435   0.9474243  12.4244303  )
         9           Mn1 tau(   9) = (   3.1177777   1.8809736  14.8003433  )
        10           Mn1 tau(  10) = (   7.4323069   4.4839511  14.8003076  )
        11           Cd1 tau(  11) = (   6.0818940   1.8939760  15.0084961  )
        12           Cd1 tau(  12) = (   4.5114463   4.4970469  15.0084911  )

     number of k points=    40  Fermi-Dirac smearing, width (Ry)=  0.0110
                       cart. coord. in units 2pi/alat
        k(    1) = (   0.0000000   0.0000000   0.0000000), wk =   0.0277778
        k(    2) = (   0.0000000   0.0320147   0.0000000), wk =   0.0555556
        k(    3) = (   0.0000000   0.0640293   0.0000000), wk =   0.0555556
        k(    4) = (   0.0000000  -0.0960440   0.0000000), wk =   0.0277778
        k(    5) = (   0.0283210  -0.0149284   0.0000000), wk =   0.0555556
        k(    6) = (   0.0283210   0.0170862   0.0000000), wk =   0.0555556
        k(    7) = (   0.0283210   0.0491009   0.0000000), wk =   0.0555556
        k(    8) = (   0.0283210  -0.1109724   0.0000000), wk =   0.0555556
        k(    9) = (   0.0283210  -0.0789577   0.0000000), wk =   0.0555556
        k(   10) = (   0.0283210  -0.0469431   0.0000000), wk =   0.0555556
        k(   11) = (   0.0566420  -0.0298569   0.0000000), wk =   0.0555556
        k(   12) = (   0.0566420   0.0021578   0.0000000), wk =   0.0555556
        k(   13) = (   0.0566420   0.0341725   0.0000000), wk =   0.0555556
        k(   14) = (   0.0566420  -0.1259008   0.0000000), wk =   0.0555556
        k(   15) = (   0.0566420  -0.0938862   0.0000000), wk =   0.0555556
        k(   16) = (   0.0566420  -0.0618715   0.0000000), wk =   0.0555556
        k(   17) = (  -0.0849631   0.0447853   0.0000000), wk =   0.0277778
        k(   18) = (  -0.0849631   0.0767999   0.0000000), wk =   0.0555556
        k(   19) = (  -0.0849631   0.1088146   0.0000000), wk =   0.0555556
        k(   20) = (  -0.0849631  -0.0512587   0.0000000), wk =   0.0277778
        k(   21) = (   0.0000000   0.0000000   0.0000000), wk =   0.0277778
        k(   22) = (   0.0000000   0.0320147   0.0000000), wk =   0.0555556
        k(   23) = (   0.0000000   0.0640293   0.0000000), wk =   0.0555556
        k(   24) = (   0.0000000  -0.0960440   0.0000000), wk =   0.0277778
        k(   25) = (   0.0283210  -0.0149284   0.0000000), wk =   0.0555556
        k(   26) = (   0.0283210   0.0170862   0.0000000), wk =   0.0555556
        k(   27) = (   0.0283210   0.0491009   0.0000000), wk =   0.0555556
        k(   28) = (   0.0283210  -0.1109724   0.0000000), wk =   0.0555556
        k(   29) = (   0.0283210  -0.0789577   0.0000000), wk =   0.0555556
        k(   30) = (   0.0283210  -0.0469431   0.0000000), wk =   0.0555556
        k(   31) = (   0.0566420  -0.0298569   0.0000000), wk =   0.0555556
        k(   32) = (   0.0566420   0.0021578   0.0000000), wk =   0.0555556
        k(   33) = (   0.0566420   0.0341725   0.0000000), wk =   0.0555556
        k(   34) = (   0.0566420  -0.1259008   0.0000000), wk =   0.0555556
        k(   35) = (   0.0566420  -0.0938862   0.0000000), wk =   0.0555556
        k(   36) = (   0.0566420  -0.0618715   0.0000000), wk =   0.0555556
        k(   37) = (  -0.0849631   0.0447853   0.0000000), wk =   0.0277778
        k(   38) = (  -0.0849631   0.0767999   0.0000000), wk =   0.0555556
        k(   39) = (  -0.0849631   0.1088146   0.0000000), wk =   0.0555556
        k(   40) = (  -0.0849631  -0.0512587   0.0000000), wk =   0.0277778

     Largest allocated arrays     est. size (Mb)     dimensions
     Largest temporary arrays     est. size (Mb)     dimensions

     Check: negative/imaginary core charge=   -0.000004    0.000000

     Initial potential from superposition of free atoms
     Check: negative starting charge=(component1):   -0.079213
     Check: negative starting charge=(component2):   -0.056636

     starting charge  155.99924, renormalised to  162.00000

[...]

     *
     * You are using vdW-DF for exchange-correlation in this calculation.
     * Please cite the following three references that made this development
     * possible:
     *
     *   M. Dion, H. Rydberg, E. Schroder, D. C. Langreth, and
     *   B. I. Lundqvist, Phys. Rev. Lett. 92, 246401 (2004).
     *
     *   T. Thonhauser, V. R. Cooper, S. Li, A. Puzder, P. Hyldgaard, and
     *   D. C. Langreth, Phys. Rev. B 76, 125112 (2007).
     *
     *   G. Roman-Perez and J. M. Soler, Phys. Rev. Lett. 103, 096102 (2009).
     *
     *
     * If you are using vdW-DF2, please also cite:
     *
     *   K. Lee, E. D. Murray, L. Kong, B. I. Lundqvist, and
     *   D. C. Langreth, Phys. Rev. B 82, 081101(R) (2010).
     *
     *
     * If you are calculating the stress with vdW-DF, please also cite:
     *
     *   R. Sabatini, E. Kucukbenli, B. Kolb, T. Thonhauser, and
     *   S. de Gironcoli, J. Phys.: Condens. Matter 24, 424209 (2012).
     *

     Carrying out vdW-DF run using the following parameters:

     Nqs =      20    Nr_points =    1024   r_max =   100.000
     q_mesh =
               0.00001000     0.04494208     0.09755937     0.15916263
               0.23128650     0.31572767     0.41458969     0.53033537
               0.66584808     0.82450364     1.01025438     1.22772762
               1.48234092     1.78043706     2.12944203     2.53805004
               3.01644009     3.57652955     4.23227104     5.00000000

     Gradients computed in reciprocal space

[...]

     Starting wfc are  132 randomized atomic wfcs

     Self-consistent Calculation

[...]

     iteration # 22     ecut=    36.75 Ry     beta=0.10
     Davidson diagonalization with overlap
     c_bands:  1 eigenvalues not converged
     ethr =  1.62E-08,  avg # of iterations =  2.2

[...]

     total energy              =   -1969.01310334 Ry
     Harris-Foulkes estimate   =   -1969.01310051 Ry
     estimated scf accuracy    <       0.00000135 Ry

[...]

     iteration # 26     ecut=    36.75 Ry     beta=0.10
     Davidson diagonalization with overlap
     ethr =  8.31E-10,  avg # of iterations =  2.5

[...]

     negative rho (up, down):  7.080E-02 7.110E-02

[...]

     Adding external electric field

     Computed dipole along edir(3) :
        Dipole               -0.0123 Ry au,         -0.0313 Debye
        Dipole field         -0.0000 Ry au

        Potential amp.        0.0028 Ry
        Total length         45.7836 bohr

     Magnetic moment per site:
     atom:    1    charge:    6.0161    magn:    1.5698    constr:    0.0000
     atom:    2    charge:    6.0161    magn:    1.5698    constr:    0.0000
     atom:    3    charge:    2.2898    magn:    0.0044    constr:    0.0000
     atom:    4    charge:    2.2898    magn:    0.0044    constr:    0.0000
     atom:    5    charge:    6.0166    magn:    1.5064    constr:    0.0000
     atom:    6    charge:    6.0166    magn:    1.5064    constr:    0.0000
     atom:    7    charge:    2.2920    magn:    0.0034    constr:    0.0000
     atom:    8    charge:    2.2920    magn:    0.0034    constr:    0.0000
     atom:    9    charge:    6.0153    magn:    1.5632    constr:    0.0000
     atom:   10    charge:    6.0153    magn:    1.5632    constr:    0.0000
     atom:   11    charge:    2.2915    magn:    0.0038    constr:    0.0000
     atom:   12    charge:    2.2915    magn:    0.0038    constr:    0.0000

     End of self-consistent calculation

 ------ SPIN UP ------------

[...]

 ------ SPIN DOWN ----------

[...]

          k = 0.0566-0.0619 0.0000 ( 19361 PWs)   bands (ev):

[...]

          k =-0.0850-0.0513 0.0000 ( 19362 PWs)   bands (ev):

   -76.7162 -76.7124 -76.6975 -76.6938 -76.6394 -76.6355 -45.5416 -45.5367
   -45.5213 -45.5163 -45.5133 -45.5085 -45.5043 -45.4948 -45.4900 -45.4871
   -45.4789 -45.4740 -45.4524 -45.4402 -45.4354 -45.4078 -45.4032 -45.3877
    -8.8942  -8.7527  -8.7253  -8.6672  -8.6353  -8.5116  -8.5090  -8.4896
    -8.4851  -8.4499  -8.4364  -8.4109  -8.2735  -8.2378  -8.2052  -8.1623
    -8.1394  -8.1319  -8.1046  -8.1032  -8.0808  -8.0438  -8.0329  -7.9567
    -7.9285  -7.9223  -7.8966  -7.8512  -7.7519  -7.5838  -5.5523  -5.1932
    -3.7810  -3.3155  -2.5973  -2.4467  -1.6096  -1.5454  -1.1252  -0.9433
    -0.3658  -0.3466   0.1168   0.2294   0.2713   0.4270   0.4764   0.5306
     0.7558   0.7863   0.9417   1.0363   1.4955   1.5775   1.7278   1.7682
     1.7850   1.8342   1.8804   1.9247   1.9393   2.0107   2.0719   2.1256
     2.2268   2.2535   2.4930   2.5464   2.8503   3.0489   3.2177   3.2608
     3.5258   3.7032   4.9232   4.9291   5.0837   5.3086   5.4515   5.6128
     5.7101   5.8136   6.0688   6.1988   6.2356   6.2911   6.8439

     the Fermi energy is     0.5680 ev

!    total energy              =   -1969.01311599 Ry
     Harris-Foulkes estimate   =   -1969.01310379 Ry
     estimated scf accuracy    <       0.00000056 Ry

     The total energy is the sum of the following terms:

     one-electron contribution =  -12928.57100897 Ry
     hartree contribution      =    6506.38380640 Ry
     xc contribution           =    -410.79530776 Ry
     ewald contribution        =    4864.03160343 Ry
     electric field correction =       0.00000037 Ry
     smearing contrib. (-TS)   =      -0.06220946 Ry

     total magnetization       =    24.08 Bohr mag/cell
     absolute magnetization    =    25.72 Bohr mag/cell

     convergence has been achieved in  26 iterations

 BEEF-vdW xc energy contributions
           1 :   -359.509520310197
           2 :    326.886738160973
           3 :   -272.593318547890
           4 :    212.720061685962
           5 :   -161.048128589001
           6 :    124.355763900417
           7 :   -102.117539348304
           8 :    89.3440702781180
           9 :   -80.2355061366979
          10 :    70.8587850299865
          11 :   -60.1346323790691
          12 :    49.2857325486543
          13 :   -40.3942251899064
          14 :    34.8678505485909
          15 :   -32.5366966136078
          16 :    31.7967447741027
          17 :   -30.6739294304846
          18 :    28.0861391662595
          19 :   -24.4208779624579
          20 :    21.0545071847640
          21 :   -19.2465313814881
          22 :    19.2546335711810
          23 :   -20.2517427852614
          24 :    20.9796295372494
          25 :   -20.5881668753773
          26 :    19.0827013793854
          27 :   -17.1697682781587
          28 :    15.7152630367596
          29 :   -15.2176680830575
          30 :    15.5844736970840
          31 :   -32.2169305387599
          32 :   -23.1566633825129

     Forces acting on atoms (Ry/au):

     negative rho (up, down):  7.080E-02 7.110E-02
     atom    1 type  1   force =     0.00391172    0.00235980    0.00445488
     atom    2 type  1   force =     0.00390670    0.00235714    0.00445456
     atom    3 type  2   force =    -0.00273121   -0.00162396   -0.01360936
     atom    4 type  2   force =    -0.00270959   -0.00165987   -0.01360924
     atom    5 type  1   force =    -0.00254280   -0.00153406    0.00618648
     atom    6 type  1   force =    -0.00255024   -0.00153841    0.00617854
     atom    7 type  2   force =     0.00318514    0.00194371    0.00213495
     atom    8 type  2   force =     0.00320521    0.00191239    0.00213579
     atom    9 type  1   force =    -0.00072995   -0.00044046    0.00017492
     atom   10 type  1   force =    -0.00073215   -0.00044136    0.00017913
     atom   11 type  2   force =    -0.00110512   -0.00066979    0.00065978
     atom   12 type  2   force =    -0.00110771   -0.00066513    0.00065957

     Total force =     0.024675     Total SCF correction =     0.002154

     entering subroutine stress ...

     negative rho (up, down):  7.080E-02 7.110E-02
          total   stress  (Ry/bohr**3)                   (kbar)     P=   -7.02
  -0.00006686   0.00000566  -0.00000618         -9.84      0.83     -0.91
   0.00000566  -0.00007283  -0.00000373          0.83    -10.71     -0.55
  -0.00000618  -0.00000373  -0.00000354         -0.91     -0.55     -0.52

 !ASE

     Writing output data file calc.save

     General routines

     Parallel routines

   This run was terminated on:  20: 2:49  18Dec2018

   JOB DONE.
Job  /afs/slac/g/suncat/bin/suncat-tsmpirun -x LD_LIBRARY_PATH -wdir /scratch/qe530199_YA9tU pw.x -in pw.inp

TID   HOST_NAME   COMMAND_LINE            STATUS            TERMINATION_TIME
00000 suncat2032 pw.x -in pw.inp   Done                     12/18/2018 20:02:49
00001 suncat2032 pw.x -in pw.inp   Done                     12/18/2018 20:02:49
00002 suncat2032 pw.x -in pw.inp   Done                     12/18/2018 20:02:49
00003 suncat2032 pw.x -in pw.inp   Done                     12/18/2018 20:02:49
00004 suncat2032 pw.x -in pw.inp   Done                     12/18/2018 20:02:49
00005 suncat2032 pw.x -in pw.inp   Done                     12/18/2018 20:02:49
00006 suncat2032 pw.x -in pw.inp   Done                     12/18/2018 20:02:49
00007 suncat2032 pw.x -in pw.inp   Done                     12/18/2018 20:02:49
00008 suncat2032 pw.x -in pw.inp   Done                     12/18/2018 20:02:49
00009 suncat2032 pw.x -in pw.inp   Done                     12/18/2018 20:02:49
00010 suncat2032 pw.x -in pw.inp   Done                     12/18/2018 20:02:49
00011 suncat2032 pw.x -in pw.inp   Done                     12/18/2018 20:02:49
00012 suncat2032 pw.x -in pw.inp   Done                     12/18/2018 20:02:49
00013 suncat2032 pw.x -in pw.inp   Done                     12/18/2018 20:02:49
00014 suncat2032 pw.x -in pw.inp   Done                     12/18/2018 20:02:49
00015 suncat2032 pw.x -in pw.inp   Done                     12/18/2018 20:02:49
00016 suncat2031 pw.x -in pw.inp   Done                     12/18/2018 20:02:49
00017 suncat2031 pw.x -in pw.inp   Done                     12/18/2018 20:02:49
00018 suncat2031 pw.x -in pw.inp   Done                     12/18/2018 20:02:49
00019 suncat2031 pw.x -in pw.inp   Done                     12/18/2018 20:02:49
00020 suncat2031 pw.x -in pw.inp   Done                     12/18/2018 20:02:49
00021 suncat2031 pw.x -in pw.inp   Done                     12/18/2018 20:02:49
00022 suncat2031 pw.x -in pw.inp   Done                     12/18/2018 20:02:49
00023 suncat2031 pw.x -in pw.inp   Done                     12/18/2018 20:02:49
00024 suncat2031 pw.x -in pw.inp   Done                     12/18/2018 20:02:49
00025 suncat2031 pw.x -in pw.inp   Done                     12/18/2018 20:02:49
00026 suncat2031 pw.x -in pw.inp   Done                     12/18/2018 20:02:49
00027 suncat2031 pw.x -in pw.inp   Done                     12/18/2018 20:02:49
00028 suncat2031 pw.x -in pw.inp   Done                     12/18/2018 20:02:49
00029 suncat2031 pw.x -in pw.inp   Done                     12/18/2018 20:02:49
00030 suncat2031 pw.x -in pw.inp   Done                     12/18/2018 20:02:49
00031 suncat2031 pw.x -in pw.inp   Done                     12/18/2018 20:02:49