     Program PWSCF v.5.1rc2 (svn rev. 11289) starts on 18Dec2018 at 18: 8:28

     Current dimensions of program PWSCF are:
     Max number of different atomic species (ntypx) = 10
     Max number of k-points (npk) =  40000
     Max angular momentum in pseudopotentials (lmaxx) =  3
     Presently stress not available with electric field

     IMPORTANT: XC functional enforced from input :
     Exchange-correlation      = BEEF-VDW ( 1  4 27 13 2)
     Any further DFT definition will be discarded
     Please, verify this is what you really want

     Subspace diagonalization in iterative solution of the eigenvalue problem:
     a serial algorithm will be used

     Found symmetry operation: I + ( -0.5000  0.0000  0.0000)
     This is a supercell, fractional translations are disabled

     bravais-lattice index     =            0
     lattice parameter (alat)  =       1.8897  a.u.
     unit-cell volume          =    5034.0780 (a.u.)^3
     number of atoms/cell      =           12
     number of atomic types    =            2
     number of electrons       =       156.00
     number of Kohn-Sham states=          108
     kinetic-energy cutoff     =      36.7493  Ry
     charge density cutoff     =     367.4932  Ry
     convergence threshold     =      1.0E-06
     mixing beta               =       0.1000
     number of iterations used =           10  plain     mixing
     Exchange-correlation      = BEEF-VDW ( 1  4 27 13 2)
     nstep                     =           50

     celldm(1)=   1.889726  celldm(2)=   0.000000  celldm(3)=   0.000000
     celldm(4)=   0.000000  celldm(5)=   0.000000  celldm(6)=   0.000000

     crystal axes: (cart. coord. in units of alat)
               a(1) = (   5.547346   0.000000   0.000000 )
               a(2) = (  -2.773673   5.429171   0.000000 )
               a(3) = (   0.000000   0.000000  24.768776 )

     reciprocal axes: (cart. coord. in units 2 pi/alat)
               b(1) = (  0.180266  0.092095  0.000000 )
               b(2) = (  0.000000  0.184190  0.000000 )
               b(3) = (  0.000000  0.000000  0.040373 )

     PseudoPot. # 1 for Mo read from file:
     /afs/slac.stanford.edu/u/if/mamunm/psp/gbrv1.5pbe/Mo.UPF
     MD5 check sum: 30c4dcd161f5d35cd49bb5239c51a633
     Pseudo is Ultrasoft + core correction, Zval = 14.0
     Generated by new atomic code, or converted to UPF format
     Using radial grid of  889 points,  6 beta functions with:
                l(1) =   0
                l(2) =   0
                l(3) =   1
                l(4) =   1
                l(5) =   2
                l(6) =   2
     Q(r) pseudized with  6 coefficients,  rinner =    1.000   1.000   1.000
                                                       1.000   1.000

     PseudoPot. # 2 for Cd read from file:
     /afs/slac.stanford.edu/u/if/mamunm/psp/gbrv1.5pbe/Cd.UPF
     MD5 check sum: 17164a7926edb8e0dc231208abae86a6
     Pseudo is Ultrasoft + core correction, Zval = 12.0
     Generated by new atomic code, or converted to UPF format
     Using radial grid of  889 points,  6 beta functions with:
                l(1) =   0
                l(2) =   0
                l(3) =   1
                l(4) =   1
                l(5) =   2
                l(6) =   2
     Q(r) pseudized with  6 coefficients,  rinner =    1.000   1.000   1.000
                                                       1.000   1.000

     vdW kernel table read from file vdW_kernel_table
     MD5 check sum: 095c7af220d748ca6e76c0b4c6cfb241

     atomic species   valence    mass     pseudopotential
        Mo1           14.00    95.95000     Mo( 1.00)
        Cd1           12.00   112.41400     Cd( 1.00)

     No symmetry found

   Cartesian axes

     site n.     atom                  positions (alat units)
         1           Mo1 tau(   1) = (   0.0000000   0.0000000  10.0000000  )
         2           Mo1 tau(   2) = (   2.7736731   0.0000000  10.0000000  )
         3           Cd1 tau(   3) = (   1.3868366   2.7145855  10.0000000  )
         4           Cd1 tau(   4) = (  -1.3868366   2.7145855  10.0000000  )
         5           Mo1 tau(   5) = (   2.7736731   1.4170234  12.3843882  )
         6           Mo1 tau(   6) = (  -0.0000000   1.4170234  12.3843882  )
         7           Cd1 tau(   7) = (  -1.3868366   4.1316089  12.3843882  )
         8           Cd1 tau(   8) = (   1.3868366   4.1316089  12.3843882  )
         9           Mo1 tau(   9) = (   0.0000000   2.8340469  14.7687764  )
        10           Mo1 tau(  10) = (   2.7736731   2.8340469  14.7687764  )
        11           Cd1 tau(  11) = (   4.1605097   0.1194614  14.7687764  )
        12           Cd1 tau(  12) = (   1.3868366   0.1194614  14.7687764  )

     number of k points=    20  Fermi-Dirac smearing, width (Ry)=  0.0110
                       cart. coord. in units 2pi/alat
        k(    1) = (   0.0000000   0.0000000   0.0000000), wk =   0.0555556
        k(    2) = (   0.0000000   0.0306984   0.0000000), wk =   0.1111111
        k(    3) = (   0.0000000   0.0613967   0.0000000), wk =   0.1111111
        k(    4) = (   0.0000000  -0.0920951   0.0000000), wk =   0.0555556
        k(    5) = (   0.0300444   0.0153492   0.0000000), wk =   0.1111111
        k(    6) = (   0.0300444   0.0460475   0.0000000), wk =   0.1111111
        k(    7) = (   0.0300444   0.0767459   0.0000000), wk =   0.1111111
        k(    8) = (   0.0300444  -0.0767459   0.0000000), wk =   0.1111111
        k(    9) = (   0.0300444  -0.0460475   0.0000000), wk =   0.1111111
        k(   10) = (   0.0300444  -0.0153492   0.0000000), wk =   0.1111111
        k(   11) = (   0.0600888   0.0306984   0.0000000), wk =   0.1111111
        k(   12) = (   0.0600888   0.0613967   0.0000000), wk =   0.1111111
        k(   13) = (   0.0600888   0.0920951   0.0000000), wk =   0.1111111
        k(   14) = (   0.0600888  -0.0613967   0.0000000), wk =   0.1111111
        k(   15) = (   0.0600888  -0.0306984   0.0000000), wk =   0.1111111
        k(   16) = (   0.0600888   0.0000000   0.0000000), wk =   0.1111111
        k(   17) = (  -0.0901332  -0.0460475   0.0000000), wk =   0.0555556
        k(   18) = (  -0.0901332  -0.0153492   0.0000000), wk =   0.1111111
        k(   19) = (  -0.0901332   0.0153492   0.0000000), wk =   0.1111111
        k(   20) = (  -0.0901332  -0.1381426   0.0000000), wk =   0.0555556

     Largest allocated arrays     est. size (Mb)     dimensions
     Largest temporary arrays     est. size (Mb)     dimensions

     Initial potential from superposition of free atoms
     Check: negative starting charge=   -0.132542

     starting charge  152.99337, renormalised to  156.00000

     negative rho (up, down):  1.351E-01 0.000E+00

     *
     * You are using vdW-DF for exchange-correlation in this calculation.
     * Please cite the following three references that made this development
     * possible:
     *
     *   M. Dion, H. Rydberg, E. Schroder, D. C. Langreth, and
     *   B. I. Lundqvist, Phys. Rev. Lett. 92, 246401 (2004).
     *
     *   T. Thonhauser, V. R. Cooper, S. Li, A. Puzder, P. Hyldgaard, and
     *   D. C. Langreth, Phys. Rev. B 76, 125112 (2007).
     *
     *   G. Roman-Perez and J. M. Soler, Phys. Rev. Lett. 103, 096102 (2009).
     *
     *
     * If you are using vdW-DF2, please also cite:
     *
     *   K. Lee, E. D. Murray, L. Kong, B. I. Lundqvist, and
     *   D. C. Langreth, Phys. Rev. B 82, 081101(R) (2010).
     *
     *
     * If you are calculating the stress with vdW-DF, please also cite:
     *
     *   R. Sabatini, E. Kucukbenli, B. Kolb, T. Thonhauser, and
     *   S. de Gironcoli, J. Phys.: Condens. Matter 24, 424209 (2012).
     *

     Carrying out vdW-DF run using the following parameters:

     Nqs =      20    Nr_points =    1024   r_max =   100.000
     q_mesh =
               0.00001000     0.04494208     0.09755937     0.15916263
               0.23128650     0.31572767     0.41458969     0.53033537
               0.66584808     0.82450364     1.01025438     1.22772762
               1.48234092     1.78043706     2.12944203     2.53805004
               3.01644009     3.57652955     4.23227104     5.00000000

     Gradients computed in reciprocal space

     Adding external electric field

     Computed dipole along edir(3) :
        Dipole                0.0000 Ry au,          0.0000 Debye
        Dipole field          0.0000 Ry au

        Potential amp.       -0.0000 Ry
        Total length         45.6360 bohr

     Starting wfc are  132 randomized atomic wfcs

     Self-consistent Calculation

     iteration #  1     ecut=    36.75 Ry     beta=0.10
     Davidson diagonalization with overlap
     ethr =  1.00E-02,  avg # of iterations =  7.2

     Threshold (ethr) on eigenvalues was too large:
     Diagonalizing with lowered threshold

     Davidson diagonalization with overlap
     ethr =  4.98E-04,  avg # of iterations =  6.3

[...]

     total energy              =   -1535.80204632 Ry
     Harris-Foulkes estimate   =   -1535.92505230 Ry
     estimated scf accuracy    <       0.84509254 Ry

[...]

     End of self-consistent calculation

          k = 0.0000 0.0000 0.0000 ( 18887 PWs)   bands (ev):

   -59.9284 -59.8384 -59.7857 -59.7784 -59.6966 -59.6896 -34.2742 -34.1807
   -34.1125 -34.1038 -34.0818 -33.9926 -33.9015 -33.8657 -33.8456 -33.8125
   -33.7777 -33.7575 -33.7246 -33.5993 -33.5235 -33.4894 -33.3375 -33.3333
    -8.7082  -8.5008  -8.3185  -8.3077  -8.2413  -8.1417  -8.0889  -8.0642
    -7.9061  -7.8907  -7.8889  -7.7976  -7.5286  -7.4807  -7.4121  -7.3743
    -7.3169  -7.3082  -7.2501  -7.2134  -7.2108  -7.1989  -7.1017  -7.0218
    -6.9268  -6.8998  -6.8948  -6.8072  -6.7423  -6.3949  -6.3853  -4.6484
    -2.8602  -2.1685  -1.9048  -1.5669  -1.4202  -1.2299  -1.1739  -1.0415
    -0.7672  -0.3788  -0.3176  -0.3125   0.0529   0.1443   0.1914   0.3241
     0.8912   1.0626   1.0919   1.3008   1.5448   1.5510   1.6518   2.0428
     2.0579   2.0755   2.3427   2.3700   2.3892   2.4897   2.8892   2.9164
     3.1025   3.2125   3.2347   3.3321   3.4401   3.5484   3.9397   4.2620
     4.8835   4.9023   5.1238   5.3581   5.4176   5.5513   5.7198   5.7647
     6.4618   6.6337   6.6804   7.7387

[...]

          k =-0.0901-0.0460 0.0000 ( 18998 PWs)   bands (ev):

[...]

     the Fermi energy is     1.3024 ev

!    total energy              =   -1535.76151282 Ry
     Harris-Foulkes estimate   =   -1535.76151162 Ry
     estimated scf accuracy    <       0.00000062 Ry

     The total energy is the sum of the following terms:

     one-electron contribution =  -11786.78581845 Ry
     hartree contribution      =    5935.92074502 Ry
     xc contribution           =    -364.72964841 Ry
     ewald contribution        =    4679.90635044 Ry
     electric field correction =       0.00000000 Ry
     smearing contrib. (-TS)   =      -0.07314142 Ry

     convergence has been achieved in  16 iterations

 BEEF-vdW xc energy contributions
           1 :   -317.590833971233
           2 :    290.528165318704
           3 :   -244.494574980027
           4 :    192.136962976426
           5 :   -145.636276614790
           6 :    112.498435586363
           7 :   -93.8818603391555
[...]
00031 suncat2051 pw.x -in pw.inp   Done                     12/18/2018 18:13:02

     Program PWSCF v.5.1rc2 (svn rev. 11289) starts on 18Dec2018 at 18:13: 8

[...]

   This run was terminated on:  18:17:25  18Dec2018

[...]

     Program PWSCF v.5.1rc2 (svn rev. 11289) starts on 18Dec2018 at 18:17:31

[...]

     Found symmetry operation: I + ( -0.5000  0.0000  0.0000)
     This is a supercell, fractional translations are disabled

[...]

   This run was terminated on:  18:35: 8  18Dec2018

[...]

     Program PWSCF v.5.1rc2 (svn rev. 11289) starts on 18Dec2018 at 18:44: 6

[...]

   This run was terminated on:  18:57:10  18Dec2018

[...]

     Program PWSCF v.5.1rc2 (svn rev. 11289) starts on 18Dec2018 at 18:57:16

     Current dimensions of program PWSCF are:
     Max number of different atomic species (ntypx) = 10
     Max number of k-points (npk) =  40000
     Max angular momentum in pseudopotentials (lmaxx) =  3
     Presently stress not available with electric field

     IMPORTANT: XC functional enforced from input :
     Exchange-correlation      = BEEF-VDW ( 1  4 27 13 2)
     Any further DFT definition will be discarded
     Please, verify this is what you really want

     Subspace diagonalization in iterative solution of the eigenvalue problem:
     a serial algorithm will be used

     bravais-lattice index     =            0
     lattice parameter (alat)  =       1.8897  a.u.
     unit-cell volume          =    5034.0780 (a.u.)^3
     number of atoms/cell      =           12
     number of atomic types    =            2
     number of electrons       =       156.00
     number of Kohn-Sham states=          108
     kinetic-energy cutoff     =      36.7493  Ry
     charge density cutoff     =     367.4932  Ry
     convergence threshold     =      1.0E-06
     mixing beta               =       0.1000
     number of iterations used =           10  plain     mixing
     Exchange-correlation      = BEEF-VDW ( 1  4 27 13 2)
     nstep                     =           50

     celldm(1)=   1.889726  celldm(2)=   0.000000  celldm(3)=   0.000000
     celldm(4)=   0.000000  celldm(5)=   0.000000  celldm(6)=   0.000000

     crystal axes: (cart. coord. in units of alat)
               a(1) = (   5.547346   0.000000   0.000000 )
               a(2) = (  -2.773673   5.429171   0.000000 )
               a(3) = (   0.000000   0.000000  24.768776 )

     reciprocal axes: (cart. coord. in units 2 pi/alat)
               b(1) = (  0.180266  0.092095  0.000000 )
               b(2) = (  0.000000  0.184190  0.000000 )
               b(3) = (  0.000000  0.000000  0.040373 )

     PseudoPot. # 1 for Mo read from file:
     /afs/slac.stanford.edu/u/if/mamunm/psp/gbrv1.5pbe/Mo.UPF
     MD5 check sum: 30c4dcd161f5d35cd49bb5239c51a633
     Pseudo is Ultrasoft + core correction, Zval = 14.0
     Generated by new atomic code, or converted to UPF format
     Using radial grid of  889 points,  6 beta functions with:
                l(1) =   0
                l(2) =   0
                l(3) =   1
                l(4) =   1
                l(5) =   2
                l(6) =   2
     Q(r) pseudized with  6 coefficients,  rinner =    1.000   1.000   1.000
                                                       1.000   1.000

     PseudoPot. # 2 for Cd read from file:
     /afs/slac.stanford.edu/u/if/mamunm/psp/gbrv1.5pbe/Cd.UPF
     MD5 check sum: 17164a7926edb8e0dc231208abae86a6
     Pseudo is Ultrasoft + core correction, Zval = 12.0
     Generated by new atomic code, or converted to UPF format
     Using radial grid of  889 points,  6 beta functions with:
                l(1) =   0
                l(2) =   0
                l(3) =   1
                l(4) =   1
                l(5) =   2
                l(6) =   2
     Q(r) pseudized with  6 coefficients,  rinner =    1.000   1.000   1.000
                                                       1.000   1.000

     vdW kernel table read from file vdW_kernel_table
     MD5 check sum: 095c7af220d748ca6e76c0b4c6cfb241

     atomic species   valence    mass     pseudopotential
        Mo1           14.00    95.95000     Mo( 1.00)
        Cd1           12.00   112.41400     Cd( 1.00)

     No symmetry found

   Cartesian axes

     site n.     atom                  positions (alat units)
         1           Mo1 tau(   1) = (   0.0000000   0.0000000  10.0000000  )
         2           Mo1 tau(   2) = (   2.7736731   0.0000000  10.0000000  )
         3           Cd1 tau(   3) = (   1.3868366   2.7145855  10.0000000  )
         4           Cd1 tau(   4) = (  -1.3868366   2.7145855  10.0000000  )
         5           Mo1 tau(   5) = (   2.7736731   1.4170234  12.3843882  )
         6           Mo1 tau(   6) = (  -0.0000000   1.4170234  12.3843882  )
         7           Cd1 tau(   7) = (  -1.3868366   4.1316089  12.3843882  )
         8           Cd1 tau(   8) = (   1.3868366   4.1316089  12.3843882  )
         9           Mo1 tau(   9) = (  -0.0003052   2.5273474  14.5327928  )
        10           Mo1 tau(  10) = (   2.7733290   2.5271829  14.5327411  )
        11           Cd1 tau(  11) = (   1.3860338   5.3257902  15.1405986  )
        12           Cd1 tau(  12) = (  -1.3866942   5.3257476  15.1406804  )

     number of k points=    20  Fermi-Dirac smearing, width (Ry)=  0.0110
                       cart. coord. in units 2pi/alat
        k(    1) = (   0.0000000   0.0000000   0.0000000), wk =   0.0555556
        k(    2) = (   0.0000000   0.0306984   0.0000000), wk =   0.1111111
        k(    3) = (   0.0000000   0.0613967   0.0000000), wk =   0.1111111
        k(    4) = (   0.0000000  -0.0920951   0.0000000), wk =   0.0555556
        k(    5) = (   0.0300444   0.0153492   0.0000000), wk =   0.1111111
        k(    6) = (   0.0300444   0.0460475   0.0000000), wk =   0.1111111
        k(    7) = (   0.0300444   0.0767459   0.0000000), wk =   0.1111111
        k(    8) = (   0.0300444  -0.0767459   0.0000000), wk =   0.1111111
        k(    9) = (   0.0300444  -0.0460475   0.0000000), wk =   0.1111111
        k(   10) = (   0.0300444  -0.0153492   0.0000000), wk =   0.1111111
        k(   11) = (   0.0600888   0.0306984   0.0000000), wk =   0.1111111
        k(   12) = (   0.0600888   0.0613967   0.0000000), wk =   0.1111111
        k(   13) = (   0.0600888   0.0920951   0.0000000), wk =   0.1111111
        k(   14) = (   0.0600888  -0.0613967   0.0000000), wk =   0.1111111
        k(   15) = (   0.0600888  -0.0306984   0.0000000), wk =   0.1111111
        k(   16) = (   0.0600888   0.0000000   0.0000000), wk =   0.1111111
        k(   17) = (  -0.0901332  -0.0460475   0.0000000), wk =   0.0555556
        k(   18) = (  -0.0901332  -0.0153492   0.0000000), wk =   0.1111111
        k(   19) = (  -0.0901332   0.0153492   0.0000000), wk =   0.1111111
        k(   20) = (  -0.0901332  -0.1381426   0.0000000), wk =   0.0555556

     Largest allocated arrays     est. size (Mb)     dimensions
     Largest temporary arrays     est. size (Mb)     dimensions

     Initial potential from superposition of free atoms
     Check: negative starting charge=   -0.133819

     starting charge  152.99337, renormalised to  156.00000

[...]

     *
     * You are using vdW-DF for exchange-correlation in this calculation.
     * Please cite the following three references that made this development
     * possible:
     *
     *   M. Dion, H. Rydberg, E. Schroder, D. C. Langreth, and
     *   B. I. Lundqvist, Phys. Rev. Lett. 92, 246401 (2004).
     *
     *   T. Thonhauser, V. R. Cooper, S. Li, A. Puzder, P. Hyldgaard, and
     *   D. C. Langreth, Phys. Rev. B 76, 125112 (2007).
     *
     *   G. Roman-Perez and J. M. Soler, Phys. Rev. Lett. 103, 096102 (2009).
     *
     *
     * If you are using vdW-DF2, please also cite:
     *
     *   K. Lee, E. D. Murray, L. Kong, B. I. Lundqvist, and
     *   D. C. Langreth, Phys. Rev. B 82, 081101(R) (2010).
     *
     *
     * If you are calculating the stress with vdW-DF, please also cite:
     *
     *   R. Sabatini, E. Kucukbenli, B. Kolb, T. Thonhauser, and
     *   S. de Gironcoli, J. Phys.: Condens. Matter 24, 424209 (2012).
     *

     Carrying out vdW-DF run using the following parameters:

     Nqs =      20    Nr_points =    1024   r_max =   100.000
     q_mesh =
               0.00001000     0.04494208     0.09755937     0.15916263
               0.23128650     0.31572767     0.41458969     0.53033537
               0.66584808     0.82450364     1.01025438     1.22772762
               1.48234092     1.78043706     2.12944203     2.53805004
               3.01644009     3.57652955     4.23227104     5.00000000

     Gradients computed in reciprocal space

[...]

     Starting wfc are  132 randomized atomic wfcs

     Self-consistent Calculation

[...]

     total energy              =   -1535.81781021 Ry
     Harris-Foulkes estimate   =   -1535.81781024 Ry
     estimated scf accuracy    <       0.00000412 Ry

     iteration # 16     ecut=    36.75 Ry     beta=0.10
     Davidson diagonalization with overlap
     ethr =  2.64E-09,  avg # of iterations =  2.0

[...]

     negative rho (up, down):  1.402E-01 0.000E+00

     Adding external electric field

     Computed dipole along edir(3) :
        Dipole                0.0378 Ry au,          0.0960 Debye
        Dipole field          0.0001 Ry au

        Potential amp.       -0.0086 Ry
        Total length         45.6360 bohr

     End of self-consistent calculation

[...]

          k = 0.0601 0.0000 0.0000 ( 18934 PWs)   bands (ev):

[...]

          k =-0.0901-0.1381 0.0000 ( 18998 PWs)   bands (ev):

   -59.8452 -59.8451 -59.7183 -59.7183 -59.6191 -59.6191 -34.4691 -34.4688
   -33.8981 -33.8981 -33.8426 -33.8426 -33.7974 -33.7974 -33.7415 -33.7415
   -33.7247 -33.7247 -33.6982 -33.6982 -33.6525 -33.6524 -33.1801 -33.1799
    -8.0642  -8.0642  -7.8819  -7.8819  -7.8146  -7.8146  -7.7258  -7.7258
    -7.7031  -7.7030  -7.4208  -7.4202  -7.3706  -7.3703  -7.3575  -7.3553
    -7.3118  -7.3114  -7.2742  -7.2728  -7.2286  -7.2283  -7.2166  -7.2161
    -7.1531  -7.1524  -7.0860  -7.0858  -7.0418  -7.0416  -4.6283  -4.6280
    -3.1873  -3.1861  -2.0950  -2.0945  -1.4252  -1.4251  -1.0233  -1.0232
    -0.4656  -0.4653  -0.1407  -0.1405   0.1858   0.1859   0.4541   0.4542
     0.5275   0.5276   0.9118   0.9120   0.9552   0.9552   1.1869   1.1869
     1.4278   1.4279   1.8268   1.8269   2.2278   2.2280   2.6446   2.6447
     3.0830   3.0831   3.2365   3.2366   3.7138   3.7142   4.4208   4.4213
     5.1326   5.1328   6.2175   6.2176   6.8496   6.8497   6.8860   6.8861
     7.1805   7.1806   7.4330   7.4334

     the Fermi energy is     1.3141 ev

!    total energy              =   -1535.81781224 Ry
     Harris-Foulkes estimate   =   -1535.81781094 Ry
     estimated scf accuracy    <       0.00000094 Ry

     The total energy is the sum of the following terms:

     one-electron contribution =  -11697.91494605 Ry
     hartree contribution      =    5891.75218436 Ry
     xc contribution           =    -364.84770516 Ry
     ewald contribution        =    4635.26410053 Ry
     electric field correction =       0.00000356 Ry
     smearing contrib. (-TS)   =      -0.07144947 Ry

     convergence has been achieved in  16 iterations

 BEEF-vdW xc energy contributions
           1 :   -317.702374575682
           2 :    290.608959321498
           3 :   -244.540961188139
           4 :    192.166158906119
           5 :   -145.649402736659
           6 :    112.449637537038
           7 :   -93.6848767515899
           8 :    85.3523066196722
           9 :   -81.3956751884427
          10 :    76.8906978117344
          11 :   -69.8788409808396
          12 :    61.2789138912254
          13 :   -53.3828735461245
          14 :    48.0352884719898
          15 :   -45.5372486441728
          16 :    44.6976568241645
          17 :   -43.7588042225215
          18 :    41.4922098281286
          19 :   -37.8098742191526
          20 :    33.6170088765332
          21 :   -30.1142373357783
          22 :    28.0301634830058
          23 :   -27.2401635861097
          24 :    26.9366709992299
          25 :   -26.1824594021240
          26 :    24.4742773163970
          27 :   -21.9866277301356
          28 :    19.3851647271675
          29 :   -17.3690732741471
          30 :    16.2416955296733
          31 :   -31.0411507122342
          32 :   -23.1003660274277

     Forces acting on atoms (Ry/au):

     negative rho (up, down):  1.402E-01 0.000E+00
     atom    1 type  1   force =     0.00000030    0.01377664    0.03495187
     atom    2 type  1   force =    -0.00000102    0.01377483    0.03493882
     atom    3 type  2   force =     0.00000698   -0.01094670   -0.04241489
     atom    4 type  2   force =     0.00000483   -0.01094715   -0.04241674
     atom    5 type  1   force =     0.00006392   -0.01973009   -0.00638292
     atom    6 type  1   force =     0.00006207   -0.01972396   -0.00635803
     atom    7 type  2   force =    -0.00001705    0.01662544    0.01466464
     atom    8 type  2   force =     0.00000007    0.01662539    0.01466621
     atom    9 type  1   force =    -0.00004861   -0.00036370   -0.00019565
     atom   10 type  1   force =    -0.00005256   -0.00026343   -0.00017535
     atom   11 type  2   force =     0.00027506    0.00058725   -0.00064000
     atom   12 type  2   force =    -0.00029399    0.00058548   -0.00063796

     Total force =     0.092218     Total SCF correction =     0.001193

     entering subroutine stress ...

     negative rho (up, down):  1.402E-01 0.000E+00
          total   stress  (Ry/bohr**3)                   (kbar)     P=  -12.13
  -0.00012365  -0.00000002  -0.00000001        -18.19     -0.00     -0.00
  -0.00000002  -0.00012282  -0.00000420         -0.00    -18.07     -0.62
  -0.00000001  -0.00000420  -0.00000098         -0.00     -0.62     -0.14

 !ASE

     Writing output data file calc.save

     General routines

     Parallel routines

   This run was terminated on:  19: 1:35  18Dec2018

   JOB DONE.
Job  /afs/slac/g/suncat/bin/suncat-tsmpirun -x LD_LIBRARY_PATH -wdir /scratch/qe530252_iEwn9 pw.x -in pw.inp

TID   HOST_NAME   COMMAND_LINE            STATUS            TERMINATION_TIME
00000 suncat2052 pw.x -in pw.inp   Done                     12/18/2018 19:01:35
00001 suncat2052 pw.x -in pw.inp   Done                     12/18/2018 19:01:35
00002 suncat2052 pw.x -in pw.inp   Done                     12/18/2018 19:01:35
00003 suncat2052 pw.x -in pw.inp   Done                     12/18/2018 19:01:35
00004 suncat2052 pw.x -in pw.inp   Done                     12/18/2018 19:01:35
00005 suncat2052 pw.x -in pw.inp   Done                     12/18/2018 19:01:35
00006 suncat2052 pw.x -in pw.inp   Done                     12/18/2018 19:01:35
00007 suncat2052 pw.x -in pw.inp   Done                     12/18/2018 19:01:35
00008 suncat2052 pw.x -in pw.inp   Done                     12/18/2018 19:01:35
00009 suncat2052 pw.x -in pw.inp   Done                     12/18/2018 19:01:35
00010 suncat2052 pw.x -in pw.inp   Done                     12/18/2018 19:01:35
00011 suncat2052 pw.x -in pw.inp   Done                     12/18/2018 19:01:35
00012 suncat2052 pw.x -in pw.inp   Done                     12/18/2018 19:01:35
00013 suncat2052 pw.x -in pw.inp   Done                     12/18/2018 19:01:35
00014 suncat2052 pw.x -in pw.inp   Done                     12/18/2018 19:01:35
00015 suncat2052 pw.x -in pw.inp   Done                     12/18/2018 19:01:35
00016 suncat2051 pw.x -in pw.inp   Done                     12/18/2018 19:01:35
00017 suncat2051 pw.x -in pw.inp   Done                     12/18/2018 19:01:35
00018 suncat2051 pw.x -in pw.inp   Done                     12/18/2018 19:01:35
00019 suncat2051 pw.x -in pw.inp   Done                     12/18/2018 19:01:35
00020 suncat2051 pw.x -in pw.inp   Done                     12/18/2018 19:01:35
00021 suncat2051 pw.x -in pw.inp   Done                     12/18/2018 19:01:35
00022 suncat2051 pw.x -in pw.inp   Done                     12/18/2018 19:01:35
00023 suncat2051 pw.x -in pw.inp   Done                     12/18/2018 19:01:35
00024 suncat2051 pw.x -in pw.inp   Done                     12/18/2018 19:01:35
00025 suncat2051 pw.x -in pw.inp   Done                     12/18/2018 19:01:35
00026 suncat2051 pw.x -in pw.inp   Done                     12/18/2018 19:01:35
00027 suncat2051 pw.x -in pw.inp   Done                     12/18/2018 19:01:35
00028 suncat2051 pw.x -in pw.inp   Done                     12/18/2018 19:01:35
00029 suncat2051 pw.x -in pw.inp   Done                     12/18/2018 19:01:35
00030 suncat2051 pw.x -in pw.inp   Done                     12/18/2018 19:01:35
00031 suncat2051 pw.x -in pw.inp   Done                     12/18/2018 19:01:35