     Program PWSCF v.5.1rc2 (svn rev. 11289) starts on 18Dec2018 at 21:26:36

     Current dimensions of program PWSCF are:
     Max number of different atomic species (ntypx) = 10
     Max number of k-points (npk) =  40000
     Max angular momentum in pseudopotentials (lmaxx) =  3
     Presently stress not available with electric field

     IMPORTANT: XC functional enforced from input :
     Exchange-correlation      = BEEF-VDW ( 1  4 27 13 2)
     Any further DFT definition will be discarded
     Please, verify this is what you really want

     Subspace diagonalization in iterative solution of the eigenvalue problem:
     a serial algorithm will be used

     Found symmetry operation: I + (  0.5000 -0.5000  0.0000)
     This is a supercell, fractional translations are disabled

     Generating pointlists ...
     new r_m :   0.4125 (alat units)  0.7795 (a.u.) for type    1
     new r_m :   0.4125 (alat units)  0.7795 (a.u.) for type    2

     bravais-lattice index     =            0
     lattice parameter (alat)  =       1.8897  a.u.
     unit-cell volume          =    6118.7161 (a.u.)^3
     number of atoms/cell      =           12
     number of atomic types    =            2
     number of electrons       =       174.00
     number of Kohn-Sham states=          117
     kinetic-energy cutoff     =      36.7493  Ry
     charge density cutoff     =     367.4932  Ry
     convergence threshold     =      1.0E-06
     mixing beta               =       0.1000
     number of iterations used =           10  plain     mixing
     Exchange-correlation      = BEEF-VDW ( 1  4 27 13 2)
     nstep                     =           50

     celldm(1)=   1.889726  celldm(2)=   0.000000  celldm(3)=   0.000000
     celldm(4)=   0.000000  celldm(5)=   0.000000  celldm(6)=   0.000000

     crystal axes: (cart. coord. in units of alat)
               a(1) = (   6.193620   0.000000   0.000000 )
               a(2) = (   2.053954   5.843133   0.000000 )
               a(3) = (   0.000000   0.000000  25.053789 )

     reciprocal axes: (cart. coord. in units 2 pi/alat)
               b(1) = (  0.161456 -0.056755  0.000000 )
               b(2) = (  0.000000  0.171141  0.000000 )
               b(3) = (  0.000000  0.000000  0.039914 )

     PseudoPot. # 1 for Ni read from file:
     /afs/slac.stanford.edu/u/if/mamunm/psp/gbrv1.5pbe/Ni.UPF
     MD5 check sum: 1ee80287db30b12d2bc1f57a5b5d6409
     Pseudo is Ultrasoft + core correction, Zval = 18.0
     Generated by new atomic code, or converted to UPF format
     Using radial grid of  865 points,  6 beta functions with:
                l(1) =   0
                l(2) =   0
                l(3) =   1
                l(4) =   1
                l(5) =   2
                l(6) =   2
     Q(r) pseudized with 10 coefficients,  rinner =    0.980   0.980   0.980
                                                       0.980   0.980

     PseudoPot. # 2 for La read from file:
     /afs/slac.stanford.edu/u/if/mamunm/psp/gbrv1.5pbe/La.UPF
     MD5 check sum: 5937b0c7494ba0601a847275249473aa
     Pseudo is Ultrasoft + core correction, Zval = 11.0
     Generated by new atomic code, or converted to UPF format
     Using radial grid of  995 points,  8 beta functions with:
                l(1) =   0
                l(2) =   0
                l(3) =   1
                l(4) =   1
                l(5) =   2
                l(6) =   2
                l(7) =   3
                l(8) =   3
     Q(r) pseudized with  8 coefficients,  rinner =    1.700   1.700   1.700
                                                       1.700   1.700   1.700
                                                       1.700

     vdW kernel table read from file vdW_kernel_table
     MD5 check sum: 095c7af220d748ca6e76c0b4c6cfb241

     atomic species   valence    mass     pseudopotential
        Ni1           18.00    58.69340     Ni( 1.00)
        La1           11.00   138.90547     La( 1.00)

     Starting magnetic structure
     atomic species   magnetization
        Ni1          0.111
        La1          0.182

     No symmetry found

   Cartesian axes

     site n.     atom                  positions (alat units)
         1           Ni1 tau(   1) = (   0.0000000   0.0000000  10.0000000  )
         2           Ni1 tau(   2) = (   4.1237867   2.9215663  10.0000000  )
         3           La1 tau(   3) = (   3.0968098   0.0000000  10.0000000  )
         4           La1 tau(   4) = (   1.0269768   2.9215663  10.0000000  )
         5           Ni1 tau(   5) = (   6.1936197   4.3879745  12.5268947  )
         6           Ni1 tau(   6) = (   2.0698330   1.4664082  12.5268947  )
         7           La1 tau(   7) = (   3.0968098   4.3879745  12.5268947  )
         8           La1 tau(   8) = (   5.1666429   1.4664082  12.5268947  )
         9           Ni1 tau(   9) = (   4.1396660   2.9328163  15.0537894  )
        10           Ni1 tau(  10) = (   0.0158794   0.0112500  15.0537894  )
        11           La1 tau(  11) = (   1.0428562   2.9328163  15.0537894  )
        12           La1 tau(  12) = (   3.1126892   0.0112500  15.0537894  )

     number of k points=    40  Fermi-Dirac smearing, width (Ry)=  0.0110
                       cart. coord. in units 2pi/alat
        k(    1) = (   0.0000000   0.0000000   0.0000000), wk =   0.0277778
        k(    2) = (   0.0000000   0.0285235   0.0000000), wk =   0.0555556
        k(    3) = (   0.0000000   0.0570470   0.0000000), wk =   0.0555556
        k(    4) = (   0.0000000  -0.0855705   0.0000000), wk =   0.0277778
        k(    5) = (   0.0269094  -0.0094591   0.0000000), wk =   0.0555556
        k(    6) = (   0.0269094   0.0190644   0.0000000), wk =   0.0555556
        k(    7) = (   0.0269094   0.0475879   0.0000000), wk =   0.0555556
        k(    8) = (   0.0269094  -0.0950296   0.0000000), wk =   0.0555556
        k(    9) = (   0.0269094  -0.0665061   0.0000000), wk =   0.0555556
        k(   10) = (   0.0269094  -0.0379826   0.0000000), wk =   0.0555556
        k(   11) = (   0.0538188  -0.0189182   0.0000000), wk =   0.0555556
        k(   12) = (   0.0538188   0.0096053   0.0000000), wk =   0.0555556
        k(   13) = (   0.0538188   0.0381289   0.0000000), wk =   0.0555556
        k(   14) = (   0.0538188  -0.1044887   0.0000000), wk =   0.0555556
        k(   15) = (   0.0538188  -0.0759652   0.0000000), wk =   0.0555556
        k(   16) = (   0.0538188  -0.0474417   0.0000000), wk =   0.0555556
        k(   17) = (  -0.0807282   0.0283773   0.0000000), wk =   0.0277778
        k(   18) = (  -0.0807282   0.0569008   0.0000000), wk =   0.0555556
        k(   19) = (  -0.0807282   0.0854243   0.0000000), wk =   0.0555556
        k(   20) = (  -0.0807282  -0.0571933   0.0000000), wk =   0.0277778
        k(   21) = (   0.0000000   0.0000000   0.0000000), wk =   0.0277778
        k(   22) = (   0.0000000   0.0285235   0.0000000), wk =   0.0555556
        k(   23) = (   0.0000000   0.0570470   0.0000000), wk =   0.0555556
        k(   24) = (   0.0000000  -0.0855705   0.0000000), wk =   0.0277778
        k(   25) = (   0.0269094  -0.0094591   0.0000000), wk =   0.0555556
        k(   26) = (   0.0269094   0.0190644   0.0000000), wk =   0.0555556
        k(   27) = (   0.0269094   0.0475879   0.0000000), wk =   0.0555556
        k(   28) = (   0.0269094  -0.0950296   0.0000000), wk =   0.0555556
        k(   29) = (   0.0269094  -0.0665061   0.0000000), wk =   0.0555556
        k(   30) = (   0.0269094  -0.0379826   0.0000000), wk =   0.0555556
        k(   31) = (   0.0538188  -0.0189182   0.0000000), wk =   0.0555556
        k(   32) = (   0.0538188   0.0096053   0.0000000), wk =   0.0555556
        k(   33) = (   0.0538188   0.0381289   0.0000000), wk =   0.0555556
        k(   34) = (   0.0538188  -0.1044887   0.0000000), wk =   0.0555556
        k(   35) = (   0.0538188  -0.0759652   0.0000000), wk =   0.0555556
        k(   36) = (   0.0538188  -0.0474417   0.0000000), wk =   0.0555556
        k(   37) = (  -0.0807282   0.0283773   0.0000000), wk =   0.0277778
        k(   38) = (  -0.0807282   0.0569008   0.0000000), wk =   0.0555556
        k(   39) = (  -0.0807282   0.0854243   0.0000000), wk =   0.0555556
        k(   40) = (  -0.0807282  -0.0571933   0.0000000), wk =   0.0277778

     Largest allocated arrays     est. size (Mb)     dimensions
     Largest temporary arrays     est. size (Mb)     dimensions

     Check: negative/imaginary core charge=   -0.000001    0.000000

     Initial potential from superposition of free atoms
     Check: negative starting charge=(component1):   -0.249993
     Check: negative starting charge=(component2):   -0.173090

     starting charge  161.80759, renormalised to  174.00000

     negative rho (up, down):  2.688E-01 1.861E-01

     *
     * You are using vdW-DF for exchange-correlation in this calculation.
     * Please cite the following three references that made this development
     * possible:
     *
     *   M. Dion, H. Rydberg, E. Schroder, D. C. Langreth, and
     *   B. I. Lundqvist, Phys. Rev. Lett. 92, 246401 (2004).
     *
     *   T. Thonhauser, V. R. Cooper, S. Li, A. Puzder, P. Hyldgaard, and
     *   D. C. Langreth, Phys. Rev. B 76, 125112 (2007).
     *
     *   G. Roman-Perez and J. M. Soler, Phys. Rev. Lett. 103, 096102 (2009).
     *
     *
     * If you are using vdW-DF2, please also cite:
     *
     *   K. Lee, E. D. Murray, L. Kong, B. I. Lundqvist, and
     *   D. C. Langreth, Phys. Rev. B 82, 081101(R) (2010).
     *
     *
     * If you are calculating the stress with vdW-DF, please also cite:
     *
     *   R. Sabatini, E. Kucukbenli, B. Kolb, T. Thonhauser, and
     *   S. de Gironcoli, J. Phys.: Condens. Matter 24, 424209 (2012).
     *

     Carrying out vdW-DF run using the following parameters:

     Nqs =      20    Nr_points =    1024   r_max =   100.000
     q_mesh =
               0.00001000     0.04494208     0.09755937     0.15916263
               0.23128650     0.31572767     0.41458969     0.53033537
               0.66584808     0.82450364     1.01025438     1.22772762
               1.48234092     1.78043706     2.12944203     2.53805004
               3.01644009     3.57652955     4.23227104     5.00000000

     Gradients computed in reciprocal space

     Adding external electric field

     Computed dipole along edir(3) :
        Dipole                0.0000 Ry au,          0.0000 Debye
        Dipole field          0.0000 Ry au

        Potential amp.       -0.0000 Ry
        Total length         46.1612 bohr

[...]

     Starting wfc are  198 randomized atomic wfcs

     Self-consistent Calculation

     iteration #  1     ecut=    36.75 Ry     beta=0.10
     Davidson diagonalization with overlap
     ethr =  1.00E-02,  avg # of iterations =  2.2

[...]

     Magnetic moment per site:
     atom:    1    charge:    9.5600    magn:    1.0103    constr:    0.0000
     atom:    2    charge:    9.5600    magn:    1.0103    constr:    0.0000
     atom:    3    charge:    0.1736    magn:    0.0439    constr:    0.0000
     atom:    4    charge:    0.1736    magn:    0.0439    constr:    0.0000
[...]
                                                       1.700   1.700   1.700
                                                       1.700

     vdW kernel table read from file vdW_kernel_table
     MD5 check sum: 095c7af220d748ca6e76c0b4c6cfb241

     atomic species   valence    mass     pseudopotential
        Ni1           18.00    58.69340     Ni( 1.00)
        La1           11.00   138.90547     La( 1.00)

     Starting magnetic structure
     atomic species   magnetization
        Ni1          0.111
        La1          0.182

     No symmetry found

   Cartesian axes

     site n.     atom                  positions (alat units)
         1           Ni1 tau(   1) = (   0.0000000   0.0000000  10.0000000  )
         2           Ni1 tau(   2) = (   4.1237867   2.9215663  10.0000000  )
         3           La1 tau(   3) = (   3.0968098   0.0000000  10.0000000  )
         4           La1 tau(   4) = (   1.0269768   2.9215663  10.0000000  )
         5           Ni1 tau(   5) = (   6.1936197   4.3879745  12.5268947  )
         6           Ni1 tau(   6) = (   2.0698330   1.4664082  12.5268947  )
         7           La1 tau(   7) = (   3.0968098   4.3879745  12.5268947  )
         8           La1 tau(   8) = (   5.1666429   1.4664082  12.5268947  )
         9           Ni1 tau(   9) = (   4.1359051   2.9296413  14.7578893  )
        10           Ni1 tau(  10) = (   0.0118680   0.0089093  14.7572773  )
        11           La1 tau(  11) = (   1.0369612   2.9286792  15.0742026  )
        12           La1 tau(  12) = (   3.1066656   0.0069225  15.0747798  )

     number of k points=    40  Fermi-Dirac smearing, width (Ry)=  0.0110
                       cart. coord. in units 2pi/alat
        k(    1) = (   0.0000000   0.0000000   0.0000000), wk =   0.0277778
        k(    2) = (   0.0000000   0.0285235   0.0000000), wk =   0.0555556
        k(    3) = (   0.0000000   0.0570470   0.0000000), wk =   0.0555556
        k(    4) = (   0.0000000  -0.0855705   0.0000000), wk =   0.0277778
        k(    5) = (   0.0269094  -0.0094591   0.0000000), wk =   0.0555556
        k(    6) = (   0.0269094   0.0190644   0.0000000), wk =   0.0555556
        k(    7) = (   0.0269094   0.0475879   0.0000000), wk =   0.0555556
        k(    8) = (   0.0269094  -0.0950296   0.0000000), wk =   0.0555556
        k(    9) = (   0.0269094  -0.0665061   0.0000000), wk =   0.0555556
        k(   10) = (   0.0269094  -0.0379826   0.0000000), wk =   0.0555556
        k(   11) = (   0.0538188  -0.0189182   0.0000000), wk =   0.0555556
        k(   12) = (   0.0538188   0.0096053   0.0000000), wk =   0.0555556
        k(   13) = (   0.0538188   0.0381289   0.0000000), wk =   0.0555556
        k(   14) = (   0.0538188  -0.1044887   0.0000000), wk =   0.0555556
        k(   15) = (   0.0538188  -0.0759652   0.0000000), wk =   0.0555556
        k(   16) = (   0.0538188  -0.0474417   0.0000000), wk =   0.0555556
        k(   17) = (  -0.0807282   0.0283773   0.0000000), wk =   0.0277778
        k(   18) = (  -0.0807282   0.0569008   0.0000000), wk =   0.0555556
        k(   19) = (  -0.0807282   0.0854243   0.0000000), wk =   0.0555556
        k(   20) = (  -0.0807282  -0.0571933   0.0000000), wk =   0.0277778
        k(   21) = (   0.0000000   0.0000000   0.0000000), wk =   0.0277778
        k(   22) = (   0.0000000   0.0285235   0.0000000), wk =   0.0555556
        k(   23) = (   0.0000000   0.0570470   0.0000000), wk =   0.0555556
        k(   24) = (   0.0000000  -0.0855705   0.0000000), wk =   0.0277778
        k(   25) = (   0.0269094  -0.0094591   0.0000000), wk =   0.0555556
        k(   26) = (   0.0269094   0.0190644   0.0000000), wk =   0.0555556
        k(   27) = (   0.0269094   0.0475879   0.0000000), wk =   0.0555556
        k(   28) = (   0.0269094  -0.0950296   0.0000000), wk =   0.0555556
        k(   29) = (   0.0269094  -0.0665061   0.0000000), wk =   0.0555556
        k(   30) = (   0.0269094  -0.0379826   0.0000000), wk =   0.0555556
        k(   31) = (   0.0538188  -0.0189182   0.0000000), wk =   0.0555556
        k(   32) = (   0.0538188   0.0096053   0.0000000), wk =   0.0555556
        k(   33) = (   0.0538188   0.0381289   0.0000000), wk =   0.0555556
        k(   34) = (   0.0538188  -0.1044887   0.0000000), wk =   0.0555556
        k(   35) = (   0.0538188  -0.0759652   0.0000000), wk =   0.0555556
        k(   36) = (   0.0538188  -0.0474417   0.0000000), wk =   0.0555556
        k(   37) = (  -0.0807282   0.0283773   0.0000000), wk =   0.0277778
        k(   38) = (  -0.0807282   0.0569008   0.0000000), wk =   0.0555556
        k(   39) = (  -0.0807282   0.0854243   0.0000000), wk =   0.0555556
        k(   40) = (  -0.0807282  -0.0571933   0.0000000), wk =   0.0277778

     Largest allocated arrays     est. size (Mb)     dimensions
     Largest temporary arrays     est. size (Mb)     dimensions

     Check: negative/imaginary core charge=   -0.000001    0.000000

     Initial potential from superposition of free atoms
     Check: negative starting charge=(component1):   -0.249908
     Check: negative starting charge=(component2):   -0.173029

     starting charge  161.80759, renormalised to  174.00000

[...]

     *
     * You are using vdW-DF for exchange-correlation in this calculation.
     * Please cite the following three references that made this development
     * possible:
     *
     *   M. Dion, H. Rydberg, E. Schroder, D. C. Langreth, and
     *   B. I. Lundqvist, Phys. Rev. Lett. 92, 246401 (2004).
     *
     *   T. Thonhauser, V. R. Cooper, S. Li, A. Puzder, P. Hyldgaard, and
     *   D. C. Langreth, Phys. Rev. B 76, 125112 (2007).
     *
     *   G. Roman-Perez and J. M. Soler, Phys. Rev. Lett. 103, 096102 (2009).
     *
     *
     * If you are using vdW-DF2, please also cite:
     *
     *   K. Lee, E. D. Murray, L. Kong, B. I. Lundqvist, and
     *   D. C. Langreth, Phys. Rev. B 82, 081101(R) (2010).
     *
     *
     * If you are calculating the stress with vdW-DF, please also cite:
     *
     *   R. Sabatini, E. Kucukbenli, B. Kolb, T. Thonhauser, and
     *   S. de Gironcoli, J. Phys.: Condens. Matter 24, 424209 (2012).
     *

     Carrying out vdW-DF run using the following parameters:

     Nqs =      20    Nr_points =    1024   r_max =   100.000
     q_mesh =
               0.00001000     0.04494208     0.09755937     0.15916263
               0.23128650     0.31572767     0.41458969     0.53033537
               0.66584808     0.82450364     1.01025438     1.22772762
               1.48234092     1.78043706     2.12944203     2.53805004
               3.01644009     3.57652955     4.23227104     5.00000000

     Gradients computed in reciprocal space

[...]

     Starting wfc are  198 randomized atomic wfcs

     Self-consistent Calculation

[...]

     iteration # 47     ecut=    36.75 Ry     beta=0.10
     Davidson diagonalization with overlap
     c_bands:  1 eigenvalues not converged
     c_bands:  2 eigenvalues not converged
     c_bands:  2 eigenvalues not converged
     c_bands:  1 eigenvalues not converged
     c_bands:  2 eigenvalues not converged
     c_bands:  1 eigenvalues not converged
     c_bands:  1 eigenvalues not converged
     c_bands:  1 eigenvalues not converged
     c_bands:  1 eigenvalues not converged
     c_bands:  2 eigenvalues not converged
     c_bands:  2 eigenvalues not converged
     c_bands:  1 eigenvalues not converged
     c_bands:  2 eigenvalues not converged
     ethr =  3.68E-07,  avg # of iterations = 17.4

[...]

     total energy              =   -2690.86832259 Ry
     Harris-Foulkes estimate   =   -2690.86832224 Ry
     estimated scf accuracy    <       0.00000140 Ry

[...]

     iteration # 59     ecut=    36.75 Ry     beta=0.10
     Davidson diagonalization with overlap
     ethr =  8.04E-10,  avg # of iterations =  3.8

[...]

     negative rho (up, down):  1.363E-01 1.361E-01

[...]

     Adding external electric field

     Computed dipole along edir(3) :
        Dipole                0.1170 Ry au,          0.2974 Debye
        Dipole field          0.0002 Ry au

        Potential amp.       -0.0222 Ry
        Total length         46.1612 bohr

     Magnetic moment per site:
     atom:    1    charge:    9.3502    magn:    0.0022    constr:    0.0000
     atom:    2    charge:    9.3503    magn:    0.0022    constr:    0.0000
     atom:    3    charge:    0.1617    magn:   -0.0001    constr:    0.0000
     atom:    4    charge:    0.1617    magn:   -0.0001    constr:    0.0000
     atom:    5    charge:    9.3472    magn:   -0.0000    constr:    0.0000
     atom:    6    charge:    9.3473    magn:    0.0000    constr:    0.0000
     atom:    7    charge:    0.1650    magn:   -0.0000    constr:    0.0000
     atom:    8    charge:    0.1650    magn:   -0.0000    constr:    0.0000
     atom:    9    charge:    9.3526    magn:   -0.0002    constr:    0.0000
     atom:   10    charge:    9.3525    magn:   -0.0002    constr:    0.0000
     atom:   11    charge:    0.1609    magn:    0.0000    constr:    0.0000
     atom:   12    charge:    0.1609    magn:    0.0000    constr:    0.0000

     End of self-consistent calculation

 ------ SPIN UP ------------

[...]

 ------ SPIN DOWN ----------

[...]

          k = 0.0538-0.0474 0.0000 ( 23046 PWs)   bands (ev):

[...]

          k =-0.0807-0.0572 0.0000 ( 22984 PWs)   bands (ev):

  -101.1764-101.1762-101.0597-101.0595-100.8571-100.8570 -61.5844 -61.5842
   -61.5700 -61.5698 -61.5394 -61.5389 -61.4816 -61.4810 -61.4684 -61.4682
   -61.4155 -61.4151 -61.3491 -61.3486 -61.2516 -61.2515 -61.1649 -61.1647
   -31.5527 -31.4856 -31.4543 -31.3871 -30.7951 -30.6812 -15.6570 -15.5945
   -15.4477 -15.3806 -15.2136 -15.2072 -15.1478 -15.0915 -15.0853 -14.9958
   -14.9576 -14.6043 -14.5440 -14.3462 -14.3354 -14.3020 -14.2352 -13.9240
    -0.9457  -0.8641  -0.5939  -0.4896  -0.2757  -0.2459  -0.1391  -0.0402
    -0.0318   0.0323   0.0813   0.1010   0.1509   0.2292   0.2491   0.2853
     0.3480   0.3747   0.3759   0.4000   0.4348   0.4614   0.4680   0.4756
     0.4763   0.5577   0.5791   0.5863   0.6148   0.6279   0.6284   0.6576
     0.7774   0.7798   0.8402   0.8721   0.8925   0.9402   0.9808   1.2572
     1.6492   1.6794   1.7433   1.7958   1.8789   2.1618   2.5568   2.6194
     2.7714   3.0777   3.0869   3.1045   3.1500   3.1948   3.2255   3.3460
     3.3569   3.4654   3.4879   3.4911   3.5041   3.5076   3.5476   3.5521
     3.5594   3.5730   3.5798   3.5818   3.5903

     the Fermi energy is     1.8327 ev

!    total energy              =   -2690.86832359 Ry
     Harris-Foulkes estimate   =   -2690.86832161 Ry
     estimated scf accuracy    <       0.00000082 Ry

     The total energy is the sum of the following terms:

     one-electron contribution =  -13707.66071684 Ry
     hartree contribution      =    6870.83746028 Ry
     xc contribution           =    -525.32400805 Ry
     ewald contribution        =    4671.34176600 Ry
     electric field correction =       0.00002812 Ry
     smearing contrib. (-TS)   =      -0.06285310 Ry

     total magnetization       =    -0.00 Bohr mag/cell
     absolute magnetization    =     0.02 Bohr mag/cell

     convergence has been achieved in  59 iterations

 BEEF-vdW xc energy contributions
           1 :   -464.385352358905
           2 :    424.351247724095
           3 :   -355.130098487723
           4 :    273.853723532270
           5 :   -197.437323568359
           6 :    137.242100606574
           7 :   -96.9378346822882
           8 :    73.7059570684592
           9 :   -61.4927129416510
          10 :    54.4026533527211
          11 :   -48.7088384691205
          12 :    42.9828689083614
          13 :   -37.0116535313174
          14 :    30.6711455345211
          15 :   -23.5913092648792
          16 :    15.5987854223468
          17 :   -7.31198989755438
          18 :   0.209343152752865
          19 :    4.02353290949299
          20 :   -4.48740714737608
          21 :    1.71975079519768
          22 :    2.46285104295060
          23 :   -5.86541765132102
          24 :    6.99737748622323
          25 :   -5.69638431198979
          26 :    2.97369317840207
          27 :  -0.270491553632496
          28 :   -1.36833821716431
          29 :    1.71556565479176
          30 :   -1.22555447750261
          31 :   -38.9907725554095
          32 :   -27.5793728838196

     Forces acting on atoms (Ry/au):

     negative rho (up, down):  1.363E-01 1.361E-01
     atom    1 type  1   force =     0.00001544    0.00000056    0.02275301
     atom    2 type  1   force =     0.00002802    0.00002585    0.02274232
     atom    3 type  2   force =     0.00050968    0.00036959   -0.01178486
     atom    4 type  2   force =     0.00051770    0.00035637   -0.01163152
     atom    5 type  1   force =    -0.00041267    0.00045066    0.00543200
     atom    6 type  1   force =     0.00024227   -0.00055456    0.00543262
     atom    7 type  2   force =    -0.00032579   -0.00025916   -0.01622073
     atom    8 type  2   force =    -0.00019215   -0.00010892   -0.01623890
     atom    9 type  1   force =    -0.00014689   -0.00008489   -0.00077473
     atom   10 type  1   force =    -0.00015849   -0.00013931   -0.00072723
     atom   11 type  2   force =    -0.00002873   -0.00003691    0.00046044
     atom   12 type  2   force =    -0.00004839   -0.00001930    0.00055758

     Total force =     0.043571     Total SCF correction =     0.003085

     entering subroutine stress ...

     negative rho (up, down):  1.363E-01 1.361E-01
          total   stress  (Ry/bohr**3)                   (kbar)     P=  -27.73
  -0.00022348  -0.00004368  -0.00000094        -32.87     -6.43     -0.14
  -0.00004368  -0.00019277  -0.00000067         -6.43    -28.36     -0.10
  -0.00000094  -0.00000067  -0.00014929         -0.14     -0.10    -21.96

 !ASE

     Writing output data file calc.save

     General routines

     Parallel routines

   This run was terminated on:   1:31:54  19Dec2018

   JOB DONE.
Job  /afs/slac/g/suncat/bin/suncat-tsmpirun -x LD_LIBRARY_PATH -wdir /scratch/qe530354_fPTdB pw.x -in pw.inp

TID   HOST_NAME   COMMAND_LINE            STATUS            TERMINATION_TIME
00000 suncat2044 pw.x -in pw.inp   Done                     12/19/2018 01:31:54
00001 suncat2044 pw.x -in pw.inp   Done                     12/19/2018 01:31:54
00002 suncat2044 pw.x -in pw.inp   Done                     12/19/2018 01:31:54
00003 suncat2044 pw.x -in pw.inp   Done                     12/19/2018 01:31:54
00004 suncat2044 pw.x -in pw.inp   Done                     12/19/2018 01:31:54
00005 suncat2044 pw.x -in pw.inp   Done                     12/19/2018 01:31:54
00006 suncat2044 pw.x -in pw.inp   Done                     12/19/2018 01:31:54
00007 suncat2044 pw.x -in pw.inp   Done                     12/19/2018 01:31:54
00008 suncat2044 pw.x -in pw.inp   Done                     12/19/2018 01:31:54
00009 suncat2044 pw.x -in pw.inp   Done                     12/19/2018 01:31:54
00010 suncat2044 pw.x -in pw.inp   Done                     12/19/2018 01:31:54
00011 suncat2044 pw.x -in pw.inp   Done                     12/19/2018 01:31:54
00012 suncat2044 pw.x -in pw.inp   Done                     12/19/2018 01:31:54
00013 suncat2044 pw.x -in pw.inp   Done                     12/19/2018 01:31:54
00014 suncat2044 pw.x -in pw.inp   Done                     12/19/2018 01:31:54
00015 suncat2044 pw.x -in pw.inp   Done                     12/19/2018 01:31:54
00016 suncat2043 pw.x -in pw.inp   Done                     12/19/2018 01:31:54
00017 suncat2043 pw.x -in pw.inp   Done                     12/19/2018 01:31:54
00018 suncat2043 pw.x -in pw.inp   Done                     12/19/2018 01:31:54
00019 suncat2043 pw.x -in pw.inp   Done                     12/19/2018 01:31:54
00020 suncat2043 pw.x -in pw.inp   Done                     12/19/2018 01:31:54
00021 suncat2043 pw.x -in pw.inp   Done                     12/19/2018 01:31:54
00022 suncat2043 pw.x -in pw.inp   Done                     12/19/2018 01:31:54
00023 suncat2043 pw.x -in pw.inp   Done                     12/19/2018 01:31:54
00024 suncat2043 pw.x -in pw.inp   Done                     12/19/2018 01:31:54
00025 suncat2043 pw.x -in pw.inp   Done                     12/19/2018 01:31:54
00026 suncat2043 pw.x -in pw.inp   Done                     12/19/2018 01:31:54
00027 suncat2043 pw.x -in pw.inp   Done                     12/19/2018 01:31:54
00028 suncat2043 pw.x -in pw.inp   Done                     12/19/2018 01:31:54
00029 suncat2043 pw.x -in pw.inp   Done                     12/19/2018 01:31:54
00030 suncat2043 pw.x -in pw.inp   Done                     12/19/2018 01:31:54
00031 suncat2043 pw.x -in pw.inp   Done                     12/19/2018 01:31:54