     Program PWSCF v.5.1rc2 (svn rev. 11289) starts on 18Dec2018 at 20:45:34

     Current dimensions of program PWSCF are:
     Max number of different atomic species (ntypx) = 10
     Max number of k-points (npk) =  40000
     Max angular momentum in pseudopotentials (lmaxx) =  3
     Presently stress not available with electric field

     IMPORTANT: XC functional enforced from input :
     Exchange-correlation      = BEEF-VDW ( 1  4 27 13 2)
     Any further DFT definition will be discarded
     Please, verify this is what you really want

     Subspace diagonalization in iterative solution of the eigenvalue problem:
     a serial algorithm will be used

     Found symmetry operation: I + (  0.5000  0.5000  0.0000)
     This is a supercell, fractional translations are disabled

     Generating pointlists ...
     new r_m :   0.4125 (alat units)  0.7795 (a.u.) for type    1
     new r_m :   0.4125 (alat units)  0.7795 (a.u.) for type    2

     bravais-lattice index     =            0
     lattice parameter (alat)  =       1.8897  a.u.
     unit-cell volume          =    4741.7427 (a.u.)^3
     number of atoms/cell      =           12
     number of atomic types    =            2
     number of electrons       =       180.00
     number of Kohn-Sham states=          120
     kinetic-energy cutoff     =      36.7493  Ry
     charge density cutoff     =     367.4932  Ry
     convergence threshold     =      1.0E-06
     mixing beta               =       0.1000
     number of iterations used =           10  plain     mixing
     Exchange-correlation      = BEEF-VDW ( 1  4 27 13 2)
     nstep                     =           50

     celldm(1)=   1.889726  celldm(2)=   0.000000  celldm(3)=   0.000000
     celldm(4)=   0.000000  celldm(5)=   0.000000  celldm(6)=   0.000000

     crystal axes: (cart. coord. in units of alat)
               a(1) = (   5.510648   0.000000   0.000000 )
               a(2) = (   1.804811   5.206717   0.000000 )
               a(3) = (   0.000000   0.000000  24.489207 )

     reciprocal axes: (cart. coord. in units 2 pi/alat)
               b(1) = (  0.181467 -0.062902  0.000000 )
               b(2) = (  0.000000  0.192060  0.000000 )
               b(3) = (  0.000000  0.000000  0.040834 )

     PseudoPot. # 1 for Ni read from file:
     /afs/slac.stanford.edu/u/if/mamunm/psp/gbrv1.5pbe/Ni.UPF
     MD5 check sum: 1ee80287db30b12d2bc1f57a5b5d6409
     Pseudo is Ultrasoft + core correction, Zval = 18.0
     Generated by new atomic code, or converted to UPF format
     Using radial grid of  865 points,  6 beta functions with:
                l(1) =   0
                l(2) =   0
                l(3) =   1
                l(4) =   1
                l(5) =   2
                l(6) =   2
     Q(r) pseudized with 10 coefficients,  rinner =    0.980   0.980   0.980
                                                       0.980   0.980

     PseudoPot. # 2 for Hf read from file:
     /afs/slac.stanford.edu/u/if/mamunm/psp/gbrv1.5pbe/Hf.UPF
     MD5 check sum: 8ee9378dfe14276e333edf04c5e4aa26
     Pseudo is Ultrasoft + core correction, Zval = 12.0
     Generated by new atomic code, or converted to UPF format
     Using radial grid of  921 points,  8 beta functions with:
                l(1) =   0
                l(2) =   0
                l(3) =   0
                l(4) =   1
                l(5) =   1
                l(6) =   2
                l(7) =   2
                l(8) =   3
     Q(r) pseudized with  6 coefficients,  rinner =    1.200   1.200   1.200
                                                       1.200   1.200   1.200
                                                       1.200

     vdW kernel table read from file vdW_kernel_table
     MD5 check sum: 095c7af220d748ca6e76c0b4c6cfb241

     atomic species   valence    mass     pseudopotential
        Ni1           18.00    58.69340     Ni( 1.00)
        Hf1           12.00   178.49000     Hf( 1.00)

     Starting magnetic structure
     atomic species   magnetization
        Ni1          0.111
        Hf1          0.167

     No symmetry found

   Cartesian axes

     site n.     atom                  positions (alat units)
         1           Ni1 tau(   1) = (   0.0000000   0.0000000  10.0000000  )
         2           Ni1 tau(   2) = (   3.6577297   2.6033585  10.0000000  )
         3           Hf1 tau(   3) = (   2.7553242   0.0000000  10.0000000  )
         4           Hf1 tau(   4) = (   0.9024055   2.6033585  10.0000000  )
         5           Ni1 tau(   5) = (   5.5106483   3.9221578  12.2446033  )
         6           Ni1 tau(   6) = (   1.8529186   1.3187993  12.2446033  )
         7           Hf1 tau(   7) = (   2.7553242   3.9221578  12.2446033  )
         8           Hf1 tau(   8) = (   4.6082428   1.3187993  12.2446033  )
         9           Ni1 tau(   9) = (   3.7058373   2.6375987  14.4892065  )
        10           Ni1 tau(  10) = (   0.0481076   0.0342402  14.4892065  )
        11           Hf1 tau(  11) = (   0.9505131   2.6375987  14.4892065  )
        12           Hf1 tau(  12) = (   2.8034317   0.0342402  14.4892065  )

     number of k points=    40  Fermi-Dirac smearing, width (Ry)=  0.0110
                       cart. coord. in units 2pi/alat
        k(    1) = (   0.0000000   0.0000000   0.0000000), wk =   0.0277778
        k(    2) = (   0.0000000   0.0320099   0.0000000), wk =   0.0555556
        k(    3) = (   0.0000000   0.0640199   0.0000000), wk =   0.0555556
        k(    4) = (   0.0000000  -0.0960298   0.0000000), wk =   0.0277778
        k(    5) = (   0.0302445  -0.0104837   0.0000000), wk =   0.0555556
        k(    6) = (   0.0302445   0.0215263   0.0000000), wk =   0.0555556
        k(    7) = (   0.0302445   0.0535362   0.0000000), wk =   0.0555556
        k(    8) = (   0.0302445  -0.1065135   0.0000000), wk =   0.0555556
        k(    9) = (   0.0302445  -0.0745035   0.0000000), wk =   0.0555556
        k(   10) = (   0.0302445  -0.0424936   0.0000000), wk =   0.0555556
        k(   11) = (   0.0604890  -0.0209674   0.0000000), wk =   0.0555556
        k(   12) = (   0.0604890   0.0110426   0.0000000), wk =   0.0555556
        k(   13) = (   0.0604890   0.0430525   0.0000000), wk =   0.0555556
        k(   14) = (   0.0604890  -0.1169972   0.0000000), wk =   0.0555556
        k(   15) = (   0.0604890  -0.0849872   0.0000000), wk =   0.0555556
        k(   16) = (   0.0604890  -0.0529773   0.0000000), wk =   0.0555556
        k(   17) = (  -0.0907334   0.0314510   0.0000000), wk =   0.0277778
        k(   18) = (  -0.0907334   0.0634610   0.0000000), wk =   0.0555556
        k(   19) = (  -0.0907334   0.0954709   0.0000000), wk =   0.0555556
        k(   20) = (  -0.0907334  -0.0645788   0.0000000), wk =   0.0277778
        k(   21) = (   0.0000000   0.0000000   0.0000000), wk =   0.0277778
        k(   22) = (   0.0000000   0.0320099   0.0000000), wk =   0.0555556
        k(   23) = (   0.0000000   0.0640199   0.0000000), wk =   0.0555556
        k(   24) = (   0.0000000  -0.0960298   0.0000000), wk =   0.0277778
        k(   25) = (   0.0302445  -0.0104837   0.0000000), wk =   0.0555556
        k(   26) = (   0.0302445   0.0215263   0.0000000), wk =   0.0555556
        k(   27) = (   0.0302445   0.0535362   0.0000000), wk =   0.0555556
        k(   28) = (   0.0302445  -0.1065135   0.0000000), wk =   0.0555556
        k(   29) = (   0.0302445  -0.0745035   0.0000000), wk =   0.0555556
        k(   30) = (   0.0302445  -0.0424936   0.0000000), wk =   0.0555556
        k(   31) = (   0.0604890  -0.0209674   0.0000000), wk =   0.0555556
        k(   32) = (   0.0604890   0.0110426   0.0000000), wk =   0.0555556
        k(   33) = (   0.0604890   0.0430525   0.0000000), wk =   0.0555556
        k(   34) = (   0.0604890  -0.1169972   0.0000000), wk =   0.0555556
        k(   35) = (   0.0604890  -0.0849872   0.0000000), wk =   0.0555556
        k(   36) = (   0.0604890  -0.0529773   0.0000000), wk =   0.0555556
        k(   37) = (  -0.0907334   0.0314510   0.0000000), wk =   0.0277778
        k(   38) = (  -0.0907334   0.0634610   0.0000000), wk =   0.0555556
        k(   39) = (  -0.0907334   0.0954709   0.0000000), wk =   0.0555556
        k(   40) = (  -0.0907334  -0.0645788   0.0000000), wk =   0.0277778

     Largest allocated arrays     est. size (Mb)     dimensions
     Largest temporary arrays     est. size (Mb)     dimensions

     Check: negative/imaginary core charge=   -0.000003    0.000000

     Initial potential from superposition of free atoms
     Check: negative starting charge=(component1):   -0.379642
     Check: negative starting charge=(component2):   -0.271205

     starting charge  155.99999, renormalised to  180.00000

     negative rho (up, down):  4.380E-01 3.129E-01

     *
     * You are using vdW-DF for exchange-correlation in this calculation.
     * Please cite the following three references that made this development
     * possible:
     *
     *   M. Dion, H. Rydberg, E. Schroder, D. C. Langreth, and
     *   B. I. Lundqvist, Phys. Rev. Lett. 92, 246401 (2004).
     *
     *   T. Thonhauser, V. R. Cooper, S. Li, A. Puzder, P. Hyldgaard, and
     *   D. C. Langreth, Phys. Rev. B 76, 125112 (2007).
     *
     *   G. Roman-Perez and J. M. Soler, Phys. Rev. Lett. 103, 096102 (2009).
     *
     *
     * If you are using vdW-DF2, please also cite:
     *
     *   K. Lee, E. D. Murray, L. Kong, B. I. Lundqvist, and
     *   D. C. Langreth, Phys. Rev. B 82, 081101(R) (2010).
     *
     *
     * If you are calculating the stress with vdW-DF, please also cite:
     *
     *   R. Sabatini, E. Kucukbenli, B. Kolb, T. Thonhauser, and
     *   S. de Gironcoli, J. Phys.: Condens. Matter 24, 424209 (2012).
     *

     Carrying out vdW-DF run using the following parameters:

     Nqs =      20    Nr_points =    1024   r_max =   100.000
     q_mesh =
               0.00001000     0.04494208     0.09755937     0.15916263
               0.23128650     0.31572767     0.41458969     0.53033537
               0.66584808     0.82450364     1.01025438     1.22772762
               1.48234092     1.78043706     2.12944203     2.53805004
               3.01644009     3.57652955     4.23227104     5.00000000

     Gradients computed in reciprocal space

     Adding external electric field

     Computed dipole along edir(3) :
        Dipole                0.0000 Ry au,          0.0000 Debye
        Dipole field          0.0000 Ry au

        Potential amp.       -0.0000 Ry
        Total length         45.1209 bohr

[...]

     Starting wfc are  156 randomized atomic wfcs

     Self-consistent Calculation

     iteration #  1     ecut=    36.75 Ry     beta=0.10
     Davidson diagonalization with overlap
     ethr =  1.00E-02,  avg # of iterations =  8.0

[...]

     Magnetic moment per site:
     atom:    1    charge:   10.1684    magn:    1.0831    constr:    0.0000
     atom:    2    charge:   10.1684    magn:    1.0831    constr:    0.0000
     atom:    3    charge:    1.2574    magn:    0.1932    constr:    0.0000
     atom:    4    charge:    1.2574    magn:    0.1932    constr:    0.0000
[...]
                                                       0.980   0.980

     PseudoPot. # 2 for Hf read from file:
     /afs/slac.stanford.edu/u/if/mamunm/psp/gbrv1.5pbe/Hf.UPF
     MD5 check sum: 8ee9378dfe14276e333edf04c5e4aa26
     Pseudo is Ultrasoft + core correction, Zval = 12.0
     Generated by new atomic code, or converted to UPF format
     Using radial grid of  921 points,  8 beta functions with:
                l(1) =   0
                l(2) =   0
                l(3) =   0
                l(4) =   1
                l(5) =   1
                l(6) =   2
                l(7) =   2
                l(8) =   3
     Q(r) pseudized with  6 coefficients,  rinner =    1.200   1.200   1.200
                                                       1.200   1.200   1.200
                                                       1.200

     vdW kernel table read from file vdW_kernel_table
     MD5 check sum: 095c7af220d748ca6e76c0b4c6cfb241

     atomic species   valence    mass     pseudopotential
        Ni1           18.00    58.69340     Ni( 1.00)
        Hf1           12.00   178.49000     Hf( 1.00)

     Starting magnetic structure
     atomic species   magnetization
        Ni1          0.111
        Hf1          0.167

     No symmetry found

   Cartesian axes

     site n.     atom                  positions (alat units)
         1           Ni1 tau(   1) = (   0.0000000   0.0000000  10.0000000  )
         2           Ni1 tau(   2) = (   3.6577297   2.6033585  10.0000000  )
         3           Hf1 tau(   3) = (   2.7553242   0.0000000  10.0000000  )
         4           Hf1 tau(   4) = (   0.9024055   2.6033585  10.0000000  )
         5           Ni1 tau(   5) = (   5.5106483   3.9221578  12.2446033  )
         6           Ni1 tau(   6) = (   1.8529186   1.3187993  12.2446033  )
         7           Hf1 tau(   7) = (   2.7553242   3.9221578  12.2446033  )
         8           Hf1 tau(   8) = (   4.6082428   1.3187993  12.2446033  )
         9           Ni1 tau(   9) = (   3.6980504   2.6320587  14.2697447  )
        10           Ni1 tau(  10) = (   0.0402105   0.0286177  14.2696715  )
        11           Hf1 tau(  11) = (   0.9401010   2.6301292  14.5038243  )
        12           Hf1 tau(  12) = (   2.7929661   0.0268492  14.5038248  )

     number of k points=    40  Fermi-Dirac smearing, width (Ry)=  0.0110
                       cart. coord. in units 2pi/alat
        k(    1) = (   0.0000000   0.0000000   0.0000000), wk =   0.0277778
        k(    2) = (   0.0000000   0.0320099   0.0000000), wk =   0.0555556
        k(    3) = (   0.0000000   0.0640199   0.0000000), wk =   0.0555556
        k(    4) = (   0.0000000  -0.0960298   0.0000000), wk =   0.0277778
        k(    5) = (   0.0302445  -0.0104837   0.0000000), wk =   0.0555556
        k(    6) = (   0.0302445   0.0215263   0.0000000), wk =   0.0555556
        k(    7) = (   0.0302445   0.0535362   0.0000000), wk =   0.0555556
        k(    8) = (   0.0302445  -0.1065135   0.0000000), wk =   0.0555556
        k(    9) = (   0.0302445  -0.0745035   0.0000000), wk =   0.0555556
        k(   10) = (   0.0302445  -0.0424936   0.0000000), wk =   0.0555556
        k(   11) = (   0.0604890  -0.0209674   0.0000000), wk =   0.0555556
        k(   12) = (   0.0604890   0.0110426   0.0000000), wk =   0.0555556
        k(   13) = (   0.0604890   0.0430525   0.0000000), wk =   0.0555556
        k(   14) = (   0.0604890  -0.1169972   0.0000000), wk =   0.0555556
        k(   15) = (   0.0604890  -0.0849872   0.0000000), wk =   0.0555556
        k(   16) = (   0.0604890  -0.0529773   0.0000000), wk =   0.0555556
        k(   17) = (  -0.0907334   0.0314510   0.0000000), wk =   0.0277778
        k(   18) = (  -0.0907334   0.0634610   0.0000000), wk =   0.0555556
        k(   19) = (  -0.0907334   0.0954709   0.0000000), wk =   0.0555556
        k(   20) = (  -0.0907334  -0.0645788   0.0000000), wk =   0.0277778
        k(   21) = (   0.0000000   0.0000000   0.0000000), wk =   0.0277778
        k(   22) = (   0.0000000   0.0320099   0.0000000), wk =   0.0555556
        k(   23) = (   0.0000000   0.0640199   0.0000000), wk =   0.0555556
        k(   24) = (   0.0000000  -0.0960298   0.0000000), wk =   0.0277778
        k(   25) = (   0.0302445  -0.0104837   0.0000000), wk =   0.0555556
        k(   26) = (   0.0302445   0.0215263   0.0000000), wk =   0.0555556
        k(   27) = (   0.0302445   0.0535362   0.0000000), wk =   0.0555556
        k(   28) = (   0.0302445  -0.1065135   0.0000000), wk =   0.0555556
        k(   29) = (   0.0302445  -0.0745035   0.0000000), wk =   0.0555556
        k(   30) = (   0.0302445  -0.0424936   0.0000000), wk =   0.0555556
        k(   31) = (   0.0604890  -0.0209674   0.0000000), wk =   0.0555556
        k(   32) = (   0.0604890   0.0110426   0.0000000), wk =   0.0555556
        k(   33) = (   0.0604890   0.0430525   0.0000000), wk =   0.0555556
        k(   34) = (   0.0604890  -0.1169972   0.0000000), wk =   0.0555556
        k(   35) = (   0.0604890  -0.0849872   0.0000000), wk =   0.0555556
        k(   36) = (   0.0604890  -0.0529773   0.0000000), wk =   0.0555556
        k(   37) = (  -0.0907334   0.0314510   0.0000000), wk =   0.0277778
        k(   38) = (  -0.0907334   0.0634610   0.0000000), wk =   0.0555556
        k(   39) = (  -0.0907334   0.0954709   0.0000000), wk =   0.0555556
        k(   40) = (  -0.0907334  -0.0645788   0.0000000), wk =   0.0277778

     Largest allocated arrays     est. size (Mb)     dimensions
     Largest temporary arrays     est. size (Mb)     dimensions

     Check: negative/imaginary core charge=   -0.000004    0.000000

     Initial potential from superposition of free atoms
     Check: negative starting charge=(component1):   -0.379837
     Check: negative starting charge=(component2):   -0.271343

     starting charge  155.99999, renormalised to  180.00000

[...]

     *
     * You are using vdW-DF for exchange-correlation in this calculation.
     * Please cite the following three references that made this development
     * possible:
     *
     *   M. Dion, H. Rydberg, E. Schroder, D. C. Langreth, and
     *   B. I. Lundqvist, Phys. Rev. Lett. 92, 246401 (2004).
     *
     *   T. Thonhauser, V. R. Cooper, S. Li, A. Puzder, P. Hyldgaard, and
     *   D. C. Langreth, Phys. Rev. B 76, 125112 (2007).
     *
     *   G. Roman-Perez and J. M. Soler, Phys. Rev. Lett. 103, 096102 (2009).
     *
     *
     * If you are using vdW-DF2, please also cite:
     *
     *   K. Lee, E. D. Murray, L. Kong, B. I. Lundqvist, and
     *   D. C. Langreth, Phys. Rev. B 82, 081101(R) (2010).
     *
     *
     * If you are calculating the stress with vdW-DF, please also cite:
     *
     *   R. Sabatini, E. Kucukbenli, B. Kolb, T. Thonhauser, and
     *   S. de Gironcoli, J. Phys.: Condens. Matter 24, 424209 (2012).
     *

     Carrying out vdW-DF run using the following parameters:

     Nqs =      20    Nr_points =    1024   r_max =   100.000
     q_mesh =
               0.00001000     0.04494208     0.09755937     0.15916263
               0.23128650     0.31572767     0.41458969     0.53033537
               0.66584808     0.82450364     1.01025438     1.22772762
               1.48234092     1.78043706     2.12944203     2.53805004
               3.01644009     3.57652955     4.23227104     5.00000000

     Gradients computed in reciprocal space

[...]

     Starting wfc are  156 randomized atomic wfcs

     Self-consistent Calculation

[...]

     total energy              =   -3030.19089455 Ry
     Harris-Foulkes estimate   =   -3030.19089076 Ry
     estimated scf accuracy    <       0.00000121 Ry

[...]

     iteration # 36     ecut=    36.75 Ry     beta=0.10
     Davidson diagonalization with overlap
     ethr =  6.75E-10,  avg # of iterations =  1.1

[...]

     negative rho (up, down):  3.467E-01 3.467E-01

[...]

     Adding external electric field

     Computed dipole along edir(3) :
        Dipole                0.0696 Ry au,          0.1769 Debye
        Dipole field          0.0002 Ry au

        Potential amp.       -0.0166 Ry
        Total length         45.1209 bohr

     Magnetic moment per site:
     atom:    1    charge:    9.3474    magn:   -0.0006    constr:    0.0000
     atom:    2    charge:    9.3475    magn:   -0.0006    constr:    0.0000
     atom:    3    charge:    1.1415    magn:    0.0000    constr:    0.0000
     atom:    4    charge:    1.1415    magn:    0.0000    constr:    0.0000
     atom:    5    charge:    9.3407    magn:    0.0012    constr:    0.0000
     atom:    6    charge:    9.3407    magn:    0.0011    constr:    0.0000
     atom:    7    charge:    1.1456    magn:    0.0000    constr:    0.0000
     atom:    8    charge:    1.1456    magn:    0.0000    constr:    0.0000
     atom:    9    charge:    9.3428    magn:   -0.0010    constr:    0.0000
     atom:   10    charge:    9.3428    magn:   -0.0010    constr:    0.0000
     atom:   11    charge:    1.1405    magn:    0.0000    constr:    0.0000
     atom:   12    charge:    1.1405    magn:    0.0000    constr:    0.0000

     End of self-consistent calculation

 ------ SPIN UP ------------

[...]

 ------ SPIN DOWN ----------

[...]

          k = 0.0605-0.0530 0.0000 ( 17867 PWs)   bands (ev):

[...]

          k =-0.0907-0.0646 0.0000 ( 17920 PWs)   bands (ev):

  -102.0739-102.0736-102.0609-102.0605-101.8426-101.8422 -62.4868 -62.4830
   -62.4631 -62.4555 -62.4444 -62.4430 -62.4339 -62.4318 -62.4301 -62.4254
   -62.4080 -62.4064 -62.3257 -62.3218 -62.2329 -62.2261 -62.1119 -62.1108
   -61.5793 -61.5642 -61.4936 -61.4785 -60.9548 -60.9389 -30.2284 -30.1809
   -30.1637 -30.1295 -30.0899 -30.0874 -30.0870 -30.0287 -30.0115 -29.9572
   -29.7956 -29.7286 -29.7172 -29.4969 -29.4829 -29.4659 -29.4526 -29.3440
    -3.9894  -3.7585  -2.6815  -2.5315  -2.3313  -2.0015  -1.7203  -1.6237
    -1.5969  -1.3675  -1.1469  -1.0940  -1.0188  -0.9849  -0.9620  -0.9561
    -0.8139  -0.8040  -0.6832  -0.6445  -0.6099  -0.5883  -0.5761  -0.5215
    -0.4581  -0.3666  -0.3438  -0.3415  -0.3152  -0.2757  -0.2292  -0.1745
    -0.1590  -0.0514   0.0064   0.0679   0.1570   0.1861   0.2990   0.3292
     0.4764   1.1324   1.2142   1.3344   1.3595   1.3673   1.6631   1.7148
     1.9664   2.5789   2.6023   2.6209   3.0207   3.0776   3.2572   3.3430
     3.3990   3.6346   3.6627   4.0269   4.3731   4.4794   5.0606   5.5618
     5.8723   5.9260   6.0209   6.1798   6.3771   6.5223   6.6242   6.8282

     the Fermi energy is     1.5412 ev

!    total energy              =   -3030.19091117 Ry
     Harris-Foulkes estimate   =   -3030.19089547 Ry
     estimated scf accuracy    <       0.00000075 Ry

     The total energy is the sum of the following terms:

     one-electron contribution =  -18444.06099913 Ry
     hartree contribution      =    9220.38624891 Ry
     xc contribution           =    -684.60155274 Ry
     ewald contribution        =    6878.15588093 Ry
     electric field correction =       0.00001284 Ry
     smearing contrib. (-TS)   =      -0.07050197 Ry

     total magnetization       =     0.00 Bohr mag/cell
     absolute magnetization    =     0.02 Bohr mag/cell

     convergence has been achieved in  36 iterations

 BEEF-vdW xc energy contributions
           1 :   -614.063110130636
           2 :    566.448031239465
           3 :   -483.537193604191
           4 :    384.814885670019
           5 :   -289.597225589116
           6 :    210.924321857274
           7 :   -153.242593932216
           8 :    114.028525051869
           9 :   -87.6671491779216
          10 :    69.0963926756850
          11 :   -55.5581070741230
          12 :    46.1719546942269
          13 :   -40.4001367974037
          14 :    36.8027582571207
          15 :   -33.0251427262048
          16 :    26.8860999305831
          17 :   -17.7035307753180
          18 :    6.82399415783948
          19 :    3.03358311930981
          20 :   -9.23766912327062
          21 :    10.5824150029031
          22 :   -7.76482500606312
          23 :    2.81923357309381
          24 :    1.99866346393162
          25 :   -5.18059972558660
          26 :    6.28023740584308
          27 :   -5.59829810063263
          28 :    3.62373839433178
          29 :  -0.705121217595092
          30 :   -2.88138349804308
          31 :   -46.2130320966868
          32 :   -32.9180404751718

     Forces acting on atoms (Ry/au):

     negative rho (up, down):  3.467E-01 3.467E-01
     atom    1 type  1   force =    -0.00008486   -0.00005951    0.03118616
     atom    2 type  1   force =    -0.00008352   -0.00006031    0.03120787
     atom    3 type  2   force =     0.00180585    0.00128492   -0.01211805
     atom    4 type  2   force =     0.00180583    0.00128572   -0.01211836
     atom    5 type  1   force =    -0.00004609   -0.00003460    0.00575341
     atom    6 type  1   force =    -0.00007680   -0.00005307    0.00576630
     atom    7 type  2   force =    -0.00092836   -0.00068255   -0.02522016
     atom    8 type  2   force =    -0.00094974   -0.00065413   -0.02522028
     atom    9 type  1   force =    -0.00040816   -0.00029281    0.00057092
     atom   10 type  1   force =    -0.00040657   -0.00028717    0.00060364
     atom   11 type  2   force =    -0.00032089   -0.00021252   -0.00020546
     atom   12 type  2   force =    -0.00030668   -0.00023398   -0.00020597

     Total force =     0.059940     Total SCF correction =     0.002405

     entering subroutine stress ...

     negative rho (up, down):  3.467E-01 3.467E-01
          total   stress  (Ry/bohr**3)                   (kbar)     P=  -42.46
  -0.00032855  -0.00001957  -0.00000452        -48.33     -2.88     -0.66
  -0.00001957  -0.00031499  -0.00000321         -2.88    -46.34     -0.47
  -0.00000452  -0.00000321  -0.00022237         -0.66     -0.47    -32.71

 !ASE

     Writing output data file calc.save

     General routines

     Parallel routines

   This run was terminated on:  22:52: 0  18Dec2018

   JOB DONE.
Job  /afs/slac/g/suncat/bin/suncat-tsmpirun -x LD_LIBRARY_PATH -wdir /scratch/qe530344_6ZZ11 pw.x -in pw.inp

TID   HOST_NAME   COMMAND_LINE            STATUS            TERMINATION_TIME
00000 suncat2060 pw.x -in pw.inp   Done                     12/18/2018 22:52:00
00001 suncat2060 pw.x -in pw.inp   Done                     12/18/2018 22:52:00
00002 suncat2060 pw.x -in pw.inp   Done                     12/18/2018 22:52:00
00003 suncat2060 pw.x -in pw.inp   Done                     12/18/2018 22:52:00
00004 suncat2060 pw.x -in pw.inp   Done                     12/18/2018 22:52:00
00005 suncat2060 pw.x -in pw.inp   Done                     12/18/2018 22:52:00
00006 suncat2060 pw.x -in pw.inp   Done                     12/18/2018 22:52:00
00007 suncat2060 pw.x -in pw.inp   Done                     12/18/2018 22:52:00
00008 suncat2060 pw.x -in pw.inp   Done                     12/18/2018 22:52:00
00009 suncat2060 pw.x -in pw.inp   Done                     12/18/2018 22:52:00
00010 suncat2060 pw.x -in pw.inp   Done                     12/18/2018 22:52:00
00011 suncat2060 pw.x -in pw.inp   Done                     12/18/2018 22:52:00
00012 suncat2060 pw.x -in pw.inp   Done                     12/18/2018 22:52:00
00013 suncat2060 pw.x -in pw.inp   Done                     12/18/2018 22:52:00
00014 suncat2060 pw.x -in pw.inp   Done                     12/18/2018 22:52:00
00015 suncat2060 pw.x -in pw.inp   Done                     12/18/2018 22:52:00
00016 suncat2059 pw.x -in pw.inp   Done                     12/18/2018 22:52:00
00017 suncat2059 pw.x -in pw.inp   Done                     12/18/2018 22:52:00
00018 suncat2059 pw.x -in pw.inp   Done                     12/18/2018 22:52:00
00019 suncat2059 pw.x -in pw.inp   Done                     12/18/2018 22:52:00
00020 suncat2059 pw.x -in pw.inp   Done                     12/18/2018 22:52:00
00021 suncat2059 pw.x -in pw.inp   Done                     12/18/2018 22:52:00
00022 suncat2059 pw.x -in pw.inp   Done                     12/18/2018 22:52:00
00023 suncat2059 pw.x -in pw.inp   Done                     12/18/2018 22:52:00
00024 suncat2059 pw.x -in pw.inp   Done                     12/18/2018 22:52:00
00025 suncat2059 pw.x -in pw.inp   Done                     12/18/2018 22:52:00
00026 suncat2059 pw.x -in pw.inp   Done                     12/18/2018 22:52:00
00027 suncat2059 pw.x -in pw.inp   Done                     12/18/2018 22:52:00
00028 suncat2059 pw.x -in pw.inp   Done                     12/18/2018 22:52:00
00029 suncat2059 pw.x -in pw.inp   Done                     12/18/2018 22:52:00
00030 suncat2059 pw.x -in pw.inp   Done                     12/18/2018 22:52:00
00031 suncat2059 pw.x -in pw.inp   Done                     12/18/2018 22:52:00