     Program PWSCF v.5.1rc2 (svn rev. 11289) starts on 24Dec2018 at 20:52:39

     Current dimensions of program PWSCF are:
     Max number of different atomic species (ntypx) = 10
     Max number of k-points (npk) =  40000
     Max angular momentum in pseudopotentials (lmaxx) =  3
     Presently stress not available with electric field

     IMPORTANT: XC functional enforced from input :
     Exchange-correlation      = BEEF-VDW ( 1  4 27 13 2)
     Any further DFT definition will be discarded
     Please, verify this is what you really want

     Subspace diagonalization in iterative solution of the eigenvalue problem:
     a serial algorithm will be used

     Found symmetry operation: I + ( -0.5000  0.5000  0.0000)
     This is a supercell, fractional translations are disabled

     bravais-lattice index     =            0
     lattice parameter (alat)  =       1.8897  a.u.
     unit-cell volume          =    4954.9786 (a.u.)^3
     number of atoms/cell      =           12
     number of atomic types    =            2
     number of electrons       =       162.00
     number of Kohn-Sham states=          111
     kinetic-energy cutoff     =      36.7493  Ry
     charge density cutoff     =     367.4932  Ry
     convergence threshold     =      1.0E-06
     mixing beta               =       0.1000
     number of iterations used =           10  plain     mixing
     Exchange-correlation      = BEEF-VDW ( 1  4 27 13 2)
     nstep                     =           50

     celldm(1)=   1.889726  celldm(2)=   0.000000  celldm(3)=   0.000000
     celldm(4)=   0.000000  celldm(5)=   0.000000  celldm(6)=   0.000000

     crystal axes: (cart. coord. in units of alat)
               a(1) = (   5.702311   0.000000   0.000000 )
               a(2) = (   2.321927   5.208167   0.000000 )
               a(3) = (   0.000000   0.000000  24.723466 )

     reciprocal axes: (cart. coord. in units 2 pi/alat)
               b(1) = (  0.175367 -0.078183  0.000000 )
               b(2) = (  0.000000  0.192006  0.000000 )
               b(3) = (  0.000000  0.000000  0.040447 )

     PseudoPot. # 1 for Hf read from file:
     /afs/slac.stanford.edu/u/if/mamunm/psp/gbrv1.5pbe/Hf.UPF
     MD5 check sum: 8ee9378dfe14276e333edf04c5e4aa26
     Pseudo is Ultrasoft + core correction, Zval = 12.0
     Generated by new atomic code, or converted to UPF format
     Using radial grid of  921 points,  8 beta functions with:
                l(1) =   0
                l(2) =   0
                l(3) =   0
                l(4) =   1
                l(5) =   1
                l(6) =   2
                l(7) =   2
                l(8) =   3
     Q(r) pseudized with  6 coefficients,  rinner =    1.200   1.200   1.200
                                                       1.200   1.200   1.200
                                                       1.200

     PseudoPot. # 2 for Ir read from file:
     /afs/slac.stanford.edu/u/if/mamunm/psp/gbrv1.5pbe/Ir.UPF
     MD5 check sum: 8836f839c3459d2b385c504ce6d91f2c
     Pseudo is Ultrasoft + core correction, Zval = 15.0
     Generated by new atomic code, or converted to UPF format
     Using radial grid of  983 points,  7 beta functions with:
                l(1) =   0
                l(2) =   0
                l(3) =   1
                l(4) =   1
                l(5) =   1
                l(6) =   2
                l(7) =   2
     Q(r) pseudized with  8 coefficients,  rinner =    1.400   1.400   1.400
                                                       1.400   1.400

     vdW kernel table read from file vdW_kernel_table
     MD5 check sum: 095c7af220d748ca6e76c0b4c6cfb241

     atomic species   valence    mass     pseudopotential
        Hf1           12.00   178.49000     Hf( 1.00)
        Ir1           15.00   192.21700     Ir( 1.00)

     No symmetry found

   Cartesian axes

     site n.     atom                  positions (alat units)
         1           Hf1 tau(   1) = (   0.0000000   0.0000000  10.0000000  )
         2           Hf1 tau(   2) = (   4.0121187   2.6040836  10.0000000  )
         3           Ir1 tau(   3) = (   2.8511554   0.0000000  10.0000000  )
         4           Ir1 tau(   4) = (   1.1609633   2.6040836  10.0000000  )
         5           Hf1 tau(   5) = (   5.7023109   3.7011104  12.3617332  )
         6           Hf1 tau(   6) = (   1.6901922   1.0970268  12.3617332  )
         7           Ir1 tau(   7) = (   2.8511554   3.7011104  12.3617332  )
         8           Ir1 tau(   8) = (   4.5413476   1.0970268  12.3617332  )
         9           Hf1 tau(   9) = (   3.3803843   2.1940536  14.7234665  )
        10           Hf1 tau(  10) = (   7.3925031   4.7981372  14.7234665  )
        11           Ir1 tau(  11) = (   6.2315398   2.1940536  14.7234665  )
        12           Ir1 tau(  12) = (   4.5413476   4.7981372  14.7234665  )

     number of k points=    20  Fermi-Dirac smearing, width (Ry)=  0.0110
                       cart. coord. in units 2pi/alat
        k(    1) = (   0.0000000   0.0000000   0.0000000), wk =   0.0555556
        k(    2) = (   0.0000000   0.0320010   0.0000000), wk =   0.1111111
        k(    3) = (   0.0000000   0.0640020   0.0000000), wk =   0.1111111
        k(    4) = (   0.0000000  -0.0960031   0.0000000), wk =   0.0555556
        k(    5) = (   0.0292279  -0.0130305   0.0000000), wk =   0.1111111
        k(    6) = (   0.0292279   0.0189705   0.0000000), wk =   0.1111111
        k(    7) = (   0.0292279   0.0509715   0.0000000), wk =   0.1111111
        k(    8) = (   0.0292279  -0.1090336   0.0000000), wk =   0.1111111
        k(    9) = (   0.0292279  -0.0770326   0.0000000), wk =   0.1111111
        k(   10) = (   0.0292279  -0.0450315   0.0000000), wk =   0.1111111
        k(   11) = (   0.0584558  -0.0260610   0.0000000), wk =   0.1111111
        k(   12) = (   0.0584558   0.0059400   0.0000000), wk =   0.1111111
        k(   13) = (   0.0584558   0.0379410   0.0000000), wk =   0.1111111
        k(   14) = (   0.0584558  -0.1220641   0.0000000), wk =   0.1111111
        k(   15) = (   0.0584558  -0.0900631   0.0000000), wk =   0.1111111
        k(   16) = (   0.0584558  -0.0580620   0.0000000), wk =   0.1111111
        k(   17) = (  -0.0876837   0.0390915   0.0000000), wk =   0.0555556
        k(   18) = (  -0.0876837   0.0710926   0.0000000), wk =   0.1111111
        k(   19) = (  -0.0876837   0.1030936   0.0000000), wk =   0.1111111
        k(   20) = (  -0.0876837  -0.0569115   0.0000000), wk =   0.0555556

     Largest allocated arrays     est. size (Mb)     dimensions
     Largest temporary arrays     est. size (Mb)     dimensions

     Check: negative/imaginary core charge=   -0.000003    0.000000

     Initial potential from superposition of free atoms
     Check: negative starting charge=   -2.827821

     starting charge  146.99980, renormalised to  162.00000

     negative rho (up, down):  3.116E+00 0.000E+00

     *
     * You are using vdW-DF for exchange-correlation in this calculation.
     * Please cite the following three references that made this development
     * possible:
     *
     *   M. Dion, H. Rydberg, E. Schroder, D. C. Langreth, and
     *   B. I. Lundqvist, Phys. Rev. Lett. 92, 246401 (2004).
     *
     *   T. Thonhauser, V. R. Cooper, S. Li, A. Puzder, P. Hyldgaard, and
     *   D. C. Langreth, Phys. Rev. B 76, 125112 (2007).
     *
     *   G. Roman-Perez and J. M. Soler, Phys. Rev. Lett. 103, 096102 (2009).
     *
     *
     * If you are using vdW-DF2, please also cite:
     *
     *   K. Lee, E. D. Murray, L. Kong, B. I. Lundqvist, and
     *   D. C. Langreth, Phys. Rev. B 82, 081101(R) (2010).
     *
     *
     * If you are calculating the stress with vdW-DF, please also cite:
     *
     *   R. Sabatini, E. Kucukbenli, B. Kolb, T. Thonhauser, and
     *   S. de Gironcoli, J. Phys.: Condens. Matter 24, 424209 (2012).
     *

     Carrying out vdW-DF run using the following parameters:

     Nqs =      20    Nr_points =    1024   r_max =   100.000
     q_mesh =
               0.00001000     0.04494208     0.09755937     0.15916263
               0.23128650     0.31572767     0.41458969     0.53033537
               0.66584808     0.82450364     1.01025438     1.22772762
               1.48234092     1.78043706     2.12944203     2.53805004
               3.01644009     3.57652955     4.23227104     5.00000000

     Gradients computed in reciprocal space

     Adding external electric field

     Computed dipole along edir(3) :
        Dipole                0.0000 Ry au,          0.0000 Debye
        Dipole field          0.0000 Ry au

        Potential amp.       -0.0000 Ry
        Total length         45.5526 bohr

     Starting wfc are  150 randomized atomic wfcs

     Self-consistent Calculation

     iteration #  1     ecut=    36.75 Ry     beta=0.10
     Davidson diagonalization with overlap
     ethr =  1.00E-02,  avg # of iterations =  7.5

[...]

     total energy              =   -2044.03248014 Ry
     Harris-Foulkes estimate   =   -2078.84442298 Ry
     estimated scf accuracy    <     197.91866486 Ry

[...]

     End of self-consistent calculation

          k = 0.0000 0.0000 0.0000 ( 18725 PWs)   bands (ev):

   -60.7183 -60.7179 -60.6931 -60.6927 -60.4553 -60.4295 -47.1960 -47.0994
   -47.0716 -47.0626 -47.0201 -47.0107 -46.5430 -46.5422 -46.5334 -46.5322
   -46.4997 -46.4989 -46.4047 -46.4043 -46.3634 -46.3628 -46.3554 -46.3544
   -29.4207 -29.3933 -29.3888 -29.3779 -29.3746 -29.3247 -29.2615 -29.1783
   -29.1474 -29.1338 -29.1015 -28.9868 -28.9444 -28.9166 -28.9145 -28.9139
   -28.8555 -28.7721  -5.8226  -4.0393  -3.4431  -3.0016  -2.9794  -2.9117
    -2.7723  -2.7544  -2.5938  -2.3195  -2.0013  -1.9282  -1.9048  -1.7733
    -1.7712  -0.8161  -0.7124  -0.6923  -0.6500  -0.5947  -0.5863  -0.3388
    -0.0973   0.0876   0.0880   0.2024   0.2272   0.4136   0.6246   1.1349
     1.1951   1.2759   1.3921   1.6729   2.5355   2.5400   2.6687   2.6881
     2.6911   2.9555   3.0692   3.0866   3.1270   3.3592   3.4468   3.6774
     3.7556   3.8342   3.8509   3.8534   4.2506   4.7628   4.9823   5.1119
     5.1531   5.4000   5.4200   5.4758   5.5691   5.9413   6.0198   6.1327
     6.3429   6.5051   6.5776   6.6307   7.4525   7.4654   7.4904

[...]

          k =-0.0877 0.0391 0.0000 ( 18604 PWs)   bands (ev):

[...]

     the Fermi energy is     2.2634 ev

!    total energy              =   -2064.01222143 Ry
     Harris-Foulkes estimate   =   -2064.01216690 Ry
     estimated scf accuracy    <       0.00000076 Ry

     The total energy is the sum of the following terms:

     one-electron contribution =  -12881.53336375 Ry
     hartree contribution      =    6448.88881275 Ry
     xc contribution           =    -776.22500894 Ry
     ewald contribution        =    5144.90566357 Ry
     electric field correction =       0.00000000 Ry
     smearing contrib. (-TS)   =      -0.04832507 Ry

     convergence has been achieved in  18 iterations

 BEEF-vdW xc energy contributions
           1 :   -696.305269217034
           2 :    647.515546234087
           3 :   -560.596449320107
           4 :    452.972759720702
           5 :   -343.236021975725
           6 :    246.132790735138
[...]
                l(2) =   0
                l(3) =   0
                l(4) =   1
                l(5) =   1
                l(6) =   2
                l(7) =   2
                l(8) =   3
     Q(r) pseudized with  6 coefficients,  rinner =    1.200   1.200   1.200
                                                       1.200   1.200   1.200
                                                       1.200

     PseudoPot. # 2 for Ir read from file:
     /afs/slac.stanford.edu/u/if/mamunm/psp/gbrv1.5pbe/Ir.UPF
     MD5 check sum: 8836f839c3459d2b385c504ce6d91f2c
     Pseudo is Ultrasoft + core correction, Zval = 15.0
     Generated by new atomic code, or converted to UPF format
     Using radial grid of  983 points,  7 beta functions with:
                l(1) =   0
                l(2) =   0
                l(3) =   1
                l(4) =   1
                l(5) =   1
                l(6) =   2
                l(7) =   2
     Q(r) pseudized with  8 coefficients,  rinner =    1.400   1.400   1.400
                                                       1.400   1.400

     vdW kernel table read from file vdW_kernel_table
     MD5 check sum: 095c7af220d748ca6e76c0b4c6cfb241

     atomic species   valence    mass     pseudopotential
        Hf1           12.00   178.49000     Hf( 1.00)
        Ir1           15.00   192.21700     Ir( 1.00)

     No symmetry found

   Cartesian axes

     site n.     atom                  positions (alat units)
         1           Hf1 tau(   1) = (   0.0000000   0.0000000  10.0000000  )
         2           Hf1 tau(   2) = (   4.0121187   2.6040836  10.0000000  )
         3           Ir1 tau(   3) = (   2.8511554   0.0000000  10.0000000  )
         4           Ir1 tau(   4) = (   1.1609633   2.6040836  10.0000000  )
         5           Hf1 tau(   5) = (   5.7023109   3.7011104  12.3617332  )
         6           Hf1 tau(   6) = (   1.6901922   1.0970268  12.3617332  )
         7           Ir1 tau(   7) = (   2.8511554   3.7011104  12.3617332  )
         8           Ir1 tau(   8) = (   4.5413476   1.0970268  12.3617332  )
         9           Hf1 tau(   9) = (   3.6975521   2.3999099  14.7289022  )
        10           Hf1 tau(  10) = (   7.7096700   5.0040015  14.7289021  )
        11           Ir1 tau(  11) = (   6.5561963   2.4047697  14.5305372  )
        12           Ir1 tau(  12) = (   4.8660059   5.0088602  14.5305366  )

     number of k points=    20  Fermi-Dirac smearing, width (Ry)=  0.0110
                       cart. coord. in units 2pi/alat
        k(    1) = (   0.0000000   0.0000000   0.0000000), wk =   0.0555556
        k(    2) = (   0.0000000   0.0320010   0.0000000), wk =   0.1111111
        k(    3) = (   0.0000000   0.0640020   0.0000000), wk =   0.1111111
        k(    4) = (   0.0000000  -0.0960031   0.0000000), wk =   0.0555556
        k(    5) = (   0.0292279  -0.0130305   0.0000000), wk =   0.1111111
        k(    6) = (   0.0292279   0.0189705   0.0000000), wk =   0.1111111
        k(    7) = (   0.0292279   0.0509715   0.0000000), wk =   0.1111111
        k(    8) = (   0.0292279  -0.1090336   0.0000000), wk =   0.1111111
        k(    9) = (   0.0292279  -0.0770326   0.0000000), wk =   0.1111111
        k(   10) = (   0.0292279  -0.0450315   0.0000000), wk =   0.1111111
        k(   11) = (   0.0584558  -0.0260610   0.0000000), wk =   0.1111111
        k(   12) = (   0.0584558   0.0059400   0.0000000), wk =   0.1111111
        k(   13) = (   0.0584558   0.0379410   0.0000000), wk =   0.1111111
        k(   14) = (   0.0584558  -0.1220641   0.0000000), wk =   0.1111111
        k(   15) = (   0.0584558  -0.0900631   0.0000000), wk =   0.1111111
        k(   16) = (   0.0584558  -0.0580620   0.0000000), wk =   0.1111111
        k(   17) = (  -0.0876837   0.0390915   0.0000000), wk =   0.0555556
        k(   18) = (  -0.0876837   0.0710926   0.0000000), wk =   0.1111111
        k(   19) = (  -0.0876837   0.1030936   0.0000000), wk =   0.1111111
        k(   20) = (  -0.0876837  -0.0569115   0.0000000), wk =   0.0555556

     Largest allocated arrays     est. size (Mb)     dimensions
     Largest temporary arrays     est. size (Mb)     dimensions

     Check: negative/imaginary core charge=   -0.000003    0.000000

     Initial potential from superposition of free atoms
     Check: negative starting charge=   -2.826795

     starting charge  146.99980, renormalised to  162.00000

[...]

     *
     * You are using vdW-DF for exchange-correlation in this calculation.
     * Please cite the following three references that made this development
     * possible:
     *
     *   M. Dion, H. Rydberg, E. Schroder, D. C. Langreth, and
     *   B. I. Lundqvist, Phys. Rev. Lett. 92, 246401 (2004).
     *
     *   T. Thonhauser, V. R. Cooper, S. Li, A. Puzder, P. Hyldgaard, and
     *   D. C. Langreth, Phys. Rev. B 76, 125112 (2007).
     *
     *   G. Roman-Perez and J. M. Soler, Phys. Rev. Lett. 103, 096102 (2009).
     *
     *
     * If you are using vdW-DF2, please also cite:
     *
     *   K. Lee, E. D. Murray, L. Kong, B. I. Lundqvist, and
     *   D. C. Langreth, Phys. Rev. B 82, 081101(R) (2010).
     *
     *
     * If you are calculating the stress with vdW-DF, please also cite:
     *
     *   R. Sabatini, E. Kucukbenli, B. Kolb, T. Thonhauser, and
     *   S. de Gironcoli, J. Phys.: Condens. Matter 24, 424209 (2012).
     *

     Carrying out vdW-DF run using the following parameters:

     Nqs =      20    Nr_points =    1024   r_max =   100.000
     q_mesh =
               0.00001000     0.04494208     0.09755937     0.15916263
               0.23128650     0.31572767     0.41458969     0.53033537
               0.66584808     0.82450364     1.01025438     1.22772762
               1.48234092     1.78043706     2.12944203     2.53805004
               3.01644009     3.57652955     4.23227104     5.00000000

     Gradients computed in reciprocal space

[...]

     Starting wfc are  150 randomized atomic wfcs

     Self-consistent Calculation

[...]

     iteration # 15     ecut=    36.75 Ry     beta=0.10
     Davidson diagonalization with overlap
     c_bands:  1 eigenvalues not converged
     ethr =  9.94E-07,  avg # of iterations =  4.4

[...]

     total energy              =   -2064.06408428 Ry
     Harris-Foulkes estimate   =   -2064.06407702 Ry
     estimated scf accuracy    <       0.00000124 Ry

     iteration # 21     ecut=    36.75 Ry     beta=0.10
     Davidson diagonalization with overlap
     ethr =  7.68E-10,  avg # of iterations =  2.4

[...]

     negative rho (up, down):  2.624E+00 0.000E+00

     Adding external electric field

     Computed dipole along edir(3) :
        Dipole                0.1029 Ry au,          0.2615 Debye
        Dipole field          0.0003 Ry au

        Potential amp.       -0.0238 Ry
        Total length         45.5526 bohr

     End of self-consistent calculation

[...]

          k = 0.0585-0.0581 0.0000 ( 18652 PWs)   bands (ev):

[...]

          k =-0.0877-0.0569 0.0000 ( 18650 PWs)   bands (ev):

   -60.6864 -60.6612 -60.5946 -60.5694 -60.1981 -60.1712 -47.1289 -47.0338
   -47.0009 -46.9921 -46.9572 -46.9500 -46.6198 -46.5996 -46.5922 -46.5248
   -46.5083 -46.5012 -46.3947 -46.3876 -46.3497 -46.2565 -46.2177 -46.2096
   -29.3558 -29.3539 -29.2969 -29.2805 -29.2753 -29.2267 -29.1514 -29.0909
   -29.0596 -29.0559 -29.0002 -28.8699 -28.7950 -28.7879 -28.7343 -28.7016
   -28.6634 -28.5509  -3.9250  -3.6771  -2.4781  -2.4011  -2.1512  -2.0454
    -1.9919  -1.9121  -1.8566  -1.5609  -1.3739  -1.2759  -1.2169  -1.1114
    -1.0565  -0.8810  -0.6295  -0.4819  -0.4177  -0.2906  -0.2598  -0.2435
    -0.1422   0.0984   0.1529   0.2293   0.3224   0.3896   0.4247   0.7658
     0.8131   0.9362   1.0916   1.1278   1.1331   1.1903   1.3495   1.4166
     1.4296   1.6448   1.9897   2.3353   2.6488   2.7009   2.7362   2.7787
     2.8969   3.2388   3.3509   3.5806   3.7377   3.8622   4.0209   4.2524
     4.4257   4.6997   5.0490   5.1206   5.1893   5.3742   5.4002   5.9598
     6.2235   6.5619   6.6295   6.8195   6.9942   7.4152   7.4404

     the Fermi energy is     2.4029 ev

!    total energy              =   -2064.06411328 Ry
     Harris-Foulkes estimate   =   -2064.06408174 Ry
     estimated scf accuracy    <       0.00000051 Ry

     The total energy is the sum of the following terms:

     one-electron contribution =  -13073.17809892 Ry
     hartree contribution      =    6545.13552771 Ry
     xc contribution           =    -776.39845724 Ry
     ewald contribution        =    5240.41736179 Ry
     electric field correction =       0.00002684 Ry
     smearing contrib. (-TS)   =      -0.04047347 Ry

     convergence has been achieved in  21 iterations

 BEEF-vdW xc energy contributions
           1 :   -696.484702013516
           2 :    647.771553735496
           3 :   -560.953671585026
           4 :    453.378993824730
           5 :   -343.581687048546
           6 :    246.306771331017
           7 :   -169.822348124572
           8 :    115.812595815090
           9 :   -81.1591285148536
          10 :    60.4112678036118
          11 :   -47.9470057869236
          12 :    39.2618261616030
          13 :   -31.3929608990694
          14 :    22.7955720442824
          15 :   -13.0650628500448
          16 :    2.67744830062588
          17 :    7.27713558137134
          18 :   -15.4724529858465
          19 :    20.8128442445128
          20 :   -22.8406709205948
          21 :    21.8873249831663
          22 :   -18.9003037820682
          23 :    15.0436233160730
          24 :   -11.2984906788877
          25 :    8.26028266101230
          26 :   -6.19130681557783
          27 :    5.20693543719028
          28 :   -5.40875716922574
          29 :    6.84254643648069
          30 :   -9.32178489467003
          31 :   -53.7595745510139
          32 :   -39.3715073963753

     Forces acting on atoms (Ry/au):

     negative rho (up, down):  2.624E+00 0.000E+00
     atom    1 type  1   force =    -0.02211746   -0.01435562   -0.02266807
     atom    2 type  1   force =    -0.02211773   -0.01435533   -0.02266813
     atom    3 type  2   force =    -0.00661449   -0.00429336    0.04420303
     atom    4 type  2   force =    -0.00661460   -0.00429363    0.04420249
     atom    5 type  1   force =     0.02047477    0.01328996   -0.02717526
     atom    6 type  1   force =     0.02047552    0.01328921   -0.02717580
     atom    7 type  2   force =     0.00801967    0.00520543    0.00485238
     atom    8 type  2   force =     0.00801956    0.00520503    0.00485188
     atom    9 type  1   force =    -0.00006781   -0.00004114    0.00044190
     atom   10 type  1   force =    -0.00006600   -0.00004637    0.00044189
     atom   11 type  2   force =     0.00030448    0.00019923    0.00034699
     atom   12 type  2   force =     0.00030408    0.00019659    0.00034670

     Total force =     0.096695     Total SCF correction =     0.004215

     entering subroutine stress ...

     negative rho (up, down):  2.624E+00 0.000E+00
          total   stress  (Ry/bohr**3)                   (kbar)     P=  -23.46
  -0.00023030  -0.00006847   0.00005251        -33.88    -10.07      7.72
  -0.00006847  -0.00016926   0.00003408        -10.07    -24.90      5.01
   0.00005251   0.00003408  -0.00007879          7.72      5.01    -11.59

 !ASE

     Writing output data file calc.save

     General routines

     Parallel routines

   This run was terminated on:  23:30:41  24Dec2018

   JOB DONE.
Job  /afs/slac/g/suncat/bin/suncat-tsmpirun -x LD_LIBRARY_PATH -wdir /scratch/qe108997_xLxU6 pw.x -in pw.inp

TID   HOST_NAME   COMMAND_LINE            STATUS            TERMINATION_TIME
00000 suncat0075 pw.x -in pw.inp   Done                     12/24/2018 23:30:41
00001 suncat0075 pw.x -in pw.inp   Done                     12/24/2018 23:30:41
00002 suncat0075 pw.x -in pw.inp   Done                     12/24/2018 23:30:41
00003 suncat0075 pw.x -in pw.inp   Done                     12/24/2018 23:30:41
00004 suncat0075 pw.x -in pw.inp   Done                     12/24/2018 23:30:41
00005 suncat0075 pw.x -in pw.inp   Done                     12/24/2018 23:30:41
00006 suncat0075 pw.x -in pw.inp   Done                     12/24/2018 23:30:41
00007 suncat0075 pw.x -in pw.inp   Done                     12/24/2018 23:30:41
00008 suncat0074 pw.x -in pw.inp   Done                     12/24/2018 23:30:41
00009 suncat0074 pw.x -in pw.inp   Done                     12/24/2018 23:30:41
00010 suncat0074 pw.x -in pw.inp   Done                     12/24/2018 23:30:41
00011 suncat0074 pw.x -in pw.inp   Done                     12/24/2018 23:30:41
00012 suncat0074 pw.x -in pw.inp   Done                     12/24/2018 23:30:41
00013 suncat0074 pw.x -in pw.inp   Done                     12/24/2018 23:30:41
00014 suncat0074 pw.x -in pw.inp   Done                     12/24/2018 23:30:41
00015 suncat0074 pw.x -in pw.inp   Done                     12/24/2018 23:30:41
00016 suncat0071 pw.x -in pw.inp   Done                     12/24/2018 23:30:41
00017 suncat0071 pw.x -in pw.inp   Done                     12/24/2018 23:30:41
00018 suncat0071 pw.x -in pw.inp   Done                     12/24/2018 23:30:41
00019 suncat0071 pw.x -in pw.inp   Done                     12/24/2018 23:30:41
00020 suncat0071 pw.x -in pw.inp   Done                     12/24/2018 23:30:41
00021 suncat0071 pw.x -in pw.inp   Done                     12/24/2018 23:30:41
00022 suncat0071 pw.x -in pw.inp   Done                     12/24/2018 23:30:41
00023 suncat0071 pw.x -in pw.inp   Done                     12/24/2018 23:30:41
00024 suncat0020 pw.x -in pw.inp   Done                     12/24/2018 23:30:41
00025 suncat0020 pw.x -in pw.inp   Done                     12/24/2018 23:30:41
00026 suncat0020 pw.x -in pw.inp   Done                     12/24/2018 23:30:41
00027 suncat0020 pw.x -in pw.inp   Done                     12/24/2018 23:30:41
00028 suncat0020 pw.x -in pw.inp   Done                     12/24/2018 23:30:41
00029 suncat0020 pw.x -in pw.inp   Done                     12/24/2018 23:30:41
00030 suncat0020 pw.x -in pw.inp   Done                     12/24/2018 23:30:41
00031 suncat0020 pw.x -in pw.inp   Done                     12/24/2018 23:30:41
00032 suncat0121 pw.x -in pw.inp   Done                     12/24/2018 23:30:41
00033 suncat0121 pw.x -in pw.inp   Done                     12/24/2018 23:30:41
00034 suncat0121 pw.x -in pw.inp   Done                     12/24/2018 23:30:41
00035 suncat0121 pw.x -in pw.inp   Done                     12/24/2018 23:30:41
00036 suncat0121 pw.x -in pw.inp   Done                     12/24/2018 23:30:41
00037 suncat0121 pw.x -in pw.inp   Done                     12/24/2018 23:30:41
00038 suncat0121 pw.x -in pw.inp   Done                     12/24/2018 23:30:41
00039 suncat0121 pw.x -in pw.inp   Done                     12/24/2018 23:30:41
00040 suncat0115 pw.x -in pw.inp   Done                     12/24/2018 23:30:41
00041 suncat0115 pw.x -in pw.inp   Done                     12/24/2018 23:30:41
00042 suncat0115 pw.x -in pw.inp   Done                     12/24/2018 23:30:41
00043 suncat0115 pw.x -in pw.inp   Done                     12/24/2018 23:30:41
00044 suncat0115 pw.x -in pw.inp   Done                     12/24/2018 23:30:41
00045 suncat0115 pw.x -in pw.inp   Done                     12/24/2018 23:30:41
00046 suncat0115 pw.x -in pw.inp   Done                     12/24/2018 23:30:41
00047 suncat0115 pw.x -in pw.inp   Done                     12/24/2018 23:30:41
00048 suncat0228 pw.x -in pw.inp   Done                     12/24/2018 23:30:41
00049 suncat0228 pw.x -in pw.inp   Done                     12/24/2018 23:30:41
00050 suncat0228 pw.x -in pw.inp   Done                     12/24/2018 23:30:41
00051 suncat0228 pw.x -in pw.inp   Done                     12/24/2018 23:30:41
00052 suncat0228 pw.x -in pw.inp   Done                     12/24/2018 23:30:41
00053 suncat0228 pw.x -in pw.inp   Done                     12/24/2018 23:30:41
00054 suncat0228 pw.x -in pw.inp   Done                     12/24/2018 23:30:41
00055 suncat0228 pw.x -in pw.inp   Done                     12/24/2018 23:30:41
00056 suncat0227 pw.x -in pw.inp   Done                     12/24/2018 23:30:41
00057 suncat0227 pw.x -in pw.inp   Done                     12/24/2018 23:30:41
00058 suncat0227 pw.x -in pw.inp   Done                     12/24/2018 23:30:41
00059 suncat0227 pw.x -in pw.inp   Done                     12/24/2018 23:30:41
00060 suncat0227 pw.x -in pw.inp   Done                     12/24/2018 23:30:41
00061 suncat0227 pw.x -in pw.inp   Done                     12/24/2018 23:30:41
00062 suncat0227 pw.x -in pw.inp   Done                     12/24/2018 23:30:41
00063 suncat0227 pw.x -in pw.inp   Done                     12/24/2018 23:30:41