     Program PWSCF v.5.1rc2 (svn rev. 11289) starts on 19Dec2018 at  2:14:24

     Current dimensions of program PWSCF are:
     Max number of different atomic species (ntypx) = 10
     Max number of k-points (npk) =  40000
     Max angular momentum in pseudopotentials (lmaxx) =  3
     Presently stress not available with electric field

     IMPORTANT: XC functional enforced from input :
     Exchange-correlation      = BEEF-VDW ( 1  4 27 13 2)
     Any further DFT definition will be discarded
     Please, verify this is what you really want

     Subspace diagonalization in iterative solution of the eigenvalue problem:
     a serial algorithm will be used

     Found symmetry operation: I + ( -0.5000  0.0000  0.0000)
     This is a supercell, fractional translations are disabled

     bravais-lattice index     =            0
     lattice parameter (alat)  =       1.8897  a.u.
     unit-cell volume          =    5038.7363 (a.u.)^3
     number of atoms/cell      =           12
     number of atomic types    =            2
     number of electrons       =       162.00
     number of Kohn-Sham states=          111
     kinetic-energy cutoff     =      36.7493  Ry
     charge density cutoff     =     367.4932  Ry
     convergence threshold     =      1.0E-06
     mixing beta               =       0.1000
     number of iterations used =           10  plain     mixing
     Exchange-correlation      = BEEF-VDW ( 1  4 27 13 2)
     nstep                     =           50

     celldm(1)=   1.889726  celldm(2)=   0.000000  celldm(3)=   0.000000
     celldm(4)=   0.000000  celldm(5)=   0.000000  celldm(6)=   0.000000

     crystal axes: (cart. coord. in units of alat)
               a(1) = (   5.584258   0.000000   0.000000 )
               a(2) = (  -2.792129   5.396137   0.000000 )
               a(3) = (   0.000000   0.000000  24.778589 )

     reciprocal axes: (cart. coord. in units 2 pi/alat)
               b(1) = (  0.179075  0.092659  0.000000 )
               b(2) = (  0.000000  0.185318  0.000000 )
               b(3) = (  0.000000  0.000000  0.040357 )

     PseudoPot. # 1 for Re read from file:
     /afs/slac.stanford.edu/u/if/mamunm/psp/gbrv1.5pbe/Re.UPF
     MD5 check sum: 85f993410f3e006da9d71c142b4ad953
     Pseudo is Ultrasoft + core correction, Zval = 15.0
     Generated by new atomic code, or converted to UPF format
     Using radial grid of  981 points,  8 beta functions with:
                l(1) =   0
                l(2) =   0
                l(3) =   1
                l(4) =   1
                l(5) =   2
                l(6) =   2
                l(7) =   3
                l(8) =   3
     Q(r) pseudized with  8 coefficients,  rinner =    1.150   1.150   1.150
                                                       1.150   1.150   1.150
                                                       1.150

     PseudoPot. # 2 for Hg read from file:
     /afs/slac.stanford.edu/u/if/mamunm/psp/gbrv1.5pbe/Hg.UPF
     MD5 check sum: 8f42caffe07f7fd9c0a564347f8c5498
     Pseudo is Ultrasoft + core correction, Zval = 12.0
     Generated by new atomic code, or converted to UPF format
     Using radial grid of  985 points,  6 beta functions with:
                l(1) =   0
                l(2) =   0
                l(3) =   1
                l(4) =   1
                l(5) =   2
                l(6) =   2
     Q(r) pseudized with  8 coefficients,  rinner =    2.000   2.000   2.000
                                                       2.000   2.000

     vdW kernel table read from file vdW_kernel_table
     MD5 check sum: 095c7af220d748ca6e76c0b4c6cfb241

     atomic species   valence    mass     pseudopotential
        Re1           15.00   186.20700     Re( 1.00)
        Hg1           12.00   200.59200     Hg( 1.00)

     No symmetry found

   Cartesian axes

     site n.     atom                  positions (alat units)
         1           Re1 tau(   1) = (   0.0000000   0.0000000  10.0000000  )
         2           Re1 tau(   2) = (   2.7921291   0.0000000  10.0000000  )
         3           Hg1 tau(   3) = (   1.3960646   2.6980685  10.0000000  )
         4           Hg1 tau(   4) = (  -1.3960646   2.6980685  10.0000000  )
         5           Re1 tau(   5) = (   2.7921291   1.4447344  12.3892943  )
         6           Re1 tau(   6) = (  -0.0000000   1.4447344  12.3892943  )
         7           Hg1 tau(   7) = (  -1.3960646   4.1428029  12.3892943  )
         8           Hg1 tau(   8) = (   1.3960646   4.1428029  12.3892943  )
         9           Re1 tau(   9) = (   0.0000000   2.8894688  14.7785887  )
        10           Re1 tau(  10) = (   2.7921291   2.8894688  14.7785887  )
        11           Hg1 tau(  11) = (   4.1881937   0.1914003  14.7785887  )
        12           Hg1 tau(  12) = (   1.3960646   0.1914003  14.7785887  )

     number of k points=    20  Fermi-Dirac smearing, width (Ry)=  0.0110
                       cart. coord. in units 2pi/alat
        k(    1) = (   0.0000000   0.0000000   0.0000000), wk =   0.0555556
        k(    2) = (   0.0000000   0.0308863   0.0000000), wk =   0.1111111
        k(    3) = (   0.0000000   0.0617726   0.0000000), wk =   0.1111111
        k(    4) = (   0.0000000  -0.0926589   0.0000000), wk =   0.0555556
        k(    5) = (   0.0298458   0.0154431   0.0000000), wk =   0.1111111
        k(    6) = (   0.0298458   0.0463294   0.0000000), wk =   0.1111111
        k(    7) = (   0.0298458   0.0772157   0.0000000), wk =   0.1111111
        k(    8) = (   0.0298458  -0.0772157   0.0000000), wk =   0.1111111
        k(    9) = (   0.0298458  -0.0463294   0.0000000), wk =   0.1111111
        k(   10) = (   0.0298458  -0.0154431   0.0000000), wk =   0.1111111
        k(   11) = (   0.0596916   0.0308863   0.0000000), wk =   0.1111111
        k(   12) = (   0.0596916   0.0617726   0.0000000), wk =   0.1111111
        k(   13) = (   0.0596916   0.0926589   0.0000000), wk =   0.1111111
        k(   14) = (   0.0596916  -0.0617726   0.0000000), wk =   0.1111111
        k(   15) = (   0.0596916  -0.0308863   0.0000000), wk =   0.1111111
        k(   16) = (   0.0596916   0.0000000   0.0000000), wk =   0.1111111
        k(   17) = (  -0.0895374  -0.0463294   0.0000000), wk =   0.0555556
        k(   18) = (  -0.0895374  -0.0154431   0.0000000), wk =   0.1111111
        k(   19) = (  -0.0895374   0.0154431   0.0000000), wk =   0.1111111
        k(   20) = (  -0.0895374  -0.1389883   0.0000000), wk =   0.0555556

     Largest allocated arrays     est. size (Mb)     dimensions
     Largest temporary arrays     est. size (Mb)     dimensions

     Initial potential from superposition of free atoms
     Check: negative starting charge=   -0.776031

     starting charge  158.99938, renormalised to  162.00000

     negative rho (up, down):  7.907E-01 0.000E+00

     *
     * You are using vdW-DF for exchange-correlation in this calculation.
     * Please cite the following three references that made this development
     * possible:
     *
     *   M. Dion, H. Rydberg, E. Schroder, D. C. Langreth, and
     *   B. I. Lundqvist, Phys. Rev. Lett. 92, 246401 (2004).
     *
     *   T. Thonhauser, V. R. Cooper, S. Li, A. Puzder, P. Hyldgaard, and
     *   D. C. Langreth, Phys. Rev. B 76, 125112 (2007).
     *
     *   G. Roman-Perez and J. M. Soler, Phys. Rev. Lett. 103, 096102 (2009).
     *
     *
     * If you are using vdW-DF2, please also cite:
     *
     *   K. Lee, E. D. Murray, L. Kong, B. I. Lundqvist, and
     *   D. C. Langreth, Phys. Rev. B 82, 081101(R) (2010).
     *
     *
     * If you are calculating the stress with vdW-DF, please also cite:
     *
     *   R. Sabatini, E. Kucukbenli, B. Kolb, T. Thonhauser, and
     *   S. de Gironcoli, J. Phys.: Condens. Matter 24, 424209 (2012).
     *

     Carrying out vdW-DF run using the following parameters:

     Nqs =      20    Nr_points =    1024   r_max =   100.000
     q_mesh =
               0.00001000     0.04494208     0.09755937     0.15916263
               0.23128650     0.31572767     0.41458969     0.53033537
               0.66584808     0.82450364     1.01025438     1.22772762
               1.48234092     1.78043706     2.12944203     2.53805004
               3.01644009     3.57652955     4.23227104     5.00000000

     Gradients computed in reciprocal space

     Adding external electric field

     Computed dipole along edir(3) :
        Dipole               -0.0000 Ry au,         -0.0000 Debye
        Dipole field         -0.0000 Ry au

        Potential amp.        0.0000 Ry
        Total length         45.6541 bohr

     Starting wfc are  132 randomized atomic wfcs

     Self-consistent Calculation

     iteration #  1     ecut=    36.75 Ry     beta=0.10
     Davidson diagonalization with overlap
     ethr =  1.00E-02,  avg # of iterations =  9.7

[...]

     total energy              =   -1806.59032503 Ry
     Harris-Foulkes estimate   =   -1807.37131609 Ry
     estimated scf accuracy    <       4.43195677 Ry

[...]

     iteration #  8     ecut=    36.75 Ry     beta=0.10
     Davidson diagonalization with overlap
     c_bands:  1 eigenvalues not converged
     ethr =  1.13E-05,  avg # of iterations =  5.8

[...]

     End of self-consistent calculation

          k = 0.0000 0.0000 0.0000 ( 18911 PWs)   bands (ev):

   -79.2113 -79.1813 -78.8653 -78.8650 -78.8352 -78.8348 -41.0781 -41.0108
   -40.9543 -40.8774 -40.8226 -40.8078 -40.8059 -40.6024 -40.5957 -40.5564
   -40.5487 -40.5424 -40.4630 -40.4097 -40.3999 -40.3505 -40.2884 -40.2874
    -8.2883  -7.6252  -7.5132  -7.4435  -7.3341  -7.2435  -7.1138  -6.9698
    -6.9281  -6.7396  -6.7017  -6.6624  -6.3969  -6.3881  -6.0684  -5.9298
    -5.8871  -5.8625  -5.8215  -5.6750  -5.6551  -5.5816  -5.4628  -5.4444
    -5.3149  -5.2441  -5.0841  -5.0488  -5.0199  -4.9276  -4.7496  -4.1307
    -3.0004  -2.1917  -2.1520  -1.9678  -1.8097  -1.8091  -1.4572  -1.2459
    -1.0391  -0.9510  -0.6665  -0.5446   0.0376   0.0651   0.1315   0.2791
     0.6487   1.1025   1.1559   1.1910   1.2661   1.4623   1.6142   1.9766
     1.9981   1.9986   2.0456   2.0584   2.3663   2.4278   2.6355   2.7598
     2.8909   2.9044   2.9817   3.0035   3.0250   3.4679   3.6836   4.1934
     4.4476   4.6647   4.7085   4.7589   5.0762   5.4267   5.7658   5.9071
     6.2001   6.6268   7.3633   8.0341   8.0344   8.1799   8.2495

[...]

          k =-0.0895-0.0463 0.0000 ( 18962 PWs)   bands (ev):

[...]

     the Fermi energy is     1.5482 ev

!    total energy              =   -1806.54001197 Ry
     Harris-Foulkes estimate   =   -1806.54001074 Ry
     estimated scf accuracy    <       0.00000050 Ry

     The total energy is the sum of the following terms:

     one-electron contribution =  -12621.28030748 Ry
     hartree contribution      =    6346.13059055 Ry
     xc contribution           =    -566.79927098 Ry
     ewald contribution        =    5035.47718250 Ry
     electric field correction =       0.00000000 Ry
     smearing contrib. (-TS)   =      -0.06820656 Ry

     convergence has been achieved in  17 iterations

 BEEF-vdW xc energy contributions
           1 :   -501.070532894481
           2 :    463.973830978837
           3 :   -398.121585579969
[...]
     c_bands:  1 eigenvalues not converged
     ethr =  3.53E-06,  avg # of iterations =  4.3

[...]

   This run was terminated on:   3: 4:24  19Dec2018

[...]

     Program PWSCF v.5.1rc2 (svn rev. 11289) starts on 19Dec2018 at  3: 4:29

[...]

     Found symmetry operation: I + ( -0.5000  0.0000  0.0000)
     This is a supercell, fractional translations are disabled

[...]

   This run was terminated on:   3: 9:27  19Dec2018

[...]

     Program PWSCF v.5.1rc2 (svn rev. 11289) starts on 19Dec2018 at  3: 9:32

[...]

     Program PWSCF v.5.1rc2 (svn rev. 11289) starts on 19Dec2018 at  3:14:37

     Current dimensions of program PWSCF are:
     Max number of different atomic species (ntypx) = 10
     Max number of k-points (npk) =  40000
     Max angular momentum in pseudopotentials (lmaxx) =  3
     Presently stress not available with electric field

     IMPORTANT: XC functional enforced from input :
     Exchange-correlation      = BEEF-VDW ( 1  4 27 13 2)
     Any further DFT definition will be discarded
     Please, verify this is what you really want

     Subspace diagonalization in iterative solution of the eigenvalue problem:
     a serial algorithm will be used

     bravais-lattice index     =            0
     lattice parameter (alat)  =       1.8897  a.u.
     unit-cell volume          =    5038.7363 (a.u.)^3
     number of atoms/cell      =           12
     number of atomic types    =            2
     number of electrons       =       162.00
     number of Kohn-Sham states=          111
     kinetic-energy cutoff     =      36.7493  Ry
     charge density cutoff     =     367.4932  Ry
     convergence threshold     =      1.0E-06
     mixing beta               =       0.1000
     number of iterations used =           10  plain     mixing
     Exchange-correlation      = BEEF-VDW ( 1  4 27 13 2)
     nstep                     =           50

     celldm(1)=   1.889726  celldm(2)=   0.000000  celldm(3)=   0.000000
     celldm(4)=   0.000000  celldm(5)=   0.000000  celldm(6)=   0.000000

     crystal axes: (cart. coord. in units of alat)
               a(1) = (   5.584258   0.000000   0.000000 )
               a(2) = (  -2.792129   5.396137   0.000000 )
               a(3) = (   0.000000   0.000000  24.778589 )

     reciprocal axes: (cart. coord. in units 2 pi/alat)
               b(1) = (  0.179075  0.092659  0.000000 )
               b(2) = (  0.000000  0.185318  0.000000 )
               b(3) = (  0.000000  0.000000  0.040357 )

     PseudoPot. # 1 for Re read from file:
     /afs/slac.stanford.edu/u/if/mamunm/psp/gbrv1.5pbe/Re.UPF
     MD5 check sum: 85f993410f3e006da9d71c142b4ad953
     Pseudo is Ultrasoft + core correction, Zval = 15.0
     Generated by new atomic code, or converted to UPF format
     Using radial grid of  981 points,  8 beta functions with:
                l(1) =   0
                l(2) =   0
                l(3) =   1
                l(4) =   1
                l(5) =   2
                l(6) =   2
                l(7) =   3
                l(8) =   3
     Q(r) pseudized with  8 coefficients,  rinner =    1.150   1.150   1.150
                                                       1.150   1.150   1.150
                                                       1.150

     PseudoPot. # 2 for Hg read from file:
     /afs/slac.stanford.edu/u/if/mamunm/psp/gbrv1.5pbe/Hg.UPF
     MD5 check sum: 8f42caffe07f7fd9c0a564347f8c5498
     Pseudo is Ultrasoft + core correction, Zval = 12.0
     Generated by new atomic code, or converted to UPF format
     Using radial grid of  985 points,  6 beta functions with:
                l(1) =   0
                l(2) =   0
                l(3) =   1
                l(4) =   1
                l(5) =   2
                l(6) =   2
     Q(r) pseudized with  8 coefficients,  rinner =    2.000   2.000   2.000
                                                       2.000   2.000

     vdW kernel table read from file vdW_kernel_table
     MD5 check sum: 095c7af220d748ca6e76c0b4c6cfb241

     atomic species   valence    mass     pseudopotential
        Re1           15.00   186.20700     Re( 1.00)
        Hg1           12.00   200.59200     Hg( 1.00)

     No symmetry found

   Cartesian axes

     site n.     atom                  positions (alat units)
         1           Re1 tau(   1) = (   0.0000000   0.0000000  10.0000000  )
         2           Re1 tau(   2) = (   2.7921291   0.0000000  10.0000000  )
         3           Hg1 tau(   3) = (   1.3960646   2.6980685  10.0000000  )
         4           Hg1 tau(   4) = (  -1.3960646   2.6980685  10.0000000  )
         5           Re1 tau(   5) = (   2.7921291   1.4447344  12.3892943  )
         6           Re1 tau(   6) = (  -0.0000000   1.4447344  12.3892943  )
         7           Hg1 tau(   7) = (  -1.3960646   4.1428029  12.3892943  )
         8           Hg1 tau(   8) = (   1.3960646   4.1428029  12.3892943  )
         9           Re1 tau(   9) = (   0.0000863   2.1966867  14.5915623  )
        10           Re1 tau(  10) = (   2.7921322   2.1965711  14.5912045  )
        11           Hg1 tau(  11) = (   1.3960321   5.0094472  15.3207204  )
        12           Hg1 tau(  12) = (  -1.3959959   5.0093886  15.3206749  )

     number of k points=    20  Fermi-Dirac smearing, width (Ry)=  0.0110
                       cart. coord. in units 2pi/alat
        k(    1) = (   0.0000000   0.0000000   0.0000000), wk =   0.0555556
        k(    2) = (   0.0000000   0.0308863   0.0000000), wk =   0.1111111
        k(    3) = (   0.0000000   0.0617726   0.0000000), wk =   0.1111111
        k(    4) = (   0.0000000  -0.0926589   0.0000000), wk =   0.0555556
        k(    5) = (   0.0298458   0.0154431   0.0000000), wk =   0.1111111
        k(    6) = (   0.0298458   0.0463294   0.0000000), wk =   0.1111111
        k(    7) = (   0.0298458   0.0772157   0.0000000), wk =   0.1111111
        k(    8) = (   0.0298458  -0.0772157   0.0000000), wk =   0.1111111
        k(    9) = (   0.0298458  -0.0463294   0.0000000), wk =   0.1111111
        k(   10) = (   0.0298458  -0.0154431   0.0000000), wk =   0.1111111
        k(   11) = (   0.0596916   0.0308863   0.0000000), wk =   0.1111111
        k(   12) = (   0.0596916   0.0617726   0.0000000), wk =   0.1111111
        k(   13) = (   0.0596916   0.0926589   0.0000000), wk =   0.1111111
        k(   14) = (   0.0596916  -0.0617726   0.0000000), wk =   0.1111111
        k(   15) = (   0.0596916  -0.0308863   0.0000000), wk =   0.1111111
        k(   16) = (   0.0596916   0.0000000   0.0000000), wk =   0.1111111
        k(   17) = (  -0.0895374  -0.0463294   0.0000000), wk =   0.0555556
        k(   18) = (  -0.0895374  -0.0154431   0.0000000), wk =   0.1111111
        k(   19) = (  -0.0895374   0.0154431   0.0000000), wk =   0.1111111
        k(   20) = (  -0.0895374  -0.1389883   0.0000000), wk =   0.0555556

     Largest allocated arrays     est. size (Mb)     dimensions
     Largest temporary arrays     est. size (Mb)     dimensions

     Initial potential from superposition of free atoms
     Check: negative starting charge=   -0.774975

     starting charge  158.99938, renormalised to  162.00000

[...]

     *
     * You are using vdW-DF for exchange-correlation in this calculation.
     * Please cite the following three references that made this development
     * possible:
     *
     *   M. Dion, H. Rydberg, E. Schroder, D. C. Langreth, and
     *   B. I. Lundqvist, Phys. Rev. Lett. 92, 246401 (2004).
     *
     *   T. Thonhauser, V. R. Cooper, S. Li, A. Puzder, P. Hyldgaard, and
     *   D. C. Langreth, Phys. Rev. B 76, 125112 (2007).
     *
     *   G. Roman-Perez and J. M. Soler, Phys. Rev. Lett. 103, 096102 (2009).
     *
     *
     * If you are using vdW-DF2, please also cite:
     *
     *   K. Lee, E. D. Murray, L. Kong, B. I. Lundqvist, and
     *   D. C. Langreth, Phys. Rev. B 82, 081101(R) (2010).
     *
     *
     * If you are calculating the stress with vdW-DF, please also cite:
     *
     *   R. Sabatini, E. Kucukbenli, B. Kolb, T. Thonhauser, and
     *   S. de Gironcoli, J. Phys.: Condens. Matter 24, 424209 (2012).
     *

     Carrying out vdW-DF run using the following parameters:

     Nqs =      20    Nr_points =    1024   r_max =   100.000
     q_mesh =
               0.00001000     0.04494208     0.09755937     0.15916263
               0.23128650     0.31572767     0.41458969     0.53033537
               0.66584808     0.82450364     1.01025438     1.22772762
               1.48234092     1.78043706     2.12944203     2.53805004
               3.01644009     3.57652955     4.23227104     5.00000000

     Gradients computed in reciprocal space

[...]

     Starting wfc are  132 randomized atomic wfcs

     Self-consistent Calculation

[...]

     total energy              =   -1806.68342547 Ry
     Harris-Foulkes estimate   =   -1806.68342542 Ry
     estimated scf accuracy    <       0.00000208 Ry

     iteration # 17     ecut=    36.75 Ry     beta=0.10
     Davidson diagonalization with overlap
     ethr =  1.29E-09,  avg # of iterations =  1.1

[...]

     negative rho (up, down):  7.767E-01 0.000E+00

     Adding external electric field

     Computed dipole along edir(3) :
        Dipole                0.1412 Ry au,          0.3590 Debye
        Dipole field          0.0004 Ry au

        Potential amp.       -0.0322 Ry
        Total length         45.6541 bohr

     End of self-consistent calculation

[...]

          k = 0.0597 0.0000 0.0000 ( 18960 PWs)   bands (ev):

[...]

          k =-0.0895-0.1390 0.0000 ( 18962 PWs)   bands (ev):

   -78.9066 -78.9065 -78.6406 -78.6406 -78.6003 -78.6003 -41.2024 -41.2015
   -40.6618 -40.6617 -40.5347 -40.5347 -40.4085 -40.4085 -40.3457 -40.3457
   -40.3219 -40.3219 -40.2710 -40.2708 -40.1816 -40.1815 -39.8190 -39.8183
    -6.7204  -6.7203  -6.4659  -6.4659  -6.3663  -6.3663  -6.2426  -6.2426
    -6.1091  -6.1091  -5.8595  -5.8594  -5.7670  -5.7670  -5.6750  -5.6750
    -5.5167  -5.5163  -5.4541  -5.4539  -5.4269  -5.4268  -5.3793  -5.3792
    -5.2720  -5.2719  -5.1671  -5.1670  -5.1225  -5.1224  -4.9888  -4.9888
    -3.7979  -3.7978  -2.5082  -2.5081  -2.0702  -2.0701  -1.4414  -1.4409
    -0.9275  -0.9272  -0.4416  -0.4413  -0.1546  -0.1540   0.2059   0.2060
     0.4099   0.4100   0.7553   0.7554   0.9582   0.9587   1.1570   1.1571
     1.3179   1.3180   1.5901   1.5903   2.2527   2.2530   2.6519   2.6520
     3.0442   3.0444   3.3642   3.3650   3.5703   3.5708   4.6997   4.7000
     4.9308   4.9308   6.4505   6.4506   6.5741   6.5742   7.2426   7.2427
     7.4718   7.4719   7.6786   7.6787   8.0385   8.0387   8.6835

     the Fermi energy is     1.6708 ev

!    total energy              =   -1806.68342799 Ry
     Harris-Foulkes estimate   =   -1806.68342338 Ry
     estimated scf accuracy    <       0.00000066 Ry

     The total energy is the sum of the following terms:

     one-electron contribution =  -12361.20178126 Ry
     hartree contribution      =    6217.35827093 Ry
     xc contribution           =    -566.94371664 Ry
     ewald contribution        =    4904.16689802 Ry
     electric field correction =       0.00004974 Ry
     smearing contrib. (-TS)   =      -0.06314879 Ry

     convergence has been achieved in  17 iterations

 BEEF-vdW xc energy contributions
           1 :   -501.194432300313
           2 :    463.984474914344
           3 :   -397.987101197094
           4 :    316.960890129982
           5 :   -235.550361911481
           6 :    165.249246883838
           7 :   -112.005814446244
           8 :    75.9940454954617
           9 :   -53.2781426849364
          10 :    38.4253900106542
          11 :   -26.9056989847005
          12 :    16.4015133438003
          13 :   -6.78349238967633
          14 :  -0.874129940368334
          15 :    5.53198385922781
          16 :   -7.03738646937575
          17 :    6.27976340791656
          18 :   -4.73469302044043
          19 :    3.74915575505804
          20 :   -3.98391362106679
          21 :    5.27534933705192
          22 :   -6.91848751902864
          23 :    8.15097780836140
          24 :   -8.55708220120835
          25 :    8.20368244763154
          26 :   -7.49436906349968
          27 :    6.87356289086699
          28 :   -6.56888508767895
          29 :    6.50629294859698
          30 :   -6.41732278070810
          31 :   -43.7025814906924
          32 :   -32.2796511489270

     Forces acting on atoms (Ry/au):

     negative rho (up, down):  7.767E-01 0.000E+00
     atom    1 type  1   force =     0.00000345    0.01629552    0.04356963
     atom    2 type  1   force =    -0.00000005    0.01627234    0.04354376
     atom    3 type  2   force =    -0.00000054   -0.01266541   -0.06159522
     atom    4 type  2   force =     0.00000165   -0.01266667   -0.06159681
     atom    5 type  1   force =     0.00000343   -0.01906305   -0.01254564
     atom    6 type  1   force =    -0.00000792   -0.01899554   -0.01233247
     atom    7 type  2   force =    -0.00000063    0.01616730    0.02961437
     atom    8 type  2   force =     0.00000002    0.01616859    0.02961833
     atom    9 type  1   force =     0.00000108   -0.00133961   -0.00020623
     atom   10 type  1   force =    -0.00000117   -0.00124897    0.00003421
     atom   11 type  2   force =     0.00003599    0.00054039    0.00094659
     atom   12 type  2   force =    -0.00003531    0.00053511    0.00094948

     Total force =     0.124701     Total SCF correction =     0.002764

     entering subroutine stress ...

     negative rho (up, down):  7.767E-01 0.000E+00
          total   stress  (Ry/bohr**3)                   (kbar)     P=  -18.00
  -0.00013541  -0.00000000   0.00000000        -19.92     -0.00      0.00
  -0.00000000  -0.00025203  -0.00000830         -0.00    -37.07     -1.22
   0.00000000  -0.00000830   0.00002038          0.00     -1.22      3.00

 !ASE

     Writing output data file calc.save

     General routines

     Parallel routines

   This run was terminated on:   3:19:39  19Dec2018

   JOB DONE.
Job  /afs/slac/g/suncat/bin/suncat-tsmpirun -x LD_LIBRARY_PATH -wdir /scratch/qe530448_B67nJ pw.x -in pw.inp

TID   HOST_NAME   COMMAND_LINE            STATUS            TERMINATION_TIME
00000 suncat2050 pw.x -in pw.inp   Done                     12/19/2018 03:19:39
00001 suncat2050 pw.x -in pw.inp   Done                     12/19/2018 03:19:39
00002 suncat2050 pw.x -in pw.inp   Done                     12/19/2018 03:19:39
00003 suncat2050 pw.x -in pw.inp   Done                     12/19/2018 03:19:39
00004 suncat2050 pw.x -in pw.inp   Done                     12/19/2018 03:19:39
00005 suncat2050 pw.x -in pw.inp   Done                     12/19/2018 03:19:39
00006 suncat2050 pw.x -in pw.inp   Done                     12/19/2018 03:19:39
00007 suncat2050 pw.x -in pw.inp   Done                     12/19/2018 03:19:39
00008 suncat2050 pw.x -in pw.inp   Done                     12/19/2018 03:19:39
00009 suncat2050 pw.x -in pw.inp   Done                     12/19/2018 03:19:39
00010 suncat2050 pw.x -in pw.inp   Done                     12/19/2018 03:19:39
00011 suncat2050 pw.x -in pw.inp   Done                     12/19/2018 03:19:39
00012 suncat2050 pw.x -in pw.inp   Done                     12/19/2018 03:19:39
00013 suncat2050 pw.x -in pw.inp   Done                     12/19/2018 03:19:39
00014 suncat2050 pw.x -in pw.inp   Done                     12/19/2018 03:19:39
00015 suncat2050 pw.x -in pw.inp   Done                     12/19/2018 03:19:39
00016 suncat2049 pw.x -in pw.inp   Done                     12/19/2018 03:19:39
00017 suncat2049 pw.x -in pw.inp   Done                     12/19/2018 03:19:39
00018 suncat2049 pw.x -in pw.inp   Done                     12/19/2018 03:19:39
00019 suncat2049 pw.x -in pw.inp   Done                     12/19/2018 03:19:39
00020 suncat2049 pw.x -in pw.inp   Done                     12/19/2018 03:19:39
00021 suncat2049 pw.x -in pw.inp   Done                     12/19/2018 03:19:39
00022 suncat2049 pw.x -in pw.inp   Done                     12/19/2018 03:19:39
00023 suncat2049 pw.x -in pw.inp   Done                     12/19/2018 03:19:39
00024 suncat2049 pw.x -in pw.inp   Done                     12/19/2018 03:19:39
00025 suncat2049 pw.x -in pw.inp   Done                     12/19/2018 03:19:39
00026 suncat2049 pw.x -in pw.inp   Done                     12/19/2018 03:19:39
00027 suncat2049 pw.x -in pw.inp   Done                     12/19/2018 03:19:39
00028 suncat2049 pw.x -in pw.inp   Done                     12/19/2018 03:19:39
00029 suncat2049 pw.x -in pw.inp   Done                     12/19/2018 03:19:39
00030 suncat2049 pw.x -in pw.inp   Done                     12/19/2018 03:19:39
00031 suncat2049 pw.x -in pw.inp   Done                     12/19/2018 03:19:39