     Program PWSCF v.5.1rc2 (svn rev. 11289) starts on 25Dec2018 at  0:18:18

     Current dimensions of program PWSCF are:
     Max number of different atomic species (ntypx) = 10
     Max number of k-points (npk) =  40000
     Max angular momentum in pseudopotentials (lmaxx) =  3
     Presently stress not available with electric field

     IMPORTANT: XC functional enforced from input :
     Exchange-correlation      = BEEF-VDW ( 1  4 27 13 2)
     Any further DFT definition will be discarded
     Please, verify this is what you really want

     Subspace diagonalization in iterative solution of the eigenvalue problem:
     a serial algorithm will be used

     Found symmetry operation: I + (  0.5000  0.5000  0.0000)
     This is a supercell, fractional translations are disabled

     bravais-lattice index     =            0
     lattice parameter (alat)  =       1.8897  a.u.
     unit-cell volume          =    7623.8777 (a.u.)^3
     number of atoms/cell      =           12
     number of atomic types    =            2
     number of electrons       =       138.00
     number of Kohn-Sham states=           99
     kinetic-energy cutoff     =      36.7493  Ry
     charge density cutoff     =     367.4932  Ry
     convergence threshold     =      1.0E-06
     mixing beta               =       0.1000
     number of iterations used =           10  plain     mixing
     Exchange-correlation      = BEEF-VDW ( 1  4 27 13 2)
     nstep                     =           50

     celldm(1)=   1.889726  celldm(2)=   0.000000  celldm(3)=   0.000000
     celldm(4)=   0.000000  celldm(5)=   0.000000  celldm(6)=   0.000000

     crystal axes: (cart. coord. in units of alat)
               a(1) = (   6.845099   0.000000   0.000000 )
               a(2) = (   2.295412   6.448757   0.000000 )
               a(3) = (   0.000000   0.000000  25.593140 )

     reciprocal axes: (cart. coord. in units 2 pi/alat)
               b(1) = (  0.146090 -0.052000  0.000000 )
               b(2) = (  0.000000  0.155069  0.000000 )
               b(3) = (  0.000000  0.000000  0.039073 )

     PseudoPot. # 1 for La read from file:
     /afs/slac.stanford.edu/u/if/mamunm/psp/gbrv1.5pbe/La.UPF
     MD5 check sum: 5937b0c7494ba0601a847275249473aa
     Pseudo is Ultrasoft + core correction, Zval = 11.0
     Generated by new atomic code, or converted to UPF format
     Using radial grid of  995 points,  8 beta functions with:
                l(1) =   0
                l(2) =   0
                l(3) =   1
                l(4) =   1
                l(5) =   2
                l(6) =   2
                l(7) =   3
                l(8) =   3
     Q(r) pseudized with  8 coefficients,  rinner =    1.700   1.700   1.700
                                                       1.700   1.700   1.700
                                                       1.700

     PseudoPot. # 2 for Hg read from file:
     /afs/slac.stanford.edu/u/if/mamunm/psp/gbrv1.5pbe/Hg.UPF
     MD5 check sum: 8f42caffe07f7fd9c0a564347f8c5498
     Pseudo is Ultrasoft + core correction, Zval = 12.0
     Generated by new atomic code, or converted to UPF format
     Using radial grid of  985 points,  6 beta functions with:
                l(1) =   0
                l(2) =   0
                l(3) =   1
                l(4) =   1
                l(5) =   2
                l(6) =   2
     Q(r) pseudized with  8 coefficients,  rinner =    2.000   2.000   2.000
                                                       2.000   2.000

     vdW kernel table read from file vdW_kernel_table
     MD5 check sum: 095c7af220d748ca6e76c0b4c6cfb241

     atomic species   valence    mass     pseudopotential
        La1           11.00   138.90547     La( 1.00)
        Hg1           12.00   200.59200     Hg( 1.00)

     No symmetry found

   Cartesian axes

     site n.     atom                  positions (alat units)
         1           La1 tau(   1) = (   0.0000000   0.0000000  10.0000000  )
         2           La1 tau(   2) = (   4.5702556   3.2243784  10.0000000  )
         3           Hg1 tau(   3) = (   3.4225496   0.0000000  10.0000000  )
         4           Hg1 tau(   4) = (   1.1477061   3.2243784  10.0000000  )
         5           La1 tau(   5) = (   6.8450991   4.8293119  12.7965702  )
         6           La1 tau(   6) = (   2.2748435   1.6049334  12.7965702  )
         7           Hg1 tau(   7) = (   3.4225496   4.8293119  12.7965702  )
         8           Hg1 tau(   8) = (   5.6973930   1.6049334  12.7965702  )
         9           La1 tau(   9) = (   4.5496869   3.2098669  15.5931404  )
        10           La1 tau(  10) = (   9.1199426   6.4342453  15.5931404  )
        11           Hg1 tau(  11) = (   7.9722365   3.2098669  15.5931404  )
        12           Hg1 tau(  12) = (   5.6973930   6.4342453  15.5931404  )

     number of k points=    20  Fermi-Dirac smearing, width (Ry)=  0.0110
                       cart. coord. in units 2pi/alat
        k(    1) = (   0.0000000   0.0000000   0.0000000), wk =   0.0555556
        k(    2) = (   0.0000000   0.0258448   0.0000000), wk =   0.1111111
        k(    3) = (   0.0000000   0.0516895   0.0000000), wk =   0.1111111
        k(    4) = (   0.0000000  -0.0775343   0.0000000), wk =   0.0555556
        k(    5) = (   0.0243483  -0.0086667   0.0000000), wk =   0.1111111
        k(    6) = (   0.0243483   0.0171781   0.0000000), wk =   0.1111111
        k(    7) = (   0.0243483   0.0430229   0.0000000), wk =   0.1111111
        k(    8) = (   0.0243483  -0.0862010   0.0000000), wk =   0.1111111
        k(    9) = (   0.0243483  -0.0603562   0.0000000), wk =   0.1111111
        k(   10) = (   0.0243483  -0.0345115   0.0000000), wk =   0.1111111
        k(   11) = (   0.0486966  -0.0173334   0.0000000), wk =   0.1111111
        k(   12) = (   0.0486966   0.0085114   0.0000000), wk =   0.1111111
        k(   13) = (   0.0486966   0.0343562   0.0000000), wk =   0.1111111
        k(   14) = (   0.0486966  -0.0948677   0.0000000), wk =   0.1111111
        k(   15) = (   0.0486966  -0.0690229   0.0000000), wk =   0.1111111
        k(   16) = (   0.0486966  -0.0431782   0.0000000), wk =   0.1111111
        k(   17) = (  -0.0730450   0.0260001   0.0000000), wk =   0.0555556
        k(   18) = (  -0.0730450   0.0518449   0.0000000), wk =   0.1111111
        k(   19) = (  -0.0730450   0.0776896   0.0000000), wk =   0.1111111
        k(   20) = (  -0.0730450  -0.0515342   0.0000000), wk =   0.0555556

     Largest allocated arrays     est. size (Mb)     dimensions
     Largest temporary arrays     est. size (Mb)     dimensions

     Initial potential from superposition of free atoms
     Check: negative starting charge=   -0.426482

     starting charge  137.80724, renormalised to  138.00000

     negative rho (up, down):  4.271E-01 0.000E+00

     *
     * You are using vdW-DF for exchange-correlation in this calculation.
     * Please cite the following three references that made this development
     * possible:
     *
     *   M. Dion, H. Rydberg, E. Schroder, D. C. Langreth, and
     *   B. I. Lundqvist, Phys. Rev. Lett. 92, 246401 (2004).
     *
     *   T. Thonhauser, V. R. Cooper, S. Li, A. Puzder, P. Hyldgaard, and
     *   D. C. Langreth, Phys. Rev. B 76, 125112 (2007).
     *
     *   G. Roman-Perez and J. M. Soler, Phys. Rev. Lett. 103, 096102 (2009).
     *
     *
     * If you are using vdW-DF2, please also cite:
     *
     *   K. Lee, E. D. Murray, L. Kong, B. I. Lundqvist, and
     *   D. C. Langreth, Phys. Rev. B 82, 081101(R) (2010).
     *
     *
     * If you are calculating the stress with vdW-DF, please also cite:
     *
     *   R. Sabatini, E. Kucukbenli, B. Kolb, T. Thonhauser, and
     *   S. de Gironcoli, J. Phys.: Condens. Matter 24, 424209 (2012).
     *

     Carrying out vdW-DF run using the following parameters:

     Nqs =      20    Nr_points =    1024   r_max =   100.000
     q_mesh =
               0.00001000     0.04494208     0.09755937     0.15916263
               0.23128650     0.31572767     0.41458969     0.53033537
               0.66584808     0.82450364     1.01025438     1.22772762
               1.48234092     1.78043706     2.12944203     2.53805004
               3.01644009     3.57652955     4.23227104     5.00000000

     Gradients computed in reciprocal space

     Adding external electric field

     Computed dipole along edir(3) :
        Dipole               -0.0000 Ry au,         -0.0000 Debye
        Dipole field         -0.0000 Ry au

        Potential amp.        0.0000 Ry
        Total length         47.1549 bohr

     Starting wfc are  174 randomized atomic wfcs

     Self-consistent Calculation

     iteration #  1     ecut=    36.75 Ry     beta=0.10
     Davidson diagonalization with overlap
     ethr =  1.00E-02,  avg # of iterations =  1.3

[...]

     total energy              =   -1278.41525245 Ry
     Harris-Foulkes estimate   =   -1279.40802438 Ry
     estimated scf accuracy    <       5.44140209 Ry

[...]

     iteration #  6     ecut=    36.75 Ry     beta=0.10
     Davidson diagonalization with overlap
     c_bands:  1 eigenvalues not converged
     c_bands:  1 eigenvalues not converged
     ethr =  3.89E-05,  avg # of iterations =  9.4

[...]

     End of self-consistent calculation

          k = 0.0000 0.0000 0.0000 ( 28763 PWs)   bands (ev):

   -32.3518 -32.3499 -32.3173 -32.3171 -32.0300 -31.9974 -16.0662 -16.0593
   -16.0253 -15.9945 -15.9902 -15.9629 -15.9466 -15.9291 -15.9085 -15.8663
   -15.8531 -15.6193 -15.6176 -15.6033 -15.5606 -15.5117 -15.5026 -15.3821
    -5.9274  -5.9153  -5.8910  -5.8904  -5.8897  -5.8811  -5.8603  -5.8340
    -5.8128  -5.8059  -5.7985  -5.7646  -5.7582  -5.7581  -5.7566  -5.7482
    -5.7457  -5.7450  -5.6986  -5.6879  -5.6807  -5.6796  -5.6694  -5.6631
    -5.5895  -5.5835  -5.4879  -5.4624  -5.4218  -5.3993  -4.7326  -3.7446
    -3.1282  -2.9609  -2.8800  -2.7175   0.8517   0.8993   0.9088   1.0038
     1.1047   1.4218   1.5330   1.7095   1.7231   1.7974   1.8370   2.0314
     2.1133   2.1198   2.1585   2.2879   2.3362   2.3494   2.3911   2.4060
     2.4535   2.4881   2.5058   2.5171   2.5529   2.5563   2.5578   2.5755
     2.5784   2.5876   2.5903   2.6010   2.6256   2.6336   2.6459   2.6496
     2.6661   2.6828   2.6918

[...]

          k =-0.0730 0.0260 0.0000 ( 28638 PWs)   bands (ev):

[...]

     the Fermi energy is     1.5010 ev

!    total energy              =   -1279.04557357 Ry
     Harris-Foulkes estimate   =   -1279.04559017 Ry
     estimated scf accuracy    <       0.00000068 Ry

     The total energy is the sum of the following terms:

     one-electron contribution =   -5851.16018936 Ry
     hartree contribution      =    2976.28973387 Ry
     xc contribution           =    -546.63919047 Ry
     ewald contribution        =    2142.55481212 Ry
     electric field correction =       0.00000000 Ry
     smearing contrib. (-TS)   =      -0.09073973 Ry

     convergence has been achieved in  18 iterations

 BEEF-vdW xc energy contributions
           1 :   -482.149980922603
           2 :    443.523712400509
           3 :   -375.701567156649
           4 :    293.883127164899
           5 :   -213.789018856495
[...]
     Using radial grid of  995 points,  8 beta functions with:
                l(1) =   0
                l(2) =   0
                l(3) =   1
                l(4) =   1
                l(5) =   2
                l(6) =   2
                l(7) =   3
                l(8) =   3
     Q(r) pseudized with  8 coefficients,  rinner =    1.700   1.700   1.700
                                                       1.700   1.700   1.700
                                                       1.700

     PseudoPot. # 2 for Hg read from file:
     /afs/slac.stanford.edu/u/if/mamunm/psp/gbrv1.5pbe/Hg.UPF
     MD5 check sum: 8f42caffe07f7fd9c0a564347f8c5498
     Pseudo is Ultrasoft + core correction, Zval = 12.0
     Generated by new atomic code, or converted to UPF format
     Using radial grid of  985 points,  6 beta functions with:
                l(1) =   0
                l(2) =   0
                l(3) =   1
                l(4) =   1
                l(5) =   2
                l(6) =   2
     Q(r) pseudized with  8 coefficients,  rinner =    2.000   2.000   2.000
                                                       2.000   2.000

     vdW kernel table read from file vdW_kernel_table
     MD5 check sum: 095c7af220d748ca6e76c0b4c6cfb241

     atomic species   valence    mass     pseudopotential
        La1           11.00   138.90547     La( 1.00)
        Hg1           12.00   200.59200     Hg( 1.00)

     No symmetry found

   Cartesian axes

     site n.     atom                  positions (alat units)
         1           La1 tau(   1) = (   0.0000000   0.0000000  10.0000000  )
         2           La1 tau(   2) = (   4.5702556   3.2243784  10.0000000  )
         3           Hg1 tau(   3) = (   3.4225496   0.0000000  10.0000000  )
         4           Hg1 tau(   4) = (   1.1477061   3.2243784  10.0000000  )
         5           La1 tau(   5) = (   6.8450991   4.8293119  12.7965702  )
         6           La1 tau(   6) = (   2.2748435   1.6049334  12.7965702  )
         7           Hg1 tau(   7) = (   3.4225496   4.8293119  12.7965702  )
         8           Hg1 tau(   8) = (   5.6973930   1.6049334  12.7965702  )
         9           La1 tau(   9) = (   4.5520598   3.2115273  15.5135559  )
        10           La1 tau(  10) = (   9.1223091   6.4359137  15.5135646  )
        11           Hg1 tau(  11) = (   7.9728728   3.2103704  15.5714350  )
        12           Hg1 tau(  12) = (   5.6980895   6.4346850  15.5714567  )

     number of k points=    20  Fermi-Dirac smearing, width (Ry)=  0.0110
                       cart. coord. in units 2pi/alat
        k(    1) = (   0.0000000   0.0000000   0.0000000), wk =   0.0555556
        k(    2) = (   0.0000000   0.0258448   0.0000000), wk =   0.1111111
        k(    3) = (   0.0000000   0.0516895   0.0000000), wk =   0.1111111
        k(    4) = (   0.0000000  -0.0775343   0.0000000), wk =   0.0555556
        k(    5) = (   0.0243483  -0.0086667   0.0000000), wk =   0.1111111
        k(    6) = (   0.0243483   0.0171781   0.0000000), wk =   0.1111111
        k(    7) = (   0.0243483   0.0430229   0.0000000), wk =   0.1111111
        k(    8) = (   0.0243483  -0.0862010   0.0000000), wk =   0.1111111
        k(    9) = (   0.0243483  -0.0603562   0.0000000), wk =   0.1111111
        k(   10) = (   0.0243483  -0.0345115   0.0000000), wk =   0.1111111
        k(   11) = (   0.0486966  -0.0173334   0.0000000), wk =   0.1111111
        k(   12) = (   0.0486966   0.0085114   0.0000000), wk =   0.1111111
        k(   13) = (   0.0486966   0.0343562   0.0000000), wk =   0.1111111
        k(   14) = (   0.0486966  -0.0948677   0.0000000), wk =   0.1111111
        k(   15) = (   0.0486966  -0.0690229   0.0000000), wk =   0.1111111
        k(   16) = (   0.0486966  -0.0431782   0.0000000), wk =   0.1111111
        k(   17) = (  -0.0730450   0.0260001   0.0000000), wk =   0.0555556
        k(   18) = (  -0.0730450   0.0518449   0.0000000), wk =   0.1111111
        k(   19) = (  -0.0730450   0.0776896   0.0000000), wk =   0.1111111
        k(   20) = (  -0.0730450  -0.0515342   0.0000000), wk =   0.0555556

     Largest allocated arrays     est. size (Mb)     dimensions
     Largest temporary arrays     est. size (Mb)     dimensions

     Initial potential from superposition of free atoms
     Check: negative starting charge=   -0.426213

     starting charge  137.80724, renormalised to  138.00000

[...]

     *
     * You are using vdW-DF for exchange-correlation in this calculation.
     * Please cite the following three references that made this development
     * possible:
     *
     *   M. Dion, H. Rydberg, E. Schroder, D. C. Langreth, and
     *   B. I. Lundqvist, Phys. Rev. Lett. 92, 246401 (2004).
     *
     *   T. Thonhauser, V. R. Cooper, S. Li, A. Puzder, P. Hyldgaard, and
     *   D. C. Langreth, Phys. Rev. B 76, 125112 (2007).
     *
     *   G. Roman-Perez and J. M. Soler, Phys. Rev. Lett. 103, 096102 (2009).
     *
     *
     * If you are using vdW-DF2, please also cite:
     *
     *   K. Lee, E. D. Murray, L. Kong, B. I. Lundqvist, and
     *   D. C. Langreth, Phys. Rev. B 82, 081101(R) (2010).
     *
     *
     * If you are calculating the stress with vdW-DF, please also cite:
     *
     *   R. Sabatini, E. Kucukbenli, B. Kolb, T. Thonhauser, and
     *   S. de Gironcoli, J. Phys.: Condens. Matter 24, 424209 (2012).
     *

     Carrying out vdW-DF run using the following parameters:

     Nqs =      20    Nr_points =    1024   r_max =   100.000
     q_mesh =
               0.00001000     0.04494208     0.09755937     0.15916263
               0.23128650     0.31572767     0.41458969     0.53033537
               0.66584808     0.82450364     1.01025438     1.22772762
               1.48234092     1.78043706     2.12944203     2.53805004
               3.01644009     3.57652955     4.23227104     5.00000000

     Gradients computed in reciprocal space

[...]

     Starting wfc are  174 randomized atomic wfcs

     Self-consistent Calculation

[...]

     iteration # 13     ecut=    36.75 Ry     beta=0.10
     Davidson diagonalization with overlap
     c_bands:  1 eigenvalues not converged
     ethr =  9.03E-07,  avg # of iterations =  6.7

[...]

     total energy              =   -1279.04665230 Ry
     Harris-Foulkes estimate   =   -1279.04665520 Ry
     estimated scf accuracy    <       0.00000229 Ry

     iteration # 19     ecut=    36.75 Ry     beta=0.10
     Davidson diagonalization with overlap
     ethr =  1.29E-09,  avg # of iterations =  6.9

[...]

     negative rho (up, down):  2.869E-01 0.000E+00

     Adding external electric field

     Computed dipole along edir(3) :
        Dipole               -0.0170 Ry au,         -0.0433 Debye
        Dipole field         -0.0000 Ry au

        Potential amp.        0.0026 Ry
        Total length         47.1549 bohr

     End of self-consistent calculation

[...]

          k = 0.0487-0.0432 0.0000 ( 28689 PWs)   bands (ev):

[...]

          k =-0.0730-0.0515 0.0000 ( 28578 PWs)   bands (ev):

   -32.3568 -32.3293 -32.3253 -32.2980 -32.0260 -31.9904 -16.0945 -16.0800
   -16.0695 -16.0413 -15.9809 -15.9708 -15.9408 -15.9272 -15.9256 -15.8663
   -15.8545 -15.6281 -15.6082 -15.5568 -15.5514 -15.5434 -15.5104 -15.3898
    -5.8996  -5.8894  -5.8640  -5.8600  -5.7893  -5.7861  -5.7581  -5.7467
    -5.7455  -5.7331  -5.7198  -5.7193  -5.7155  -5.7137  -5.6960  -5.6917
    -5.6888  -5.6817  -5.6800  -5.6763  -5.6749  -5.6661  -5.6578  -5.6536
    -5.6524  -5.5998  -5.5933  -5.5161  -5.4795  -5.4188  -3.5038  -3.4087
    -2.9355  -2.8753  -2.5709  -1.7172  -0.7035  -0.5454  -0.2248  -0.0776
     0.0220   0.3815   0.3946   0.5234   0.7845   1.4437   1.4572   1.4936
     1.7308   1.8190   2.1546   2.1598   2.1857   2.3149   2.4601   2.4775
     2.4931   2.5146   2.5543   2.5650   2.5728   2.5779   2.5828   2.5880
     2.5915   2.5938   2.5952   2.6080   2.6318   2.6413   2.6492   2.6501
     2.6823   2.7051   2.7126

     the Fermi energy is     1.4884 ev

!    total energy              =   -1279.04663953 Ry
     Harris-Foulkes estimate   =   -1279.04665252 Ry
     estimated scf accuracy    <       0.00000032 Ry

     The total energy is the sum of the following terms:

     one-electron contribution =   -5893.01418540 Ry
     hartree contribution      =    2997.19903713 Ry
     xc contribution           =    -546.68096778 Ry
     ewald contribution        =    2163.53914189 Ry
     electric field correction =       0.00000048 Ry
     smearing contrib. (-TS)   =      -0.08966584 Ry

     convergence has been achieved in  19 iterations

 BEEF-vdW xc energy contributions
           1 :   -482.194159227216
           2 :    443.592586365136
           3 :   -375.798504931375
           4 :    293.983377986735
           5 :   -213.853355140910
           6 :    147.184818063237
           7 :   -99.5725603102671
           8 :    70.5820538127642
           9 :   -55.6517854494002
          10 :    48.6965953966178
          11 :   -44.3708726803982
          12 :    39.2981775865918
          13 :   -32.1837387357931
          14 :    23.2304150008623
          15 :   -13.4120267099061
          16 :    3.93262650563554
          17 :    4.08139793747148
          18 :   -9.76035832923503
          19 :    12.6338128466383
          20 :   -12.7531273768001
          21 :    10.7303044583903
          22 :   -7.61825951182936
          23 :    4.62295176095733
          24 :   -2.74381191840496
          25 :    2.48528999987445
          26 :   -3.74799298457469
          27 :    5.92194879628937
          28 :   -8.13394243489449
          29 :    9.55800626163898
          30 :   -9.69112317161057
          31 :   -42.6131564792818
          32 :   -30.8894625586120

     Forces acting on atoms (Ry/au):

     negative rho (up, down):  2.869E-01 0.000E+00
     atom    1 type  1   force =    -0.00017632   -0.00012496    0.00608407
     atom    2 type  1   force =    -0.00017856   -0.00012597    0.00608732
     atom    3 type  2   force =    -0.00004864   -0.00003750    0.00134483
     atom    4 type  2   force =    -0.00005331   -0.00003390    0.00134576
     atom    5 type  1   force =     0.00002987    0.00002179   -0.00273941
     atom    6 type  1   force =     0.00003507    0.00002428   -0.00273741
     atom    7 type  2   force =     0.00000120    0.00000709   -0.00377595
     atom    8 type  2   force =     0.00000773   -0.00000100   -0.00377644
     atom    9 type  1   force =     0.00000538    0.00000509   -0.00015836
     atom   10 type  1   force =     0.00001236    0.00000917   -0.00015839
     atom   11 type  2   force =     0.00018176    0.00012839   -0.00075761
     atom   12 type  2   force =     0.00018346    0.00012752   -0.00075840

     Total force =     0.011073     Total SCF correction =     0.001374
     SCF correction compared to forces is large: reduce conv_thr to get better values

     entering subroutine stress ...

     negative rho (up, down):  2.869E-01 0.000E+00
          total   stress  (Ry/bohr**3)                   (kbar)     P=   -4.01
  -0.00003890  -0.00000992   0.00000058         -5.72     -1.46      0.09
  -0.00000992  -0.00003183   0.00000041         -1.46     -4.68      0.06
   0.00000058   0.00000041  -0.00001101          0.09      0.06     -1.62

 !ASE

     Writing output data file calc.save

     General routines

     Parallel routines

   This run was terminated on:   1:47:28  25Dec2018

   JOB DONE.
Job  /afs/slac/g/suncat/bin/suncat-tsmpirun -x LD_LIBRARY_PATH -wdir /scratch/qe109056_QgUwG pw.x -in pw.inp

TID   HOST_NAME   COMMAND_LINE            STATUS            TERMINATION_TIME
00000 suncat0086 pw.x -in pw.inp   Done                     12/25/2018 01:47:28
00001 suncat0086 pw.x -in pw.inp   Done                     12/25/2018 01:47:28
00002 suncat0086 pw.x -in pw.inp   Done                     12/25/2018 01:47:28
00003 suncat0086 pw.x -in pw.inp   Done                     12/25/2018 01:47:28
00004 suncat0086 pw.x -in pw.inp   Done                     12/25/2018 01:47:28
00005 suncat0086 pw.x -in pw.inp   Done                     12/25/2018 01:47:28
00006 suncat0086 pw.x -in pw.inp   Done                     12/25/2018 01:47:28
00007 suncat0086 pw.x -in pw.inp   Done                     12/25/2018 01:47:28
00008 suncat0085 pw.x -in pw.inp   Done                     12/25/2018 01:47:28
00009 suncat0085 pw.x -in pw.inp   Done                     12/25/2018 01:47:28
00010 suncat0085 pw.x -in pw.inp   Done                     12/25/2018 01:47:28
00011 suncat0085 pw.x -in pw.inp   Done                     12/25/2018 01:47:28
00012 suncat0085 pw.x -in pw.inp   Done                     12/25/2018 01:47:28
00013 suncat0085 pw.x -in pw.inp   Done                     12/25/2018 01:47:28
00014 suncat0085 pw.x -in pw.inp   Done                     12/25/2018 01:47:28
00015 suncat0085 pw.x -in pw.inp   Done                     12/25/2018 01:47:28
00016 suncat0076 pw.x -in pw.inp   Done                     12/25/2018 01:47:28
00017 suncat0076 pw.x -in pw.inp   Done                     12/25/2018 01:47:28
00018 suncat0076 pw.x -in pw.inp   Done                     12/25/2018 01:47:28
00019 suncat0076 pw.x -in pw.inp   Done                     12/25/2018 01:47:28
00020 suncat0076 pw.x -in pw.inp   Done                     12/25/2018 01:47:28
00021 suncat0076 pw.x -in pw.inp   Done                     12/25/2018 01:47:28
00022 suncat0076 pw.x -in pw.inp   Done                     12/25/2018 01:47:28
00023 suncat0076 pw.x -in pw.inp   Done                     12/25/2018 01:47:28
00024 suncat0064 pw.x -in pw.inp   Done                     12/25/2018 01:47:28
00025 suncat0064 pw.x -in pw.inp   Done                     12/25/2018 01:47:28
00026 suncat0064 pw.x -in pw.inp   Done                     12/25/2018 01:47:28
00027 suncat0064 pw.x -in pw.inp   Done                     12/25/2018 01:47:28
00028 suncat0064 pw.x -in pw.inp   Done                     12/25/2018 01:47:28
00029 suncat0064 pw.x -in pw.inp   Done                     12/25/2018 01:47:28
00030 suncat0064 pw.x -in pw.inp   Done                     12/25/2018 01:47:28
00031 suncat0064 pw.x -in pw.inp   Done                     12/25/2018 01:47:28
00032 suncat0063 pw.x -in pw.inp   Done                     12/25/2018 01:47:28
00033 suncat0063 pw.x -in pw.inp   Done                     12/25/2018 01:47:28
00034 suncat0063 pw.x -in pw.inp   Done                     12/25/2018 01:47:28
00035 suncat0063 pw.x -in pw.inp   Done                     12/25/2018 01:47:28
00036 suncat0063 pw.x -in pw.inp   Done                     12/25/2018 01:47:28
00037 suncat0063 pw.x -in pw.inp   Done                     12/25/2018 01:47:28
00038 suncat0063 pw.x -in pw.inp   Done                     12/25/2018 01:47:28
00039 suncat0063 pw.x -in pw.inp   Done                     12/25/2018 01:47:28
00040 suncat0051 pw.x -in pw.inp   Done                     12/25/2018 01:47:28
00041 suncat0051 pw.x -in pw.inp   Done                     12/25/2018 01:47:28
00042 suncat0051 pw.x -in pw.inp   Done                     12/25/2018 01:47:28
00043 suncat0051 pw.x -in pw.inp   Done                     12/25/2018 01:47:28
00044 suncat0051 pw.x -in pw.inp   Done                     12/25/2018 01:47:28
00045 suncat0051 pw.x -in pw.inp   Done                     12/25/2018 01:47:28
00046 suncat0051 pw.x -in pw.inp   Done                     12/25/2018 01:47:28
00047 suncat0051 pw.x -in pw.inp   Done                     12/25/2018 01:47:28
00048 suncat0117 pw.x -in pw.inp   Done                     12/25/2018 01:47:28
00049 suncat0117 pw.x -in pw.inp   Done                     12/25/2018 01:47:28
00050 suncat0117 pw.x -in pw.inp   Done                     12/25/2018 01:47:28
00051 suncat0117 pw.x -in pw.inp   Done                     12/25/2018 01:47:28
00052 suncat0117 pw.x -in pw.inp   Done                     12/25/2018 01:47:28
00053 suncat0117 pw.x -in pw.inp   Done                     12/25/2018 01:47:28
00054 suncat0117 pw.x -in pw.inp   Done                     12/25/2018 01:47:28
00055 suncat0117 pw.x -in pw.inp   Done                     12/25/2018 01:47:28
00056 suncat0116 pw.x -in pw.inp   Done                     12/25/2018 01:47:28
00057 suncat0116 pw.x -in pw.inp   Done                     12/25/2018 01:47:28
00058 suncat0116 pw.x -in pw.inp   Done                     12/25/2018 01:47:28
00059 suncat0116 pw.x -in pw.inp   Done                     12/25/2018 01:47:28
00060 suncat0116 pw.x -in pw.inp   Done                     12/25/2018 01:47:28
00061 suncat0116 pw.x -in pw.inp   Done                     12/25/2018 01:47:28
00062 suncat0116 pw.x -in pw.inp   Done                     12/25/2018 01:47:28
00063 suncat0116 pw.x -in pw.inp   Done                     12/25/2018 01:47:28