     Program PWSCF v.5.1rc2 (svn rev. 11289) starts on 19Dec2018 at  3:26: 6

     Current dimensions of program PWSCF are:
     Max number of different atomic species (ntypx) = 10
     Max number of k-points (npk) =  40000
     Max angular momentum in pseudopotentials (lmaxx) =  3
     Presently stress not available with electric field

     IMPORTANT: XC functional enforced from input :
     Exchange-correlation      = BEEF-VDW ( 1  4 27 13 2)
     Any further DFT definition will be discarded
     Please, verify this is what you really want

     Subspace diagonalization in iterative solution of the eigenvalue problem:
     a serial algorithm will be used

     Found symmetry operation: I + ( -0.5000 -0.5000  0.0000)
     This is a supercell, fractional translations are disabled

     bravais-lattice index     =            0
     lattice parameter (alat)  =       1.8897  a.u.
     unit-cell volume          =    4609.2310 (a.u.)^3
     number of atoms/cell      =           12
     number of atomic types    =            2
     number of electrons       =       168.00
     number of Kohn-Sham states=          114
     kinetic-energy cutoff     =      36.7493  Ry
     charge density cutoff     =     367.4932  Ry
     convergence threshold     =      1.0E-06
     mixing beta               =       0.1000
     number of iterations used =           10  plain     mixing
     Exchange-correlation      = BEEF-VDW ( 1  4 27 13 2)
     nstep                     =           50

     celldm(1)=   1.889726  celldm(2)=   0.000000  celldm(3)=   0.000000
     celldm(4)=   0.000000  celldm(5)=   0.000000  celldm(6)=   0.000000

     crystal axes: (cart. coord. in units of alat)
               a(1) = (   5.613346   0.000000   0.000000 )
               a(2) = (   2.660593   4.942762   0.000000 )
               a(3) = (   0.000000   0.000000  24.617294 )

     reciprocal axes: (cart. coord. in units 2 pi/alat)
               b(1) = (  0.178147 -0.095893  0.000000 )
               b(2) = (  0.000000  0.202316  0.000000 )
               b(3) = (  0.000000  0.000000  0.040622 )

     PseudoPot. # 1 for Rh read from file:
     /afs/slac.stanford.edu/u/if/mamunm/psp/gbrv1.5pbe/Rh.UPF
     MD5 check sum: 761627e959a2e3a1f56b0b5fe687810e
     Pseudo is Ultrasoft + core correction, Zval = 15.0
     Generated by new atomic code, or converted to UPF format
     Using radial grid of  969 points,  7 beta functions with:
                l(1) =   0
                l(2) =   0
                l(3) =   1
                l(4) =   1
                l(5) =   2
                l(6) =   2
                l(7) =   2
     Q(r) pseudized with  8 coefficients,  rinner =    1.200   1.200   1.200
                                                       1.200   1.200

     PseudoPot. # 2 for Ta read from file:
     /afs/slac.stanford.edu/u/if/mamunm/psp/gbrv1.5pbe/Ta.UPF
     MD5 check sum: f8bbe9446314a3b8ea5d9f3e3836c939
     Pseudo is Ultrasoft + core correction, Zval = 13.0
     Generated by new atomic code, or converted to UPF format
     Using radial grid of  921 points,  7 beta functions with:
                l(1) =   0
                l(2) =   0
                l(3) =   1
                l(4) =   1
                l(5) =   2
                l(6) =   2
                l(7) =   3
     Q(r) pseudized with  6 coefficients,  rinner =    1.300   1.300   1.300
                                                       1.300   1.300   1.300
                                                       1.300

     vdW kernel table read from file vdW_kernel_table
     MD5 check sum: 095c7af220d748ca6e76c0b4c6cfb241

     atomic species   valence    mass     pseudopotential
        Rh1           15.00   102.90550     Rh( 1.00)
        Ta1           13.00   180.94788     Ta( 1.00)

     No symmetry found

   Cartesian axes

     site n.     atom                  positions (alat units)
         1           Rh1 tau(   1) = (   0.0000000   0.0000000  10.0000000  )
         2           Rh1 tau(   2) = (   4.1369695   2.4713812  10.0000000  )
         3           Ta1 tau(   3) = (   2.8066731   0.0000000  10.0000000  )
         4           Ta1 tau(   4) = (   1.3302965   2.4713812  10.0000000  )
         5           Rh1 tau(   5) = (   5.6133462   3.3533527  12.3086471  )
         6           Rh1 tau(   6) = (   1.4763766   0.8819715  12.3086471  )
         7           Ta1 tau(   7) = (   2.8066731   3.3533527  12.3086471  )
         8           Ta1 tau(   8) = (   4.2830497   0.8819715  12.3086471  )
         9           Rh1 tau(   9) = (   2.9527532   1.7639431  14.6172941  )
        10           Rh1 tau(  10) = (   7.0897228   4.2353243  14.6172941  )
        11           Ta1 tau(  11) = (   5.7594263   1.7639431  14.6172941  )
        12           Ta1 tau(  12) = (   4.2830497   4.2353243  14.6172941  )

     number of k points=    20  Fermi-Dirac smearing, width (Ry)=  0.0110
                       cart. coord. in units 2pi/alat
        k(    1) = (   0.0000000   0.0000000   0.0000000), wk =   0.0555556
        k(    2) = (   0.0000000   0.0337193   0.0000000), wk =   0.1111111
        k(    3) = (   0.0000000   0.0674387   0.0000000), wk =   0.1111111
        k(    4) = (   0.0000000  -0.1011580   0.0000000), wk =   0.0555556
        k(    5) = (   0.0296911  -0.0159822   0.0000000), wk =   0.1111111
        k(    6) = (   0.0296911   0.0177372   0.0000000), wk =   0.1111111
        k(    7) = (   0.0296911   0.0514565   0.0000000), wk =   0.1111111
        k(    8) = (   0.0296911  -0.1171402   0.0000000), wk =   0.1111111
        k(    9) = (   0.0296911  -0.0834208   0.0000000), wk =   0.1111111
        k(   10) = (   0.0296911  -0.0497015   0.0000000), wk =   0.1111111
        k(   11) = (   0.0593823  -0.0319643   0.0000000), wk =   0.1111111
        k(   12) = (   0.0593823   0.0017550   0.0000000), wk =   0.1111111
        k(   13) = (   0.0593823   0.0354743   0.0000000), wk =   0.1111111
        k(   14) = (   0.0593823  -0.1331223   0.0000000), wk =   0.1111111
        k(   15) = (   0.0593823  -0.0994030   0.0000000), wk =   0.1111111
        k(   16) = (   0.0593823  -0.0656837   0.0000000), wk =   0.1111111
        k(   17) = (  -0.0890734   0.0479465   0.0000000), wk =   0.0555556
        k(   18) = (  -0.0890734   0.0816658   0.0000000), wk =   0.1111111
        k(   19) = (  -0.0890734   0.1153852   0.0000000), wk =   0.1111111
        k(   20) = (  -0.0890734  -0.0532115   0.0000000), wk =   0.0555556

     Largest allocated arrays     est. size (Mb)     dimensions
     Largest temporary arrays     est. size (Mb)     dimensions

     Initial potential from superposition of free atoms
     Check: negative starting charge=   -0.891148

     starting charge  164.99274, renormalised to  168.00000

     negative rho (up, down):  9.074E-01 0.000E+00

     *
     * You are using vdW-DF for exchange-correlation in this calculation.
     * Please cite the following three references that made this development
     * possible:
     *
     *   M. Dion, H. Rydberg, E. Schroder, D. C. Langreth, and
     *   B. I. Lundqvist, Phys. Rev. Lett. 92, 246401 (2004).
     *
     *   T. Thonhauser, V. R. Cooper, S. Li, A. Puzder, P. Hyldgaard, and
     *   D. C. Langreth, Phys. Rev. B 76, 125112 (2007).
     *
     *   G. Roman-Perez and J. M. Soler, Phys. Rev. Lett. 103, 096102 (2009).
     *
     *
     * If you are using vdW-DF2, please also cite:
     *
     *   K. Lee, E. D. Murray, L. Kong, B. I. Lundqvist, and
     *   D. C. Langreth, Phys. Rev. B 82, 081101(R) (2010).
     *
     *
     * If you are calculating the stress with vdW-DF, please also cite:
     *
     *   R. Sabatini, E. Kucukbenli, B. Kolb, T. Thonhauser, and
     *   S. de Gironcoli, J. Phys.: Condens. Matter 24, 424209 (2012).
     *

     Carrying out vdW-DF run using the following parameters:

     Nqs =      20    Nr_points =    1024   r_max =   100.000
     q_mesh =
               0.00001000     0.04494208     0.09755937     0.15916263
               0.23128650     0.31572767     0.41458969     0.53033537
               0.66584808     0.82450364     1.01025438     1.22772762
               1.48234092     1.78043706     2.12944203     2.53805004
               3.01644009     3.57652955     4.23227104     5.00000000

     Gradients computed in reciprocal space

     Adding external electric field

     Computed dipole along edir(3) :
        Dipole                0.0000 Ry au,          0.0000 Debye
        Dipole field          0.0000 Ry au

        Potential amp.       -0.0000 Ry
        Total length         45.3569 bohr

     Starting wfc are  150 randomized atomic wfcs

     Self-consistent Calculation

     iteration #  1     ecut=    36.75 Ry     beta=0.10
     Davidson diagonalization with overlap
     ethr =  1.00E-02,  avg # of iterations =  2.7

[...]

     total energy              =   -1892.96381699 Ry
     Harris-Foulkes estimate   =   -1893.27079003 Ry
     estimated scf accuracy    <       2.04442488 Ry

[...]

     End of self-consistent calculation

          k = 0.0000 0.0000 0.0000 ( 17367 PWs)   bands (ev):

   -66.5961 -66.5951 -66.5526 -66.5516 -66.3808 -66.3363 -44.6768 -44.6616
   -44.6558 -44.5475 -44.5267 -44.4695 -44.2621 -44.2594 -44.2403 -44.2373
   -44.1969 -44.1958 -44.0880 -44.0816 -44.0704 -44.0625 -44.0057 -44.0057
   -33.1379 -33.1358 -33.1286 -33.0610 -33.0565 -33.0447 -32.9680 -32.9248
   -32.8898 -32.8592 -32.8199 -32.7745 -32.6976 -32.5292 -32.4598 -32.4356
   -32.4300 -32.3527  -5.2481  -3.6637  -3.2330  -2.9641  -2.8673  -2.8293
    -2.7888  -2.5453  -2.4330  -2.2122  -2.1944  -2.1755  -2.1497  -1.9444
    -1.9016  -0.9447  -0.9215  -0.7736  -0.4672  -0.4298  -0.3273  -0.1842
    -0.1203  -0.0444   0.0112   0.1936   0.3303   0.3324   0.4555   1.2148
     1.2728   1.3670   1.3753   1.5094   1.6338   1.6643   1.7917   1.8543
     2.1204   2.1828   2.4180   2.6916   2.7765   2.8959   3.0784   3.1263
     3.4947   3.5132   3.6583   3.7529   4.0441   4.2040   4.2502   4.2626
     4.5343   4.7276   5.0292   5.1174   5.4118   5.6467   5.9886   6.0440
     6.2046   6.2626   6.3083   6.3845   6.4147   6.4477   6.6610   6.6968
     6.7566   6.7883

[...]

          k =-0.0891 0.0479 0.0000 ( 17306 PWs)   bands (ev):

[...]

     the Fermi energy is     2.0844 ev

!    total energy              =   -1892.76045034 Ry
     Harris-Foulkes estimate   =   -1892.76044983 Ry
     estimated scf accuracy    <       0.00000015 Ry

     The total energy is the sum of the following terms:

     one-electron contribution =  -15017.61264846 Ry
     hartree contribution      =    7521.09403840 Ry
     xc contribution           =    -447.58793307 Ry
     ewald contribution        =    6051.42652937 Ry
     electric field correction =       0.00000000 Ry
     smearing contrib. (-TS)   =      -0.08043658 Ry

     convergence has been achieved in  16 iterations

 BEEF-vdW xc energy contributions
           1 :   -392.450963589743
           2 :    361.735730793669
           3 :   -308.177385326272
           4 :    244.396125249701
           5 :   -183.211057696658
           6 :    133.676509134043
           7 :   -99.1341765866546
           8 :    77.7023331622536
[...]

     Total force =     0.040791     Total SCF correction =     0.004187
     SCF correction compared to forces is large: reduce conv_thr to get better values

[...]

   This run was terminated on:   3:53: 0  19Dec2018

[...]

     Program PWSCF v.5.1rc2 (svn rev. 11289) starts on 19Dec2018 at  3:53: 7

[...]

   This run was terminated on:   3:57:17  19Dec2018

[...]

     Program PWSCF v.5.1rc2 (svn rev. 11289) starts on 19Dec2018 at  3:57:23

     Current dimensions of program PWSCF are:
     Max number of different atomic species (ntypx) = 10
     Max number of k-points (npk) =  40000
     Max angular momentum in pseudopotentials (lmaxx) =  3
     Presently stress not available with electric field

     IMPORTANT: XC functional enforced from input :
     Exchange-correlation      = BEEF-VDW ( 1  4 27 13 2)
     Any further DFT definition will be discarded
     Please, verify this is what you really want

     Subspace diagonalization in iterative solution of the eigenvalue problem:
     a serial algorithm will be used

     Found symmetry operation: I + ( -0.5000 -0.5000  0.0000)
     This is a supercell, fractional translations are disabled

     bravais-lattice index     =            0
     lattice parameter (alat)  =       1.8897  a.u.
     unit-cell volume          =    4609.2310 (a.u.)^3
     number of atoms/cell      =           12
     number of atomic types    =            2
     number of electrons       =       168.00
     number of Kohn-Sham states=          114
     kinetic-energy cutoff     =      36.7493  Ry
     charge density cutoff     =     367.4932  Ry
     convergence threshold     =      1.0E-06
     mixing beta               =       0.1000
     number of iterations used =           10  plain     mixing
     Exchange-correlation      = BEEF-VDW ( 1  4 27 13 2)
     nstep                     =           50

     celldm(1)=   1.889726  celldm(2)=   0.000000  celldm(3)=   0.000000
     celldm(4)=   0.000000  celldm(5)=   0.000000  celldm(6)=   0.000000

     crystal axes: (cart. coord. in units of alat)
               a(1) = (   5.613346   0.000000   0.000000 )
               a(2) = (   2.660593   4.942762   0.000000 )
               a(3) = (   0.000000   0.000000  24.617294 )

     reciprocal axes: (cart. coord. in units 2 pi/alat)
               b(1) = (  0.178147 -0.095893  0.000000 )
               b(2) = (  0.000000  0.202316  0.000000 )
               b(3) = (  0.000000  0.000000  0.040622 )

     PseudoPot. # 1 for Rh read from file:
     /afs/slac.stanford.edu/u/if/mamunm/psp/gbrv1.5pbe/Rh.UPF
     MD5 check sum: 761627e959a2e3a1f56b0b5fe687810e
     Pseudo is Ultrasoft + core correction, Zval = 15.0
     Generated by new atomic code, or converted to UPF format
     Using radial grid of  969 points,  7 beta functions with:
                l(1) =   0
                l(2) =   0
                l(3) =   1
                l(4) =   1
                l(5) =   2
                l(6) =   2
                l(7) =   2
     Q(r) pseudized with  8 coefficients,  rinner =    1.200   1.200   1.200
                                                       1.200   1.200

     PseudoPot. # 2 for Ta read from file:
     /afs/slac.stanford.edu/u/if/mamunm/psp/gbrv1.5pbe/Ta.UPF
     MD5 check sum: f8bbe9446314a3b8ea5d9f3e3836c939
     Pseudo is Ultrasoft + core correction, Zval = 13.0
     Generated by new atomic code, or converted to UPF format
     Using radial grid of  921 points,  7 beta functions with:
                l(1) =   0
                l(2) =   0
                l(3) =   1
                l(4) =   1
                l(5) =   2
                l(6) =   2
                l(7) =   3
     Q(r) pseudized with  6 coefficients,  rinner =    1.300   1.300   1.300
                                                       1.300   1.300   1.300
                                                       1.300

     vdW kernel table read from file vdW_kernel_table
     MD5 check sum: 095c7af220d748ca6e76c0b4c6cfb241

     atomic species   valence    mass     pseudopotential
        Rh1           15.00   102.90550     Rh( 1.00)
        Ta1           13.00   180.94788     Ta( 1.00)

     No symmetry found

   Cartesian axes

     site n.     atom                  positions (alat units)
         1           Rh1 tau(   1) = (   0.0000000   0.0000000  10.0000000  )
         2           Rh1 tau(   2) = (   4.1369695   2.4713812  10.0000000  )
         3           Ta1 tau(   3) = (   2.8066731   0.0000000  10.0000000  )
         4           Ta1 tau(   4) = (   1.3302965   2.4713812  10.0000000  )
         5           Rh1 tau(   5) = (   5.6133462   3.3533527  12.3086471  )
         6           Rh1 tau(   6) = (   1.4763766   0.8819715  12.3086471  )
         7           Ta1 tau(   7) = (   2.8066731   3.3533527  12.3086471  )
         8           Ta1 tau(   8) = (   4.2830497   0.8819715  12.3086471  )
         9           Rh1 tau(   9) = (   3.0755596   1.8373020  14.5528574  )
        10           Rh1 tau(  10) = (   7.2125277   4.3086904  14.5528573  )
        11           Ta1 tau(  11) = (   5.8828904   1.8376934  14.5437884  )
        12           Ta1 tau(  12) = (   4.4065071   4.3090825  14.5437919  )

     number of k points=    20  Fermi-Dirac smearing, width (Ry)=  0.0110
                       cart. coord. in units 2pi/alat
        k(    1) = (   0.0000000   0.0000000   0.0000000), wk =   0.0555556
        k(    2) = (   0.0000000   0.0337193   0.0000000), wk =   0.1111111
        k(    3) = (   0.0000000   0.0674387   0.0000000), wk =   0.1111111
        k(    4) = (   0.0000000  -0.1011580   0.0000000), wk =   0.0555556
        k(    5) = (   0.0296911  -0.0159822   0.0000000), wk =   0.1111111
        k(    6) = (   0.0296911   0.0177372   0.0000000), wk =   0.1111111
        k(    7) = (   0.0296911   0.0514565   0.0000000), wk =   0.1111111
        k(    8) = (   0.0296911  -0.1171402   0.0000000), wk =   0.1111111
        k(    9) = (   0.0296911  -0.0834208   0.0000000), wk =   0.1111111
        k(   10) = (   0.0296911  -0.0497015   0.0000000), wk =   0.1111111
        k(   11) = (   0.0593823  -0.0319643   0.0000000), wk =   0.1111111
        k(   12) = (   0.0593823   0.0017550   0.0000000), wk =   0.1111111
        k(   13) = (   0.0593823   0.0354743   0.0000000), wk =   0.1111111
        k(   14) = (   0.0593823  -0.1331223   0.0000000), wk =   0.1111111
        k(   15) = (   0.0593823  -0.0994030   0.0000000), wk =   0.1111111
        k(   16) = (   0.0593823  -0.0656837   0.0000000), wk =   0.1111111
        k(   17) = (  -0.0890734   0.0479465   0.0000000), wk =   0.0555556
        k(   18) = (  -0.0890734   0.0816658   0.0000000), wk =   0.1111111
        k(   19) = (  -0.0890734   0.1153852   0.0000000), wk =   0.1111111
        k(   20) = (  -0.0890734  -0.0532115   0.0000000), wk =   0.0555556

     Largest allocated arrays     est. size (Mb)     dimensions
     Largest temporary arrays     est. size (Mb)     dimensions

     Initial potential from superposition of free atoms
     Check: negative starting charge=   -0.888819

     starting charge  164.99274, renormalised to  168.00000

[...]

     *
     * You are using vdW-DF for exchange-correlation in this calculation.
     * Please cite the following three references that made this development
     * possible:
     *
     *   M. Dion, H. Rydberg, E. Schroder, D. C. Langreth, and
     *   B. I. Lundqvist, Phys. Rev. Lett. 92, 246401 (2004).
     *
     *   T. Thonhauser, V. R. Cooper, S. Li, A. Puzder, P. Hyldgaard, and
     *   D. C. Langreth, Phys. Rev. B 76, 125112 (2007).
     *
     *   G. Roman-Perez and J. M. Soler, Phys. Rev. Lett. 103, 096102 (2009).
     *
     *
     * If you are using vdW-DF2, please also cite:
     *
     *   K. Lee, E. D. Murray, L. Kong, B. I. Lundqvist, and
     *   D. C. Langreth, Phys. Rev. B 82, 081101(R) (2010).
     *
     *
     * If you are calculating the stress with vdW-DF, please also cite:
     *
     *   R. Sabatini, E. Kucukbenli, B. Kolb, T. Thonhauser, and
     *   S. de Gironcoli, J. Phys.: Condens. Matter 24, 424209 (2012).
     *

     Carrying out vdW-DF run using the following parameters:

     Nqs =      20    Nr_points =    1024   r_max =   100.000
     q_mesh =
               0.00001000     0.04494208     0.09755937     0.15916263
               0.23128650     0.31572767     0.41458969     0.53033537
               0.66584808     0.82450364     1.01025438     1.22772762
               1.48234092     1.78043706     2.12944203     2.53805004
               3.01644009     3.57652955     4.23227104     5.00000000

     Gradients computed in reciprocal space

[...]

     Starting wfc are  150 randomized atomic wfcs

     Self-consistent Calculation

[...]

     total energy              =   -1892.76826189 Ry
     Harris-Foulkes estimate   =   -1892.76826153 Ry
     estimated scf accuracy    <       0.00000239 Ry

     iteration # 15     ecut=    36.75 Ry     beta=0.10
     Davidson diagonalization with overlap
     ethr =  1.42E-09,  avg # of iterations =  2.0

[...]

     negative rho (up, down):  9.347E-01 0.000E+00

     Adding external electric field

     Computed dipole along edir(3) :
        Dipole                0.0195 Ry au,          0.0496 Debye
        Dipole field          0.0001 Ry au

        Potential amp.       -0.0048 Ry
        Total length         45.3569 bohr

     End of self-consistent calculation

[...]

          k = 0.0594-0.0657 0.0000 ( 17307 PWs)   bands (ev):

[...]

          k =-0.0891-0.0532 0.0000 ( 17384 PWs)   bands (ev):

   -66.5960 -66.5761 -66.5523 -66.5325 -66.3867 -66.3418 -44.7584 -44.7556
   -44.7385 -44.6188 -44.6004 -44.5636 -44.3009 -44.2829 -44.2553 -44.2402
   -44.2224 -44.1769 -44.1574 -44.1389 -44.0684 -44.0650 -44.0504 -43.9883
   -33.1552 -33.1516 -33.1230 -33.0701 -33.0650 -33.0337 -32.9617 -32.9515
   -32.9018 -32.8639 -32.8224 -32.7879 -32.7171 -32.5547 -32.4859 -32.4407
   -32.4159 -32.3613  -3.6466  -3.4679  -2.4101  -2.3189  -2.2542  -2.0342
    -1.9389  -1.9316  -1.8325  -1.7279  -1.5929  -1.3800  -1.3196  -1.1190
    -1.0951  -1.0506  -0.9377  -0.7768  -0.7696  -0.3573  -0.3101  -0.3022
    -0.1395  -0.0414  -0.0140   0.0398   0.2252   0.3851   0.3876   0.5039
     0.5391   0.6224   0.7089   0.7810   0.9643   0.9990   1.0765   1.1246
     1.2987   1.3004   1.3065   1.4107   1.4630   1.6108   1.6994   1.7300
     1.8955   2.2701   2.7179   3.1474   3.3905   3.4550   3.4620   3.9694
     4.1347   4.4319   4.4854   4.5395   4.7302   4.7936   5.0046   5.2706
     5.5985   5.7367   5.8910   6.0472   6.4662   6.8160   6.9249   7.4863
     7.7928   7.9598

     the Fermi energy is     2.1055 ev

!    total energy              =   -1892.76826390 Ry
     Harris-Foulkes estimate   =   -1892.76826224 Ry
     estimated scf accuracy    <       0.00000083 Ry

     The total energy is the sum of the following terms:

     one-electron contribution =  -15165.17790726 Ry
     hartree contribution      =    7594.75138503 Ry
     xc contribution           =    -447.72863617 Ry
     ewald contribution        =    6125.46641942 Ry
     electric field correction =       0.00000104 Ry
     smearing contrib. (-TS)   =      -0.07952595 Ry

     convergence has been achieved in  15 iterations

 BEEF-vdW xc energy contributions
           1 :   -392.596142677141
           2 :    361.938572545663
           3 :   -308.454858722895
           4 :    244.707876996828
           5 :   -183.477761405873
           6 :    133.823575007100
           7 :   -99.1354021093117
           8 :    77.5974154033678
           9 :   -64.4158307931365
          10 :    54.5503316995321
          11 :   -44.7315002813307
          12 :    34.1206907081036
          13 :   -23.7088963155687
          14 :    15.0768809184339
          15 :   -9.25824654141900
          16 :    6.20630369519688
          17 :   -4.96094613526350
          18 :    4.26061743774056
          19 :   -3.18940721777511
          20 :    1.51888063237971
          21 :   0.373788973556429
          22 :   -1.88725616723593
          23 :    2.61591006440517
          24 :   -2.57225123401008
          25 :    2.12759499477386
          26 :   -1.76032632636588
          27 :    1.78941353382629
          28 :   -2.24066419632243
          29 :    2.89001007358280
          30 :   -3.42558822217757
          31 :   -36.5338382604815
          32 :   -27.2819822853659

     Forces acting on atoms (Ry/au):

     negative rho (up, down):  9.347E-01 0.000E+00
     atom    1 type  1   force =    -0.00680405   -0.00406470    0.01352493
     atom    2 type  1   force =    -0.00680429   -0.00406465    0.01352501
     atom    3 type  2   force =    -0.00214540   -0.00128088    0.01226475
     atom    4 type  2   force =    -0.00214442   -0.00128188    0.01226463
     atom    5 type  1   force =     0.00518643    0.00309901   -0.01293948
     atom    6 type  1   force =     0.00518669    0.00309788   -0.01294049
     atom    7 type  2   force =     0.00395382    0.00236331   -0.01239280
     atom    8 type  2   force =     0.00395331    0.00236029   -0.01239491
     atom    9 type  1   force =    -0.00025410   -0.00014982   -0.00003330
     atom   10 type  1   force =    -0.00025322   -0.00015323   -0.00003343
     atom   11 type  2   force =     0.00006245    0.00004000   -0.00042140
     atom   12 type  2   force =     0.00006281    0.00003465   -0.00042350

     Total force =     0.039533     Total SCF correction =     0.003633

     entering subroutine stress ...

     negative rho (up, down):  9.347E-01 0.000E+00
          total   stress  (Ry/bohr**3)                   (kbar)     P=  -31.56
  -0.00026358  -0.00003052   0.00001547        -38.77     -4.49      2.28
  -0.00003052  -0.00023073   0.00000924         -4.49    -33.94      1.36
   0.00001547   0.00000924  -0.00014941          2.28      1.36    -21.98

 !ASE

     Writing output data file calc.save

     General routines

     Parallel routines

   This run was terminated on:   4: 1:35  19Dec2018

   JOB DONE.
Job  /afs/slac/g/suncat/bin/suncat-tsmpirun -x LD_LIBRARY_PATH -wdir /scratch/qe530492_9ilxo pw.x -in pw.inp

TID   HOST_NAME   COMMAND_LINE            STATUS            TERMINATION_TIME
00000 suncat2048 pw.x -in pw.inp   Done                     12/19/2018 04:01:35
00001 suncat2048 pw.x -in pw.inp   Done                     12/19/2018 04:01:35
00002 suncat2048 pw.x -in pw.inp   Done                     12/19/2018 04:01:35
00003 suncat2048 pw.x -in pw.inp   Done                     12/19/2018 04:01:35
00004 suncat2048 pw.x -in pw.inp   Done                     12/19/2018 04:01:35
00005 suncat2048 pw.x -in pw.inp   Done                     12/19/2018 04:01:35
00006 suncat2048 pw.x -in pw.inp   Done                     12/19/2018 04:01:35
00007 suncat2048 pw.x -in pw.inp   Done                     12/19/2018 04:01:35
00008 suncat2048 pw.x -in pw.inp   Done                     12/19/2018 04:01:35
00009 suncat2048 pw.x -in pw.inp   Done                     12/19/2018 04:01:35
00010 suncat2048 pw.x -in pw.inp   Done                     12/19/2018 04:01:35
00011 suncat2048 pw.x -in pw.inp   Done                     12/19/2018 04:01:35
00012 suncat2048 pw.x -in pw.inp   Done                     12/19/2018 04:01:35
00013 suncat2048 pw.x -in pw.inp   Done                     12/19/2018 04:01:35
00014 suncat2048 pw.x -in pw.inp   Done                     12/19/2018 04:01:35
00015 suncat2048 pw.x -in pw.inp   Done                     12/19/2018 04:01:35
00016 suncat2047 pw.x -in pw.inp   Done                     12/19/2018 04:01:35
00017 suncat2047 pw.x -in pw.inp   Done                     12/19/2018 04:01:35
00018 suncat2047 pw.x -in pw.inp   Done                     12/19/2018 04:01:35
00019 suncat2047 pw.x -in pw.inp   Done                     12/19/2018 04:01:35
00020 suncat2047 pw.x -in pw.inp   Done                     12/19/2018 04:01:35
00021 suncat2047 pw.x -in pw.inp   Done                     12/19/2018 04:01:35
00022 suncat2047 pw.x -in pw.inp   Done                     12/19/2018 04:01:35
00023 suncat2047 pw.x -in pw.inp   Done                     12/19/2018 04:01:35
00024 suncat2047 pw.x -in pw.inp   Done                     12/19/2018 04:01:35
00025 suncat2047 pw.x -in pw.inp   Done                     12/19/2018 04:01:35
00026 suncat2047 pw.x -in pw.inp   Done                     12/19/2018 04:01:35
00027 suncat2047 pw.x -in pw.inp   Done                     12/19/2018 04:01:35
00028 suncat2047 pw.x -in pw.inp   Done                     12/19/2018 04:01:35
00029 suncat2047 pw.x -in pw.inp   Done                     12/19/2018 04:01:35
00030 suncat2047 pw.x -in pw.inp   Done                     12/19/2018 04:01:35
00031 suncat2047 pw.x -in pw.inp   Done                     12/19/2018 04:01:35