     Program PWSCF v.5.1rc2 (svn rev. 11289) starts on 19Dec2018 at  4:13:51

     Current dimensions of program PWSCF are:
     Max number of different atomic species (ntypx) = 10
     Max number of k-points (npk) =  40000
     Max angular momentum in pseudopotentials (lmaxx) =  3
     Presently stress not available with electric field

     IMPORTANT: XC functional enforced from input :
     Exchange-correlation      = BEEF-VDW ( 1  4 27 13 2)
     Any further DFT definition will be discarded
     Please, verify this is what you really want

     Subspace diagonalization in iterative solution of the eigenvalue problem:
     a serial algorithm will be used

     Found symmetry operation: I + (  0.5000 -0.5000  0.0000)
     This is a supercell, fractional translations are disabled

     bravais-lattice index     =            0
     lattice parameter (alat)  =       1.8897  a.u.
     unit-cell volume          =    4958.5267 (a.u.)^3
     number of atoms/cell      =           12
     number of atomic types    =            2
     number of electrons       =       180.00
     number of Kohn-Sham states=          120
     kinetic-energy cutoff     =      36.7493  Ry
     charge density cutoff     =     367.4932  Ry
     convergence threshold     =      1.0E-06
     mixing beta               =       0.1000
     number of iterations used =           10  plain     mixing
     Exchange-correlation      = BEEF-VDW ( 1  4 27 13 2)
     nstep                     =           50

     celldm(1)=   1.889726  celldm(2)=   0.000000  celldm(3)=   0.000000
     celldm(4)=   0.000000  celldm(5)=   0.000000  celldm(6)=   0.000000

     crystal axes: (cart. coord. in units of alat)
               a(1) = (   5.629022   0.000000   0.000000 )
               a(2) = (   1.876319   5.307101   0.000000 )
               a(3) = (   0.000000   0.000000  24.596071 )

     reciprocal axes: (cart. coord. in units 2 pi/alat)
               b(1) = (  0.177651 -0.062808  0.000000 )
               b(2) = (  0.000000  0.188427  0.000000 )
               b(3) = (  0.000000  0.000000  0.040657 )

     PseudoPot. # 1 for Ru read from file:
     /afs/slac.stanford.edu/u/if/mamunm/psp/gbrv1.5pbe/Ru.UPF
     MD5 check sum: 7158a806dd851261a58e6920c40ebe78
     Pseudo is Ultrasoft + core correction, Zval = 16.0
     Generated by new atomic code, or converted to UPF format
     Using radial grid of  967 points,  6 beta functions with:
                l(1) =   0
                l(2) =   0
                l(3) =   1
                l(4) =   1
                l(5) =   2
                l(6) =   2
     Q(r) pseudized with  8 coefficients,  rinner =    1.300   1.300   1.300
                                                       1.300   1.300

     PseudoPot. # 2 for Sn read from file:
     /afs/slac.stanford.edu/u/if/mamunm/psp/gbrv1.5pbe/Sn.UPF
     MD5 check sum: 469debedee59599fedebd795477fea03
     Pseudo is Ultrasoft + core correction, Zval = 14.0
     Generated by new atomic code, or converted to UPF format
     Using radial grid of  891 points,  6 beta functions with:
                l(1) =   0
                l(2) =   0
                l(3) =   1
                l(4) =   1
                l(5) =   2
                l(6) =   2
     Q(r) pseudized with  8 coefficients,  rinner =    1.350   1.350   1.350
                                                       1.350   1.350

     vdW kernel table read from file vdW_kernel_table
     MD5 check sum: 095c7af220d748ca6e76c0b4c6cfb241

     atomic species   valence    mass     pseudopotential
        Ru1           16.00   101.07000     Ru( 1.00)
        Sn1           14.00   118.71000     Sn( 1.00)

     No symmetry found

   Cartesian axes

     site n.     atom                  positions (alat units)
         1           Ru1 tau(   1) = (   0.0000000   0.0000000  10.0000000  )
         2           Ru1 tau(   2) = (   3.7526707   2.6535505  10.0000000  )
         3           Sn1 tau(   3) = (   2.8145112   0.0000000  10.0000000  )
         4           Sn1 tau(   4) = (   0.9381595   2.6535505  10.0000000  )
         5           Ru1 tau(   5) = (   5.6290224   3.9803373  12.2980354  )
         6           Ru1 tau(   6) = (   1.8763517   1.3267868  12.2980354  )
         7           Sn1 tau(   7) = (   2.8145112   3.9803373  12.2980354  )
         8           Sn1 tau(   8) = (   4.6908629   1.3267868  12.2980354  )
         9           Ru1 tau(   9) = (   3.7527034   2.6535736  14.5960708  )
        10           Ru1 tau(  10) = (   0.0000328   0.0000232  14.5960708  )
        11           Sn1 tau(  11) = (   0.9381922   2.6535736  14.5960708  )
        12           Sn1 tau(  12) = (   2.8145439   0.0000232  14.5960708  )

     number of k points=    20  Fermi-Dirac smearing, width (Ry)=  0.0110
                       cart. coord. in units 2pi/alat
        k(    1) = (   0.0000000   0.0000000   0.0000000), wk =   0.0555556
        k(    2) = (   0.0000000   0.0314045   0.0000000), wk =   0.1111111
        k(    3) = (   0.0000000   0.0628089   0.0000000), wk =   0.1111111
        k(    4) = (   0.0000000  -0.0942134   0.0000000), wk =   0.0555556
        k(    5) = (   0.0296085  -0.0104680   0.0000000), wk =   0.1111111
        k(    6) = (   0.0296085   0.0209364   0.0000000), wk =   0.1111111
        k(    7) = (   0.0296085   0.0523409   0.0000000), wk =   0.1111111
        k(    8) = (   0.0296085  -0.1046814   0.0000000), wk =   0.1111111
        k(    9) = (   0.0296085  -0.0732770   0.0000000), wk =   0.1111111
        k(   10) = (   0.0296085  -0.0418725   0.0000000), wk =   0.1111111
        k(   11) = (   0.0592169  -0.0209361   0.0000000), wk =   0.1111111
        k(   12) = (   0.0592169   0.0104684   0.0000000), wk =   0.1111111
        k(   13) = (   0.0592169   0.0418729   0.0000000), wk =   0.1111111
        k(   14) = (   0.0592169  -0.1151495   0.0000000), wk =   0.1111111
        k(   15) = (   0.0592169  -0.0837450   0.0000000), wk =   0.1111111
        k(   16) = (   0.0592169  -0.0523405   0.0000000), wk =   0.1111111
        k(   17) = (  -0.0888254   0.0314041   0.0000000), wk =   0.0555556
        k(   18) = (  -0.0888254   0.0628086   0.0000000), wk =   0.1111111
        k(   19) = (  -0.0888254   0.0942130   0.0000000), wk =   0.1111111
        k(   20) = (  -0.0888254  -0.0628093   0.0000000), wk =   0.0555556

     Largest allocated arrays     est. size (Mb)     dimensions
     Largest temporary arrays     est. size (Mb)     dimensions

     Initial potential from superposition of free atoms
     Check: negative starting charge=   -0.432408

     starting charge  167.99964, renormalised to  180.00000

     negative rho (up, down):  4.633E-01 0.000E+00

     *
     * You are using vdW-DF for exchange-correlation in this calculation.
     * Please cite the following three references that made this development
     * possible:
     *
     *   M. Dion, H. Rydberg, E. Schroder, D. C. Langreth, and
     *   B. I. Lundqvist, Phys. Rev. Lett. 92, 246401 (2004).
     *
     *   T. Thonhauser, V. R. Cooper, S. Li, A. Puzder, P. Hyldgaard, and
     *   D. C. Langreth, Phys. Rev. B 76, 125112 (2007).
     *
     *   G. Roman-Perez and J. M. Soler, Phys. Rev. Lett. 103, 096102 (2009).
     *
     *
     * If you are using vdW-DF2, please also cite:
     *
     *   K. Lee, E. D. Murray, L. Kong, B. I. Lundqvist, and
     *   D. C. Langreth, Phys. Rev. B 82, 081101(R) (2010).
     *
     *
     * If you are calculating the stress with vdW-DF, please also cite:
     *
     *   R. Sabatini, E. Kucukbenli, B. Kolb, T. Thonhauser, and
     *   S. de Gironcoli, J. Phys.: Condens. Matter 24, 424209 (2012).
     *

     Carrying out vdW-DF run using the following parameters:

     Nqs =      20    Nr_points =    1024   r_max =   100.000
     q_mesh =
               0.00001000     0.04494208     0.09755937     0.15916263
               0.23128650     0.31572767     0.41458969     0.53033537
               0.66584808     0.82450364     1.01025438     1.22772762
               1.48234092     1.78043706     2.12944203     2.53805004
               3.01644009     3.57652955     4.23227104     5.00000000

     Gradients computed in reciprocal space

     Adding external electric field

     Computed dipole along edir(3) :
        Dipole               -0.0000 Ry au,         -0.0000 Debye
        Dipole field         -0.0000 Ry au

        Potential amp.        0.0000 Ry
        Total length         45.3178 bohr

     Starting wfc are  132 randomized atomic wfcs

     Self-consistent Calculation

     iteration #  1     ecut=    36.75 Ry     beta=0.10
     Davidson diagonalization with overlap
     ethr =  1.00E-02,  avg # of iterations =  7.8

[...]

     total energy              =   -2135.63571317 Ry
     Harris-Foulkes estimate   =   -2140.22851405 Ry
     estimated scf accuracy    <      27.45249807 Ry

[...]

     End of self-consistent calculation

          k = 0.0000 0.0000 0.0000 ( 18659 PWs)   bands (ev):

   -70.6519 -70.6471 -70.4639 -70.4635 -70.4593 -70.4590 -40.7312 -40.6683
   -40.6648 -40.6630 -40.6576 -40.6510 -40.5818 -40.5813 -40.5050 -40.5045
   -40.4825 -40.4788 -40.4758 -40.4707 -40.3870 -40.3833 -40.3793 -40.3756
   -20.3065 -20.2628 -20.2297 -20.2280 -20.2106 -20.1915 -20.1914 -20.1855
   -20.1581 -20.1155 -20.1040 -20.0980 -20.0578 -20.0498 -20.0042 -20.0008
   -19.9906 -19.9901 -19.9891 -19.9856 -19.9599 -19.9596 -19.9541 -19.9526
   -19.9311 -19.9290 -19.9284 -19.9103 -19.8621 -19.8505  -9.0686  -7.3581
    -5.9566  -5.8360  -5.2662  -5.2403  -2.4651  -2.3623  -1.6862  -1.6492
    -1.5114  -1.3998  -1.2969  -1.1136  -0.9367  -0.6501  -0.6070  -0.3694
    -0.1616  -0.0518   0.0056   0.2606   0.3164   0.4966   0.5289   0.5409
     0.6264   0.6874   0.7113   0.7868   0.9228   0.9245   0.9559   1.0124
     1.1234   1.1541   1.2766   1.2946   1.8615   2.3136   2.3317   2.5456
     2.6611   2.8107   3.9698   4.0950   4.2006   4.3632   5.1141   5.1487
     5.3818   5.6111   5.8270   5.9418   6.1381   6.1462   6.2659   6.7581
     6.8629   7.2924   7.3835   7.8097   8.1041   8.2449   8.5818   8.8712

[...]

          k =-0.0888 0.0314 0.0000 ( 18664 PWs)   bands (ev):

[...]

     the Fermi energy is     1.6154 ev

!    total energy              =   -2134.87353532 Ry
     Harris-Foulkes estimate   =   -2134.87353757 Ry
     estimated scf accuracy    <       0.00000096 Ry

     The total energy is the sum of the following terms:

     one-electron contribution =  -16259.50333301 Ry
     hartree contribution      =    8164.48123502 Ry
     xc contribution           =    -429.10460504 Ry
     ewald contribution        =    6389.31036863 Ry
     electric field correction =       0.00000006 Ry
     smearing contrib. (-TS)   =      -0.05720098 Ry

     convergence has been achieved in  19 iterations

 BEEF-vdW xc energy contributions
           1 :   -375.360189133907
           2 :    344.352600815383
           3 :   -291.321252009819
           4 :    230.395680273163
           5 :   -175.333649767778
           6 :    134.862686597636
           7 :   -110.704100058571
           8 :    98.7178083804330
           9 :   -92.1959248079945
[...]
00028 suncat2053 pw.x -in pw.inp   Done                     12/19/2018 04:19:22
00029 suncat2053 pw.x -in pw.inp   Done                     12/19/2018 04:19:22
00030 suncat2053 pw.x -in pw.inp   Done                     12/19/2018 04:19:22
00031 suncat2053 pw.x -in pw.inp   Done                     12/19/2018 04:19:22

[...]

     Found symmetry operation: I + (  0.5000 -0.5000  0.0000)
     This is a supercell, fractional translations are disabled

[...]

     Program PWSCF v.5.1rc2 (svn rev. 11289) starts on 19Dec2018 at  4:30:25

[...]

     Program PWSCF v.5.1rc2 (svn rev. 11289) starts on 19Dec2018 at  4:36: 1

     Current dimensions of program PWSCF are:
     Max number of different atomic species (ntypx) = 10
     Max number of k-points (npk) =  40000
     Max angular momentum in pseudopotentials (lmaxx) =  3
     Presently stress not available with electric field

     IMPORTANT: XC functional enforced from input :
     Exchange-correlation      = BEEF-VDW ( 1  4 27 13 2)
     Any further DFT definition will be discarded
     Please, verify this is what you really want

     Subspace diagonalization in iterative solution of the eigenvalue problem:
     a serial algorithm will be used

     bravais-lattice index     =            0
     lattice parameter (alat)  =       1.8897  a.u.
     unit-cell volume          =    4958.5267 (a.u.)^3
     number of atoms/cell      =           12
     number of atomic types    =            2
     number of electrons       =       180.00
     number of Kohn-Sham states=          120
     kinetic-energy cutoff     =      36.7493  Ry
     charge density cutoff     =     367.4932  Ry
     convergence threshold     =      1.0E-06
     mixing beta               =       0.1000
     number of iterations used =           10  plain     mixing
     Exchange-correlation      = BEEF-VDW ( 1  4 27 13 2)
     nstep                     =           50

     celldm(1)=   1.889726  celldm(2)=   0.000000  celldm(3)=   0.000000
     celldm(4)=   0.000000  celldm(5)=   0.000000  celldm(6)=   0.000000

     crystal axes: (cart. coord. in units of alat)
               a(1) = (   5.629022   0.000000   0.000000 )
               a(2) = (   1.876319   5.307101   0.000000 )
               a(3) = (   0.000000   0.000000  24.596071 )

     reciprocal axes: (cart. coord. in units 2 pi/alat)
               b(1) = (  0.177651 -0.062808  0.000000 )
               b(2) = (  0.000000  0.188427  0.000000 )
               b(3) = (  0.000000  0.000000  0.040657 )

     PseudoPot. # 1 for Ru read from file:
     /afs/slac.stanford.edu/u/if/mamunm/psp/gbrv1.5pbe/Ru.UPF
     MD5 check sum: 7158a806dd851261a58e6920c40ebe78
     Pseudo is Ultrasoft + core correction, Zval = 16.0
     Generated by new atomic code, or converted to UPF format
     Using radial grid of  967 points,  6 beta functions with:
                l(1) =   0
                l(2) =   0
                l(3) =   1
                l(4) =   1
                l(5) =   2
                l(6) =   2
     Q(r) pseudized with  8 coefficients,  rinner =    1.300   1.300   1.300
                                                       1.300   1.300

     PseudoPot. # 2 for Sn read from file:
     /afs/slac.stanford.edu/u/if/mamunm/psp/gbrv1.5pbe/Sn.UPF
     MD5 check sum: 469debedee59599fedebd795477fea03
     Pseudo is Ultrasoft + core correction, Zval = 14.0
     Generated by new atomic code, or converted to UPF format
     Using radial grid of  891 points,  6 beta functions with:
                l(1) =   0
                l(2) =   0
                l(3) =   1
                l(4) =   1
                l(5) =   2
                l(6) =   2
     Q(r) pseudized with  8 coefficients,  rinner =    1.350   1.350   1.350
                                                       1.350   1.350

     vdW kernel table read from file vdW_kernel_table
     MD5 check sum: 095c7af220d748ca6e76c0b4c6cfb241

     atomic species   valence    mass     pseudopotential
        Ru1           16.00   101.07000     Ru( 1.00)
        Sn1           14.00   118.71000     Sn( 1.00)

     No symmetry found

   Cartesian axes

     site n.     atom                  positions (alat units)
         1           Ru1 tau(   1) = (   0.0000000   0.0000000  10.0000000  )
         2           Ru1 tau(   2) = (   3.7526707   2.6535505  10.0000000  )
         3           Sn1 tau(   3) = (   2.8145112   0.0000000  10.0000000  )
         4           Sn1 tau(   4) = (   0.9381595   2.6535505  10.0000000  )
         5           Ru1 tau(   5) = (   5.6290224   3.9803373  12.2980354  )
         6           Ru1 tau(   6) = (   1.8763517   1.3267868  12.2980354  )
         7           Sn1 tau(   7) = (   2.8145112   3.9803373  12.2980354  )
         8           Sn1 tau(   8) = (   4.6908629   1.3267868  12.2980354  )
         9           Ru1 tau(   9) = (   3.7527188   2.6535826  14.4371056  )
        10           Ru1 tau(  10) = (   7.5053407   5.3070992  14.4371065  )
        11           Sn1 tau(  11) = (   6.5671124   2.6536924  14.7792337  )
        12           Sn1 tau(  12) = (   4.6909525   5.3069928  14.7792147  )

     number of k points=    20  Fermi-Dirac smearing, width (Ry)=  0.0110
                       cart. coord. in units 2pi/alat
        k(    1) = (   0.0000000   0.0000000   0.0000000), wk =   0.0555556
        k(    2) = (   0.0000000   0.0314045   0.0000000), wk =   0.1111111
        k(    3) = (   0.0000000   0.0628089   0.0000000), wk =   0.1111111
        k(    4) = (   0.0000000  -0.0942134   0.0000000), wk =   0.0555556
        k(    5) = (   0.0296085  -0.0104680   0.0000000), wk =   0.1111111
        k(    6) = (   0.0296085   0.0209364   0.0000000), wk =   0.1111111
        k(    7) = (   0.0296085   0.0523409   0.0000000), wk =   0.1111111
        k(    8) = (   0.0296085  -0.1046814   0.0000000), wk =   0.1111111
        k(    9) = (   0.0296085  -0.0732770   0.0000000), wk =   0.1111111
        k(   10) = (   0.0296085  -0.0418725   0.0000000), wk =   0.1111111
        k(   11) = (   0.0592169  -0.0209361   0.0000000), wk =   0.1111111
        k(   12) = (   0.0592169   0.0104684   0.0000000), wk =   0.1111111
        k(   13) = (   0.0592169   0.0418729   0.0000000), wk =   0.1111111
        k(   14) = (   0.0592169  -0.1151495   0.0000000), wk =   0.1111111
        k(   15) = (   0.0592169  -0.0837450   0.0000000), wk =   0.1111111
        k(   16) = (   0.0592169  -0.0523405   0.0000000), wk =   0.1111111
        k(   17) = (  -0.0888254   0.0314041   0.0000000), wk =   0.0555556
        k(   18) = (  -0.0888254   0.0628086   0.0000000), wk =   0.1111111
        k(   19) = (  -0.0888254   0.0942130   0.0000000), wk =   0.1111111
        k(   20) = (  -0.0888254  -0.0628093   0.0000000), wk =   0.0555556

     Largest allocated arrays     est. size (Mb)     dimensions
     Largest temporary arrays     est. size (Mb)     dimensions

     Initial potential from superposition of free atoms
     Check: negative starting charge=   -0.432533

     starting charge  167.99964, renormalised to  180.00000

[...]

     *
     * You are using vdW-DF for exchange-correlation in this calculation.
     * Please cite the following three references that made this development
     * possible:
     *
     *   M. Dion, H. Rydberg, E. Schroder, D. C. Langreth, and
     *   B. I. Lundqvist, Phys. Rev. Lett. 92, 246401 (2004).
     *
     *   T. Thonhauser, V. R. Cooper, S. Li, A. Puzder, P. Hyldgaard, and
     *   D. C. Langreth, Phys. Rev. B 76, 125112 (2007).
     *
     *   G. Roman-Perez and J. M. Soler, Phys. Rev. Lett. 103, 096102 (2009).
     *
     *
     * If you are using vdW-DF2, please also cite:
     *
     *   K. Lee, E. D. Murray, L. Kong, B. I. Lundqvist, and
     *   D. C. Langreth, Phys. Rev. B 82, 081101(R) (2010).
     *
     *
     * If you are calculating the stress with vdW-DF, please also cite:
     *
     *   R. Sabatini, E. Kucukbenli, B. Kolb, T. Thonhauser, and
     *   S. de Gironcoli, J. Phys.: Condens. Matter 24, 424209 (2012).
     *

     Carrying out vdW-DF run using the following parameters:

     Nqs =      20    Nr_points =    1024   r_max =   100.000
     q_mesh =
               0.00001000     0.04494208     0.09755937     0.15916263
               0.23128650     0.31572767     0.41458969     0.53033537
               0.66584808     0.82450364     1.01025438     1.22772762
               1.48234092     1.78043706     2.12944203     2.53805004
               3.01644009     3.57652955     4.23227104     5.00000000

     Gradients computed in reciprocal space

[...]

     Starting wfc are  132 randomized atomic wfcs

     Self-consistent Calculation

[...]

     total energy              =   -2134.90193806 Ry
     Harris-Foulkes estimate   =   -2134.90193849 Ry
     estimated scf accuracy    <       0.00000209 Ry

     iteration # 18     ecut=    36.75 Ry     beta=0.10
     Davidson diagonalization with overlap
     ethr =  1.16E-09,  avg # of iterations =  2.9

[...]

     negative rho (up, down):  4.400E-01 0.000E+00

     Adding external electric field

     Computed dipole along edir(3) :
        Dipole                0.0246 Ry au,          0.0626 Debye
        Dipole field          0.0001 Ry au

        Potential amp.       -0.0057 Ry
        Total length         45.3178 bohr

     End of self-consistent calculation

[...]

          k = 0.0592-0.0523 0.0000 ( 18654 PWs)   bands (ev):

[...]

          k =-0.0888-0.0628 0.0000 ( 18668 PWs)   bands (ev):

   -70.5097 -70.5057 -70.4825 -70.4774 -70.4242 -70.4196 -40.6147 -40.5616
   -40.5542 -40.5531 -40.5467 -40.5401 -40.5355 -40.5037 -40.4855 -40.4815
   -40.4795 -40.4708 -40.4227 -40.4183 -40.3918 -40.3865 -40.3536 -40.3470
   -20.1453 -20.1137 -20.0801 -20.0762 -20.0662 -20.0594 -20.0502 -20.0430
   -20.0311 -20.0157 -20.0101 -19.9870 -19.9841 -19.9839 -19.9816 -19.9632
   -19.9482 -19.9386 -19.9326 -19.9306 -19.9183 -19.9163 -19.9058 -19.9006
   -19.8882 -19.8866 -19.8562 -19.8435 -19.8413 -19.7934  -7.2547  -6.9818
    -6.2027  -6.1338  -4.9064  -4.0029  -3.7826  -3.0655  -3.0375  -2.7633
    -2.6665  -2.6316  -1.8836  -1.5644  -1.4528  -0.8750  -0.7493  -0.7154
    -0.6327  -0.5686  -0.2305  -0.1731  -0.1548  -0.0729   0.0062   0.4341
     0.4458   0.5031   0.9416   1.1519   1.2529   1.2758   1.3538   1.4948
     1.7656   1.7834   1.8018   1.9056   2.5863   2.7318   2.8339   3.1287
     3.1589   3.6507   3.8619   4.7305   5.5960   5.6742   6.0308   6.3569
     6.7191   6.9598   7.0575   7.1795   7.2634   7.6067   7.6168   7.8395
     7.9571   8.2594   8.4874   8.6024   8.6203   8.6387   8.6938   8.7439

     the Fermi energy is     1.6447 ev

!    total energy              =   -2134.90193635 Ry
     Harris-Foulkes estimate   =   -2134.90193803 Ry
     estimated scf accuracy    <       0.00000078 Ry

     The total energy is the sum of the following terms:

     one-electron contribution =  -16247.89960680 Ry
     hartree contribution      =    8159.09895679 Ry
     xc contribution           =    -429.05246143 Ry
     ewald contribution        =    6383.00837680 Ry
     electric field correction =       0.00000153 Ry
     smearing contrib. (-TS)   =      -0.05720325 Ry

     convergence has been achieved in  18 iterations

 BEEF-vdW xc energy contributions
           1 :   -375.312157881030
           2 :    344.294930109372
           3 :   -291.241722381436
           4 :    230.283418064317
           5 :   -175.189155796302
           6 :    134.701909690887
           7 :   -110.549044117946
           8 :    98.5806342013708
           9 :   -92.0708459439810
          10 :    85.3400270176168
          11 :   -75.9808140046283
          12 :    64.9225312505237
          13 :   -54.7929382621430
          14 :    47.8129974226214
          15 :   -44.4593879300950
          16 :    43.4553562131582
          17 :   -42.8037755532022
          18 :    41.0433955888792
          19 :   -37.9475496494086
          20 :    34.3549487745030
          21 :   -31.3985428529172
          22 :    29.7118729053417
          23 :   -29.1077849842281
          24 :    28.8431744167107
          25 :   -28.1966387514402
          26 :    26.9282360520266
          27 :   -25.3393839628840
          28 :    23.9572363829452
          29 :   -23.1164606451894
          30 :    22.7403154210504
          31 :   -35.0272758423095
          32 :   -26.0421105253446

     Forces acting on atoms (Ry/au):

     negative rho (up, down):  4.400E-01 0.000E+00
     atom    1 type  1   force =    -0.00000669   -0.00000458    0.04698518
     atom    2 type  1   force =     0.00000813    0.00000583    0.04698273
     atom    3 type  2   force =    -0.00003328    0.00004726   -0.03170661
     atom    4 type  2   force =     0.00003443   -0.00004529   -0.03170259
     atom    5 type  1   force =     0.00000008    0.00000004    0.00378028
     atom    6 type  1   force =    -0.00000017    0.00000016    0.00378979
     atom    7 type  2   force =     0.00000275   -0.00001090   -0.02014403
     atom    8 type  2   force =    -0.00000496    0.00000695   -0.02014181
     atom    9 type  1   force =    -0.00001205   -0.00000736   -0.00024279
     atom   10 type  1   force =     0.00001298    0.00000847   -0.00024146
     atom   11 type  2   force =     0.00005472   -0.00007560    0.00132086
     atom   12 type  2   force =    -0.00005595    0.00007502    0.00132045

     Total force =     0.085259     Total SCF correction =     0.003656

     entering subroutine stress ...

     negative rho (up, down):  4.400E-01 0.000E+00
          total   stress  (Ry/bohr**3)                   (kbar)     P=  -20.40
  -0.00019933  -0.00002348  -0.00000000        -29.32     -3.45     -0.00
  -0.00002348  -0.00018273  -0.00000000         -3.45    -26.88     -0.00
  -0.00000000  -0.00000000  -0.00003391         -0.00     -0.00     -4.99

 !ASE

     Writing output data file calc.save

     General routines

     Parallel routines

   This run was terminated on:   4:41:17  19Dec2018

   JOB DONE.
Job  /afs/slac/g/suncat/bin/suncat-tsmpirun -x LD_LIBRARY_PATH -wdir /scratch/qe530534_0Kn20 pw.x -in pw.inp

TID   HOST_NAME   COMMAND_LINE            STATUS            TERMINATION_TIME
00000 suncat2054 pw.x -in pw.inp   Done                     12/19/2018 04:41:17
00001 suncat2054 pw.x -in pw.inp   Done                     12/19/2018 04:41:17
00002 suncat2054 pw.x -in pw.inp   Done                     12/19/2018 04:41:17
00003 suncat2054 pw.x -in pw.inp   Done                     12/19/2018 04:41:17
00004 suncat2054 pw.x -in pw.inp   Done                     12/19/2018 04:41:17
00005 suncat2054 pw.x -in pw.inp   Done                     12/19/2018 04:41:17
00006 suncat2054 pw.x -in pw.inp   Done                     12/19/2018 04:41:17
00007 suncat2054 pw.x -in pw.inp   Done                     12/19/2018 04:41:17
00008 suncat2054 pw.x -in pw.inp   Done                     12/19/2018 04:41:17
00009 suncat2054 pw.x -in pw.inp   Done                     12/19/2018 04:41:17
00010 suncat2054 pw.x -in pw.inp   Done                     12/19/2018 04:41:17
00011 suncat2054 pw.x -in pw.inp   Done                     12/19/2018 04:41:17
00012 suncat2054 pw.x -in pw.inp   Done                     12/19/2018 04:41:17
00013 suncat2054 pw.x -in pw.inp   Done                     12/19/2018 04:41:17
00014 suncat2054 pw.x -in pw.inp   Done                     12/19/2018 04:41:17
00015 suncat2054 pw.x -in pw.inp   Done                     12/19/2018 04:41:17
00016 suncat2053 pw.x -in pw.inp   Done                     12/19/2018 04:41:17
00017 suncat2053 pw.x -in pw.inp   Done                     12/19/2018 04:41:17
00018 suncat2053 pw.x -in pw.inp   Done                     12/19/2018 04:41:17
00019 suncat2053 pw.x -in pw.inp   Done                     12/19/2018 04:41:17
00020 suncat2053 pw.x -in pw.inp   Done                     12/19/2018 04:41:17
00021 suncat2053 pw.x -in pw.inp   Done                     12/19/2018 04:41:17
00022 suncat2053 pw.x -in pw.inp   Done                     12/19/2018 04:41:17
00023 suncat2053 pw.x -in pw.inp   Done                     12/19/2018 04:41:17
00024 suncat2053 pw.x -in pw.inp   Done                     12/19/2018 04:41:17
00025 suncat2053 pw.x -in pw.inp   Done                     12/19/2018 04:41:17
00026 suncat2053 pw.x -in pw.inp   Done                     12/19/2018 04:41:17
00027 suncat2053 pw.x -in pw.inp   Done                     12/19/2018 04:41:17
00028 suncat2053 pw.x -in pw.inp   Done                     12/19/2018 04:41:17
00029 suncat2053 pw.x -in pw.inp   Done                     12/19/2018 04:41:17
00030 suncat2053 pw.x -in pw.inp   Done                     12/19/2018 04:41:17
00031 suncat2053 pw.x -in pw.inp   Done                     12/19/2018 04:41:17