     Program PWSCF v.5.1rc2 (svn rev. 11289) starts on 19Dec2018 at  4:57: 0

     Current dimensions of program PWSCF are:
     Max number of different atomic species (ntypx) = 10
     Max number of k-points (npk) =  40000
     Max angular momentum in pseudopotentials (lmaxx) =  3
     Presently stress not available with electric field

     IMPORTANT: XC functional enforced from input :
     Exchange-correlation      = BEEF-VDW ( 1  4 27 13 2)
     Any further DFT definition will be discarded
     Please, verify this is what you really want

     Subspace diagonalization in iterative solution of the eigenvalue problem:
     a serial algorithm will be used

     Found symmetry operation: I + (  0.5000  0.0000  0.0000)
     This is a supercell, fractional translations are disabled

     bravais-lattice index     =            0
     lattice parameter (alat)  =       1.8897  a.u.
     unit-cell volume          =    5122.4877 (a.u.)^3
     number of atoms/cell      =           12
     number of atomic types    =            2
     number of electrons       =       150.00
     number of Kohn-Sham states=          105
     kinetic-energy cutoff     =      36.7493  Ry
     charge density cutoff     =     367.4932  Ry
     convergence threshold     =      1.0E-06
     mixing beta               =       0.1000
     number of iterations used =           10  plain     mixing
     Exchange-correlation      = BEEF-VDW ( 1  4 27 13 2)
     nstep                     =           50

     celldm(1)=   1.889726  celldm(2)=   0.000000  celldm(3)=   0.000000
     celldm(4)=   0.000000  celldm(5)=   0.000000  celldm(6)=   0.000000

     crystal axes: (cart. coord. in units of alat)
               a(1) = (   5.597029   0.000000   0.000000 )
               a(2) = (  -2.798515   5.466808   0.000000 )
               a(3) = (   0.000000   0.000000  24.808066 )

     reciprocal axes: (cart. coord. in units 2 pi/alat)
               b(1) = (  0.178666  0.091461  0.000000 )
               b(2) = (  0.000000  0.182922  0.000000 )
               b(3) = (  0.000000  0.000000  0.040309 )

     PseudoPot. # 1 for Sc read from file:
     /afs/slac.stanford.edu/u/if/mamunm/psp/gbrv1.5pbe/Sc.UPF
     MD5 check sum: db30a2753ba66ef00f23801d899b7e7f
     Pseudo is Ultrasoft + core correction, Zval = 11.0
     Generated by new atomic code, or converted to UPF format
     Using radial grid of  849 points,  6 beta functions with:
                l(1) =   0
                l(2) =   0
                l(3) =   1
                l(4) =   1
                l(5) =   2
                l(6) =   2
     Q(r) pseudized with  6 coefficients,  rinner =    1.200   1.200   1.200
                                                       1.200   1.200

     PseudoPot. # 2 for Mo read from file:
     /afs/slac.stanford.edu/u/if/mamunm/psp/gbrv1.5pbe/Mo.UPF
     MD5 check sum: 30c4dcd161f5d35cd49bb5239c51a633
     Pseudo is Ultrasoft + core correction, Zval = 14.0
     Generated by new atomic code, or converted to UPF format
     Using radial grid of  889 points,  6 beta functions with:
                l(1) =   0
                l(2) =   0
                l(3) =   1
                l(4) =   1
                l(5) =   2
                l(6) =   2
     Q(r) pseudized with  6 coefficients,  rinner =    1.000   1.000   1.000
                                                       1.000   1.000

     vdW kernel table read from file vdW_kernel_table
     MD5 check sum: 095c7af220d748ca6e76c0b4c6cfb241

     atomic species   valence    mass     pseudopotential
        Sc1           11.00    44.95591     Sc( 1.00)
        Mo1           14.00    95.95000     Mo( 1.00)

     No symmetry found

   Cartesian axes

     site n.     atom                  positions (alat units)
         1           Sc1 tau(   1) = (   0.0000000   0.0000000  10.0000000  )
         2           Sc1 tau(   2) = (   2.7985146   0.0000000  10.0000000  )
         3           Mo1 tau(   3) = (   1.3992573   2.7334041  10.0000000  )
         4           Mo1 tau(   4) = (  -1.3992573   2.7334041  10.0000000  )
         5           Sc1 tau(   5) = (   2.7985146   1.4325881  12.4040332  )
         6           Sc1 tau(   6) = (   0.0000000   1.4325881  12.4040332  )
         7           Mo1 tau(   7) = (  -1.3992573   4.1659922  12.4040332  )
         8           Mo1 tau(   8) = (   1.3992573   4.1659922  12.4040332  )
         9           Sc1 tau(   9) = (   0.0000000   2.8651761  14.8080664  )
        10           Sc1 tau(  10) = (   2.7985146   2.8651761  14.8080664  )
        11           Mo1 tau(  11) = (   4.1977720   0.1317721  14.8080664  )
        12           Mo1 tau(  12) = (   1.3992573   0.1317721  14.8080664  )

     number of k points=    20  Fermi-Dirac smearing, width (Ry)=  0.0110
                       cart. coord. in units 2pi/alat
        k(    1) = (   0.0000000   0.0000000   0.0000000), wk =   0.0555556
        k(    2) = (   0.0000000   0.0304870   0.0000000), wk =   0.1111111
        k(    3) = (   0.0000000   0.0609740   0.0000000), wk =   0.1111111
        k(    4) = (   0.0000000  -0.0914610   0.0000000), wk =   0.0555556
        k(    5) = (   0.0297777   0.0152435   0.0000000), wk =   0.1111111
        k(    6) = (   0.0297777   0.0457305   0.0000000), wk =   0.1111111
        k(    7) = (   0.0297777   0.0762175   0.0000000), wk =   0.1111111
        k(    8) = (   0.0297777  -0.0762175   0.0000000), wk =   0.1111111
        k(    9) = (   0.0297777  -0.0457305   0.0000000), wk =   0.1111111
        k(   10) = (   0.0297777  -0.0152435   0.0000000), wk =   0.1111111
        k(   11) = (   0.0595554   0.0304870   0.0000000), wk =   0.1111111
        k(   12) = (   0.0595554   0.0609740   0.0000000), wk =   0.1111111
        k(   13) = (   0.0595554   0.0914610   0.0000000), wk =   0.1111111
        k(   14) = (   0.0595554  -0.0609740   0.0000000), wk =   0.1111111
        k(   15) = (   0.0595554  -0.0304870   0.0000000), wk =   0.1111111
        k(   16) = (   0.0595554   0.0000000   0.0000000), wk =   0.1111111
        k(   17) = (  -0.0893331  -0.0457305   0.0000000), wk =   0.0555556
        k(   18) = (  -0.0893331  -0.0152435   0.0000000), wk =   0.1111111
        k(   19) = (  -0.0893331   0.0152435   0.0000000), wk =   0.1111111
        k(   20) = (  -0.0893331  -0.1371916   0.0000000), wk =   0.0555556

     Largest allocated arrays     est. size (Mb)     dimensions
     Largest temporary arrays     est. size (Mb)     dimensions

     Initial potential from superposition of free atoms
     Check: negative starting charge=   -0.003618

     starting charge  149.97921, renormalised to  150.00000

     negative rho (up, down):  3.619E-03 0.000E+00

     *
     * You are using vdW-DF for exchange-correlation in this calculation.
     * Please cite the following three references that made this development
     * possible:
     *
     *   M. Dion, H. Rydberg, E. Schroder, D. C. Langreth, and
     *   B. I. Lundqvist, Phys. Rev. Lett. 92, 246401 (2004).
     *
     *   T. Thonhauser, V. R. Cooper, S. Li, A. Puzder, P. Hyldgaard, and
     *   D. C. Langreth, Phys. Rev. B 76, 125112 (2007).
     *
     *   G. Roman-Perez and J. M. Soler, Phys. Rev. Lett. 103, 096102 (2009).
     *
     *
     * If you are using vdW-DF2, please also cite:
     *
     *   K. Lee, E. D. Murray, L. Kong, B. I. Lundqvist, and
     *   D. C. Langreth, Phys. Rev. B 82, 081101(R) (2010).
     *
     *
     * If you are calculating the stress with vdW-DF, please also cite:
     *
     *   R. Sabatini, E. Kucukbenli, B. Kolb, T. Thonhauser, and
     *   S. de Gironcoli, J. Phys.: Condens. Matter 24, 424209 (2012).
     *

     Carrying out vdW-DF run using the following parameters:

     Nqs =      20    Nr_points =    1024   r_max =   100.000
     q_mesh =
               0.00001000     0.04494208     0.09755937     0.15916263
               0.23128650     0.31572767     0.41458969     0.53033537
               0.66584808     0.82450364     1.01025438     1.22772762
               1.48234092     1.78043706     2.12944203     2.53805004
               3.01644009     3.57652955     4.23227104     5.00000000

     Gradients computed in reciprocal space

     Adding external electric field

     Computed dipole along edir(3) :
        Dipole               -0.0000 Ry au,         -0.0000 Debye
        Dipole field         -0.0000 Ry au

        Potential amp.        0.0000 Ry
        Total length         45.7084 bohr

     Starting wfc are  156 randomized atomic wfcs

     Self-consistent Calculation

     iteration #  1     ecut=    36.75 Ry     beta=0.10
     Davidson diagonalization with overlap
     ethr =  1.00E-02,  avg # of iterations =  2.0

[...]

     total energy              =   -1407.86089059 Ry
     Harris-Foulkes estimate   =   -1408.99529814 Ry
     estimated scf accuracy    <       6.35904608 Ry

[...]

     iteration #  9     ecut=    36.75 Ry     beta=0.10
     Davidson diagonalization with overlap
     c_bands:  1 eigenvalues not converged
     ethr =  2.75E-06,  avg # of iterations = 10.3

[...]

     End of self-consistent calculation

          k = 0.0000 0.0000 0.0000 ( 19291 PWs)   bands (ev):

   -59.6966 -59.6152 -59.5235 -59.5185 -59.4424 -59.4378 -48.3972 -48.3937
   -48.2839 -48.2805 -47.9751 -47.8619 -34.0524 -33.9294 -33.8603 -33.8548
   -33.8362 -33.6899 -33.6023 -33.5874 -33.5391 -33.5351 -33.5065 -33.4534
   -33.4481 -33.3870 -33.3262 -33.3164 -33.1386 -33.1357 -27.4185 -27.4173
   -27.1971 -27.0893 -27.0556 -27.0140 -26.9576 -26.8976 -26.8917 -26.8061
   -26.7984 -26.6293 -26.6280 -26.5217 -26.4574 -26.4370 -26.3631 -26.2267
    -4.0097  -2.7278  -2.0879  -1.9846  -1.7496  -1.7172  -1.5270  -1.2542
    -1.2010  -1.1697  -1.1649  -1.1552  -1.0240  -0.8007  -0.6140  -0.5088
     0.0165   0.0598   0.3002   0.4082   0.4504   1.0185   1.1649   1.3608
     1.4660   1.6213   1.6879   1.7323   1.9310   2.1043   2.2198   2.2834
     2.2863   2.3860   2.4000   2.4567   2.5875   2.6520   2.7430   2.7790
     2.8074   3.0044   3.2662   3.4034   3.5041   3.7284   3.8184   3.8619
     3.8785   3.9868   4.0520   4.0594   4.3772   4.7202   4.7620   4.8246
     4.9010

[...]

          k =-0.0893-0.0457 0.0000 ( 19280 PWs)   bands (ev):

[...]

     the Fermi energy is     1.2941 ev

!    total energy              =   -1408.35839183 Ry
     Harris-Foulkes estimate   =   -1408.35839091 Ry
     estimated scf accuracy    <       0.00000076 Ry

     The total energy is the sum of the following terms:

     one-electron contribution =  -10842.57486025 Ry
     hartree contribution      =    5409.03581933 Ry
     xc contribution           =    -203.33187091 Ry
     ewald contribution        =    4228.61374797 Ry
     electric field correction =       0.00000000 Ry
     smearing contrib. (-TS)   =      -0.10122797 Ry

     convergence has been achieved in  17 iterations

 BEEF-vdW xc energy contributions
           1 :   -173.729717604103
           2 :    156.286634574331
           3 :   -127.567525151594
           4 :    96.6876343229853
           5 :   -71.5004138160073
           6 :    55.7116294089439
           7 :   -48.5641601590615
           8 :    46.6010755885538
[...]

     Program PWSCF v.5.1rc2 (svn rev. 11289) starts on 19Dec2018 at  5: 5:57

[...]

   This run was terminated on:   5:10:26  19Dec2018

[...]

     Program PWSCF v.5.1rc2 (svn rev. 11289) starts on 19Dec2018 at  5:10:33

[...]

     Program PWSCF v.5.1rc2 (svn rev. 11289) starts on 19Dec2018 at  5:14:50

[...]

   This run was terminated on:   5:19: 3  19Dec2018

[...]

     Program PWSCF v.5.1rc2 (svn rev. 11289) starts on 19Dec2018 at  5:19: 8

     Current dimensions of program PWSCF are:
     Max number of different atomic species (ntypx) = 10
     Max number of k-points (npk) =  40000
     Max angular momentum in pseudopotentials (lmaxx) =  3
     Presently stress not available with electric field

     IMPORTANT: XC functional enforced from input :
     Exchange-correlation      = BEEF-VDW ( 1  4 27 13 2)
     Any further DFT definition will be discarded
     Please, verify this is what you really want

     Subspace diagonalization in iterative solution of the eigenvalue problem:
     a serial algorithm will be used

     Found symmetry operation: I + (  0.5000  0.0000  0.0000)
     This is a supercell, fractional translations are disabled

     bravais-lattice index     =            0
     lattice parameter (alat)  =       1.8897  a.u.
     unit-cell volume          =    5122.4877 (a.u.)^3
     number of atoms/cell      =           12
     number of atomic types    =            2
     number of electrons       =       150.00
     number of Kohn-Sham states=          105
     kinetic-energy cutoff     =      36.7493  Ry
     charge density cutoff     =     367.4932  Ry
     convergence threshold     =      1.0E-06
     mixing beta               =       0.1000
     number of iterations used =           10  plain     mixing
     Exchange-correlation      = BEEF-VDW ( 1  4 27 13 2)
     nstep                     =           50

     celldm(1)=   1.889726  celldm(2)=   0.000000  celldm(3)=   0.000000
     celldm(4)=   0.000000  celldm(5)=   0.000000  celldm(6)=   0.000000

     crystal axes: (cart. coord. in units of alat)
               a(1) = (   5.597029   0.000000   0.000000 )
               a(2) = (  -2.798515   5.466808   0.000000 )
               a(3) = (   0.000000   0.000000  24.808066 )

     reciprocal axes: (cart. coord. in units 2 pi/alat)
               b(1) = (  0.178666  0.091461  0.000000 )
               b(2) = (  0.000000  0.182922  0.000000 )
               b(3) = (  0.000000  0.000000  0.040309 )

     PseudoPot. # 1 for Sc read from file:
     /afs/slac.stanford.edu/u/if/mamunm/psp/gbrv1.5pbe/Sc.UPF
     MD5 check sum: db30a2753ba66ef00f23801d899b7e7f
     Pseudo is Ultrasoft + core correction, Zval = 11.0
     Generated by new atomic code, or converted to UPF format
     Using radial grid of  849 points,  6 beta functions with:
                l(1) =   0
                l(2) =   0
                l(3) =   1
                l(4) =   1
                l(5) =   2
                l(6) =   2
     Q(r) pseudized with  6 coefficients,  rinner =    1.200   1.200   1.200
                                                       1.200   1.200

     PseudoPot. # 2 for Mo read from file:
     /afs/slac.stanford.edu/u/if/mamunm/psp/gbrv1.5pbe/Mo.UPF
     MD5 check sum: 30c4dcd161f5d35cd49bb5239c51a633
     Pseudo is Ultrasoft + core correction, Zval = 14.0
     Generated by new atomic code, or converted to UPF format
     Using radial grid of  889 points,  6 beta functions with:
                l(1) =   0
                l(2) =   0
                l(3) =   1
                l(4) =   1
                l(5) =   2
                l(6) =   2
     Q(r) pseudized with  6 coefficients,  rinner =    1.000   1.000   1.000
                                                       1.000   1.000

     vdW kernel table read from file vdW_kernel_table
     MD5 check sum: 095c7af220d748ca6e76c0b4c6cfb241

     atomic species   valence    mass     pseudopotential
        Sc1           11.00    44.95591     Sc( 1.00)
        Mo1           14.00    95.95000     Mo( 1.00)

     No symmetry found

   Cartesian axes

     site n.     atom                  positions (alat units)
         1           Sc1 tau(   1) = (   0.0000000   0.0000000  10.0000000  )
         2           Sc1 tau(   2) = (   2.7985146   0.0000000  10.0000000  )
         3           Mo1 tau(   3) = (   1.3992573   2.7334041  10.0000000  )
         4           Mo1 tau(   4) = (  -1.3992573   2.7334041  10.0000000  )
         5           Sc1 tau(   5) = (   2.7985146   1.4325881  12.4040332  )
         6           Sc1 tau(   6) = (   0.0000000   1.4325881  12.4040332  )
         7           Mo1 tau(   7) = (  -1.3992573   4.1659922  12.4040332  )
         8           Mo1 tau(   8) = (   1.3992573   4.1659922  12.4040332  )
         9           Sc1 tau(   9) = (   0.0000062   2.9526305  14.9625113  )
        10           Sc1 tau(  10) = (   2.7985051   2.9526282  14.9625072  )
        11           Mo1 tau(  11) = (   4.1977728   0.0494052  14.5275462  )
        12           Mo1 tau(  12) = (   1.3992573   0.0494048  14.5275604  )

     number of k points=    20  Fermi-Dirac smearing, width (Ry)=  0.0110
                       cart. coord. in units 2pi/alat
        k(    1) = (   0.0000000   0.0000000   0.0000000), wk =   0.0555556
        k(    2) = (   0.0000000   0.0304870   0.0000000), wk =   0.1111111
        k(    3) = (   0.0000000   0.0609740   0.0000000), wk =   0.1111111
        k(    4) = (   0.0000000  -0.0914610   0.0000000), wk =   0.0555556
        k(    5) = (   0.0297777   0.0152435   0.0000000), wk =   0.1111111
        k(    6) = (   0.0297777   0.0457305   0.0000000), wk =   0.1111111
        k(    7) = (   0.0297777   0.0762175   0.0000000), wk =   0.1111111
        k(    8) = (   0.0297777  -0.0762175   0.0000000), wk =   0.1111111
        k(    9) = (   0.0297777  -0.0457305   0.0000000), wk =   0.1111111
        k(   10) = (   0.0297777  -0.0152435   0.0000000), wk =   0.1111111
        k(   11) = (   0.0595554   0.0304870   0.0000000), wk =   0.1111111
        k(   12) = (   0.0595554   0.0609740   0.0000000), wk =   0.1111111
        k(   13) = (   0.0595554   0.0914610   0.0000000), wk =   0.1111111
        k(   14) = (   0.0595554  -0.0609740   0.0000000), wk =   0.1111111
        k(   15) = (   0.0595554  -0.0304870   0.0000000), wk =   0.1111111
        k(   16) = (   0.0595554   0.0000000   0.0000000), wk =   0.1111111
        k(   17) = (  -0.0893331  -0.0457305   0.0000000), wk =   0.0555556
        k(   18) = (  -0.0893331  -0.0152435   0.0000000), wk =   0.1111111
        k(   19) = (  -0.0893331   0.0152435   0.0000000), wk =   0.1111111
        k(   20) = (  -0.0893331  -0.1371916   0.0000000), wk =   0.0555556

     Largest allocated arrays     est. size (Mb)     dimensions
     Largest temporary arrays     est. size (Mb)     dimensions

     Initial potential from superposition of free atoms
     Check: negative starting charge=   -0.003540

     starting charge  149.97921, renormalised to  150.00000

[...]

     *
     * You are using vdW-DF for exchange-correlation in this calculation.
     * Please cite the following three references that made this development
     * possible:
     *
     *   M. Dion, H. Rydberg, E. Schroder, D. C. Langreth, and
     *   B. I. Lundqvist, Phys. Rev. Lett. 92, 246401 (2004).
     *
     *   T. Thonhauser, V. R. Cooper, S. Li, A. Puzder, P. Hyldgaard, and
     *   D. C. Langreth, Phys. Rev. B 76, 125112 (2007).
     *
     *   G. Roman-Perez and J. M. Soler, Phys. Rev. Lett. 103, 096102 (2009).
     *
     *
     * If you are using vdW-DF2, please also cite:
     *
     *   K. Lee, E. D. Murray, L. Kong, B. I. Lundqvist, and
     *   D. C. Langreth, Phys. Rev. B 82, 081101(R) (2010).
     *
     *
     * If you are calculating the stress with vdW-DF, please also cite:
     *
     *   R. Sabatini, E. Kucukbenli, B. Kolb, T. Thonhauser, and
     *   S. de Gironcoli, J. Phys.: Condens. Matter 24, 424209 (2012).
     *

     Carrying out vdW-DF run using the following parameters:

     Nqs =      20    Nr_points =    1024   r_max =   100.000
     q_mesh =
               0.00001000     0.04494208     0.09755937     0.15916263
               0.23128650     0.31572767     0.41458969     0.53033537
               0.66584808     0.82450364     1.01025438     1.22772762
               1.48234092     1.78043706     2.12944203     2.53805004
               3.01644009     3.57652955     4.23227104     5.00000000

     Gradients computed in reciprocal space

[...]

     Starting wfc are  156 randomized atomic wfcs

     Self-consistent Calculation

[...]

     iteration # 11     ecut=    36.75 Ry     beta=0.10
     Davidson diagonalization with overlap
     c_bands:  1 eigenvalues not converged
     ethr =  1.95E-06,  avg # of iterations =  3.3

[...]

     total energy              =   -1408.40208527 Ry
     Harris-Foulkes estimate   =   -1408.40208509 Ry
     estimated scf accuracy    <       0.00000114 Ry

     iteration # 18     ecut=    36.75 Ry     beta=0.10
     Davidson diagonalization with overlap
     ethr =  7.61E-10,  avg # of iterations =  1.8

[...]

     negative rho (up, down):  3.269E-03 0.000E+00

     Adding external electric field

     Computed dipole along edir(3) :
        Dipole                0.1511 Ry au,          0.3840 Debye
        Dipole field          0.0004 Ry au

        Potential amp.       -0.0339 Ry
        Total length         45.7084 bohr

     End of self-consistent calculation

[...]

          k = 0.0596 0.0000 0.0000 ( 19238 PWs)   bands (ev):

[...]

          k =-0.0893-0.1372 0.0000 ( 19280 PWs)   bands (ev):

   -59.4835 -59.4835 -59.3193 -59.3193 -59.2284 -59.2284 -48.2954 -48.2954
   -48.1725 -48.1725 -47.6964 -47.6964 -33.9511 -33.9511 -33.5223 -33.5223
   -33.4655 -33.4655 -33.3915 -33.3915 -33.3544 -33.3544 -33.3129 -33.3129
   -33.2897 -33.2897 -33.2433 -33.2433 -32.9642 -32.9642 -27.0104 -27.0104
   -26.9451 -26.9450 -26.9039 -26.9039 -26.8698 -26.8698 -26.8110 -26.8110
   -26.6816 -26.6816 -26.4194 -26.4194 -26.2881 -26.2881 -26.2178 -26.2178
    -2.2643  -2.2643  -1.3503  -1.3503  -1.0654  -1.0654  -0.8667  -0.8667
    -0.6812  -0.6812  -0.2295  -0.2295  -0.0536  -0.0536   0.0799   0.0799
     0.2875   0.2875   0.5115   0.5115   0.7524   0.7524   0.9107   0.9107
     1.0029   1.0029   1.0572   1.0572   1.4700   1.4700   1.6712   1.6712
     1.9435   1.9435   2.0222   2.0222   2.4172   2.4172   2.7088   2.7088
     2.9968   2.9968   3.1588   3.1588   3.3209   3.3209   3.4497   3.4497
     3.6725   3.6725   3.7849   3.7849   3.8691   3.8691   4.2428   4.2428
     4.4696

     the Fermi energy is     1.4581 ev

!    total energy              =   -1408.40208581 Ry
     Harris-Foulkes estimate   =   -1408.40208959 Ry
     estimated scf accuracy    <       0.00000061 Ry

     The total energy is the sum of the following terms:

     one-electron contribution =  -10975.94764019 Ry
     hartree contribution      =    5476.58038615 Ry
     xc contribution           =    -203.52867412 Ry
     ewald contribution        =    4294.59217811 Ry
     electric field correction =       0.00005599 Ry
     smearing contrib. (-TS)   =      -0.09839176 Ry

     convergence has been achieved in  18 iterations

 BEEF-vdW xc energy contributions
           1 :   -173.931791768359
           2 :    156.555825312926
           3 :   -127.926655892168
           4 :    97.0828520354551
           5 :   -71.8061782425416
           6 :    55.7943039020388
           7 :   -48.3717250484691
           8 :    46.2064103663338
           9 :   -45.6360885988732
          10 :    44.3004498557826
          11 :   -41.5618839460703
          12 :    37.9444665631455
          13 :   -34.2664020667568
          14 :    31.0564944794001
          15 :   -28.4622989509487
          16 :    26.4315465247494
          17 :   -24.8556839841482
          18 :    23.5534907798406
          19 :   -22.2288995328214
          20 :    20.5581331492371
          21 :   -18.4027794842794
          22 :    15.9669342075805
          23 :   -13.7298095917091
          24 :    12.1515970211994
          25 :   -11.3514994486330
          26 :    10.9989279256559
          27 :   -10.5183261410185
          28 :    9.46571100984053
          29 :   -7.80884967184994
          30 :    5.91594911667838
          31 :   -20.0692759434783
          32 :   -14.9442885938295

     Forces acting on atoms (Ry/au):

     negative rho (up, down):  3.269E-03 0.000E+00
     atom    1 type  1   force =     0.00000037   -0.01518987   -0.02792212
     atom    2 type  1   force =    -0.00000037   -0.01518886   -0.02792258
     atom    3 type  2   force =     0.00000047    0.01077093    0.04366318
     atom    4 type  2   force =    -0.00000004    0.01076724    0.04366392
     atom    5 type  1   force =    -0.00000028    0.01789207   -0.00453736
     atom    6 type  1   force =     0.00000014    0.01789278   -0.00453549
     atom    7 type  2   force =    -0.00000038   -0.01108169   -0.01229360
     atom    8 type  2   force =     0.00000004   -0.01108308   -0.01229655
     atom    9 type  1   force =    -0.00000374   -0.00175521    0.00068508
     atom   10 type  1   force =     0.00000373   -0.00175506    0.00068466
     atom   11 type  2   force =     0.00000068   -0.00063400    0.00040740
     atom   12 type  2   force =    -0.00000063   -0.00063524    0.00040347

     Total force =     0.085460     Total SCF correction =     0.004017

     entering subroutine stress ...

     negative rho (up, down):  3.269E-03 0.000E+00
          total   stress  (Ry/bohr**3)                   (kbar)     P=   -8.79
  -0.00005371  -0.00000000   0.00000000         -7.90     -0.00      0.00
  -0.00000000  -0.00009888   0.00000338         -0.00    -14.55      0.50
   0.00000000   0.00000338  -0.00002673          0.00      0.50     -3.93

 !ASE

     Writing output data file calc.save

     General routines

     Parallel routines

   This run was terminated on:   5:23:22  19Dec2018

   JOB DONE.
Job  /afs/slac/g/suncat/bin/suncat-tsmpirun -x LD_LIBRARY_PATH -wdir /scratch/qe530563_ejKUO pw.x -in pw.inp

TID   HOST_NAME   COMMAND_LINE            STATUS            TERMINATION_TIME
00000 suncat2046 pw.x -in pw.inp   Done                     12/19/2018 05:23:22
00001 suncat2046 pw.x -in pw.inp   Done                     12/19/2018 05:23:22
00002 suncat2046 pw.x -in pw.inp   Done                     12/19/2018 05:23:22
00003 suncat2046 pw.x -in pw.inp   Done                     12/19/2018 05:23:22
00004 suncat2046 pw.x -in pw.inp   Done                     12/19/2018 05:23:22
00005 suncat2046 pw.x -in pw.inp   Done                     12/19/2018 05:23:22
00006 suncat2046 pw.x -in pw.inp   Done                     12/19/2018 05:23:22
00007 suncat2046 pw.x -in pw.inp   Done                     12/19/2018 05:23:22
00008 suncat2046 pw.x -in pw.inp   Done                     12/19/2018 05:23:22
00009 suncat2046 pw.x -in pw.inp   Done                     12/19/2018 05:23:22
00010 suncat2046 pw.x -in pw.inp   Done                     12/19/2018 05:23:22
00011 suncat2046 pw.x -in pw.inp   Done                     12/19/2018 05:23:22
00012 suncat2046 pw.x -in pw.inp   Done                     12/19/2018 05:23:22
00013 suncat2046 pw.x -in pw.inp   Done                     12/19/2018 05:23:22
00014 suncat2046 pw.x -in pw.inp   Done                     12/19/2018 05:23:22
00015 suncat2046 pw.x -in pw.inp   Done                     12/19/2018 05:23:22
00016 suncat2045 pw.x -in pw.inp   Done                     12/19/2018 05:23:22
00017 suncat2045 pw.x -in pw.inp   Done                     12/19/2018 05:23:22
00018 suncat2045 pw.x -in pw.inp   Done                     12/19/2018 05:23:22
00019 suncat2045 pw.x -in pw.inp   Done                     12/19/2018 05:23:22
00020 suncat2045 pw.x -in pw.inp   Done                     12/19/2018 05:23:22
00021 suncat2045 pw.x -in pw.inp   Done                     12/19/2018 05:23:22
00022 suncat2045 pw.x -in pw.inp   Done                     12/19/2018 05:23:22
00023 suncat2045 pw.x -in pw.inp   Done                     12/19/2018 05:23:22
00024 suncat2045 pw.x -in pw.inp   Done                     12/19/2018 05:23:22
00025 suncat2045 pw.x -in pw.inp   Done                     12/19/2018 05:23:22
00026 suncat2045 pw.x -in pw.inp   Done                     12/19/2018 05:23:22
00027 suncat2045 pw.x -in pw.inp   Done                     12/19/2018 05:23:22
00028 suncat2045 pw.x -in pw.inp   Done                     12/19/2018 05:23:22
00029 suncat2045 pw.x -in pw.inp   Done                     12/19/2018 05:23:22
00030 suncat2045 pw.x -in pw.inp   Done                     12/19/2018 05:23:22
00031 suncat2045 pw.x -in pw.inp   Done                     12/19/2018 05:23:22