     Program PWSCF v.5.1rc2 (svn rev. 11289) starts on 19Dec2018 at  1: 9:22

     Current dimensions of program PWSCF are:
     Max number of different atomic species (ntypx) = 10
     Max number of k-points (npk) =  40000
     Max angular momentum in pseudopotentials (lmaxx) =  3
     Presently stress not available with electric field

     IMPORTANT: XC functional enforced from input :
     Exchange-correlation      = BEEF-VDW ( 1  4 27 13 2)
     Any further DFT definition will be discarded
     Please, verify this is what you really want

     Subspace diagonalization in iterative solution of the eigenvalue problem:
     a serial algorithm will be used

     Found symmetry operation: I + (  0.5000  0.5000  0.0000)
     This is a supercell, fractional translations are disabled

     bravais-lattice index     =            0
     lattice parameter (alat)  =       1.8897  a.u.
     unit-cell volume          =    5367.3182 (a.u.)^3
     number of atoms/cell      =           12
     number of atomic types    =            2
     number of electrons       =       180.00
     number of Kohn-Sham states=          120
     kinetic-energy cutoff     =      36.7493  Ry
     charge density cutoff     =     367.4932  Ry
     convergence threshold     =      1.0E-06
     mixing beta               =       0.1000
     number of iterations used =           10  plain     mixing
     Exchange-correlation      = BEEF-VDW ( 1  4 27 13 2)
     nstep                     =           50

     celldm(1)=   1.889726  celldm(2)=   0.000000  celldm(3)=   0.000000
     celldm(4)=   0.000000  celldm(5)=   0.000000  celldm(6)=   0.000000

     crystal axes: (cart. coord. in units of alat)
               a(1) = (   5.835498   0.000000   0.000000 )
               a(2) = (   1.938536   5.504100   0.000000 )
               a(3) = (   0.000000   0.000000  24.762618 )

     reciprocal axes: (cart. coord. in units 2 pi/alat)
               b(1) = (  0.171365 -0.060354  0.000000 )
               b(2) = (  0.000000  0.181683  0.000000 )
               b(3) = (  0.000000  0.000000  0.040383 )

     PseudoPot. # 1 for Os read from file:
     /afs/slac.stanford.edu/u/if/mamunm/psp/gbrv1.5pbe/Os.UPF
     MD5 check sum: a3fb40a04f0c37c25c34bbc47164c9a8
     Pseudo is Ultrasoft + core correction, Zval = 16.0
     Generated by new atomic code, or converted to UPF format
     Using radial grid of  983 points,  8 beta functions with:
                l(1) =   0
                l(2) =   0
                l(3) =   1
                l(4) =   1
                l(5) =   2
                l(6) =   2
                l(7) =   3
                l(8) =   3
     Q(r) pseudized with  8 coefficients,  rinner =    1.150   1.150   1.150
                                                       1.150   1.150   1.150
                                                       1.150

     PseudoPot. # 2 for Pb read from file:
     /afs/slac.stanford.edu/u/if/mamunm/psp/gbrv1.5pbe/Pb.UPF
     MD5 check sum: 3d1c1779aa92214d1e8f3a7db79003e2
     Pseudo is Ultrasoft + core correction, Zval = 14.0
     Generated by new atomic code, or converted to UPF format
     Using radial grid of  899 points,  6 beta functions with:
                l(1) =   0
                l(2) =   0
                l(3) =   1
                l(4) =   1
                l(5) =   2
                l(6) =   2
     Q(r) pseudized with  6 coefficients,  rinner =    1.000   1.000   1.000
                                                       1.000   1.000

     vdW kernel table read from file vdW_kernel_table
     MD5 check sum: 095c7af220d748ca6e76c0b4c6cfb241

     atomic species   valence    mass     pseudopotential
        Os1           16.00   190.23000     Os( 1.00)
        Pb1           14.00   207.20000     Pb( 1.00)

     No symmetry found

   Cartesian axes

     site n.     atom                  positions (alat units)
         1           Os1 tau(   1) = (   0.0000000   0.0000000  10.0000000  )
         2           Os1 tau(   2) = (   3.8870168   2.7520498  10.0000000  )
         3           Pb1 tau(   3) = (   2.9177488   0.0000000  10.0000000  )
         4           Pb1 tau(   4) = (   0.9692679   2.7520498  10.0000000  )
         5           Os1 tau(   5) = (   5.8354977   4.1315953  12.3813089  )
         6           Os1 tau(   6) = (   1.9484809   1.3795455  12.3813089  )
         7           Pb1 tau(   7) = (   2.9177488   4.1315953  12.3813089  )
         8           Pb1 tau(   8) = (   4.8662298   1.3795455  12.3813089  )
         9           Os1 tau(   9) = (   3.8969619   2.7590910  14.7626179  )
        10           Os1 tau(  10) = (   0.0099451   0.0070413  14.7626179  )
        11           Pb1 tau(  11) = (   0.9792130   2.7590910  14.7626179  )
        12           Pb1 tau(  12) = (   2.9276940   0.0070413  14.7626179  )

     number of k points=    20  Fermi-Dirac smearing, width (Ry)=  0.0110
                       cart. coord. in units 2pi/alat
        k(    1) = (   0.0000000   0.0000000   0.0000000), wk =   0.0555556
        k(    2) = (   0.0000000   0.0302805   0.0000000), wk =   0.1111111
        k(    3) = (   0.0000000   0.0605609   0.0000000), wk =   0.1111111
        k(    4) = (   0.0000000  -0.0908414   0.0000000), wk =   0.0555556
        k(    5) = (   0.0285608  -0.0100591   0.0000000), wk =   0.1111111
        k(    6) = (   0.0285608   0.0202214   0.0000000), wk =   0.1111111
        k(    7) = (   0.0285608   0.0505018   0.0000000), wk =   0.1111111
        k(    8) = (   0.0285608  -0.1009005   0.0000000), wk =   0.1111111
        k(    9) = (   0.0285608  -0.0706200   0.0000000), wk =   0.1111111
        k(   10) = (   0.0285608  -0.0403395   0.0000000), wk =   0.1111111
        k(   11) = (   0.0571217  -0.0201182   0.0000000), wk =   0.1111111
        k(   12) = (   0.0571217   0.0101623   0.0000000), wk =   0.1111111
        k(   13) = (   0.0571217   0.0404428   0.0000000), wk =   0.1111111
        k(   14) = (   0.0571217  -0.1109595   0.0000000), wk =   0.1111111
        k(   15) = (   0.0571217  -0.0806791   0.0000000), wk =   0.1111111
        k(   16) = (   0.0571217  -0.0503986   0.0000000), wk =   0.1111111
        k(   17) = (  -0.0856825   0.0301772   0.0000000), wk =   0.0555556
        k(   18) = (  -0.0856825   0.0604577   0.0000000), wk =   0.1111111
        k(   19) = (  -0.0856825   0.0907382   0.0000000), wk =   0.1111111
        k(   20) = (  -0.0856825  -0.0606641   0.0000000), wk =   0.0555556

     Largest allocated arrays     est. size (Mb)     dimensions
     Largest temporary arrays     est. size (Mb)     dimensions

     Initial potential from superposition of free atoms
     Check: negative starting charge=   -0.851524

     starting charge  176.98567, renormalised to  180.00000

     negative rho (up, down):  8.660E-01 0.000E+00

     *
     * You are using vdW-DF for exchange-correlation in this calculation.
     * Please cite the following three references that made this development
     * possible:
     *
     *   M. Dion, H. Rydberg, E. Schroder, D. C. Langreth, and
     *   B. I. Lundqvist, Phys. Rev. Lett. 92, 246401 (2004).
     *
     *   T. Thonhauser, V. R. Cooper, S. Li, A. Puzder, P. Hyldgaard, and
     *   D. C. Langreth, Phys. Rev. B 76, 125112 (2007).
     *
     *   G. Roman-Perez and J. M. Soler, Phys. Rev. Lett. 103, 096102 (2009).
     *
     *
     * If you are using vdW-DF2, please also cite:
     *
     *   K. Lee, E. D. Murray, L. Kong, B. I. Lundqvist, and
     *   D. C. Langreth, Phys. Rev. B 82, 081101(R) (2010).
     *
     *
     * If you are calculating the stress with vdW-DF, please also cite:
     *
     *   R. Sabatini, E. Kucukbenli, B. Kolb, T. Thonhauser, and
     *   S. de Gironcoli, J. Phys.: Condens. Matter 24, 424209 (2012).
     *

     Carrying out vdW-DF run using the following parameters:

     Nqs =      20    Nr_points =    1024   r_max =   100.000
     q_mesh =
               0.00001000     0.04494208     0.09755937     0.15916263
               0.23128650     0.31572767     0.41458969     0.53033537
               0.66584808     0.82450364     1.01025438     1.22772762
               1.48234092     1.78043706     2.12944203     2.53805004
               3.01644009     3.57652955     4.23227104     5.00000000

     Gradients computed in reciprocal space

     Adding external electric field

     Computed dipole along edir(3) :
        Dipole                0.0000 Ry au,          0.0000 Debye
        Dipole field          0.0000 Ry au

        Potential amp.       -0.0000 Ry
        Total length         45.6247 bohr

     Starting wfc are  132 randomized atomic wfcs

     Self-consistent Calculation

     iteration #  1     ecut=    36.75 Ry     beta=0.10
     Davidson diagonalization with overlap
     ethr =  1.00E-02,  avg # of iterations =  7.8

     Threshold (ethr) on eigenvalues was too large:
     Diagonalizing with lowered threshold

     Davidson diagonalization with overlap
     ethr =  8.91E-04,  avg # of iterations =  2.2

[...]

     total energy              =   -2193.99523219 Ry
     Harris-Foulkes estimate   =   -2194.26784814 Ry
     estimated scf accuracy    <       1.60709299 Ry

[...]

     End of self-consistent calculation

          k = 0.0000 0.0000 0.0000 ( 20251 PWs)   bands (ev):

   -83.9342 -83.9329 -83.7824 -83.7823 -83.7811 -83.7811 -43.3241 -43.2819
   -43.2772 -43.2720 -43.2658 -43.2629 -43.2156 -43.2153 -43.1652 -43.1650
   -43.1393 -43.1372 -43.1352 -43.1320 -43.0177 -43.0158 -43.0130 -43.0113
   -15.4346 -15.3811 -15.3624 -15.3326 -15.3284 -15.3076 -15.2763 -15.2514
   -15.2277 -15.2265 -15.2054 -15.1989 -15.1974 -15.1847 -15.1828 -15.1702
   -15.1307 -15.1258 -15.1226 -15.0947 -15.0792 -15.0738 -15.0728 -15.0722
   -15.0633 -15.0572 -14.9370 -14.9324 -14.9293 -14.8867  -9.8135  -8.1898
    -6.8007  -6.6385  -6.1910  -6.1857  -2.3014  -2.2559  -1.6635  -1.4482
    -1.2990  -1.0622  -0.8991  -0.7882  -0.6636  -0.4675  -0.3067  -0.1109
     0.1370   0.1731   0.3206   0.6187   0.7272   0.7770   0.8120   0.8390
     0.9969   1.0410   1.0945   1.1819   1.2004   1.2139   1.4045   1.4568
     1.4703   1.5778   1.6016   1.6867   2.1851   2.3696   2.5121   2.7028
     2.7456   3.1585   3.3266   3.5646   3.5648   3.9497   4.1940   4.4022
     4.5937   5.2112   5.2664   5.6951   5.7588   6.2999   6.3028   6.5512
     6.7040   7.2611   7.2615   7.7966   8.1272   8.6013   8.8237   8.9526

[...]

          k =-0.0857 0.0302 0.0000 ( 20160 PWs)   bands (ev):

[...]

     the Fermi energy is     1.8482 ev

!    total energy              =   -2193.88745939 Ry
     Harris-Foulkes estimate   =   -2193.88750733 Ry
     estimated scf accuracy    <       0.00000032 Ry

     The total energy is the sum of the following terms:

     one-electron contribution =  -14757.07542946 Ry
     hartree contribution      =    7407.21250865 Ry
     xc contribution           =    -624.64586442 Ry
     ewald contribution        =    5780.69591016 Ry
     electric field correction =       0.00000000 Ry
     smearing contrib. (-TS)   =      -0.07458431 Ry

     convergence has been achieved in  16 iterations

 BEEF-vdW xc energy contributions
           1 :   -553.392992689444
[...]
00028 suncat2059 pw.x -in pw.inp   Done                     12/19/2018 01:15:12
00029 suncat2059 pw.x -in pw.inp   Done                     12/19/2018 01:15:12
00030 suncat2059 pw.x -in pw.inp   Done                     12/19/2018 01:15:12
00031 suncat2059 pw.x -in pw.inp   Done                     12/19/2018 01:15:12

     Program PWSCF v.5.1rc2 (svn rev. 11289) starts on 19Dec2018 at  1:15:19

[...]

     Program PWSCF v.5.1rc2 (svn rev. 11289) starts on 19Dec2018 at  1:33:58

     Current dimensions of program PWSCF are:
     Max number of different atomic species (ntypx) = 10
     Max number of k-points (npk) =  40000
     Max angular momentum in pseudopotentials (lmaxx) =  3
     Presently stress not available with electric field

     IMPORTANT: XC functional enforced from input :
     Exchange-correlation      = BEEF-VDW ( 1  4 27 13 2)
     Any further DFT definition will be discarded
     Please, verify this is what you really want

     Subspace diagonalization in iterative solution of the eigenvalue problem:
     a serial algorithm will be used

     bravais-lattice index     =            0
     lattice parameter (alat)  =       1.8897  a.u.
     unit-cell volume          =    5367.3182 (a.u.)^3
     number of atoms/cell      =           12
     number of atomic types    =            2
     number of electrons       =       180.00
     number of Kohn-Sham states=          120
     kinetic-energy cutoff     =      36.7493  Ry
     charge density cutoff     =     367.4932  Ry
     convergence threshold     =      1.0E-06
     mixing beta               =       0.1000
     number of iterations used =           10  plain     mixing
     Exchange-correlation      = BEEF-VDW ( 1  4 27 13 2)
     nstep                     =           50

     celldm(1)=   1.889726  celldm(2)=   0.000000  celldm(3)=   0.000000
     celldm(4)=   0.000000  celldm(5)=   0.000000  celldm(6)=   0.000000

     crystal axes: (cart. coord. in units of alat)
               a(1) = (   5.835498   0.000000   0.000000 )
               a(2) = (   1.938536   5.504100   0.000000 )
               a(3) = (   0.000000   0.000000  24.762618 )

     reciprocal axes: (cart. coord. in units 2 pi/alat)
               b(1) = (  0.171365 -0.060354  0.000000 )
               b(2) = (  0.000000  0.181683  0.000000 )
               b(3) = (  0.000000  0.000000  0.040383 )

     PseudoPot. # 1 for Os read from file:
     /afs/slac.stanford.edu/u/if/mamunm/psp/gbrv1.5pbe/Os.UPF
     MD5 check sum: a3fb40a04f0c37c25c34bbc47164c9a8
     Pseudo is Ultrasoft + core correction, Zval = 16.0
     Generated by new atomic code, or converted to UPF format
     Using radial grid of  983 points,  8 beta functions with:
                l(1) =   0
                l(2) =   0
                l(3) =   1
                l(4) =   1
                l(5) =   2
                l(6) =   2
                l(7) =   3
                l(8) =   3
     Q(r) pseudized with  8 coefficients,  rinner =    1.150   1.150   1.150
                                                       1.150   1.150   1.150
                                                       1.150

     PseudoPot. # 2 for Pb read from file:
     /afs/slac.stanford.edu/u/if/mamunm/psp/gbrv1.5pbe/Pb.UPF
     MD5 check sum: 3d1c1779aa92214d1e8f3a7db79003e2
     Pseudo is Ultrasoft + core correction, Zval = 14.0
     Generated by new atomic code, or converted to UPF format
     Using radial grid of  899 points,  6 beta functions with:
                l(1) =   0
                l(2) =   0
                l(3) =   1
                l(4) =   1
                l(5) =   2
                l(6) =   2
     Q(r) pseudized with  6 coefficients,  rinner =    1.000   1.000   1.000
                                                       1.000   1.000

     vdW kernel table read from file vdW_kernel_table
     MD5 check sum: 095c7af220d748ca6e76c0b4c6cfb241

     atomic species   valence    mass     pseudopotential
        Os1           16.00   190.23000     Os( 1.00)
        Pb1           14.00   207.20000     Pb( 1.00)

     No symmetry found

   Cartesian axes

     site n.     atom                  positions (alat units)
         1           Os1 tau(   1) = (   0.0000000   0.0000000  10.0000000  )
         2           Os1 tau(   2) = (   3.8870168   2.7520498  10.0000000  )
         3           Pb1 tau(   3) = (   2.9177488   0.0000000  10.0000000  )
         4           Pb1 tau(   4) = (   0.9692679   2.7520498  10.0000000  )
         5           Os1 tau(   5) = (   5.8354977   4.1315953  12.3813089  )
         6           Os1 tau(   6) = (   1.9484809   1.3795455  12.3813089  )
         7           Pb1 tau(   7) = (   2.9177488   4.1315953  12.3813089  )
         8           Pb1 tau(   8) = (   4.8662298   1.3795455  12.3813089  )
         9           Os1 tau(   9) = (   3.8967483   2.7589343  14.5228480  )
        10           Os1 tau(  10) = (   0.0097166   0.0068719  14.5228111  )
        11           Pb1 tau(  11) = (   0.9782638   2.7583046  15.0690630  )
        12           Pb1 tau(  12) = (   2.9266480   0.0064472  15.0690609  )

     number of k points=    20  Fermi-Dirac smearing, width (Ry)=  0.0110
                       cart. coord. in units 2pi/alat
        k(    1) = (   0.0000000   0.0000000   0.0000000), wk =   0.0555556
        k(    2) = (   0.0000000   0.0302805   0.0000000), wk =   0.1111111
        k(    3) = (   0.0000000   0.0605609   0.0000000), wk =   0.1111111
        k(    4) = (   0.0000000  -0.0908414   0.0000000), wk =   0.0555556
        k(    5) = (   0.0285608  -0.0100591   0.0000000), wk =   0.1111111
        k(    6) = (   0.0285608   0.0202214   0.0000000), wk =   0.1111111
        k(    7) = (   0.0285608   0.0505018   0.0000000), wk =   0.1111111
        k(    8) = (   0.0285608  -0.1009005   0.0000000), wk =   0.1111111
        k(    9) = (   0.0285608  -0.0706200   0.0000000), wk =   0.1111111
        k(   10) = (   0.0285608  -0.0403395   0.0000000), wk =   0.1111111
        k(   11) = (   0.0571217  -0.0201182   0.0000000), wk =   0.1111111
        k(   12) = (   0.0571217   0.0101623   0.0000000), wk =   0.1111111
        k(   13) = (   0.0571217   0.0404428   0.0000000), wk =   0.1111111
        k(   14) = (   0.0571217  -0.1109595   0.0000000), wk =   0.1111111
        k(   15) = (   0.0571217  -0.0806791   0.0000000), wk =   0.1111111
        k(   16) = (   0.0571217  -0.0503986   0.0000000), wk =   0.1111111
        k(   17) = (  -0.0856825   0.0301772   0.0000000), wk =   0.0555556
        k(   18) = (  -0.0856825   0.0604577   0.0000000), wk =   0.1111111
        k(   19) = (  -0.0856825   0.0907382   0.0000000), wk =   0.1111111
        k(   20) = (  -0.0856825  -0.0606641   0.0000000), wk =   0.0555556

     Largest allocated arrays     est. size (Mb)     dimensions
     Largest temporary arrays     est. size (Mb)     dimensions

     Initial potential from superposition of free atoms
     Check: negative starting charge=   -0.853361

     starting charge  176.98567, renormalised to  180.00000

[...]

     *
     * You are using vdW-DF for exchange-correlation in this calculation.
     * Please cite the following three references that made this development
     * possible:
     *
     *   M. Dion, H. Rydberg, E. Schroder, D. C. Langreth, and
     *   B. I. Lundqvist, Phys. Rev. Lett. 92, 246401 (2004).
     *
     *   T. Thonhauser, V. R. Cooper, S. Li, A. Puzder, P. Hyldgaard, and
     *   D. C. Langreth, Phys. Rev. B 76, 125112 (2007).
     *
     *   G. Roman-Perez and J. M. Soler, Phys. Rev. Lett. 103, 096102 (2009).
     *
     *
     * If you are using vdW-DF2, please also cite:
     *
     *   K. Lee, E. D. Murray, L. Kong, B. I. Lundqvist, and
     *   D. C. Langreth, Phys. Rev. B 82, 081101(R) (2010).
     *
     *
     * If you are calculating the stress with vdW-DF, please also cite:
     *
     *   R. Sabatini, E. Kucukbenli, B. Kolb, T. Thonhauser, and
     *   S. de Gironcoli, J. Phys.: Condens. Matter 24, 424209 (2012).
     *

     Carrying out vdW-DF run using the following parameters:

     Nqs =      20    Nr_points =    1024   r_max =   100.000
     q_mesh =
               0.00001000     0.04494208     0.09755937     0.15916263
               0.23128650     0.31572767     0.41458969     0.53033537
               0.66584808     0.82450364     1.01025438     1.22772762
               1.48234092     1.78043706     2.12944203     2.53805004
               3.01644009     3.57652955     4.23227104     5.00000000

     Gradients computed in reciprocal space

[...]

     Starting wfc are  132 randomized atomic wfcs

     Self-consistent Calculation

[...]

     total energy              =   -2193.94408429 Ry
     Harris-Foulkes estimate   =   -2193.94408328 Ry
     estimated scf accuracy    <       0.00000128 Ry

     iteration # 17     ecut=    36.75 Ry     beta=0.10
     Davidson diagonalization with overlap
     ethr =  7.12E-10,  avg # of iterations =  4.6

[...]

     negative rho (up, down):  8.093E-01 0.000E+00

     Adding external electric field

     Computed dipole along edir(3) :
        Dipole                0.1335 Ry au,          0.3393 Debye
        Dipole field          0.0003 Ry au

        Potential amp.       -0.0285 Ry
        Total length         45.6247 bohr

     End of self-consistent calculation

[...]

          k = 0.0571-0.0504 0.0000 ( 20195 PWs)   bands (ev):

[...]

          k =-0.0857-0.0607 0.0000 ( 20162 PWs)   bands (ev):

   -83.7140 -83.7128 -83.6620 -83.6607 -83.6373 -83.6361 -43.1016 -43.0864
   -43.0856 -43.0798 -43.0610 -43.0493 -43.0483 -43.0288 -43.0188 -43.0107
   -43.0106 -43.0004 -42.9681 -42.9669 -42.9120 -42.9084 -42.8815 -42.8772
   -15.2142 -15.1856 -15.1416 -15.1333 -15.1007 -15.0972 -15.0728 -15.0615
   -15.0330 -15.0182 -15.0040 -15.0000 -14.9737 -14.9730 -14.9717 -14.9695
   -14.9507 -14.9478 -14.9388 -14.9278 -14.9156 -14.8958 -14.8957 -14.8929
   -14.8729 -14.8650 -14.8522 -14.7948 -14.7681 -14.7147  -8.0180  -7.6053
    -6.9858  -6.9020  -5.6626  -4.5187  -4.0862  -3.9534  -3.2826  -2.4460
    -2.2119  -2.1624  -1.9811  -1.3103  -1.0578  -0.4693  -0.4122  -0.2966
    -0.2798  -0.1764   0.1643   0.1844   0.2011   0.2840   0.4326   0.8094
     0.8619   0.9105   1.3332   1.5442   1.7114   1.7885   1.8053   1.8157
     1.8252   1.9249   2.2648   2.3636   2.9188   2.9677   3.1591   3.2693
     3.4194   3.6028   4.2892   4.6006   5.6071   5.7049   5.8272   6.5851
     6.7229   6.9525   7.1349   7.2175   7.4461   7.6174   7.6882   7.8607
     7.9257   8.0118   8.3613   8.3813   8.3984   8.7135   8.8275   8.9094

     the Fermi energy is     2.0020 ev

!    total energy              =   -2193.94404722 Ry
     Harris-Foulkes estimate   =   -2193.94408151 Ry
     estimated scf accuracy    <       0.00000092 Ry

     The total energy is the sum of the following terms:

     one-electron contribution =  -14704.06809315 Ry
     hartree contribution      =    7381.74909329 Ry
     xc contribution           =    -624.57810937 Ry
     ewald contribution        =    5753.02806599 Ry
     electric field correction =       0.00004172 Ry
     smearing contrib. (-TS)   =      -0.07504570 Ry

     convergence has been achieved in  17 iterations

 BEEF-vdW xc energy contributions
           1 :   -553.325091908566
           2 :    513.642452416027
           3 :   -443.579495720234
           4 :    358.327855232754
           5 :   -273.946689052243
           6 :    202.711399684330
           7 :   -150.371009766940
           8 :    115.989555569511
           9 :   -94.0813451286770
          10 :    77.8911840420559
          11 :   -62.3630773222231
          12 :    45.6640537391241
          13 :   -28.9353270626277
          14 :    14.7582569635972
          15 :   -5.30774353330867
          16 :    1.11080498629246
          17 :  -0.881420893402833
          18 :    2.30755923729043
          19 :   -3.24031107489850
          20 :    2.62339799454037
          21 :  -0.734050795983535
          22 :   -1.28891611718086
          23 :    2.28072335706054
          24 :   -1.76416850513317
          25 :   0.180124563181266
          26 :    1.42449512012183
          27 :   -2.02200899341972
          28 :    1.17010000994549
          29 :   0.780977171595964
          30 :   -2.92288685072742
          31 :   -47.1800515734119
          32 :   -35.1758350248136

     Forces acting on atoms (Ry/au):

     negative rho (up, down):  8.093E-01 0.000E+00
     atom    1 type  1   force =    -0.00003766   -0.00003069    0.05777357
     atom    2 type  1   force =    -0.00005131   -0.00003856    0.05777387
     atom    3 type  2   force =     0.00034097    0.00023379   -0.04718983
     atom    4 type  2   force =     0.00033497    0.00024773   -0.04719043
     atom    5 type  1   force =     0.00013157    0.00009218    0.01857287
     atom    6 type  1   force =     0.00014692    0.00010379    0.01857734
     atom    7 type  2   force =    -0.00032506   -0.00022358   -0.02983259
     atom    8 type  2   force =    -0.00031970   -0.00024140   -0.02984524
     atom    9 type  1   force =     0.00000370    0.00000755   -0.00107597
     atom   10 type  1   force =     0.00000220   -0.00000276   -0.00104652
     atom   11 type  2   force =    -0.00013274   -0.00004506    0.00174347
     atom   12 type  2   force =    -0.00009386   -0.00010299    0.00173944

     Total force =     0.116659     Total SCF correction =     0.004154

     entering subroutine stress ...

     negative rho (up, down):  8.093E-01 0.000E+00
          total   stress  (Ry/bohr**3)                   (kbar)     P=  -18.94
  -0.00019228  -0.00002616  -0.00000055        -28.29     -3.85     -0.08
  -0.00002616  -0.00017385  -0.00000039         -3.85    -25.57     -0.06
  -0.00000055  -0.00000039  -0.00002012         -0.08     -0.06     -2.96

 !ASE

     Writing output data file calc.save

     General routines

     Parallel routines

   This run was terminated on:   1:39:47  19Dec2018

   JOB DONE.
Job  /afs/slac/g/suncat/bin/suncat-tsmpirun -x LD_LIBRARY_PATH -wdir /scratch/qe530403_LrG05 pw.x -in pw.inp

TID   HOST_NAME   COMMAND_LINE            STATUS            TERMINATION_TIME
00000 suncat2060 pw.x -in pw.inp   Done                     12/19/2018 01:39:47
00001 suncat2060 pw.x -in pw.inp   Done                     12/19/2018 01:39:47
00002 suncat2060 pw.x -in pw.inp   Done                     12/19/2018 01:39:47
00003 suncat2060 pw.x -in pw.inp   Done                     12/19/2018 01:39:47
00004 suncat2060 pw.x -in pw.inp   Done                     12/19/2018 01:39:47
00005 suncat2060 pw.x -in pw.inp   Done                     12/19/2018 01:39:47
00006 suncat2060 pw.x -in pw.inp   Done                     12/19/2018 01:39:47
00007 suncat2060 pw.x -in pw.inp   Done                     12/19/2018 01:39:47
00008 suncat2060 pw.x -in pw.inp   Done                     12/19/2018 01:39:47
00009 suncat2060 pw.x -in pw.inp   Done                     12/19/2018 01:39:47
00010 suncat2060 pw.x -in pw.inp   Done                     12/19/2018 01:39:47
00011 suncat2060 pw.x -in pw.inp   Done                     12/19/2018 01:39:47
00012 suncat2060 pw.x -in pw.inp   Done                     12/19/2018 01:39:47
00013 suncat2060 pw.x -in pw.inp   Done                     12/19/2018 01:39:47
00014 suncat2060 pw.x -in pw.inp   Done                     12/19/2018 01:39:47
00015 suncat2060 pw.x -in pw.inp   Done                     12/19/2018 01:39:47
00016 suncat2059 pw.x -in pw.inp   Done                     12/19/2018 01:39:47
00017 suncat2059 pw.x -in pw.inp   Done                     12/19/2018 01:39:47
00018 suncat2059 pw.x -in pw.inp   Done                     12/19/2018 01:39:47
00019 suncat2059 pw.x -in pw.inp   Done                     12/19/2018 01:39:47
00020 suncat2059 pw.x -in pw.inp   Done                     12/19/2018 01:39:47
00021 suncat2059 pw.x -in pw.inp   Done                     12/19/2018 01:39:47
00022 suncat2059 pw.x -in pw.inp   Done                     12/19/2018 01:39:47
00023 suncat2059 pw.x -in pw.inp   Done                     12/19/2018 01:39:47
00024 suncat2059 pw.x -in pw.inp   Done                     12/19/2018 01:39:47
00025 suncat2059 pw.x -in pw.inp   Done                     12/19/2018 01:39:47
00026 suncat2059 pw.x -in pw.inp   Done                     12/19/2018 01:39:47
00027 suncat2059 pw.x -in pw.inp   Done                     12/19/2018 01:39:47
00028 suncat2059 pw.x -in pw.inp   Done                     12/19/2018 01:39:47
00029 suncat2059 pw.x -in pw.inp   Done                     12/19/2018 01:39:47
00030 suncat2059 pw.x -in pw.inp   Done                     12/19/2018 01:39:47
00031 suncat2059 pw.x -in pw.inp   Done                     12/19/2018 01:39:47