     Program PWSCF v.5.1rc2 (svn rev. 11289) starts on 19Dec2018 at  9: 3:48

     Current dimensions of program PWSCF are:
     Max number of different atomic species (ntypx) = 10
     Max number of k-points (npk) =  40000
     Max angular momentum in pseudopotentials (lmaxx) =  3
     Presently stress not available with electric field

     IMPORTANT: XC functional enforced from input :
     Exchange-correlation      = BEEF-VDW ( 1  4 27 13 2)
     Any further DFT definition will be discarded
     Please, verify this is what you really want

     Subspace diagonalization in iterative solution of the eigenvalue problem:
     a serial algorithm will be used

     Found symmetry operation: I + (  0.5000  0.5000  0.0000)
     This is a supercell, fractional translations are disabled

     bravais-lattice index     =            0
     lattice parameter (alat)  =       1.8897  a.u.
     unit-cell volume          =    4219.7779 (a.u.)^3
     number of atoms/cell      =           12
     number of atomic types    =            2
     number of electrons       =       210.00
     number of Kohn-Sham states=          135
     kinetic-energy cutoff     =      36.7493  Ry
     charge density cutoff     =     367.4932  Ry
     convergence threshold     =      1.0E-06
     mixing beta               =       0.1000
     number of iterations used =           10  plain     mixing
     Exchange-correlation      = BEEF-VDW ( 1  4 27 13 2)
     nstep                     =           50

     celldm(1)=   1.889726  celldm(2)=   0.000000  celldm(3)=   0.000000
     celldm(4)=   0.000000  celldm(5)=   0.000000  celldm(6)=   0.000000

     crystal axes: (cart. coord. in units of alat)
               a(1) = (   5.388050   0.000000   0.000000 )
               a(2) = (   2.543842   4.749732   0.000000 )
               a(3) = (   0.000000   0.000000  24.433872 )

     reciprocal axes: (cart. coord. in units 2 pi/alat)
               b(1) = (  0.185596 -0.099401  0.000000 )
               b(2) = (  0.000000  0.210538  0.000000 )
               b(3) = (  0.000000  0.000000  0.040927 )

     PseudoPot. # 1 for Cu read from file:
     /afs/slac.stanford.edu/u/if/mamunm/psp/gbrv1.5pbe/Cu.UPF
     MD5 check sum: 6e991ff952a84172a2a52a1c1e996048
     Pseudo is Ultrasoft + core correction, Zval = 19.0
     Generated by new atomic code, or converted to UPF format
     Using radial grid of  867 points,  6 beta functions with:
                l(1) =   0
                l(2) =   0
                l(3) =   1
                l(4) =   1
                l(5) =   2
                l(6) =   2
     Q(r) pseudized with  8 coefficients,  rinner =    1.150   1.150   1.150
                                                       1.150   1.150

     PseudoPot. # 2 for Pt read from file:
     /afs/slac.stanford.edu/u/if/mamunm/psp/gbrv1.5pbe/Pt.UPF
     MD5 check sum: f09d6de1a584b5a045c4fc126da2d0c4
     Pseudo is Ultrasoft + core correction, Zval = 16.0
     Generated by new atomic code, or converted to UPF format
     Using radial grid of  985 points,  6 beta functions with:
                l(1) =   0
                l(2) =   0
                l(3) =   1
                l(4) =   1
                l(5) =   2
                l(6) =   2
     Q(r) pseudized with  8 coefficients,  rinner =    1.300   1.300   1.300
                                                       1.300   1.300

     vdW kernel table read from file vdW_kernel_table
     MD5 check sum: 095c7af220d748ca6e76c0b4c6cfb241

     atomic species   valence    mass     pseudopotential
        Cu1           19.00    63.54600     Cu( 1.00)
        Pt1           16.00   195.08400     Pt( 1.00)

     No symmetry found

   Cartesian axes

     site n.     atom                  positions (alat units)
         1           Cu1 tau(   1) = (   0.0000000   0.0000000  10.0000000  )
         2           Cu1 tau(   2) = (   3.9659459   2.3748659  10.0000000  )
         3           Pt1 tau(   3) = (   2.6940250   0.0000000  10.0000000  )
         4           Pt1 tau(   4) = (   1.2719209   2.3748659  10.0000000  )
         5           Cu1 tau(   5) = (   5.3880500   3.2264424  12.2169360  )
         6           Cu1 tau(   6) = (   1.4221041   0.8515765  12.2169360  )
         7           Pt1 tau(   7) = (   2.6940250   3.2264424  12.2169360  )
         8           Pt1 tau(   8) = (   4.1161291   0.8515765  12.2169360  )
         9           Cu1 tau(   9) = (   2.8442082   1.7031531  14.4338720  )
        10           Cu1 tau(  10) = (   6.8101541   4.0780190  14.4338720  )
        11           Pt1 tau(  11) = (   5.5382332   1.7031531  14.4338720  )
        12           Pt1 tau(  12) = (   4.1161291   4.0780190  14.4338720  )

     number of k points=    20  Fermi-Dirac smearing, width (Ry)=  0.0110
                       cart. coord. in units 2pi/alat
        k(    1) = (   0.0000000   0.0000000   0.0000000), wk =   0.0555556
        k(    2) = (   0.0000000   0.0350897   0.0000000), wk =   0.1111111
        k(    3) = (   0.0000000   0.0701794   0.0000000), wk =   0.1111111
        k(    4) = (   0.0000000  -0.1052691   0.0000000), wk =   0.0555556
        k(    5) = (   0.0309327  -0.0165668   0.0000000), wk =   0.1111111
        k(    6) = (   0.0309327   0.0185229   0.0000000), wk =   0.1111111
        k(    7) = (   0.0309327   0.0536126   0.0000000), wk =   0.1111111
        k(    8) = (   0.0309327  -0.1218359   0.0000000), wk =   0.1111111
        k(    9) = (   0.0309327  -0.0867462   0.0000000), wk =   0.1111111
        k(   10) = (   0.0309327  -0.0516565   0.0000000), wk =   0.1111111
        k(   11) = (   0.0618653  -0.0331336   0.0000000), wk =   0.1111111
        k(   12) = (   0.0618653   0.0019561   0.0000000), wk =   0.1111111
        k(   13) = (   0.0618653   0.0370458   0.0000000), wk =   0.1111111
        k(   14) = (   0.0618653  -0.1384027   0.0000000), wk =   0.1111111
        k(   15) = (   0.0618653  -0.1033130   0.0000000), wk =   0.1111111
        k(   16) = (   0.0618653  -0.0682233   0.0000000), wk =   0.1111111
        k(   17) = (  -0.0927980   0.0497003   0.0000000), wk =   0.0555556
        k(   18) = (  -0.0927980   0.0847900   0.0000000), wk =   0.1111111
        k(   19) = (  -0.0927980   0.1198797   0.0000000), wk =   0.1111111
        k(   20) = (  -0.0927980  -0.0555688   0.0000000), wk =   0.0555556

     Largest allocated arrays     est. size (Mb)     dimensions
     Largest temporary arrays     est. size (Mb)     dimensions

     Check: negative/imaginary core charge=   -0.000001    0.000000

     Initial potential from superposition of free atoms
     Check: negative starting charge=   -1.106276

     starting charge  200.99992, renormalised to  210.00000

     negative rho (up, down):  1.156E+00 0.000E+00

     *
     * You are using vdW-DF for exchange-correlation in this calculation.
     * Please cite the following three references that made this development
     * possible:
     *
     *   M. Dion, H. Rydberg, E. Schroder, D. C. Langreth, and
     *   B. I. Lundqvist, Phys. Rev. Lett. 92, 246401 (2004).
     *
     *   T. Thonhauser, V. R. Cooper, S. Li, A. Puzder, P. Hyldgaard, and
     *   D. C. Langreth, Phys. Rev. B 76, 125112 (2007).
     *
     *   G. Roman-Perez and J. M. Soler, Phys. Rev. Lett. 103, 096102 (2009).
     *
     *
     * If you are using vdW-DF2, please also cite:
     *
     *   K. Lee, E. D. Murray, L. Kong, B. I. Lundqvist, and
     *   D. C. Langreth, Phys. Rev. B 82, 081101(R) (2010).
     *
     *
     * If you are calculating the stress with vdW-DF, please also cite:
     *
     *   R. Sabatini, E. Kucukbenli, B. Kolb, T. Thonhauser, and
     *   S. de Gironcoli, J. Phys.: Condens. Matter 24, 424209 (2012).
     *

     Carrying out vdW-DF run using the following parameters:

     Nqs =      20    Nr_points =    1024   r_max =   100.000
     q_mesh =
               0.00001000     0.04494208     0.09755937     0.15916263
               0.23128650     0.31572767     0.41458969     0.53033537
               0.66584808     0.82450364     1.01025438     1.22772762
               1.48234092     1.78043706     2.12944203     2.53805004
               3.01644009     3.57652955     4.23227104     5.00000000

     Gradients computed in reciprocal space

     Adding external electric field

     Computed dipole along edir(3) :
        Dipole                0.0000 Ry au,          0.0000 Debye
        Dipole field          0.0000 Ry au

        Potential amp.       -0.0000 Ry
        Total length         45.0190 bohr

     Starting wfc are  150 randomized atomic wfcs

     Self-consistent Calculation

     iteration #  1     ecut=    36.75 Ry     beta=0.10
     Davidson diagonalization with overlap
     ethr =  1.00E-02,  avg # of iterations =  7.2

[...]

     total energy              =   -3703.69338702 Ry
     Harris-Foulkes estimate   =   -3709.52105494 Ry
     estimated scf accuracy    <      34.62712968 Ry

[...]

     End of self-consistent calculation

          k = 0.0000 0.0000 0.0000 ( 15891 PWs)   bands (ev):

  -111.1427-111.1413-111.0440-111.0437-111.0426-111.0423 -68.5727 -68.5708
   -68.5376 -68.5358 -68.5349 -68.5135 -68.4944 -68.4939 -68.4925 -68.4921
   -68.4891 -68.4889 -68.4679 -68.4676 -68.3636 -68.3633 -68.3619 -68.3615
   -51.6233 -51.5516 -51.5281 -51.3912 -51.3906 -51.3771 -51.3547 -51.3318
   -51.2218 -51.2044 -51.1991 -51.1820 -51.1458 -51.1454 -51.0380 -51.0331
   -51.0150 -51.0105  -7.1751  -5.4390  -4.5689  -4.5013  -4.3378  -4.1820
    -3.9167  -3.7875  -3.7363  -3.6998  -3.5106  -3.3766  -3.3745  -3.1897
    -2.9261  -2.7124  -2.3654  -2.1264  -2.0737  -1.9457  -1.8492  -1.7939
    -1.7564  -1.7285  -1.6217  -1.5539  -1.5463  -1.4222  -1.3729  -1.3466
    -1.3181  -1.2877  -1.2486  -1.1506  -1.0205  -0.8392  -0.8359  -0.7311
    -0.6474  -0.6338  -0.4942  -0.4181  -0.4061  -0.3738  -0.2984  -0.2242
    -0.1383  -0.1371   0.0079   0.1711   0.2073   0.2216   0.2229   0.4103
     0.4712   0.5359   0.5628   0.7112   0.7583   0.8290   0.8380   0.9095
     1.3154   1.6263   2.0019   2.0717   2.0728   3.2120   3.2153   3.5065
     3.5574   3.5638   4.0482   5.3620   5.6829   5.9660   6.0734   6.6275
     6.6595   6.6670   6.8304   6.9387   7.1284   7.6494   7.6820   7.9222
     8.1186   9.2244   9.6621  10.2323  10.5161  10.5908  10.6032

[...]

          k =-0.0928 0.0497 0.0000 ( 15908 PWs)   bands (ev):

[...]

     the Fermi energy is     0.8679 ev

!    total energy              =   -3703.78152343 Ry
     Harris-Foulkes estimate   =   -3703.78151351 Ry
     estimated scf accuracy    <       0.00000078 Ry

     The total energy is the sum of the following terms:

     one-electron contribution =  -27374.78312147 Ry
     hartree contribution      =   13714.98101400 Ry
     xc contribution           =    -591.82546997 Ry
     ewald contribution        =   10547.90450773 Ry
     electric field correction =       0.00000002 Ry
     smearing contrib. (-TS)   =      -0.05845376 Ry

     convergence has been achieved in  19 iterations

 BEEF-vdW xc energy contributions
           1 :   -526.067097731549
           2 :    484.440155294748
           3 :   -411.802114491155
[...]
   This run was terminated on:  10: 8:32  19Dec2018

[...]

     Program PWSCF v.5.1rc2 (svn rev. 11289) starts on 19Dec2018 at 10: 8:39

[...]

     Program PWSCF v.5.1rc2 (svn rev. 11289) starts on 19Dec2018 at 10:40:30

     Current dimensions of program PWSCF are:
     Max number of different atomic species (ntypx) = 10
     Max number of k-points (npk) =  40000
     Max angular momentum in pseudopotentials (lmaxx) =  3
     Presently stress not available with electric field

     IMPORTANT: XC functional enforced from input :
     Exchange-correlation      = BEEF-VDW ( 1  4 27 13 2)
     Any further DFT definition will be discarded
     Please, verify this is what you really want

     Subspace diagonalization in iterative solution of the eigenvalue problem:
     a serial algorithm will be used

     Found symmetry operation: I + (  0.5000  0.5000  0.0000)
     This is a supercell, fractional translations are disabled

     bravais-lattice index     =            0
     lattice parameter (alat)  =       1.8897  a.u.
     unit-cell volume          =    4219.7779 (a.u.)^3
     number of atoms/cell      =           12
     number of atomic types    =            2
     number of electrons       =       210.00
     number of Kohn-Sham states=          135
     kinetic-energy cutoff     =      36.7493  Ry
     charge density cutoff     =     367.4932  Ry
     convergence threshold     =      1.0E-06
     mixing beta               =       0.1000
     number of iterations used =           10  plain     mixing
     Exchange-correlation      = BEEF-VDW ( 1  4 27 13 2)
     nstep                     =           50

     celldm(1)=   1.889726  celldm(2)=   0.000000  celldm(3)=   0.000000
     celldm(4)=   0.000000  celldm(5)=   0.000000  celldm(6)=   0.000000

     crystal axes: (cart. coord. in units of alat)
               a(1) = (   5.388050   0.000000   0.000000 )
               a(2) = (   2.543842   4.749732   0.000000 )
               a(3) = (   0.000000   0.000000  24.433872 )

     reciprocal axes: (cart. coord. in units 2 pi/alat)
               b(1) = (  0.185596 -0.099401  0.000000 )
               b(2) = (  0.000000  0.210538  0.000000 )
               b(3) = (  0.000000  0.000000  0.040927 )

     PseudoPot. # 1 for Cu read from file:
     /afs/slac.stanford.edu/u/if/mamunm/psp/gbrv1.5pbe/Cu.UPF
     MD5 check sum: 6e991ff952a84172a2a52a1c1e996048
     Pseudo is Ultrasoft + core correction, Zval = 19.0
     Generated by new atomic code, or converted to UPF format
     Using radial grid of  867 points,  6 beta functions with:
                l(1) =   0
                l(2) =   0
                l(3) =   1
                l(4) =   1
                l(5) =   2
                l(6) =   2
     Q(r) pseudized with  8 coefficients,  rinner =    1.150   1.150   1.150
                                                       1.150   1.150

     PseudoPot. # 2 for Pt read from file:
     /afs/slac.stanford.edu/u/if/mamunm/psp/gbrv1.5pbe/Pt.UPF
     MD5 check sum: f09d6de1a584b5a045c4fc126da2d0c4
     Pseudo is Ultrasoft + core correction, Zval = 16.0
     Generated by new atomic code, or converted to UPF format
     Using radial grid of  985 points,  6 beta functions with:
                l(1) =   0
                l(2) =   0
                l(3) =   1
                l(4) =   1
                l(5) =   2
                l(6) =   2
     Q(r) pseudized with  8 coefficients,  rinner =    1.300   1.300   1.300
                                                       1.300   1.300

     vdW kernel table read from file vdW_kernel_table
     MD5 check sum: 095c7af220d748ca6e76c0b4c6cfb241

     atomic species   valence    mass     pseudopotential
        Cu1           19.00    63.54600     Cu( 1.00)
        Pt1           16.00   195.08400     Pt( 1.00)

     No symmetry found

   Cartesian axes

     site n.     atom                  positions (alat units)
         1           Cu1 tau(   1) = (   0.0000000   0.0000000  10.0000000  )
         2           Cu1 tau(   2) = (   3.9659459   2.3748659  10.0000000  )
         3           Pt1 tau(   3) = (   2.6940250   0.0000000  10.0000000  )
         4           Pt1 tau(   4) = (   1.2719209   2.3748659  10.0000000  )
         5           Cu1 tau(   5) = (   5.3880500   3.2264424  12.2169360  )
         6           Cu1 tau(   6) = (   1.4221041   0.8515765  12.2169360  )
         7           Pt1 tau(   7) = (   2.6940250   3.2264424  12.2169360  )
         8           Pt1 tau(   8) = (   4.1161291   0.8515765  12.2169360  )
         9           Cu1 tau(   9) = (   2.7625443   1.6542436  14.4407995  )
        10           Cu1 tau(  10) = (   6.7284784   4.0291185  14.4407960  )
        11           Pt1 tau(  11) = (   5.4749233   1.6652436  14.4185689  )
        12           Pt1 tau(  12) = (   4.0528143   4.0401038  14.4185688  )

     number of k points=    20  Fermi-Dirac smearing, width (Ry)=  0.0110
                       cart. coord. in units 2pi/alat
        k(    1) = (   0.0000000   0.0000000   0.0000000), wk =   0.0555556
        k(    2) = (   0.0000000   0.0350897   0.0000000), wk =   0.1111111
        k(    3) = (   0.0000000   0.0701794   0.0000000), wk =   0.1111111
        k(    4) = (   0.0000000  -0.1052691   0.0000000), wk =   0.0555556
        k(    5) = (   0.0309327  -0.0165668   0.0000000), wk =   0.1111111
        k(    6) = (   0.0309327   0.0185229   0.0000000), wk =   0.1111111
        k(    7) = (   0.0309327   0.0536126   0.0000000), wk =   0.1111111
        k(    8) = (   0.0309327  -0.1218359   0.0000000), wk =   0.1111111
        k(    9) = (   0.0309327  -0.0867462   0.0000000), wk =   0.1111111
        k(   10) = (   0.0309327  -0.0516565   0.0000000), wk =   0.1111111
        k(   11) = (   0.0618653  -0.0331336   0.0000000), wk =   0.1111111
        k(   12) = (   0.0618653   0.0019561   0.0000000), wk =   0.1111111
        k(   13) = (   0.0618653   0.0370458   0.0000000), wk =   0.1111111
        k(   14) = (   0.0618653  -0.1384027   0.0000000), wk =   0.1111111
        k(   15) = (   0.0618653  -0.1033130   0.0000000), wk =   0.1111111
        k(   16) = (   0.0618653  -0.0682233   0.0000000), wk =   0.1111111
        k(   17) = (  -0.0927980   0.0497003   0.0000000), wk =   0.0555556
        k(   18) = (  -0.0927980   0.0847900   0.0000000), wk =   0.1111111
        k(   19) = (  -0.0927980   0.1198797   0.0000000), wk =   0.1111111
        k(   20) = (  -0.0927980  -0.0555688   0.0000000), wk =   0.0555556

     Largest allocated arrays     est. size (Mb)     dimensions
     Largest temporary arrays     est. size (Mb)     dimensions

     Check: negative/imaginary core charge=   -0.000001    0.000000

     Initial potential from superposition of free atoms
     Check: negative starting charge=   -1.107923

     starting charge  200.99992, renormalised to  210.00000

[...]

     *
     * You are using vdW-DF for exchange-correlation in this calculation.
     * Please cite the following three references that made this development
     * possible:
     *
     *   M. Dion, H. Rydberg, E. Schroder, D. C. Langreth, and
     *   B. I. Lundqvist, Phys. Rev. Lett. 92, 246401 (2004).
     *
     *   T. Thonhauser, V. R. Cooper, S. Li, A. Puzder, P. Hyldgaard, and
     *   D. C. Langreth, Phys. Rev. B 76, 125112 (2007).
     *
     *   G. Roman-Perez and J. M. Soler, Phys. Rev. Lett. 103, 096102 (2009).
     *
     *
     * If you are using vdW-DF2, please also cite:
     *
     *   K. Lee, E. D. Murray, L. Kong, B. I. Lundqvist, and
     *   D. C. Langreth, Phys. Rev. B 82, 081101(R) (2010).
     *
     *
     * If you are calculating the stress with vdW-DF, please also cite:
     *
     *   R. Sabatini, E. Kucukbenli, B. Kolb, T. Thonhauser, and
     *   S. de Gironcoli, J. Phys.: Condens. Matter 24, 424209 (2012).
     *

     Carrying out vdW-DF run using the following parameters:

     Nqs =      20    Nr_points =    1024   r_max =   100.000
     q_mesh =
               0.00001000     0.04494208     0.09755937     0.15916263
               0.23128650     0.31572767     0.41458969     0.53033537
               0.66584808     0.82450364     1.01025438     1.22772762
               1.48234092     1.78043706     2.12944203     2.53805004
               3.01644009     3.57652955     4.23227104     5.00000000

     Gradients computed in reciprocal space

[...]

     Starting wfc are  150 randomized atomic wfcs

     Self-consistent Calculation

[...]

     total energy              =   -3703.78270028 Ry
     Harris-Foulkes estimate   =   -3703.78269760 Ry
     estimated scf accuracy    <       0.00000114 Ry

     iteration # 19     ecut=    36.75 Ry     beta=0.10
     Davidson diagonalization with overlap
     ethr =  5.45E-10,  avg # of iterations =  2.0

[...]

     negative rho (up, down):  1.064E+00 0.000E+00

     Adding external electric field

     Computed dipole along edir(3) :
        Dipole                0.0050 Ry au,          0.0127 Debye
        Dipole field          0.0000 Ry au

        Potential amp.       -0.0013 Ry
        Total length         45.0190 bohr

     End of self-consistent calculation

[...]

          k = 0.0619-0.0682 0.0000 ( 15873 PWs)   bands (ev):

[...]

          k =-0.0928-0.0556 0.0000 ( 15882 PWs)   bands (ev):

  -111.1332-111.1318-111.0314-111.0300-111.0278-111.0264 -68.5645 -68.5627
   -68.5290 -68.5272 -68.5242 -68.5028 -68.4821 -68.4803 -68.4799 -68.4782
   -68.4766 -68.4719 -68.4554 -68.4507 -68.3506 -68.3488 -68.3472 -68.3455
   -51.6241 -51.5771 -51.5531 -51.4086 -51.3789 -51.3777 -51.3573 -51.3334
   -51.2451 -51.2225 -51.2011 -51.1787 -51.1633 -51.1334 -51.0620 -51.0394
   -51.0237 -51.0011  -5.6814  -5.1976  -4.4204  -4.0055  -3.7590  -3.6981
    -3.6443  -3.4604  -3.3953  -3.2328  -2.9671  -2.9351  -2.8340  -2.6693
    -2.6242  -2.6133  -2.5128  -2.2771  -2.1230  -1.9757  -1.8939  -1.8233
    -1.7951  -1.7145  -1.6330  -1.6175  -1.5452  -1.5337  -1.4471  -1.3863
    -1.3678  -1.3408  -1.3353  -1.3350  -1.3313  -1.3238  -1.3227  -1.3060
    -1.1874  -1.1756  -1.0667  -0.9434  -0.8986  -0.8979  -0.8642  -0.8374
    -0.7031  -0.6487  -0.6251  -0.6160  -0.5760  -0.3169  -0.2875  -0.2291
    -0.1213  -0.0620  -0.0365   0.2605   0.2753   0.3348   0.4784   0.5819
     0.6503   1.0817   1.4259   1.8612   2.5827   2.6883   3.4344   3.9422
     4.9384   5.1829   5.1831   5.4801   6.9125   6.9341   7.5147   7.5402
     7.6338   7.6435   7.8865   8.0478   8.5459   8.7056   8.7474   8.7777
     8.9346   9.1292   9.1748   9.2606   9.6769  10.0107  10.4124

     the Fermi energy is     0.8797 ev

!    total energy              =   -3703.78270890 Ry
     Harris-Foulkes estimate   =   -3703.78270044 Ry
     estimated scf accuracy    <       0.00000039 Ry

     The total energy is the sum of the following terms:

     one-electron contribution =  -27387.22905830 Ry
     hartree contribution      =   13721.24447336 Ry
     xc contribution           =    -591.83574290 Ry
     ewald contribution        =   10554.09524206 Ry
     electric field correction =       0.00000007 Ry
     smearing contrib. (-TS)   =      -0.05762319 Ry

     convergence has been achieved in  19 iterations

 BEEF-vdW xc energy contributions
           1 :   -526.078405400387
           2 :    484.457413249717
           3 :   -411.827361225369
           4 :    324.924285506346
           5 :   -240.290379856095
           6 :    169.124365323988
           7 :   -115.305393163025
           8 :    76.7582905336904
           9 :   -48.7637399449200
          10 :    27.1534851730360
          11 :   -9.89254184829383
          12 :   -3.22169553487402
          13 :    11.8736808701503
          14 :   -16.3577716646414
          15 :    17.7962671241279
          16 :   -17.5640958717531
          17 :    16.5729228277581
          18 :   -15.0346848091876
          19 :    12.8280129944726
          20 :   -10.0873759849558
          21 :    7.47744420986419
          22 :   -5.90939205510097
          23 :    5.91849670372062
          24 :   -7.20568472643822
          25 :    8.72610950202261
          26 :   -9.30804842844827
          27 :    8.38991506793786
          28 :   -6.37192230494861
          29 :    4.33590206128360
          30 :   -3.32429005967288
          31 :   -42.5329709734153
          32 :   -30.4630206845554

     Forces acting on atoms (Ry/au):

     negative rho (up, down):  1.064E+00 0.000E+00
     atom    1 type  1   force =     0.00486627    0.00291459   -0.00250817
     atom    2 type  1   force =     0.00486664    0.00291447   -0.00250975
     atom    3 type  2   force =    -0.00072611   -0.00043446    0.00559478
     atom    4 type  2   force =    -0.00072613   -0.00043471    0.00559488
     atom    5 type  1   force =    -0.00025071   -0.00015089   -0.00086719
     atom    6 type  1   force =    -0.00025085   -0.00015073   -0.00086708
     atom    7 type  2   force =    -0.00411890   -0.00246662   -0.00197800
     atom    8 type  2   force =    -0.00411851   -0.00246620   -0.00197823
     atom    9 type  1   force =    -0.00014638   -0.00008693   -0.00069991
     atom   10 type  1   force =    -0.00014529   -0.00008785   -0.00069836
     atom   11 type  2   force =     0.00037549    0.00022387    0.00045821
     atom   12 type  2   force =     0.00037447    0.00022546    0.00045881

     Total force =     0.014086     Total SCF correction =     0.003635
     SCF correction compared to forces is large: reduce conv_thr to get better values

     entering subroutine stress ...

     negative rho (up, down):  1.064E+00 0.000E+00
          total   stress  (Ry/bohr**3)                   (kbar)     P=  -21.09
  -0.00018334   0.00000553  -0.00000943        -26.97      0.81     -1.39
   0.00000553  -0.00018926  -0.00000564          0.81    -27.84     -0.83
  -0.00000943  -0.00000564  -0.00005741         -1.39     -0.83     -8.44

 !ASE

     Writing output data file calc.save

     General routines

     Parallel routines

   This run was terminated on:  10:56:27  19Dec2018

   JOB DONE.
Job  /afs/slac/g/suncat/bin/suncat-tsmpirun -x LD_LIBRARY_PATH -wdir /scratch/qe529803_eCBrE pw.x -in pw.inp

TID   HOST_NAME   COMMAND_LINE            STATUS            TERMINATION_TIME
00000 suncat0224 pw.x -in pw.inp   Done                     12/19/2018 10:56:27
00001 suncat0224 pw.x -in pw.inp   Done                     12/19/2018 10:56:27
00002 suncat0224 pw.x -in pw.inp   Done                     12/19/2018 10:56:27
00003 suncat0224 pw.x -in pw.inp   Done                     12/19/2018 10:56:27
00004 suncat0224 pw.x -in pw.inp   Done                     12/19/2018 10:56:27
00005 suncat0224 pw.x -in pw.inp   Done                     12/19/2018 10:56:27
00006 suncat0224 pw.x -in pw.inp   Done                     12/19/2018 10:56:27
00007 suncat0224 pw.x -in pw.inp   Done                     12/19/2018 10:56:27
00008 suncat0223 pw.x -in pw.inp   Done                     12/19/2018 10:56:27
00009 suncat0223 pw.x -in pw.inp   Done                     12/19/2018 10:56:27
00010 suncat0223 pw.x -in pw.inp   Done                     12/19/2018 10:56:27
00011 suncat0223 pw.x -in pw.inp   Done                     12/19/2018 10:56:27
00012 suncat0223 pw.x -in pw.inp   Done                     12/19/2018 10:56:27
00013 suncat0223 pw.x -in pw.inp   Done                     12/19/2018 10:56:27
00014 suncat0223 pw.x -in pw.inp   Done                     12/19/2018 10:56:27
00015 suncat0223 pw.x -in pw.inp   Done                     12/19/2018 10:56:27
00016 suncat0222 pw.x -in pw.inp   Done                     12/19/2018 10:56:27
00017 suncat0222 pw.x -in pw.inp   Done                     12/19/2018 10:56:27
00018 suncat0222 pw.x -in pw.inp   Done                     12/19/2018 10:56:27
00019 suncat0222 pw.x -in pw.inp   Done                     12/19/2018 10:56:27
00020 suncat0222 pw.x -in pw.inp   Done                     12/19/2018 10:56:27
00021 suncat0222 pw.x -in pw.inp   Done                     12/19/2018 10:56:27
00022 suncat0222 pw.x -in pw.inp   Done                     12/19/2018 10:56:27
00023 suncat0222 pw.x -in pw.inp   Done                     12/19/2018 10:56:27
00024 suncat0221 pw.x -in pw.inp   Done                     12/19/2018 10:56:27
00025 suncat0221 pw.x -in pw.inp   Done                     12/19/2018 10:56:27
00026 suncat0221 pw.x -in pw.inp   Done                     12/19/2018 10:56:27
00027 suncat0221 pw.x -in pw.inp   Done                     12/19/2018 10:56:27
00028 suncat0221 pw.x -in pw.inp   Done                     12/19/2018 10:56:27
00029 suncat0221 pw.x -in pw.inp   Done                     12/19/2018 10:56:27
00030 suncat0221 pw.x -in pw.inp   Done                     12/19/2018 10:56:27
00031 suncat0221 pw.x -in pw.inp   Done                     12/19/2018 10:56:27