     Program PWSCF v.5.1rc2 (svn rev. 11289) starts on 25Dec2018 at  4:44:22

     Current dimensions of program PWSCF are:
     Max number of different atomic species (ntypx) = 10
     Max number of k-points (npk) =  40000
     Max angular momentum in pseudopotentials (lmaxx) =  3
     Presently stress not available with electric field

     IMPORTANT: XC functional enforced from input :
     Exchange-correlation      = BEEF-VDW ( 1  4 27 13 2)
     Any further DFT definition will be discarded
     Please, verify this is what you really want

     Subspace diagonalization in iterative solution of the eigenvalue problem:
     a serial algorithm will be used

     Found symmetry operation: I + ( -0.5000 -0.5000  0.0000)
     This is a supercell, fractional translations are disabled

     bravais-lattice index     =            0
     lattice parameter (alat)  =       1.8897  a.u.
     unit-cell volume          =    6257.6182 (a.u.)^3
     number of atoms/cell      =           12
     number of atomic types    =            2
     number of electrons       =       192.00
     number of Kohn-Sham states=          126
     kinetic-energy cutoff     =      36.7493  Ry
     charge density cutoff     =     367.4932  Ry
     convergence threshold     =      1.0E-06
     mixing beta               =       0.1000
     number of iterations used =           10  plain     mixing
     Exchange-correlation      = BEEF-VDW ( 1  4 27 13 2)
     nstep                     =           50

     celldm(1)=   1.889726  celldm(2)=   0.000000  celldm(3)=   0.000000
     celldm(4)=   0.000000  celldm(5)=   0.000000  celldm(6)=   0.000000

     crystal axes: (cart. coord. in units of alat)
               a(1) = (   6.294938   0.000000   0.000000 )
               a(2) = (   2.332247   5.846954   0.000000 )
               a(3) = (   0.000000   0.000000  25.193661 )

     reciprocal axes: (cart. coord. in units 2 pi/alat)
               b(1) = (  0.158858 -0.063366  0.000000 )
               b(2) = (  0.000000  0.171029  0.000000 )
               b(3) = (  0.000000  0.000000  0.039693 )

     PseudoPot. # 1 for Zn read from file:
     /afs/slac.stanford.edu/u/if/mamunm/psp/gbrv1.5pbe/Zn.UPF
     MD5 check sum: df62231357ef9e81f77b2b3087fa5675
     Pseudo is Ultrasoft, Zval = 20.0
     Generated by new atomic code, or converted to UPF format
     Using radial grid of  943 points,  6 beta functions with:
                l(1) =   0
                l(2) =   0
                l(3) =   1
                l(4) =   1
                l(5) =   2
                l(6) =   2
     Q(r) pseudized with  8 coefficients,  rinner =    1.100   1.100   1.100
                                                       1.100   1.100

     PseudoPot. # 2 for Hg read from file:
     /afs/slac.stanford.edu/u/if/mamunm/psp/gbrv1.5pbe/Hg.UPF
     MD5 check sum: 8f42caffe07f7fd9c0a564347f8c5498
     Pseudo is Ultrasoft + core correction, Zval = 12.0
     Generated by new atomic code, or converted to UPF format
     Using radial grid of  985 points,  6 beta functions with:
                l(1) =   0
                l(2) =   0
                l(3) =   1
                l(4) =   1
                l(5) =   2
                l(6) =   2
     Q(r) pseudized with  8 coefficients,  rinner =    2.000   2.000   2.000
                                                       2.000   2.000

     vdW kernel table read from file vdW_kernel_table
     MD5 check sum: 095c7af220d748ca6e76c0b4c6cfb241

     atomic species   valence    mass     pseudopotential
        Zn1           20.00    65.38000     Zn( 1.00)
        Hg1           12.00   200.59200     Hg( 1.00)

     No symmetry found

   Cartesian axes

     site n.     atom                  positions (alat units)
         1           Zn1 tau(   1) = (   0.0000000   0.0000000  10.0000000  )
         2           Zn1 tau(   2) = (   4.3135929   2.9234771  10.0000000  )
         3           Hg1 tau(   3) = (   3.1474692   0.0000000  10.0000000  )
         4           Hg1 tau(   4) = (   1.1661236   2.9234771  10.0000000  )
         5           Zn1 tau(   5) = (   6.2949385   4.2663064  12.5968304  )
         6           Zn1 tau(   6) = (   1.9813456   1.3428292  12.5968304  )
         7           Hg1 tau(   7) = (   3.1474692   4.2663064  12.5968304  )
         8           Hg1 tau(   8) = (   5.1288149   1.3428292  12.5968304  )
         9           Zn1 tau(   9) = (   3.9626913   2.6856585  15.1936608  )
        10           Zn1 tau(  10) = (   8.2762841   5.6091356  15.1936608  )
        11           Hg1 tau(  11) = (   7.1101605   2.6856585  15.1936608  )
        12           Hg1 tau(  12) = (   5.1288149   5.6091356  15.1936608  )

     number of k points=    20  Fermi-Dirac smearing, width (Ry)=  0.0110
                       cart. coord. in units 2pi/alat
        k(    1) = (   0.0000000   0.0000000   0.0000000), wk =   0.0555556
        k(    2) = (   0.0000000   0.0285049   0.0000000), wk =   0.1111111
        k(    3) = (   0.0000000   0.0570097   0.0000000), wk =   0.1111111
        k(    4) = (   0.0000000  -0.0855146   0.0000000), wk =   0.0555556
        k(    5) = (   0.0264763  -0.0105609   0.0000000), wk =   0.1111111
        k(    6) = (   0.0264763   0.0179439   0.0000000), wk =   0.1111111
        k(    7) = (   0.0264763   0.0464488   0.0000000), wk =   0.1111111
        k(    8) = (   0.0264763  -0.0960755   0.0000000), wk =   0.1111111
        k(    9) = (   0.0264763  -0.0675707   0.0000000), wk =   0.1111111
        k(   10) = (   0.0264763  -0.0390658   0.0000000), wk =   0.1111111
        k(   11) = (   0.0529526  -0.0211219   0.0000000), wk =   0.1111111
        k(   12) = (   0.0529526   0.0073830   0.0000000), wk =   0.1111111
        k(   13) = (   0.0529526   0.0358879   0.0000000), wk =   0.1111111
        k(   14) = (   0.0529526  -0.1066365   0.0000000), wk =   0.1111111
        k(   15) = (   0.0529526  -0.0781316   0.0000000), wk =   0.1111111
        k(   16) = (   0.0529526  -0.0496267   0.0000000), wk =   0.1111111
        k(   17) = (  -0.0794289   0.0316828   0.0000000), wk =   0.0555556
        k(   18) = (  -0.0794289   0.0601877   0.0000000), wk =   0.1111111
        k(   19) = (  -0.0794289   0.0886925   0.0000000), wk =   0.1111111
        k(   20) = (  -0.0794289  -0.0538318   0.0000000), wk =   0.0555556

     Largest allocated arrays     est. size (Mb)     dimensions
     Largest temporary arrays     est. size (Mb)     dimensions

     Initial potential from superposition of free atoms
     Check: negative starting charge=   -0.000720

     starting charge  191.99880, renormalised to  192.00000

     negative rho (up, down):  7.203E-04 0.000E+00

     *
     * You are using vdW-DF for exchange-correlation in this calculation.
     * Please cite the following three references that made this development
     * possible:
     *
     *   M. Dion, H. Rydberg, E. Schroder, D. C. Langreth, and
     *   B. I. Lundqvist, Phys. Rev. Lett. 92, 246401 (2004).
     *
     *   T. Thonhauser, V. R. Cooper, S. Li, A. Puzder, P. Hyldgaard, and
     *   D. C. Langreth, Phys. Rev. B 76, 125112 (2007).
     *
     *   G. Roman-Perez and J. M. Soler, Phys. Rev. Lett. 103, 096102 (2009).
     *
     *
     * If you are using vdW-DF2, please also cite:
     *
     *   K. Lee, E. D. Murray, L. Kong, B. I. Lundqvist, and
     *   D. C. Langreth, Phys. Rev. B 82, 081101(R) (2010).
     *
     *
     * If you are calculating the stress with vdW-DF, please also cite:
     *
     *   R. Sabatini, E. Kucukbenli, B. Kolb, T. Thonhauser, and
     *   S. de Gironcoli, J. Phys.: Condens. Matter 24, 424209 (2012).
     *

     Carrying out vdW-DF run using the following parameters:

     Nqs =      20    Nr_points =    1024   r_max =   100.000
     q_mesh =
               0.00001000     0.04494208     0.09755937     0.15916263
               0.23128650     0.31572767     0.41458969     0.53033537
               0.66584808     0.82450364     1.01025438     1.22772762
               1.48234092     1.78043706     2.12944203     2.53805004
               3.01644009     3.57652955     4.23227104     5.00000000

     Gradients computed in reciprocal space

     Adding external electric field

     Computed dipole along edir(3) :
        Dipole               -0.0000 Ry au,         -0.0000 Debye
        Dipole field         -0.0000 Ry au

        Potential amp.        0.0000 Ry
        Total length         46.4189 bohr

     Starting wfc are  132 randomized atomic wfcs

     Self-consistent Calculation

     iteration #  1     ecut=    36.75 Ry     beta=0.10
     Davidson diagonalization with overlap
     ethr =  1.00E-02,  avg # of iterations =  8.4

     Threshold (ethr) on eigenvalues was too large:
     Diagonalizing with lowered threshold

     Davidson diagonalization with overlap
     ethr =  1.68E-05,  avg # of iterations = 10.1

[...]

     total energy              =   -3431.16611173 Ry
     Harris-Foulkes estimate   =   -3431.16890579 Ry
     estimated scf accuracy    <       0.02841768 Ry

[...]

     End of self-consistent calculation

          k = 0.0000 0.0000 0.0000 ( 23541 PWs)   bands (ev):

  -126.3757-126.3756-126.2193-126.2193-126.2193-126.2193 -80.5636 -80.5635
   -80.5611 -80.5606 -80.5568 -80.5568 -80.4132 -80.4132 -80.4131 -80.4130
   -80.4024 -80.4024 -80.4019 -80.4019 -80.3984 -80.3984 -80.3984 -80.3983
    -7.8628  -7.7118  -7.6770  -7.6471  -7.6369  -7.6299  -7.5817  -7.5685
    -7.5225  -7.4979  -7.4894  -7.4791  -7.4706  -7.4548  -7.4203  -7.4153
    -7.4024  -7.3905  -7.3745  -7.2967  -7.2900  -7.2852  -7.2216  -7.2193
    -7.2179  -7.2091  -7.1440  -7.1369  -7.1175  -7.0899  -7.0667  -7.0633
    -7.0044  -6.9774  -6.9527  -6.9278  -6.9230  -6.9089  -6.8545  -6.8510
    -6.8342  -6.7671  -6.7449  -6.7097  -6.7036  -6.7003  -6.6991  -6.6955
    -6.6478  -6.6425  -6.6347  -6.6087  -6.6056  -6.5774  -6.5546  -6.5279
    -6.5058  -6.4404  -6.4379  -6.4340  -6.3964  -6.0498  -3.8628  -2.9676
    -2.9363  -2.2474  -2.0538  -2.0467  -1.4440  -0.9456  -0.8993  -0.6642
    -0.6229  -0.4929  -0.3501   0.4988   0.5790   0.6612   1.2613   1.4216
     1.4451   2.1797   2.2342   3.3524   3.7992   4.0420   4.2358   4.3280
     4.6349   4.7071   4.7721   5.2066   5.3440   5.8017   6.2056   6.2611
     6.3043   6.6335   6.7772   6.9678   7.0179   7.4207

[...]

          k =-0.0794 0.0317 0.0000 ( 23554 PWs)   bands (ev):

[...]

     the Fermi energy is    -0.1697 ev

!    total energy              =   -3431.16186047 Ry
     Harris-Foulkes estimate   =   -3431.16185109 Ry
     estimated scf accuracy    <       0.00000044 Ry

     The total energy is the sum of the following terms:

     one-electron contribution =  -16570.62299019 Ry
     hartree contribution      =    8318.27051778 Ry
     xc contribution           =    -502.60169601 Ry
     ewald contribution        =    5323.81330906 Ry
     electric field correction =       0.00000000 Ry
     smearing contrib. (-TS)   =      -0.02100111 Ry

     convergence has been achieved in  10 iterations

 BEEF-vdW xc energy contributions
           1 :   -443.568837719128
           2 :    404.162464246313
           3 :   -337.401434446546
[...]
                l(3) =   1
                l(4) =   1
                l(5) =   2
                l(6) =   2
     Q(r) pseudized with  8 coefficients,  rinner =    1.100   1.100   1.100
                                                       1.100   1.100

     PseudoPot. # 2 for Hg read from file:
     /afs/slac.stanford.edu/u/if/mamunm/psp/gbrv1.5pbe/Hg.UPF
     MD5 check sum: 8f42caffe07f7fd9c0a564347f8c5498
     Pseudo is Ultrasoft + core correction, Zval = 12.0
     Generated by new atomic code, or converted to UPF format
     Using radial grid of  985 points,  6 beta functions with:
                l(1) =   0
                l(2) =   0
                l(3) =   1
                l(4) =   1
                l(5) =   2
                l(6) =   2
     Q(r) pseudized with  8 coefficients,  rinner =    2.000   2.000   2.000
                                                       2.000   2.000

     vdW kernel table read from file vdW_kernel_table
     MD5 check sum: 095c7af220d748ca6e76c0b4c6cfb241

     atomic species   valence    mass     pseudopotential
        Zn1           20.00    65.38000     Zn( 1.00)
        Hg1           12.00   200.59200     Hg( 1.00)

     No symmetry found

   Cartesian axes

     site n.     atom                  positions (alat units)
         1           Zn1 tau(   1) = (   0.0000000   0.0000000  10.0000000  )
         2           Zn1 tau(   2) = (   4.3135929   2.9234771  10.0000000  )
         3           Hg1 tau(   3) = (   3.1474692   0.0000000  10.0000000  )
         4           Hg1 tau(   4) = (   1.1661236   2.9234771  10.0000000  )
         5           Zn1 tau(   5) = (   6.2949385   4.2663064  12.5968304  )
         6           Zn1 tau(   6) = (   1.9813456   1.3428292  12.5968304  )
         7           Hg1 tau(   7) = (   3.1474692   4.2663064  12.5968304  )
         8           Hg1 tau(   8) = (   5.1288149   1.3428292  12.5968304  )
         9           Zn1 tau(   9) = (   3.9399930   2.6701767  15.0844176  )
        10           Zn1 tau(  10) = (   8.2639457   5.6008401  15.0856040  )
        11           Hg1 tau(  11) = (   7.1553619   2.7188828  15.9771293  )
        12           Hg1 tau(  12) = (   5.1763795   5.6387788  15.9772312  )

     number of k points=    20  Fermi-Dirac smearing, width (Ry)=  0.0110
                       cart. coord. in units 2pi/alat
        k(    1) = (   0.0000000   0.0000000   0.0000000), wk =   0.0555556
        k(    2) = (   0.0000000   0.0285049   0.0000000), wk =   0.1111111
        k(    3) = (   0.0000000   0.0570097   0.0000000), wk =   0.1111111
        k(    4) = (   0.0000000  -0.0855146   0.0000000), wk =   0.0555556
        k(    5) = (   0.0264763  -0.0105609   0.0000000), wk =   0.1111111
        k(    6) = (   0.0264763   0.0179439   0.0000000), wk =   0.1111111
        k(    7) = (   0.0264763   0.0464488   0.0000000), wk =   0.1111111
        k(    8) = (   0.0264763  -0.0960755   0.0000000), wk =   0.1111111
        k(    9) = (   0.0264763  -0.0675707   0.0000000), wk =   0.1111111
        k(   10) = (   0.0264763  -0.0390658   0.0000000), wk =   0.1111111
        k(   11) = (   0.0529526  -0.0211219   0.0000000), wk =   0.1111111
        k(   12) = (   0.0529526   0.0073830   0.0000000), wk =   0.1111111
        k(   13) = (   0.0529526   0.0358879   0.0000000), wk =   0.1111111
        k(   14) = (   0.0529526  -0.1066365   0.0000000), wk =   0.1111111
        k(   15) = (   0.0529526  -0.0781316   0.0000000), wk =   0.1111111
        k(   16) = (   0.0529526  -0.0496267   0.0000000), wk =   0.1111111
        k(   17) = (  -0.0794289   0.0316828   0.0000000), wk =   0.0555556
        k(   18) = (  -0.0794289   0.0601877   0.0000000), wk =   0.1111111
        k(   19) = (  -0.0794289   0.0886925   0.0000000), wk =   0.1111111
        k(   20) = (  -0.0794289  -0.0538318   0.0000000), wk =   0.0555556

     Largest allocated arrays     est. size (Mb)     dimensions
     Largest temporary arrays     est. size (Mb)     dimensions

     Initial potential from superposition of free atoms
     Check: negative starting charge=   -0.000667

     starting charge  191.99880, renormalised to  192.00000

[...]

     *
     * You are using vdW-DF for exchange-correlation in this calculation.
     * Please cite the following three references that made this development
     * possible:
     *
     *   M. Dion, H. Rydberg, E. Schroder, D. C. Langreth, and
     *   B. I. Lundqvist, Phys. Rev. Lett. 92, 246401 (2004).
     *
     *   T. Thonhauser, V. R. Cooper, S. Li, A. Puzder, P. Hyldgaard, and
     *   D. C. Langreth, Phys. Rev. B 76, 125112 (2007).
     *
     *   G. Roman-Perez and J. M. Soler, Phys. Rev. Lett. 103, 096102 (2009).
     *
     *
     * If you are using vdW-DF2, please also cite:
     *
     *   K. Lee, E. D. Murray, L. Kong, B. I. Lundqvist, and
     *   D. C. Langreth, Phys. Rev. B 82, 081101(R) (2010).
     *
     *
     * If you are calculating the stress with vdW-DF, please also cite:
     *
     *   R. Sabatini, E. Kucukbenli, B. Kolb, T. Thonhauser, and
     *   S. de Gironcoli, J. Phys.: Condens. Matter 24, 424209 (2012).
     *

     Carrying out vdW-DF run using the following parameters:

     Nqs =      20    Nr_points =    1024   r_max =   100.000
     q_mesh =
               0.00001000     0.04494208     0.09755937     0.15916263
               0.23128650     0.31572767     0.41458969     0.53033537
               0.66584808     0.82450364     1.01025438     1.22772762
               1.48234092     1.78043706     2.12944203     2.53805004
               3.01644009     3.57652955     4.23227104     5.00000000

     Gradients computed in reciprocal space

[...]

     Starting wfc are  132 randomized atomic wfcs

     Self-consistent Calculation

[...]

     Threshold (ethr) on eigenvalues was too large:
     Diagonalizing with lowered threshold

     Davidson diagonalization with overlap
     ethr =  1.71E-05,  avg # of iterations =  9.8

[...]

     total energy              =   -3431.16815599 Ry
     Harris-Foulkes estimate   =   -3431.16815278 Ry
     estimated scf accuracy    <       0.00000287 Ry

     iteration # 10     ecut=    36.75 Ry     beta=0.10
     Davidson diagonalization with overlap
     ethr =  1.50E-09,  avg # of iterations =  2.0

[...]

     negative rho (up, down):  7.759E-04 0.000E+00

     Adding external electric field

     Computed dipole along edir(3) :
        Dipole               -0.0095 Ry au,         -0.0241 Debye
        Dipole field         -0.0000 Ry au

        Potential amp.        0.0018 Ry
        Total length         46.4189 bohr

     End of self-consistent calculation

[...]

          k = 0.0530-0.0496 0.0000 ( 23564 PWs)   bands (ev):

[...]

          k =-0.0794-0.0538 0.0000 ( 23396 PWs)   bands (ev):

  -126.2901-126.2896-126.2156-126.2155-126.1984-126.1979 -80.4819 -80.4815
   -80.4732 -80.4726 -80.4690 -80.4684 -80.4088 -80.4086 -80.3985 -80.3981
   -80.3953 -80.3951 -80.3872 -80.3867 -80.3819 -80.3816 -80.3813 -80.3811
    -7.5299  -7.5167  -7.4162  -7.3670  -7.3544  -7.3508  -7.3316  -7.3153
    -7.3064  -7.2900  -7.2837  -7.2606  -7.2596  -7.2512  -7.2493  -7.2178
    -7.1852  -7.1740  -7.1714  -7.1663  -7.1614  -7.1505  -7.1241  -7.1219
    -7.1066  -7.0900  -7.0775  -7.0769  -7.0760  -7.0645  -7.0611  -7.0486
    -7.0155  -7.0090  -6.9802  -6.9731  -6.9725  -6.9679  -6.9453  -6.9095
    -6.8728  -6.8699  -6.8652  -6.8618  -6.8459  -6.7316  -6.6992  -6.6546
    -6.6418  -6.6293  -6.6095  -6.5859  -6.5813  -6.5170  -6.5057  -6.4636
    -6.4481  -6.4074  -6.3647  -6.2822  -5.9138  -5.6950  -4.5780  -4.2081
    -4.0932  -3.8198  -2.8994  -2.8565  -2.3789  -2.3053  -1.7187  -0.9747
     0.9457   1.0585   1.6212   1.9327   2.3520   2.8266   2.9895   3.0676
     3.2054   3.4412   3.5521   4.0302   4.3754   4.4327   4.5419   4.6135
     4.6411   4.9955   5.0951   5.1579   5.3684   5.4236   5.7833   5.8462
     5.8883   6.0951   6.1006   6.1438   6.2421   6.4491

     the Fermi energy is    -0.1432 ev

!    total energy              =   -3431.16816744 Ry
     Harris-Foulkes estimate   =   -3431.16815647 Ry
     estimated scf accuracy    <       0.00000058 Ry

     The total energy is the sum of the following terms:

     one-electron contribution =  -16067.74139235 Ry
     hartree contribution      =    8067.20071837 Ry
     xc contribution           =    -502.51891843 Ry
     ewald contribution        =    5071.90944743 Ry
     electric field correction =       0.00000018 Ry
     smearing contrib. (-TS)   =      -0.01802264 Ry

     convergence has been achieved in  10 iterations

 BEEF-vdW xc energy contributions
           1 :   -443.453803324573
           2 :    403.875693810855
           3 :   -336.944338585149
           4 :    261.163550311241
           5 :   -193.266653703162
           6 :    142.329745865215
           7 :   -108.477939860528
           8 :    85.9457600955283
           9 :   -68.0535449991233
          10 :    51.0478657919728
          11 :   -34.9892750896097
          12 :    21.9641252528618
          13 :   -13.4727287466429
          14 :    8.95870020708713
          15 :   -6.25756816419903
          16 :    3.24100238775333
          17 :   0.781974311210149
          18 :   -4.91363983374504
          19 :    7.68662189055669
          20 :   -8.33664854823030
          21 :    7.36335981932916
          22 :   -6.07452118040771
          23 :    5.59504650480676
          24 :   -6.15247668564803
          25 :    7.12563949972309
          26 :   -7.69838629152093
          27 :    7.52252398392557
          28 :   -6.87998628880194
          29 :    6.30404624157524
          30 :   -6.06121695719543
          31 :   -37.5496204109375
          32 :   -26.3873689804216

     Forces acting on atoms (Ry/au):

     negative rho (up, down):  7.759E-04 0.000E+00
     atom    1 type  1   force =    -0.00009213   -0.00006229   -0.00002256
     atom    2 type  1   force =    -0.00010231   -0.00007003   -0.00001509
     atom    3 type  2   force =    -0.00052660   -0.00033279   -0.00741015
     atom    4 type  2   force =    -0.00050408   -0.00036592   -0.00741049
     atom    5 type  1   force =    -0.00067382   -0.00045563    0.00489490
     atom    6 type  1   force =    -0.00085687   -0.00058196    0.00490583
     atom    7 type  2   force =     0.00198665    0.00133934    0.00388613
     atom    8 type  2   force =     0.00197894    0.00134892    0.00388199
     atom    9 type  1   force =     0.00082391    0.00056126   -0.00081688
     atom   10 type  1   force =     0.00096839    0.00065279   -0.00080842
     atom   11 type  2   force =    -0.00150119   -0.00101547   -0.00054299
     atom   12 type  2   force =    -0.00150089   -0.00101822   -0.00054226

     Total force =     0.014590     Total SCF correction =     0.002658
     SCF correction compared to forces is large: reduce conv_thr to get better values

     entering subroutine stress ...

     negative rho (up, down):  7.759E-04 0.000E+00
          total   stress  (Ry/bohr**3)                   (kbar)     P=   -2.91
  -0.00003123  -0.00001517  -0.00000059         -4.59     -2.23     -0.09
  -0.00001517  -0.00001913  -0.00000040         -2.23     -2.81     -0.06
  -0.00000059  -0.00000040  -0.00000908         -0.09     -0.06     -1.34

 !ASE

     Writing output data file calc.save

     General routines

     Parallel routines

   This run was terminated on:   6:52:59  25Dec2018

   JOB DONE.
Job  /afs/slac/g/suncat/bin/suncat-tsmpirun -x LD_LIBRARY_PATH -wdir /scratch/qe109213_6jQiM pw.x -in pw.inp

TID   HOST_NAME   COMMAND_LINE            STATUS            TERMINATION_TIME
00000 suncat0081 pw.x -in pw.inp   Done                     12/25/2018 06:52:59
00001 suncat0081 pw.x -in pw.inp   Done                     12/25/2018 06:52:59
00002 suncat0081 pw.x -in pw.inp   Done                     12/25/2018 06:52:59
00003 suncat0081 pw.x -in pw.inp   Done                     12/25/2018 06:52:59
00004 suncat0081 pw.x -in pw.inp   Done                     12/25/2018 06:52:59
00005 suncat0081 pw.x -in pw.inp   Done                     12/25/2018 06:52:59
00006 suncat0081 pw.x -in pw.inp   Done                     12/25/2018 06:52:59
00007 suncat0081 pw.x -in pw.inp   Done                     12/25/2018 06:52:59
00008 suncat0080 pw.x -in pw.inp   Done                     12/25/2018 06:52:59
00009 suncat0080 pw.x -in pw.inp   Done                     12/25/2018 06:52:59
00010 suncat0080 pw.x -in pw.inp   Done                     12/25/2018 06:52:59
00011 suncat0080 pw.x -in pw.inp   Done                     12/25/2018 06:52:59
00012 suncat0080 pw.x -in pw.inp   Done                     12/25/2018 06:52:59
00013 suncat0080 pw.x -in pw.inp   Done                     12/25/2018 06:52:59
00014 suncat0080 pw.x -in pw.inp   Done                     12/25/2018 06:52:59
00015 suncat0080 pw.x -in pw.inp   Done                     12/25/2018 06:52:59
00016 suncat0172 pw.x -in pw.inp   Done                     12/25/2018 06:52:59
00017 suncat0172 pw.x -in pw.inp   Done                     12/25/2018 06:52:59
00018 suncat0172 pw.x -in pw.inp   Done                     12/25/2018 06:52:59
00019 suncat0172 pw.x -in pw.inp   Done                     12/25/2018 06:52:59
00020 suncat0172 pw.x -in pw.inp   Done                     12/25/2018 06:52:59
00021 suncat0172 pw.x -in pw.inp   Done                     12/25/2018 06:52:59
00022 suncat0172 pw.x -in pw.inp   Done                     12/25/2018 06:52:59
00023 suncat0172 pw.x -in pw.inp   Done                     12/25/2018 06:52:59
00024 suncat0171 pw.x -in pw.inp   Done                     12/25/2018 06:52:59
00025 suncat0171 pw.x -in pw.inp   Done                     12/25/2018 06:52:59
00026 suncat0171 pw.x -in pw.inp   Done                     12/25/2018 06:52:59
00027 suncat0171 pw.x -in pw.inp   Done                     12/25/2018 06:52:59
00028 suncat0171 pw.x -in pw.inp   Done                     12/25/2018 06:52:59
00029 suncat0171 pw.x -in pw.inp   Done                     12/25/2018 06:52:59
00030 suncat0171 pw.x -in pw.inp   Done                     12/25/2018 06:52:59
00031 suncat0171 pw.x -in pw.inp   Done                     12/25/2018 06:52:59
00032 suncat0270 pw.x -in pw.inp   Done                     12/25/2018 06:52:59
00033 suncat0270 pw.x -in pw.inp   Done                     12/25/2018 06:52:59
00034 suncat0270 pw.x -in pw.inp   Done                     12/25/2018 06:52:59
00035 suncat0270 pw.x -in pw.inp   Done                     12/25/2018 06:52:59
00036 suncat0270 pw.x -in pw.inp   Done                     12/25/2018 06:52:59
00037 suncat0270 pw.x -in pw.inp   Done                     12/25/2018 06:52:59
00038 suncat0270 pw.x -in pw.inp   Done                     12/25/2018 06:52:59
00039 suncat0270 pw.x -in pw.inp   Done                     12/25/2018 06:52:59
00040 suncat0268 pw.x -in pw.inp   Done                     12/25/2018 06:52:59
00041 suncat0268 pw.x -in pw.inp   Done                     12/25/2018 06:52:59
00042 suncat0268 pw.x -in pw.inp   Done                     12/25/2018 06:52:59
00043 suncat0268 pw.x -in pw.inp   Done                     12/25/2018 06:52:59
00044 suncat0268 pw.x -in pw.inp   Done                     12/25/2018 06:52:59
00045 suncat0268 pw.x -in pw.inp   Done                     12/25/2018 06:52:59
00046 suncat0268 pw.x -in pw.inp   Done                     12/25/2018 06:52:59
00047 suncat0268 pw.x -in pw.inp   Done                     12/25/2018 06:52:59
00048 suncat0207 pw.x -in pw.inp   Done                     12/25/2018 06:52:59
00049 suncat0207 pw.x -in pw.inp   Done                     12/25/2018 06:52:59
00050 suncat0207 pw.x -in pw.inp   Done                     12/25/2018 06:52:59
00051 suncat0207 pw.x -in pw.inp   Done                     12/25/2018 06:52:59
00052 suncat0207 pw.x -in pw.inp   Done                     12/25/2018 06:52:59
00053 suncat0207 pw.x -in pw.inp   Done                     12/25/2018 06:52:59
00054 suncat0207 pw.x -in pw.inp   Done                     12/25/2018 06:52:59
00055 suncat0207 pw.x -in pw.inp   Done                     12/25/2018 06:52:59
00056 suncat0206 pw.x -in pw.inp   Done                     12/25/2018 06:52:59
00057 suncat0206 pw.x -in pw.inp   Done                     12/25/2018 06:52:59
00058 suncat0206 pw.x -in pw.inp   Done                     12/25/2018 06:52:59
00059 suncat0206 pw.x -in pw.inp   Done                     12/25/2018 06:52:59
00060 suncat0206 pw.x -in pw.inp   Done                     12/25/2018 06:52:59
00061 suncat0206 pw.x -in pw.inp   Done                     12/25/2018 06:52:59
00062 suncat0206 pw.x -in pw.inp   Done                     12/25/2018 06:52:59
00063 suncat0206 pw.x -in pw.inp   Done                     12/25/2018 06:52:59