     Program PWSCF v.5.1rc2 (svn rev. 11289) starts on 18Dec2018 at 16:52: 4

     Current dimensions of program PWSCF are:
     Max number of different atomic species (ntypx) = 10
     Max number of k-points (npk) =  40000
     Max angular momentum in pseudopotentials (lmaxx) =  3
     Presently stress not available with electric field

     IMPORTANT: XC functional enforced from input :
     Exchange-correlation      = BEEF-VDW ( 1  4 27 13 2)
     Any further DFT definition will be discarded
     Please, verify this is what you really want

     Subspace diagonalization in iterative solution of the eigenvalue problem:
     a serial algorithm will be used

     Found symmetry operation: I + ( -0.5000  0.5000  0.0000)
     This is a supercell, fractional translations are disabled

     Generating pointlists ...
     new r_m :   0.4125 (alat units)  0.7795 (a.u.) for type    1
     new r_m :   0.4125 (alat units)  0.7795 (a.u.) for type    2

     bravais-lattice index     =            0
     lattice parameter (alat)  =       1.8897  a.u.
     unit-cell volume          =    4356.4421 (a.u.)^3
     number of atoms/cell      =           12
     number of atomic types    =            2
     number of electrons       =       168.00
     number of Kohn-Sham states=          114
     kinetic-energy cutoff     =      36.7493  Ry
     charge density cutoff     =     367.4932  Ry
     convergence threshold     =      1.0E-06
     mixing beta               =       0.1000
     number of iterations used =           10  plain     mixing
     Exchange-correlation      = BEEF-VDW ( 1  4 27 13 2)
     nstep                     =           50

     celldm(1)=   1.889726  celldm(2)=   0.000000  celldm(3)=   0.000000
     celldm(4)=   0.000000  celldm(5)=   0.000000  celldm(6)=   0.000000

     crystal axes: (cart. coord. in units of alat)
               a(1) = (   5.305001   0.000000   0.000000 )
               a(2) = (   1.769462   5.001204   0.000000 )
               a(3) = (   0.000000   0.000000  24.331860 )

     reciprocal axes: (cart. coord. in units 2 pi/alat)
               b(1) = (  0.188501 -0.066693  0.000000 )
               b(2) = (  0.000000  0.199952  0.000000 )
               b(3) = (  0.000000  0.000000  0.041098 )

     PseudoPot. # 1 for Mn read from file:
     /afs/slac.stanford.edu/u/if/mamunm/psp/gbrv1.5pbe/Mn.UPF
     MD5 check sum: 82ef2b46521d7a7d9e736dc3972e4928
     Pseudo is Ultrasoft + core correction, Zval = 15.0
     Generated by new atomic code, or converted to UPF format
     Using radial grid of  859 points,  6 beta functions with:
                l(1) =   0
                l(2) =   0
                l(3) =   1
                l(4) =   1
                l(5) =   2
                l(6) =   2
     Q(r) pseudized with  8 coefficients,  rinner =    0.950   0.950   0.950
                                                       0.950   0.950

     PseudoPot. # 2 for Ta read from file:
     /afs/slac.stanford.edu/u/if/mamunm/psp/gbrv1.5pbe/Ta.UPF
     MD5 check sum: f8bbe9446314a3b8ea5d9f3e3836c939
     Pseudo is Ultrasoft + core correction, Zval = 13.0
     Generated by new atomic code, or converted to UPF format
     Using radial grid of  921 points,  7 beta functions with:
                l(1) =   0
                l(2) =   0
                l(3) =   1
                l(4) =   1
                l(5) =   2
                l(6) =   2
                l(7) =   3
     Q(r) pseudized with  6 coefficients,  rinner =    1.300   1.300   1.300
                                                       1.300   1.300   1.300
                                                       1.300

     vdW kernel table read from file vdW_kernel_table
     MD5 check sum: 095c7af220d748ca6e76c0b4c6cfb241

     atomic species   valence    mass     pseudopotential
        Mn1           15.00    54.93804     Mn( 1.00)
        Ta1           13.00   180.94788     Ta( 1.00)

     Starting magnetic structure
     atomic species   magnetization
        Mn1          0.133
        Ta1          0.154

     No symmetry found

   Cartesian axes

     site n.     atom                  positions (alat units)
         1           Mn1 tau(   1) = (   0.0000000   0.0000000  10.0000000  )
         2           Mn1 tau(   2) = (   3.5372315   2.5006020  10.0000000  )
         3           Ta1 tau(   3) = (   2.6525005   0.0000000  10.0000000  )
         4           Ta1 tau(   4) = (   0.8847309   2.5006020  10.0000000  )
         5           Mn1 tau(   5) = (   5.3050010   3.7503048  12.1659301  )
         6           Mn1 tau(   6) = (   1.7677696   1.2497028  12.1659301  )
         7           Ta1 tau(   7) = (   2.6525005   3.7503048  12.1659301  )
         8           Ta1 tau(   8) = (   4.4202701   1.2497028  12.1659301  )
         9           Mn1 tau(   9) = (   3.5355392   2.4994056  14.3318601  )
        10           Mn1 tau(  10) = (   7.0727706   5.0000076  14.3318601  )
        11           Ta1 tau(  11) = (   6.1880397   2.4994056  14.3318601  )
        12           Ta1 tau(  12) = (   4.4202701   5.0000076  14.3318601  )

     number of k points=    40  Fermi-Dirac smearing, width (Ry)=  0.0110
                       cart. coord. in units 2pi/alat
        k(    1) = (   0.0000000   0.0000000   0.0000000), wk =   0.0277778
        k(    2) = (   0.0000000   0.0333253   0.0000000), wk =   0.0555556
        k(    3) = (   0.0000000   0.0666506   0.0000000), wk =   0.0555556
        k(    4) = (   0.0000000  -0.0999759   0.0000000), wk =   0.0277778
        k(    5) = (   0.0314169  -0.0111155   0.0000000), wk =   0.0555556
        k(    6) = (   0.0314169   0.0222098   0.0000000), wk =   0.0555556
        k(    7) = (   0.0314169   0.0555351   0.0000000), wk =   0.0555556
        k(    8) = (   0.0314169  -0.1110915   0.0000000), wk =   0.0555556
        k(    9) = (   0.0314169  -0.0777661   0.0000000), wk =   0.0555556
        k(   10) = (   0.0314169  -0.0444408   0.0000000), wk =   0.0555556
        k(   11) = (   0.0628338  -0.0222310   0.0000000), wk =   0.0555556
        k(   12) = (   0.0628338   0.0110943   0.0000000), wk =   0.0555556
        k(   13) = (   0.0628338   0.0444196   0.0000000), wk =   0.0555556
        k(   14) = (   0.0628338  -0.1222070   0.0000000), wk =   0.0555556
        k(   15) = (   0.0628338  -0.0888817   0.0000000), wk =   0.0555556
        k(   16) = (   0.0628338  -0.0555564   0.0000000), wk =   0.0555556
        k(   17) = (  -0.0942507   0.0333466   0.0000000), wk =   0.0277778
        k(   18) = (  -0.0942507   0.0666719   0.0000000), wk =   0.0555556
        k(   19) = (  -0.0942507   0.0999972   0.0000000), wk =   0.0555556
        k(   20) = (  -0.0942507  -0.0666294   0.0000000), wk =   0.0277778
        k(   21) = (   0.0000000   0.0000000   0.0000000), wk =   0.0277778
        k(   22) = (   0.0000000   0.0333253   0.0000000), wk =   0.0555556
        k(   23) = (   0.0000000   0.0666506   0.0000000), wk =   0.0555556
        k(   24) = (   0.0000000  -0.0999759   0.0000000), wk =   0.0277778
        k(   25) = (   0.0314169  -0.0111155   0.0000000), wk =   0.0555556
        k(   26) = (   0.0314169   0.0222098   0.0000000), wk =   0.0555556
        k(   27) = (   0.0314169   0.0555351   0.0000000), wk =   0.0555556
        k(   28) = (   0.0314169  -0.1110915   0.0000000), wk =   0.0555556
        k(   29) = (   0.0314169  -0.0777661   0.0000000), wk =   0.0555556
        k(   30) = (   0.0314169  -0.0444408   0.0000000), wk =   0.0555556
        k(   31) = (   0.0628338  -0.0222310   0.0000000), wk =   0.0555556
        k(   32) = (   0.0628338   0.0110943   0.0000000), wk =   0.0555556
        k(   33) = (   0.0628338   0.0444196   0.0000000), wk =   0.0555556
        k(   34) = (   0.0628338  -0.1222070   0.0000000), wk =   0.0555556
        k(   35) = (   0.0628338  -0.0888817   0.0000000), wk =   0.0555556
        k(   36) = (   0.0628338  -0.0555564   0.0000000), wk =   0.0555556
        k(   37) = (  -0.0942507   0.0333466   0.0000000), wk =   0.0277778
        k(   38) = (  -0.0942507   0.0666719   0.0000000), wk =   0.0555556
        k(   39) = (  -0.0942507   0.0999972   0.0000000), wk =   0.0555556
        k(   40) = (  -0.0942507  -0.0666294   0.0000000), wk =   0.0277778

     Largest allocated arrays     est. size (Mb)     dimensions
     Largest temporary arrays     est. size (Mb)     dimensions

     Check: negative/imaginary core charge=   -0.000004    0.000000

     Initial potential from superposition of free atoms
     Check: negative starting charge=(component1):   -0.329299
     Check: negative starting charge=(component2):   -0.241451

     starting charge  164.99282, renormalised to  168.00000

     negative rho (up, down):  3.353E-01 2.459E-01

     *
     * You are using vdW-DF for exchange-correlation in this calculation.
     * Please cite the following three references that made this development
     * possible:
     *
     *   M. Dion, H. Rydberg, E. Schroder, D. C. Langreth, and
     *   B. I. Lundqvist, Phys. Rev. Lett. 92, 246401 (2004).
     *
     *   T. Thonhauser, V. R. Cooper, S. Li, A. Puzder, P. Hyldgaard, and
     *   D. C. Langreth, Phys. Rev. B 76, 125112 (2007).
     *
     *   G. Roman-Perez and J. M. Soler, Phys. Rev. Lett. 103, 096102 (2009).
     *
     *
     * If you are using vdW-DF2, please also cite:
     *
     *   K. Lee, E. D. Murray, L. Kong, B. I. Lundqvist, and
     *   D. C. Langreth, Phys. Rev. B 82, 081101(R) (2010).
     *
     *
     * If you are calculating the stress with vdW-DF, please also cite:
     *
     *   R. Sabatini, E. Kucukbenli, B. Kolb, T. Thonhauser, and
     *   S. de Gironcoli, J. Phys.: Condens. Matter 24, 424209 (2012).
     *

     Carrying out vdW-DF run using the following parameters:

     Nqs =      20    Nr_points =    1024   r_max =   100.000
     q_mesh =
               0.00001000     0.04494208     0.09755937     0.15916263
               0.23128650     0.31572767     0.41458969     0.53033537
               0.66584808     0.82450364     1.01025438     1.22772762
               1.48234092     1.78043706     2.12944203     2.53805004
               3.01644009     3.57652955     4.23227104     5.00000000

     Gradients computed in reciprocal space

     Adding external electric field

     Computed dipole along edir(3) :
        Dipole                0.0000 Ry au,          0.0000 Debye
        Dipole field          0.0000 Ry au

        Potential amp.       -0.0000 Ry
        Total length         44.8310 bohr

[...]

     Starting wfc are  156 randomized atomic wfcs

     Self-consistent Calculation

     iteration #  1     ecut=    36.75 Ry     beta=0.10
     Davidson diagonalization with overlap
     ethr =  1.00E-02,  avg # of iterations =  2.0

[...]

     Magnetic moment per site:
     atom:    1    charge:    6.0383    magn:    0.7891    constr:    0.0000
     atom:    2    charge:    6.0383    magn:    0.7891    constr:    0.0000
     atom:    3    charge:    1.3711    magn:    0.1909    constr:    0.0000
     atom:    4    charge:    1.3711    magn:    0.1909    constr:    0.0000
     atom:    5    charge:    6.0650    magn:    0.7784    constr:    0.0000
[...]
     /afs/slac.stanford.edu/u/if/mamunm/psp/gbrv1.5pbe/Ta.UPF
     MD5 check sum: f8bbe9446314a3b8ea5d9f3e3836c939
     Pseudo is Ultrasoft + core correction, Zval = 13.0
     Generated by new atomic code, or converted to UPF format
     Using radial grid of  921 points,  7 beta functions with:
                l(1) =   0
                l(2) =   0
                l(3) =   1
                l(4) =   1
                l(5) =   2
                l(6) =   2
                l(7) =   3
     Q(r) pseudized with  6 coefficients,  rinner =    1.300   1.300   1.300
                                                       1.300   1.300   1.300
                                                       1.300

     vdW kernel table read from file vdW_kernel_table
     MD5 check sum: 095c7af220d748ca6e76c0b4c6cfb241

     atomic species   valence    mass     pseudopotential
        Mn1           15.00    54.93804     Mn( 1.00)
        Ta1           13.00   180.94788     Ta( 1.00)

     Starting magnetic structure
     atomic species   magnetization
        Mn1          0.133
        Ta1          0.154

     No symmetry found

   Cartesian axes

     site n.     atom                  positions (alat units)
         1           Mn1 tau(   1) = (   0.0000000   0.0000000  10.0000000  )
         2           Mn1 tau(   2) = (   3.5372315   2.5006020  10.0000000  )
         3           Ta1 tau(   3) = (   2.6525005   0.0000000  10.0000000  )
         4           Ta1 tau(   4) = (   0.8847309   2.5006020  10.0000000  )
         5           Mn1 tau(   5) = (   5.3050010   3.7503048  12.1659301  )
         6           Mn1 tau(   6) = (   1.7677696   1.2497028  12.1659301  )
         7           Ta1 tau(   7) = (   2.6525005   3.7503048  12.1659301  )
         8           Ta1 tau(   8) = (   4.4202701   1.2497028  12.1659301  )
         9           Mn1 tau(   9) = (   3.5360214   2.4997462  14.2083174  )
        10           Mn1 tau(  10) = (   7.0732128   5.0003197  14.2083184  )
        11           Ta1 tau(  11) = (   6.1886736   2.4998153  14.3603906  )
        12           Ta1 tau(  12) = (   4.4208682   5.0004680  14.3603893  )

     number of k points=    40  Fermi-Dirac smearing, width (Ry)=  0.0110
                       cart. coord. in units 2pi/alat
        k(    1) = (   0.0000000   0.0000000   0.0000000), wk =   0.0277778
        k(    2) = (   0.0000000   0.0333253   0.0000000), wk =   0.0555556
        k(    3) = (   0.0000000   0.0666506   0.0000000), wk =   0.0555556
        k(    4) = (   0.0000000  -0.0999759   0.0000000), wk =   0.0277778
        k(    5) = (   0.0314169  -0.0111155   0.0000000), wk =   0.0555556
        k(    6) = (   0.0314169   0.0222098   0.0000000), wk =   0.0555556
        k(    7) = (   0.0314169   0.0555351   0.0000000), wk =   0.0555556
        k(    8) = (   0.0314169  -0.1110915   0.0000000), wk =   0.0555556
        k(    9) = (   0.0314169  -0.0777661   0.0000000), wk =   0.0555556
        k(   10) = (   0.0314169  -0.0444408   0.0000000), wk =   0.0555556
        k(   11) = (   0.0628338  -0.0222310   0.0000000), wk =   0.0555556
        k(   12) = (   0.0628338   0.0110943   0.0000000), wk =   0.0555556
        k(   13) = (   0.0628338   0.0444196   0.0000000), wk =   0.0555556
        k(   14) = (   0.0628338  -0.1222070   0.0000000), wk =   0.0555556
        k(   15) = (   0.0628338  -0.0888817   0.0000000), wk =   0.0555556
        k(   16) = (   0.0628338  -0.0555564   0.0000000), wk =   0.0555556
        k(   17) = (  -0.0942507   0.0333466   0.0000000), wk =   0.0277778
        k(   18) = (  -0.0942507   0.0666719   0.0000000), wk =   0.0555556
        k(   19) = (  -0.0942507   0.0999972   0.0000000), wk =   0.0555556
        k(   20) = (  -0.0942507  -0.0666294   0.0000000), wk =   0.0277778
        k(   21) = (   0.0000000   0.0000000   0.0000000), wk =   0.0277778
        k(   22) = (   0.0000000   0.0333253   0.0000000), wk =   0.0555556
        k(   23) = (   0.0000000   0.0666506   0.0000000), wk =   0.0555556
        k(   24) = (   0.0000000  -0.0999759   0.0000000), wk =   0.0277778
        k(   25) = (   0.0314169  -0.0111155   0.0000000), wk =   0.0555556
        k(   26) = (   0.0314169   0.0222098   0.0000000), wk =   0.0555556
        k(   27) = (   0.0314169   0.0555351   0.0000000), wk =   0.0555556
        k(   28) = (   0.0314169  -0.1110915   0.0000000), wk =   0.0555556
        k(   29) = (   0.0314169  -0.0777661   0.0000000), wk =   0.0555556
        k(   30) = (   0.0314169  -0.0444408   0.0000000), wk =   0.0555556
        k(   31) = (   0.0628338  -0.0222310   0.0000000), wk =   0.0555556
        k(   32) = (   0.0628338   0.0110943   0.0000000), wk =   0.0555556
        k(   33) = (   0.0628338   0.0444196   0.0000000), wk =   0.0555556
        k(   34) = (   0.0628338  -0.1222070   0.0000000), wk =   0.0555556
        k(   35) = (   0.0628338  -0.0888817   0.0000000), wk =   0.0555556
        k(   36) = (   0.0628338  -0.0555564   0.0000000), wk =   0.0555556
        k(   37) = (  -0.0942507   0.0333466   0.0000000), wk =   0.0277778
        k(   38) = (  -0.0942507   0.0666719   0.0000000), wk =   0.0555556
        k(   39) = (  -0.0942507   0.0999972   0.0000000), wk =   0.0555556
        k(   40) = (  -0.0942507  -0.0666294   0.0000000), wk =   0.0277778

     Largest allocated arrays     est. size (Mb)     dimensions
     Largest temporary arrays     est. size (Mb)     dimensions

     Check: negative/imaginary core charge=   -0.000004    0.000000

     Initial potential from superposition of free atoms
     Check: negative starting charge=(component1):   -0.330031
     Check: negative starting charge=(component2):   -0.241989

     starting charge  164.99282, renormalised to  168.00000

[...]

     *
     * You are using vdW-DF for exchange-correlation in this calculation.
     * Please cite the following three references that made this development
     * possible:
     *
     *   M. Dion, H. Rydberg, E. Schroder, D. C. Langreth, and
     *   B. I. Lundqvist, Phys. Rev. Lett. 92, 246401 (2004).
     *
     *   T. Thonhauser, V. R. Cooper, S. Li, A. Puzder, P. Hyldgaard, and
     *   D. C. Langreth, Phys. Rev. B 76, 125112 (2007).
     *
     *   G. Roman-Perez and J. M. Soler, Phys. Rev. Lett. 103, 096102 (2009).
     *
     *
     * If you are using vdW-DF2, please also cite:
     *
     *   K. Lee, E. D. Murray, L. Kong, B. I. Lundqvist, and
     *   D. C. Langreth, Phys. Rev. B 82, 081101(R) (2010).
     *
     *
     * If you are calculating the stress with vdW-DF, please also cite:
     *
     *   R. Sabatini, E. Kucukbenli, B. Kolb, T. Thonhauser, and
     *   S. de Gironcoli, J. Phys.: Condens. Matter 24, 424209 (2012).
     *

     Carrying out vdW-DF run using the following parameters:

     Nqs =      20    Nr_points =    1024   r_max =   100.000
     q_mesh =
               0.00001000     0.04494208     0.09755937     0.15916263
               0.23128650     0.31572767     0.41458969     0.53033537
               0.66584808     0.82450364     1.01025438     1.22772762
               1.48234092     1.78043706     2.12944203     2.53805004
               3.01644009     3.57652955     4.23227104     5.00000000

     Gradients computed in reciprocal space

[...]

     Starting wfc are  156 randomized atomic wfcs

     Self-consistent Calculation

[...]

     iteration # 10     ecut=    36.75 Ry     beta=0.10
     Davidson diagonalization with overlap
     c_bands:  1 eigenvalues not converged
     ethr =  1.21E-05,  avg # of iterations =  4.7

[...]

     total energy              =   -2131.98717609 Ry
     Harris-Foulkes estimate   =   -2131.98717429 Ry
     estimated scf accuracy    <       0.00000104 Ry

[...]

     iteration # 35     ecut=    36.75 Ry     beta=0.10
     Davidson diagonalization with overlap
     ethr =  6.22E-10,  avg # of iterations =  1.8

[...]

     negative rho (up, down):  3.002E-01 2.998E-01

[...]

     Adding external electric field

     Computed dipole along edir(3) :
        Dipole                0.0259 Ry au,          0.0659 Debye
        Dipole field          0.0001 Ry au

        Potential amp.       -0.0067 Ry
        Total length         44.8310 bohr

     Magnetic moment per site:
     atom:    1    charge:    5.9830    magn:    0.7773    constr:    0.0000
     atom:    2    charge:    5.9831    magn:    0.7773    constr:    0.0000
     atom:    3    charge:    1.3572    magn:   -0.0124    constr:    0.0000
     atom:    4    charge:    1.3572    magn:   -0.0124    constr:    0.0000
     atom:    5    charge:    5.9798    magn:    0.1839    constr:    0.0000
     atom:    6    charge:    5.9797    magn:    0.1839    constr:    0.0000
     atom:    7    charge:    1.3701    magn:   -0.0095    constr:    0.0000
     atom:    8    charge:    1.3701    magn:   -0.0095    constr:    0.0000
     atom:    9    charge:    5.9863    magn:    0.5575    constr:    0.0000
     atom:   10    charge:    5.9865    magn:    0.5574    constr:    0.0000
     atom:   11    charge:    1.3643    magn:   -0.0094    constr:    0.0000
     atom:   12    charge:    1.3643    magn:   -0.0094    constr:    0.0000

     End of self-consistent calculation

 ------ SPIN UP ------------

[...]

 ------ SPIN DOWN ----------

[...]

          k = 0.0628-0.0556 0.0000 ( 16383 PWs)   bands (ev):

[...]

          k =-0.0943-0.0666 0.0000 ( 16352 PWs)   bands (ev):

   -77.2773 -77.2738 -76.4408 -76.4371 -76.1588 -76.1552 -66.8115 -66.7920
   -66.7824 -66.7628 -66.4747 -66.4534 -46.1073 -46.0590 -46.0032 -45.9985
   -45.9657 -45.9627 -45.2588 -45.2473 -45.2441 -45.2090 -45.1328 -45.1291
   -45.0173 -45.0142 -44.9630 -44.9134 -44.8331 -44.8287 -33.3557 -33.2936
   -33.2841 -33.2817 -33.2709 -33.2440 -33.2254 -33.1553 -33.1502 -33.1019
   -33.0987 -32.8711 -32.8695 -32.8590 -32.8146 -32.8142 -32.8123 -32.6859
    -3.8700  -3.5611  -2.7882  -2.6032  -1.7842  -1.4996  -1.4218  -1.3126
    -1.2183  -0.9857  -0.9562  -0.6333  -0.3764  -0.2536  -0.1803   0.0159
     0.0890   0.1221   0.1996   0.2190   0.4619   0.6751   0.7680   0.8437
     1.0235   1.0519   1.0736   1.0972   1.2124   1.2677   1.4719   1.5085
     1.5182   1.5598   1.5825   1.6090   1.8286   2.0208   2.0979   2.2784
     2.2973   2.3641   2.4871   2.5317   2.6579   2.6819   2.9640   3.1157
     3.1634   3.1862   3.3106   3.4399   3.4941   3.5088   3.5954   3.8099
     3.9343   4.1378   4.2262   4.3383   4.7648   4.9830   5.2657   5.5928
     5.7349   6.1154

     the Fermi energy is     1.7323 ev

!    total energy              =   -2131.98718027 Ry
     Harris-Foulkes estimate   =   -2131.98717634 Ry
     estimated scf accuracy    <       0.00000095 Ry

     The total energy is the sum of the following terms:

     one-electron contribution =  -16586.80682674 Ry
     hartree contribution      =    8283.34042262 Ry
     xc contribution           =    -426.79163283 Ry
     ewald contribution        =    6598.33993473 Ry
     electric field correction =       0.00000194 Ry
     smearing contrib. (-TS)   =      -0.06907998 Ry

     total magnetization       =     5.03 Bohr mag/cell
     absolute magnetization    =    10.43 Bohr mag/cell

     convergence has been achieved in  35 iterations

 BEEF-vdW xc energy contributions
           1 :   -374.491052740713
           2 :    343.212253735071
           3 :   -289.398713008954
           4 :    226.729314055346
           5 :   -168.408504409632
           6 :    122.790261083551
           7 :   -91.7804146925699
           8 :    72.1643424744705
           9 :   -58.6417866342873
          10 :    46.8164155861816
          11 :   -34.8168069821614
          12 :    23.1714399949906
          13 :   -13.4912081212430
          14 :    6.96161834254758
          15 :   -3.51160219056806
          16 :    1.95704434785739
          17 :  -0.812485890029166
          18 :  -0.857030861433998
          19 :    3.06007342687690
          20 :   -5.11700322592702
          21 :    6.26000696183780
          22 :   -6.18190601235301
          23 :    5.21782918741178
          24 :   -4.11159400361009
          25 :    3.56177516250796
          26 :   -3.84443775712839
          27 :    4.71957470304079
          28 :   -5.63852388443422
          29 :    6.09104854379189
          30 :   -5.87794662818652
          31 :   -33.8051041126350
          32 :   -24.7361637482778

     Forces acting on atoms (Ry/au):

     negative rho (up, down):  3.002E-01 2.998E-01
     atom    1 type  1   force =    -0.00002506   -0.00001777    0.02154187
     atom    2 type  1   force =    -0.00003367   -0.00002379    0.02154317
     atom    3 type  2   force =    -0.00012328   -0.00010432   -0.01267892
     atom    4 type  2   force =    -0.00013938   -0.00008137   -0.01267897
     atom    5 type  1   force =     0.00001977    0.00001389   -0.00282003
     atom    6 type  1   force =     0.00004599    0.00003263   -0.00281991
     atom    7 type  2   force =     0.00004974    0.00008853   -0.00389905
     atom    8 type  2   force =     0.00009981    0.00001706   -0.00389931
     atom    9 type  1   force =     0.00002773    0.00001941   -0.00028639
     atom   10 type  1   force =     0.00004356    0.00003109   -0.00024972
     atom   11 type  2   force =     0.00000218    0.00003426   -0.00187653
     atom   12 type  2   force =     0.00003260   -0.00000962   -0.00187620

     Total force =     0.036101     Total SCF correction =     0.001629

     entering subroutine stress ...

     negative rho (up, down):  3.002E-01 2.998E-01
          total   stress  (Ry/bohr**3)                   (kbar)     P=  -22.81
  -0.00020250   0.00000375   0.00000040        -29.79      0.55      0.06
   0.00000375  -0.00020515   0.00000029          0.55    -30.18      0.04
   0.00000040   0.00000029  -0.00005746          0.06      0.04     -8.45

 !ASE

     Writing output data file calc.save

     General routines

     Parallel routines

   This run was terminated on:  19:50:17  18Dec2018

   JOB DONE.
Job  /afs/slac/g/suncat/bin/suncat-tsmpirun -x LD_LIBRARY_PATH -wdir /scratch/qe530232_d8vl8 pw.x -in pw.inp

TID   HOST_NAME   COMMAND_LINE            STATUS            TERMINATION_TIME
00000 suncat2070 pw.x -in pw.inp   Done                     12/18/2018 19:50:17
00001 suncat2070 pw.x -in pw.inp   Done                     12/18/2018 19:50:17
00002 suncat2070 pw.x -in pw.inp   Done                     12/18/2018 19:50:17
00003 suncat2070 pw.x -in pw.inp   Done                     12/18/2018 19:50:17
00004 suncat2070 pw.x -in pw.inp   Done                     12/18/2018 19:50:17
00005 suncat2070 pw.x -in pw.inp   Done                     12/18/2018 19:50:17
00006 suncat2070 pw.x -in pw.inp   Done                     12/18/2018 19:50:17
00007 suncat2070 pw.x -in pw.inp   Done                     12/18/2018 19:50:17
00008 suncat2070 pw.x -in pw.inp   Done                     12/18/2018 19:50:17
00009 suncat2070 pw.x -in pw.inp   Done                     12/18/2018 19:50:17
00010 suncat2070 pw.x -in pw.inp   Done                     12/18/2018 19:50:17
00011 suncat2070 pw.x -in pw.inp   Done                     12/18/2018 19:50:17
00012 suncat2070 pw.x -in pw.inp   Done                     12/18/2018 19:50:17
00013 suncat2070 pw.x -in pw.inp   Done                     12/18/2018 19:50:17
00014 suncat2070 pw.x -in pw.inp   Done                     12/18/2018 19:50:17
00015 suncat2070 pw.x -in pw.inp   Done                     12/18/2018 19:50:17
00016 suncat2069 pw.x -in pw.inp   Done                     12/18/2018 19:50:17
00017 suncat2069 pw.x -in pw.inp   Done                     12/18/2018 19:50:17
00018 suncat2069 pw.x -in pw.inp   Done                     12/18/2018 19:50:17
00019 suncat2069 pw.x -in pw.inp   Done                     12/18/2018 19:50:17
00020 suncat2069 pw.x -in pw.inp   Done                     12/18/2018 19:50:17
00021 suncat2069 pw.x -in pw.inp   Done                     12/18/2018 19:50:17
00022 suncat2069 pw.x -in pw.inp   Done                     12/18/2018 19:50:17
00023 suncat2069 pw.x -in pw.inp   Done                     12/18/2018 19:50:17
00024 suncat2069 pw.x -in pw.inp   Done                     12/18/2018 19:50:17
00025 suncat2069 pw.x -in pw.inp   Done                     12/18/2018 19:50:17
00026 suncat2069 pw.x -in pw.inp   Done                     12/18/2018 19:50:17
00027 suncat2069 pw.x -in pw.inp   Done                     12/18/2018 19:50:17
00028 suncat2069 pw.x -in pw.inp   Done                     12/18/2018 19:50:17
00029 suncat2069 pw.x -in pw.inp   Done                     12/18/2018 19:50:17
00030 suncat2069 pw.x -in pw.inp   Done                     12/18/2018 19:50:17
00031 suncat2069 pw.x -in pw.inp   Done                     12/18/2018 19:50:17