     Program PWSCF v.5.1rc2 (svn rev. 11289) starts on 19Dec2018 at  9:26:54

     Current dimensions of program PWSCF are:
     Max number of different atomic species (ntypx) = 10
     Max number of k-points (npk) =  40000
     Max angular momentum in pseudopotentials (lmaxx) =  3
     Presently stress not available with electric field

     IMPORTANT: XC functional enforced from input :
     Exchange-correlation      = BEEF-VDW ( 1  4 27 13 2)
     Any further DFT definition will be discarded
     Please, verify this is what you really want

     Subspace diagonalization in iterative solution of the eigenvalue problem:
     a serial algorithm will be used

     Found symmetry operation: I + ( -0.5000 -0.5000  0.0000)
     This is a supercell, fractional translations are disabled

     bravais-lattice index     =            0
     lattice parameter (alat)  =       1.8897  a.u.
     unit-cell volume          =    5810.6580 (a.u.)^3
     number of atoms/cell      =           12
     number of atomic types    =            2
     number of electrons       =       192.00
     number of Kohn-Sham states=          126
     kinetic-energy cutoff     =      36.7493  Ry
     charge density cutoff     =     367.4932  Ry
     convergence threshold     =      1.0E-06
     mixing beta               =       0.1000
     number of iterations used =           10  plain     mixing
     Exchange-correlation      = BEEF-VDW ( 1  4 27 13 2)
     nstep                     =           50

     celldm(1)=   1.889726  celldm(2)=   0.000000  celldm(3)=   0.000000
     celldm(4)=   0.000000  celldm(5)=   0.000000  celldm(6)=   0.000000

     crystal axes: (cart. coord. in units of alat)
               a(1) = (   6.033955   0.000000   0.000000 )
               a(2) = (   1.871876   5.736262   0.000000 )
               a(3) = (   0.000000   0.000000  24.876980 )

     reciprocal axes: (cart. coord. in units 2 pi/alat)
               b(1) = (  0.165729 -0.054081  0.000000 )
               b(2) = (  0.000000  0.174330  0.000000 )
               b(3) = (  0.000000  0.000000  0.040198 )

     PseudoPot. # 1 for Cu read from file:
     /afs/slac.stanford.edu/u/if/mamunm/psp/gbrv1.5pbe/Cu.UPF
     MD5 check sum: 6e991ff952a84172a2a52a1c1e996048
     Pseudo is Ultrasoft + core correction, Zval = 19.0
     Generated by new atomic code, or converted to UPF format
     Using radial grid of  867 points,  6 beta functions with:
                l(1) =   0
                l(2) =   0
                l(3) =   1
                l(4) =   1
                l(5) =   2
                l(6) =   2
     Q(r) pseudized with  8 coefficients,  rinner =    1.150   1.150   1.150
                                                       1.150   1.150

     PseudoPot. # 2 for Tl read from file:
     /afs/slac.stanford.edu/u/if/mamunm/psp/gbrv1.5pbe/Tl.UPF
     MD5 check sum: b76cf1f7e72655a2b2c53cf6385d7059
     Pseudo is Ultrasoft + core correction, Zval = 13.0
     Generated by new atomic code, or converted to UPF format
     Using radial grid of  899 points,  6 beta functions with:
                l(1) =   0
                l(2) =   0
                l(3) =   1
                l(4) =   1
                l(5) =   2
                l(6) =   2
     Q(r) pseudized with  6 coefficients,  rinner =    1.100   1.100   1.100
                                                       1.100   1.100

     vdW kernel table read from file vdW_kernel_table
     MD5 check sum: 095c7af220d748ca6e76c0b4c6cfb241

     atomic species   valence    mass     pseudopotential
        Cu1           19.00    63.54600     Cu( 1.00)
        Tl1           13.00   204.38000     Tl( 1.00)

     No symmetry found

   Cartesian axes

     site n.     atom                  positions (alat units)
         1           Cu1 tau(   1) = (   0.0000000   0.0000000  10.0000000  )
         2           Cu1 tau(   2) = (   3.9529155   2.8681309  10.0000000  )
         3           Tl1 tau(   3) = (   3.0169777   0.0000000  10.0000000  )
         4           Tl1 tau(   4) = (   0.9359378   2.8681309  10.0000000  )
         5           Cu1 tau(   5) = (   6.0339554   4.3780784  12.4384900  )
         6           Cu1 tau(   6) = (   2.0810399   1.5099475  12.4384900  )
         7           Tl1 tau(   7) = (   3.0169777   4.3780784  12.4384900  )
         8           Tl1 tau(   8) = (   5.0980176   1.5099475  12.4384900  )
         9           Cu1 tau(   9) = (   4.1620798   3.0198950  14.8769800  )
        10           Cu1 tau(  10) = (   0.2091643   0.1517641  14.8769800  )
        11           Tl1 tau(  11) = (   1.1451021   3.0198950  14.8769800  )
        12           Tl1 tau(  12) = (   3.2261420   0.1517641  14.8769800  )

     number of k points=    20  Fermi-Dirac smearing, width (Ry)=  0.0110
                       cart. coord. in units 2pi/alat
        k(    1) = (   0.0000000   0.0000000   0.0000000), wk =   0.0555556
        k(    2) = (   0.0000000   0.0290549   0.0000000), wk =   0.1111111
        k(    3) = (   0.0000000   0.0581099   0.0000000), wk =   0.1111111
        k(    4) = (   0.0000000  -0.0871648   0.0000000), wk =   0.0555556
        k(    5) = (   0.0276215  -0.0090135   0.0000000), wk =   0.1111111
        k(    6) = (   0.0276215   0.0200414   0.0000000), wk =   0.1111111
        k(    7) = (   0.0276215   0.0490963   0.0000000), wk =   0.1111111
        k(    8) = (   0.0276215  -0.0961783   0.0000000), wk =   0.1111111
        k(    9) = (   0.0276215  -0.0671234   0.0000000), wk =   0.1111111
        k(   10) = (   0.0276215  -0.0380685   0.0000000), wk =   0.1111111
        k(   11) = (   0.0552429  -0.0180271   0.0000000), wk =   0.1111111
        k(   12) = (   0.0552429   0.0110279   0.0000000), wk =   0.1111111
        k(   13) = (   0.0552429   0.0400828   0.0000000), wk =   0.1111111
        k(   14) = (   0.0552429  -0.1051918   0.0000000), wk =   0.1111111
        k(   15) = (   0.0552429  -0.0761369   0.0000000), wk =   0.1111111
        k(   16) = (   0.0552429  -0.0470820   0.0000000), wk =   0.1111111
        k(   17) = (  -0.0828644   0.0270406   0.0000000), wk =   0.0555556
        k(   18) = (  -0.0828644   0.0560955   0.0000000), wk =   0.1111111
        k(   19) = (  -0.0828644   0.0851504   0.0000000), wk =   0.1111111
        k(   20) = (  -0.0828644  -0.0601242   0.0000000), wk =   0.0555556

     Largest allocated arrays     est. size (Mb)     dimensions
     Largest temporary arrays     est. size (Mb)     dimensions

     Check: negative/imaginary core charge=   -0.000001    0.000000

     Initial potential from superposition of free atoms
     Check: negative starting charge=   -0.304817

     starting charge  185.97079, renormalised to  192.00000

     negative rho (up, down):  3.147E-01 0.000E+00

     *
     * You are using vdW-DF for exchange-correlation in this calculation.
     * Please cite the following three references that made this development
     * possible:
     *
     *   M. Dion, H. Rydberg, E. Schroder, D. C. Langreth, and
     *   B. I. Lundqvist, Phys. Rev. Lett. 92, 246401 (2004).
     *
     *   T. Thonhauser, V. R. Cooper, S. Li, A. Puzder, P. Hyldgaard, and
     *   D. C. Langreth, Phys. Rev. B 76, 125112 (2007).
     *
     *   G. Roman-Perez and J. M. Soler, Phys. Rev. Lett. 103, 096102 (2009).
     *
     *
     * If you are using vdW-DF2, please also cite:
     *
     *   K. Lee, E. D. Murray, L. Kong, B. I. Lundqvist, and
     *   D. C. Langreth, Phys. Rev. B 82, 081101(R) (2010).
     *
     *
     * If you are calculating the stress with vdW-DF, please also cite:
     *
     *   R. Sabatini, E. Kucukbenli, B. Kolb, T. Thonhauser, and
     *   S. de Gironcoli, J. Phys.: Condens. Matter 24, 424209 (2012).
     *

     Carrying out vdW-DF run using the following parameters:

     Nqs =      20    Nr_points =    1024   r_max =   100.000
     q_mesh =
               0.00001000     0.04494208     0.09755937     0.15916263
               0.23128650     0.31572767     0.41458969     0.53033537
               0.66584808     0.82450364     1.01025438     1.22772762
               1.48234092     1.78043706     2.12944203     2.53805004
               3.01644009     3.57652955     4.23227104     5.00000000

     Gradients computed in reciprocal space

     Adding external electric field

     Computed dipole along edir(3) :
        Dipole                0.0000 Ry au,          0.0000 Debye
        Dipole field          0.0000 Ry au

        Potential amp.       -0.0000 Ry
        Total length         45.8354 bohr

     Starting wfc are  132 randomized atomic wfcs

     Self-consistent Calculation

     iteration #  1     ecut=    36.75 Ry     beta=0.10
     Davidson diagonalization with overlap
     ethr =  1.00E-02,  avg # of iterations =  8.7

[...]

     total energy              =   -3310.67049807 Ry
     Harris-Foulkes estimate   =   -3311.05664975 Ry
     estimated scf accuracy    <       2.30869326 Ry

[...]

     End of self-consistent calculation

          k = 0.0000 0.0000 0.0000 ( 21803 PWs)   bands (ev):

  -111.9880-111.9880-111.6884-111.6884-111.6884-111.6884 -69.4107 -69.4107
   -69.3970 -69.3970 -69.3969 -69.3963 -69.1342 -69.1342 -69.1341 -69.1341
   -69.1040 -69.1040 -69.1033 -69.1033 -69.0843 -69.0843 -69.0842 -69.0842
   -11.5522 -11.4988 -11.4844 -11.4677 -11.4630 -11.4152 -11.3938 -11.3666
   -11.3479 -11.3056 -11.2877 -11.2674 -11.2558 -11.2552 -11.2529 -11.2289
   -11.2185 -11.2180 -11.2175 -11.1989 -11.1893 -11.1515 -11.1464 -11.1230
   -11.1144 -11.0985 -11.0233 -10.9705 -10.9645 -10.9246  -8.7052  -7.1787
    -5.3631  -5.2863  -5.0838  -4.7269  -2.5809  -2.5109  -2.4234  -2.3118
    -2.2441  -2.1679  -2.1529  -2.1523  -2.1156  -2.1098  -2.0897  -2.0354
    -2.0046  -1.9984  -1.9143  -1.9071  -1.8816  -1.8065  -1.8037  -1.7940
    -1.7893  -1.7766  -1.7717  -1.7637  -1.7318  -1.6649  -1.6625  -1.4938
    -1.4643  -1.2495  -1.2392  -1.1688  -0.9766  -0.6543  -0.6501  -0.4854
     0.0086   0.1059   0.8137   0.9546   1.0523   1.5275   2.0914   2.5193
     2.8491   2.9496   3.0225   3.7801   3.8551   4.0335   4.2452   5.0599
     5.0811   5.2142   5.3510   5.7115   5.9985   6.1277   6.3236   6.7576
     7.1696   7.2486   7.4145   7.5383   7.6311   8.0807

[...]

          k =-0.0829 0.0270 0.0000 ( 21858 PWs)   bands (ev):

[...]

     the Fermi energy is     0.3294 ev

!    total energy              =   -3310.15497644 Ry
     Harris-Foulkes estimate   =   -3310.15496311 Ry
     estimated scf accuracy    <       0.00000048 Ry

     The total energy is the sum of the following terms:

     one-electron contribution =  -17327.39612654 Ry
     hartree contribution      =    8711.42265006 Ry
     xc contribution           =    -624.06485094 Ry
     ewald contribution        =    5929.90920040 Ry
     electric field correction =       0.00000000 Ry
     smearing contrib. (-TS)   =      -0.02584943 Ry

     convergence has been achieved in  15 iterations

 BEEF-vdW xc energy contributions
           1 :   -554.932321709508
           2 :    510.232767711617
           3 :   -433.157043961210
           4 :    342.811505612495
           5 :   -257.362736400837
           6 :    187.978175355441
[...]
     c_bands:  1 eigenvalues not converged
     c_bands:  1 eigenvalues not converged
     c_bands:  1 eigenvalues not converged
     ethr =  1.99E-05,  avg # of iterations =  5.5

[...]

     iteration #  6     ecut=    36.75 Ry     beta=0.10
     Davidson diagonalization with overlap
     c_bands:  1 eigenvalues not converged
     c_bands:  1 eigenvalues not converged
     ethr =  1.96E-05,  avg # of iterations =  4.3

[...]

     Program PWSCF v.5.1rc2 (svn rev. 11289) starts on 19Dec2018 at 10:52:29

     Current dimensions of program PWSCF are:
     Max number of different atomic species (ntypx) = 10
     Max number of k-points (npk) =  40000
     Max angular momentum in pseudopotentials (lmaxx) =  3
     Presently stress not available with electric field

     IMPORTANT: XC functional enforced from input :
     Exchange-correlation      = BEEF-VDW ( 1  4 27 13 2)
     Any further DFT definition will be discarded
     Please, verify this is what you really want

     Subspace diagonalization in iterative solution of the eigenvalue problem:
     a serial algorithm will be used

     bravais-lattice index     =            0
     lattice parameter (alat)  =       1.8897  a.u.
     unit-cell volume          =    5810.6580 (a.u.)^3
     number of atoms/cell      =           12
     number of atomic types    =            2
     number of electrons       =       192.00
     number of Kohn-Sham states=          126
     kinetic-energy cutoff     =      36.7493  Ry
     charge density cutoff     =     367.4932  Ry
     convergence threshold     =      1.0E-06
     mixing beta               =       0.1000
     number of iterations used =           10  plain     mixing
     Exchange-correlation      = BEEF-VDW ( 1  4 27 13 2)
     nstep                     =           50

     celldm(1)=   1.889726  celldm(2)=   0.000000  celldm(3)=   0.000000
     celldm(4)=   0.000000  celldm(5)=   0.000000  celldm(6)=   0.000000

     crystal axes: (cart. coord. in units of alat)
               a(1) = (   6.033955   0.000000   0.000000 )
               a(2) = (   1.871876   5.736262   0.000000 )
               a(3) = (   0.000000   0.000000  24.876980 )

     reciprocal axes: (cart. coord. in units 2 pi/alat)
               b(1) = (  0.165729 -0.054081  0.000000 )
               b(2) = (  0.000000  0.174330  0.000000 )
               b(3) = (  0.000000  0.000000  0.040198 )

     PseudoPot. # 1 for Cu read from file:
     /afs/slac.stanford.edu/u/if/mamunm/psp/gbrv1.5pbe/Cu.UPF
     MD5 check sum: 6e991ff952a84172a2a52a1c1e996048
     Pseudo is Ultrasoft + core correction, Zval = 19.0
     Generated by new atomic code, or converted to UPF format
     Using radial grid of  867 points,  6 beta functions with:
                l(1) =   0
                l(2) =   0
                l(3) =   1
                l(4) =   1
                l(5) =   2
                l(6) =   2
     Q(r) pseudized with  8 coefficients,  rinner =    1.150   1.150   1.150
                                                       1.150   1.150

     PseudoPot. # 2 for Tl read from file:
     /afs/slac.stanford.edu/u/if/mamunm/psp/gbrv1.5pbe/Tl.UPF
     MD5 check sum: b76cf1f7e72655a2b2c53cf6385d7059
     Pseudo is Ultrasoft + core correction, Zval = 13.0
     Generated by new atomic code, or converted to UPF format
     Using radial grid of  899 points,  6 beta functions with:
                l(1) =   0
                l(2) =   0
                l(3) =   1
                l(4) =   1
                l(5) =   2
                l(6) =   2
     Q(r) pseudized with  6 coefficients,  rinner =    1.100   1.100   1.100
                                                       1.100   1.100

     vdW kernel table read from file vdW_kernel_table
     MD5 check sum: 095c7af220d748ca6e76c0b4c6cfb241

     atomic species   valence    mass     pseudopotential
        Cu1           19.00    63.54600     Cu( 1.00)
        Tl1           13.00   204.38000     Tl( 1.00)

     No symmetry found

   Cartesian axes

     site n.     atom                  positions (alat units)
         1           Cu1 tau(   1) = (   0.0000000   0.0000000  10.0000000  )
         2           Cu1 tau(   2) = (   3.9529155   2.8681309  10.0000000  )
         3           Tl1 tau(   3) = (   3.0169777   0.0000000  10.0000000  )
         4           Tl1 tau(   4) = (   0.9359378   2.8681309  10.0000000  )
         5           Cu1 tau(   5) = (   6.0339554   4.3780784  12.4384900  )
         6           Cu1 tau(   6) = (   2.0810399   1.5099475  12.4384900  )
         7           Tl1 tau(   7) = (   3.0169777   4.3780784  12.4384900  )
         8           Tl1 tau(   8) = (   5.0980176   1.5099475  12.4384900  )
         9           Cu1 tau(   9) = (   4.1818640   3.0341632  14.6152567  )
        10           Cu1 tau(  10) = (   0.2289385   0.1661861  14.6152359  )
        11           Tl1 tau(  11) = (   1.1310707   3.0097526  15.1898808  )
        12           Tl1 tau(  12) = (   3.2121540   0.1415810  15.1898851  )

     number of k points=    20  Fermi-Dirac smearing, width (Ry)=  0.0110
                       cart. coord. in units 2pi/alat
        k(    1) = (   0.0000000   0.0000000   0.0000000), wk =   0.0555556
        k(    2) = (   0.0000000   0.0290549   0.0000000), wk =   0.1111111
        k(    3) = (   0.0000000   0.0581099   0.0000000), wk =   0.1111111
        k(    4) = (   0.0000000  -0.0871648   0.0000000), wk =   0.0555556
        k(    5) = (   0.0276215  -0.0090135   0.0000000), wk =   0.1111111
        k(    6) = (   0.0276215   0.0200414   0.0000000), wk =   0.1111111
        k(    7) = (   0.0276215   0.0490963   0.0000000), wk =   0.1111111
        k(    8) = (   0.0276215  -0.0961783   0.0000000), wk =   0.1111111
        k(    9) = (   0.0276215  -0.0671234   0.0000000), wk =   0.1111111
        k(   10) = (   0.0276215  -0.0380685   0.0000000), wk =   0.1111111
        k(   11) = (   0.0552429  -0.0180271   0.0000000), wk =   0.1111111
        k(   12) = (   0.0552429   0.0110279   0.0000000), wk =   0.1111111
        k(   13) = (   0.0552429   0.0400828   0.0000000), wk =   0.1111111
        k(   14) = (   0.0552429  -0.1051918   0.0000000), wk =   0.1111111
        k(   15) = (   0.0552429  -0.0761369   0.0000000), wk =   0.1111111
        k(   16) = (   0.0552429  -0.0470820   0.0000000), wk =   0.1111111
        k(   17) = (  -0.0828644   0.0270406   0.0000000), wk =   0.0555556
        k(   18) = (  -0.0828644   0.0560955   0.0000000), wk =   0.1111111
        k(   19) = (  -0.0828644   0.0851504   0.0000000), wk =   0.1111111
        k(   20) = (  -0.0828644  -0.0601242   0.0000000), wk =   0.0555556

     Largest allocated arrays     est. size (Mb)     dimensions
     Largest temporary arrays     est. size (Mb)     dimensions

     Check: negative/imaginary core charge=   -0.000001    0.000000

     Initial potential from superposition of free atoms
     Check: negative starting charge=   -0.303723

     starting charge  185.97079, renormalised to  192.00000

[...]

     *
     * You are using vdW-DF for exchange-correlation in this calculation.
     * Please cite the following three references that made this development
     * possible:
     *
     *   M. Dion, H. Rydberg, E. Schroder, D. C. Langreth, and
     *   B. I. Lundqvist, Phys. Rev. Lett. 92, 246401 (2004).
     *
     *   T. Thonhauser, V. R. Cooper, S. Li, A. Puzder, P. Hyldgaard, and
     *   D. C. Langreth, Phys. Rev. B 76, 125112 (2007).
     *
     *   G. Roman-Perez and J. M. Soler, Phys. Rev. Lett. 103, 096102 (2009).
     *
     *
     * If you are using vdW-DF2, please also cite:
     *
     *   K. Lee, E. D. Murray, L. Kong, B. I. Lundqvist, and
     *   D. C. Langreth, Phys. Rev. B 82, 081101(R) (2010).
     *
     *
     * If you are calculating the stress with vdW-DF, please also cite:
     *
     *   R. Sabatini, E. Kucukbenli, B. Kolb, T. Thonhauser, and
     *   S. de Gironcoli, J. Phys.: Condens. Matter 24, 424209 (2012).
     *

     Carrying out vdW-DF run using the following parameters:

     Nqs =      20    Nr_points =    1024   r_max =   100.000
     q_mesh =
               0.00001000     0.04494208     0.09755937     0.15916263
               0.23128650     0.31572767     0.41458969     0.53033537
               0.66584808     0.82450364     1.01025438     1.22772762
               1.48234092     1.78043706     2.12944203     2.53805004
               3.01644009     3.57652955     4.23227104     5.00000000

     Gradients computed in reciprocal space

[...]

     Starting wfc are  132 randomized atomic wfcs

     Self-consistent Calculation

[...]

     total energy              =   -3310.17121191 Ry
     Harris-Foulkes estimate   =   -3310.17120376 Ry
     estimated scf accuracy    <       0.00000114 Ry

     iteration # 17     ecut=    36.75 Ry     beta=0.10
     Davidson diagonalization with overlap
     ethr =  5.92E-10,  avg # of iterations =  2.0

[...]

     negative rho (up, down):  3.196E-01 0.000E+00

     Adding external electric field

     Computed dipole along edir(3) :
        Dipole                0.1062 Ry au,          0.2699 Debye
        Dipole field          0.0002 Ry au

        Potential amp.       -0.0211 Ry
        Total length         45.8354 bohr

     End of self-consistent calculation

[...]

          k = 0.0552-0.0471 0.0000 ( 21869 PWs)   bands (ev):

[...]

          k =-0.0829-0.0601 0.0000 ( 21850 PWs)   bands (ev):

  -111.8142-111.8142-111.7410-111.7410-111.5884-111.5884 -69.2360 -69.2360
   -69.2276 -69.2276 -69.2207 -69.2200 -69.1643 -69.1643 -69.1567 -69.1560
   -69.1503 -69.1503 -69.0357 -69.0357 -69.0032 -69.0025 -68.9839 -68.9838
   -11.4142 -11.3723 -11.3672 -11.3334 -11.3301 -11.3064 -11.2813 -11.2513
   -11.2397 -11.2102 -11.1883 -11.1784 -11.1645 -11.1601 -11.1575 -11.1531
   -11.1494 -11.1340 -11.1296 -11.1079 -11.0974 -11.0877 -11.0835 -11.0806
   -11.0282 -11.0205 -11.0060 -10.9709 -10.9036 -10.8520  -7.0841  -6.7748
    -6.1555  -6.1020  -4.8941  -3.9428  -3.7770  -3.5673  -3.0675  -2.6053
    -2.5190  -2.4886  -2.3096  -2.1984  -2.1743  -2.1512  -2.1377  -2.1324
    -2.0585  -2.0274  -2.0138  -1.9949  -1.9332  -1.9275  -1.8748  -1.8621
    -1.8350  -1.8200  -1.7954  -1.7792  -1.7552  -1.7300  -1.6559  -1.6489
    -1.6190  -1.5477  -1.4494  -1.3198  -1.1241  -1.0663  -1.0179   0.5547
     1.2112   2.0120   2.1501   2.5688   3.1779   3.2670   3.6472   4.0381
     4.1380   4.2643   4.5287   4.5388   4.7109   5.2024   5.2854   5.3718
     5.4959   5.5966   5.6862   5.9315   6.2662   6.3157   6.4115   6.4168
     6.5544   6.5715   6.7238   6.7504   6.7752   6.7898

     the Fermi energy is     0.4198 ev

!    total energy              =   -3310.17122557 Ry
     Harris-Foulkes estimate   =   -3310.17121123 Ry
     estimated scf accuracy    <       0.00000036 Ry

     The total energy is the sum of the following terms:

     one-electron contribution =  -17362.41567120 Ry
     hartree contribution      =    8729.41278303 Ry
     xc contribution           =    -624.00919491 Ry
     ewald contribution        =    5946.86771179 Ry
     electric field correction =       0.00002439 Ry
     smearing contrib. (-TS)   =      -0.02687868 Ry

     convergence has been achieved in  17 iterations

 BEEF-vdW xc energy contributions
           1 :   -554.873539223312
           2 :    510.137722530677
           3 :   -433.026163271673
           4 :    342.682892072649
           5 :   -257.282585771895
           6 :    187.966409707661
           7 :   -136.996394957666
           8 :    100.132999792284
           9 :   -71.1935074124423
          10 :    45.9948975179674
          11 :   -23.8120929985540
          12 :    6.24200990815564
          13 :    5.10349228814187
          14 :   -10.3141150715378
          15 :    11.3260425479054
          16 :   -10.7709273014710
          17 :    10.5722754209526
          18 :   -11.2599266734048
          19 :    12.2633344599278
          20 :   -12.7562002803871
          21 :    12.3705784280720
          22 :   -11.3672523500951
          23 :    10.3076359109410
          24 :   -9.60053523587851
          25 :    9.27594925919846
          26 :   -9.08624648740420
          27 :    8.76469003541604
          28 :   -8.20675765048793
          29 :    7.46428436113240
          30 :   -6.62763988429288
          31 :   -44.3040868884152
          32 :   -31.4759258305090

     Forces acting on atoms (Ry/au):

     negative rho (up, down):  3.196E-01 0.000E+00
     atom    1 type  1   force =    -0.00131928   -0.00095763    0.01320619
     atom    2 type  1   force =    -0.00131989   -0.00095681    0.01320812
     atom    3 type  2   force =     0.00228507    0.00165647   -0.01476288
     atom    4 type  2   force =     0.00228427    0.00165750   -0.01476253
     atom    5 type  1   force =     0.00018456    0.00013437    0.00852765
     atom    6 type  1   force =     0.00018463    0.00013463    0.00853502
     atom    7 type  2   force =    -0.00269489   -0.00195628   -0.00505228
     atom    8 type  2   force =    -0.00269637   -0.00195488   -0.00506020
     atom    9 type  1   force =     0.00116437    0.00084595   -0.00126076
     atom   10 type  1   force =     0.00116492    0.00084393   -0.00126210
     atom   11 type  2   force =     0.00038517    0.00027570   -0.00065792
     atom   12 type  2   force =     0.00037744    0.00027706   -0.00065831

     Total force =     0.032150     Total SCF correction =     0.002402

     entering subroutine stress ...

     negative rho (up, down):  3.196E-01 0.000E+00
          total   stress  (Ry/bohr**3)                   (kbar)     P=  -13.97
  -0.00012432  -0.00002335   0.00000082        -18.29     -3.43      0.12
  -0.00002335  -0.00010908   0.00000060         -3.43    -16.05      0.09
   0.00000082   0.00000060  -0.00005143          0.12      0.09     -7.57

 !ASE

     Writing output data file calc.save

     General routines

     Parallel routines

   This run was terminated on:  11:10:32  19Dec2018

   JOB DONE.
Job  /afs/slac/g/suncat/bin/suncat-tsmpirun -x LD_LIBRARY_PATH -wdir /scratch/qe529814_qINQ7 pw.x -in pw.inp

TID   HOST_NAME   COMMAND_LINE            STATUS            TERMINATION_TIME
00000 suncat0228 pw.x -in pw.inp   Done                     12/19/2018 11:10:32
00001 suncat0228 pw.x -in pw.inp   Done                     12/19/2018 11:10:32
00002 suncat0228 pw.x -in pw.inp   Done                     12/19/2018 11:10:32
00003 suncat0228 pw.x -in pw.inp   Done                     12/19/2018 11:10:32
00004 suncat0228 pw.x -in pw.inp   Done                     12/19/2018 11:10:32
00005 suncat0228 pw.x -in pw.inp   Done                     12/19/2018 11:10:32
00006 suncat0228 pw.x -in pw.inp   Done                     12/19/2018 11:10:32
00007 suncat0228 pw.x -in pw.inp   Done                     12/19/2018 11:10:32
00008 suncat0227 pw.x -in pw.inp   Done                     12/19/2018 11:10:32
00009 suncat0227 pw.x -in pw.inp   Done                     12/19/2018 11:10:32
00010 suncat0227 pw.x -in pw.inp   Done                     12/19/2018 11:10:32
00011 suncat0227 pw.x -in pw.inp   Done                     12/19/2018 11:10:32
00012 suncat0227 pw.x -in pw.inp   Done                     12/19/2018 11:10:32
00013 suncat0227 pw.x -in pw.inp   Done                     12/19/2018 11:10:32
00014 suncat0227 pw.x -in pw.inp   Done                     12/19/2018 11:10:32
00015 suncat0227 pw.x -in pw.inp   Done                     12/19/2018 11:10:32
00016 suncat0226 pw.x -in pw.inp   Done                     12/19/2018 11:10:32
00017 suncat0226 pw.x -in pw.inp   Done                     12/19/2018 11:10:32
00018 suncat0226 pw.x -in pw.inp   Done                     12/19/2018 11:10:32
00019 suncat0226 pw.x -in pw.inp   Done                     12/19/2018 11:10:32
00020 suncat0226 pw.x -in pw.inp   Done                     12/19/2018 11:10:32
00021 suncat0226 pw.x -in pw.inp   Done                     12/19/2018 11:10:32
00022 suncat0226 pw.x -in pw.inp   Done                     12/19/2018 11:10:32
00023 suncat0226 pw.x -in pw.inp   Done                     12/19/2018 11:10:32
00024 suncat0225 pw.x -in pw.inp   Done                     12/19/2018 11:10:32
00025 suncat0225 pw.x -in pw.inp   Done                     12/19/2018 11:10:32
00026 suncat0225 pw.x -in pw.inp   Done                     12/19/2018 11:10:32
00027 suncat0225 pw.x -in pw.inp   Done                     12/19/2018 11:10:32
00028 suncat0225 pw.x -in pw.inp   Done                     12/19/2018 11:10:32
00029 suncat0225 pw.x -in pw.inp   Done                     12/19/2018 11:10:32
00030 suncat0225 pw.x -in pw.inp   Done                     12/19/2018 11:10:32
00031 suncat0225 pw.x -in pw.inp   Done                     12/19/2018 11:10:32