     Program PWSCF v.5.1rc2 (svn rev. 11289) starts on 18Dec2018 at 16:51:57

     Current dimensions of program PWSCF are:
     Max number of different atomic species (ntypx) = 10
     Max number of k-points (npk) =  40000
     Max angular momentum in pseudopotentials (lmaxx) =  3
     Presently stress not available with electric field

     IMPORTANT: XC functional enforced from input :
     Exchange-correlation      = BEEF-VDW ( 1  4 27 13 2)
     Any further DFT definition will be discarded
     Please, verify this is what you really want

     Subspace diagonalization in iterative solution of the eigenvalue problem:
     a serial algorithm will be used

     Found symmetry operation: I + ( -0.5000  0.5000  0.0000)
     This is a supercell, fractional translations are disabled

     Generating pointlists ...
     new r_m :   0.4125 (alat units)  0.7795 (a.u.) for type    1
     new r_m :   0.4125 (alat units)  0.7795 (a.u.) for type    2

     bravais-lattice index     =            0
     lattice parameter (alat)  =       1.8897  a.u.
     unit-cell volume          =    7032.5573 (a.u.)^3
     number of atoms/cell      =           12
     number of atomic types    =            2
     number of electrons       =       156.00
     number of Kohn-Sham states=          108
     kinetic-energy cutoff     =      36.7493  Ry
     charge density cutoff     =     367.4932  Ry
     convergence threshold     =      1.0E-06
     mixing beta               =       0.1000
     number of iterations used =           10  plain     mixing
     Exchange-correlation      = BEEF-VDW ( 1  4 27 13 2)
     nstep                     =           50

     celldm(1)=   1.889726  celldm(2)=   0.000000  celldm(3)=   0.000000
     celldm(4)=   0.000000  celldm(5)=   0.000000  celldm(6)=   0.000000

     crystal axes: (cart. coord. in units of alat)
               a(1) = (   6.575966   0.000000   0.000000 )
               a(2) = (   2.001003   6.264130   0.000000 )
               a(3) = (   0.000000   0.000000  25.298593 )

     reciprocal axes: (cart. coord. in units 2 pi/alat)
               b(1) = (  0.152069 -0.048577  0.000000 )
               b(2) = (  0.000000  0.159639  0.000000 )
               b(3) = (  0.000000  0.000000  0.039528 )

     PseudoPot. # 1 for Mn read from file:
     /afs/slac.stanford.edu/u/if/mamunm/psp/gbrv1.5pbe/Mn.UPF
     MD5 check sum: 82ef2b46521d7a7d9e736dc3972e4928
     Pseudo is Ultrasoft + core correction, Zval = 15.0
     Generated by new atomic code, or converted to UPF format
     Using radial grid of  859 points,  6 beta functions with:
                l(1) =   0
                l(2) =   0
                l(3) =   1
                l(4) =   1
                l(5) =   2
                l(6) =   2
     Q(r) pseudized with  8 coefficients,  rinner =    0.950   0.950   0.950
                                                       0.950   0.950

     PseudoPot. # 2 for La read from file:
     /afs/slac.stanford.edu/u/if/mamunm/psp/gbrv1.5pbe/La.UPF
     MD5 check sum: 5937b0c7494ba0601a847275249473aa
     Pseudo is Ultrasoft + core correction, Zval = 11.0
     Generated by new atomic code, or converted to UPF format
     Using radial grid of  995 points,  8 beta functions with:
                l(1) =   0
                l(2) =   0
                l(3) =   1
                l(4) =   1
                l(5) =   2
                l(6) =   2
                l(7) =   3
                l(8) =   3
     Q(r) pseudized with  8 coefficients,  rinner =    1.700   1.700   1.700
                                                       1.700   1.700   1.700
                                                       1.700

     vdW kernel table read from file vdW_kernel_table
     MD5 check sum: 095c7af220d748ca6e76c0b4c6cfb241

     atomic species   valence    mass     pseudopotential
        Mn1           15.00    54.93804     Mn( 1.00)
        La1           11.00   138.90547     La( 1.00)

     Starting magnetic structure
     atomic species   magnetization
        Mn1          0.133
        La1          0.182

     No symmetry found

   Cartesian axes

     site n.     atom                  positions (alat units)
         1           Mn1 tau(   1) = (   0.0000000   0.0000000  10.0000000  )
         2           Mn1 tau(   2) = (   4.2884846   3.1320648  10.0000000  )
         3           La1 tau(   3) = (   3.2879831   0.0000000  10.0000000  )
         4           La1 tau(   4) = (   1.0005014   3.1320648  10.0000000  )
         5           Mn1 tau(   5) = (   6.5759663   4.8027112  12.6492963  )
         6           Mn1 tau(   6) = (   2.2874817   1.6706464  12.6492963  )
         7           La1 tau(   7) = (   3.2879831   4.8027112  12.6492963  )
         8           La1 tau(   8) = (   5.5754649   1.6706464  12.6492963  )
         9           Mn1 tau(   9) = (   4.5749635   3.3412927  15.2985926  )
        10           Mn1 tau(  10) = (   0.2864789   0.2092279  15.2985926  )
        11           La1 tau(  11) = (   1.2869803   3.3412927  15.2985926  )
        12           La1 tau(  12) = (   3.5744621   0.2092279  15.2985926  )

     number of k points=    40  Fermi-Dirac smearing, width (Ry)=  0.0110
                       cart. coord. in units 2pi/alat
        k(    1) = (   0.0000000   0.0000000   0.0000000), wk =   0.0277778
        k(    2) = (   0.0000000   0.0266065   0.0000000), wk =   0.0555556
        k(    3) = (   0.0000000   0.0532130   0.0000000), wk =   0.0555556
        k(    4) = (   0.0000000  -0.0798195   0.0000000), wk =   0.0277778
        k(    5) = (   0.0253448  -0.0080961   0.0000000), wk =   0.0555556
        k(    6) = (   0.0253448   0.0185104   0.0000000), wk =   0.0555556
        k(    7) = (   0.0253448   0.0451169   0.0000000), wk =   0.0555556
        k(    8) = (   0.0253448  -0.0879157   0.0000000), wk =   0.0555556
        k(    9) = (   0.0253448  -0.0613091   0.0000000), wk =   0.0555556
        k(   10) = (   0.0253448  -0.0347026   0.0000000), wk =   0.0555556
        k(   11) = (   0.0506896  -0.0161922   0.0000000), wk =   0.0555556
        k(   12) = (   0.0506896   0.0104143   0.0000000), wk =   0.0555556
        k(   13) = (   0.0506896   0.0370208   0.0000000), wk =   0.0555556
        k(   14) = (   0.0506896  -0.0960118   0.0000000), wk =   0.0555556
        k(   15) = (   0.0506896  -0.0694052   0.0000000), wk =   0.0555556
        k(   16) = (   0.0506896  -0.0427987   0.0000000), wk =   0.0555556
        k(   17) = (  -0.0760345   0.0242883   0.0000000), wk =   0.0277778
        k(   18) = (  -0.0760345   0.0508948   0.0000000), wk =   0.0555556
        k(   19) = (  -0.0760345   0.0775013   0.0000000), wk =   0.0555556
        k(   20) = (  -0.0760345  -0.0555312   0.0000000), wk =   0.0277778
        k(   21) = (   0.0000000   0.0000000   0.0000000), wk =   0.0277778
        k(   22) = (   0.0000000   0.0266065   0.0000000), wk =   0.0555556
        k(   23) = (   0.0000000   0.0532130   0.0000000), wk =   0.0555556
        k(   24) = (   0.0000000  -0.0798195   0.0000000), wk =   0.0277778
        k(   25) = (   0.0253448  -0.0080961   0.0000000), wk =   0.0555556
        k(   26) = (   0.0253448   0.0185104   0.0000000), wk =   0.0555556
        k(   27) = (   0.0253448   0.0451169   0.0000000), wk =   0.0555556
        k(   28) = (   0.0253448  -0.0879157   0.0000000), wk =   0.0555556
        k(   29) = (   0.0253448  -0.0613091   0.0000000), wk =   0.0555556
        k(   30) = (   0.0253448  -0.0347026   0.0000000), wk =   0.0555556
        k(   31) = (   0.0506896  -0.0161922   0.0000000), wk =   0.0555556
        k(   32) = (   0.0506896   0.0104143   0.0000000), wk =   0.0555556
        k(   33) = (   0.0506896   0.0370208   0.0000000), wk =   0.0555556
        k(   34) = (   0.0506896  -0.0960118   0.0000000), wk =   0.0555556
        k(   35) = (   0.0506896  -0.0694052   0.0000000), wk =   0.0555556
        k(   36) = (   0.0506896  -0.0427987   0.0000000), wk =   0.0555556
        k(   37) = (  -0.0760345   0.0242883   0.0000000), wk =   0.0277778
        k(   38) = (  -0.0760345   0.0508948   0.0000000), wk =   0.0555556
        k(   39) = (  -0.0760345   0.0775013   0.0000000), wk =   0.0555556
        k(   40) = (  -0.0760345  -0.0555312   0.0000000), wk =   0.0277778

     Largest allocated arrays     est. size (Mb)     dimensions
     Largest temporary arrays     est. size (Mb)     dimensions

     Check: negative/imaginary core charge=   -0.000004    0.000000

     Initial potential from superposition of free atoms
     Check: negative starting charge=(component1):   -0.250987
     Check: negative starting charge=(component2):   -0.173781

     starting charge  152.80708, renormalised to  156.00000

     negative rho (up, down):  2.562E-01 1.774E-01

     *
     * You are using vdW-DF for exchange-correlation in this calculation.
     * Please cite the following three references that made this development
     * possible:
     *
     *   M. Dion, H. Rydberg, E. Schroder, D. C. Langreth, and
     *   B. I. Lundqvist, Phys. Rev. Lett. 92, 246401 (2004).
     *
     *   T. Thonhauser, V. R. Cooper, S. Li, A. Puzder, P. Hyldgaard, and
     *   D. C. Langreth, Phys. Rev. B 76, 125112 (2007).
     *
     *   G. Roman-Perez and J. M. Soler, Phys. Rev. Lett. 103, 096102 (2009).
     *
     *
     * If you are using vdW-DF2, please also cite:
     *
     *   K. Lee, E. D. Murray, L. Kong, B. I. Lundqvist, and
     *   D. C. Langreth, Phys. Rev. B 82, 081101(R) (2010).
     *
     *
     * If you are calculating the stress with vdW-DF, please also cite:
     *
     *   R. Sabatini, E. Kucukbenli, B. Kolb, T. Thonhauser, and
     *   S. de Gironcoli, J. Phys.: Condens. Matter 24, 424209 (2012).
     *

     Carrying out vdW-DF run using the following parameters:

     Nqs =      20    Nr_points =    1024   r_max =   100.000
     q_mesh =
               0.00001000     0.04494208     0.09755937     0.15916263
               0.23128650     0.31572767     0.41458969     0.53033537
               0.66584808     0.82450364     1.01025438     1.22772762
               1.48234092     1.78043706     2.12944203     2.53805004
               3.01644009     3.57652955     4.23227104     5.00000000

     Gradients computed in reciprocal space

     Adding external electric field

     Computed dipole along edir(3) :
        Dipole                0.0000 Ry au,          0.0000 Debye
        Dipole field          0.0000 Ry au

        Potential amp.       -0.0000 Ry
        Total length         46.6122 bohr

[...]

     Starting wfc are  198 randomized atomic wfcs

     Self-consistent Calculation

     iteration #  1     ecut=    36.75 Ry     beta=0.10
     Davidson diagonalization with overlap
     ethr =  1.00E-02,  avg # of iterations =  2.0

[...]

     Magnetic moment per site:
     atom:    1    charge:    6.0226    magn:    0.8274    constr:    0.0000
     atom:    2    charge:    6.0159    magn:    0.8264    constr:    0.0000
     atom:    3    charge:    0.1279    magn:    0.0234    constr:    0.0000
     atom:    4    charge:    0.1279    magn:    0.0234    constr:    0.0000
[...]

     PseudoPot. # 2 for La read from file:
     /afs/slac.stanford.edu/u/if/mamunm/psp/gbrv1.5pbe/La.UPF
     MD5 check sum: 5937b0c7494ba0601a847275249473aa
     Pseudo is Ultrasoft + core correction, Zval = 11.0
     Generated by new atomic code, or converted to UPF format
     Using radial grid of  995 points,  8 beta functions with:
                l(1) =   0
                l(2) =   0
                l(3) =   1
                l(4) =   1
                l(5) =   2
                l(6) =   2
                l(7) =   3
                l(8) =   3
     Q(r) pseudized with  8 coefficients,  rinner =    1.700   1.700   1.700
                                                       1.700   1.700   1.700
                                                       1.700

     vdW kernel table read from file vdW_kernel_table
     MD5 check sum: 095c7af220d748ca6e76c0b4c6cfb241

     atomic species   valence    mass     pseudopotential
        Mn1           15.00    54.93804     Mn( 1.00)
        La1           11.00   138.90547     La( 1.00)

     Starting magnetic structure
     atomic species   magnetization
        Mn1          0.133
        La1          0.182

     No symmetry found

   Cartesian axes

     site n.     atom                  positions (alat units)
         1           Mn1 tau(   1) = (   0.0000000   0.0000000  10.0000000  )
         2           Mn1 tau(   2) = (   4.2884846   3.1320648  10.0000000  )
         3           La1 tau(   3) = (   3.2879831   0.0000000  10.0000000  )
         4           La1 tau(   4) = (   1.0005014   3.1320648  10.0000000  )
         5           Mn1 tau(   5) = (   6.5759663   4.8027112  12.6492963  )
         6           Mn1 tau(   6) = (   2.2874817   1.6706464  12.6492963  )
         7           La1 tau(   7) = (   3.2879831   4.8027112  12.6492963  )
         8           La1 tau(   8) = (   5.5754649   1.6706464  12.6492963  )
         9           Mn1 tau(   9) = (   4.5747119   3.3410906  15.0011526  )
        10           Mn1 tau(  10) = (   0.2877322   0.2101638  15.0000862  )
        11           La1 tau(  11) = (   1.2348098   3.3027864  15.2849245  )
        12           La1 tau(  12) = (   3.5219027   0.1712375  15.2849182  )

     number of k points=    40  Fermi-Dirac smearing, width (Ry)=  0.0110
                       cart. coord. in units 2pi/alat
        k(    1) = (   0.0000000   0.0000000   0.0000000), wk =   0.0277778
        k(    2) = (   0.0000000   0.0266065   0.0000000), wk =   0.0555556
        k(    3) = (   0.0000000   0.0532130   0.0000000), wk =   0.0555556
        k(    4) = (   0.0000000  -0.0798195   0.0000000), wk =   0.0277778
        k(    5) = (   0.0253448  -0.0080961   0.0000000), wk =   0.0555556
        k(    6) = (   0.0253448   0.0185104   0.0000000), wk =   0.0555556
        k(    7) = (   0.0253448   0.0451169   0.0000000), wk =   0.0555556
        k(    8) = (   0.0253448  -0.0879157   0.0000000), wk =   0.0555556
        k(    9) = (   0.0253448  -0.0613091   0.0000000), wk =   0.0555556
        k(   10) = (   0.0253448  -0.0347026   0.0000000), wk =   0.0555556
        k(   11) = (   0.0506896  -0.0161922   0.0000000), wk =   0.0555556
        k(   12) = (   0.0506896   0.0104143   0.0000000), wk =   0.0555556
        k(   13) = (   0.0506896   0.0370208   0.0000000), wk =   0.0555556
        k(   14) = (   0.0506896  -0.0960118   0.0000000), wk =   0.0555556
        k(   15) = (   0.0506896  -0.0694052   0.0000000), wk =   0.0555556
        k(   16) = (   0.0506896  -0.0427987   0.0000000), wk =   0.0555556
        k(   17) = (  -0.0760345   0.0242883   0.0000000), wk =   0.0277778
        k(   18) = (  -0.0760345   0.0508948   0.0000000), wk =   0.0555556
        k(   19) = (  -0.0760345   0.0775013   0.0000000), wk =   0.0555556
        k(   20) = (  -0.0760345  -0.0555312   0.0000000), wk =   0.0277778
        k(   21) = (   0.0000000   0.0000000   0.0000000), wk =   0.0277778
        k(   22) = (   0.0000000   0.0266065   0.0000000), wk =   0.0555556
        k(   23) = (   0.0000000   0.0532130   0.0000000), wk =   0.0555556
        k(   24) = (   0.0000000  -0.0798195   0.0000000), wk =   0.0277778
        k(   25) = (   0.0253448  -0.0080961   0.0000000), wk =   0.0555556
        k(   26) = (   0.0253448   0.0185104   0.0000000), wk =   0.0555556
        k(   27) = (   0.0253448   0.0451169   0.0000000), wk =   0.0555556
        k(   28) = (   0.0253448  -0.0879157   0.0000000), wk =   0.0555556
        k(   29) = (   0.0253448  -0.0613091   0.0000000), wk =   0.0555556
        k(   30) = (   0.0253448  -0.0347026   0.0000000), wk =   0.0555556
        k(   31) = (   0.0506896  -0.0161922   0.0000000), wk =   0.0555556
        k(   32) = (   0.0506896   0.0104143   0.0000000), wk =   0.0555556
        k(   33) = (   0.0506896   0.0370208   0.0000000), wk =   0.0555556
        k(   34) = (   0.0506896  -0.0960118   0.0000000), wk =   0.0555556
        k(   35) = (   0.0506896  -0.0694052   0.0000000), wk =   0.0555556
        k(   36) = (   0.0506896  -0.0427987   0.0000000), wk =   0.0555556
        k(   37) = (  -0.0760345   0.0242883   0.0000000), wk =   0.0277778
        k(   38) = (  -0.0760345   0.0508948   0.0000000), wk =   0.0555556
        k(   39) = (  -0.0760345   0.0775013   0.0000000), wk =   0.0555556
        k(   40) = (  -0.0760345  -0.0555312   0.0000000), wk =   0.0277778

     Largest allocated arrays     est. size (Mb)     dimensions
     Largest temporary arrays     est. size (Mb)     dimensions

     Check: negative/imaginary core charge=   -0.000004    0.000000

     Initial potential from superposition of free atoms
     Check: negative starting charge=(component1):   -0.251004
     Check: negative starting charge=(component2):   -0.173783

     starting charge  152.80708, renormalised to  156.00000

[...]

     *
     * You are using vdW-DF for exchange-correlation in this calculation.
     * Please cite the following three references that made this development
     * possible:
     *
     *   M. Dion, H. Rydberg, E. Schroder, D. C. Langreth, and
     *   B. I. Lundqvist, Phys. Rev. Lett. 92, 246401 (2004).
     *
     *   T. Thonhauser, V. R. Cooper, S. Li, A. Puzder, P. Hyldgaard, and
     *   D. C. Langreth, Phys. Rev. B 76, 125112 (2007).
     *
     *   G. Roman-Perez and J. M. Soler, Phys. Rev. Lett. 103, 096102 (2009).
     *
     *
     * If you are using vdW-DF2, please also cite:
     *
     *   K. Lee, E. D. Murray, L. Kong, B. I. Lundqvist, and
     *   D. C. Langreth, Phys. Rev. B 82, 081101(R) (2010).
     *
     *
     * If you are calculating the stress with vdW-DF, please also cite:
     *
     *   R. Sabatini, E. Kucukbenli, B. Kolb, T. Thonhauser, and
     *   S. de Gironcoli, J. Phys.: Condens. Matter 24, 424209 (2012).
     *

     Carrying out vdW-DF run using the following parameters:

     Nqs =      20    Nr_points =    1024   r_max =   100.000
     q_mesh =
               0.00001000     0.04494208     0.09755937     0.15916263
               0.23128650     0.31572767     0.41458969     0.53033537
               0.66584808     0.82450364     1.01025438     1.22772762
               1.48234092     1.78043706     2.12944203     2.53805004
               3.01644009     3.57652955     4.23227104     5.00000000

     Gradients computed in reciprocal space

[...]

     Starting wfc are  198 randomized atomic wfcs

     Self-consistent Calculation

[...]

     iteration # 26     ecut=    36.75 Ry     beta=0.10
     Davidson diagonalization with overlap
     c_bands:  2 eigenvalues not converged
     ethr =  1.17E-08,  avg # of iterations =  5.7

[...]

     total energy              =   -1896.63348175 Ry
     Harris-Foulkes estimate   =   -1896.63347579 Ry
     estimated scf accuracy    <       0.00000167 Ry

[...]

     iteration # 33     ecut=    36.75 Ry     beta=0.10
     Davidson diagonalization with overlap
     ethr =  1.07E-09,  avg # of iterations =  5.6

[...]

     negative rho (up, down):  1.811E-01 1.147E-01

[...]

     Adding external electric field

     Computed dipole along edir(3) :
        Dipole                0.0586 Ry au,          0.1490 Debye
        Dipole field          0.0001 Ry au

        Potential amp.       -0.0098 Ry
        Total length         46.6122 bohr

     Magnetic moment per site:
     atom:    1    charge:    6.0210    magn:    1.5238    constr:    0.0000
     atom:    2    charge:    6.0142    magn:    1.5222    constr:    0.0000
     atom:    3    charge:    0.1552    magn:   -0.0236    constr:    0.0000
     atom:    4    charge:    0.1552    magn:   -0.0236    constr:    0.0000
     atom:    5    charge:    6.0101    magn:    1.4647    constr:    0.0000
     atom:    6    charge:    5.9946    magn:    1.4612    constr:    0.0000
     atom:    7    charge:    0.1575    magn:   -0.0220    constr:    0.0000
     atom:    8    charge:    0.1575    magn:   -0.0220    constr:    0.0000
     atom:    9    charge:    6.0030    magn:    1.4581    constr:    0.0000
     atom:   10    charge:    6.0121    magn:    1.4596    constr:    0.0000
     atom:   11    charge:    0.1548    magn:   -0.0224    constr:    0.0000
     atom:   12    charge:    0.1548    magn:   -0.0224    constr:    0.0000

     End of self-consistent calculation

 ------ SPIN UP ------------

[...]

 ------ SPIN DOWN ----------

[...]

          k = 0.0507-0.0428 0.0000 ( 26472 PWs)   bands (ev):

[...]

          k =-0.0760-0.0555 0.0000 ( 26550 PWs)   bands (ev):

   -75.9589 -75.9588 -75.9175 -75.9171 -75.9133 -75.9132 -44.7625 -44.7621
   -44.7474 -44.7448 -44.7401 -44.7398 -44.7265 -44.7259 -44.7195 -44.7168
   -44.7024 -44.7022 -44.6946 -44.6919 -44.6902 -44.6894 -44.6814 -44.6812
   -32.0657 -32.0550 -32.0258 -32.0146 -31.3978 -31.3510 -15.9452 -15.9302
   -15.9230 -15.8218 -15.8060 -15.7590 -15.7092 -15.7062 -15.6647 -15.6130
   -15.3799 -15.3776 -15.3645 -15.0332 -15.0240 -14.9906 -14.9389 -14.7960
    -1.3869  -1.2075  -0.5858  -0.5760  -0.5100  -0.3774  -0.0529  -0.0214
     0.1275   0.1636   0.2346   0.5121   0.6726   0.8855   0.9367   0.9683
     0.9904   1.1713   1.1780   1.2710   1.3968   1.4541   1.4721   1.6711
     1.6776   1.6887   1.7150   1.7176   1.8444   1.8983   1.9677   1.9747
     2.0019   2.0384   2.0805   2.0902   2.1468   2.1791   2.1907   2.3636
     2.3893   2.4031   2.4311   2.4677   2.4891   2.5253   2.6085   2.6159
     2.7029   2.7519   2.7805   2.7925   2.8130   2.8669   2.9162   2.9348
     2.9507   2.9587   2.9839   3.0066

     the Fermi energy is     1.3459 ev

!    total energy              =   -1896.63348864 Ry
     Harris-Foulkes estimate   =   -1896.63348353 Ry
     estimated scf accuracy    <       0.00000089 Ry

     The total energy is the sum of the following terms:

     one-electron contribution =   -9175.29826185 Ry
     hartree contribution      =    4589.87899669 Ry
     xc contribution           =    -469.97315779 Ry
     ewald contribution        =    3158.86931268 Ry
     electric field correction =       0.00000614 Ry
     smearing contrib. (-TS)   =      -0.11038451 Ry

     total magnetization       =    19.43 Bohr mag/cell
     absolute magnetization    =    27.88 Bohr mag/cell

     convergence has been achieved in  33 iterations

 BEEF-vdW xc energy contributions
           1 :   -414.285110775085
           2 :    378.111104426615
           3 :   -316.151251143567
           4 :    244.117411159367
           5 :   -176.500274718483
           6 :    122.295195364833
           7 :   -84.3350240126296
           8 :    61.0159779283266
           9 :   -48.5180359998253
          10 :    42.4542336207955
          11 :   -38.8951598197691
          12 :    35.0167664733641
          13 :   -29.4312269458253
          14 :    22.0873021255621
          15 :   -13.7738170761845
          16 :    5.51610220968763
          17 :    1.78363417227376
          18 :   -7.38231314317738
          19 :    10.6444562213551
          20 :   -11.1848066449477
          21 :    9.19400941632148
          22 :   -5.64019144393683
          23 :    2.04335370913816
          24 :   0.144946415986510
          25 :  -0.192517413559415
          26 :   -1.63842557054340
          27 :    4.32302129702020
          28 :   -6.62636151209097
          29 :    7.65435094652298
          30 :   -7.16743452378830
          31 :   -35.7714930871442
          32 :   -25.3923118799516

     Forces acting on atoms (Ry/au):

     negative rho (up, down):  1.811E-01 1.147E-01
     atom    1 type  1   force =    -0.00111963   -0.00081696    0.01176201
     atom    2 type  1   force =    -0.00109913   -0.00080400    0.01184506
     atom    3 type  2   force =     0.00446458    0.00328196   -0.00094655
     atom    4 type  2   force =     0.00448571    0.00325497   -0.00094685
     atom    5 type  1   force =    -0.00195574   -0.00142921    0.00521948
     atom    6 type  1   force =    -0.00197924   -0.00144480    0.00525710
     atom    7 type  2   force =    -0.00148916   -0.00108082   -0.01386392
     atom    8 type  2   force =    -0.00148349   -0.00108940   -0.01386574
     atom    9 type  1   force =    -0.00021280   -0.00015726   -0.00156754
     atom   10 type  1   force =    -0.00030256   -0.00022014   -0.00143763
     atom   11 type  2   force =     0.00031922    0.00029164   -0.00072809
     atom   12 type  2   force =     0.00037224    0.00021404   -0.00072734

     Total force =     0.028457     Total SCF correction =     0.002176

     entering subroutine stress ...

     negative rho (up, down):  1.811E-01 1.147E-01
          total   stress  (Ry/bohr**3)                   (kbar)     P=   -7.66
  -0.00006886  -0.00000747  -0.00000470        -10.13     -1.10     -0.69
  -0.00000747  -0.00006409  -0.00000343         -1.10     -9.43     -0.50
  -0.00000470  -0.00000343  -0.00002320         -0.69     -0.50     -3.41

 !ASE

     Writing output data file calc.save

     General routines

     Parallel routines

   This run was terminated on:  20:16:32  18Dec2018

   JOB DONE.
Job  /afs/slac/g/suncat/bin/suncat-tsmpirun -x LD_LIBRARY_PATH -wdir /scratch/qe530210_D2F43 pw.x -in pw.inp

TID   HOST_NAME   COMMAND_LINE            STATUS            TERMINATION_TIME
00000 suncat2046 pw.x -in pw.inp   Done                     12/18/2018 20:16:32
00001 suncat2046 pw.x -in pw.inp   Done                     12/18/2018 20:16:32
00002 suncat2046 pw.x -in pw.inp   Done                     12/18/2018 20:16:32
00003 suncat2046 pw.x -in pw.inp   Done                     12/18/2018 20:16:32
00004 suncat2046 pw.x -in pw.inp   Done                     12/18/2018 20:16:32
00005 suncat2046 pw.x -in pw.inp   Done                     12/18/2018 20:16:32
00006 suncat2046 pw.x -in pw.inp   Done                     12/18/2018 20:16:32
00007 suncat2046 pw.x -in pw.inp   Done                     12/18/2018 20:16:32
00008 suncat2046 pw.x -in pw.inp   Done                     12/18/2018 20:16:32
00009 suncat2046 pw.x -in pw.inp   Done                     12/18/2018 20:16:32
00010 suncat2046 pw.x -in pw.inp   Done                     12/18/2018 20:16:32
00011 suncat2046 pw.x -in pw.inp   Done                     12/18/2018 20:16:32
00012 suncat2046 pw.x -in pw.inp   Done                     12/18/2018 20:16:32
00013 suncat2046 pw.x -in pw.inp   Done                     12/18/2018 20:16:32
00014 suncat2046 pw.x -in pw.inp   Done                     12/18/2018 20:16:32
00015 suncat2046 pw.x -in pw.inp   Done                     12/18/2018 20:16:32
00016 suncat2045 pw.x -in pw.inp   Done                     12/18/2018 20:16:32
00017 suncat2045 pw.x -in pw.inp   Done                     12/18/2018 20:16:32
00018 suncat2045 pw.x -in pw.inp   Done                     12/18/2018 20:16:32
00019 suncat2045 pw.x -in pw.inp   Done                     12/18/2018 20:16:32
00020 suncat2045 pw.x -in pw.inp   Done                     12/18/2018 20:16:32
00021 suncat2045 pw.x -in pw.inp   Done                     12/18/2018 20:16:32
00022 suncat2045 pw.x -in pw.inp   Done                     12/18/2018 20:16:32
00023 suncat2045 pw.x -in pw.inp   Done                     12/18/2018 20:16:32
00024 suncat2045 pw.x -in pw.inp   Done                     12/18/2018 20:16:32
00025 suncat2045 pw.x -in pw.inp   Done                     12/18/2018 20:16:32
00026 suncat2045 pw.x -in pw.inp   Done                     12/18/2018 20:16:32
00027 suncat2045 pw.x -in pw.inp   Done                     12/18/2018 20:16:32
00028 suncat2045 pw.x -in pw.inp   Done                     12/18/2018 20:16:32
00029 suncat2045 pw.x -in pw.inp   Done                     12/18/2018 20:16:32
00030 suncat2045 pw.x -in pw.inp   Done                     12/18/2018 20:16:32
00031 suncat2045 pw.x -in pw.inp   Done                     12/18/2018 20:16:32