     Program PWSCF v.5.1rc2 (svn rev. 11289) starts on 18Dec2018 at 20:16:55

     Current dimensions of program PWSCF are:
     Max number of different atomic species (ntypx) = 10
     Max number of k-points (npk) =  40000
     Max angular momentum in pseudopotentials (lmaxx) =  3
     Presently stress not available with electric field

     IMPORTANT: XC functional enforced from input :
     Exchange-correlation      = BEEF-VDW ( 1  4 27 13 2)
     Any further DFT definition will be discarded
     Please, verify this is what you really want

     Subspace diagonalization in iterative solution of the eigenvalue problem:
     a serial algorithm will be used

     Found symmetry operation: I + ( -0.5000  0.0000  0.0000)
     This is a supercell, fractional translations are disabled

     bravais-lattice index     =            0
     lattice parameter (alat)  =       1.8897  a.u.
     unit-cell volume          =    4709.8768 (a.u.)^3
     number of atoms/cell      =           12
     number of atomic types    =            2
     number of electrons       =       174.00
     number of Kohn-Sham states=          117
     kinetic-energy cutoff     =      36.7493  Ry
     charge density cutoff     =     367.4932  Ry
     convergence threshold     =      1.0E-06
     mixing beta               =       0.1000
     number of iterations used =           10  plain     mixing
     Exchange-correlation      = BEEF-VDW ( 1  4 27 13 2)
     nstep                     =           50

     celldm(1)=   1.889726  celldm(2)=   0.000000  celldm(3)=   0.000000
     celldm(4)=   0.000000  celldm(5)=   0.000000  celldm(6)=   0.000000

     crystal axes: (cart. coord. in units of alat)
               a(1) = (   5.656610   0.000000   0.000000 )
               a(2) = (  -2.828305   5.002239   0.000000 )
               a(3) = (   0.000000   0.000000  24.665637 )

     reciprocal axes: (cart. coord. in units 2 pi/alat)
               b(1) = (  0.176784  0.099955  0.000000 )
               b(2) = (  0.000000  0.199910  0.000000 )
               b(3) = (  0.000000  0.000000  0.040542 )

     PseudoPot. # 1 for Nb read from file:
     /afs/slac.stanford.edu/u/if/mamunm/psp/gbrv1.5pbe/Nb.UPF
     MD5 check sum: 573aab8a2fa660278ed4a62cd769473f
     Pseudo is Ultrasoft + core correction, Zval = 13.0
     Generated by new atomic code, or converted to UPF format
     Using radial grid of  887 points,  6 beta functions with:
                l(1) =   0
                l(2) =   0
                l(3) =   1
                l(4) =   1
                l(5) =   2
                l(6) =   2
     Q(r) pseudized with  6 coefficients,  rinner =    1.000   1.000   1.000
                                                       1.000   1.000

     PseudoPot. # 2 for Pt read from file:
     /afs/slac.stanford.edu/u/if/mamunm/psp/gbrv1.5pbe/Pt.UPF
     MD5 check sum: f09d6de1a584b5a045c4fc126da2d0c4
     Pseudo is Ultrasoft + core correction, Zval = 16.0
     Generated by new atomic code, or converted to UPF format
     Using radial grid of  985 points,  6 beta functions with:
                l(1) =   0
                l(2) =   0
                l(3) =   1
                l(4) =   1
                l(5) =   2
                l(6) =   2
     Q(r) pseudized with  8 coefficients,  rinner =    1.300   1.300   1.300
                                                       1.300   1.300

     vdW kernel table read from file vdW_kernel_table
     MD5 check sum: 095c7af220d748ca6e76c0b4c6cfb241

     atomic species   valence    mass     pseudopotential
        Nb1           13.00    92.90637     Nb( 1.00)
        Pt1           16.00   195.08400     Pt( 1.00)

     No symmetry found

   Cartesian axes

     site n.     atom                  positions (alat units)
         1           Nb1 tau(   1) = (   0.0000000   0.0000000  10.0000000  )
         2           Nb1 tau(   2) = (   2.8283048   0.0000000  10.0000000  )
         3           Pt1 tau(   3) = (   1.4141524   2.5011193  10.0000000  )
         4           Pt1 tau(   4) = (  -1.4141524   2.5011193  10.0000000  )
         5           Nb1 tau(   5) = (   2.8283048   1.5991457  12.3328183  )
         6           Nb1 tau(   6) = (   0.0000000   1.5991457  12.3328183  )
         7           Pt1 tau(   7) = (  -1.4141524   4.1002650  12.3328183  )
         8           Pt1 tau(   8) = (   1.4141524   4.1002650  12.3328183  )
         9           Nb1 tau(   9) = (  -0.0000000   3.1982914  14.6656366  )
        10           Nb1 tau(  10) = (   2.8283048   3.1982914  14.6656366  )
        11           Pt1 tau(  11) = (   4.2424573   0.6971721  14.6656366  )
        12           Pt1 tau(  12) = (   1.4141524   0.6971721  14.6656366  )

     number of k points=    20  Fermi-Dirac smearing, width (Ry)=  0.0110
                       cart. coord. in units 2pi/alat
        k(    1) = (   0.0000000   0.0000000   0.0000000), wk =   0.0555556
        k(    2) = (   0.0000000   0.0333184   0.0000000), wk =   0.1111111
        k(    3) = (   0.0000000   0.0666368   0.0000000), wk =   0.1111111
        k(    4) = (   0.0000000  -0.0999552   0.0000000), wk =   0.0555556
        k(    5) = (   0.0294641   0.0166592   0.0000000), wk =   0.1111111
        k(    6) = (   0.0294641   0.0499776   0.0000000), wk =   0.1111111
        k(    7) = (   0.0294641   0.0832960   0.0000000), wk =   0.1111111
        k(    8) = (   0.0294641  -0.0832960   0.0000000), wk =   0.1111111
        k(    9) = (   0.0294641  -0.0499776   0.0000000), wk =   0.1111111
        k(   10) = (   0.0294641  -0.0166592   0.0000000), wk =   0.1111111
        k(   11) = (   0.0589281   0.0333184   0.0000000), wk =   0.1111111
        k(   12) = (   0.0589281   0.0666368   0.0000000), wk =   0.1111111
        k(   13) = (   0.0589281   0.0999552   0.0000000), wk =   0.1111111
        k(   14) = (   0.0589281  -0.0666368   0.0000000), wk =   0.1111111
        k(   15) = (   0.0589281  -0.0333184   0.0000000), wk =   0.1111111
        k(   16) = (   0.0589281   0.0000000   0.0000000), wk =   0.1111111
        k(   17) = (  -0.0883922  -0.0499776   0.0000000), wk =   0.0555556
        k(   18) = (  -0.0883922  -0.0166592   0.0000000), wk =   0.1111111
        k(   19) = (  -0.0883922   0.0166592   0.0000000), wk =   0.1111111
        k(   20) = (  -0.0883922  -0.1499329   0.0000000), wk =   0.0555556

     Largest allocated arrays     est. size (Mb)     dimensions
     Largest temporary arrays     est. size (Mb)     dimensions

     Initial potential from superposition of free atoms
     Check: negative starting charge=   -1.103296

     starting charge  170.98353, renormalised to  174.00000

     negative rho (up, down):  1.123E+00 0.000E+00

     *
     * You are using vdW-DF for exchange-correlation in this calculation.
     * Please cite the following three references that made this development
     * possible:
     *
     *   M. Dion, H. Rydberg, E. Schroder, D. C. Langreth, and
     *   B. I. Lundqvist, Phys. Rev. Lett. 92, 246401 (2004).
     *
     *   T. Thonhauser, V. R. Cooper, S. Li, A. Puzder, P. Hyldgaard, and
     *   D. C. Langreth, Phys. Rev. B 76, 125112 (2007).
     *
     *   G. Roman-Perez and J. M. Soler, Phys. Rev. Lett. 103, 096102 (2009).
     *
     *
     * If you are using vdW-DF2, please also cite:
     *
     *   K. Lee, E. D. Murray, L. Kong, B. I. Lundqvist, and
     *   D. C. Langreth, Phys. Rev. B 82, 081101(R) (2010).
     *
     *
     * If you are calculating the stress with vdW-DF, please also cite:
     *
     *   R. Sabatini, E. Kucukbenli, B. Kolb, T. Thonhauser, and
     *   S. de Gironcoli, J. Phys.: Condens. Matter 24, 424209 (2012).
     *

     Carrying out vdW-DF run using the following parameters:

     Nqs =      20    Nr_points =    1024   r_max =   100.000
     q_mesh =
               0.00001000     0.04494208     0.09755937     0.15916263
               0.23128650     0.31572767     0.41458969     0.53033537
               0.66584808     0.82450364     1.01025438     1.22772762
               1.48234092     1.78043706     2.12944203     2.53805004
               3.01644009     3.57652955     4.23227104     5.00000000

     Gradients computed in reciprocal space

     Adding external electric field

     Computed dipole along edir(3) :
        Dipole               -0.0000 Ry au,         -0.0000 Debye
        Dipole field         -0.0000 Ry au

        Potential amp.        0.0000 Ry
        Total length         45.4460 bohr

     Starting wfc are  150 randomized atomic wfcs

     Self-consistent Calculation

     iteration #  1     ecut=    36.75 Ry     beta=0.10
     Davidson diagonalization with overlap
     ethr =  1.00E-02,  avg # of iterations =  5.8

[...]

     total energy              =   -1986.19945154 Ry
     Harris-Foulkes estimate   =   -1987.03935229 Ry
     estimated scf accuracy    <       5.67857499 Ry

[...]

     End of self-consistent calculation

          k = 0.0000 0.0000 0.0000 ( 17749 PWs)   bands (ev):

   -53.2185 -53.2095 -53.1055 -53.0962 -53.0629 -52.9478 -51.1581 -51.0780
   -51.0619 -50.9981 -50.9802 -50.9664 -50.6078 -50.6068 -50.6039 -50.6026
   -50.5861 -50.5842 -50.4221 -50.4170 -50.4156 -50.4154 -50.4066 -50.3997
   -29.5844 -29.5160 -29.4915 -29.4830 -29.3693 -29.3292 -29.2832 -29.2172
   -29.2084 -29.1807 -29.1658 -29.1003 -29.0469 -28.7541 -28.6561 -28.6162
   -28.5719 -28.5494  -5.4049  -3.9054  -3.7979  -3.4125  -3.3895  -3.2296
    -3.1082  -3.0799  -2.9483  -2.8368  -2.6952  -2.6951  -2.5572  -2.3986
    -2.3933  -1.6237  -1.4035  -1.3539  -1.2234  -1.0615  -0.9411  -0.7349
    -0.6135  -0.5521  -0.4391  -0.3036  -0.2113   0.0285   0.0349   0.7405
     0.7417   0.9042   0.9538   1.0055   1.1850   1.5458   1.5837   1.6038
     1.7568   1.8556   2.2957   2.4319   2.4445   2.6379   2.8185   2.8920
     3.2226   3.3150   3.3277   3.4232   3.8091   3.9538   4.0027   4.0205
     4.3893   4.4148   4.7127   4.7731   4.7754   5.2389   5.4687   5.6335
     5.6979   5.7665   5.8268   5.8625   6.0393   6.1039   6.2278   6.2934
     6.4859   6.4863   6.6685   6.7588   6.9139

[...]

          k =-0.0884-0.0500 0.0000 ( 17708 PWs)   bands (ev):

[...]

     the Fermi energy is     2.2933 ev

!    total energy              =   -1985.70822160 Ry
     Harris-Foulkes estimate   =   -1985.70820090 Ry
     estimated scf accuracy    <       0.00000011 Ry

     The total energy is the sum of the following terms:

     one-electron contribution =  -15696.38400693 Ry
     hartree contribution      =    7862.70883614 Ry
     xc contribution           =    -465.90078987 Ry
     ewald contribution        =    6313.93360537 Ry
     electric field correction =       0.00000000 Ry
     smearing contrib. (-TS)   =      -0.06586631 Ry

     convergence has been achieved in  17 iterations

 BEEF-vdW xc energy contributions
           1 :   -411.229713053711
           2 :    380.909536157215
           3 :   -327.141883104949
           4 :    261.107996242266
           5 :   -194.651649569018
           6 :    136.975063174965
           7 :   -92.7956838684879
           8 :    62.2583937367567
           9 :   -42.2804596269885
          10 :    28.5567691801090
[...]
00030 suncat2045 pw.x -in pw.inp   Done                     12/18/2018 20:21:28
00031 suncat2045 pw.x -in pw.inp   Done                     12/18/2018 20:21:28

[...]

     iteration #  9     ecut=    36.75 Ry     beta=0.10
     Davidson diagonalization with overlap
     c_bands:  1 eigenvalues not converged
     ethr =  5.87E-06,  avg # of iterations =  6.1

[...]

   This run was terminated on:  20:39: 7  18Dec2018

[...]

     Program PWSCF v.5.1rc2 (svn rev. 11289) starts on 18Dec2018 at 20:39:13

     Current dimensions of program PWSCF are:
     Max number of different atomic species (ntypx) = 10
     Max number of k-points (npk) =  40000
     Max angular momentum in pseudopotentials (lmaxx) =  3
     Presently stress not available with electric field

     IMPORTANT: XC functional enforced from input :
     Exchange-correlation      = BEEF-VDW ( 1  4 27 13 2)
     Any further DFT definition will be discarded
     Please, verify this is what you really want

     Subspace diagonalization in iterative solution of the eigenvalue problem:
     a serial algorithm will be used

     Found symmetry operation: I + ( -0.5000  0.0000  0.0000)
     This is a supercell, fractional translations are disabled

     bravais-lattice index     =            0
     lattice parameter (alat)  =       1.8897  a.u.
     unit-cell volume          =    4709.8768 (a.u.)^3
     number of atoms/cell      =           12
     number of atomic types    =            2
     number of electrons       =       174.00
     number of Kohn-Sham states=          117
     kinetic-energy cutoff     =      36.7493  Ry
     charge density cutoff     =     367.4932  Ry
     convergence threshold     =      1.0E-06
     mixing beta               =       0.1000
     number of iterations used =           10  plain     mixing
     Exchange-correlation      = BEEF-VDW ( 1  4 27 13 2)
     nstep                     =           50

     celldm(1)=   1.889726  celldm(2)=   0.000000  celldm(3)=   0.000000
     celldm(4)=   0.000000  celldm(5)=   0.000000  celldm(6)=   0.000000

     crystal axes: (cart. coord. in units of alat)
               a(1) = (   5.656610   0.000000   0.000000 )
               a(2) = (  -2.828305   5.002239   0.000000 )
               a(3) = (   0.000000   0.000000  24.665637 )

     reciprocal axes: (cart. coord. in units 2 pi/alat)
               b(1) = (  0.176784  0.099955  0.000000 )
               b(2) = (  0.000000  0.199910  0.000000 )
               b(3) = (  0.000000  0.000000  0.040542 )

     PseudoPot. # 1 for Nb read from file:
     /afs/slac.stanford.edu/u/if/mamunm/psp/gbrv1.5pbe/Nb.UPF
     MD5 check sum: 573aab8a2fa660278ed4a62cd769473f
     Pseudo is Ultrasoft + core correction, Zval = 13.0
     Generated by new atomic code, or converted to UPF format
     Using radial grid of  887 points,  6 beta functions with:
                l(1) =   0
                l(2) =   0
                l(3) =   1
                l(4) =   1
                l(5) =   2
                l(6) =   2
     Q(r) pseudized with  6 coefficients,  rinner =    1.000   1.000   1.000
                                                       1.000   1.000

     PseudoPot. # 2 for Pt read from file:
     /afs/slac.stanford.edu/u/if/mamunm/psp/gbrv1.5pbe/Pt.UPF
     MD5 check sum: f09d6de1a584b5a045c4fc126da2d0c4
     Pseudo is Ultrasoft + core correction, Zval = 16.0
     Generated by new atomic code, or converted to UPF format
     Using radial grid of  985 points,  6 beta functions with:
                l(1) =   0
                l(2) =   0
                l(3) =   1
                l(4) =   1
                l(5) =   2
                l(6) =   2
     Q(r) pseudized with  8 coefficients,  rinner =    1.300   1.300   1.300
                                                       1.300   1.300

     vdW kernel table read from file vdW_kernel_table
     MD5 check sum: 095c7af220d748ca6e76c0b4c6cfb241

     atomic species   valence    mass     pseudopotential
        Nb1           13.00    92.90637     Nb( 1.00)
        Pt1           16.00   195.08400     Pt( 1.00)

     No symmetry found

   Cartesian axes

     site n.     atom                  positions (alat units)
         1           Nb1 tau(   1) = (   0.0000000   0.0000000  10.0000000  )
         2           Nb1 tau(   2) = (   2.8283048   0.0000000  10.0000000  )
         3           Pt1 tau(   3) = (   1.4141524   2.5011193  10.0000000  )
         4           Pt1 tau(   4) = (  -1.4141524   2.5011193  10.0000000  )
         5           Nb1 tau(   5) = (   2.8283048   1.5991457  12.3328183  )
         6           Nb1 tau(   6) = (   0.0000000   1.5991457  12.3328183  )
         7           Pt1 tau(   7) = (  -1.4141524   4.1002650  12.3328183  )
         8           Pt1 tau(   8) = (   1.4141524   4.1002650  12.3328183  )
         9           Nb1 tau(   9) = (   0.0000020   3.3140075  14.5790769  )
        10           Nb1 tau(  10) = (   2.8283043   3.3140051  14.5790752  )
        11           Pt1 tau(  11) = (   4.2424577   0.8828607  14.6326710  )
        12           Pt1 tau(  12) = (   1.4141513   0.8828545  14.6326683  )

     number of k points=    20  Fermi-Dirac smearing, width (Ry)=  0.0110
                       cart. coord. in units 2pi/alat
        k(    1) = (   0.0000000   0.0000000   0.0000000), wk =   0.0555556
        k(    2) = (   0.0000000   0.0333184   0.0000000), wk =   0.1111111
        k(    3) = (   0.0000000   0.0666368   0.0000000), wk =   0.1111111
        k(    4) = (   0.0000000  -0.0999552   0.0000000), wk =   0.0555556
        k(    5) = (   0.0294641   0.0166592   0.0000000), wk =   0.1111111
        k(    6) = (   0.0294641   0.0499776   0.0000000), wk =   0.1111111
        k(    7) = (   0.0294641   0.0832960   0.0000000), wk =   0.1111111
        k(    8) = (   0.0294641  -0.0832960   0.0000000), wk =   0.1111111
        k(    9) = (   0.0294641  -0.0499776   0.0000000), wk =   0.1111111
        k(   10) = (   0.0294641  -0.0166592   0.0000000), wk =   0.1111111
        k(   11) = (   0.0589281   0.0333184   0.0000000), wk =   0.1111111
        k(   12) = (   0.0589281   0.0666368   0.0000000), wk =   0.1111111
        k(   13) = (   0.0589281   0.0999552   0.0000000), wk =   0.1111111
        k(   14) = (   0.0589281  -0.0666368   0.0000000), wk =   0.1111111
        k(   15) = (   0.0589281  -0.0333184   0.0000000), wk =   0.1111111
        k(   16) = (   0.0589281   0.0000000   0.0000000), wk =   0.1111111
        k(   17) = (  -0.0883922  -0.0499776   0.0000000), wk =   0.0555556
        k(   18) = (  -0.0883922  -0.0166592   0.0000000), wk =   0.1111111
        k(   19) = (  -0.0883922   0.0166592   0.0000000), wk =   0.1111111
        k(   20) = (  -0.0883922  -0.1499329   0.0000000), wk =   0.0555556

     Largest allocated arrays     est. size (Mb)     dimensions
     Largest temporary arrays     est. size (Mb)     dimensions

     Initial potential from superposition of free atoms
     Check: negative starting charge=   -1.107414

     starting charge  170.98353, renormalised to  174.00000

[...]

     *
     * You are using vdW-DF for exchange-correlation in this calculation.
     * Please cite the following three references that made this development
     * possible:
     *
     *   M. Dion, H. Rydberg, E. Schroder, D. C. Langreth, and
     *   B. I. Lundqvist, Phys. Rev. Lett. 92, 246401 (2004).
     *
     *   T. Thonhauser, V. R. Cooper, S. Li, A. Puzder, P. Hyldgaard, and
     *   D. C. Langreth, Phys. Rev. B 76, 125112 (2007).
     *
     *   G. Roman-Perez and J. M. Soler, Phys. Rev. Lett. 103, 096102 (2009).
     *
     *
     * If you are using vdW-DF2, please also cite:
     *
     *   K. Lee, E. D. Murray, L. Kong, B. I. Lundqvist, and
     *   D. C. Langreth, Phys. Rev. B 82, 081101(R) (2010).
     *
     *
     * If you are calculating the stress with vdW-DF, please also cite:
     *
     *   R. Sabatini, E. Kucukbenli, B. Kolb, T. Thonhauser, and
     *   S. de Gironcoli, J. Phys.: Condens. Matter 24, 424209 (2012).
     *

     Carrying out vdW-DF run using the following parameters:

     Nqs =      20    Nr_points =    1024   r_max =   100.000
     q_mesh =
               0.00001000     0.04494208     0.09755937     0.15916263
               0.23128650     0.31572767     0.41458969     0.53033537
               0.66584808     0.82450364     1.01025438     1.22772762
               1.48234092     1.78043706     2.12944203     2.53805004
               3.01644009     3.57652955     4.23227104     5.00000000

     Gradients computed in reciprocal space

[...]

     Starting wfc are  150 randomized atomic wfcs

     Self-consistent Calculation

[...]

     total energy              =   -1985.72102407 Ry
     Harris-Foulkes estimate   =   -1985.72101731 Ry
     estimated scf accuracy    <       0.00000164 Ry

     iteration # 16     ecut=    36.75 Ry     beta=0.10
     Davidson diagonalization with overlap
     ethr =  9.42E-10,  avg # of iterations =  2.0

[...]

     negative rho (up, down):  1.055E+00 0.000E+00

     Adding external electric field

     Computed dipole along edir(3) :
        Dipole                0.0065 Ry au,          0.0165 Debye
        Dipole field          0.0000 Ry au

        Potential amp.       -0.0016 Ry
        Total length         45.4460 bohr

     End of self-consistent calculation

[...]

          k = 0.0589 0.0000 0.0000 ( 17766 PWs)   bands (ev):

[...]

          k =-0.0884-0.1499 0.0000 ( 17708 PWs)   bands (ev):

   -53.1423 -53.1423 -53.1258 -53.1258 -52.9966 -52.9965 -51.1617 -51.1617
   -51.1556 -51.1556 -51.0562 -51.0562 -50.6382 -50.6382 -50.5783 -50.5783
   -50.5765 -50.5765 -50.4976 -50.4976 -50.4787 -50.4787 -50.3967 -50.3966
   -29.4239 -29.4239 -29.2509 -29.2509 -29.2220 -29.2220 -29.1442 -29.1442
   -29.1108 -29.1108 -29.0992 -29.0992 -29.0382 -29.0382 -29.0154 -29.0154
   -28.6976 -28.6976  -3.8001  -3.8001  -2.7898  -2.7898  -2.5298  -2.5298
    -2.3691  -2.3691  -2.2356  -2.2356  -2.1108  -2.1108  -1.8469  -1.8469
    -1.8156  -1.8156  -1.4289  -1.4289  -1.1485  -1.1485  -1.0190  -1.0190
    -0.8180  -0.8180  -0.7682  -0.7682  -0.6786  -0.6786  -0.6121  -0.6121
    -0.4301  -0.4301  -0.1247  -0.1247   0.9261   0.9261   1.2185   1.2185
     1.4264   1.4264   1.7021   1.7021   2.0192   2.0192   2.4747   2.4747
     2.8158   2.8158   3.0062   3.0062   3.1959   3.1959   3.2657   3.2657
     3.3779   3.3779   3.7206   3.7206   4.2900   4.2900   4.8196   4.8196
     5.1733   5.1734   5.5425   5.5426   6.6426   6.6426   6.8966   6.8966
     7.1562   7.1562   7.7595   7.7596   8.2491

     the Fermi energy is     2.3063 ev

!    total energy              =   -1985.72104836 Ry
     Harris-Foulkes estimate   =   -1985.72102433 Ry
     estimated scf accuracy    <       0.00000052 Ry

     The total energy is the sum of the following terms:

     one-electron contribution =  -15824.63174179 Ry
     hartree contribution      =    7926.72420303 Ry
     xc contribution           =    -466.02988872 Ry
     ewald contribution        =    6378.28067987 Ry
     electric field correction =       0.00000011 Ry
     smearing contrib. (-TS)   =      -0.06430085 Ry

     convergence has been achieved in  16 iterations

 BEEF-vdW xc energy contributions
           1 :   -411.362228049278
           2 :    381.090844775821
           3 :   -327.387683107868
           4 :    261.384864294653
           5 :   -194.889812059396
           6 :    137.103001844618
           7 :   -92.7787425133615
           8 :    62.1197157301636
           9 :   -42.0937925851425
          10 :    28.4136347404700
          11 :   -17.3857974618334
          12 :    7.00457358320432
          13 :    2.91458595995243
          14 :   -11.3850822755602
          15 :    17.2161085380027
          16 :   -19.8160950221910
          17 :    19.5177306964277
          18 :   -17.4034120765456
          19 :    14.8174959019380
          20 :   -12.8493735029417
          21 :    12.0058597753584
          22 :   -12.1694940025300
          23 :    12.7945772572749
          24 :   -13.2199361139167
          25 :    12.9534085371632
          26 :   -11.8324367684453
          27 :    10.0283307517454
          28 :   -7.93176006308539
          29 :    5.98431882298087
          30 :   -4.52571466994954
          31 :   -36.9253353117900
          32 :   -27.5400313032549

     Forces acting on atoms (Ry/au):

     negative rho (up, down):  1.055E+00 0.000E+00
     atom    1 type  1   force =    -0.00000002    0.00805129    0.01647988
     atom    2 type  1   force =     0.00000012    0.00805087    0.01647956
     atom    3 type  2   force =     0.00000031   -0.02744217    0.00536209
     atom    4 type  2   force =    -0.00000022   -0.02744253    0.00536278
     atom    5 type  1   force =    -0.00000019    0.00974491   -0.01308403
     atom    6 type  1   force =     0.00000015    0.00974539   -0.01308375
     atom    7 type  2   force =    -0.00000043    0.00951405   -0.00983986
     atom    8 type  2   force =     0.00000032    0.00951532   -0.00983865
     atom    9 type  1   force =    -0.00000045   -0.00029361    0.00016969
     atom   10 type  1   force =     0.00000034   -0.00029303    0.00017045
     atom   11 type  2   force =    -0.00000058    0.00042474    0.00091061
     atom   12 type  2   force =     0.00000064    0.00042479    0.00091124

     Total force =     0.056087     Total SCF correction =     0.003081

     entering subroutine stress ...

     negative rho (up, down):  1.055E+00 0.000E+00
          total   stress  (Ry/bohr**3)                   (kbar)     P=  -16.44
  -0.00010134   0.00000000   0.00000000        -14.91      0.00      0.00
   0.00000000  -0.00018584   0.00003729          0.00    -27.34      5.49
   0.00000000   0.00003729  -0.00004807          0.00      5.49     -7.07

 !ASE

     Writing output data file calc.save

     General routines

     Parallel routines

   This run was terminated on:  20:43:28  18Dec2018

   JOB DONE.
Job  /afs/slac/g/suncat/bin/suncat-tsmpirun -x LD_LIBRARY_PATH -wdir /scratch/qe530305_1JBsk pw.x -in pw.inp

TID   HOST_NAME   COMMAND_LINE            STATUS            TERMINATION_TIME
00000 suncat2046 pw.x -in pw.inp   Done                     12/18/2018 20:43:28
00001 suncat2046 pw.x -in pw.inp   Done                     12/18/2018 20:43:28
00002 suncat2046 pw.x -in pw.inp   Done                     12/18/2018 20:43:28
00003 suncat2046 pw.x -in pw.inp   Done                     12/18/2018 20:43:28
00004 suncat2046 pw.x -in pw.inp   Done                     12/18/2018 20:43:28
00005 suncat2046 pw.x -in pw.inp   Done                     12/18/2018 20:43:28
00006 suncat2046 pw.x -in pw.inp   Done                     12/18/2018 20:43:28
00007 suncat2046 pw.x -in pw.inp   Done                     12/18/2018 20:43:28
00008 suncat2046 pw.x -in pw.inp   Done                     12/18/2018 20:43:28
00009 suncat2046 pw.x -in pw.inp   Done                     12/18/2018 20:43:28
00010 suncat2046 pw.x -in pw.inp   Done                     12/18/2018 20:43:28
00011 suncat2046 pw.x -in pw.inp   Done                     12/18/2018 20:43:28
00012 suncat2046 pw.x -in pw.inp   Done                     12/18/2018 20:43:28
00013 suncat2046 pw.x -in pw.inp   Done                     12/18/2018 20:43:28
00014 suncat2046 pw.x -in pw.inp   Done                     12/18/2018 20:43:28
00015 suncat2046 pw.x -in pw.inp   Done                     12/18/2018 20:43:28
00016 suncat2045 pw.x -in pw.inp   Done                     12/18/2018 20:43:28
00017 suncat2045 pw.x -in pw.inp   Done                     12/18/2018 20:43:28
00018 suncat2045 pw.x -in pw.inp   Done                     12/18/2018 20:43:28
00019 suncat2045 pw.x -in pw.inp   Done                     12/18/2018 20:43:28
00020 suncat2045 pw.x -in pw.inp   Done                     12/18/2018 20:43:28
00021 suncat2045 pw.x -in pw.inp   Done                     12/18/2018 20:43:28
00022 suncat2045 pw.x -in pw.inp   Done                     12/18/2018 20:43:28
00023 suncat2045 pw.x -in pw.inp   Done                     12/18/2018 20:43:28
00024 suncat2045 pw.x -in pw.inp   Done                     12/18/2018 20:43:28
00025 suncat2045 pw.x -in pw.inp   Done                     12/18/2018 20:43:28
00026 suncat2045 pw.x -in pw.inp   Done                     12/18/2018 20:43:28
00027 suncat2045 pw.x -in pw.inp   Done                     12/18/2018 20:43:28
00028 suncat2045 pw.x -in pw.inp   Done                     12/18/2018 20:43:28
00029 suncat2045 pw.x -in pw.inp   Done                     12/18/2018 20:43:28
00030 suncat2045 pw.x -in pw.inp   Done                     12/18/2018 20:43:28
00031 suncat2045 pw.x -in pw.inp   Done                     12/18/2018 20:43:28