     Program PWSCF v.5.1rc2 (svn rev. 11289) starts on 19Dec2018 at  5:11:48

     Current dimensions of program PWSCF are:
     Max number of different atomic species (ntypx) = 10
     Max number of k-points (npk) =  40000
     Max angular momentum in pseudopotentials (lmaxx) =  3
     Presently stress not available with electric field

     IMPORTANT: XC functional enforced from input :
     Exchange-correlation      = BEEF-VDW ( 1  4 27 13 2)
     Any further DFT definition will be discarded
     Please, verify this is what you really want

     Subspace diagonalization in iterative solution of the eigenvalue problem:
     a serial algorithm will be used

     Found symmetry operation: I + (  0.5000  0.0000  0.0000)
     This is a supercell, fractional translations are disabled

     bravais-lattice index     =            0
     lattice parameter (alat)  =       1.8897  a.u.
     unit-cell volume          =    5505.1113 (a.u.)^3
     number of atoms/cell      =           12
     number of atomic types    =            2
     number of electrons       =       144.00
     number of Kohn-Sham states=          102
     kinetic-energy cutoff     =      36.7493  Ry
     charge density cutoff     =     367.4932  Ry
     convergence threshold     =      1.0E-06
     mixing beta               =       0.1000
     number of iterations used =           10  plain     mixing
     Exchange-correlation      = BEEF-VDW ( 1  4 27 13 2)
     nstep                     =           50

     celldm(1)=   1.889726  celldm(2)=   0.000000  celldm(3)=   0.000000
     celldm(4)=   0.000000  celldm(5)=   0.000000  celldm(6)=   0.000000

     crystal axes: (cart. coord. in units of alat)
               a(1) = (   5.817503   0.000000   0.000000 )
               a(2) = (  -2.908752   5.614507   0.000000 )
               a(3) = (   0.000000   0.000000  24.975905 )

     reciprocal axes: (cart. coord. in units 2 pi/alat)
               b(1) = (  0.171895  0.089055  0.000000 )
               b(2) = (  0.000000  0.178110  0.000000 )
               b(3) = (  0.000000  0.000000  0.040039 )

     PseudoPot. # 1 for Sc read from file:
     /afs/slac.stanford.edu/u/if/mamunm/psp/gbrv1.5pbe/Sc.UPF
     MD5 check sum: db30a2753ba66ef00f23801d899b7e7f
     Pseudo is Ultrasoft + core correction, Zval = 11.0
     Generated by new atomic code, or converted to UPF format
     Using radial grid of  849 points,  6 beta functions with:
                l(1) =   0
                l(2) =   0
                l(3) =   1
                l(4) =   1
                l(5) =   2
                l(6) =   2
     Q(r) pseudized with  6 coefficients,  rinner =    1.200   1.200   1.200
                                                       1.200   1.200

     PseudoPot. # 2 for Nb read from file:
     /afs/slac.stanford.edu/u/if/mamunm/psp/gbrv1.5pbe/Nb.UPF
     MD5 check sum: 573aab8a2fa660278ed4a62cd769473f
     Pseudo is Ultrasoft + core correction, Zval = 13.0
     Generated by new atomic code, or converted to UPF format
     Using radial grid of  887 points,  6 beta functions with:
                l(1) =   0
                l(2) =   0
                l(3) =   1
                l(4) =   1
                l(5) =   2
                l(6) =   2
     Q(r) pseudized with  6 coefficients,  rinner =    1.000   1.000   1.000
                                                       1.000   1.000

     vdW kernel table read from file vdW_kernel_table
     MD5 check sum: 095c7af220d748ca6e76c0b4c6cfb241

     atomic species   valence    mass     pseudopotential
        Sc1           11.00    44.95591     Sc( 1.00)
        Nb1           13.00    92.90637     Nb( 1.00)

     No symmetry found

   Cartesian axes

     site n.     atom                  positions (alat units)
         1           Sc1 tau(   1) = (   0.0000000   0.0000000  10.0000000  )
         2           Sc1 tau(   2) = (   2.9087516   0.0000000  10.0000000  )
         3           Nb1 tau(   3) = (   1.4543758   2.8072535  10.0000000  )
         4           Nb1 tau(   4) = (  -1.4543758   2.8072535  10.0000000  )
         5           Sc1 tau(   5) = (   2.9087516   1.5069598  12.4879527  )
         6           Sc1 tau(   6) = (   0.0000000   1.5069598  12.4879527  )
         7           Nb1 tau(   7) = (  -1.4543758   4.3142133  12.4879527  )
         8           Nb1 tau(   8) = (   1.4543758   4.3142133  12.4879527  )
         9           Sc1 tau(   9) = (  -0.0000000   3.0139195  14.9759053  )
        10           Sc1 tau(  10) = (   2.9087516   3.0139195  14.9759053  )
        11           Nb1 tau(  11) = (   4.3631275   0.2066660  14.9759053  )
        12           Nb1 tau(  12) = (   1.4543758   0.2066660  14.9759053  )

     number of k points=    20  Fermi-Dirac smearing, width (Ry)=  0.0110
                       cart. coord. in units 2pi/alat
        k(    1) = (   0.0000000   0.0000000   0.0000000), wk =   0.0555556
        k(    2) = (   0.0000000   0.0296850   0.0000000), wk =   0.1111111
        k(    3) = (   0.0000000   0.0593700   0.0000000), wk =   0.1111111
        k(    4) = (   0.0000000  -0.0890550   0.0000000), wk =   0.0555556
        k(    5) = (   0.0286492   0.0148425   0.0000000), wk =   0.1111111
        k(    6) = (   0.0286492   0.0445275   0.0000000), wk =   0.1111111
        k(    7) = (   0.0286492   0.0742125   0.0000000), wk =   0.1111111
        k(    8) = (   0.0286492  -0.0742125   0.0000000), wk =   0.1111111
        k(    9) = (   0.0286492  -0.0445275   0.0000000), wk =   0.1111111
        k(   10) = (   0.0286492  -0.0148425   0.0000000), wk =   0.1111111
        k(   11) = (   0.0572983   0.0296850   0.0000000), wk =   0.1111111
        k(   12) = (   0.0572983   0.0593700   0.0000000), wk =   0.1111111
        k(   13) = (   0.0572983   0.0890550   0.0000000), wk =   0.1111111
        k(   14) = (   0.0572983  -0.0593700   0.0000000), wk =   0.1111111
        k(   15) = (   0.0572983  -0.0296850   0.0000000), wk =   0.1111111
        k(   16) = (   0.0572983   0.0000000   0.0000000), wk =   0.1111111
        k(   17) = (  -0.0859475  -0.0445275   0.0000000), wk =   0.0555556
        k(   18) = (  -0.0859475  -0.0148425   0.0000000), wk =   0.1111111
        k(   19) = (  -0.0859475   0.0148425   0.0000000), wk =   0.1111111
        k(   20) = (  -0.0859475  -0.1335825   0.0000000), wk =   0.0555556

     Largest allocated arrays     est. size (Mb)     dimensions
     Largest temporary arrays     est. size (Mb)     dimensions

     Initial potential from superposition of free atoms
     Check: negative starting charge=   -0.003700

     starting charge  143.96919, renormalised to  144.00000

     negative rho (up, down):  3.701E-03 0.000E+00

     *
     * You are using vdW-DF for exchange-correlation in this calculation.
     * Please cite the following three references that made this development
     * possible:
     *
     *   M. Dion, H. Rydberg, E. Schroder, D. C. Langreth, and
     *   B. I. Lundqvist, Phys. Rev. Lett. 92, 246401 (2004).
     *
     *   T. Thonhauser, V. R. Cooper, S. Li, A. Puzder, P. Hyldgaard, and
     *   D. C. Langreth, Phys. Rev. B 76, 125112 (2007).
     *
     *   G. Roman-Perez and J. M. Soler, Phys. Rev. Lett. 103, 096102 (2009).
     *
     *
     * If you are using vdW-DF2, please also cite:
     *
     *   K. Lee, E. D. Murray, L. Kong, B. I. Lundqvist, and
     *   D. C. Langreth, Phys. Rev. B 82, 081101(R) (2010).
     *
     *
     * If you are calculating the stress with vdW-DF, please also cite:
     *
     *   R. Sabatini, E. Kucukbenli, B. Kolb, T. Thonhauser, and
     *   S. de Gironcoli, J. Phys.: Condens. Matter 24, 424209 (2012).
     *

     Carrying out vdW-DF run using the following parameters:

     Nqs =      20    Nr_points =    1024   r_max =   100.000
     q_mesh =
               0.00001000     0.04494208     0.09755937     0.15916263
               0.23128650     0.31572767     0.41458969     0.53033537
               0.66584808     0.82450364     1.01025438     1.22772762
               1.48234092     1.78043706     2.12944203     2.53805004
               3.01644009     3.57652955     4.23227104     5.00000000

     Gradients computed in reciprocal space

     Adding external electric field

     Computed dipole along edir(3) :
        Dipole               -0.0000 Ry au,         -0.0000 Debye
        Dipole field         -0.0000 Ry au

        Potential amp.        0.0000 Ry
        Total length         46.0177 bohr

     Starting wfc are  156 randomized atomic wfcs

     Self-consistent Calculation

     iteration #  1     ecut=    36.75 Ry     beta=0.10
     Davidson diagonalization with overlap
     ethr =  1.00E-02,  avg # of iterations =  2.0

[...]

     total energy              =   -1278.50131707 Ry
     Harris-Foulkes estimate   =   -1280.72623269 Ry
     estimated scf accuracy    <      12.48933937 Ry

[...]

     End of self-consistent calculation

          k = 0.0000 0.0000 0.0000 ( 20769 PWs)   bands (ev):

   -53.8478 -53.8411 -53.7647 -53.7585 -53.7122 -53.6294 -48.6327 -48.6315
   -48.5588 -48.5575 -48.1424 -48.0685 -30.2011 -30.1820 -30.1102 -30.0962
   -30.0084 -29.9161 -29.8606 -29.8439 -29.8300 -29.7634 -29.7477 -29.7174
   -29.6155 -29.5390 -29.4626 -29.4393 -29.4317 -29.3503 -27.5311 -27.5273
   -27.3346 -27.2738 -27.2699 -27.2071 -27.1299 -27.1292 -27.0778 -27.0744
   -27.0461 -26.9690 -26.9687 -26.7372 -26.6783 -26.6286 -26.5726 -26.4852
    -3.9089  -2.7390  -1.7792  -1.6497  -1.3972  -1.3834  -1.2293  -0.9576
    -0.9382  -0.8945  -0.8916  -0.6309  -0.6181  -0.4384  -0.4003  -0.1847
     0.3133   0.4371   0.5484   0.7211   1.0172   1.1107   1.3815   1.5041
     1.5126   1.7271   1.7475   1.8499   1.8535   2.0355   2.1829   2.3167
     2.3778   2.4337   2.4946   2.6557   2.6949   2.8811   2.9194   3.0023
     3.0122   3.0548   3.2051   3.2624   3.4190   3.5224   3.7498   3.8606
     3.9490   3.9772   4.1667   4.3448   4.4874   4.5375

[...]

          k =-0.0859-0.0445 0.0000 ( 20672 PWs)   bands (ev):

[...]

     the Fermi energy is     1.1149 ev

!    total energy              =   -1279.83459745 Ry
     Harris-Foulkes estimate   =   -1279.83459728 Ry
     estimated scf accuracy    <       0.00000094 Ry

     The total energy is the sum of the following terms:

     one-electron contribution =   -9251.34475062 Ry
     hartree contribution      =    4612.79548224 Ry
     xc contribution           =    -197.39077159 Ry
     ewald contribution        =    3556.21790021 Ry
     electric field correction =       0.00000013 Ry
     smearing contrib. (-TS)   =      -0.11245782 Ry

     convergence has been achieved in  19 iterations

 BEEF-vdW xc energy contributions
           1 :   -168.491958909813
           2 :    151.181682797852
           3 :   -122.787605873923
           4 :    92.4058848639250
           5 :   -67.6497228695690
           6 :    51.7789579458620
           7 :   -43.6005126767238
           8 :    39.5140794446780
           9 :   -36.0620643376820
          10 :    31.4925549429105
          11 :   -25.8612666567082
          12 :    20.1364725164955
          13 :   -15.1950921433348
          14 :    11.3347477112925
[...]
00031 suncat2021 pw.x -in pw.inp   Done                     12/19/2018 05:27:31

[...]

     iteration # 10     ecut=    36.75 Ry     beta=0.10
     Davidson diagonalization with overlap
     c_bands:  1 eigenvalues not converged
     c_bands:  1 eigenvalues not converged
     ethr =  6.87E-06,  avg # of iterations =  5.2

[...]

   This run was terminated on:   6:30:11  19Dec2018

[...]

     Program PWSCF v.5.1rc2 (svn rev. 11289) starts on 19Dec2018 at  6:30:17

     Current dimensions of program PWSCF are:
     Max number of different atomic species (ntypx) = 10
     Max number of k-points (npk) =  40000
     Max angular momentum in pseudopotentials (lmaxx) =  3
     Presently stress not available with electric field

     IMPORTANT: XC functional enforced from input :
     Exchange-correlation      = BEEF-VDW ( 1  4 27 13 2)
     Any further DFT definition will be discarded
     Please, verify this is what you really want

     Subspace diagonalization in iterative solution of the eigenvalue problem:
     a serial algorithm will be used

     Found symmetry operation: I + (  0.5000  0.0000  0.0000)
     This is a supercell, fractional translations are disabled

     bravais-lattice index     =            0
     lattice parameter (alat)  =       1.8897  a.u.
     unit-cell volume          =    5505.1113 (a.u.)^3
     number of atoms/cell      =           12
     number of atomic types    =            2
     number of electrons       =       144.00
     number of Kohn-Sham states=          102
     kinetic-energy cutoff     =      36.7493  Ry
     charge density cutoff     =     367.4932  Ry
     convergence threshold     =      1.0E-06
     mixing beta               =       0.1000
     number of iterations used =           10  plain     mixing
     Exchange-correlation      = BEEF-VDW ( 1  4 27 13 2)
     nstep                     =           50

     celldm(1)=   1.889726  celldm(2)=   0.000000  celldm(3)=   0.000000
     celldm(4)=   0.000000  celldm(5)=   0.000000  celldm(6)=   0.000000

     crystal axes: (cart. coord. in units of alat)
               a(1) = (   5.817503   0.000000   0.000000 )
               a(2) = (  -2.908752   5.614507   0.000000 )
               a(3) = (   0.000000   0.000000  24.975905 )

     reciprocal axes: (cart. coord. in units 2 pi/alat)
               b(1) = (  0.171895  0.089055  0.000000 )
               b(2) = (  0.000000  0.178110  0.000000 )
               b(3) = (  0.000000  0.000000  0.040039 )

     PseudoPot. # 1 for Sc read from file:
     /afs/slac.stanford.edu/u/if/mamunm/psp/gbrv1.5pbe/Sc.UPF
     MD5 check sum: db30a2753ba66ef00f23801d899b7e7f
     Pseudo is Ultrasoft + core correction, Zval = 11.0
     Generated by new atomic code, or converted to UPF format
     Using radial grid of  849 points,  6 beta functions with:
                l(1) =   0
                l(2) =   0
                l(3) =   1
                l(4) =   1
                l(5) =   2
                l(6) =   2
     Q(r) pseudized with  6 coefficients,  rinner =    1.200   1.200   1.200
                                                       1.200   1.200

     PseudoPot. # 2 for Nb read from file:
     /afs/slac.stanford.edu/u/if/mamunm/psp/gbrv1.5pbe/Nb.UPF
     MD5 check sum: 573aab8a2fa660278ed4a62cd769473f
     Pseudo is Ultrasoft + core correction, Zval = 13.0
     Generated by new atomic code, or converted to UPF format
     Using radial grid of  887 points,  6 beta functions with:
                l(1) =   0
                l(2) =   0
                l(3) =   1
                l(4) =   1
                l(5) =   2
                l(6) =   2
     Q(r) pseudized with  6 coefficients,  rinner =    1.000   1.000   1.000
                                                       1.000   1.000

     vdW kernel table read from file vdW_kernel_table
     MD5 check sum: 095c7af220d748ca6e76c0b4c6cfb241

     atomic species   valence    mass     pseudopotential
        Sc1           11.00    44.95591     Sc( 1.00)
        Nb1           13.00    92.90637     Nb( 1.00)

     No symmetry found

   Cartesian axes

     site n.     atom                  positions (alat units)
         1           Sc1 tau(   1) = (   0.0000000   0.0000000  10.0000000  )
         2           Sc1 tau(   2) = (   2.9087516   0.0000000  10.0000000  )
         3           Nb1 tau(   3) = (   1.4543758   2.8072535  10.0000000  )
         4           Nb1 tau(   4) = (  -1.4543758   2.8072535  10.0000000  )
         5           Sc1 tau(   5) = (   2.9087516   1.5069598  12.4879527  )
         6           Sc1 tau(   6) = (   0.0000000   1.5069598  12.4879527  )
         7           Nb1 tau(   7) = (  -1.4543758   4.3142133  12.4879527  )
         8           Nb1 tau(   8) = (   1.4543758   4.3142133  12.4879527  )
         9           Sc1 tau(   9) = (  -0.0000416   3.0891361  15.0438628  )
        10           Sc1 tau(  10) = (   2.9087155   3.0891612  15.0438954  )
        11           Nb1 tau(  11) = (   4.3631058   0.1347033  14.7335204  )
        12           Nb1 tau(  12) = (   1.4543725   0.1347024  14.7335226  )

     number of k points=    20  Fermi-Dirac smearing, width (Ry)=  0.0110
                       cart. coord. in units 2pi/alat
        k(    1) = (   0.0000000   0.0000000   0.0000000), wk =   0.0555556
        k(    2) = (   0.0000000   0.0296850   0.0000000), wk =   0.1111111
        k(    3) = (   0.0000000   0.0593700   0.0000000), wk =   0.1111111
        k(    4) = (   0.0000000  -0.0890550   0.0000000), wk =   0.0555556
        k(    5) = (   0.0286492   0.0148425   0.0000000), wk =   0.1111111
        k(    6) = (   0.0286492   0.0445275   0.0000000), wk =   0.1111111
        k(    7) = (   0.0286492   0.0742125   0.0000000), wk =   0.1111111
        k(    8) = (   0.0286492  -0.0742125   0.0000000), wk =   0.1111111
        k(    9) = (   0.0286492  -0.0445275   0.0000000), wk =   0.1111111
        k(   10) = (   0.0286492  -0.0148425   0.0000000), wk =   0.1111111
        k(   11) = (   0.0572983   0.0296850   0.0000000), wk =   0.1111111
        k(   12) = (   0.0572983   0.0593700   0.0000000), wk =   0.1111111
        k(   13) = (   0.0572983   0.0890550   0.0000000), wk =   0.1111111
        k(   14) = (   0.0572983  -0.0593700   0.0000000), wk =   0.1111111
        k(   15) = (   0.0572983  -0.0296850   0.0000000), wk =   0.1111111
        k(   16) = (   0.0572983   0.0000000   0.0000000), wk =   0.1111111
        k(   17) = (  -0.0859475  -0.0445275   0.0000000), wk =   0.0555556
        k(   18) = (  -0.0859475  -0.0148425   0.0000000), wk =   0.1111111
        k(   19) = (  -0.0859475   0.0148425   0.0000000), wk =   0.1111111
        k(   20) = (  -0.0859475  -0.1335825   0.0000000), wk =   0.0555556

     Largest allocated arrays     est. size (Mb)     dimensions
     Largest temporary arrays     est. size (Mb)     dimensions

     Initial potential from superposition of free atoms
     Check: negative starting charge=   -0.003771

     starting charge  143.96919, renormalised to  144.00000

[...]

     *
     * You are using vdW-DF for exchange-correlation in this calculation.
     * Please cite the following three references that made this development
     * possible:
     *
     *   M. Dion, H. Rydberg, E. Schroder, D. C. Langreth, and
     *   B. I. Lundqvist, Phys. Rev. Lett. 92, 246401 (2004).
     *
     *   T. Thonhauser, V. R. Cooper, S. Li, A. Puzder, P. Hyldgaard, and
     *   D. C. Langreth, Phys. Rev. B 76, 125112 (2007).
     *
     *   G. Roman-Perez and J. M. Soler, Phys. Rev. Lett. 103, 096102 (2009).
     *
     *
     * If you are using vdW-DF2, please also cite:
     *
     *   K. Lee, E. D. Murray, L. Kong, B. I. Lundqvist, and
     *   D. C. Langreth, Phys. Rev. B 82, 081101(R) (2010).
     *
     *
     * If you are calculating the stress with vdW-DF, please also cite:
     *
     *   R. Sabatini, E. Kucukbenli, B. Kolb, T. Thonhauser, and
     *   S. de Gironcoli, J. Phys.: Condens. Matter 24, 424209 (2012).
     *

     Carrying out vdW-DF run using the following parameters:

     Nqs =      20    Nr_points =    1024   r_max =   100.000
     q_mesh =
               0.00001000     0.04494208     0.09755937     0.15916263
               0.23128650     0.31572767     0.41458969     0.53033537
               0.66584808     0.82450364     1.01025438     1.22772762
               1.48234092     1.78043706     2.12944203     2.53805004
               3.01644009     3.57652955     4.23227104     5.00000000

     Gradients computed in reciprocal space

[...]

     Starting wfc are  156 randomized atomic wfcs

     Self-consistent Calculation

[...]

     iteration #  9     ecut=    36.75 Ry     beta=0.10
     Davidson diagonalization with overlap
     c_bands:  2 eigenvalues not converged
     ethr =  2.88E-05,  avg # of iterations =  4.8

[...]

     total energy              =   -1279.85953606 Ry
     Harris-Foulkes estimate   =   -1279.85953499 Ry
     estimated scf accuracy    <       0.00000215 Ry

     iteration # 18     ecut=    36.75 Ry     beta=0.10
     Davidson diagonalization with overlap
     ethr =  1.50E-09,  avg # of iterations =  2.0

[...]

     negative rho (up, down):  3.282E-03 0.000E+00

     Adding external electric field

     Computed dipole along edir(3) :
        Dipole                0.0737 Ry au,          0.1872 Debye
        Dipole field          0.0002 Ry au

        Potential amp.       -0.0155 Ry
        Total length         46.0177 bohr

     End of self-consistent calculation

[...]

          k = 0.0573 0.0000 0.0000 ( 20729 PWs)   bands (ev):

[...]

          k =-0.0859-0.1336 0.0000 ( 20672 PWs)   bands (ev):

   -53.7432 -53.7432 -53.6191 -53.6191 -53.4908 -53.4908 -48.6010 -48.6009
   -48.5336 -48.5336 -47.9911 -47.9910 -30.0722 -30.0722 -29.7942 -29.7942
   -29.7614 -29.7614 -29.7290 -29.7290 -29.6934 -29.6934 -29.6252 -29.6252
   -29.5800 -29.5800 -29.4957 -29.4957 -29.1858 -29.1858 -27.2739 -27.2739
   -27.2395 -27.2394 -27.2088 -27.2088 -27.1949 -27.1949 -27.1235 -27.1234
   -27.0438 -27.0437 -26.6617 -26.6617 -26.6081 -26.6081 -26.5077 -26.5076
    -2.2986  -2.2986  -1.3175  -1.3175  -0.8627  -0.8627  -0.6117  -0.6117
    -0.3844  -0.3844  -0.0529  -0.0529   0.2353   0.2353   0.3953   0.3953
     0.4719   0.4719   0.6171   0.6171   0.8680   0.8681   0.9978   0.9978
     1.1349   1.1349   1.2434   1.2434   1.4714   1.4714   1.7873   1.7873
     1.9172   1.9173   2.0091   2.0091   2.3149   2.3150   2.7766   2.7766
     3.0398   3.0398   3.1833   3.1833   3.3464   3.3464   3.4814   3.4814
     3.5863   3.5863   3.6784   3.6784   3.7677   3.7677

     the Fermi energy is     1.1781 ev

!    total energy              =   -1279.85953735 Ry
     Harris-Foulkes estimate   =   -1279.85953629 Ry
     estimated scf accuracy    <       0.00000083 Ry

     The total energy is the sum of the following terms:

     one-electron contribution =   -9381.89350647 Ry
     hartree contribution      =    4678.56940188 Ry
     xc contribution           =    -197.58580748 Ry
     ewald contribution        =    3621.15676106 Ry
     electric field correction =       0.00001239 Ry
     smearing contrib. (-TS)   =      -0.10639873 Ry

     convergence has been achieved in  18 iterations

 BEEF-vdW xc energy contributions
           1 :   -168.689038793881
           2 :    151.437705124388
           3 :   -123.113102180639
           4 :    92.7387592373164
           5 :   -67.8784329475625
           6 :    51.8103074481967
           7 :   -43.4280395230392
           8 :    39.2290733055277
           9 :   -35.7954665282959
          10 :    31.3360354092560
          11 :   -25.8266737017016
          12 :    20.1703440922556
          13 :   -15.2215764454643
          14 :    11.2941654729614
          15 :   -8.25716833448973
          16 :    5.87105198948115
          17 :   -3.98936884305024
          18 :    2.51826436037470
          19 :   -1.31595110325583
          20 :   0.219293467371699
          21 :   0.803694427752703
          22 :   -1.55751068489155
          23 :    1.72002949413368
          24 :   -1.10094401002951
          25 :  -0.151641776886692
          26 :    1.58043544066697
          27 :   -2.68899032448638
          28 :    3.25119853174937
          29 :   -3.42449030850526
          30 :    3.58249312733776
          31 :   -19.5862161291987
          32 :   -14.4739155418829

     Forces acting on atoms (Ry/au):

     negative rho (up, down):  3.282E-03 0.000E+00
     atom    1 type  1   force =     0.00000287   -0.01047964   -0.01252600
     atom    2 type  1   force =     0.00000887   -0.01047665   -0.01252491
     atom    3 type  2   force =     0.00000486    0.01345254    0.03505001
     atom    4 type  2   force =     0.00000772    0.01345289    0.03504970
     atom    5 type  1   force =    -0.00001263    0.00918658   -0.00766489
     atom    6 type  1   force =    -0.00001704    0.00918237   -0.00766543
     atom    7 type  2   force =     0.00000995   -0.01317431   -0.01542473
     atom    8 type  2   force =     0.00000827   -0.01317516   -0.01542572
     atom    9 type  1   force =    -0.00001303   -0.00029829    0.00041529
     atom   10 type  1   force =    -0.00001233   -0.00029865    0.00040812
     atom   11 type  2   force =     0.00000851    0.00131417    0.00015478
     atom   12 type  2   force =     0.00000399    0.00131416    0.00015378

     Total force =     0.066825     Total SCF correction =     0.001681

     entering subroutine stress ...

     negative rho (up, down):  3.282E-03 0.000E+00
          total   stress  (Ry/bohr**3)                   (kbar)     P=   -7.43
  -0.00003687  -0.00000001   0.00000000         -5.42     -0.00      0.00
  -0.00000001  -0.00007623  -0.00000339         -0.00    -11.21     -0.50
   0.00000000  -0.00000339  -0.00003848          0.00     -0.50     -5.66

 !ASE

     Writing output data file calc.save

     General routines

     Parallel routines

   This run was terminated on:   6:45: 5  19Dec2018

   JOB DONE.
Job  /afs/slac/g/suncat/bin/suncat-tsmpirun -x LD_LIBRARY_PATH -wdir /scratch/qe530565_c5k0u pw.x -in pw.inp

TID   HOST_NAME   COMMAND_LINE            STATUS            TERMINATION_TIME
00000 suncat2022 pw.x -in pw.inp   Done                     12/19/2018 06:45:05
00001 suncat2022 pw.x -in pw.inp   Done                     12/19/2018 06:45:05
00002 suncat2022 pw.x -in pw.inp   Done                     12/19/2018 06:45:05
00003 suncat2022 pw.x -in pw.inp   Done                     12/19/2018 06:45:05
00004 suncat2022 pw.x -in pw.inp   Done                     12/19/2018 06:45:05
00005 suncat2022 pw.x -in pw.inp   Done                     12/19/2018 06:45:05
00006 suncat2022 pw.x -in pw.inp   Done                     12/19/2018 06:45:05
00007 suncat2022 pw.x -in pw.inp   Done                     12/19/2018 06:45:05
00008 suncat2022 pw.x -in pw.inp   Done                     12/19/2018 06:45:05
00009 suncat2022 pw.x -in pw.inp   Done                     12/19/2018 06:45:05
00010 suncat2022 pw.x -in pw.inp   Done                     12/19/2018 06:45:05
00011 suncat2022 pw.x -in pw.inp   Done                     12/19/2018 06:45:05
00012 suncat2022 pw.x -in pw.inp   Done                     12/19/2018 06:45:05
00013 suncat2022 pw.x -in pw.inp   Done                     12/19/2018 06:45:05
00014 suncat2022 pw.x -in pw.inp   Done                     12/19/2018 06:45:05
00015 suncat2022 pw.x -in pw.inp   Done                     12/19/2018 06:45:05
00016 suncat2021 pw.x -in pw.inp   Done                     12/19/2018 06:45:05
00017 suncat2021 pw.x -in pw.inp   Done                     12/19/2018 06:45:05
00018 suncat2021 pw.x -in pw.inp   Done                     12/19/2018 06:45:05
00019 suncat2021 pw.x -in pw.inp   Done                     12/19/2018 06:45:05
00020 suncat2021 pw.x -in pw.inp   Done                     12/19/2018 06:45:05
00021 suncat2021 pw.x -in pw.inp   Done                     12/19/2018 06:45:05
00022 suncat2021 pw.x -in pw.inp   Done                     12/19/2018 06:45:05
00023 suncat2021 pw.x -in pw.inp   Done                     12/19/2018 06:45:05
00024 suncat2021 pw.x -in pw.inp   Done                     12/19/2018 06:45:05
00025 suncat2021 pw.x -in pw.inp   Done                     12/19/2018 06:45:05
00026 suncat2021 pw.x -in pw.inp   Done                     12/19/2018 06:45:05
00027 suncat2021 pw.x -in pw.inp   Done                     12/19/2018 06:45:05
00028 suncat2021 pw.x -in pw.inp   Done                     12/19/2018 06:45:05
00029 suncat2021 pw.x -in pw.inp   Done                     12/19/2018 06:45:05
00030 suncat2021 pw.x -in pw.inp   Done                     12/19/2018 06:45:05
00031 suncat2021 pw.x -in pw.inp   Done                     12/19/2018 06:45:05