     Program PWSCF v.5.1rc2 (svn rev. 11289) starts on 19Dec2018 at  9:41:52

     Current dimensions of program PWSCF are:
     Max number of different atomic species (ntypx) = 10
     Max number of k-points (npk) =  40000
     Max angular momentum in pseudopotentials (lmaxx) =  3
     Presently stress not available with electric field

     IMPORTANT: XC functional enforced from input :
     Exchange-correlation      = BEEF-VDW ( 1  4 27 13 2)
     Any further DFT definition will be discarded
     Please, verify this is what you really want

     Subspace diagonalization in iterative solution of the eigenvalue problem:
     a serial algorithm will be used

     Found symmetry operation: I + ( -0.5000 -0.5000  0.0000)
     This is a supercell, fractional translations are disabled

     bravais-lattice index     =            0
     lattice parameter (alat)  =       1.8897  a.u.
     unit-cell volume          =    5058.4280 (a.u.)^3
     number of atoms/cell      =           12
     number of atomic types    =            2
     number of electrons       =       186.00
     number of Kohn-Sham states=          123
     kinetic-energy cutoff     =      36.7493  Ry
     charge density cutoff     =     367.4932  Ry
     convergence threshold     =      1.0E-06
     mixing beta               =       0.1000
     number of iterations used =           10  plain     mixing
     Exchange-correlation      = BEEF-VDW ( 1  4 27 13 2)
     nstep                     =           50

     celldm(1)=   1.889726  celldm(2)=   0.000000  celldm(3)=   0.000000
     celldm(4)=   0.000000  celldm(5)=   0.000000  celldm(6)=   0.000000

     crystal axes: (cart. coord. in units of alat)
               a(1) = (   5.682414   0.000000   0.000000 )
               a(2) = (   1.907147   5.352814   0.000000 )
               a(3) = (   0.000000   0.000000  24.643592 )

     reciprocal axes: (cart. coord. in units 2 pi/alat)
               b(1) = (  0.175982 -0.062700  0.000000 )
               b(2) = (  0.000000  0.186818  0.000000 )
               b(3) = (  0.000000  0.000000  0.040579 )

     PseudoPot. # 1 for Cu read from file:
     /afs/slac.stanford.edu/u/if/mamunm/psp/gbrv1.5pbe/Cu.UPF
     MD5 check sum: 6e991ff952a84172a2a52a1c1e996048
     Pseudo is Ultrasoft + core correction, Zval = 19.0
     Generated by new atomic code, or converted to UPF format
     Using radial grid of  867 points,  6 beta functions with:
                l(1) =   0
                l(2) =   0
                l(3) =   1
                l(4) =   1
                l(5) =   2
                l(6) =   2
     Q(r) pseudized with  8 coefficients,  rinner =    1.150   1.150   1.150
                                                       1.150   1.150

     PseudoPot. # 2 for Zr read from file:
     /afs/slac.stanford.edu/u/if/mamunm/psp/gbrv1.5pbe/Zr.UPF
     MD5 check sum: 5db81b1e868ab7776c4564c113de050b
     Pseudo is Ultrasoft + core correction, Zval = 12.0
     Generated by new atomic code, or converted to UPF format
     Using radial grid of  887 points,  6 beta functions with:
                l(1) =   0
                l(2) =   0
                l(3) =   1
                l(4) =   1
                l(5) =   2
                l(6) =   2
     Q(r) pseudized with  6 coefficients,  rinner =    1.200   1.200   1.200
                                                       1.200   1.200

     vdW kernel table read from file vdW_kernel_table
     MD5 check sum: 095c7af220d748ca6e76c0b4c6cfb241

     atomic species   valence    mass     pseudopotential
        Cu1           19.00    63.54600     Cu( 1.00)
        Zr1           12.00    91.22400     Zr( 1.00)

     No symmetry found

   Cartesian axes

     site n.     atom                  positions (alat units)
         1           Cu1 tau(   1) = (   0.0000000   0.0000000  10.0000000  )
         2           Cu1 tau(   2) = (   3.7947805   2.6764068  10.0000000  )
         3           Zr1 tau(   3) = (   2.8412068   0.0000000  10.0000000  )
         4           Zr1 tau(   4) = (   0.9535737   2.6764068  10.0000000  )
         5           Cu1 tau(   5) = (   5.6824137   4.0077287  12.3217958  )
         6           Cu1 tau(   6) = (   1.8876332   1.3313219  12.3217958  )
         7           Zr1 tau(   7) = (   2.8412068   4.0077287  12.3217958  )
         8           Zr1 tau(   8) = (   4.7288400   1.3313219  12.3217958  )
         9           Cu1 tau(   9) = (   3.7752663   2.6626437  14.6435916  )
        10           Cu1 tau(  10) = (   7.5700468   5.3390506  14.6435916  )
        11           Zr1 tau(  11) = (   6.6164732   2.6626437  14.6435916  )
        12           Zr1 tau(  12) = (   4.7288400   5.3390506  14.6435916  )

     number of k points=    20  Fermi-Dirac smearing, width (Ry)=  0.0110
                       cart. coord. in units 2pi/alat
        k(    1) = (   0.0000000   0.0000000   0.0000000), wk =   0.0555556
        k(    2) = (   0.0000000   0.0311363   0.0000000), wk =   0.1111111
        k(    3) = (   0.0000000   0.0622725   0.0000000), wk =   0.1111111
        k(    4) = (   0.0000000  -0.0934088   0.0000000), wk =   0.0555556
        k(    5) = (   0.0293303  -0.0104500   0.0000000), wk =   0.1111111
        k(    6) = (   0.0293303   0.0206862   0.0000000), wk =   0.1111111
        k(    7) = (   0.0293303   0.0518225   0.0000000), wk =   0.1111111
        k(    8) = (   0.0293303  -0.1038589   0.0000000), wk =   0.1111111
        k(    9) = (   0.0293303  -0.0727226   0.0000000), wk =   0.1111111
        k(   10) = (   0.0293303  -0.0415863   0.0000000), wk =   0.1111111
        k(   11) = (   0.0586605  -0.0209001   0.0000000), wk =   0.1111111
        k(   12) = (   0.0586605   0.0102362   0.0000000), wk =   0.1111111
        k(   13) = (   0.0586605   0.0413725   0.0000000), wk =   0.1111111
        k(   14) = (   0.0586605  -0.1143089   0.0000000), wk =   0.1111111
        k(   15) = (   0.0586605  -0.0831726   0.0000000), wk =   0.1111111
        k(   16) = (   0.0586605  -0.0520364   0.0000000), wk =   0.1111111
        k(   17) = (  -0.0879908   0.0313501   0.0000000), wk =   0.0555556
        k(   18) = (  -0.0879908   0.0624864   0.0000000), wk =   0.1111111
        k(   19) = (  -0.0879908   0.0936227   0.0000000), wk =   0.1111111
        k(   20) = (  -0.0879908  -0.0620587   0.0000000), wk =   0.0555556

     Largest allocated arrays     est. size (Mb)     dimensions
     Largest temporary arrays     est. size (Mb)     dimensions

     Initial potential from superposition of free atoms
     Check: negative starting charge=   -0.370087

     starting charge  179.98709, renormalised to  186.00000

     negative rho (up, down):  3.825E-01 0.000E+00

     *
     * You are using vdW-DF for exchange-correlation in this calculation.
     * Please cite the following three references that made this development
     * possible:
     *
     *   M. Dion, H. Rydberg, E. Schroder, D. C. Langreth, and
     *   B. I. Lundqvist, Phys. Rev. Lett. 92, 246401 (2004).
     *
     *   T. Thonhauser, V. R. Cooper, S. Li, A. Puzder, P. Hyldgaard, and
     *   D. C. Langreth, Phys. Rev. B 76, 125112 (2007).
     *
     *   G. Roman-Perez and J. M. Soler, Phys. Rev. Lett. 103, 096102 (2009).
     *
     *
     * If you are using vdW-DF2, please also cite:
     *
     *   K. Lee, E. D. Murray, L. Kong, B. I. Lundqvist, and
     *   D. C. Langreth, Phys. Rev. B 82, 081101(R) (2010).
     *
     *
     * If you are calculating the stress with vdW-DF, please also cite:
     *
     *   R. Sabatini, E. Kucukbenli, B. Kolb, T. Thonhauser, and
     *   S. de Gironcoli, J. Phys.: Condens. Matter 24, 424209 (2012).
     *

     Carrying out vdW-DF run using the following parameters:

     Nqs =      20    Nr_points =    1024   r_max =   100.000
     q_mesh =
               0.00001000     0.04494208     0.09755937     0.15916263
               0.23128650     0.31572767     0.41458969     0.53033537
               0.66584808     0.82450364     1.01025438     1.22772762
               1.48234092     1.78043706     2.12944203     2.53805004
               3.01644009     3.57652955     4.23227104     5.00000000

     Gradients computed in reciprocal space

     Adding external electric field

     Computed dipole along edir(3) :
        Dipole                0.0000 Ry au,          0.0000 Debye
        Dipole field          0.0000 Ry au

        Potential amp.       -0.0000 Ry
        Total length         45.4054 bohr

     Starting wfc are  156 randomized atomic wfcs

     Self-consistent Calculation

     iteration #  1     ecut=    36.75 Ry     beta=0.10
     Davidson diagonalization with overlap
     ethr =  1.00E-02,  avg # of iterations =  3.2

[...]

     total energy              =   -3028.49420244 Ry
     Harris-Foulkes estimate   =   -3029.44645827 Ry
     estimated scf accuracy    <       5.68534439 Ry

[...]

     End of self-consistent calculation

          k = 0.0000 0.0000 0.0000 ( 18999 PWs)   bands (ev):

  -111.7055-111.7054-111.6533-111.6533-111.6532-111.6532 -69.0937 -69.0935
   -69.0884 -69.0883 -69.0883 -69.0882 -69.0836 -69.0815 -69.0744 -69.0742
   -69.0259 -69.0259 -69.0238 -69.0238 -68.9918 -68.9918 -68.9917 -68.9917
   -48.3757 -48.3740 -48.3404 -48.3403 -47.9907 -47.9571 -26.4474 -26.4236
   -26.4208 -26.4041 -26.4021 -26.3753 -26.3668 -26.3461 -26.3306 -26.2951
   -26.1671 -26.0144 -26.0123 -25.9393 -25.9195 -25.8773 -25.8684 -25.7590
    -5.1941  -3.7740  -3.1683  -3.0526  -2.9776  -2.5991  -2.5627  -2.5366
    -2.5300  -2.4876  -2.4602  -2.3386  -2.2741  -2.0628  -2.0597  -2.0543
    -2.0257  -2.0108  -1.9393  -1.9148  -1.9012  -1.8931  -1.8789  -1.7682
    -1.7103  -1.6391  -1.6229  -1.5702  -1.5442  -1.4648  -1.4203  -1.3561
    -1.0428  -0.8537  -0.7757  -0.7304   0.3312   0.6441   0.6608   0.8896
     0.9162   1.0442   1.1830   1.4988   1.5394   1.8699   1.9067   1.9223
     1.9636   2.1053   2.2128   2.2734   2.4489   2.5040   3.1808   3.2235
     3.2764   3.3519   3.4302   3.6004   3.6040   3.7005   3.9385   4.1976
     4.2701   4.2866   4.5724   4.6654   4.7181   4.7377   4.8509   5.0482
     5.4232   6.3084   6.4541

[...]

          k =-0.0880 0.0314 0.0000 ( 19056 PWs)   bands (ev):

[...]

     the Fermi energy is     1.2530 ev

!    total energy              =   -3028.10064885 Ry
     Harris-Foulkes estimate   =   -3028.10064395 Ry
     estimated scf accuracy    <       0.00000008 Ry

     The total energy is the sum of the following terms:

     one-electron contribution =  -18579.96616668 Ry
     hartree contribution      =    9292.58353635 Ry
     xc contribution           =    -349.86734951 Ry
     ewald contribution        =    6609.23770260 Ry
     electric field correction =       0.00000000 Ry
     smearing contrib. (-TS)   =      -0.08837161 Ry

     convergence has been achieved in  18 iterations

 BEEF-vdW xc energy contributions
           1 :   -306.882378824070
           2 :    278.103701103748
           3 :   -229.333705418386
           4 :    174.014503352558
           5 :   -124.467067552883
           6 :    87.4895967301567
           7 :   -63.2312222292521
           8 :    47.2921152216463
           9 :   -34.3980640440935
[...]
00030 suncat0167 pw.x -in pw.inp   Done                     12/19/2018 09:58:49
00031 suncat0167 pw.x -in pw.inp   Done                     12/19/2018 09:58:49

[...]

     Total force =     0.019713     Total SCF correction =     0.002220
     SCF correction compared to forces is large: reduce conv_thr to get better values

[...]

     Program PWSCF v.5.1rc2 (svn rev. 11289) starts on 19Dec2018 at 10:31:38

     Current dimensions of program PWSCF are:
     Max number of different atomic species (ntypx) = 10
     Max number of k-points (npk) =  40000
     Max angular momentum in pseudopotentials (lmaxx) =  3
     Presently stress not available with electric field

     IMPORTANT: XC functional enforced from input :
     Exchange-correlation      = BEEF-VDW ( 1  4 27 13 2)
     Any further DFT definition will be discarded
     Please, verify this is what you really want

     Subspace diagonalization in iterative solution of the eigenvalue problem:
     a serial algorithm will be used

     Found symmetry operation: I + ( -0.5000 -0.5000  0.0000)
     This is a supercell, fractional translations are disabled

     bravais-lattice index     =            0
     lattice parameter (alat)  =       1.8897  a.u.
     unit-cell volume          =    5058.4280 (a.u.)^3
     number of atoms/cell      =           12
     number of atomic types    =            2
     number of electrons       =       186.00
     number of Kohn-Sham states=          123
     kinetic-energy cutoff     =      36.7493  Ry
     charge density cutoff     =     367.4932  Ry
     convergence threshold     =      1.0E-06
     mixing beta               =       0.1000
     number of iterations used =           10  plain     mixing
     Exchange-correlation      = BEEF-VDW ( 1  4 27 13 2)
     nstep                     =           50

     celldm(1)=   1.889726  celldm(2)=   0.000000  celldm(3)=   0.000000
     celldm(4)=   0.000000  celldm(5)=   0.000000  celldm(6)=   0.000000

     crystal axes: (cart. coord. in units of alat)
               a(1) = (   5.682414   0.000000   0.000000 )
               a(2) = (   1.907147   5.352814   0.000000 )
               a(3) = (   0.000000   0.000000  24.643592 )

     reciprocal axes: (cart. coord. in units 2 pi/alat)
               b(1) = (  0.175982 -0.062700  0.000000 )
               b(2) = (  0.000000  0.186818  0.000000 )
               b(3) = (  0.000000  0.000000  0.040579 )

     PseudoPot. # 1 for Cu read from file:
     /afs/slac.stanford.edu/u/if/mamunm/psp/gbrv1.5pbe/Cu.UPF
     MD5 check sum: 6e991ff952a84172a2a52a1c1e996048
     Pseudo is Ultrasoft + core correction, Zval = 19.0
     Generated by new atomic code, or converted to UPF format
     Using radial grid of  867 points,  6 beta functions with:
                l(1) =   0
                l(2) =   0
                l(3) =   1
                l(4) =   1
                l(5) =   2
                l(6) =   2
     Q(r) pseudized with  8 coefficients,  rinner =    1.150   1.150   1.150
                                                       1.150   1.150

     PseudoPot. # 2 for Zr read from file:
     /afs/slac.stanford.edu/u/if/mamunm/psp/gbrv1.5pbe/Zr.UPF
     MD5 check sum: 5db81b1e868ab7776c4564c113de050b
     Pseudo is Ultrasoft + core correction, Zval = 12.0
     Generated by new atomic code, or converted to UPF format
     Using radial grid of  887 points,  6 beta functions with:
                l(1) =   0
                l(2) =   0
                l(3) =   1
                l(4) =   1
                l(5) =   2
                l(6) =   2
     Q(r) pseudized with  6 coefficients,  rinner =    1.200   1.200   1.200
                                                       1.200   1.200

     vdW kernel table read from file vdW_kernel_table
     MD5 check sum: 095c7af220d748ca6e76c0b4c6cfb241

     atomic species   valence    mass     pseudopotential
        Cu1           19.00    63.54600     Cu( 1.00)
        Zr1           12.00    91.22400     Zr( 1.00)

     No symmetry found

   Cartesian axes

     site n.     atom                  positions (alat units)
         1           Cu1 tau(   1) = (   0.0000000   0.0000000  10.0000000  )
         2           Cu1 tau(   2) = (   3.7947805   2.6764068  10.0000000  )
         3           Zr1 tau(   3) = (   2.8412068   0.0000000  10.0000000  )
         4           Zr1 tau(   4) = (   0.9535737   2.6764068  10.0000000  )
         5           Cu1 tau(   5) = (   5.6824137   4.0077287  12.3217958  )
         6           Cu1 tau(   6) = (   1.8876332   1.3313219  12.3217958  )
         7           Zr1 tau(   7) = (   2.8412068   4.0077287  12.3217958  )
         8           Zr1 tau(   8) = (   4.7288400   1.3313219  12.3217958  )
         9           Cu1 tau(   9) = (   3.7751487   2.6625519  14.5544670  )
        10           Cu1 tau(  10) = (   7.5698862   5.3389456  14.5544586  )
        11           Zr1 tau(  11) = (   6.6179996   2.6637083  14.5985903  )
        12           Zr1 tau(  12) = (   4.7303503   5.3401276  14.5985871  )

     number of k points=    20  Fermi-Dirac smearing, width (Ry)=  0.0110
                       cart. coord. in units 2pi/alat
        k(    1) = (   0.0000000   0.0000000   0.0000000), wk =   0.0555556
        k(    2) = (   0.0000000   0.0311363   0.0000000), wk =   0.1111111
        k(    3) = (   0.0000000   0.0622725   0.0000000), wk =   0.1111111
        k(    4) = (   0.0000000  -0.0934088   0.0000000), wk =   0.0555556
        k(    5) = (   0.0293303  -0.0104500   0.0000000), wk =   0.1111111
        k(    6) = (   0.0293303   0.0206862   0.0000000), wk =   0.1111111
        k(    7) = (   0.0293303   0.0518225   0.0000000), wk =   0.1111111
        k(    8) = (   0.0293303  -0.1038589   0.0000000), wk =   0.1111111
        k(    9) = (   0.0293303  -0.0727226   0.0000000), wk =   0.1111111
        k(   10) = (   0.0293303  -0.0415863   0.0000000), wk =   0.1111111
        k(   11) = (   0.0586605  -0.0209001   0.0000000), wk =   0.1111111
        k(   12) = (   0.0586605   0.0102362   0.0000000), wk =   0.1111111
        k(   13) = (   0.0586605   0.0413725   0.0000000), wk =   0.1111111
        k(   14) = (   0.0586605  -0.1143089   0.0000000), wk =   0.1111111
        k(   15) = (   0.0586605  -0.0831726   0.0000000), wk =   0.1111111
        k(   16) = (   0.0586605  -0.0520364   0.0000000), wk =   0.1111111
        k(   17) = (  -0.0879908   0.0313501   0.0000000), wk =   0.0555556
        k(   18) = (  -0.0879908   0.0624864   0.0000000), wk =   0.1111111
        k(   19) = (  -0.0879908   0.0936227   0.0000000), wk =   0.1111111
        k(   20) = (  -0.0879908  -0.0620587   0.0000000), wk =   0.0555556

     Largest allocated arrays     est. size (Mb)     dimensions
     Largest temporary arrays     est. size (Mb)     dimensions

     Initial potential from superposition of free atoms
     Check: negative starting charge=   -0.368845

     starting charge  179.98709, renormalised to  186.00000

[...]

     *
     * You are using vdW-DF for exchange-correlation in this calculation.
     * Please cite the following three references that made this development
     * possible:
     *
     *   M. Dion, H. Rydberg, E. Schroder, D. C. Langreth, and
     *   B. I. Lundqvist, Phys. Rev. Lett. 92, 246401 (2004).
     *
     *   T. Thonhauser, V. R. Cooper, S. Li, A. Puzder, P. Hyldgaard, and
     *   D. C. Langreth, Phys. Rev. B 76, 125112 (2007).
     *
     *   G. Roman-Perez and J. M. Soler, Phys. Rev. Lett. 103, 096102 (2009).
     *
     *
     * If you are using vdW-DF2, please also cite:
     *
     *   K. Lee, E. D. Murray, L. Kong, B. I. Lundqvist, and
     *   D. C. Langreth, Phys. Rev. B 82, 081101(R) (2010).
     *
     *
     * If you are calculating the stress with vdW-DF, please also cite:
     *
     *   R. Sabatini, E. Kucukbenli, B. Kolb, T. Thonhauser, and
     *   S. de Gironcoli, J. Phys.: Condens. Matter 24, 424209 (2012).
     *

     Carrying out vdW-DF run using the following parameters:

     Nqs =      20    Nr_points =    1024   r_max =   100.000
     q_mesh =
               0.00001000     0.04494208     0.09755937     0.15916263
               0.23128650     0.31572767     0.41458969     0.53033537
               0.66584808     0.82450364     1.01025438     1.22772762
               1.48234092     1.78043706     2.12944203     2.53805004
               3.01644009     3.57652955     4.23227104     5.00000000

     Gradients computed in reciprocal space

[...]

     Starting wfc are  156 randomized atomic wfcs

     Self-consistent Calculation

[...]

     total energy              =   -3028.10283335 Ry
     Harris-Foulkes estimate   =   -3028.10283257 Ry
     estimated scf accuracy    <       0.00000140 Ry

     iteration # 18     ecut=    36.75 Ry     beta=0.10
     Davidson diagonalization with overlap
     ethr =  7.53E-10,  avg # of iterations =  2.3

[...]

     negative rho (up, down):  3.774E-01 0.000E+00

     Adding external electric field

     Computed dipole along edir(3) :
        Dipole                0.0189 Ry au,          0.0480 Debye
        Dipole field          0.0000 Ry au

        Potential amp.       -0.0043 Ry
        Total length         45.4054 bohr

     End of self-consistent calculation

[...]

          k = 0.0587-0.0520 0.0000 ( 19036 PWs)   bands (ev):

[...]

          k =-0.0880-0.0621 0.0000 ( 18980 PWs)   bands (ev):

  -111.7072-111.7071-111.7027-111.7026-111.6321-111.6320 -69.1304 -69.1302
   -69.0866 -69.0863 -69.0822 -69.0800 -69.0777 -69.0756 -69.0747 -69.0745
   -69.0655 -69.0653 -69.0577 -69.0575 -69.0061 -69.0040 -68.9712 -68.9711
   -48.3473 -48.3323 -48.3148 -48.2998 -47.9301 -47.8939 -26.4450 -26.3872
   -26.3847 -26.3765 -26.3750 -26.3715 -26.3497 -26.3121 -26.2928 -26.2559
   -26.1167 -25.9854 -25.9777 -25.8637 -25.8558 -25.8413 -25.8181 -25.7110
    -3.4424  -3.3921  -2.6301  -2.5029  -2.2797  -2.2572  -2.2552  -2.1479
    -2.1420  -2.1361  -2.1141  -2.0736  -2.0473  -1.9883  -1.9463  -1.9380
    -1.9109  -1.8408  -1.8324  -1.8036  -1.7754  -1.7682  -1.7437  -1.6963
    -1.6962  -1.6931  -1.6846  -1.6287  -1.5868  -1.5259  -1.5133  -1.4817
    -1.3606  -1.3544  -0.9442  -0.9404  -0.8245  -0.5273  -0.5074  -0.2304
    -0.1667   0.3950   0.5677   0.5794   0.6037   0.8165   0.9031   1.1349
     1.1478   1.7675   2.0479   2.0745   2.3727   2.5736   2.5851   2.6673
     2.6797   3.0898   3.0936   3.2154   3.6045   3.8935   4.0069   4.4984
     4.7009   4.7737   4.7859   5.2047   5.5320   5.7118   5.9508   6.1855
     6.3040   6.3104   6.4984

     the Fermi energy is     1.2771 ev

!    total energy              =   -3028.10283848 Ry
     Harris-Foulkes estimate   =   -3028.10283350 Ry
     estimated scf accuracy    <       0.00000012 Ry

     The total energy is the sum of the following terms:

     one-electron contribution =  -18751.64265639 Ry
     hartree contribution      =    9378.48019543 Ry
     xc contribution           =    -349.93492577 Ry
     ewald contribution        =    6695.08208590 Ry
     electric field correction =       0.00000089 Ry
     smearing contrib. (-TS)   =      -0.08753854 Ry

     convergence has been achieved in  18 iterations

 BEEF-vdW xc energy contributions
           1 :   -306.953870729589
           2 :    278.211830863337
           3 :   -229.481600829956
           4 :    174.164608764227
           5 :   -124.565832644065
           6 :    87.5059632677755
           7 :   -63.1815418063607
           8 :    47.2326333787209
           9 :   -34.3882878268439
          10 :    21.5430570043795
          11 :   -8.80075292848460
          12 :   -1.64458102271863
          13 :    7.69633109151317
          14 :   -9.07846216552070
          15 :    7.57120836410468
          16 :   -5.82036664688758
          17 :    5.68804313178350
          18 :   -7.28880122486879
          19 :    9.25919080602068
          20 :   -9.93974699074647
          21 :    8.59366976646675
          22 :   -5.86628473045153
          23 :    3.26476908292523
          24 :   -2.09891704515167
          25 :    2.63490444988037
          26 :   -4.01119649734824
          27 :    4.91266509529385
          28 :   -4.49274188561287
          29 :    2.90537084302770
          30 :   -1.12188481307692
          31 :   -27.8110078711849
          32 :   -19.6638243590564

     Forces acting on atoms (Ry/au):

     negative rho (up, down):  3.774E-01 0.000E+00
     atom    1 type  1   force =     0.00009482    0.00006641    0.00900522
     atom    2 type  1   force =     0.00009383    0.00006590    0.00900672
     atom    3 type  2   force =    -0.00025172   -0.00017797    0.00504534
     atom    4 type  2   force =    -0.00025210   -0.00017737    0.00504532
     atom    5 type  1   force =     0.00000868    0.00000595   -0.00243394
     atom    6 type  1   force =     0.00000845    0.00000597   -0.00243679
     atom    7 type  2   force =     0.00005312    0.00003712   -0.01124039
     atom    8 type  2   force =     0.00005311    0.00003777   -0.01124116
     atom    9 type  1   force =     0.00011822    0.00008359   -0.00137535
     atom   10 type  1   force =     0.00011949    0.00008500   -0.00137399
     atom   11 type  2   force =    -0.00002275   -0.00001602    0.00099919
     atom   12 type  2   force =    -0.00002315   -0.00001634    0.00099983

     Total force =     0.021994     Total SCF correction =     0.001704

     entering subroutine stress ...

     negative rho (up, down):  3.774E-01 0.000E+00
          total   stress  (Ry/bohr**3)                   (kbar)     P=  -15.10
  -0.00012332   0.00000168   0.00000051        -18.14      0.25      0.08
   0.00000168  -0.00012452   0.00000036          0.25    -18.32      0.05
   0.00000051   0.00000036  -0.00006005          0.08      0.05     -8.83

 !ASE

     Writing output data file calc.save

     General routines

     Parallel routines

   This run was terminated on:  10:48:17  19Dec2018

   JOB DONE.
Job  /afs/slac/g/suncat/bin/suncat-tsmpirun -x LD_LIBRARY_PATH -wdir /scratch/qe529821_fyxa3 pw.x -in pw.inp

TID   HOST_NAME   COMMAND_LINE            STATUS            TERMINATION_TIME
00000 suncat0171 pw.x -in pw.inp   Done                     12/19/2018 10:48:17
00001 suncat0171 pw.x -in pw.inp   Done                     12/19/2018 10:48:17
00002 suncat0171 pw.x -in pw.inp   Done                     12/19/2018 10:48:17
00003 suncat0171 pw.x -in pw.inp   Done                     12/19/2018 10:48:17
00004 suncat0171 pw.x -in pw.inp   Done                     12/19/2018 10:48:17
00005 suncat0171 pw.x -in pw.inp   Done                     12/19/2018 10:48:17
00006 suncat0171 pw.x -in pw.inp   Done                     12/19/2018 10:48:17
00007 suncat0171 pw.x -in pw.inp   Done                     12/19/2018 10:48:17
00008 suncat0169 pw.x -in pw.inp   Done                     12/19/2018 10:48:17
00009 suncat0169 pw.x -in pw.inp   Done                     12/19/2018 10:48:17
00010 suncat0169 pw.x -in pw.inp   Done                     12/19/2018 10:48:17
00011 suncat0169 pw.x -in pw.inp   Done                     12/19/2018 10:48:17
00012 suncat0169 pw.x -in pw.inp   Done                     12/19/2018 10:48:17
00013 suncat0169 pw.x -in pw.inp   Done                     12/19/2018 10:48:17
00014 suncat0169 pw.x -in pw.inp   Done                     12/19/2018 10:48:17
00015 suncat0169 pw.x -in pw.inp   Done                     12/19/2018 10:48:17
00016 suncat0168 pw.x -in pw.inp   Done                     12/19/2018 10:48:17
00017 suncat0168 pw.x -in pw.inp   Done                     12/19/2018 10:48:17
00018 suncat0168 pw.x -in pw.inp   Done                     12/19/2018 10:48:17
00019 suncat0168 pw.x -in pw.inp   Done                     12/19/2018 10:48:17
00020 suncat0168 pw.x -in pw.inp   Done                     12/19/2018 10:48:17
00021 suncat0168 pw.x -in pw.inp   Done                     12/19/2018 10:48:17
00022 suncat0168 pw.x -in pw.inp   Done                     12/19/2018 10:48:17
00023 suncat0168 pw.x -in pw.inp   Done                     12/19/2018 10:48:17
00024 suncat0167 pw.x -in pw.inp   Done                     12/19/2018 10:48:17
00025 suncat0167 pw.x -in pw.inp   Done                     12/19/2018 10:48:17
00026 suncat0167 pw.x -in pw.inp   Done                     12/19/2018 10:48:17
00027 suncat0167 pw.x -in pw.inp   Done                     12/19/2018 10:48:17
00028 suncat0167 pw.x -in pw.inp   Done                     12/19/2018 10:48:17
00029 suncat0167 pw.x -in pw.inp   Done                     12/19/2018 10:48:17
00030 suncat0167 pw.x -in pw.inp   Done                     12/19/2018 10:48:17
00031 suncat0167 pw.x -in pw.inp   Done                     12/19/2018 10:48:17