     Program PWSCF v.5.1rc2 (svn rev. 11289) starts on 28Dec2018 at  4:27: 9

     Current dimensions of program PWSCF are:
     Max number of different atomic species (ntypx) = 10
     Max number of k-points (npk) =  40000
     Max angular momentum in pseudopotentials (lmaxx) =  3
     Presently stress not available with electric field

     IMPORTANT: XC functional enforced from input :
     Exchange-correlation      = BEEF-VDW ( 1  4 27 13 2)
     Any further DFT definition will be discarded
     Please, verify this is what you really want

     Subspace diagonalization in iterative solution of the eigenvalue problem:
     a serial algorithm will be used

     bravais-lattice index     =            0
     lattice parameter (alat)  =       1.8897  a.u.
     unit-cell volume          =    4587.4285 (a.u.)^3
     number of atoms/cell      =           12
     number of atomic types    =            2
     number of electrons       =       210.00
     number of Kohn-Sham states=          135
     kinetic-energy cutoff     =      36.7493  Ry
     charge density cutoff     =     367.4932  Ry
     convergence threshold     =      1.0E-06
     mixing beta               =       0.1000
     number of iterations used =           10  plain     mixing
     Exchange-correlation      = BEEF-VDW ( 1  4 27 13 2)
     nstep                     =           50

     celldm(1)=   1.889726  celldm(2)=   0.000000  celldm(3)=   0.000000
     celldm(4)=   0.000000  celldm(5)=   0.000000  celldm(6)=   0.000000

     crystal axes: (cart. coord. in units of alat)
               a(1) = (   5.434727   0.000000   0.000000 )
               a(2) = (   1.830176   5.117296   0.000000 )
               a(3) = (   0.000000   0.000000  24.442997 )

     reciprocal axes: (cart. coord. in units 2 pi/alat)
               b(1) = (  0.184002 -0.065807  0.000000 )
               b(2) = (  0.000000  0.195416  0.000000 )
               b(3) = (  0.000000  0.000000  0.040912 )

     PseudoPot. # 1 for Ga read from file:
     /afs/slac.stanford.edu/u/if/mamunm/psp/gbrv1.5pbe/Ga.UPF
     MD5 check sum: ccd671392a58a050fbb373893b4fcd66
     Pseudo is Ultrasoft + core correction, Zval = 19.0
     Generated by new atomic code, or converted to UPF format
     Using radial grid of  871 points,  6 beta functions with:
                l(1) =   0
                l(2) =   0
                l(3) =   1
                l(4) =   1
                l(5) =   2
                l(6) =   2
     Q(r) pseudized with  8 coefficients,  rinner =    1.250   1.250   1.250
                                                       1.250   1.250

     PseudoPot. # 2 for Pd read from file:
     /afs/slac.stanford.edu/u/if/mamunm/psp/gbrv1.5pbe/Pd.UPF
     MD5 check sum: 2d733d2bc2cbfd217af676df1668a4bc
     Pseudo is Ultrasoft + core correction, Zval = 16.0
     Generated by new atomic code, or converted to UPF format
     Using radial grid of  887 points,  6 beta functions with:
                l(1) =   0
                l(2) =   0
                l(3) =   1
                l(4) =   1
                l(5) =   2
                l(6) =   2
     Q(r) pseudized with  8 coefficients,  rinner =    1.130   1.130   1.130
                                                       1.130   1.130

     vdW kernel table read from file vdW_kernel_table
     MD5 check sum: 095c7af220d748ca6e76c0b4c6cfb241

     atomic species   valence    mass     pseudopotential
        Ga1           19.00    69.72300     Ga( 1.00)
        Pd1           16.00   106.42000     Pd( 1.00)

     No symmetry found

   Cartesian axes

     site n.     atom                  positions (alat units)
         1           Ga1 tau(   1) = (   0.0000000   0.0000000  10.0000000  )
         2           Ga1 tau(   2) = (   3.6324517   2.5586478  10.0000000  )
         3           Pd1 tau(   3) = (   2.7173636   0.0000000  10.0000000  )
         4           Pd1 tau(   4) = (   0.9150881   2.5586478  10.0000000  )
         5           Ga1 tau(   5) = (   5.4347272   3.8281453  12.2214983  )
         6           Ga1 tau(   6) = (   1.8022755   1.2694975  12.2214983  )
         7           Pd1 tau(   7) = (   2.7173636   3.8281453  12.2214983  )
         8           Pd1 tau(   8) = (   4.5196391   1.2694975  12.2214983  )
         9           Ga1 tau(   9) = (   3.6081468   2.5415312  14.6479802  )
        10           Ga1 tau(  10) = (   7.2406336   5.1001189  14.6479730  )
        11           Pd1 tau(  11) = (   6.3260359   2.5418875  14.3640454  )
        12           Pd1 tau(  12) = (   4.5237939   5.1005622  14.3640448  )

     number of k points=    20  Fermi-Dirac smearing, width (Ry)=  0.0110
                       cart. coord. in units 2pi/alat
        k(    1) = (   0.0000000   0.0000000   0.0000000), wk =   0.0555556
        k(    2) = (   0.0000000   0.0325693   0.0000000), wk =   0.1111111
        k(    3) = (   0.0000000   0.0651386   0.0000000), wk =   0.1111111
        k(    4) = (   0.0000000  -0.0977079   0.0000000), wk =   0.0555556
        k(    5) = (   0.0306670  -0.0109679   0.0000000), wk =   0.1111111
        k(    6) = (   0.0306670   0.0216014   0.0000000), wk =   0.1111111
        k(    7) = (   0.0306670   0.0541707   0.0000000), wk =   0.1111111
        k(    8) = (   0.0306670  -0.1086758   0.0000000), wk =   0.1111111
        k(    9) = (   0.0306670  -0.0761065   0.0000000), wk =   0.1111111
        k(   10) = (   0.0306670  -0.0435372   0.0000000), wk =   0.1111111
        k(   11) = (   0.0613340  -0.0219358   0.0000000), wk =   0.1111111
        k(   12) = (   0.0613340   0.0106335   0.0000000), wk =   0.1111111
        k(   13) = (   0.0613340   0.0432028   0.0000000), wk =   0.1111111
        k(   14) = (   0.0613340  -0.1196437   0.0000000), wk =   0.1111111
        k(   15) = (   0.0613340  -0.0870744   0.0000000), wk =   0.1111111
        k(   16) = (   0.0613340  -0.0545051   0.0000000), wk =   0.1111111
        k(   17) = (  -0.0920009   0.0329037   0.0000000), wk =   0.0555556
        k(   18) = (  -0.0920009   0.0654730   0.0000000), wk =   0.1111111
        k(   19) = (  -0.0920009   0.0980423   0.0000000), wk =   0.1111111
        k(   20) = (  -0.0920009  -0.0648042   0.0000000), wk =   0.0555556

     Largest allocated arrays     est. size (Mb)     dimensions
     Largest temporary arrays     est. size (Mb)     dimensions

     Initial potential from superposition of free atoms
     Check: negative starting charge=   -0.448389

     starting charge  200.99995, renormalised to  210.00000

     negative rho (up, down):  4.685E-01 0.000E+00

     *
     * You are using vdW-DF for exchange-correlation in this calculation.
     * Please cite the following three references that made this development
     * possible:
     *
     *   M. Dion, H. Rydberg, E. Schroder, D. C. Langreth, and
     *   B. I. Lundqvist, Phys. Rev. Lett. 92, 246401 (2004).
     *
     *   T. Thonhauser, V. R. Cooper, S. Li, A. Puzder, P. Hyldgaard, and
     *   D. C. Langreth, Phys. Rev. B 76, 125112 (2007).
     *
     *   G. Roman-Perez and J. M. Soler, Phys. Rev. Lett. 103, 096102 (2009).
     *
     *
     * If you are using vdW-DF2, please also cite:
     *
     *   K. Lee, E. D. Murray, L. Kong, B. I. Lundqvist, and
     *   D. C. Langreth, Phys. Rev. B 82, 081101(R) (2010).
     *
     *
     * If you are calculating the stress with vdW-DF, please also cite:
     *
     *   R. Sabatini, E. Kucukbenli, B. Kolb, T. Thonhauser, and
     *   S. de Gironcoli, J. Phys.: Condens. Matter 24, 424209 (2012).
     *

     Carrying out vdW-DF run using the following parameters:

     Nqs =      20    Nr_points =    1024   r_max =   100.000
     q_mesh =
               0.00001000     0.04494208     0.09755937     0.15916263
               0.23128650     0.31572767     0.41458969     0.53033537
               0.66584808     0.82450364     1.01025438     1.22772762
               1.48234092     1.78043706     2.12944203     2.53805004
               3.01644009     3.57652955     4.23227104     5.00000000

     Gradients computed in reciprocal space

     Adding external electric field

     Computed dipole along edir(3) :
        Dipole                0.2082 Ry au,          0.5292 Debye
        Dipole field          0.0006 Ry au

        Potential amp.       -0.0514 Ry
        Total length         45.0358 bohr

     Starting wfc are  144 randomized atomic wfcs

     Self-consistent Calculation

     iteration #  1     ecut=    36.75 Ry     beta=0.10
     Davidson diagonalization with overlap
     ethr =  1.00E-02,  avg # of iterations =  7.2

[...]

     total energy              =   -3693.39315836 Ry
     Harris-Foulkes estimate   =   -3709.20614515 Ry
     estimated scf accuracy    <      90.00613168 Ry

[...]

     End of self-consistent calculation

          k = 0.0000 0.0000 0.0000 ( 17219 PWs)   bands (ev):

   -93.9967 -93.9955 -93.9865 -93.9865 -93.9829 -93.9828 -93.8849 -93.8849
   -93.8759 -93.8758 -93.8501 -93.8489 -93.8486 -93.8474 -93.8194 -93.8193
   -93.8136 -93.8135 -49.6909 -49.6701 -49.6653 -49.6401 -49.6227 -49.6205
   -49.5120 -49.5070 -49.4605 -49.4519 -49.4474 -49.4102 -49.3918 -49.3416
   -49.3394 -49.3348 -49.2412 -49.2367 -14.4332 -14.4100 -14.3988 -14.3704
   -14.3638 -14.3485 -14.3359 -14.3308 -14.3278 -14.2790 -14.2708 -14.2668
   -14.2386 -14.2300 -14.2267 -14.2118 -14.1973 -14.1910 -14.1880 -14.1774
   -14.1755 -14.1750 -14.1683 -14.1682 -14.1557 -14.1523 -14.1428 -14.1424
   -14.0940 -14.0838  -8.7694  -7.0566  -5.9326  -5.8037  -5.3097  -5.0474
    -3.1158  -2.9284  -2.9211  -2.9035  -2.8624  -2.6945  -2.6923  -2.4802
    -2.2758  -2.2535  -2.2128  -1.8398  -1.8291  -1.7533  -1.7476  -1.7029
    -1.5785  -1.5600  -1.4554  -1.3824  -1.3696  -1.2476  -1.1092  -1.0872
    -1.0831  -1.0663  -0.6615  -0.6129  -0.3196  -0.1547   0.0105   0.0428
     0.1373   0.3316   0.3494   0.9382   1.5536   2.0981   2.9107   3.4416
     3.6681   4.0508   4.1574   4.4320   4.8891   4.9700   5.2946   5.3402
     5.3585   5.6470   6.2808   6.3796   6.6719   6.9788   7.0817   7.7279
     7.8937   8.1603   8.1814   8.2328   8.4638   9.4363   9.6255

[...]

          k =-0.0920 0.0329 0.0000 ( 17242 PWs)   bands (ev):

[...]

     the Fermi energy is     0.8717 ev

!    total energy              =   -3698.68374263 Ry
     Harris-Foulkes estimate   =   -3698.68374064 Ry
     estimated scf accuracy    <       0.00000097 Ry

     The total energy is the sum of the following terms:

     one-electron contribution =  -25356.79502283 Ry
     hartree contribution      =   12704.96516926 Ry
     xc contribution           =    -493.94100809 Ry
     ewald contribution        =    9447.11799624 Ry
     electric field correction =       0.00000701 Ry
     smearing contrib. (-TS)   =      -0.03088422 Ry

     convergence has been achieved in  16 iterations

 BEEF-vdW xc energy contributions
           1 :   -437.232083301803
           2 :    398.397305124197
           3 :   -332.735061928793
           4 :    258.661031151474
           5 :   -193.122223594819
           6 :    145.490105502387
           7 :   -115.891032027463
           8 :    98.0390589400861
           9 :   -84.3285135532028
[...]
     Generated by new atomic code, or converted to UPF format
     Using radial grid of  871 points,  6 beta functions with:
                l(1) =   0
                l(2) =   0
                l(3) =   1
                l(4) =   1
                l(5) =   2
                l(6) =   2
     Q(r) pseudized with  8 coefficients,  rinner =    1.250   1.250   1.250
                                                       1.250   1.250

     PseudoPot. # 2 for Pd read from file:
     /afs/slac.stanford.edu/u/if/mamunm/psp/gbrv1.5pbe/Pd.UPF
     MD5 check sum: 2d733d2bc2cbfd217af676df1668a4bc
     Pseudo is Ultrasoft + core correction, Zval = 16.0
     Generated by new atomic code, or converted to UPF format
     Using radial grid of  887 points,  6 beta functions with:
                l(1) =   0
                l(2) =   0
                l(3) =   1
                l(4) =   1
                l(5) =   2
                l(6) =   2
     Q(r) pseudized with  8 coefficients,  rinner =    1.130   1.130   1.130
                                                       1.130   1.130

     vdW kernel table read from file vdW_kernel_table
     MD5 check sum: 095c7af220d748ca6e76c0b4c6cfb241

     atomic species   valence    mass     pseudopotential
        Ga1           19.00    69.72300     Ga( 1.00)
        Pd1           16.00   106.42000     Pd( 1.00)

     No symmetry found

   Cartesian axes

     site n.     atom                  positions (alat units)
         1           Ga1 tau(   1) = (   0.0000000   0.0000000  10.0000000  )
         2           Ga1 tau(   2) = (   3.6324517   2.5586478  10.0000000  )
         3           Pd1 tau(   3) = (   2.7173636   0.0000000  10.0000000  )
         4           Pd1 tau(   4) = (   0.9150881   2.5586478  10.0000000  )
         5           Ga1 tau(   5) = (   5.4347272   3.8281453  12.2214983  )
         6           Ga1 tau(   6) = (   1.8022755   1.2694975  12.2214983  )
         7           Pd1 tau(   7) = (   2.7173636   3.8281453  12.2214983  )
         8           Pd1 tau(   8) = (   4.5196391   1.2694975  12.2214983  )
         9           Ga1 tau(   9) = (   3.6084628   2.5417627  14.6575663  )
        10           Ga1 tau(  10) = (   7.2409598   5.1003268  14.6575661  )
        11           Pd1 tau(  11) = (   6.3265039   2.5422128  14.3617752  )
        12           Pd1 tau(  12) = (   4.5242625   5.1008871  14.3617742  )

     number of k points=    20  Fermi-Dirac smearing, width (Ry)=  0.0110
                       cart. coord. in units 2pi/alat
        k(    1) = (   0.0000000   0.0000000   0.0000000), wk =   0.0555556
        k(    2) = (   0.0000000   0.0325693   0.0000000), wk =   0.1111111
        k(    3) = (   0.0000000   0.0651386   0.0000000), wk =   0.1111111
        k(    4) = (   0.0000000  -0.0977079   0.0000000), wk =   0.0555556
        k(    5) = (   0.0306670  -0.0109679   0.0000000), wk =   0.1111111
        k(    6) = (   0.0306670   0.0216014   0.0000000), wk =   0.1111111
        k(    7) = (   0.0306670   0.0541707   0.0000000), wk =   0.1111111
        k(    8) = (   0.0306670  -0.1086758   0.0000000), wk =   0.1111111
        k(    9) = (   0.0306670  -0.0761065   0.0000000), wk =   0.1111111
        k(   10) = (   0.0306670  -0.0435372   0.0000000), wk =   0.1111111
        k(   11) = (   0.0613340  -0.0219358   0.0000000), wk =   0.1111111
        k(   12) = (   0.0613340   0.0106335   0.0000000), wk =   0.1111111
        k(   13) = (   0.0613340   0.0432028   0.0000000), wk =   0.1111111
        k(   14) = (   0.0613340  -0.1196437   0.0000000), wk =   0.1111111
        k(   15) = (   0.0613340  -0.0870744   0.0000000), wk =   0.1111111
        k(   16) = (   0.0613340  -0.0545051   0.0000000), wk =   0.1111111
        k(   17) = (  -0.0920009   0.0329037   0.0000000), wk =   0.0555556
        k(   18) = (  -0.0920009   0.0654730   0.0000000), wk =   0.1111111
        k(   19) = (  -0.0920009   0.0980423   0.0000000), wk =   0.1111111
        k(   20) = (  -0.0920009  -0.0648042   0.0000000), wk =   0.0555556

     Largest allocated arrays     est. size (Mb)     dimensions
     Largest temporary arrays     est. size (Mb)     dimensions

     Initial potential from superposition of free atoms
     Check: negative starting charge=   -0.448159

     starting charge  200.99995, renormalised to  210.00000

[...]

     *
     * You are using vdW-DF for exchange-correlation in this calculation.
     * Please cite the following three references that made this development
     * possible:
     *
     *   M. Dion, H. Rydberg, E. Schroder, D. C. Langreth, and
     *   B. I. Lundqvist, Phys. Rev. Lett. 92, 246401 (2004).
     *
     *   T. Thonhauser, V. R. Cooper, S. Li, A. Puzder, P. Hyldgaard, and
     *   D. C. Langreth, Phys. Rev. B 76, 125112 (2007).
     *
     *   G. Roman-Perez and J. M. Soler, Phys. Rev. Lett. 103, 096102 (2009).
     *
     *
     * If you are using vdW-DF2, please also cite:
     *
     *   K. Lee, E. D. Murray, L. Kong, B. I. Lundqvist, and
     *   D. C. Langreth, Phys. Rev. B 82, 081101(R) (2010).
     *
     *
     * If you are calculating the stress with vdW-DF, please also cite:
     *
     *   R. Sabatini, E. Kucukbenli, B. Kolb, T. Thonhauser, and
     *   S. de Gironcoli, J. Phys.: Condens. Matter 24, 424209 (2012).
     *

     Carrying out vdW-DF run using the following parameters:

     Nqs =      20    Nr_points =    1024   r_max =   100.000
     q_mesh =
               0.00001000     0.04494208     0.09755937     0.15916263
               0.23128650     0.31572767     0.41458969     0.53033537
               0.66584808     0.82450364     1.01025438     1.22772762
               1.48234092     1.78043706     2.12944203     2.53805004
               3.01644009     3.57652955     4.23227104     5.00000000

     Gradients computed in reciprocal space

[...]

     Starting wfc are  144 randomized atomic wfcs

     Self-consistent Calculation

[...]

     total energy              =   -3698.68374335 Ry
     Harris-Foulkes estimate   =   -3698.68374176 Ry
     estimated scf accuracy    <       0.00000105 Ry

     iteration # 17     ecut=    36.75 Ry     beta=0.10
     Davidson diagonalization with overlap
     ethr =  5.01E-10,  avg # of iterations =  2.0

[...]

     negative rho (up, down):  4.659E-01 0.000E+00

     Adding external electric field

     Computed dipole along edir(3) :
        Dipole                0.0528 Ry au,          0.1342 Debye
        Dipole field          0.0001 Ry au

        Potential amp.       -0.0130 Ry
        Total length         45.0358 bohr

     End of self-consistent calculation

[...]

          k = 0.0613-0.0545 0.0000 ( 17244 PWs)   bands (ev):

[...]

          k =-0.0920-0.0648 0.0000 ( 17316 PWs)   bands (ev):

   -93.9878 -93.9866 -93.9776 -93.9775 -93.9740 -93.9739 -93.8782 -93.8782
   -93.8709 -93.8709 -93.8454 -93.8443 -93.8420 -93.8408 -93.8147 -93.8147
   -93.8069 -93.8069 -49.6812 -49.6613 -49.6568 -49.6301 -49.6151 -49.6079
   -49.5061 -49.5023 -49.4558 -49.4472 -49.4427 -49.4055 -49.3869 -49.3366
   -49.3363 -49.3322 -49.2365 -49.2323 -14.4171 -14.3868 -14.3714 -14.3410
   -14.3385 -14.3374 -14.3326 -14.3177 -14.3065 -14.2610 -14.2601 -14.2445
   -14.2355 -14.2208 -14.1971 -14.1846 -14.1833 -14.1745 -14.1734 -14.1730
   -14.1706 -14.1671 -14.1605 -14.1604 -14.1594 -14.1359 -14.1304 -14.1225
   -14.0912 -14.0810  -7.0479  -6.7903  -5.8437  -5.7654  -4.8984  -4.4603
    -4.3265  -3.8231  -3.7094  -3.6747  -3.2141  -3.0492  -2.9895  -2.9895
    -2.8135  -2.6663  -2.6031  -2.5180  -2.4648  -2.2571  -2.0957  -2.0759
    -2.0443  -1.9988  -1.9985  -1.6671  -1.6254  -1.2630  -1.2354  -1.2334
    -1.2187  -1.1843  -1.0615  -0.8064  -0.6342  -0.3042   0.2260   0.3078
     0.3754   0.7493   0.8373   2.4379   2.5785   3.0594   3.3892   4.2664
     5.1861   5.3331   5.7992   5.9940   6.0886   6.0916   6.5690   6.7705
     6.9534   6.9636   7.0856   7.2370   7.2775   7.7802   8.0887   8.1770
     8.2133   8.2450   8.2724   8.4090   8.4544   8.6221   8.7247

     the Fermi energy is     0.8761 ev

!    total energy              =   -3698.68374392 Ry
     Harris-Foulkes estimate   =   -3698.68374327 Ry
     estimated scf accuracy    <       0.00000029 Ry

     The total energy is the sum of the following terms:

     one-electron contribution =  -25341.99736989 Ry
     hartree contribution      =   12697.56032743 Ry
     xc contribution           =    -493.93589452 Ry
     ewald contribution        =    9439.72007909 Ry
     electric field correction =       0.00000763 Ry
     smearing contrib. (-TS)   =      -0.03089366 Ry

     convergence has been achieved in  17 iterations

 BEEF-vdW xc energy contributions
           1 :   -437.226904614228
           2 :    398.389982622139
           3 :   -332.724695553533
           4 :    258.648610808923
           5 :   -193.110223128008
           6 :    145.481128985170
           7 :   -115.886193616384
           8 :    98.0372171267372
           9 :   -84.3269752227434
          10 :    70.0986628807033
          11 :   -55.0236360068523
          12 :    41.5492457030542
          13 :   -32.1012213660170
          14 :    27.0989208865578
          15 :   -24.8759054615113
          16 :    23.1102502555656
          17 :   -20.4407259546427
          18 :    17.0825577831476
          19 :   -14.1961027667186
          20 :    12.6983032678158
          21 :   -12.4969276408807
          22 :    12.6544524757344
          23 :   -12.2160287984547
          24 :    10.9606180962587
          25 :   -9.48657717580443
          26 :    8.62828336800135
          27 :   -8.73354024458138
          28 :    9.39374670943261
          29 :   -9.81082077440630
          30 :    9.46009205670225
          31 :   -36.1827755317042
          32 :   -25.6591762468876

     Forces acting on atoms (Ry/au):

     negative rho (up, down):  4.659E-01 0.000E+00
     atom    1 type  1   force =    -0.00001474   -0.00000764   -0.01642699
     atom    2 type  1   force =    -0.00001505   -0.00001456   -0.01642554
     atom    3 type  2   force =    -0.00023069   -0.00016254    0.01453492
     atom    4 type  2   force =    -0.00023122   -0.00016289    0.01453492
     atom    5 type  1   force =     0.00006476    0.00004526   -0.00312594
     atom    6 type  1   force =     0.00005608    0.00004252   -0.00313148
     atom    7 type  2   force =    -0.00009060   -0.00006449    0.00556271
     atom    8 type  2   force =    -0.00009077   -0.00006446    0.00556469
     atom    9 type  1   force =     0.00012318    0.00008820   -0.00009128
     atom   10 type  1   force =     0.00012084    0.00008528   -0.00009214
     atom   11 type  2   force =     0.00015344    0.00010696   -0.00045203
     atom   12 type  2   force =     0.00015478    0.00010835   -0.00045183

     Total force =     0.032317     Total SCF correction =     0.002780

     entering subroutine stress ...

     negative rho (up, down):  4.659E-01 0.000E+00
          total   stress  (Ry/bohr**3)                   (kbar)     P=  -17.82
  -0.00018091  -0.00001674   0.00000103        -26.61     -2.46      0.15
  -0.00001674  -0.00016894   0.00000073         -2.46    -24.85      0.11
   0.00000103   0.00000073  -0.00001346          0.15      0.11     -1.98

 !ASE

     Writing output data file calc.save

     General routines

     Parallel routines

   This run was terminated on:  10:19:47  28Dec2018

   JOB DONE.
Job  /afs/slac/g/suncat/bin/suncat-tsmpirun -x LD_LIBRARY_PATH -wdir /scratch/qe758146_S3GIK pw.x -in pw.inp

TID   HOST_NAME   COMMAND_LINE            STATUS            TERMINATION_TIME
00000 suncat0080 pw.x -in pw.inp   Done                     12/28/2018 10:19:47
00001 suncat0080 pw.x -in pw.inp   Done                     12/28/2018 10:19:47
00002 suncat0080 pw.x -in pw.inp   Done                     12/28/2018 10:19:47
00003 suncat0080 pw.x -in pw.inp   Done                     12/28/2018 10:19:47
00004 suncat0080 pw.x -in pw.inp   Done                     12/28/2018 10:19:47
00005 suncat0080 pw.x -in pw.inp   Done                     12/28/2018 10:19:47
00006 suncat0080 pw.x -in pw.inp   Done                     12/28/2018 10:19:47
00007 suncat0080 pw.x -in pw.inp   Done                     12/28/2018 10:19:47
00008 suncat0078 pw.x -in pw.inp   Done                     12/28/2018 10:19:47
00009 suncat0078 pw.x -in pw.inp   Done                     12/28/2018 10:19:47
00010 suncat0078 pw.x -in pw.inp   Done                     12/28/2018 10:19:47
00011 suncat0078 pw.x -in pw.inp   Done                     12/28/2018 10:19:47
00012 suncat0078 pw.x -in pw.inp   Done                     12/28/2018 10:19:47
00013 suncat0078 pw.x -in pw.inp   Done                     12/28/2018 10:19:47
00014 suncat0078 pw.x -in pw.inp   Done                     12/28/2018 10:19:47
00015 suncat0078 pw.x -in pw.inp   Done                     12/28/2018 10:19:47
00016 suncat0165 pw.x -in pw.inp   Done                     12/28/2018 10:19:47
00017 suncat0165 pw.x -in pw.inp   Done                     12/28/2018 10:19:47
00018 suncat0165 pw.x -in pw.inp   Done                     12/28/2018 10:19:47
00019 suncat0165 pw.x -in pw.inp   Done                     12/28/2018 10:19:47
00020 suncat0165 pw.x -in pw.inp   Done                     12/28/2018 10:19:47
00021 suncat0165 pw.x -in pw.inp   Done                     12/28/2018 10:19:47
00022 suncat0165 pw.x -in pw.inp   Done                     12/28/2018 10:19:47
00023 suncat0165 pw.x -in pw.inp   Done                     12/28/2018 10:19:47
00024 suncat0164 pw.x -in pw.inp   Done                     12/28/2018 10:19:47
00025 suncat0164 pw.x -in pw.inp   Done                     12/28/2018 10:19:47
00026 suncat0164 pw.x -in pw.inp   Done                     12/28/2018 10:19:47
00027 suncat0164 pw.x -in pw.inp   Done                     12/28/2018 10:19:47
00028 suncat0164 pw.x -in pw.inp   Done                     12/28/2018 10:19:47
00029 suncat0164 pw.x -in pw.inp   Done                     12/28/2018 10:19:47
00030 suncat0164 pw.x -in pw.inp   Done                     12/28/2018 10:19:47
00031 suncat0164 pw.x -in pw.inp   Done                     12/28/2018 10:19:47
00032 suncat0143 pw.x -in pw.inp   Done                     12/28/2018 10:19:47
00033 suncat0143 pw.x -in pw.inp   Done                     12/28/2018 10:19:47
00034 suncat0143 pw.x -in pw.inp   Done                     12/28/2018 10:19:47
00035 suncat0143 pw.x -in pw.inp   Done                     12/28/2018 10:19:47
00036 suncat0143 pw.x -in pw.inp   Done                     12/28/2018 10:19:47
00037 suncat0143 pw.x -in pw.inp   Done                     12/28/2018 10:19:47
00038 suncat0143 pw.x -in pw.inp   Done                     12/28/2018 10:19:47
00039 suncat0143 pw.x -in pw.inp   Done                     12/28/2018 10:19:47
00040 suncat0135 pw.x -in pw.inp   Done                     12/28/2018 10:19:47
00041 suncat0135 pw.x -in pw.inp   Done                     12/28/2018 10:19:47
00042 suncat0135 pw.x -in pw.inp   Done                     12/28/2018 10:19:47
00043 suncat0135 pw.x -in pw.inp   Done                     12/28/2018 10:19:47
00044 suncat0135 pw.x -in pw.inp   Done                     12/28/2018 10:19:47
00045 suncat0135 pw.x -in pw.inp   Done                     12/28/2018 10:19:47
00046 suncat0135 pw.x -in pw.inp   Done                     12/28/2018 10:19:47
00047 suncat0135 pw.x -in pw.inp   Done                     12/28/2018 10:19:47
00048 suncat0134 pw.x -in pw.inp   Done                     12/28/2018 10:19:47
00049 suncat0134 pw.x -in pw.inp   Done                     12/28/2018 10:19:47
00050 suncat0134 pw.x -in pw.inp   Done                     12/28/2018 10:19:47
00051 suncat0134 pw.x -in pw.inp   Done                     12/28/2018 10:19:47
00052 suncat0134 pw.x -in pw.inp   Done                     12/28/2018 10:19:47
00053 suncat0134 pw.x -in pw.inp   Done                     12/28/2018 10:19:47
00054 suncat0134 pw.x -in pw.inp   Done                     12/28/2018 10:19:47
00055 suncat0134 pw.x -in pw.inp   Done                     12/28/2018 10:19:47
00056 suncat0272 pw.x -in pw.inp   Done                     12/28/2018 10:19:47
00057 suncat0272 pw.x -in pw.inp   Done                     12/28/2018 10:19:47
00058 suncat0272 pw.x -in pw.inp   Done                     12/28/2018 10:19:47
00059 suncat0272 pw.x -in pw.inp   Done                     12/28/2018 10:19:47
00060 suncat0272 pw.x -in pw.inp   Done                     12/28/2018 10:19:47
00061 suncat0272 pw.x -in pw.inp   Done                     12/28/2018 10:19:47
00062 suncat0272 pw.x -in pw.inp   Done                     12/28/2018 10:19:47
00063 suncat0272 pw.x -in pw.inp   Done                     12/28/2018 10:19:47