     Program PWSCF v.5.1rc2 (svn rev. 11289) starts on 18Dec2018 at 16:52: 3

     Current dimensions of program PWSCF are:
     Max number of different atomic species (ntypx) = 10
     Max number of k-points (npk) =  40000
     Max angular momentum in pseudopotentials (lmaxx) =  3
     Presently stress not available with electric field

     IMPORTANT: XC functional enforced from input :
     Exchange-correlation      = BEEF-VDW ( 1  4 27 13 2)
     Any further DFT definition will be discarded
     Please, verify this is what you really want

     Subspace diagonalization in iterative solution of the eigenvalue problem:
     a serial algorithm will be used

     Found symmetry operation: I + ( -0.5000 -0.5000  0.0000)
     This is a supercell, fractional translations are disabled

     Generating pointlists ...
     new r_m :   0.4125 (alat units)  0.7795 (a.u.) for type    1
     new r_m :   0.4125 (alat units)  0.7795 (a.u.) for type    2

     bravais-lattice index     =            0
     lattice parameter (alat)  =       1.8897  a.u.
     unit-cell volume          =    5779.2015 (a.u.)^3
     number of atoms/cell      =           12
     number of atomic types    =            2
     number of electrons       =       168.00
     number of Kohn-Sham states=          114
     kinetic-energy cutoff     =      36.7493  Ry
     charge density cutoff     =     367.4932  Ry
     convergence threshold     =      1.0E-06
     mixing beta               =       0.1000
     number of iterations used =           10  plain     mixing
     Exchange-correlation      = BEEF-VDW ( 1  4 27 13 2)
     nstep                     =           50

     celldm(1)=   1.889726  celldm(2)=   0.000000  celldm(3)=   0.000000
     celldm(4)=   0.000000  celldm(5)=   0.000000  celldm(6)=   0.000000

     crystal axes: (cart. coord. in units of alat)
               a(1) = (   6.171610   0.000000   0.000000 )
               a(2) = (   2.744671   5.527708   0.000000 )
               a(3) = (   0.000000   0.000000  25.103119 )

     reciprocal axes: (cart. coord. in units 2 pi/alat)
               b(1) = (  0.162032 -0.080454  0.000000 )
               b(2) = (  0.000000  0.180907  0.000000 )
               b(3) = (  0.000000  0.000000  0.039836 )

     PseudoPot. # 1 for Mn read from file:
     /afs/slac.stanford.edu/u/if/mamunm/psp/gbrv1.5pbe/Mn.UPF
     MD5 check sum: 82ef2b46521d7a7d9e736dc3972e4928
     Pseudo is Ultrasoft + core correction, Zval = 15.0
     Generated by new atomic code, or converted to UPF format
     Using radial grid of  859 points,  6 beta functions with:
                l(1) =   0
                l(2) =   0
                l(3) =   1
                l(4) =   1
                l(5) =   2
                l(6) =   2
     Q(r) pseudized with  8 coefficients,  rinner =    0.950   0.950   0.950
                                                       0.950   0.950

     PseudoPot. # 2 for Tl read from file:
     /afs/slac.stanford.edu/u/if/mamunm/psp/gbrv1.5pbe/Tl.UPF
     MD5 check sum: b76cf1f7e72655a2b2c53cf6385d7059
     Pseudo is Ultrasoft + core correction, Zval = 13.0
     Generated by new atomic code, or converted to UPF format
     Using radial grid of  899 points,  6 beta functions with:
                l(1) =   0
                l(2) =   0
                l(3) =   1
                l(4) =   1
                l(5) =   2
                l(6) =   2
     Q(r) pseudized with  6 coefficients,  rinner =    1.100   1.100   1.100
                                                       1.100   1.100

     vdW kernel table read from file vdW_kernel_table
     MD5 check sum: 095c7af220d748ca6e76c0b4c6cfb241

     atomic species   valence    mass     pseudopotential
        Mn1           15.00    54.93804     Mn( 1.00)
        Tl1           13.00   204.38000     Tl( 1.00)

     Starting magnetic structure
     atomic species   magnetization
        Mn1          0.133
        Tl1          0.154

     No symmetry found

   Cartesian axes

     site n.     atom                  positions (alat units)
         1           Mn1 tau(   1) = (   0.0000000   0.0000000  10.0000000  )
         2           Mn1 tau(   2) = (   4.4581408   2.7638538  10.0000000  )
         3           Tl1 tau(   3) = (   3.0858051   0.0000000  10.0000000  )
         4           Tl1 tau(   4) = (   1.3723357   2.7638538  10.0000000  )
         5           Mn1 tau(   5) = (   6.1716102   3.8261305  12.5515595  )
         6           Mn1 tau(   6) = (   1.7134694   1.0622767  12.5515595  )
         7           Tl1 tau(   7) = (   3.0858051   3.8261305  12.5515595  )
         8           Tl1 tau(   8) = (   4.7992745   1.0622767  12.5515595  )
         9           Mn1 tau(   9) = (   3.4269389   2.1245534  15.1031191  )
        10           Mn1 tau(  10) = (   7.8850796   4.8884072  15.1031191  )
        11           Tl1 tau(  11) = (   6.5127440   2.1245534  15.1031191  )
        12           Tl1 tau(  12) = (   4.7992745   4.8884072  15.1031191  )

     number of k points=    40  Fermi-Dirac smearing, width (Ry)=  0.0110
                       cart. coord. in units 2pi/alat
        k(    1) = (   0.0000000   0.0000000   0.0000000), wk =   0.0277778
        k(    2) = (   0.0000000   0.0301511   0.0000000), wk =   0.0555556
        k(    3) = (   0.0000000   0.0603023   0.0000000), wk =   0.0555556
        k(    4) = (   0.0000000  -0.0904534   0.0000000), wk =   0.0277778
        k(    5) = (   0.0270054  -0.0134090   0.0000000), wk =   0.0555556
        k(    6) = (   0.0270054   0.0167422   0.0000000), wk =   0.0555556
        k(    7) = (   0.0270054   0.0468933   0.0000000), wk =   0.0555556
        k(    8) = (   0.0270054  -0.1038624   0.0000000), wk =   0.0555556
        k(    9) = (   0.0270054  -0.0737112   0.0000000), wk =   0.0555556
        k(   10) = (   0.0270054  -0.0435601   0.0000000), wk =   0.0555556
        k(   11) = (   0.0540108  -0.0268179   0.0000000), wk =   0.0555556
        k(   12) = (   0.0540108   0.0033332   0.0000000), wk =   0.0555556
        k(   13) = (   0.0540108   0.0334843   0.0000000), wk =   0.0555556
        k(   14) = (   0.0540108  -0.1172714   0.0000000), wk =   0.0555556
        k(   15) = (   0.0540108  -0.0871202   0.0000000), wk =   0.0555556
        k(   16) = (   0.0540108  -0.0569691   0.0000000), wk =   0.0555556
        k(   17) = (  -0.0810161   0.0402269   0.0000000), wk =   0.0277778
        k(   18) = (  -0.0810161   0.0703781   0.0000000), wk =   0.0555556
        k(   19) = (  -0.0810161   0.1005292   0.0000000), wk =   0.0555556
        k(   20) = (  -0.0810161  -0.0502265   0.0000000), wk =   0.0277778
        k(   21) = (   0.0000000   0.0000000   0.0000000), wk =   0.0277778
        k(   22) = (   0.0000000   0.0301511   0.0000000), wk =   0.0555556
        k(   23) = (   0.0000000   0.0603023   0.0000000), wk =   0.0555556
        k(   24) = (   0.0000000  -0.0904534   0.0000000), wk =   0.0277778
        k(   25) = (   0.0270054  -0.0134090   0.0000000), wk =   0.0555556
        k(   26) = (   0.0270054   0.0167422   0.0000000), wk =   0.0555556
        k(   27) = (   0.0270054   0.0468933   0.0000000), wk =   0.0555556
        k(   28) = (   0.0270054  -0.1038624   0.0000000), wk =   0.0555556
        k(   29) = (   0.0270054  -0.0737112   0.0000000), wk =   0.0555556
        k(   30) = (   0.0270054  -0.0435601   0.0000000), wk =   0.0555556
        k(   31) = (   0.0540108  -0.0268179   0.0000000), wk =   0.0555556
        k(   32) = (   0.0540108   0.0033332   0.0000000), wk =   0.0555556
        k(   33) = (   0.0540108   0.0334843   0.0000000), wk =   0.0555556
        k(   34) = (   0.0540108  -0.1172714   0.0000000), wk =   0.0555556
        k(   35) = (   0.0540108  -0.0871202   0.0000000), wk =   0.0555556
        k(   36) = (   0.0540108  -0.0569691   0.0000000), wk =   0.0555556
        k(   37) = (  -0.0810161   0.0402269   0.0000000), wk =   0.0277778
        k(   38) = (  -0.0810161   0.0703781   0.0000000), wk =   0.0555556
        k(   39) = (  -0.0810161   0.1005292   0.0000000), wk =   0.0555556
        k(   40) = (  -0.0810161  -0.0502265   0.0000000), wk =   0.0277778

     Largest allocated arrays     est. size (Mb)     dimensions
     Largest temporary arrays     est. size (Mb)     dimensions

     Check: negative/imaginary core charge=   -0.000004    0.000000

     Initial potential from superposition of free atoms
     Check: negative starting charge=(component1):   -0.177350
     Check: negative starting charge=(component2):   -0.130059

     starting charge  164.97029, renormalised to  168.00000

     negative rho (up, down):  1.806E-01 1.324E-01

     *
     * You are using vdW-DF for exchange-correlation in this calculation.
     * Please cite the following three references that made this development
     * possible:
     *
     *   M. Dion, H. Rydberg, E. Schroder, D. C. Langreth, and
     *   B. I. Lundqvist, Phys. Rev. Lett. 92, 246401 (2004).
     *
     *   T. Thonhauser, V. R. Cooper, S. Li, A. Puzder, P. Hyldgaard, and
     *   D. C. Langreth, Phys. Rev. B 76, 125112 (2007).
     *
     *   G. Roman-Perez and J. M. Soler, Phys. Rev. Lett. 103, 096102 (2009).
     *
     *
     * If you are using vdW-DF2, please also cite:
     *
     *   K. Lee, E. D. Murray, L. Kong, B. I. Lundqvist, and
     *   D. C. Langreth, Phys. Rev. B 82, 081101(R) (2010).
     *
     *
     * If you are calculating the stress with vdW-DF, please also cite:
     *
     *   R. Sabatini, E. Kucukbenli, B. Kolb, T. Thonhauser, and
     *   S. de Gironcoli, J. Phys.: Condens. Matter 24, 424209 (2012).
     *

     Carrying out vdW-DF run using the following parameters:

     Nqs =      20    Nr_points =    1024   r_max =   100.000
     q_mesh =
               0.00001000     0.04494208     0.09755937     0.15916263
               0.23128650     0.31572767     0.41458969     0.53033537
               0.66584808     0.82450364     1.01025438     1.22772762
               1.48234092     1.78043706     2.12944203     2.53805004
               3.01644009     3.57652955     4.23227104     5.00000000

     Gradients computed in reciprocal space

     Adding external electric field

     Computed dipole along edir(3) :
        Dipole               -0.0000 Ry au,         -0.0000 Debye
        Dipole field         -0.0000 Ry au

        Potential amp.        0.0000 Ry
        Total length         46.2521 bohr

[...]

     Starting wfc are  132 randomized atomic wfcs

     Self-consistent Calculation

     iteration #  1     ecut=    36.75 Ry     beta=0.10
     Davidson diagonalization with overlap
     ethr =  1.00E-02,  avg # of iterations =  3.7

     Threshold (ethr) on eigenvalues was too large:
     Diagonalizing with lowered threshold

     Davidson diagonalization with overlap
     ethr =  7.73E-04,  avg # of iterations =  3.6

[...]

     Magnetic moment per site:
     atom:    1    charge:    6.0583    magn:    0.8508    constr:    0.0000
     atom:    2    charge:    6.0582    magn:    0.8508    constr:    0.0000
     atom:    3    charge:    1.4366    magn:    0.2006    constr:    0.0000
[...]
                l(2) =   0
                l(3) =   1
                l(4) =   1
                l(5) =   2
                l(6) =   2
     Q(r) pseudized with  8 coefficients,  rinner =    0.950   0.950   0.950
                                                       0.950   0.950

     PseudoPot. # 2 for Tl read from file:
     /afs/slac.stanford.edu/u/if/mamunm/psp/gbrv1.5pbe/Tl.UPF
     MD5 check sum: b76cf1f7e72655a2b2c53cf6385d7059
     Pseudo is Ultrasoft + core correction, Zval = 13.0
     Generated by new atomic code, or converted to UPF format
     Using radial grid of  899 points,  6 beta functions with:
                l(1) =   0
                l(2) =   0
                l(3) =   1
                l(4) =   1
                l(5) =   2
                l(6) =   2
     Q(r) pseudized with  6 coefficients,  rinner =    1.100   1.100   1.100
                                                       1.100   1.100

     vdW kernel table read from file vdW_kernel_table
     MD5 check sum: 095c7af220d748ca6e76c0b4c6cfb241

     atomic species   valence    mass     pseudopotential
        Mn1           15.00    54.93804     Mn( 1.00)
        Tl1           13.00   204.38000     Tl( 1.00)

     Starting magnetic structure
     atomic species   magnetization
        Mn1          0.133
        Tl1          0.154

     No symmetry found

   Cartesian axes

     site n.     atom                  positions (alat units)
         1           Mn1 tau(   1) = (   0.0000000   0.0000000  10.0000000  )
         2           Mn1 tau(   2) = (   4.4581408   2.7638538  10.0000000  )
         3           Tl1 tau(   3) = (   3.0858051   0.0000000  10.0000000  )
         4           Tl1 tau(   4) = (   1.3723357   2.7638538  10.0000000  )
         5           Mn1 tau(   5) = (   6.1716102   3.8261305  12.5515595  )
         6           Mn1 tau(   6) = (   1.7134694   1.0622767  12.5515595  )
         7           Tl1 tau(   7) = (   3.0858051   3.8261305  12.5515595  )
         8           Tl1 tau(   8) = (   4.7992745   1.0622767  12.5515595  )
         9           Mn1 tau(   9) = (   3.1912903   1.9784487  14.9451156  )
        10           Mn1 tau(  10) = (   7.6493907   4.7423036  14.9452361  )
        11           Tl1 tau(  11) = (   6.3333786   2.0133452  15.4719167  )
        12           Tl1 tau(  12) = (   4.6198655   4.7772194  15.4719459  )

     number of k points=    40  Fermi-Dirac smearing, width (Ry)=  0.0110
                       cart. coord. in units 2pi/alat
        k(    1) = (   0.0000000   0.0000000   0.0000000), wk =   0.0277778
        k(    2) = (   0.0000000   0.0301511   0.0000000), wk =   0.0555556
        k(    3) = (   0.0000000   0.0603023   0.0000000), wk =   0.0555556
        k(    4) = (   0.0000000  -0.0904534   0.0000000), wk =   0.0277778
        k(    5) = (   0.0270054  -0.0134090   0.0000000), wk =   0.0555556
        k(    6) = (   0.0270054   0.0167422   0.0000000), wk =   0.0555556
        k(    7) = (   0.0270054   0.0468933   0.0000000), wk =   0.0555556
        k(    8) = (   0.0270054  -0.1038624   0.0000000), wk =   0.0555556
        k(    9) = (   0.0270054  -0.0737112   0.0000000), wk =   0.0555556
        k(   10) = (   0.0270054  -0.0435601   0.0000000), wk =   0.0555556
        k(   11) = (   0.0540108  -0.0268179   0.0000000), wk =   0.0555556
        k(   12) = (   0.0540108   0.0033332   0.0000000), wk =   0.0555556
        k(   13) = (   0.0540108   0.0334843   0.0000000), wk =   0.0555556
        k(   14) = (   0.0540108  -0.1172714   0.0000000), wk =   0.0555556
        k(   15) = (   0.0540108  -0.0871202   0.0000000), wk =   0.0555556
        k(   16) = (   0.0540108  -0.0569691   0.0000000), wk =   0.0555556
        k(   17) = (  -0.0810161   0.0402269   0.0000000), wk =   0.0277778
        k(   18) = (  -0.0810161   0.0703781   0.0000000), wk =   0.0555556
        k(   19) = (  -0.0810161   0.1005292   0.0000000), wk =   0.0555556
        k(   20) = (  -0.0810161  -0.0502265   0.0000000), wk =   0.0277778
        k(   21) = (   0.0000000   0.0000000   0.0000000), wk =   0.0277778
        k(   22) = (   0.0000000   0.0301511   0.0000000), wk =   0.0555556
        k(   23) = (   0.0000000   0.0603023   0.0000000), wk =   0.0555556
        k(   24) = (   0.0000000  -0.0904534   0.0000000), wk =   0.0277778
        k(   25) = (   0.0270054  -0.0134090   0.0000000), wk =   0.0555556
        k(   26) = (   0.0270054   0.0167422   0.0000000), wk =   0.0555556
        k(   27) = (   0.0270054   0.0468933   0.0000000), wk =   0.0555556
        k(   28) = (   0.0270054  -0.1038624   0.0000000), wk =   0.0555556
        k(   29) = (   0.0270054  -0.0737112   0.0000000), wk =   0.0555556
        k(   30) = (   0.0270054  -0.0435601   0.0000000), wk =   0.0555556
        k(   31) = (   0.0540108  -0.0268179   0.0000000), wk =   0.0555556
        k(   32) = (   0.0540108   0.0033332   0.0000000), wk =   0.0555556
        k(   33) = (   0.0540108   0.0334843   0.0000000), wk =   0.0555556
        k(   34) = (   0.0540108  -0.1172714   0.0000000), wk =   0.0555556
        k(   35) = (   0.0540108  -0.0871202   0.0000000), wk =   0.0555556
        k(   36) = (   0.0540108  -0.0569691   0.0000000), wk =   0.0555556
        k(   37) = (  -0.0810161   0.0402269   0.0000000), wk =   0.0277778
        k(   38) = (  -0.0810161   0.0703781   0.0000000), wk =   0.0555556
        k(   39) = (  -0.0810161   0.1005292   0.0000000), wk =   0.0555556
        k(   40) = (  -0.0810161  -0.0502265   0.0000000), wk =   0.0277778

     Largest allocated arrays     est. size (Mb)     dimensions
     Largest temporary arrays     est. size (Mb)     dimensions

     Check: negative/imaginary core charge=   -0.000004    0.000000

     Initial potential from superposition of free atoms
     Check: negative starting charge=(component1):   -0.176109
     Check: negative starting charge=(component2):   -0.129150

     starting charge  164.97029, renormalised to  168.00000

[...]

     *
     * You are using vdW-DF for exchange-correlation in this calculation.
     * Please cite the following three references that made this development
     * possible:
     *
     *   M. Dion, H. Rydberg, E. Schroder, D. C. Langreth, and
     *   B. I. Lundqvist, Phys. Rev. Lett. 92, 246401 (2004).
     *
     *   T. Thonhauser, V. R. Cooper, S. Li, A. Puzder, P. Hyldgaard, and
     *   D. C. Langreth, Phys. Rev. B 76, 125112 (2007).
     *
     *   G. Roman-Perez and J. M. Soler, Phys. Rev. Lett. 103, 096102 (2009).
     *
     *
     * If you are using vdW-DF2, please also cite:
     *
     *   K. Lee, E. D. Murray, L. Kong, B. I. Lundqvist, and
     *   D. C. Langreth, Phys. Rev. B 82, 081101(R) (2010).
     *
     *
     * If you are calculating the stress with vdW-DF, please also cite:
     *
     *   R. Sabatini, E. Kucukbenli, B. Kolb, T. Thonhauser, and
     *   S. de Gironcoli, J. Phys.: Condens. Matter 24, 424209 (2012).
     *

     Carrying out vdW-DF run using the following parameters:

     Nqs =      20    Nr_points =    1024   r_max =   100.000
     q_mesh =
               0.00001000     0.04494208     0.09755937     0.15916263
               0.23128650     0.31572767     0.41458969     0.53033537
               0.66584808     0.82450364     1.01025438     1.22772762
               1.48234092     1.78043706     2.12944203     2.53805004
               3.01644009     3.57652955     4.23227104     5.00000000

     Gradients computed in reciprocal space

[...]

     Starting wfc are  132 randomized atomic wfcs

     Self-consistent Calculation

[...]

     total energy              =   -2153.16939584 Ry
     Harris-Foulkes estimate   =   -2153.16939464 Ry
     estimated scf accuracy    <       0.00000117 Ry

[...]

     iteration # 25     ecut=    36.75 Ry     beta=0.10
     Davidson diagonalization with overlap
     ethr =  6.94E-10,  avg # of iterations =  3.7

[...]

     negative rho (up, down):  1.627E-01 1.628E-01

[...]

     Adding external electric field

     Computed dipole along edir(3) :
        Dipole                0.0126 Ry au,          0.0321 Debye
        Dipole field          0.0000 Ry au

        Potential amp.       -0.0025 Ry
        Total length         46.2521 bohr

     Magnetic moment per site:
     atom:    1    charge:    6.0215    magn:    1.6160    constr:    0.0000
     atom:    2    charge:    6.0215    magn:    1.6160    constr:    0.0000
     atom:    3    charge:    1.4274    magn:   -0.0005    constr:    0.0000
     atom:    4    charge:    1.4274    magn:   -0.0005    constr:    0.0000
     atom:    5    charge:    6.0301    magn:    1.5667    constr:    0.0000
     atom:    6    charge:    6.0301    magn:    1.5667    constr:    0.0000
     atom:    7    charge:    1.4339    magn:   -0.0002    constr:    0.0000
     atom:    8    charge:    1.4339    magn:   -0.0002    constr:    0.0000
     atom:    9    charge:    6.0205    magn:    1.5993    constr:    0.0000
     atom:   10    charge:    6.0205    magn:    1.5994    constr:    0.0000
     atom:   11    charge:    1.4307    magn:   -0.0011    constr:    0.0000
     atom:   12    charge:    1.4307    magn:   -0.0011    constr:    0.0000

     End of self-consistent calculation

 ------ SPIN UP ------------

[...]

 ------ SPIN DOWN ----------

[...]

          k = 0.0540-0.0570 0.0000 ( 21771 PWs)   bands (ev):

[...]

          k =-0.0810-0.0502 0.0000 ( 21756 PWs)   bands (ev):

   -76.5843 -76.5830 -76.5044 -76.5030 -76.4726 -76.4713 -45.4192 -45.4171
   -45.3865 -45.3844 -45.3552 -45.3377 -45.3356 -45.3317 -45.3028 -45.3008
   -45.2983 -45.2961 -45.2881 -45.2647 -45.2624 -45.2495 -45.2476 -45.2391
   -11.3929 -11.2217 -11.2181 -11.1603 -11.1572 -11.0624 -11.0252 -11.0231
   -11.0023 -10.9912 -10.9573 -10.9147 -10.8791 -10.8466 -10.8078 -10.8023
   -10.7768 -10.7564 -10.7281 -10.7239 -10.7064 -10.7063 -10.6835 -10.6568
   -10.6442 -10.6003 -10.5949 -10.5831 -10.4622 -10.3910  -7.4329  -6.7383
    -5.9969  -5.2049  -4.0543  -3.4575  -2.8436  -2.8045  -2.2537  -1.7089
    -1.4417  -0.7754  -0.3365   0.0534   0.1357   0.2901   0.3041   0.5162
     0.8283   1.0432   1.0515   1.2376   1.4991   1.6299   1.7493   1.7856
     1.8026   1.8116   1.8377   1.9099   1.9211   1.9536   2.0412   2.1202
     2.1254   2.1271   2.1870   2.4825   2.4993   2.5553   2.9578   2.9921
     3.0816   3.1143   3.1594   3.6801   4.1203   4.3548   4.6672   4.6985
     5.0825   5.1994   5.3718   5.3900   5.4691   5.5175   5.7667   5.8686
     5.8999   6.1228

     the Fermi energy is     0.7771 ev

!    total energy              =   -2153.16940337 Ry
     Harris-Foulkes estimate   =   -2153.16939681 Ry
     estimated scf accuracy    <       0.00000024 Ry

     The total energy is the sum of the following terms:

     one-electron contribution =  -12203.81079737 Ry
     hartree contribution      =    6138.29252217 Ry
     xc contribution           =    -550.12393471 Ry
     ewald contribution        =    4462.53006788 Ry
     electric field correction =       0.00000035 Ry
     smearing contrib. (-TS)   =      -0.05726169 Ry

     total magnetization       =    24.44 Bohr mag/cell
     absolute magnetization    =    26.50 Bohr mag/cell

     convergence has been achieved in  25 iterations

 BEEF-vdW xc energy contributions
           1 :   -487.272686654570
           2 :    448.337326245608
           3 :   -381.780853438845
           4 :    304.475999726825
           5 :   -231.617017942032
           6 :    172.137944265172
           7 :   -128.160790929332
           8 :    97.0619327711570
           9 :   -74.2239426189865
          10 :    55.3359415598062
          11 :   -37.9068478163367
          12 :    21.7545337902630
          13 :   -8.35931766343288
          14 :  -0.613457241883339
          15 :    4.73154249119432
          16 :   -5.26480245531980
          17 :    4.45410757302000
          18 :   -4.23012758200070
          19 :    5.31993703340811
          20 :   -7.25164034733370
          21 :    9.01436488330933
          22 :   -9.80491158037921
          23 :    9.42785719392168
          24 :   -8.28299676279289
          25 :    7.06347181155843
          26 :   -6.36398227900668
          27 :    6.37449873310436
          28 :   -6.81593060834689
          29 :    7.14126086083240
          30 :   -6.88674229772914
          31 :   -40.3313297142279
          32 :   -29.0993550110354

     Forces acting on atoms (Ry/au):

     negative rho (up, down):  1.627E-01 1.628E-01
     atom    1 type  1   force =     0.00485950    0.00301270    0.00818048
     atom    2 type  1   force =     0.00485975    0.00301285    0.00818284
     atom    3 type  2   force =    -0.00421928   -0.00262058   -0.02003381
     atom    4 type  2   force =    -0.00422367   -0.00261375   -0.02003525
     atom    5 type  1   force =    -0.00557587   -0.00345646    0.00793011
     atom    6 type  1   force =    -0.00557247   -0.00345460    0.00792989
     atom    7 type  2   force =     0.00562259    0.00347713    0.00583078
     atom    8 type  2   force =     0.00561519    0.00349061    0.00583003
     atom    9 type  1   force =    -0.00010853   -0.00006712   -0.00068315
     atom   10 type  1   force =    -0.00010693   -0.00006593   -0.00068849
     atom   11 type  2   force =    -0.00057645   -0.00035691   -0.00122223
     atom   12 type  2   force =    -0.00057382   -0.00035795   -0.00122120

     Total force =     0.037729     Total SCF correction =     0.001846

     entering subroutine stress ...

     negative rho (up, down):  1.627E-01 1.628E-01
          total   stress  (Ry/bohr**3)                   (kbar)     P=  -10.22
  -0.00010937  -0.00002675  -0.00000273        -16.09     -3.94     -0.40
  -0.00002675  -0.00008280  -0.00000169         -3.94    -12.18     -0.25
  -0.00000273  -0.00000169  -0.00001629         -0.40     -0.25     -2.40

 !ASE

     Writing output data file calc.save

     General routines

     Parallel routines

   This run was terminated on:  20:45: 2  18Dec2018

   JOB DONE.
Job  /afs/slac/g/suncat/bin/suncat-tsmpirun -x LD_LIBRARY_PATH -wdir /scratch/qe530236_DUPjM pw.x -in pw.inp

TID   HOST_NAME   COMMAND_LINE            STATUS            TERMINATION_TIME
00000 suncat2060 pw.x -in pw.inp   Done                     12/18/2018 20:45:02
00001 suncat2060 pw.x -in pw.inp   Done                     12/18/2018 20:45:02
00002 suncat2060 pw.x -in pw.inp   Done                     12/18/2018 20:45:02
00003 suncat2060 pw.x -in pw.inp   Done                     12/18/2018 20:45:02
00004 suncat2060 pw.x -in pw.inp   Done                     12/18/2018 20:45:02
00005 suncat2060 pw.x -in pw.inp   Done                     12/18/2018 20:45:02
00006 suncat2060 pw.x -in pw.inp   Done                     12/18/2018 20:45:02
00007 suncat2060 pw.x -in pw.inp   Done                     12/18/2018 20:45:02
00008 suncat2060 pw.x -in pw.inp   Done                     12/18/2018 20:45:02
00009 suncat2060 pw.x -in pw.inp   Done                     12/18/2018 20:45:02
00010 suncat2060 pw.x -in pw.inp   Done                     12/18/2018 20:45:02
00011 suncat2060 pw.x -in pw.inp   Done                     12/18/2018 20:45:02
00012 suncat2060 pw.x -in pw.inp   Done                     12/18/2018 20:45:02
00013 suncat2060 pw.x -in pw.inp   Done                     12/18/2018 20:45:02
00014 suncat2060 pw.x -in pw.inp   Done                     12/18/2018 20:45:02
00015 suncat2060 pw.x -in pw.inp   Done                     12/18/2018 20:45:02
00016 suncat2059 pw.x -in pw.inp   Done                     12/18/2018 20:45:02
00017 suncat2059 pw.x -in pw.inp   Done                     12/18/2018 20:45:02
00018 suncat2059 pw.x -in pw.inp   Done                     12/18/2018 20:45:02
00019 suncat2059 pw.x -in pw.inp   Done                     12/18/2018 20:45:02
00020 suncat2059 pw.x -in pw.inp   Done                     12/18/2018 20:45:02
00021 suncat2059 pw.x -in pw.inp   Done                     12/18/2018 20:45:02
00022 suncat2059 pw.x -in pw.inp   Done                     12/18/2018 20:45:02
00023 suncat2059 pw.x -in pw.inp   Done                     12/18/2018 20:45:02
00024 suncat2059 pw.x -in pw.inp   Done                     12/18/2018 20:45:02
00025 suncat2059 pw.x -in pw.inp   Done                     12/18/2018 20:45:02
00026 suncat2059 pw.x -in pw.inp   Done                     12/18/2018 20:45:02
00027 suncat2059 pw.x -in pw.inp   Done                     12/18/2018 20:45:02
00028 suncat2059 pw.x -in pw.inp   Done                     12/18/2018 20:45:02
00029 suncat2059 pw.x -in pw.inp   Done                     12/18/2018 20:45:02
00030 suncat2059 pw.x -in pw.inp   Done                     12/18/2018 20:45:02
00031 suncat2059 pw.x -in pw.inp   Done                     12/18/2018 20:45:02