     Program PWSCF v.5.1rc2 (svn rev. 11289) starts on 18Dec2018 at 16:55:50

     Current dimensions of program PWSCF are:
     Max number of different atomic species (ntypx) = 10
     Max number of k-points (npk) =  40000
     Max angular momentum in pseudopotentials (lmaxx) =  3
     Presently stress not available with electric field

     IMPORTANT: XC functional enforced from input :
     Exchange-correlation      = BEEF-VDW ( 1  4 27 13 2)
     Any further DFT definition will be discarded
     Please, verify this is what you really want

     Subspace diagonalization in iterative solution of the eigenvalue problem:
     a serial algorithm will be used

     Found symmetry operation: I + ( -0.5000 -0.5000  0.0000)
     This is a supercell, fractional translations are disabled

     Generating pointlists ...
     new r_m :   0.4125 (alat units)  0.7795 (a.u.) for type    1
     new r_m :   0.4125 (alat units)  0.7795 (a.u.) for type    2

     bravais-lattice index     =            0
     lattice parameter (alat)  =       1.8897  a.u.
     unit-cell volume          =    4177.2548 (a.u.)^3
     number of atoms/cell      =           12
     number of atomic types    =            2
     number of electrons       =       210.00
     number of Kohn-Sham states=          135
     kinetic-energy cutoff     =      36.7493  Ry
     charge density cutoff     =     367.4932  Ry
     convergence threshold     =      1.0E-06
     mixing beta               =       0.1000
     number of iterations used =           10  plain     mixing
     Exchange-correlation      = BEEF-VDW ( 1  4 27 13 2)
     nstep                     =           50

     celldm(1)=   1.889726  celldm(2)=   0.000000  celldm(3)=   0.000000
     celldm(4)=   0.000000  celldm(5)=   0.000000  celldm(6)=   0.000000

     crystal axes: (cart. coord. in units of alat)
               a(1) = (   5.368604   0.000000   0.000000 )
               a(2) = (   2.553081   4.722678   0.000000 )
               a(3) = (   0.000000   0.000000  24.414319 )

     reciprocal axes: (cart. coord. in units 2 pi/alat)
               b(1) = (  0.186268 -0.100697  0.000000 )
               b(2) = (  0.000000  0.211744  0.000000 )
               b(3) = (  0.000000  0.000000  0.040960 )

     PseudoPot. # 1 for Mn read from file:
     /afs/slac.stanford.edu/u/if/mamunm/psp/gbrv1.5pbe/Mn.UPF
     MD5 check sum: 82ef2b46521d7a7d9e736dc3972e4928
     Pseudo is Ultrasoft + core correction, Zval = 15.0
     Generated by new atomic code, or converted to UPF format
     Using radial grid of  859 points,  6 beta functions with:
                l(1) =   0
                l(2) =   0
                l(3) =   1
                l(4) =   1
                l(5) =   2
                l(6) =   2
     Q(r) pseudized with  8 coefficients,  rinner =    0.950   0.950   0.950
                                                       0.950   0.950

     PseudoPot. # 2 for Zn read from file:
     /afs/slac.stanford.edu/u/if/mamunm/psp/gbrv1.5pbe/Zn.UPF
     MD5 check sum: df62231357ef9e81f77b2b3087fa5675
     Pseudo is Ultrasoft, Zval = 20.0
     Generated by new atomic code, or converted to UPF format
     Using radial grid of  943 points,  6 beta functions with:
                l(1) =   0
                l(2) =   0
                l(3) =   1
                l(4) =   1
                l(5) =   2
                l(6) =   2
     Q(r) pseudized with  8 coefficients,  rinner =    1.100   1.100   1.100
                                                       1.100   1.100

     vdW kernel table read from file vdW_kernel_table
     MD5 check sum: 095c7af220d748ca6e76c0b4c6cfb241

     atomic species   valence    mass     pseudopotential
        Mn1           15.00    54.93804     Mn( 1.00)
        Zn1           20.00    65.38000     Zn( 1.00)

     Starting magnetic structure
     atomic species   magnetization
        Mn1          0.133
        Zn1          0.100

     No symmetry found

   Cartesian axes

     site n.     atom                  positions (alat units)
         1           Mn1 tau(   1) = (   0.0000000   0.0000000  10.0000000  )
         2           Mn1 tau(   2) = (   3.9608426   2.3613391  10.0000000  )
         3           Zn1 tau(   3) = (   2.6843021   0.0000000  10.0000000  )
         4           Zn1 tau(   4) = (   1.2765405   2.3613391  10.0000000  )
         5           Mn1 tau(   5) = (   5.3686043   3.2006056  12.2071597  )
         6           Mn1 tau(   6) = (   1.4077617   0.8392665  12.2071597  )
         7           Zn1 tau(   7) = (   2.6843021   3.2006056  12.2071597  )
         8           Zn1 tau(   8) = (   4.0920638   0.8392665  12.2071597  )
         9           Mn1 tau(   9) = (   2.8155233   1.6785331  14.4143194  )
        10           Mn1 tau(  10) = (   6.7763659   4.0398722  14.4143194  )
        11           Zn1 tau(  11) = (   5.4998254   1.6785331  14.4143194  )
        12           Zn1 tau(  12) = (   4.0920638   4.0398722  14.4143194  )

     number of k points=    40  Fermi-Dirac smearing, width (Ry)=  0.0110
                       cart. coord. in units 2pi/alat
        k(    1) = (   0.0000000   0.0000000   0.0000000), wk =   0.0277778
        k(    2) = (   0.0000000   0.0352907   0.0000000), wk =   0.0555556
        k(    3) = (   0.0000000   0.0705814   0.0000000), wk =   0.0555556
        k(    4) = (   0.0000000  -0.1058721   0.0000000), wk =   0.0277778
        k(    5) = (   0.0310447  -0.0167828   0.0000000), wk =   0.0555556
        k(    6) = (   0.0310447   0.0185079   0.0000000), wk =   0.0555556
        k(    7) = (   0.0310447   0.0537987   0.0000000), wk =   0.0555556
        k(    8) = (   0.0310447  -0.1226549   0.0000000), wk =   0.0555556
        k(    9) = (   0.0310447  -0.0873642   0.0000000), wk =   0.0555556
        k(   10) = (   0.0310447  -0.0520735   0.0000000), wk =   0.0555556
        k(   11) = (   0.0620894  -0.0335655   0.0000000), wk =   0.0555556
        k(   12) = (   0.0620894   0.0017252   0.0000000), wk =   0.0555556
        k(   13) = (   0.0620894   0.0370159   0.0000000), wk =   0.0555556
        k(   14) = (   0.0620894  -0.1394377   0.0000000), wk =   0.0555556
        k(   15) = (   0.0620894  -0.1041470   0.0000000), wk =   0.0555556
        k(   16) = (   0.0620894  -0.0688562   0.0000000), wk =   0.0555556
        k(   17) = (  -0.0931341   0.0503483   0.0000000), wk =   0.0277778
        k(   18) = (  -0.0931341   0.0856390   0.0000000), wk =   0.0555556
        k(   19) = (  -0.0931341   0.1209297   0.0000000), wk =   0.0555556
        k(   20) = (  -0.0931341  -0.0555238   0.0000000), wk =   0.0277778
        k(   21) = (   0.0000000   0.0000000   0.0000000), wk =   0.0277778
        k(   22) = (   0.0000000   0.0352907   0.0000000), wk =   0.0555556
        k(   23) = (   0.0000000   0.0705814   0.0000000), wk =   0.0555556
        k(   24) = (   0.0000000  -0.1058721   0.0000000), wk =   0.0277778
        k(   25) = (   0.0310447  -0.0167828   0.0000000), wk =   0.0555556
        k(   26) = (   0.0310447   0.0185079   0.0000000), wk =   0.0555556
        k(   27) = (   0.0310447   0.0537987   0.0000000), wk =   0.0555556
        k(   28) = (   0.0310447  -0.1226549   0.0000000), wk =   0.0555556
        k(   29) = (   0.0310447  -0.0873642   0.0000000), wk =   0.0555556
        k(   30) = (   0.0310447  -0.0520735   0.0000000), wk =   0.0555556
        k(   31) = (   0.0620894  -0.0335655   0.0000000), wk =   0.0555556
        k(   32) = (   0.0620894   0.0017252   0.0000000), wk =   0.0555556
        k(   33) = (   0.0620894   0.0370159   0.0000000), wk =   0.0555556
        k(   34) = (   0.0620894  -0.1394377   0.0000000), wk =   0.0555556
        k(   35) = (   0.0620894  -0.1041470   0.0000000), wk =   0.0555556
        k(   36) = (   0.0620894  -0.0688562   0.0000000), wk =   0.0555556
        k(   37) = (  -0.0931341   0.0503483   0.0000000), wk =   0.0277778
        k(   38) = (  -0.0931341   0.0856390   0.0000000), wk =   0.0555556
        k(   39) = (  -0.0931341   0.1209297   0.0000000), wk =   0.0555556
        k(   40) = (  -0.0931341  -0.0555238   0.0000000), wk =   0.0277778

     Largest allocated arrays     est. size (Mb)     dimensions
     Largest temporary arrays     est. size (Mb)     dimensions

     Check: negative/imaginary core charge=   -0.000006    0.000000

     Initial potential from superposition of free atoms
     Check: negative starting charge=(component1):   -0.001238
     Check: negative starting charge=(component2):   -0.000949

     starting charge  206.99864, renormalised to  210.00000

     negative rho (up, down):  1.256E-03 9.623E-04

     *
     * You are using vdW-DF for exchange-correlation in this calculation.
     * Please cite the following three references that made this development
     * possible:
     *
     *   M. Dion, H. Rydberg, E. Schroder, D. C. Langreth, and
     *   B. I. Lundqvist, Phys. Rev. Lett. 92, 246401 (2004).
     *
     *   T. Thonhauser, V. R. Cooper, S. Li, A. Puzder, P. Hyldgaard, and
     *   D. C. Langreth, Phys. Rev. B 76, 125112 (2007).
     *
     *   G. Roman-Perez and J. M. Soler, Phys. Rev. Lett. 103, 096102 (2009).
     *
     *
     * If you are using vdW-DF2, please also cite:
     *
     *   K. Lee, E. D. Murray, L. Kong, B. I. Lundqvist, and
     *   D. C. Langreth, Phys. Rev. B 82, 081101(R) (2010).
     *
     *
     * If you are calculating the stress with vdW-DF, please also cite:
     *
     *   R. Sabatini, E. Kucukbenli, B. Kolb, T. Thonhauser, and
     *   S. de Gironcoli, J. Phys.: Condens. Matter 24, 424209 (2012).
     *

     Carrying out vdW-DF run using the following parameters:

     Nqs =      20    Nr_points =    1024   r_max =   100.000
     q_mesh =
               0.00001000     0.04494208     0.09755937     0.15916263
               0.23128650     0.31572767     0.41458969     0.53033537
               0.66584808     0.82450364     1.01025438     1.22772762
               1.48234092     1.78043706     2.12944203     2.53805004
               3.01644009     3.57652955     4.23227104     5.00000000

     Gradients computed in reciprocal space

     Adding external electric field

     Computed dipole along edir(3) :
        Dipole               -0.0000 Ry au,         -0.0000 Debye
        Dipole field         -0.0000 Ry au

        Potential amp.        0.0000 Ry
        Total length         44.9830 bohr

[...]

     Starting wfc are  156 randomized atomic wfcs

     Self-consistent Calculation

     iteration #  1     ecut=    36.75 Ry     beta=0.10
     Davidson diagonalization with overlap
     ethr =  1.00E-02,  avg # of iterations =  8.2

[...]

     Magnetic moment per site:
     atom:    1    charge:    6.0986    magn:    0.8112    constr:    0.0000
     atom:    2    charge:    6.0985    magn:    0.8111    constr:    0.0000
     atom:    3    charge:   11.6912    magn:    1.1549    constr:    0.0000
     atom:    4    charge:   11.6912    magn:    1.1549    constr:    0.0000
     atom:    5    charge:    6.0841    magn:    0.8107    constr:    0.0000
     atom:    6    charge:    6.0841    magn:    0.8107    constr:    0.0000
[...]

     PseudoPot. # 2 for Zn read from file:
     /afs/slac.stanford.edu/u/if/mamunm/psp/gbrv1.5pbe/Zn.UPF
     MD5 check sum: df62231357ef9e81f77b2b3087fa5675
     Pseudo is Ultrasoft, Zval = 20.0
     Generated by new atomic code, or converted to UPF format
     Using radial grid of  943 points,  6 beta functions with:
                l(1) =   0
                l(2) =   0
                l(3) =   1
                l(4) =   1
                l(5) =   2
                l(6) =   2
     Q(r) pseudized with  8 coefficients,  rinner =    1.100   1.100   1.100
                                                       1.100   1.100

     vdW kernel table read from file vdW_kernel_table
     MD5 check sum: 095c7af220d748ca6e76c0b4c6cfb241

     atomic species   valence    mass     pseudopotential
        Mn1           15.00    54.93804     Mn( 1.00)
        Zn1           20.00    65.38000     Zn( 1.00)

     Starting magnetic structure
     atomic species   magnetization
        Mn1          0.133
        Zn1          0.100

     No symmetry found

   Cartesian axes

     site n.     atom                  positions (alat units)
         1           Mn1 tau(   1) = (   0.0000000   0.0000000  10.0000000  )
         2           Mn1 tau(   2) = (   3.9608426   2.3613391  10.0000000  )
         3           Zn1 tau(   3) = (   2.6843021   0.0000000  10.0000000  )
         4           Zn1 tau(   4) = (   1.2765405   2.3613391  10.0000000  )
         5           Mn1 tau(   5) = (   5.3686043   3.2006056  12.2071597  )
         6           Mn1 tau(   6) = (   1.4077617   0.8392665  12.2071597  )
         7           Zn1 tau(   7) = (   2.6843021   3.2006056  12.2071597  )
         8           Zn1 tau(   8) = (   4.0920638   0.8392665  12.2071597  )
         9           Mn1 tau(   9) = (   2.8206311   1.6815791  14.4169226  )
        10           Mn1 tau(  10) = (   6.7817460   4.0430799  14.4168553  )
        11           Zn1 tau(  11) = (   5.4969613   1.6773072  14.5026553  )
        12           Zn1 tau(  12) = (   4.0896223   4.0379387  14.5026556  )

     number of k points=    40  Fermi-Dirac smearing, width (Ry)=  0.0110
                       cart. coord. in units 2pi/alat
        k(    1) = (   0.0000000   0.0000000   0.0000000), wk =   0.0277778
        k(    2) = (   0.0000000   0.0352907   0.0000000), wk =   0.0555556
        k(    3) = (   0.0000000   0.0705814   0.0000000), wk =   0.0555556
        k(    4) = (   0.0000000  -0.1058721   0.0000000), wk =   0.0277778
        k(    5) = (   0.0310447  -0.0167828   0.0000000), wk =   0.0555556
        k(    6) = (   0.0310447   0.0185079   0.0000000), wk =   0.0555556
        k(    7) = (   0.0310447   0.0537987   0.0000000), wk =   0.0555556
        k(    8) = (   0.0310447  -0.1226549   0.0000000), wk =   0.0555556
        k(    9) = (   0.0310447  -0.0873642   0.0000000), wk =   0.0555556
        k(   10) = (   0.0310447  -0.0520735   0.0000000), wk =   0.0555556
        k(   11) = (   0.0620894  -0.0335655   0.0000000), wk =   0.0555556
        k(   12) = (   0.0620894   0.0017252   0.0000000), wk =   0.0555556
        k(   13) = (   0.0620894   0.0370159   0.0000000), wk =   0.0555556
        k(   14) = (   0.0620894  -0.1394377   0.0000000), wk =   0.0555556
        k(   15) = (   0.0620894  -0.1041470   0.0000000), wk =   0.0555556
        k(   16) = (   0.0620894  -0.0688562   0.0000000), wk =   0.0555556
        k(   17) = (  -0.0931341   0.0503483   0.0000000), wk =   0.0277778
        k(   18) = (  -0.0931341   0.0856390   0.0000000), wk =   0.0555556
        k(   19) = (  -0.0931341   0.1209297   0.0000000), wk =   0.0555556
        k(   20) = (  -0.0931341  -0.0555238   0.0000000), wk =   0.0277778
        k(   21) = (   0.0000000   0.0000000   0.0000000), wk =   0.0277778
        k(   22) = (   0.0000000   0.0352907   0.0000000), wk =   0.0555556
        k(   23) = (   0.0000000   0.0705814   0.0000000), wk =   0.0555556
        k(   24) = (   0.0000000  -0.1058721   0.0000000), wk =   0.0277778
        k(   25) = (   0.0310447  -0.0167828   0.0000000), wk =   0.0555556
        k(   26) = (   0.0310447   0.0185079   0.0000000), wk =   0.0555556
        k(   27) = (   0.0310447   0.0537987   0.0000000), wk =   0.0555556
        k(   28) = (   0.0310447  -0.1226549   0.0000000), wk =   0.0555556
        k(   29) = (   0.0310447  -0.0873642   0.0000000), wk =   0.0555556
        k(   30) = (   0.0310447  -0.0520735   0.0000000), wk =   0.0555556
        k(   31) = (   0.0620894  -0.0335655   0.0000000), wk =   0.0555556
        k(   32) = (   0.0620894   0.0017252   0.0000000), wk =   0.0555556
        k(   33) = (   0.0620894   0.0370159   0.0000000), wk =   0.0555556
        k(   34) = (   0.0620894  -0.1394377   0.0000000), wk =   0.0555556
        k(   35) = (   0.0620894  -0.1041470   0.0000000), wk =   0.0555556
        k(   36) = (   0.0620894  -0.0688562   0.0000000), wk =   0.0555556
        k(   37) = (  -0.0931341   0.0503483   0.0000000), wk =   0.0277778
        k(   38) = (  -0.0931341   0.0856390   0.0000000), wk =   0.0555556
        k(   39) = (  -0.0931341   0.1209297   0.0000000), wk =   0.0555556
        k(   40) = (  -0.0931341  -0.0555238   0.0000000), wk =   0.0277778

     Largest allocated arrays     est. size (Mb)     dimensions
     Largest temporary arrays     est. size (Mb)     dimensions

     Check: negative/imaginary core charge=   -0.000006    0.000000

     Initial potential from superposition of free atoms
     Check: negative starting charge=(component1):   -0.001246
     Check: negative starting charge=(component2):   -0.000956

     starting charge  206.99864, renormalised to  210.00000

[...]

     *
     * You are using vdW-DF for exchange-correlation in this calculation.
     * Please cite the following three references that made this development
     * possible:
     *
     *   M. Dion, H. Rydberg, E. Schroder, D. C. Langreth, and
     *   B. I. Lundqvist, Phys. Rev. Lett. 92, 246401 (2004).
     *
     *   T. Thonhauser, V. R. Cooper, S. Li, A. Puzder, P. Hyldgaard, and
     *   D. C. Langreth, Phys. Rev. B 76, 125112 (2007).
     *
     *   G. Roman-Perez and J. M. Soler, Phys. Rev. Lett. 103, 096102 (2009).
     *
     *
     * If you are using vdW-DF2, please also cite:
     *
     *   K. Lee, E. D. Murray, L. Kong, B. I. Lundqvist, and
     *   D. C. Langreth, Phys. Rev. B 82, 081101(R) (2010).
     *
     *
     * If you are calculating the stress with vdW-DF, please also cite:
     *
     *   R. Sabatini, E. Kucukbenli, B. Kolb, T. Thonhauser, and
     *   S. de Gironcoli, J. Phys.: Condens. Matter 24, 424209 (2012).
     *

     Carrying out vdW-DF run using the following parameters:

     Nqs =      20    Nr_points =    1024   r_max =   100.000
     q_mesh =
               0.00001000     0.04494208     0.09755937     0.15916263
               0.23128650     0.31572767     0.41458969     0.53033537
               0.66584808     0.82450364     1.01025438     1.22772762
               1.48234092     1.78043706     2.12944203     2.53805004
               3.01644009     3.57652955     4.23227104     5.00000000

     Gradients computed in reciprocal space

[...]

     Starting wfc are  156 randomized atomic wfcs

     Self-consistent Calculation

[...]

     total energy              =   -4049.29001284 Ry
     Harris-Foulkes estimate   =   -4049.29001034 Ry
     estimated scf accuracy    <       0.00000180 Ry

[...]

     iteration # 26     ecut=    36.75 Ry     beta=0.10
     Davidson diagonalization with overlap
     ethr =  8.56E-10,  avg # of iterations =  2.5

[...]

     negative rho (up, down):  1.530E-03 1.429E-03

[...]

     Adding external electric field

     Computed dipole along edir(3) :
        Dipole               -0.0082 Ry au,         -0.0210 Debye
        Dipole field         -0.0000 Ry au

        Potential amp.        0.0022 Ry
        Total length         44.9830 bohr

     Magnetic moment per site:
     atom:    1    charge:    6.0146    magn:    1.4339    constr:    0.0000
     atom:    2    charge:    6.0145    magn:    1.4339    constr:    0.0000
     atom:    3    charge:   11.6835    magn:    0.0194    constr:    0.0000
     atom:    4    charge:   11.6835    magn:    0.0194    constr:    0.0000
     atom:    5    charge:    6.0005    magn:    1.2952    constr:    0.0000
     atom:    6    charge:    6.0004    magn:    1.2953    constr:    0.0000
     atom:    7    charge:   11.6715    magn:    0.0205    constr:    0.0000
     atom:    8    charge:   11.6715    magn:    0.0205    constr:    0.0000
     atom:    9    charge:    6.0116    magn:    1.4330    constr:    0.0000
     atom:   10    charge:    6.0118    magn:    1.4330    constr:    0.0000
     atom:   11    charge:   11.6785    magn:    0.0183    constr:    0.0000
     atom:   12    charge:   11.6785    magn:    0.0183    constr:    0.0000

     End of self-consistent calculation

 ------ SPIN UP ------------

[...]

 ------ SPIN DOWN ----------

[...]

          k = 0.0621-0.0689 0.0000 ( 15730 PWs)   bands (ev):

[...]

          k =-0.0931-0.0555 0.0000 ( 15706 PWs)   bands (ev):

  -125.6334-125.6326-125.5695-125.5687-125.5332-125.5324 -79.8194 -79.8139
   -79.8128 -79.8067 -79.7903 -79.7890 -79.7522 -79.7520 -79.7509 -79.7396
   -79.7315 -79.7303 -79.7174 -79.7146 -79.7135 -79.7048 -79.6960 -79.6948
   -76.4054 -76.4041 -76.3904 -76.3890 -76.3839 -76.3688 -45.2589 -45.2573
   -45.2560 -45.2494 -45.2377 -45.2375 -45.2372 -45.2331 -45.2240 -45.2125
   -45.1951 -45.1731 -45.1579 -45.1024 -45.1021 -45.1005 -45.0884 -45.0823
    -7.1677  -6.9678  -6.9637  -6.9303  -6.9036  -6.8300  -6.7549  -6.7352
    -6.7242  -6.7005  -6.6842  -6.6708  -6.5628  -6.5554  -6.5181  -6.5038
    -6.4867  -6.4643  -6.4101  -6.4058  -6.3950  -6.3549  -6.3376  -6.2730
    -6.2686  -6.2530  -6.2326  -6.2074  -6.1875  -6.0116  -5.8340  -5.6818
    -4.0238  -3.5990  -2.7315  -2.6362  -1.8637  -1.6766  -1.2437  -1.0400
    -0.6681  -0.5758  -0.0735   0.0514   0.1463   0.3326   0.4453   0.4665
     0.6575   0.8632   1.0070   1.0369   1.7096   1.9029   2.0807   2.1130
     2.1591   2.3169   2.3567   2.3938   2.4814   2.5024   2.5437   2.6898
     2.7292   2.8394   3.1590   3.2055   3.5079   3.7322   4.1252   4.1408
     4.3302   4.6406   5.6498   5.7651   5.8882   6.2918   6.4152   6.4304
     6.5156   6.8366   6.8481   7.0959   7.1961   7.7607   7.8052

     the Fermi energy is     0.7205 ev

!    total energy              =   -4049.29001688 Ry
     Harris-Foulkes estimate   =   -4049.29001368 Ry
     estimated scf accuracy    <       0.00000056 Ry

     The total energy is the sum of the following terms:

     one-electron contribution =  -28361.30282942 Ry
     hartree contribution      =   14169.31023076 Ry
     xc contribution           =    -426.51879070 Ry
     ewald contribution        =   10569.27560206 Ry
     electric field correction =       0.00000020 Ry
     smearing contrib. (-TS)   =      -0.05422979 Ry

     total magnetization       =    21.10 Bohr mag/cell
     absolute magnetization    =    22.91 Bohr mag/cell

     convergence has been achieved in  26 iterations

 BEEF-vdW xc energy contributions
           1 :   -376.486885687715
           2 :    340.740825623082
           3 :   -281.096381406816
           4 :    215.137978098892
           5 :   -158.064711522551
           6 :    117.201805370183
           7 :   -91.4281663413756
           8 :    74.6457514065267
           9 :   -60.5492189480884
          10 :    45.9382995696092
          11 :   -31.2445737670807
          12 :    18.7753319684832
          13 :   -10.3656297172065
          14 :    6.02315176016629
          15 :   -4.12104708888120
          16 :    2.60802597744492
          17 :  -0.254707637045556
          18 :   -2.83679968207463
          19 :    5.63608443221483
          20 :   -7.10048177159359
          21 :    6.93998371018625
          22 :   -5.76550941992087
          23 :    4.61487130631144
          24 :   -4.25708672454795
          25 :    4.75654636748226
          26 :   -5.55386360790664
          27 :    5.94778022744248
          28 :   -5.60691659740252
          29 :    4.74887862767065
          30 :   -3.90134683543118
          31 :   -30.8998008980759
          32 :   -21.3978354993088

     Forces acting on atoms (Ry/au):

     negative rho (up, down):  1.530E-03 1.429E-03
     atom    1 type  1   force =    -0.00094785   -0.00056509   -0.00011941
     atom    2 type  1   force =    -0.00095609   -0.00057011   -0.00012314
     atom    3 type  2   force =     0.00094772    0.00062997   -0.00876573
     atom    4 type  2   force =     0.00100521    0.00053398   -0.00876615
     atom    5 type  1   force =    -0.00144694   -0.00086264    0.00592271
     atom    6 type  1   force =    -0.00145519   -0.00086757    0.00596346
     atom    7 type  2   force =     0.00112879    0.00057509    0.00276906
     atom    8 type  2   force =     0.00104251    0.00071935    0.00276890
     atom    9 type  1   force =    -0.00009372   -0.00005593    0.00006550
     atom   10 type  1   force =    -0.00006123   -0.00003626    0.00008201
     atom   11 type  2   force =     0.00048514    0.00013766    0.00010120
     atom   12 type  2   force =     0.00035166    0.00036155    0.00010158

     Total force =     0.015944     Total SCF correction =     0.002981
     SCF correction compared to forces is large: reduce conv_thr to get better values

     entering subroutine stress ...

     negative rho (up, down):  1.530E-03 1.429E-03
          total   stress  (Ry/bohr**3)                   (kbar)     P=   -7.02
  -0.00006133   0.00000519  -0.00000066         -9.02      0.76     -0.10
   0.00000519  -0.00006694  -0.00000039          0.76     -9.85     -0.06
  -0.00000066  -0.00000039  -0.00001498         -0.10     -0.06     -2.20

 !ASE

     Writing output data file calc.save

     General routines

     Parallel routines

   This run was terminated on:  19:36:30  18Dec2018

   JOB DONE.
Job  /afs/slac/g/suncat/bin/suncat-tsmpirun -x LD_LIBRARY_PATH -wdir /scratch/qe530244_mMvLL pw.x -in pw.inp

TID   HOST_NAME   COMMAND_LINE            STATUS            TERMINATION_TIME
00000 suncat2022 pw.x -in pw.inp   Done                     12/18/2018 19:36:30
00001 suncat2022 pw.x -in pw.inp   Done                     12/18/2018 19:36:30
00002 suncat2022 pw.x -in pw.inp   Done                     12/18/2018 19:36:30
00003 suncat2022 pw.x -in pw.inp   Done                     12/18/2018 19:36:30
00004 suncat2022 pw.x -in pw.inp   Done                     12/18/2018 19:36:30
00005 suncat2022 pw.x -in pw.inp   Done                     12/18/2018 19:36:30
00006 suncat2022 pw.x -in pw.inp   Done                     12/18/2018 19:36:30
00007 suncat2022 pw.x -in pw.inp   Done                     12/18/2018 19:36:30
00008 suncat2022 pw.x -in pw.inp   Done                     12/18/2018 19:36:30
00009 suncat2022 pw.x -in pw.inp   Done                     12/18/2018 19:36:30
00010 suncat2022 pw.x -in pw.inp   Done                     12/18/2018 19:36:30
00011 suncat2022 pw.x -in pw.inp   Done                     12/18/2018 19:36:30
00012 suncat2022 pw.x -in pw.inp   Done                     12/18/2018 19:36:30
00013 suncat2022 pw.x -in pw.inp   Done                     12/18/2018 19:36:30
00014 suncat2022 pw.x -in pw.inp   Done                     12/18/2018 19:36:30
00015 suncat2022 pw.x -in pw.inp   Done                     12/18/2018 19:36:30
00016 suncat2021 pw.x -in pw.inp   Done                     12/18/2018 19:36:30
00017 suncat2021 pw.x -in pw.inp   Done                     12/18/2018 19:36:30
00018 suncat2021 pw.x -in pw.inp   Done                     12/18/2018 19:36:30
00019 suncat2021 pw.x -in pw.inp   Done                     12/18/2018 19:36:30
00020 suncat2021 pw.x -in pw.inp   Done                     12/18/2018 19:36:30
00021 suncat2021 pw.x -in pw.inp   Done                     12/18/2018 19:36:30
00022 suncat2021 pw.x -in pw.inp   Done                     12/18/2018 19:36:30
00023 suncat2021 pw.x -in pw.inp   Done                     12/18/2018 19:36:30
00024 suncat2021 pw.x -in pw.inp   Done                     12/18/2018 19:36:30
00025 suncat2021 pw.x -in pw.inp   Done                     12/18/2018 19:36:30
00026 suncat2021 pw.x -in pw.inp   Done                     12/18/2018 19:36:30
00027 suncat2021 pw.x -in pw.inp   Done                     12/18/2018 19:36:30
00028 suncat2021 pw.x -in pw.inp   Done                     12/18/2018 19:36:30
00029 suncat2021 pw.x -in pw.inp   Done                     12/18/2018 19:36:30
00030 suncat2021 pw.x -in pw.inp   Done                     12/18/2018 19:36:30
00031 suncat2021 pw.x -in pw.inp   Done                     12/18/2018 19:36:30