     Program PWSCF v.5.1rc2 (svn rev. 11289) starts on 19Dec2018 at  7:47:32

     Current dimensions of program PWSCF are:
     Max number of different atomic species (ntypx) = 10
     Max number of k-points (npk) =  40000
     Max angular momentum in pseudopotentials (lmaxx) =  3
     Presently stress not available with electric field

     IMPORTANT: XC functional enforced from input :
     Exchange-correlation      = BEEF-VDW ( 1  4 27 13 2)
     Any further DFT definition will be discarded
     Please, verify this is what you really want

     Subspace diagonalization in iterative solution of the eigenvalue problem:
     a serial algorithm will be used

     Found symmetry operation: I + (  0.5000  0.0000  0.0000)
     This is a supercell, fractional translations are disabled

     bravais-lattice index     =            0
     lattice parameter (alat)  =       1.8897  a.u.
     unit-cell volume          =    5015.9400 (a.u.)^3
     number of atoms/cell      =           12
     number of atomic types    =            2
     number of electrons       =       150.00
     number of Kohn-Sham states=          105
     kinetic-energy cutoff     =      36.7493  Ry
     charge density cutoff     =     367.4932  Ry
     convergence threshold     =      1.0E-06
     mixing beta               =       0.1000
     number of iterations used =           10  plain     mixing
     Exchange-correlation      = BEEF-VDW ( 1  4 27 13 2)
     nstep                     =           50

     celldm(1)=   1.889726  celldm(2)=   0.000000  celldm(3)=   0.000000
     celldm(4)=   0.000000  celldm(5)=   0.000000  celldm(6)=   0.000000

     crystal axes: (cart. coord. in units of alat)
               a(1) = (   5.521343   0.000000   0.000000 )
               a(2) = (  -2.760672   5.437703   0.000000 )
               a(3) = (   0.000000   0.000000  24.756855 )

     reciprocal axes: (cart. coord. in units 2 pi/alat)
               b(1) = (  0.181115  0.091951  0.000000 )
               b(2) = (  0.000000  0.183901  0.000000 )
               b(3) = (  0.000000  0.000000  0.040393 )

     PseudoPot. # 1 for Ti read from file:
     /afs/slac.stanford.edu/u/if/mamunm/psp/gbrv1.5pbe/Ti.UPF
     MD5 check sum: 88a00a6731bd790ddea75d31a80cb452
     Pseudo is Ultrasoft + core correction, Zval = 12.0
     Generated by new atomic code, or converted to UPF format
     Using radial grid of  851 points,  6 beta functions with:
                l(1) =   0
                l(2) =   0
                l(3) =   1
                l(4) =   1
                l(5) =   2
                l(6) =   2
     Q(r) pseudized with  6 coefficients,  rinner =    1.000   1.000   1.000
                                                       1.000   1.000

     PseudoPot. # 2 for Nb read from file:
     /afs/slac.stanford.edu/u/if/mamunm/psp/gbrv1.5pbe/Nb.UPF
     MD5 check sum: 573aab8a2fa660278ed4a62cd769473f
     Pseudo is Ultrasoft + core correction, Zval = 13.0
     Generated by new atomic code, or converted to UPF format
     Using radial grid of  887 points,  6 beta functions with:
                l(1) =   0
                l(2) =   0
                l(3) =   1
                l(4) =   1
                l(5) =   2
                l(6) =   2
     Q(r) pseudized with  6 coefficients,  rinner =    1.000   1.000   1.000
                                                       1.000   1.000

     vdW kernel table read from file vdW_kernel_table
     MD5 check sum: 095c7af220d748ca6e76c0b4c6cfb241

     atomic species   valence    mass     pseudopotential
        Ti1           12.00    47.86700     Ti( 1.00)
        Nb1           13.00    92.90637     Nb( 1.00)

     No symmetry found

   Cartesian axes

     site n.     atom                  positions (alat units)
         1           Ti1 tau(   1) = (   0.0000000   0.0000000  10.0000000  )
         2           Ti1 tau(   2) = (   2.7606717   0.0000000  10.0000000  )
         3           Nb1 tau(   3) = (   1.3803358   2.7188516  10.0000000  )
         4           Nb1 tau(   4) = (  -1.3803358   2.7188516  10.0000000  )
         5           Ti1 tau(   5) = (   2.7606717   1.4015675  12.3784274  )
         6           Ti1 tau(   6) = (  -0.0000000   1.4015675  12.3784274  )
         7           Nb1 tau(   7) = (  -1.3803358   4.1204191  12.3784274  )
         8           Nb1 tau(   8) = (   1.3803358   4.1204191  12.3784274  )
         9           Ti1 tau(   9) = (   0.0000000   2.8031350  14.7568547  )
        10           Ti1 tau(  10) = (   2.7606717   2.8031350  14.7568547  )
        11           Nb1 tau(  11) = (   4.1410075   0.0842834  14.7568547  )
        12           Nb1 tau(  12) = (   1.3803358   0.0842834  14.7568547  )

     number of k points=    20  Fermi-Dirac smearing, width (Ry)=  0.0110
                       cart. coord. in units 2pi/alat
        k(    1) = (   0.0000000   0.0000000   0.0000000), wk =   0.0555556
        k(    2) = (   0.0000000   0.0306502   0.0000000), wk =   0.1111111
        k(    3) = (   0.0000000   0.0613004   0.0000000), wk =   0.1111111
        k(    4) = (   0.0000000  -0.0919506   0.0000000), wk =   0.0555556
        k(    5) = (   0.0301859   0.0153251   0.0000000), wk =   0.1111111
        k(    6) = (   0.0301859   0.0459753   0.0000000), wk =   0.1111111
        k(    7) = (   0.0301859   0.0766255   0.0000000), wk =   0.1111111
        k(    8) = (   0.0301859  -0.0766255   0.0000000), wk =   0.1111111
        k(    9) = (   0.0301859  -0.0459753   0.0000000), wk =   0.1111111
        k(   10) = (   0.0301859  -0.0153251   0.0000000), wk =   0.1111111
        k(   11) = (   0.0603718   0.0306502   0.0000000), wk =   0.1111111
        k(   12) = (   0.0603718   0.0613004   0.0000000), wk =   0.1111111
        k(   13) = (   0.0603718   0.0919506   0.0000000), wk =   0.1111111
        k(   14) = (   0.0603718  -0.0613004   0.0000000), wk =   0.1111111
        k(   15) = (   0.0603718  -0.0306502   0.0000000), wk =   0.1111111
        k(   16) = (   0.0603718   0.0000000   0.0000000), wk =   0.1111111
        k(   17) = (  -0.0905577  -0.0459753   0.0000000), wk =   0.0555556
        k(   18) = (  -0.0905577  -0.0153251   0.0000000), wk =   0.1111111
        k(   19) = (  -0.0905577   0.0153251   0.0000000), wk =   0.1111111
        k(   20) = (  -0.0905577  -0.1379259   0.0000000), wk =   0.0555556

     Largest allocated arrays     est. size (Mb)     dimensions
     Largest temporary arrays     est. size (Mb)     dimensions

     Check: negative/imaginary core charge=   -0.000004    0.000000

     Initial potential from superposition of free atoms
     Check: negative starting charge=   -0.012281

     starting charge  143.98334, renormalised to  150.00000

     negative rho (up, down):  1.279E-02 0.000E+00

     *
     * You are using vdW-DF for exchange-correlation in this calculation.
     * Please cite the following three references that made this development
     * possible:
     *
     *   M. Dion, H. Rydberg, E. Schroder, D. C. Langreth, and
     *   B. I. Lundqvist, Phys. Rev. Lett. 92, 246401 (2004).
     *
     *   T. Thonhauser, V. R. Cooper, S. Li, A. Puzder, P. Hyldgaard, and
     *   D. C. Langreth, Phys. Rev. B 76, 125112 (2007).
     *
     *   G. Roman-Perez and J. M. Soler, Phys. Rev. Lett. 103, 096102 (2009).
     *
     *
     * If you are using vdW-DF2, please also cite:
     *
     *   K. Lee, E. D. Murray, L. Kong, B. I. Lundqvist, and
     *   D. C. Langreth, Phys. Rev. B 82, 081101(R) (2010).
     *
     *
     * If you are calculating the stress with vdW-DF, please also cite:
     *
     *   R. Sabatini, E. Kucukbenli, B. Kolb, T. Thonhauser, and
     *   S. de Gironcoli, J. Phys.: Condens. Matter 24, 424209 (2012).
     *

     Carrying out vdW-DF run using the following parameters:

     Nqs =      20    Nr_points =    1024   r_max =   100.000
     q_mesh =
               0.00001000     0.04494208     0.09755937     0.15916263
               0.23128650     0.31572767     0.41458969     0.53033537
               0.66584808     0.82450364     1.01025438     1.22772762
               1.48234092     1.78043706     2.12944203     2.53805004
               3.01644009     3.57652955     4.23227104     5.00000000

     Gradients computed in reciprocal space

     Adding external electric field

     Computed dipole along edir(3) :
        Dipole                0.0000 Ry au,          0.0000 Debye
        Dipole field          0.0000 Ry au

        Potential amp.       -0.0000 Ry
        Total length         45.6141 bohr

     Starting wfc are  138 randomized atomic wfcs

     Self-consistent Calculation

     iteration #  1     ecut=    36.75 Ry     beta=0.10
     Davidson diagonalization with overlap
     ethr =  1.00E-02,  avg # of iterations =  3.4

[...]

     total energy              =   -1426.00510943 Ry
     Harris-Foulkes estimate   =   -1436.87820308 Ry
     estimated scf accuracy    <      60.35829762 Ry

[...]

     End of self-consistent calculation

          k = 0.0000 0.0000 0.0000 ( 18815 PWs)   bands (ev):

   -55.7769 -55.7733 -55.7049 -55.7019 -55.5779 -55.5066 -53.6481 -53.6332
   -53.4992 -53.4847 -53.4542 -53.3052 -32.2124 -32.2029 -32.1749 -32.0978
   -32.0631 -32.0462 -32.0122 -32.0009 -31.9913 -31.9328 -31.9144 -31.7987
   -31.7153 -31.7130 -31.6604 -31.6581 -31.6559 -31.5035 -30.1825 -30.1684
   -30.0419 -30.0242 -29.8803 -29.7218 -29.6074 -29.5974 -29.5823 -29.4872
   -29.4730 -29.4231 -29.2985 -29.1782 -29.0596 -29.0191 -29.0073 -28.8889
    -4.0991  -2.8183  -2.1208  -2.0131  -1.7713  -1.6570  -1.4081  -1.2166
    -1.1124  -1.0774  -1.0338  -0.9166  -0.8637  -0.6884  -0.5553  -0.3990
     0.1714   0.2694   0.3453   0.7300   0.9722   0.9809   1.0180   1.2716
     1.2876   1.3759   1.4006   1.7704   1.9513   1.9532   2.0841   2.1085
     2.1302   2.2898   2.7061   2.7601   2.7662   2.8341   2.8750   2.9206
     2.9387   3.0030   3.0123   3.0548   3.4005   3.5236   3.6138   3.7036
     3.8116   3.8419   4.0179   4.1486   4.2388   4.5478   4.6186   4.6241
     4.8007

[...]

          k =-0.0906-0.0460 0.0000 ( 18910 PWs)   bands (ev):

[...]

     the Fermi energy is     1.2700 ev

!    total energy              =   -1430.35427849 Ry
     Harris-Foulkes estimate   =   -1430.35427679 Ry
     estimated scf accuracy    <       0.00000039 Ry

     The total energy is the sum of the following terms:

     one-electron contribution =  -11083.04287603 Ry
     hartree contribution      =    5529.95145079 Ry
     xc contribution           =    -226.56492557 Ry
     ewald contribution        =    4349.42651560 Ry
     electric field correction =       0.00000000 Ry
     smearing contrib. (-TS)   =      -0.12444327 Ry

     convergence has been achieved in  21 iterations

 BEEF-vdW xc energy contributions
           1 :   -194.582358580780
           2 :    175.489107595395
           3 :   -143.560587564909
           4 :    108.175713515209
           5 :   -77.6405386605393
           6 :    56.1376058558662
           7 :   -43.1929277425704
           8 :    35.3753265845240
           9 :   -28.8709185919250
          10 :    21.4077495146740
          11 :   -12.7749655651977
[...]

   This run was terminated on:   8: 2:31  19Dec2018

[...]

     Program PWSCF v.5.1rc2 (svn rev. 11289) starts on 19Dec2018 at  8: 2:37

     Current dimensions of program PWSCF are:
     Max number of different atomic species (ntypx) = 10
     Max number of k-points (npk) =  40000
     Max angular momentum in pseudopotentials (lmaxx) =  3
     Presently stress not available with electric field

     IMPORTANT: XC functional enforced from input :
     Exchange-correlation      = BEEF-VDW ( 1  4 27 13 2)
     Any further DFT definition will be discarded
     Please, verify this is what you really want

     Subspace diagonalization in iterative solution of the eigenvalue problem:
     a serial algorithm will be used

     Found symmetry operation: I + (  0.5000  0.0000  0.0000)
     This is a supercell, fractional translations are disabled

     bravais-lattice index     =            0
     lattice parameter (alat)  =       1.8897  a.u.
     unit-cell volume          =    5015.9400 (a.u.)^3
     number of atoms/cell      =           12
     number of atomic types    =            2
     number of electrons       =       150.00
     number of Kohn-Sham states=          105
     kinetic-energy cutoff     =      36.7493  Ry
     charge density cutoff     =     367.4932  Ry
     convergence threshold     =      1.0E-06
     mixing beta               =       0.1000
     number of iterations used =           10  plain     mixing
     Exchange-correlation      = BEEF-VDW ( 1  4 27 13 2)
     nstep                     =           50

     celldm(1)=   1.889726  celldm(2)=   0.000000  celldm(3)=   0.000000
     celldm(4)=   0.000000  celldm(5)=   0.000000  celldm(6)=   0.000000

     crystal axes: (cart. coord. in units of alat)
               a(1) = (   5.521343   0.000000   0.000000 )
               a(2) = (  -2.760672   5.437703   0.000000 )
               a(3) = (   0.000000   0.000000  24.756855 )

     reciprocal axes: (cart. coord. in units 2 pi/alat)
               b(1) = (  0.181115  0.091951  0.000000 )
               b(2) = (  0.000000  0.183901  0.000000 )
               b(3) = (  0.000000  0.000000  0.040393 )

     PseudoPot. # 1 for Ti read from file:
     /afs/slac.stanford.edu/u/if/mamunm/psp/gbrv1.5pbe/Ti.UPF
     MD5 check sum: 88a00a6731bd790ddea75d31a80cb452
     Pseudo is Ultrasoft + core correction, Zval = 12.0
     Generated by new atomic code, or converted to UPF format
     Using radial grid of  851 points,  6 beta functions with:
                l(1) =   0
                l(2) =   0
                l(3) =   1
                l(4) =   1
                l(5) =   2
                l(6) =   2
     Q(r) pseudized with  6 coefficients,  rinner =    1.000   1.000   1.000
                                                       1.000   1.000

     PseudoPot. # 2 for Nb read from file:
     /afs/slac.stanford.edu/u/if/mamunm/psp/gbrv1.5pbe/Nb.UPF
     MD5 check sum: 573aab8a2fa660278ed4a62cd769473f
     Pseudo is Ultrasoft + core correction, Zval = 13.0
     Generated by new atomic code, or converted to UPF format
     Using radial grid of  887 points,  6 beta functions with:
                l(1) =   0
                l(2) =   0
                l(3) =   1
                l(4) =   1
                l(5) =   2
                l(6) =   2
     Q(r) pseudized with  6 coefficients,  rinner =    1.000   1.000   1.000
                                                       1.000   1.000

     vdW kernel table read from file vdW_kernel_table
     MD5 check sum: 095c7af220d748ca6e76c0b4c6cfb241

     atomic species   valence    mass     pseudopotential
        Ti1           12.00    47.86700     Ti( 1.00)
        Nb1           13.00    92.90637     Nb( 1.00)

     No symmetry found

   Cartesian axes

     site n.     atom                  positions (alat units)
         1           Ti1 tau(   1) = (   0.0000000   0.0000000  10.0000000  )
         2           Ti1 tau(   2) = (   2.7606717   0.0000000  10.0000000  )
         3           Nb1 tau(   3) = (   1.3803358   2.7188516  10.0000000  )
         4           Nb1 tau(   4) = (  -1.3803358   2.7188516  10.0000000  )
         5           Ti1 tau(   5) = (   2.7606717   1.4015675  12.3784274  )
         6           Ti1 tau(   6) = (  -0.0000000   1.4015675  12.3784274  )
         7           Nb1 tau(   7) = (  -1.3803358   4.1204191  12.3784274  )
         8           Nb1 tau(   8) = (   1.3803358   4.1204191  12.3784274  )
         9           Ti1 tau(   9) = (  -0.0001195   2.8011625  14.7258435  )
        10           Ti1 tau(  10) = (   2.7605522   2.8011527  14.7258378  )
        11           Nb1 tau(  11) = (   4.1407578   0.1027322  14.6453979  )
        12           Nb1 tau(  12) = (   1.3800889   0.1027329  14.6453966  )

     number of k points=    20  Fermi-Dirac smearing, width (Ry)=  0.0110
                       cart. coord. in units 2pi/alat
        k(    1) = (   0.0000000   0.0000000   0.0000000), wk =   0.0555556
        k(    2) = (   0.0000000   0.0306502   0.0000000), wk =   0.1111111
        k(    3) = (   0.0000000   0.0613004   0.0000000), wk =   0.1111111
        k(    4) = (   0.0000000  -0.0919506   0.0000000), wk =   0.0555556
        k(    5) = (   0.0301859   0.0153251   0.0000000), wk =   0.1111111
        k(    6) = (   0.0301859   0.0459753   0.0000000), wk =   0.1111111
        k(    7) = (   0.0301859   0.0766255   0.0000000), wk =   0.1111111
        k(    8) = (   0.0301859  -0.0766255   0.0000000), wk =   0.1111111
        k(    9) = (   0.0301859  -0.0459753   0.0000000), wk =   0.1111111
        k(   10) = (   0.0301859  -0.0153251   0.0000000), wk =   0.1111111
        k(   11) = (   0.0603718   0.0306502   0.0000000), wk =   0.1111111
        k(   12) = (   0.0603718   0.0613004   0.0000000), wk =   0.1111111
        k(   13) = (   0.0603718   0.0919506   0.0000000), wk =   0.1111111
        k(   14) = (   0.0603718  -0.0613004   0.0000000), wk =   0.1111111
        k(   15) = (   0.0603718  -0.0306502   0.0000000), wk =   0.1111111
        k(   16) = (   0.0603718   0.0000000   0.0000000), wk =   0.1111111
        k(   17) = (  -0.0905577  -0.0459753   0.0000000), wk =   0.0555556
        k(   18) = (  -0.0905577  -0.0153251   0.0000000), wk =   0.1111111
        k(   19) = (  -0.0905577   0.0153251   0.0000000), wk =   0.1111111
        k(   20) = (  -0.0905577  -0.1379259   0.0000000), wk =   0.0555556

     Largest allocated arrays     est. size (Mb)     dimensions
     Largest temporary arrays     est. size (Mb)     dimensions

     Check: negative/imaginary core charge=   -0.000004    0.000000

     Initial potential from superposition of free atoms
     Check: negative starting charge=   -0.012247

     starting charge  143.98334, renormalised to  150.00000

[...]

     *
     * You are using vdW-DF for exchange-correlation in this calculation.
     * Please cite the following three references that made this development
     * possible:
     *
     *   M. Dion, H. Rydberg, E. Schroder, D. C. Langreth, and
     *   B. I. Lundqvist, Phys. Rev. Lett. 92, 246401 (2004).
     *
     *   T. Thonhauser, V. R. Cooper, S. Li, A. Puzder, P. Hyldgaard, and
     *   D. C. Langreth, Phys. Rev. B 76, 125112 (2007).
     *
     *   G. Roman-Perez and J. M. Soler, Phys. Rev. Lett. 103, 096102 (2009).
     *
     *
     * If you are using vdW-DF2, please also cite:
     *
     *   K. Lee, E. D. Murray, L. Kong, B. I. Lundqvist, and
     *   D. C. Langreth, Phys. Rev. B 82, 081101(R) (2010).
     *
     *
     * If you are calculating the stress with vdW-DF, please also cite:
     *
     *   R. Sabatini, E. Kucukbenli, B. Kolb, T. Thonhauser, and
     *   S. de Gironcoli, J. Phys.: Condens. Matter 24, 424209 (2012).
     *

     Carrying out vdW-DF run using the following parameters:

     Nqs =      20    Nr_points =    1024   r_max =   100.000
     q_mesh =
               0.00001000     0.04494208     0.09755937     0.15916263
               0.23128650     0.31572767     0.41458969     0.53033537
               0.66584808     0.82450364     1.01025438     1.22772762
               1.48234092     1.78043706     2.12944203     2.53805004
               3.01644009     3.57652955     4.23227104     5.00000000

     Gradients computed in reciprocal space

[...]

     Starting wfc are  138 randomized atomic wfcs

     Self-consistent Calculation

[...]

     iteration # 14     ecut=    36.75 Ry     beta=0.10
     Davidson diagonalization with overlap
     c_bands:  1 eigenvalues not converged
     c_bands:  1 eigenvalues not converged
     ethr =  7.69E-06,  avg # of iterations =  5.8

[...]

     iteration # 15     ecut=    36.75 Ry     beta=0.10
     Davidson diagonalization with overlap
     c_bands:  1 eigenvalues not converged
     ethr =  1.08E-06,  avg # of iterations =  8.4

[...]

     total energy              =   -1430.35851999 Ry
     Harris-Foulkes estimate   =   -1430.35851893 Ry
     estimated scf accuracy    <       0.00000235 Ry

     iteration # 22     ecut=    36.75 Ry     beta=0.10
     Davidson diagonalization with overlap
     ethr =  1.57E-09,  avg # of iterations =  2.0

[...]

     negative rho (up, down):  8.182E-03 0.000E+00

     Adding external electric field

     Computed dipole along edir(3) :
        Dipole                0.0144 Ry au,          0.0365 Debye
        Dipole field          0.0000 Ry au

        Potential amp.       -0.0033 Ry
        Total length         45.6141 bohr

     End of self-consistent calculation

[...]

          k = 0.0604 0.0000 0.0000 ( 18844 PWs)   bands (ev):

[...]

          k =-0.0906-0.1379 0.0000 ( 18910 PWs)   bands (ev):

   -55.7355 -55.7352 -55.7276 -55.7275 -55.5084 -55.5084 -53.5603 -53.5603
   -53.5175 -53.5175 -53.3374 -53.3373 -32.1341 -32.1339 -32.0334 -32.0334
   -31.9563 -31.9561 -31.9374 -31.9374 -31.9251 -31.9250 -31.9204 -31.9201
   -31.7547 -31.7547 -31.7250 -31.7250 -31.6479 -31.6478 -29.9988 -29.9988
   -29.6313 -29.6313 -29.6178 -29.6178 -29.5864 -29.5864 -29.5410 -29.5410
   -29.5025 -29.5025 -29.4538 -29.4538 -29.3260 -29.3260 -29.0312 -29.0312
    -2.4486  -2.4485  -1.4326  -1.4325  -1.1091  -1.1091  -0.7594  -0.7594
    -0.5664  -0.5664  -0.2403  -0.2403   0.0728   0.0728   0.2441   0.2441
     0.2991   0.2991   0.5299   0.5299   0.6603   0.6603   0.9910   0.9910
     1.0531   1.0532   1.2470   1.2470   1.3228   1.3229   1.5870   1.5871
     1.6998   1.6999   1.7824   1.7824   1.9423   1.9423   2.5491   2.5491
     2.8385   2.8385   2.9171   2.9172   2.9815   2.9815   3.1505   3.1505
     3.3030   3.3030   3.3962   3.3962   3.4662   3.4663   3.7035   3.7036
     4.0373

     the Fermi energy is     1.2787 ev

!    total energy              =   -1430.35852216 Ry
     Harris-Foulkes estimate   =   -1430.35852033 Ry
     estimated scf accuracy    <       0.00000082 Ry

     The total energy is the sum of the following terms:

     one-electron contribution =  -11197.19755651 Ry
     hartree contribution      =    5587.14593166 Ry
     xc contribution           =    -226.69364224 Ry
     ewald contribution        =    4406.50855087 Ry
     electric field correction =       0.00000052 Ry
     smearing contrib. (-TS)   =      -0.12180646 Ry

     convergence has been achieved in  22 iterations

 BEEF-vdW xc energy contributions
           1 :   -194.711924778744
           2 :    175.658884889535
           3 :   -143.775017067995
           4 :    108.392628898523
           5 :   -77.7949968503829
           6 :    56.1842126239162
           7 :   -43.1381142053073
           8 :    35.2760662976018
           9 :   -28.7997182085861
          10 :    21.4080563628519
          11 :   -12.8388446445945
          12 :    4.18217292772084
          13 :    3.26946786093433
          14 :   -8.86786377871096
          15 :    12.7643774393480
          16 :   -15.5165439489630
          17 :    17.5718911159832
          18 :   -19.0239596944754
          19 :    19.7218681433424
          20 :   -19.5404206378274
          21 :    18.5394926386880
          22 :   -16.9123163086940
          23 :    14.8205767709400
          24 :   -12.3031219908144
          25 :    9.34241752327614
          26 :   -6.02287878797739
          27 :    2.62487332749316
          28 :   0.442408324532408
          29 :   -2.83777365542136
          30 :    4.46930239517039
          31 :   -21.5155274337219
          32 :   -15.8263817895249

     Forces acting on atoms (Ry/au):

     negative rho (up, down):  8.182E-03 0.000E+00
     atom    1 type  1   force =    -0.00000801    0.00015813    0.00370942
     atom    2 type  1   force =    -0.00000880    0.00016068    0.00371605
     atom    3 type  2   force =    -0.00000272   -0.00131575    0.01710044
     atom    4 type  2   force =    -0.00000106   -0.00131614    0.01710138
     atom    5 type  1   force =     0.00003609    0.00164684   -0.00893472
     atom    6 type  1   force =     0.00003693    0.00163963   -0.00894747
     atom    7 type  2   force =     0.00004385   -0.00259503   -0.01126825
     atom    8 type  2   force =     0.00002622   -0.00259433   -0.01126849
     atom    9 type  1   force =    -0.00000596    0.00049864   -0.00052003
     atom   10 type  1   force =    -0.00000693    0.00050095   -0.00050711
     atom   11 type  2   force =    -0.00005390    0.00160860   -0.00009053
     atom   12 type  2   force =    -0.00005571    0.00160777   -0.00009069

     Total force =     0.032479     Total SCF correction =     0.003001

     entering subroutine stress ...

     negative rho (up, down):  8.182E-03 0.000E+00
          total   stress  (Ry/bohr**3)                   (kbar)     P=  -12.22
  -0.00010243  -0.00000002  -0.00000002        -15.07     -0.00     -0.00
  -0.00000002  -0.00010692   0.00000555         -0.00    -15.73      0.82
  -0.00000002   0.00000555  -0.00003985         -0.00      0.82     -5.86

 !ASE

     Writing output data file calc.save

     General routines

     Parallel routines

   This run was terminated on:   8: 7:39  19Dec2018

   JOB DONE.
Job  /afs/slac/g/suncat/bin/suncat-tsmpirun -x LD_LIBRARY_PATH -wdir /scratch/qe530695_YoGnX pw.x -in pw.inp

TID   HOST_NAME   COMMAND_LINE            STATUS            TERMINATION_TIME
00000 suncat2044 pw.x -in pw.inp   Done                     12/19/2018 08:07:39
00001 suncat2044 pw.x -in pw.inp   Done                     12/19/2018 08:07:39
00002 suncat2044 pw.x -in pw.inp   Done                     12/19/2018 08:07:39
00003 suncat2044 pw.x -in pw.inp   Done                     12/19/2018 08:07:39
00004 suncat2044 pw.x -in pw.inp   Done                     12/19/2018 08:07:39
00005 suncat2044 pw.x -in pw.inp   Done                     12/19/2018 08:07:39
00006 suncat2044 pw.x -in pw.inp   Done                     12/19/2018 08:07:39
00007 suncat2044 pw.x -in pw.inp   Done                     12/19/2018 08:07:39
00008 suncat2044 pw.x -in pw.inp   Done                     12/19/2018 08:07:39
00009 suncat2044 pw.x -in pw.inp   Done                     12/19/2018 08:07:39
00010 suncat2044 pw.x -in pw.inp   Done                     12/19/2018 08:07:39
00011 suncat2044 pw.x -in pw.inp   Done                     12/19/2018 08:07:39
00012 suncat2044 pw.x -in pw.inp   Done                     12/19/2018 08:07:39
00013 suncat2044 pw.x -in pw.inp   Done                     12/19/2018 08:07:39
00014 suncat2044 pw.x -in pw.inp   Done                     12/19/2018 08:07:39
00015 suncat2044 pw.x -in pw.inp   Done                     12/19/2018 08:07:39
00016 suncat2043 pw.x -in pw.inp   Done                     12/19/2018 08:07:39
00017 suncat2043 pw.x -in pw.inp   Done                     12/19/2018 08:07:39
00018 suncat2043 pw.x -in pw.inp   Done                     12/19/2018 08:07:39
00019 suncat2043 pw.x -in pw.inp   Done                     12/19/2018 08:07:39
00020 suncat2043 pw.x -in pw.inp   Done                     12/19/2018 08:07:39
00021 suncat2043 pw.x -in pw.inp   Done                     12/19/2018 08:07:39
00022 suncat2043 pw.x -in pw.inp   Done                     12/19/2018 08:07:39
00023 suncat2043 pw.x -in pw.inp   Done                     12/19/2018 08:07:39
00024 suncat2043 pw.x -in pw.inp   Done                     12/19/2018 08:07:39
00025 suncat2043 pw.x -in pw.inp   Done                     12/19/2018 08:07:39
00026 suncat2043 pw.x -in pw.inp   Done                     12/19/2018 08:07:39
00027 suncat2043 pw.x -in pw.inp   Done                     12/19/2018 08:07:39
00028 suncat2043 pw.x -in pw.inp   Done                     12/19/2018 08:07:39
00029 suncat2043 pw.x -in pw.inp   Done                     12/19/2018 08:07:39
00030 suncat2043 pw.x -in pw.inp   Done                     12/19/2018 08:07:39
00031 suncat2043 pw.x -in pw.inp   Done                     12/19/2018 08:07:39