     Program PWSCF v.5.1rc2 (svn rev. 11289) starts on 24Dec2018 at 17:10:27

     Current dimensions of program PWSCF are:
     Max number of different atomic species (ntypx) = 10
     Max number of k-points (npk) =  40000
     Max angular momentum in pseudopotentials (lmaxx) =  3
     Presently stress not available with electric field

     IMPORTANT: XC functional enforced from input :
     Exchange-correlation      = BEEF-VDW ( 1  4 27 13 2)
     Any further DFT definition will be discarded
     Please, verify this is what you really want

     Subspace diagonalization in iterative solution of the eigenvalue problem:
     a serial algorithm will be used

     Found symmetry operation: I + ( -0.5000  0.0000  0.0000)
     This is a supercell, fractional translations are disabled

     bravais-lattice index     =            0
     lattice parameter (alat)  =       1.8897  a.u.
     unit-cell volume          =    4751.8345 (a.u.)^3
     number of atoms/cell      =           12
     number of atomic types    =            2
     number of electrons       =       192.00
     number of Kohn-Sham states=          126
     kinetic-energy cutoff     =      36.7493  Ry
     charge density cutoff     =     367.4932  Ry
     convergence threshold     =      1.0E-06
     mixing beta               =       0.1000
     number of iterations used =           10  plain     mixing
     Exchange-correlation      = BEEF-VDW ( 1  4 27 13 2)
     nstep                     =           50

     celldm(1)=   1.889726  celldm(2)=   0.000000  celldm(3)=   0.000000
     celldm(4)=   0.000000  celldm(5)=   0.000000  celldm(6)=   0.000000

     crystal axes: (cart. coord. in units of alat)
               a(1) = (   5.697699   0.000000   0.000000 )
               a(2) = (  -2.848850   5.006419   0.000000 )
               a(3) = (   0.000000   0.000000  24.685277 )

     reciprocal axes: (cart. coord. in units 2 pi/alat)
               b(1) = (  0.175509  0.099872  0.000000 )
               b(2) = (  0.000000  0.199744  0.000000 )
               b(3) = (  0.000000  0.000000  0.040510 )

     PseudoPot. # 1 for Ga read from file:
     /afs/slac.stanford.edu/u/if/mamunm/psp/gbrv1.5pbe/Ga.UPF
     MD5 check sum: ccd671392a58a050fbb373893b4fcd66
     Pseudo is Ultrasoft + core correction, Zval = 19.0
     Generated by new atomic code, or converted to UPF format
     Using radial grid of  871 points,  6 beta functions with:
                l(1) =   0
                l(2) =   0
                l(3) =   1
                l(4) =   1
                l(5) =   2
                l(6) =   2
     Q(r) pseudized with  8 coefficients,  rinner =    1.250   1.250   1.250
                                                       1.250   1.250

     PseudoPot. # 2 for Nb read from file:
     /afs/slac.stanford.edu/u/if/mamunm/psp/gbrv1.5pbe/Nb.UPF
     MD5 check sum: 573aab8a2fa660278ed4a62cd769473f
     Pseudo is Ultrasoft + core correction, Zval = 13.0
     Generated by new atomic code, or converted to UPF format
     Using radial grid of  887 points,  6 beta functions with:
                l(1) =   0
                l(2) =   0
                l(3) =   1
                l(4) =   1
                l(5) =   2
                l(6) =   2
     Q(r) pseudized with  6 coefficients,  rinner =    1.000   1.000   1.000
                                                       1.000   1.000

     vdW kernel table read from file vdW_kernel_table
     MD5 check sum: 095c7af220d748ca6e76c0b4c6cfb241

     atomic species   valence    mass     pseudopotential
        Ga1           19.00    69.72300     Ga( 1.00)
        Nb1           13.00    92.90637     Nb( 1.00)

     No symmetry found

   Cartesian axes

     site n.     atom                  positions (alat units)
         1           Ga1 tau(   1) = (   0.0000000   0.0000000  10.0000000  )
         2           Ga1 tau(   2) = (   2.8488497   0.0000000  10.0000000  )
         3           Nb1 tau(   3) = (   1.4244249   2.5032094  10.0000000  )
         4           Nb1 tau(   4) = (  -1.4244249   2.5032094  10.0000000  )
         5           Ga1 tau(   5) = (   2.8488497   1.6211079  12.3426383  )
         6           Ga1 tau(   6) = (   0.0000000   1.6211079  12.3426383  )
         7           Nb1 tau(   7) = (  -1.4244249   4.1243173  12.3426383  )
         8           Nb1 tau(   8) = (   1.4244249   4.1243173  12.3426383  )
         9           Ga1 tau(   9) = (  -0.0000000   3.2422158  14.6852766  )
        10           Ga1 tau(  10) = (   2.8488497   3.2422158  14.6852766  )
        11           Nb1 tau(  11) = (   4.2732746   0.7390064  14.6852766  )
        12           Nb1 tau(  12) = (   1.4244249   0.7390064  14.6852766  )

     number of k points=    20  Fermi-Dirac smearing, width (Ry)=  0.0110
                       cart. coord. in units 2pi/alat
        k(    1) = (   0.0000000   0.0000000   0.0000000), wk =   0.0555556
        k(    2) = (   0.0000000   0.0332906   0.0000000), wk =   0.1111111
        k(    3) = (   0.0000000   0.0665812   0.0000000), wk =   0.1111111
        k(    4) = (   0.0000000  -0.0998718   0.0000000), wk =   0.0555556
        k(    5) = (   0.0292516   0.0166453   0.0000000), wk =   0.1111111
        k(    6) = (   0.0292516   0.0499359   0.0000000), wk =   0.1111111
        k(    7) = (   0.0292516   0.0832265   0.0000000), wk =   0.1111111
        k(    8) = (   0.0292516  -0.0832265   0.0000000), wk =   0.1111111
        k(    9) = (   0.0292516  -0.0499359   0.0000000), wk =   0.1111111
        k(   10) = (   0.0292516  -0.0166453   0.0000000), wk =   0.1111111
        k(   11) = (   0.0585031   0.0332906   0.0000000), wk =   0.1111111
        k(   12) = (   0.0585031   0.0665812   0.0000000), wk =   0.1111111
        k(   13) = (   0.0585031   0.0998718   0.0000000), wk =   0.1111111
        k(   14) = (   0.0585031  -0.0665812   0.0000000), wk =   0.1111111
        k(   15) = (   0.0585031  -0.0332906   0.0000000), wk =   0.1111111
        k(   16) = (   0.0585031   0.0000000   0.0000000), wk =   0.1111111
        k(   17) = (  -0.0877547  -0.0499359   0.0000000), wk =   0.0555556
        k(   18) = (  -0.0877547  -0.0166453   0.0000000), wk =   0.1111111
        k(   19) = (  -0.0877547   0.0166453   0.0000000), wk =   0.1111111
        k(   20) = (  -0.0877547  -0.1498077   0.0000000), wk =   0.0555556

     Largest allocated arrays     est. size (Mb)     dimensions
     Largest temporary arrays     est. size (Mb)     dimensions

     Initial potential from superposition of free atoms
     Check: negative starting charge=   -0.003746

     starting charge  185.98360, renormalised to  192.00000

     negative rho (up, down):  3.867E-03 0.000E+00

     *
     * You are using vdW-DF for exchange-correlation in this calculation.
     * Please cite the following three references that made this development
     * possible:
     *
     *   M. Dion, H. Rydberg, E. Schroder, D. C. Langreth, and
     *   B. I. Lundqvist, Phys. Rev. Lett. 92, 246401 (2004).
     *
     *   T. Thonhauser, V. R. Cooper, S. Li, A. Puzder, P. Hyldgaard, and
     *   D. C. Langreth, Phys. Rev. B 76, 125112 (2007).
     *
     *   G. Roman-Perez and J. M. Soler, Phys. Rev. Lett. 103, 096102 (2009).
     *
     *
     * If you are using vdW-DF2, please also cite:
     *
     *   K. Lee, E. D. Murray, L. Kong, B. I. Lundqvist, and
     *   D. C. Langreth, Phys. Rev. B 82, 081101(R) (2010).
     *
     *
     * If you are calculating the stress with vdW-DF, please also cite:
     *
     *   R. Sabatini, E. Kucukbenli, B. Kolb, T. Thonhauser, and
     *   S. de Gironcoli, J. Phys.: Condens. Matter 24, 424209 (2012).
     *

     Carrying out vdW-DF run using the following parameters:

     Nqs =      20    Nr_points =    1024   r_max =   100.000
     q_mesh =
               0.00001000     0.04494208     0.09755937     0.15916263
               0.23128650     0.31572767     0.41458969     0.53033537
               0.66584808     0.82450364     1.01025438     1.22772762
               1.48234092     1.78043706     2.12944203     2.53805004
               3.01644009     3.57652955     4.23227104     5.00000000

     Gradients computed in reciprocal space

     Adding external electric field

     Computed dipole along edir(3) :
        Dipole               -0.0000 Ry au,         -0.0000 Debye
        Dipole field         -0.0000 Ry au

        Potential amp.        0.0000 Ry
        Total length         45.4822 bohr

     Starting wfc are  150 randomized atomic wfcs

     Self-consistent Calculation

     iteration #  1     ecut=    36.75 Ry     beta=0.10
     Davidson diagonalization with overlap
     ethr =  1.00E-02,  avg # of iterations =  7.3

[...]

     total energy              =   -3212.44214151 Ry
     Harris-Foulkes estimate   =   -3215.06663178 Ry
     estimated scf accuracy    <      15.39930530 Ry

[...]

     End of self-consistent calculation

          k = 0.0000 0.0000 0.0000 ( 17927 PWs)   bands (ev):

   -93.2168 -93.2134 -93.2130 -93.2128 -93.1694 -93.1692 -92.7972 -92.7972
   -92.7970 -92.7970 -92.7874 -92.7874 -92.7841 -92.7840 -92.7257 -92.7257
   -92.7255 -92.7255 -53.8873 -53.8780 -53.7827 -53.7745 -53.7222 -53.6165
   -30.2345 -30.1955 -30.1906 -30.1429 -30.0767 -30.0273 -29.9802 -29.9194
   -29.9029 -29.8784 -29.8601 -29.7962 -29.7380 -29.4948 -29.4005 -29.3169
   -29.2967 -29.2507 -13.7400 -13.6673 -13.6404 -13.5805 -13.5721 -13.5660
   -13.5608 -13.5109 -13.4878 -13.4272 -13.2958 -13.2902 -13.2123 -13.2086
   -13.1971 -13.1875 -13.1193 -13.1178 -13.1099 -13.1066 -13.1029 -13.0903
   -13.0888 -13.0739 -13.0726 -13.0691 -13.0412 -13.0401 -12.9773 -12.9735
    -8.1155  -6.4667  -5.3804  -4.8676  -3.4992  -3.3124  -1.7695  -1.4202
    -1.3897  -1.1744  -0.9707  -0.9265  -0.7410  -0.6487  -0.1248   0.0569
     0.2690   0.2827   0.4021   0.9116   1.1214   1.1555   1.3730   1.3985
     1.8383   1.9546   1.9798   2.0757   2.1636   2.5434   2.6769   2.6930
     2.9782   3.1454   3.3348   3.6898   3.7762   3.8173   3.8847   3.9702
     4.0141   4.1116   4.4135   4.8717   4.9642   5.0861   5.3038   5.4322
     5.8247   5.8438   5.9555   6.2985   6.4740   6.6774

[...]

          k =-0.0878-0.0499 0.0000 ( 17864 PWs)   bands (ev):

[...]

     the Fermi energy is     1.4743 ev

!    total energy              =   -3210.82669333 Ry
     Harris-Foulkes estimate   =   -3210.82668817 Ry
     estimated scf accuracy    <       0.00000061 Ry

     The total energy is the sum of the following terms:

     one-electron contribution =  -20764.58336172 Ry
     hartree contribution      =   10385.29933623 Ry
     xc contribution           =    -413.14034831 Ry
     ewald contribution        =    7581.65541329 Ry
     electric field correction =       0.00000000 Ry
     smearing contrib. (-TS)   =      -0.05773282 Ry

     convergence has been achieved in  16 iterations

 BEEF-vdW xc energy contributions
           1 :   -365.393929884376
           2 :    332.440851675436
           3 :   -276.764354304133
           4 :    213.987851000697
           5 :   -158.382650544805
           6 :    117.659689325229
           7 :   -91.6506406535547
           8 :    74.8590420673669
[...]
     MD5 check sum: ccd671392a58a050fbb373893b4fcd66
     Pseudo is Ultrasoft + core correction, Zval = 19.0
     Generated by new atomic code, or converted to UPF format
     Using radial grid of  871 points,  6 beta functions with:
                l(1) =   0
                l(2) =   0
                l(3) =   1
                l(4) =   1
                l(5) =   2
                l(6) =   2
     Q(r) pseudized with  8 coefficients,  rinner =    1.250   1.250   1.250
                                                       1.250   1.250

     PseudoPot. # 2 for Nb read from file:
     /afs/slac.stanford.edu/u/if/mamunm/psp/gbrv1.5pbe/Nb.UPF
     MD5 check sum: 573aab8a2fa660278ed4a62cd769473f
     Pseudo is Ultrasoft + core correction, Zval = 13.0
     Generated by new atomic code, or converted to UPF format
     Using radial grid of  887 points,  6 beta functions with:
                l(1) =   0
                l(2) =   0
                l(3) =   1
                l(4) =   1
                l(5) =   2
                l(6) =   2
     Q(r) pseudized with  6 coefficients,  rinner =    1.000   1.000   1.000
                                                       1.000   1.000

     vdW kernel table read from file vdW_kernel_table
     MD5 check sum: 095c7af220d748ca6e76c0b4c6cfb241

     atomic species   valence    mass     pseudopotential
        Ga1           19.00    69.72300     Ga( 1.00)
        Nb1           13.00    92.90637     Nb( 1.00)

     No symmetry found

   Cartesian axes

     site n.     atom                  positions (alat units)
         1           Ga1 tau(   1) = (   0.0000000   0.0000000  10.0000000  )
         2           Ga1 tau(   2) = (   2.8488497   0.0000000  10.0000000  )
         3           Nb1 tau(   3) = (   1.4244249   2.5032094  10.0000000  )
         4           Nb1 tau(   4) = (  -1.4244249   2.5032094  10.0000000  )
         5           Ga1 tau(   5) = (   2.8488497   1.6211079  12.3426383  )
         6           Ga1 tau(   6) = (   0.0000000   1.6211079  12.3426383  )
         7           Nb1 tau(   7) = (  -1.4244249   4.1243173  12.3426383  )
         8           Nb1 tau(   8) = (   1.4244249   4.1243173  12.3426383  )
         9           Ga1 tau(   9) = (  -0.0000078   3.2203023  14.9264644  )
        10           Ga1 tau(  10) = (   2.8488459   3.2202771  14.9264705  )
        11           Nb1 tau(  11) = (   4.2732803   0.7118063  14.5559575  )
        12           Nb1 tau(  12) = (   1.4244243   0.7117992  14.5559586  )

     number of k points=    20  Fermi-Dirac smearing, width (Ry)=  0.0110
                       cart. coord. in units 2pi/alat
        k(    1) = (   0.0000000   0.0000000   0.0000000), wk =   0.0555556
        k(    2) = (   0.0000000   0.0332906   0.0000000), wk =   0.1111111
        k(    3) = (   0.0000000   0.0665812   0.0000000), wk =   0.1111111
        k(    4) = (   0.0000000  -0.0998718   0.0000000), wk =   0.0555556
        k(    5) = (   0.0292516   0.0166453   0.0000000), wk =   0.1111111
        k(    6) = (   0.0292516   0.0499359   0.0000000), wk =   0.1111111
        k(    7) = (   0.0292516   0.0832265   0.0000000), wk =   0.1111111
        k(    8) = (   0.0292516  -0.0832265   0.0000000), wk =   0.1111111
        k(    9) = (   0.0292516  -0.0499359   0.0000000), wk =   0.1111111
        k(   10) = (   0.0292516  -0.0166453   0.0000000), wk =   0.1111111
        k(   11) = (   0.0585031   0.0332906   0.0000000), wk =   0.1111111
        k(   12) = (   0.0585031   0.0665812   0.0000000), wk =   0.1111111
        k(   13) = (   0.0585031   0.0998718   0.0000000), wk =   0.1111111
        k(   14) = (   0.0585031  -0.0665812   0.0000000), wk =   0.1111111
        k(   15) = (   0.0585031  -0.0332906   0.0000000), wk =   0.1111111
        k(   16) = (   0.0585031   0.0000000   0.0000000), wk =   0.1111111
        k(   17) = (  -0.0877547  -0.0499359   0.0000000), wk =   0.0555556
        k(   18) = (  -0.0877547  -0.0166453   0.0000000), wk =   0.1111111
        k(   19) = (  -0.0877547   0.0166453   0.0000000), wk =   0.1111111
        k(   20) = (  -0.0877547  -0.1498077   0.0000000), wk =   0.0555556

     Largest allocated arrays     est. size (Mb)     dimensions
     Largest temporary arrays     est. size (Mb)     dimensions

     Initial potential from superposition of free atoms
     Check: negative starting charge=   -0.003879

     starting charge  185.98360, renormalised to  192.00000

[...]

     *
     * You are using vdW-DF for exchange-correlation in this calculation.
     * Please cite the following three references that made this development
     * possible:
     *
     *   M. Dion, H. Rydberg, E. Schroder, D. C. Langreth, and
     *   B. I. Lundqvist, Phys. Rev. Lett. 92, 246401 (2004).
     *
     *   T. Thonhauser, V. R. Cooper, S. Li, A. Puzder, P. Hyldgaard, and
     *   D. C. Langreth, Phys. Rev. B 76, 125112 (2007).
     *
     *   G. Roman-Perez and J. M. Soler, Phys. Rev. Lett. 103, 096102 (2009).
     *
     *
     * If you are using vdW-DF2, please also cite:
     *
     *   K. Lee, E. D. Murray, L. Kong, B. I. Lundqvist, and
     *   D. C. Langreth, Phys. Rev. B 82, 081101(R) (2010).
     *
     *
     * If you are calculating the stress with vdW-DF, please also cite:
     *
     *   R. Sabatini, E. Kucukbenli, B. Kolb, T. Thonhauser, and
     *   S. de Gironcoli, J. Phys.: Condens. Matter 24, 424209 (2012).
     *

     Carrying out vdW-DF run using the following parameters:

     Nqs =      20    Nr_points =    1024   r_max =   100.000
     q_mesh =
               0.00001000     0.04494208     0.09755937     0.15916263
               0.23128650     0.31572767     0.41458969     0.53033537
               0.66584808     0.82450364     1.01025438     1.22772762
               1.48234092     1.78043706     2.12944203     2.53805004
               3.01644009     3.57652955     4.23227104     5.00000000

     Gradients computed in reciprocal space

[...]

     Starting wfc are  150 randomized atomic wfcs

     Self-consistent Calculation

[...]

     total energy              =   -3210.85171038 Ry
     Harris-Foulkes estimate   =   -3210.85170942 Ry
     estimated scf accuracy    <       0.00000218 Ry

     iteration # 17     ecut=    36.75 Ry     beta=0.10
     Davidson diagonalization with overlap
     ethr =  1.13E-09,  avg # of iterations =  2.0

[...]

     negative rho (up, down):  3.576E-03 0.000E+00

     Adding external electric field

     Computed dipole along edir(3) :
        Dipole               -0.0412 Ry au,         -0.1047 Debye
        Dipole field         -0.0001 Ry au

        Potential amp.        0.0099 Ry
        Total length         45.4822 bohr

     End of self-consistent calculation

[...]

          k = 0.0585 0.0000 0.0000 ( 17881 PWs)   bands (ev):

[...]

          k =-0.0878-0.1498 0.0000 ( 17864 PWs)   bands (ev):

   -93.2190 -93.2190 -93.2159 -93.2159 -93.1727 -93.1727 -92.8493 -92.8493
   -92.8416 -92.8416 -92.8333 -92.8333 -92.8105 -92.8105 -92.7797 -92.7797
   -92.7427 -92.7427 -53.9022 -53.9022 -53.8026 -53.8026 -53.6940 -53.6940
   -30.2283 -30.2283 -30.0189 -30.0189 -29.9415 -29.9415 -29.8741 -29.8741
   -29.8429 -29.8429 -29.8176 -29.8176 -29.7906 -29.7906 -29.7115 -29.7115
   -29.3968 -29.3968 -13.6027 -13.6027 -13.5900 -13.5900 -13.5764 -13.5764
   -13.5649 -13.5649 -13.5418 -13.5418 -13.2012 -13.2012 -13.1937 -13.1937
   -13.1729 -13.1729 -13.1684 -13.1684 -13.1628 -13.1628 -13.1506 -13.1506
   -13.1307 -13.1307 -13.1191 -13.1190 -13.1094 -13.1094 -13.0921 -13.0921
    -6.5919  -6.5919  -5.2168  -5.2168  -4.3450  -4.3450  -1.7302  -1.7302
    -1.1501  -1.1501  -0.6130  -0.6130  -0.2569  -0.2569   0.0589   0.0589
     0.2586   0.2586   0.3622   0.3622   1.1071   1.1071   1.2159   1.2159
     1.5283   1.5283   2.0017   2.0017   2.1303   2.1303   2.6171   2.6171
     2.8330   2.8330   3.3032   3.3032   3.6581   3.6582   3.8034   3.8034
     4.2859   4.2859   5.1175   5.1175   5.6084   5.6084   5.7178   5.7178
     6.1646   6.1646   6.6330   6.6331   6.8037   6.8037

     the Fermi energy is     1.4107 ev

!    total energy              =   -3210.85171483 Ry
     Harris-Foulkes estimate   =   -3210.85171082 Ry
     estimated scf accuracy    <       0.00000036 Ry

     The total energy is the sum of the following terms:

     one-electron contribution =  -20509.40244123 Ry
     hartree contribution      =   10257.48273776 Ry
     xc contribution           =    -413.11871745 Ry
     ewald contribution        =    7454.23799623 Ry
     electric field correction =       0.00000449 Ry
     smearing contrib. (-TS)   =      -0.05129463 Ry

     convergence has been achieved in  17 iterations

 BEEF-vdW xc energy contributions
           1 :   -365.371663083751
           2 :    332.398168002588
           3 :   -276.693316158266
           4 :    213.895856513140
           5 :   -158.284777688556
           6 :    117.565671892962
           7 :   -91.5549136742906
           8 :    74.7435437529059
           9 :   -60.7390047487295
          10 :    45.8863437969742
          11 :   -30.3304835733218
          12 :    16.5311655822610
          13 :   -6.73807472195864
          14 :    1.23704223140970
          15 :    1.65448645166401
          16 :   -4.19759832868630
          17 :    7.65550461291087
          18 :   -11.6700204997343
          19 :    14.8807586590862
          20 :   -16.1670959341173
          21 :    15.5261645373617
          22 :   -13.9987755213591
          23 :    12.8152702028316
          24 :   -12.4933768851437
          25 :    12.5705801568257
          26 :   -12.1136890374370
          27 :    10.5462078326594
          28 :   -8.13926917310403
          29 :    5.81377758400521
          30 :   -4.45089707679898
          31 :   -30.9505667400333
          32 :   -22.0121033823792

     Forces acting on atoms (Ry/au):

     negative rho (up, down):  3.576E-03 0.000E+00
     atom    1 type  1   force =     0.00000071    0.00603690   -0.02951292
     atom    2 type  1   force =    -0.00000319    0.00603519   -0.02950229
     atom    3 type  2   force =     0.00000035    0.00363383    0.03710852
     atom    4 type  2   force =     0.00000016    0.00363371    0.03710804
     atom    5 type  1   force =     0.00000239    0.00689044   -0.00867135
     atom    6 type  1   force =    -0.00000044    0.00689631   -0.00866991
     atom    7 type  2   force =    -0.00000019   -0.01753401    0.00090930
     atom    8 type  2   force =     0.00000057   -0.01753339    0.00090959
     atom    9 type  1   force =    -0.00000195    0.00052062    0.00071220
     atom   10 type  1   force =     0.00000204    0.00051793    0.00071120
     atom   11 type  2   force =    -0.00000046    0.00044958   -0.00055129
     atom   12 type  2   force =     0.00000000    0.00045290   -0.00055109

     Total force =     0.073886     Total SCF correction =     0.003610

     entering subroutine stress ...

     negative rho (up, down):  3.576E-03 0.000E+00
          total   stress  (Ry/bohr**3)                   (kbar)     P=  -15.69
  -0.00009964   0.00000000   0.00000000        -14.66      0.00      0.00
   0.00000000  -0.00019840  -0.00001838          0.00    -29.19     -2.70
   0.00000000  -0.00001838  -0.00002183          0.00     -2.70     -3.21

 !ASE

     Writing output data file calc.save

     General routines

     Parallel routines

   This run was terminated on:  19:16:17  24Dec2018

   JOB DONE.
Job  /afs/slac/g/suncat/bin/suncat-tsmpirun -x LD_LIBRARY_PATH -wdir /scratch/qe108970_qUqG6 pw.x -in pw.inp

TID   HOST_NAME   COMMAND_LINE            STATUS            TERMINATION_TIME
00000 suncat0084 pw.x -in pw.inp   Done                     12/24/2018 19:16:17
00001 suncat0084 pw.x -in pw.inp   Done                     12/24/2018 19:16:17
00002 suncat0084 pw.x -in pw.inp   Done                     12/24/2018 19:16:17
00003 suncat0084 pw.x -in pw.inp   Done                     12/24/2018 19:16:17
00004 suncat0084 pw.x -in pw.inp   Done                     12/24/2018 19:16:17
00005 suncat0084 pw.x -in pw.inp   Done                     12/24/2018 19:16:17
00006 suncat0084 pw.x -in pw.inp   Done                     12/24/2018 19:16:17
00007 suncat0084 pw.x -in pw.inp   Done                     12/24/2018 19:16:17
00008 suncat0083 pw.x -in pw.inp   Done                     12/24/2018 19:16:17
00009 suncat0083 pw.x -in pw.inp   Done                     12/24/2018 19:16:17
00010 suncat0083 pw.x -in pw.inp   Done                     12/24/2018 19:16:17
00011 suncat0083 pw.x -in pw.inp   Done                     12/24/2018 19:16:17
00012 suncat0083 pw.x -in pw.inp   Done                     12/24/2018 19:16:17
00013 suncat0083 pw.x -in pw.inp   Done                     12/24/2018 19:16:17
00014 suncat0083 pw.x -in pw.inp   Done                     12/24/2018 19:16:17
00015 suncat0083 pw.x -in pw.inp   Done                     12/24/2018 19:16:17
00016 suncat0082 pw.x -in pw.inp   Done                     12/24/2018 19:16:17
00017 suncat0082 pw.x -in pw.inp   Done                     12/24/2018 19:16:17
00018 suncat0082 pw.x -in pw.inp   Done                     12/24/2018 19:16:17
00019 suncat0082 pw.x -in pw.inp   Done                     12/24/2018 19:16:17
00020 suncat0082 pw.x -in pw.inp   Done                     12/24/2018 19:16:17
00021 suncat0082 pw.x -in pw.inp   Done                     12/24/2018 19:16:17
00022 suncat0082 pw.x -in pw.inp   Done                     12/24/2018 19:16:17
00023 suncat0082 pw.x -in pw.inp   Done                     12/24/2018 19:16:17
00024 suncat0056 pw.x -in pw.inp   Done                     12/24/2018 19:16:17
00025 suncat0056 pw.x -in pw.inp   Done                     12/24/2018 19:16:17
00026 suncat0056 pw.x -in pw.inp   Done                     12/24/2018 19:16:17
00027 suncat0056 pw.x -in pw.inp   Done                     12/24/2018 19:16:17
00028 suncat0056 pw.x -in pw.inp   Done                     12/24/2018 19:16:17
00029 suncat0056 pw.x -in pw.inp   Done                     12/24/2018 19:16:17
00030 suncat0056 pw.x -in pw.inp   Done                     12/24/2018 19:16:17
00031 suncat0056 pw.x -in pw.inp   Done                     12/24/2018 19:16:17
00032 suncat0055 pw.x -in pw.inp   Done                     12/24/2018 19:16:17
00033 suncat0055 pw.x -in pw.inp   Done                     12/24/2018 19:16:17
00034 suncat0055 pw.x -in pw.inp   Done                     12/24/2018 19:16:17
00035 suncat0055 pw.x -in pw.inp   Done                     12/24/2018 19:16:17
00036 suncat0055 pw.x -in pw.inp   Done                     12/24/2018 19:16:17
00037 suncat0055 pw.x -in pw.inp   Done                     12/24/2018 19:16:17
00038 suncat0055 pw.x -in pw.inp   Done                     12/24/2018 19:16:17
00039 suncat0055 pw.x -in pw.inp   Done                     12/24/2018 19:16:17
00040 suncat0053 pw.x -in pw.inp   Done                     12/24/2018 19:16:17
00041 suncat0053 pw.x -in pw.inp   Done                     12/24/2018 19:16:17
00042 suncat0053 pw.x -in pw.inp   Done                     12/24/2018 19:16:17
00043 suncat0053 pw.x -in pw.inp   Done                     12/24/2018 19:16:17
00044 suncat0053 pw.x -in pw.inp   Done                     12/24/2018 19:16:17
00045 suncat0053 pw.x -in pw.inp   Done                     12/24/2018 19:16:17
00046 suncat0053 pw.x -in pw.inp   Done                     12/24/2018 19:16:17
00047 suncat0053 pw.x -in pw.inp   Done                     12/24/2018 19:16:17
00048 suncat0036 pw.x -in pw.inp   Done                     12/24/2018 19:16:17
00049 suncat0036 pw.x -in pw.inp   Done                     12/24/2018 19:16:17
00050 suncat0036 pw.x -in pw.inp   Done                     12/24/2018 19:16:17
00051 suncat0036 pw.x -in pw.inp   Done                     12/24/2018 19:16:17
00052 suncat0036 pw.x -in pw.inp   Done                     12/24/2018 19:16:17
00053 suncat0036 pw.x -in pw.inp   Done                     12/24/2018 19:16:17
00054 suncat0036 pw.x -in pw.inp   Done                     12/24/2018 19:16:17
00055 suncat0036 pw.x -in pw.inp   Done                     12/24/2018 19:16:17
00056 suncat0035 pw.x -in pw.inp   Done                     12/24/2018 19:16:17
00057 suncat0035 pw.x -in pw.inp   Done                     12/24/2018 19:16:17
00058 suncat0035 pw.x -in pw.inp   Done                     12/24/2018 19:16:17
00059 suncat0035 pw.x -in pw.inp   Done                     12/24/2018 19:16:17
00060 suncat0035 pw.x -in pw.inp   Done                     12/24/2018 19:16:17
00061 suncat0035 pw.x -in pw.inp   Done                     12/24/2018 19:16:17
00062 suncat0035 pw.x -in pw.inp   Done                     12/24/2018 19:16:17
00063 suncat0035 pw.x -in pw.inp   Done                     12/24/2018 19:16:17