     Program PWSCF v.5.1rc2 (svn rev. 11289) starts on 25Dec2018 at  6:42:47

     Current dimensions of program PWSCF are:
     Max number of different atomic species (ntypx) = 10
     Max number of k-points (npk) =  40000
     Max angular momentum in pseudopotentials (lmaxx) =  3
     Presently stress not available with electric field

     IMPORTANT: XC functional enforced from input :
     Exchange-correlation      = BEEF-VDW ( 1  4 27 13 2)
     Any further DFT definition will be discarded
     Please, verify this is what you really want

     Subspace diagonalization in iterative solution of the eigenvalue problem:
     a serial algorithm will be used

     Found symmetry operation: I + (  0.5000  0.0000  0.0000)
     This is a supercell, fractional translations are disabled

     bravais-lattice index     =            0
     lattice parameter (alat)  =       1.8897  a.u.
     unit-cell volume          =    5805.6331 (a.u.)^3
     number of atoms/cell      =           12
     number of atomic types    =            2
     number of electrons       =       144.00
     number of Kohn-Sham states=          102
     kinetic-energy cutoff     =      36.7493  Ry
     charge density cutoff     =     367.4932  Ry
     convergence threshold     =      1.0E-06
     mixing beta               =       0.1000
     number of iterations used =           10  plain     mixing
     Exchange-correlation      = BEEF-VDW ( 1  4 27 13 2)
     nstep                     =           50

     celldm(1)=   1.889726  celldm(2)=   0.000000  celldm(3)=   0.000000
     celldm(4)=   0.000000  celldm(5)=   0.000000  celldm(6)=   0.000000

     crystal axes: (cart. coord. in units of alat)
               a(1) = (   6.283857   0.000000   0.000000 )
               a(2) = (  -3.141929   5.447262   0.000000 )
               a(3) = (   0.000000   0.000000  25.133234 )

     reciprocal axes: (cart. coord. in units 2 pi/alat)
               b(1) = (  0.159138  0.091789  0.000000 )
               b(2) = (  0.000000  0.183578  0.000000 )
               b(3) = (  0.000000  0.000000  0.039788 )

     PseudoPot. # 1 for Zr read from file:
     /afs/slac.stanford.edu/u/if/mamunm/psp/gbrv1.5pbe/Zr.UPF
     MD5 check sum: 5db81b1e868ab7776c4564c113de050b
     Pseudo is Ultrasoft + core correction, Zval = 12.0
     Generated by new atomic code, or converted to UPF format
     Using radial grid of  887 points,  6 beta functions with:
                l(1) =   0
                l(2) =   0
                l(3) =   1
                l(4) =   1
                l(5) =   2
                l(6) =   2
     Q(r) pseudized with  6 coefficients,  rinner =    1.200   1.200   1.200
                                                       1.200   1.200

     PseudoPot. # 2 for Cd read from file:
     /afs/slac.stanford.edu/u/if/mamunm/psp/gbrv1.5pbe/Cd.UPF
     MD5 check sum: 17164a7926edb8e0dc231208abae86a6
     Pseudo is Ultrasoft + core correction, Zval = 12.0
     Generated by new atomic code, or converted to UPF format
     Using radial grid of  889 points,  6 beta functions with:
                l(1) =   0
                l(2) =   0
                l(3) =   1
                l(4) =   1
                l(5) =   2
                l(6) =   2
     Q(r) pseudized with  6 coefficients,  rinner =    1.000   1.000   1.000
                                                       1.000   1.000

     vdW kernel table read from file vdW_kernel_table
     MD5 check sum: 095c7af220d748ca6e76c0b4c6cfb241

     atomic species   valence    mass     pseudopotential
        Zr1           12.00    91.22400     Zr( 1.00)
        Cd1           12.00   112.41400     Cd( 1.00)

     No symmetry found

   Cartesian axes

     site n.     atom                  positions (alat units)
         1           Zr1 tau(   1) = (   0.0000000   0.0000000  10.0000000  )
         2           Zr1 tau(   2) = (   3.1419287   0.0000000  10.0000000  )
         3           Cd1 tau(   3) = (   1.5709643   2.7236312  10.0000000  )
         4           Cd1 tau(   4) = (  -1.5709643   2.7236312  10.0000000  )
         5           Zr1 tau(   5) = (   3.1419287   1.8122343  12.5666170  )
         6           Zr1 tau(   6) = (   0.0000000   1.8122343  12.5666170  )
         7           Cd1 tau(   7) = (  -1.5709643   4.5358655  12.5666170  )
         8           Cd1 tau(   8) = (   1.5709643   4.5358655  12.5666170  )
         9           Zr1 tau(   9) = (   0.0000000   3.6244686  15.1332339  )
        10           Zr1 tau(  10) = (   3.1419287   3.6244686  15.1332339  )
        11           Cd1 tau(  11) = (   4.7128930   0.9008374  15.1332339  )
        12           Cd1 tau(  12) = (   1.5709643   0.9008374  15.1332339  )

     number of k points=    20  Fermi-Dirac smearing, width (Ry)=  0.0110
                       cart. coord. in units 2pi/alat
        k(    1) = (   0.0000000   0.0000000   0.0000000), wk =   0.0555556
        k(    2) = (   0.0000000   0.0305964   0.0000000), wk =   0.1111111
        k(    3) = (   0.0000000   0.0611928   0.0000000), wk =   0.1111111
        k(    4) = (   0.0000000  -0.0917892   0.0000000), wk =   0.0555556
        k(    5) = (   0.0265230   0.0152982   0.0000000), wk =   0.1111111
        k(    6) = (   0.0265230   0.0458946   0.0000000), wk =   0.1111111
        k(    7) = (   0.0265230   0.0764910   0.0000000), wk =   0.1111111
        k(    8) = (   0.0265230  -0.0764910   0.0000000), wk =   0.1111111
        k(    9) = (   0.0265230  -0.0458946   0.0000000), wk =   0.1111111
        k(   10) = (   0.0265230  -0.0152982   0.0000000), wk =   0.1111111
        k(   11) = (   0.0530460   0.0305964   0.0000000), wk =   0.1111111
        k(   12) = (   0.0530460   0.0611928   0.0000000), wk =   0.1111111
        k(   13) = (   0.0530460   0.0917892   0.0000000), wk =   0.1111111
        k(   14) = (   0.0530460  -0.0611928   0.0000000), wk =   0.1111111
        k(   15) = (   0.0530460  -0.0305964   0.0000000), wk =   0.1111111
        k(   16) = (   0.0530460   0.0000000   0.0000000), wk =   0.1111111
        k(   17) = (  -0.0795690  -0.0458946   0.0000000), wk =   0.0555556
        k(   18) = (  -0.0795690  -0.0152982   0.0000000), wk =   0.1111111
        k(   19) = (  -0.0795690   0.0152982   0.0000000), wk =   0.1111111
        k(   20) = (  -0.0795690  -0.1376838   0.0000000), wk =   0.0555556

     Largest allocated arrays     est. size (Mb)     dimensions
     Largest temporary arrays     est. size (Mb)     dimensions

     Initial potential from superposition of free atoms
     Check: negative starting charge=   -0.496630

     starting charge  140.98686, renormalised to  144.00000

     negative rho (up, down):  5.072E-01 0.000E+00

     *
     * You are using vdW-DF for exchange-correlation in this calculation.
     * Please cite the following three references that made this development
     * possible:
     *
     *   M. Dion, H. Rydberg, E. Schroder, D. C. Langreth, and
     *   B. I. Lundqvist, Phys. Rev. Lett. 92, 246401 (2004).
     *
     *   T. Thonhauser, V. R. Cooper, S. Li, A. Puzder, P. Hyldgaard, and
     *   D. C. Langreth, Phys. Rev. B 76, 125112 (2007).
     *
     *   G. Roman-Perez and J. M. Soler, Phys. Rev. Lett. 103, 096102 (2009).
     *
     *
     * If you are using vdW-DF2, please also cite:
     *
     *   K. Lee, E. D. Murray, L. Kong, B. I. Lundqvist, and
     *   D. C. Langreth, Phys. Rev. B 82, 081101(R) (2010).
     *
     *
     * If you are calculating the stress with vdW-DF, please also cite:
     *
     *   R. Sabatini, E. Kucukbenli, B. Kolb, T. Thonhauser, and
     *   S. de Gironcoli, J. Phys.: Condens. Matter 24, 424209 (2012).
     *

     Carrying out vdW-DF run using the following parameters:

     Nqs =      20    Nr_points =    1024   r_max =   100.000
     q_mesh =
               0.00001000     0.04494208     0.09755937     0.15916263
               0.23128650     0.31572767     0.41458969     0.53033537
               0.66584808     0.82450364     1.01025438     1.22772762
               1.48234092     1.78043706     2.12944203     2.53805004
               3.01644009     3.57652955     4.23227104     5.00000000

     Gradients computed in reciprocal space

     Adding external electric field

     Computed dipole along edir(3) :
        Dipole               -0.0000 Ry au,         -0.0000 Debye
        Dipole field         -0.0000 Ry au

        Potential amp.        0.0000 Ry
        Total length         46.3076 bohr

     Starting wfc are  132 randomized atomic wfcs

     Self-consistent Calculation

     iteration #  1     ecut=    36.75 Ry     beta=0.10
     Davidson diagonalization with overlap
     ethr =  1.00E-02,  avg # of iterations =  2.3

[...]

     total energy              =   -1294.86820936 Ry
     Harris-Foulkes estimate   =   -1295.14261510 Ry
     estimated scf accuracy    <       1.67584138 Ry

[...]

     End of self-consistent calculation

          k = 0.0000 0.0000 0.0000 ( 21859 PWs)   bands (ev):

   -48.4236 -48.4226 -48.3688 -48.3679 -48.0358 -47.9798 -26.5273 -26.5135
   -26.5117 -26.5066 -26.4623 -26.4419 -26.4406 -26.3859 -26.3742 -26.3220
   -26.2288 -26.1395 -26.0697 -25.9491 -25.9482 -25.8745 -25.8141 -25.6536
    -7.9186  -7.8652  -7.8390  -7.7649  -7.7439  -7.7333  -7.6968  -7.6795
    -7.6719  -7.6266  -7.6138  -7.5897  -7.5028  -7.4481  -7.4366  -7.4332
    -7.3648  -7.3368  -7.3186  -7.3092  -7.2809  -7.2715  -7.2620  -7.2169
    -7.2062  -7.2026  -7.1186  -7.1013  -7.0650  -6.8409  -5.6107  -4.2325
    -2.7947  -2.1612  -1.3723  -1.2537  -0.3917  -0.3116  -0.1388  -0.0131
     0.1489   0.1986   0.4086   0.5664   0.9190   1.0963   1.1473   1.1695
     1.3862   1.3936   1.5309   1.9151   1.9268   2.0713   2.2869   2.3825
     2.6114   2.8319   2.8410   2.8476   3.2228   3.5569   3.5747   3.6769
     3.8502   3.9807   4.0249   4.1041   4.1591   4.2217   4.3926   4.5591
     4.6664   4.9118   4.9432   4.9535   5.3638   5.6107

[...]

          k =-0.0796-0.0459 0.0000 ( 21824 PWs)   bands (ev):

[...]

     the Fermi energy is     1.1494 ev

!    total energy              =   -1294.91901537 Ry
     Harris-Foulkes estimate   =   -1294.91903522 Ry
     estimated scf accuracy    <       0.00000013 Ry

     The total energy is the sum of the following terms:

     one-electron contribution =   -8599.66851980 Ry
     hartree contribution      =    4342.75001306 Ry
     xc contribution           =    -355.02127984 Ry
     ewald contribution        =    3317.10751804 Ry
     electric field correction =       0.00000000 Ry
     smearing contrib. (-TS)   =      -0.08674683 Ry

     convergence has been achieved in  16 iterations

 BEEF-vdW xc energy contributions
           1 :   -309.042947563857
           2 :    282.043326139881
           3 :   -236.336905391898
           4 :    184.682471257815
           5 :   -138.929544827824
           6 :    105.834664020428
           7 :   -85.7924000748409
           8 :    74.5434431912593
           9 :   -66.4864526330017
          10 :    57.7147624253724
          11 :   -47.3947009697210
          12 :    37.1814893049103
          13 :   -29.4207521298370
          14 :    25.3835154676528
[...]
               b(2) = (  0.000000  0.183578  0.000000 )
               b(3) = (  0.000000  0.000000  0.039788 )

     PseudoPot. # 1 for Zr read from file:
     /afs/slac.stanford.edu/u/if/mamunm/psp/gbrv1.5pbe/Zr.UPF
     MD5 check sum: 5db81b1e868ab7776c4564c113de050b
     Pseudo is Ultrasoft + core correction, Zval = 12.0
     Generated by new atomic code, or converted to UPF format
     Using radial grid of  887 points,  6 beta functions with:
                l(1) =   0
                l(2) =   0
                l(3) =   1
                l(4) =   1
                l(5) =   2
                l(6) =   2
     Q(r) pseudized with  6 coefficients,  rinner =    1.200   1.200   1.200
                                                       1.200   1.200

     PseudoPot. # 2 for Cd read from file:
     /afs/slac.stanford.edu/u/if/mamunm/psp/gbrv1.5pbe/Cd.UPF
     MD5 check sum: 17164a7926edb8e0dc231208abae86a6
     Pseudo is Ultrasoft + core correction, Zval = 12.0
     Generated by new atomic code, or converted to UPF format
     Using radial grid of  889 points,  6 beta functions with:
                l(1) =   0
                l(2) =   0
                l(3) =   1
                l(4) =   1
                l(5) =   2
                l(6) =   2
     Q(r) pseudized with  6 coefficients,  rinner =    1.000   1.000   1.000
                                                       1.000   1.000

     vdW kernel table read from file vdW_kernel_table
     MD5 check sum: 095c7af220d748ca6e76c0b4c6cfb241

     atomic species   valence    mass     pseudopotential
        Zr1           12.00    91.22400     Zr( 1.00)
        Cd1           12.00   112.41400     Cd( 1.00)

     No symmetry found

   Cartesian axes

     site n.     atom                  positions (alat units)
         1           Zr1 tau(   1) = (   0.0000000   0.0000000  10.0000000  )
         2           Zr1 tau(   2) = (   3.1419287   0.0000000  10.0000000  )
         3           Cd1 tau(   3) = (   1.5709643   2.7236312  10.0000000  )
         4           Cd1 tau(   4) = (  -1.5709643   2.7236312  10.0000000  )
         5           Zr1 tau(   5) = (   3.1419287   1.8122343  12.5666170  )
         6           Zr1 tau(   6) = (   0.0000000   1.8122343  12.5666170  )
         7           Cd1 tau(   7) = (  -1.5709643   4.5358655  12.5666170  )
         8           Cd1 tau(   8) = (   1.5709643   4.5358655  12.5666170  )
         9           Zr1 tau(   9) = (   0.0000012   3.6045886  15.0417425  )
        10           Zr1 tau(  10) = (   3.1419320   3.6045591  15.0417529  )
        11           Cd1 tau(  11) = (   4.7129212   0.8764970  15.2601501  )
        12           Cd1 tau(  12) = (   1.5709612   0.8765052  15.2601407  )

     number of k points=    20  Fermi-Dirac smearing, width (Ry)=  0.0110
                       cart. coord. in units 2pi/alat
        k(    1) = (   0.0000000   0.0000000   0.0000000), wk =   0.0555556
        k(    2) = (   0.0000000   0.0305964   0.0000000), wk =   0.1111111
        k(    3) = (   0.0000000   0.0611928   0.0000000), wk =   0.1111111
        k(    4) = (   0.0000000  -0.0917892   0.0000000), wk =   0.0555556
        k(    5) = (   0.0265230   0.0152982   0.0000000), wk =   0.1111111
        k(    6) = (   0.0265230   0.0458946   0.0000000), wk =   0.1111111
        k(    7) = (   0.0265230   0.0764910   0.0000000), wk =   0.1111111
        k(    8) = (   0.0265230  -0.0764910   0.0000000), wk =   0.1111111
        k(    9) = (   0.0265230  -0.0458946   0.0000000), wk =   0.1111111
        k(   10) = (   0.0265230  -0.0152982   0.0000000), wk =   0.1111111
        k(   11) = (   0.0530460   0.0305964   0.0000000), wk =   0.1111111
        k(   12) = (   0.0530460   0.0611928   0.0000000), wk =   0.1111111
        k(   13) = (   0.0530460   0.0917892   0.0000000), wk =   0.1111111
        k(   14) = (   0.0530460  -0.0611928   0.0000000), wk =   0.1111111
        k(   15) = (   0.0530460  -0.0305964   0.0000000), wk =   0.1111111
        k(   16) = (   0.0530460   0.0000000   0.0000000), wk =   0.1111111
        k(   17) = (  -0.0795690  -0.0458946   0.0000000), wk =   0.0555556
        k(   18) = (  -0.0795690  -0.0152982   0.0000000), wk =   0.1111111
        k(   19) = (  -0.0795690   0.0152982   0.0000000), wk =   0.1111111
        k(   20) = (  -0.0795690  -0.1376838   0.0000000), wk =   0.0555556

     Largest allocated arrays     est. size (Mb)     dimensions
     Largest temporary arrays     est. size (Mb)     dimensions

     Initial potential from superposition of free atoms
     Check: negative starting charge=   -0.496508

     starting charge  140.98686, renormalised to  144.00000

[...]

     *
     * You are using vdW-DF for exchange-correlation in this calculation.
     * Please cite the following three references that made this development
     * possible:
     *
     *   M. Dion, H. Rydberg, E. Schroder, D. C. Langreth, and
     *   B. I. Lundqvist, Phys. Rev. Lett. 92, 246401 (2004).
     *
     *   T. Thonhauser, V. R. Cooper, S. Li, A. Puzder, P. Hyldgaard, and
     *   D. C. Langreth, Phys. Rev. B 76, 125112 (2007).
     *
     *   G. Roman-Perez and J. M. Soler, Phys. Rev. Lett. 103, 096102 (2009).
     *
     *
     * If you are using vdW-DF2, please also cite:
     *
     *   K. Lee, E. D. Murray, L. Kong, B. I. Lundqvist, and
     *   D. C. Langreth, Phys. Rev. B 82, 081101(R) (2010).
     *
     *
     * If you are calculating the stress with vdW-DF, please also cite:
     *
     *   R. Sabatini, E. Kucukbenli, B. Kolb, T. Thonhauser, and
     *   S. de Gironcoli, J. Phys.: Condens. Matter 24, 424209 (2012).
     *

     Carrying out vdW-DF run using the following parameters:

     Nqs =      20    Nr_points =    1024   r_max =   100.000
     q_mesh =
               0.00001000     0.04494208     0.09755937     0.15916263
               0.23128650     0.31572767     0.41458969     0.53033537
               0.66584808     0.82450364     1.01025438     1.22772762
               1.48234092     1.78043706     2.12944203     2.53805004
               3.01644009     3.57652955     4.23227104     5.00000000

     Gradients computed in reciprocal space

[...]

     Starting wfc are  132 randomized atomic wfcs

     Self-consistent Calculation

[...]

     total energy              =   -1294.92419142 Ry
     Harris-Foulkes estimate   =   -1294.92419656 Ry
     estimated scf accuracy    <       0.00000464 Ry

     iteration # 15     ecut=    36.75 Ry     beta=0.10
     Davidson diagonalization with overlap
     ethr =  3.22E-09,  avg # of iterations =  2.4

[...]

     negative rho (up, down):  5.063E-01 0.000E+00

     Adding external electric field

     Computed dipole along edir(3) :
        Dipole               -0.0403 Ry au,         -0.1023 Debye
        Dipole field         -0.0001 Ry au

        Potential amp.        0.0081 Ry
        Total length         46.3076 bohr

     End of self-consistent calculation

[...]

          k = 0.0530 0.0000 0.0000 ( 21871 PWs)   bands (ev):

[...]

          k =-0.0796-0.1377 0.0000 ( 21824 PWs)   bands (ev):

   -48.4381 -48.4381 -48.3594 -48.3594 -48.0313 -48.0313 -26.5302 -26.5301
   -26.4638 -26.4638 -26.4248 -26.4248 -26.3535 -26.3535 -26.2782 -26.2781
   -26.2230 -26.2230 -26.1276 -26.1276 -25.9772 -25.9772 -25.8400 -25.8400
    -7.7159  -7.7159  -7.6618  -7.6618  -7.6018  -7.6018  -7.5375  -7.5375
    -7.5166  -7.5166  -7.4997  -7.4997  -7.4802  -7.4802  -7.4606  -7.4606
    -7.4434  -7.4434  -7.4293  -7.4293  -7.4133  -7.4133  -7.3812  -7.3812
    -7.3323  -7.3323  -7.3142  -7.3142  -7.2036  -7.2036  -4.2114  -4.2114
    -3.1264  -3.1263  -2.1218  -2.1218  -0.6052  -0.6051  -0.1073  -0.1073
     0.4523   0.4523   0.7472   0.7472   1.0339   1.0339   1.1260   1.1260
     1.2880   1.2880   1.5683   1.5683   1.7213   1.7213   2.0001   2.0001
     2.4482   2.4482   2.7768   2.7768   3.1360   3.1360   3.3251   3.3251
     3.6461   3.6461   3.8840   3.8840   4.1135   4.1135   4.5266   4.5266
     5.3034   5.3034   5.6642   5.6642   6.0170   6.0170

     the Fermi energy is     1.1120 ev

!    total energy              =   -1294.92416666 Ry
     Harris-Foulkes estimate   =   -1294.92419199 Ry
     estimated scf accuracy    <       0.00000087 Ry

     The total energy is the sum of the following terms:

     one-electron contribution =   -8575.74966056 Ry
     hartree contribution      =    4330.67661669 Ry
     xc contribution           =    -355.03576036 Ry
     ewald contribution        =    3305.27181753 Ry
     electric field correction =       0.00000351 Ry
     smearing contrib. (-TS)   =      -0.08718347 Ry

     convergence has been achieved in  15 iterations

 BEEF-vdW xc energy contributions
           1 :   -309.054722220267
           2 :    282.044877741709
           3 :   -236.326305966224
           4 :    184.666231257430
           5 :   -138.916416216610
           6 :    105.827817532420
           7 :   -85.7848677657432
           8 :    74.5221473275240
           9 :   -66.4437775426176
          10 :    57.6578702655299
          11 :   -47.3422463345500
          12 :    37.1484628057899
          13 :   -29.4046572199888
          14 :    25.3649481186412
          15 :   -24.4896106030197
          16 :    24.9684012316334
          17 :   -24.9342427959500
          18 :    23.5092015821364
          19 :   -21.0856541723503
          20 :    18.8117683559704
          21 :   -17.7233752244842
          22 :    18.0888976723329
          23 :   -19.3160864082058
          24 :    20.3924325988294
          25 :   -20.5251484259236
          26 :    19.5747243115049
          27 :   -18.0515315233873
          28 :    16.7333896624739
          29 :   -16.1771141901424
          30 :    16.4215832257192
          31 :   -30.2219609561627
          32 :   -22.2676469028169

     Forces acting on atoms (Ry/au):

     negative rho (up, down):  5.063E-01 0.000E+00
     atom    1 type  1   force =     0.00000064    0.00267882    0.01562925
     atom    2 type  1   force =     0.00000043    0.00268001    0.01563057
     atom    3 type  2   force =    -0.00000029    0.00108566   -0.01114966
     atom    4 type  2   force =     0.00000287    0.00108413   -0.01114787
     atom    5 type  1   force =     0.00000225   -0.00663877    0.00183991
     atom    6 type  1   force =    -0.00000039   -0.00663577    0.00184199
     atom    7 type  2   force =    -0.00000360    0.00358691   -0.00517993
     atom    8 type  2   force =    -0.00000336    0.00358688   -0.00518792
     atom    9 type  1   force =     0.00000096   -0.00115101   -0.00104679
     atom   10 type  1   force =     0.00000102   -0.00114878   -0.00104779
     atom   11 type  2   force =     0.00000904    0.00043621   -0.00009031
     atom   12 type  2   force =    -0.00000957    0.00043570   -0.00009145

     Total force =     0.030553     Total SCF correction =     0.001502

     entering subroutine stress ...

     negative rho (up, down):  5.063E-01 0.000E+00
          total   stress  (Ry/bohr**3)                   (kbar)     P=   -8.13
  -0.00008826   0.00000000  -0.00000000        -12.98      0.00     -0.00
   0.00000000  -0.00005753  -0.00000708          0.00     -8.46     -1.04
  -0.00000000  -0.00000708  -0.00002011         -0.00     -1.04     -2.96

 !ASE

     Writing output data file calc.save

     General routines

     Parallel routines

   This run was terminated on:   7:40:33  25Dec2018

   JOB DONE.
Job  /afs/slac/g/suncat/bin/suncat-tsmpirun -x LD_LIBRARY_PATH -wdir /scratch/qe109265_HpHux pw.x -in pw.inp

TID   HOST_NAME   COMMAND_LINE            STATUS            TERMINATION_TIME
00000 suncat0169 pw.x -in pw.inp   Done                     12/25/2018 07:40:33
00001 suncat0169 pw.x -in pw.inp   Done                     12/25/2018 07:40:33
00002 suncat0169 pw.x -in pw.inp   Done                     12/25/2018 07:40:33
00003 suncat0169 pw.x -in pw.inp   Done                     12/25/2018 07:40:33
00004 suncat0169 pw.x -in pw.inp   Done                     12/25/2018 07:40:33
00005 suncat0169 pw.x -in pw.inp   Done                     12/25/2018 07:40:33
00006 suncat0169 pw.x -in pw.inp   Done                     12/25/2018 07:40:33
00007 suncat0169 pw.x -in pw.inp   Done                     12/25/2018 07:40:33
00008 suncat0168 pw.x -in pw.inp   Done                     12/25/2018 07:40:33
00009 suncat0168 pw.x -in pw.inp   Done                     12/25/2018 07:40:33
00010 suncat0168 pw.x -in pw.inp   Done                     12/25/2018 07:40:33
00011 suncat0168 pw.x -in pw.inp   Done                     12/25/2018 07:40:33
00012 suncat0168 pw.x -in pw.inp   Done                     12/25/2018 07:40:33
00013 suncat0168 pw.x -in pw.inp   Done                     12/25/2018 07:40:33
00014 suncat0168 pw.x -in pw.inp   Done                     12/25/2018 07:40:33
00015 suncat0168 pw.x -in pw.inp   Done                     12/25/2018 07:40:33
00016 suncat0110 pw.x -in pw.inp   Done                     12/25/2018 07:40:33
00017 suncat0110 pw.x -in pw.inp   Done                     12/25/2018 07:40:33
00018 suncat0110 pw.x -in pw.inp   Done                     12/25/2018 07:40:33
00019 suncat0110 pw.x -in pw.inp   Done                     12/25/2018 07:40:33
00020 suncat0110 pw.x -in pw.inp   Done                     12/25/2018 07:40:33
00021 suncat0110 pw.x -in pw.inp   Done                     12/25/2018 07:40:33
00022 suncat0110 pw.x -in pw.inp   Done                     12/25/2018 07:40:33
00023 suncat0110 pw.x -in pw.inp   Done                     12/25/2018 07:40:33
00024 suncat0109 pw.x -in pw.inp   Done                     12/25/2018 07:40:33
00025 suncat0109 pw.x -in pw.inp   Done                     12/25/2018 07:40:33
00026 suncat0109 pw.x -in pw.inp   Done                     12/25/2018 07:40:33
00027 suncat0109 pw.x -in pw.inp   Done                     12/25/2018 07:40:33
00028 suncat0109 pw.x -in pw.inp   Done                     12/25/2018 07:40:33
00029 suncat0109 pw.x -in pw.inp   Done                     12/25/2018 07:40:33
00030 suncat0109 pw.x -in pw.inp   Done                     12/25/2018 07:40:33
00031 suncat0109 pw.x -in pw.inp   Done                     12/25/2018 07:40:33
00032 suncat0277 pw.x -in pw.inp   Done                     12/25/2018 07:40:33
00033 suncat0277 pw.x -in pw.inp   Done                     12/25/2018 07:40:33
00034 suncat0277 pw.x -in pw.inp   Done                     12/25/2018 07:40:33
00035 suncat0277 pw.x -in pw.inp   Done                     12/25/2018 07:40:33
00036 suncat0277 pw.x -in pw.inp   Done                     12/25/2018 07:40:33
00037 suncat0277 pw.x -in pw.inp   Done                     12/25/2018 07:40:33
00038 suncat0277 pw.x -in pw.inp   Done                     12/25/2018 07:40:33
00039 suncat0277 pw.x -in pw.inp   Done                     12/25/2018 07:40:33
00040 suncat0276 pw.x -in pw.inp   Done                     12/25/2018 07:40:33
00041 suncat0276 pw.x -in pw.inp   Done                     12/25/2018 07:40:33
00042 suncat0276 pw.x -in pw.inp   Done                     12/25/2018 07:40:33
00043 suncat0276 pw.x -in pw.inp   Done                     12/25/2018 07:40:33
00044 suncat0276 pw.x -in pw.inp   Done                     12/25/2018 07:40:33
00045 suncat0276 pw.x -in pw.inp   Done                     12/25/2018 07:40:33
00046 suncat0276 pw.x -in pw.inp   Done                     12/25/2018 07:40:33
00047 suncat0276 pw.x -in pw.inp   Done                     12/25/2018 07:40:33
00048 suncat0274 pw.x -in pw.inp   Done                     12/25/2018 07:40:33
00049 suncat0274 pw.x -in pw.inp   Done                     12/25/2018 07:40:33
00050 suncat0274 pw.x -in pw.inp   Done                     12/25/2018 07:40:33
00051 suncat0274 pw.x -in pw.inp   Done                     12/25/2018 07:40:33
00052 suncat0274 pw.x -in pw.inp   Done                     12/25/2018 07:40:33
00053 suncat0274 pw.x -in pw.inp   Done                     12/25/2018 07:40:33
00054 suncat0274 pw.x -in pw.inp   Done                     12/25/2018 07:40:33
00055 suncat0274 pw.x -in pw.inp   Done                     12/25/2018 07:40:33
00056 suncat0273 pw.x -in pw.inp   Done                     12/25/2018 07:40:33
00057 suncat0273 pw.x -in pw.inp   Done                     12/25/2018 07:40:33
00058 suncat0273 pw.x -in pw.inp   Done                     12/25/2018 07:40:33
00059 suncat0273 pw.x -in pw.inp   Done                     12/25/2018 07:40:33
00060 suncat0273 pw.x -in pw.inp   Done                     12/25/2018 07:40:33
00061 suncat0273 pw.x -in pw.inp   Done                     12/25/2018 07:40:33
00062 suncat0273 pw.x -in pw.inp   Done                     12/25/2018 07:40:33
00063 suncat0273 pw.x -in pw.inp   Done                     12/25/2018 07:40:33