     Program PWSCF v.5.1rc2 (svn rev. 11289) starts on 19Dec2018 at  2:14:29

     Current dimensions of program PWSCF are:
     Max number of different atomic species (ntypx) = 10
     Max number of k-points (npk) =  40000
     Max angular momentum in pseudopotentials (lmaxx) =  3
     Presently stress not available with electric field

     IMPORTANT: XC functional enforced from input :
     Exchange-correlation      = BEEF-VDW ( 1  4 27 13 2)
     Any further DFT definition will be discarded
     Please, verify this is what you really want

     Subspace diagonalization in iterative solution of the eigenvalue problem:
     a serial algorithm will be used

     Found symmetry operation: I + ( -0.5000  0.0000  0.0000)
     This is a supercell, fractional translations are disabled

     bravais-lattice index     =            0
     lattice parameter (alat)  =       1.8897  a.u.
     unit-cell volume          =    4321.8305 (a.u.)^3
     number of atoms/cell      =           12
     number of atomic types    =            2
     number of electrons       =       180.00
     number of Kohn-Sham states=          120
     kinetic-energy cutoff     =      36.7493  Ry
     charge density cutoff     =     367.4932  Ry
     convergence threshold     =      1.0E-06
     mixing beta               =       0.1000
     number of iterations used =           10  plain     mixing
     Exchange-correlation      = BEEF-VDW ( 1  4 27 13 2)
     nstep                     =           50

     celldm(1)=   1.889726  celldm(2)=   0.000000  celldm(3)=   0.000000
     celldm(4)=   0.000000  celldm(5)=   0.000000  celldm(6)=   0.000000

     crystal axes: (cart. coord. in units of alat)
               a(1) = (   5.456280   0.000000   0.000000 )
               a(2) = (  -2.728140   4.793467   0.000000 )
               a(3) = (   0.000000   0.000000  24.486386 )

     reciprocal axes: (cart. coord. in units 2 pi/alat)
               b(1) = (  0.183275  0.104309  0.000000 )
               b(2) = (  0.000000  0.208617  0.000000 )
               b(3) = (  0.000000  0.000000  0.040839 )

     PseudoPot. # 1 for Re read from file:
     /afs/slac.stanford.edu/u/if/mamunm/psp/gbrv1.5pbe/Re.UPF
     MD5 check sum: 85f993410f3e006da9d71c142b4ad953
     Pseudo is Ultrasoft + core correction, Zval = 15.0
     Generated by new atomic code, or converted to UPF format
     Using radial grid of  981 points,  8 beta functions with:
                l(1) =   0
                l(2) =   0
                l(3) =   1
                l(4) =   1
                l(5) =   2
                l(6) =   2
                l(7) =   3
                l(8) =   3
     Q(r) pseudized with  8 coefficients,  rinner =    1.150   1.150   1.150
                                                       1.150   1.150   1.150
                                                       1.150

     PseudoPot. # 2 for Ir read from file:
     /afs/slac.stanford.edu/u/if/mamunm/psp/gbrv1.5pbe/Ir.UPF
     MD5 check sum: 8836f839c3459d2b385c504ce6d91f2c
     Pseudo is Ultrasoft + core correction, Zval = 15.0
     Generated by new atomic code, or converted to UPF format
     Using radial grid of  983 points,  7 beta functions with:
                l(1) =   0
                l(2) =   0
                l(3) =   1
                l(4) =   1
                l(5) =   1
                l(6) =   2
                l(7) =   2
     Q(r) pseudized with  8 coefficients,  rinner =    1.400   1.400   1.400
                                                       1.400   1.400

     vdW kernel table read from file vdW_kernel_table
     MD5 check sum: 095c7af220d748ca6e76c0b4c6cfb241

     atomic species   valence    mass     pseudopotential
        Re1           15.00   186.20700     Re( 1.00)
        Ir1           15.00   192.21700     Ir( 1.00)

     No symmetry found

   Cartesian axes

     site n.     atom                  positions (alat units)
         1           Re1 tau(   1) = (   0.0000000   0.0000000  10.0000000  )
         2           Re1 tau(   2) = (   2.7281401   0.0000000  10.0000000  )
         3           Ir1 tau(   3) = (   1.3640700   2.3967337  10.0000000  )
         4           Ir1 tau(   4) = (  -1.3640700   2.3967337  10.0000000  )
         5           Re1 tau(   5) = (   2.7281401   1.5526857  12.2431931  )
         6           Re1 tau(   6) = (  -0.0000000   1.5526857  12.2431931  )
         7           Ir1 tau(   7) = (  -1.3640700   3.9494194  12.2431931  )
         8           Ir1 tau(   8) = (   1.3640700   3.9494194  12.2431931  )
         9           Re1 tau(   9) = (   0.0000000   3.1053714  14.4863862  )
        10           Re1 tau(  10) = (   2.7281401   3.1053714  14.4863862  )
        11           Ir1 tau(  11) = (   4.0922101   0.7086377  14.4863862  )
        12           Ir1 tau(  12) = (   1.3640700   0.7086377  14.4863862  )

     number of k points=    20  Fermi-Dirac smearing, width (Ry)=  0.0110
                       cart. coord. in units 2pi/alat
        k(    1) = (   0.0000000   0.0000000   0.0000000), wk =   0.0555556
        k(    2) = (   0.0000000   0.0347695   0.0000000), wk =   0.1111111
        k(    3) = (   0.0000000   0.0695391   0.0000000), wk =   0.1111111
        k(    4) = (   0.0000000  -0.1043086   0.0000000), wk =   0.0555556
        k(    5) = (   0.0305458   0.0173848   0.0000000), wk =   0.1111111
        k(    6) = (   0.0305458   0.0521543   0.0000000), wk =   0.1111111
        k(    7) = (   0.0305458   0.0869239   0.0000000), wk =   0.1111111
        k(    8) = (   0.0305458  -0.0869239   0.0000000), wk =   0.1111111
        k(    9) = (   0.0305458  -0.0521543   0.0000000), wk =   0.1111111
        k(   10) = (   0.0305458  -0.0173848   0.0000000), wk =   0.1111111
        k(   11) = (   0.0610917   0.0347695   0.0000000), wk =   0.1111111
        k(   12) = (   0.0610917   0.0695391   0.0000000), wk =   0.1111111
        k(   13) = (   0.0610917   0.1043086   0.0000000), wk =   0.1111111
        k(   14) = (   0.0610917  -0.0695391   0.0000000), wk =   0.1111111
        k(   15) = (   0.0610917  -0.0347695   0.0000000), wk =   0.1111111
        k(   16) = (   0.0610917  -0.0000000   0.0000000), wk =   0.1111111
        k(   17) = (  -0.0916375  -0.0521543   0.0000000), wk =   0.0555556
        k(   18) = (  -0.0916375  -0.0173848   0.0000000), wk =   0.1111111
        k(   19) = (  -0.0916375   0.0173848   0.0000000), wk =   0.1111111
        k(   20) = (  -0.0916375  -0.1564629   0.0000000), wk =   0.0555556

     Largest allocated arrays     est. size (Mb)     dimensions
     Largest temporary arrays     est. size (Mb)     dimensions

     Initial potential from superposition of free atoms
     Check: negative starting charge=   -2.951194

     starting charge  173.99954, renormalised to  180.00000

     negative rho (up, down):  3.053E+00 0.000E+00

     *
     * You are using vdW-DF for exchange-correlation in this calculation.
     * Please cite the following three references that made this development
     * possible:
     *
     *   M. Dion, H. Rydberg, E. Schroder, D. C. Langreth, and
     *   B. I. Lundqvist, Phys. Rev. Lett. 92, 246401 (2004).
     *
     *   T. Thonhauser, V. R. Cooper, S. Li, A. Puzder, P. Hyldgaard, and
     *   D. C. Langreth, Phys. Rev. B 76, 125112 (2007).
     *
     *   G. Roman-Perez and J. M. Soler, Phys. Rev. Lett. 103, 096102 (2009).
     *
     *
     * If you are using vdW-DF2, please also cite:
     *
     *   K. Lee, E. D. Murray, L. Kong, B. I. Lundqvist, and
     *   D. C. Langreth, Phys. Rev. B 82, 081101(R) (2010).
     *
     *
     * If you are calculating the stress with vdW-DF, please also cite:
     *
     *   R. Sabatini, E. Kucukbenli, B. Kolb, T. Thonhauser, and
     *   S. de Gironcoli, J. Phys.: Condens. Matter 24, 424209 (2012).
     *

     Carrying out vdW-DF run using the following parameters:

     Nqs =      20    Nr_points =    1024   r_max =   100.000
     q_mesh =
               0.00001000     0.04494208     0.09755937     0.15916263
               0.23128650     0.31572767     0.41458969     0.53033537
               0.66584808     0.82450364     1.01025438     1.22772762
               1.48234092     1.78043706     2.12944203     2.53805004
               3.01644009     3.57652955     4.23227104     5.00000000

     Gradients computed in reciprocal space

     Adding external electric field

     Computed dipole along edir(3) :
        Dipole                0.0000 Ry au,          0.0000 Debye
        Dipole field          0.0000 Ry au

        Potential amp.       -0.0000 Ry
        Total length         45.1157 bohr

     Starting wfc are  150 randomized atomic wfcs

     Self-consistent Calculation

     iteration #  1     ecut=    36.75 Ry     beta=0.10
     Davidson diagonalization with overlap
     ethr =  1.00E-02,  avg # of iterations =  9.1

[...]

     total energy              =   -2252.23268997 Ry
     Harris-Foulkes estimate   =   -2256.37086415 Ry
     estimated scf accuracy    <      24.25490552 Ry

[...]

     End of self-consistent calculation

          k = 0.0000 0.0000 0.0000 ( 16177 PWs)   bands (ev):

   -78.4691 -78.4277 -78.0925 -78.0918 -78.0516 -78.0511 -47.3713 -47.2105
   -47.2061 -47.1656 -47.1622 -46.9804 -46.7794 -46.7774 -46.6791 -46.6746
   -46.6344 -46.6287 -46.5836 -46.5593 -46.5463 -46.5212 -46.3924 -46.3923
   -40.4474 -40.2449 -40.1771 -40.1569 -40.0973 -40.0018 -39.9955 -39.8334
   -39.7999 -39.7957 -39.7657 -39.7410 -39.7408 -39.6813 -39.6459 -39.5880
   -39.3539 -39.3522  -6.8277  -4.8489  -4.4400  -4.1433  -4.1331  -4.0789
    -3.8276  -3.7795  -3.7283  -3.2250  -3.2071  -3.1978  -2.9748  -2.9276
    -2.8536  -1.5661  -1.4465  -1.3217  -1.0205  -0.8427  -0.6809  -0.4654
    -0.4353  -0.2295  -0.1794   0.0115   0.1256   0.2884   0.3146   0.4427
     0.5185   0.6158   0.6480   0.7326   1.0777   1.6459   1.8643   1.8923
     2.0035   2.1531   2.2288   2.3942   2.4434   2.7450   2.9922   3.2093
     3.2513   3.5723   3.7903   3.9050   4.0136   4.0650   4.0900   4.1725
     4.1784   4.3505   4.5365   4.7035   4.7919   4.8037   4.8300   5.0529
     5.4288   5.5400   5.6497   5.8686   6.0870   6.1312   6.2957   6.6286
     6.7333   6.9036   7.1859   7.3742   7.4540   7.8438   8.7373   9.6847

[...]

          k =-0.0916-0.0522 0.0000 ( 16256 PWs)   bands (ev):

[...]

     the Fermi energy is     2.6172 ev

!    total energy              =   -2252.88506418 Ry
     Harris-Foulkes estimate   =   -2252.88507463 Ry
     estimated scf accuracy    <       0.00000056 Ry

     The total energy is the sum of the following terms:

     one-electron contribution =  -18302.20561558 Ry
     hartree contribution      =    9156.84900439 Ry
     xc contribution           =    -636.23647402 Ry
     ewald contribution        =    7528.77196846 Ry
     electric field correction =       0.00000000 Ry
     smearing contrib. (-TS)   =      -0.06394743 Ry

     convergence has been achieved in  17 iterations

 BEEF-vdW xc energy contributions
           1 :   -564.769014097016
           2 :    525.346529642859
           3 :   -454.626208070142
           4 :    366.191085582739
           5 :   -275.087679838396
[...]
00031 suncat2059 pw.x -in pw.inp   Done                     12/19/2018 02:19:40

[...]

   This run was terminated on:   2:30: 3  19Dec2018

[...]

     Program PWSCF v.5.1rc2 (svn rev. 11289) starts on 19Dec2018 at  2:30: 9

[...]

     Program PWSCF v.5.1rc2 (svn rev. 11289) starts on 19Dec2018 at  2:35:22

     Current dimensions of program PWSCF are:
     Max number of different atomic species (ntypx) = 10
     Max number of k-points (npk) =  40000
     Max angular momentum in pseudopotentials (lmaxx) =  3
     Presently stress not available with electric field

     IMPORTANT: XC functional enforced from input :
     Exchange-correlation      = BEEF-VDW ( 1  4 27 13 2)
     Any further DFT definition will be discarded
     Please, verify this is what you really want

     Subspace diagonalization in iterative solution of the eigenvalue problem:
     a serial algorithm will be used

     Found symmetry operation: I + ( -0.5000  0.0000  0.0000)
     This is a supercell, fractional translations are disabled

     bravais-lattice index     =            0
     lattice parameter (alat)  =       1.8897  a.u.
     unit-cell volume          =    4321.8305 (a.u.)^3
     number of atoms/cell      =           12
     number of atomic types    =            2
     number of electrons       =       180.00
     number of Kohn-Sham states=          120
     kinetic-energy cutoff     =      36.7493  Ry
     charge density cutoff     =     367.4932  Ry
     convergence threshold     =      1.0E-06
     mixing beta               =       0.1000
     number of iterations used =           10  plain     mixing
     Exchange-correlation      = BEEF-VDW ( 1  4 27 13 2)
     nstep                     =           50

     celldm(1)=   1.889726  celldm(2)=   0.000000  celldm(3)=   0.000000
     celldm(4)=   0.000000  celldm(5)=   0.000000  celldm(6)=   0.000000

     crystal axes: (cart. coord. in units of alat)
               a(1) = (   5.456280   0.000000   0.000000 )
               a(2) = (  -2.728140   4.793467   0.000000 )
               a(3) = (   0.000000   0.000000  24.486386 )

     reciprocal axes: (cart. coord. in units 2 pi/alat)
               b(1) = (  0.183275  0.104309  0.000000 )
               b(2) = (  0.000000  0.208617  0.000000 )
               b(3) = (  0.000000  0.000000  0.040839 )

     PseudoPot. # 1 for Re read from file:
     /afs/slac.stanford.edu/u/if/mamunm/psp/gbrv1.5pbe/Re.UPF
     MD5 check sum: 85f993410f3e006da9d71c142b4ad953
     Pseudo is Ultrasoft + core correction, Zval = 15.0
     Generated by new atomic code, or converted to UPF format
     Using radial grid of  981 points,  8 beta functions with:
                l(1) =   0
                l(2) =   0
                l(3) =   1
                l(4) =   1
                l(5) =   2
                l(6) =   2
                l(7) =   3
                l(8) =   3
     Q(r) pseudized with  8 coefficients,  rinner =    1.150   1.150   1.150
                                                       1.150   1.150   1.150
                                                       1.150

     PseudoPot. # 2 for Ir read from file:
     /afs/slac.stanford.edu/u/if/mamunm/psp/gbrv1.5pbe/Ir.UPF
     MD5 check sum: 8836f839c3459d2b385c504ce6d91f2c
     Pseudo is Ultrasoft + core correction, Zval = 15.0
     Generated by new atomic code, or converted to UPF format
     Using radial grid of  983 points,  7 beta functions with:
                l(1) =   0
                l(2) =   0
                l(3) =   1
                l(4) =   1
                l(5) =   1
                l(6) =   2
                l(7) =   2
     Q(r) pseudized with  8 coefficients,  rinner =    1.400   1.400   1.400
                                                       1.400   1.400

     vdW kernel table read from file vdW_kernel_table
     MD5 check sum: 095c7af220d748ca6e76c0b4c6cfb241

     atomic species   valence    mass     pseudopotential
        Re1           15.00   186.20700     Re( 1.00)
        Ir1           15.00   192.21700     Ir( 1.00)

     No symmetry found

   Cartesian axes

     site n.     atom                  positions (alat units)
         1           Re1 tau(   1) = (   0.0000000   0.0000000  10.0000000  )
         2           Re1 tau(   2) = (   2.7281401   0.0000000  10.0000000  )
         3           Ir1 tau(   3) = (   1.3640700   2.3967337  10.0000000  )
         4           Ir1 tau(   4) = (  -1.3640700   2.3967337  10.0000000  )
         5           Re1 tau(   5) = (   2.7281401   1.5526857  12.2431931  )
         6           Re1 tau(   6) = (  -0.0000000   1.5526857  12.2431931  )
         7           Ir1 tau(   7) = (  -1.3640700   3.9494194  12.2431931  )
         8           Ir1 tau(   8) = (   1.3640700   3.9494194  12.2431931  )
         9           Re1 tau(   9) = (  -0.0000063   3.1026888  14.3986169  )
        10           Re1 tau(  10) = (   2.7281409   3.1026863  14.3986168  )
        11           Ir1 tau(  11) = (   4.0922106   0.7960728  14.3968012  )
        12           Ir1 tau(  12) = (   1.3640714   0.7960697  14.3968025  )

     number of k points=    20  Fermi-Dirac smearing, width (Ry)=  0.0110
                       cart. coord. in units 2pi/alat
        k(    1) = (   0.0000000   0.0000000   0.0000000), wk =   0.0555556
        k(    2) = (   0.0000000   0.0347695   0.0000000), wk =   0.1111111
        k(    3) = (   0.0000000   0.0695391   0.0000000), wk =   0.1111111
        k(    4) = (   0.0000000  -0.1043086   0.0000000), wk =   0.0555556
        k(    5) = (   0.0305458   0.0173848   0.0000000), wk =   0.1111111
        k(    6) = (   0.0305458   0.0521543   0.0000000), wk =   0.1111111
        k(    7) = (   0.0305458   0.0869239   0.0000000), wk =   0.1111111
        k(    8) = (   0.0305458  -0.0869239   0.0000000), wk =   0.1111111
        k(    9) = (   0.0305458  -0.0521543   0.0000000), wk =   0.1111111
        k(   10) = (   0.0305458  -0.0173848   0.0000000), wk =   0.1111111
        k(   11) = (   0.0610917   0.0347695   0.0000000), wk =   0.1111111
        k(   12) = (   0.0610917   0.0695391   0.0000000), wk =   0.1111111
        k(   13) = (   0.0610917   0.1043086   0.0000000), wk =   0.1111111
        k(   14) = (   0.0610917  -0.0695391   0.0000000), wk =   0.1111111
        k(   15) = (   0.0610917  -0.0347695   0.0000000), wk =   0.1111111
        k(   16) = (   0.0610917  -0.0000000   0.0000000), wk =   0.1111111
        k(   17) = (  -0.0916375  -0.0521543   0.0000000), wk =   0.0555556
        k(   18) = (  -0.0916375  -0.0173848   0.0000000), wk =   0.1111111
        k(   19) = (  -0.0916375   0.0173848   0.0000000), wk =   0.1111111
        k(   20) = (  -0.0916375  -0.1564629   0.0000000), wk =   0.0555556

     Largest allocated arrays     est. size (Mb)     dimensions
     Largest temporary arrays     est. size (Mb)     dimensions

     Initial potential from superposition of free atoms
     Check: negative starting charge=   -2.951462

     starting charge  173.99954, renormalised to  180.00000

[...]

     *
     * You are using vdW-DF for exchange-correlation in this calculation.
     * Please cite the following three references that made this development
     * possible:
     *
     *   M. Dion, H. Rydberg, E. Schroder, D. C. Langreth, and
     *   B. I. Lundqvist, Phys. Rev. Lett. 92, 246401 (2004).
     *
     *   T. Thonhauser, V. R. Cooper, S. Li, A. Puzder, P. Hyldgaard, and
     *   D. C. Langreth, Phys. Rev. B 76, 125112 (2007).
     *
     *   G. Roman-Perez and J. M. Soler, Phys. Rev. Lett. 103, 096102 (2009).
     *
     *
     * If you are using vdW-DF2, please also cite:
     *
     *   K. Lee, E. D. Murray, L. Kong, B. I. Lundqvist, and
     *   D. C. Langreth, Phys. Rev. B 82, 081101(R) (2010).
     *
     *
     * If you are calculating the stress with vdW-DF, please also cite:
     *
     *   R. Sabatini, E. Kucukbenli, B. Kolb, T. Thonhauser, and
     *   S. de Gironcoli, J. Phys.: Condens. Matter 24, 424209 (2012).
     *

     Carrying out vdW-DF run using the following parameters:

     Nqs =      20    Nr_points =    1024   r_max =   100.000
     q_mesh =
               0.00001000     0.04494208     0.09755937     0.15916263
               0.23128650     0.31572767     0.41458969     0.53033537
               0.66584808     0.82450364     1.01025438     1.22772762
               1.48234092     1.78043706     2.12944203     2.53805004
               3.01644009     3.57652955     4.23227104     5.00000000

     Gradients computed in reciprocal space

[...]

     Starting wfc are  150 randomized atomic wfcs

     Self-consistent Calculation

[...]

     total energy              =   -2252.90212277 Ry
     Harris-Foulkes estimate   =   -2252.90211760 Ry
     estimated scf accuracy    <       0.00000499 Ry

     iteration # 16     ecut=    36.75 Ry     beta=0.10
     Davidson diagonalization with overlap
     ethr =  2.77E-09,  avg # of iterations =  2.3

[...]

     negative rho (up, down):  2.729E+00 0.000E+00

     Adding external electric field

     Computed dipole along edir(3) :
        Dipole                0.0161 Ry au,          0.0408 Debye
        Dipole field          0.0000 Ry au

        Potential amp.       -0.0042 Ry
        Total length         45.1157 bohr

     End of self-consistent calculation

[...]

          k = 0.0611-0.0000 0.0000 ( 16260 PWs)   bands (ev):

[...]

          k =-0.0916-0.1565 0.0000 ( 16256 PWs)   bands (ev):

   -78.4325 -78.4325 -78.0501 -78.0501 -78.0331 -78.0331 -47.2293 -47.2293
   -47.2200 -47.2200 -47.2153 -47.2153 -46.7184 -46.7184 -46.6759 -46.6759
   -46.6350 -46.6350 -46.6062 -46.6062 -46.5359 -46.5359 -46.5021 -46.5021
   -40.2473 -40.2473 -40.1354 -40.1354 -40.1237 -40.1236 -39.7741 -39.7741
   -39.7528 -39.7528 -39.7003 -39.7003 -39.6752 -39.6752 -39.6476 -39.6476
   -39.5796 -39.5796  -4.9721  -4.9720  -3.4186  -3.4186  -3.0969  -3.0969
    -3.0217  -3.0217  -2.9183  -2.9183  -2.3981  -2.3981  -1.9794  -1.9794
    -1.8816  -1.8816  -1.6049  -1.6049  -1.3707  -1.3707  -0.9663  -0.9663
    -0.4360  -0.4360  -0.3210  -0.3210  -0.1793  -0.1793  -0.0536  -0.0536
     0.0454   0.0454   0.4343   0.4343   0.5615   0.5615   0.6793   0.6793
     0.7456   0.7456   1.3135   1.3135   1.7512   1.7512   2.1316   2.1316
     2.2959   2.2959   2.6195   2.6195   2.7960   2.7960   2.8722   2.8722
     3.2574   3.2574   3.5522   3.5522   3.9572   3.9572   4.6856   4.6856
     5.0683   5.0683   5.5758   5.5758   6.8138   6.8138   7.3099   7.3099
     7.8087   7.8087   8.7496   8.7496   8.8443   8.8443   9.4103   9.4103

     the Fermi energy is     2.6302 ev

!    total energy              =   -2252.90212445 Ry
     Harris-Foulkes estimate   =   -2252.90212334 Ry
     estimated scf accuracy    <       0.00000080 Ry

     The total energy is the sum of the following terms:

     one-electron contribution =  -18537.89354120 Ry
     hartree contribution      =    9274.63744246 Ry
     xc contribution           =    -636.49549180 Ry
     ewald contribution        =    7646.91082315 Ry
     electric field correction =       0.00000075 Ry
     smearing contrib. (-TS)   =      -0.06135781 Ry

     convergence has been achieved in  16 iterations

 BEEF-vdW xc energy contributions
           1 :   -565.031700397781
           2 :    525.701082250312
           3 :   -455.110284247758
           4 :    366.761098786708
           5 :   -275.632802233382
           6 :    194.329367956099
           7 :   -130.448811990520
           8 :    85.7914780849704
           9 :   -57.3896769745509
          10 :    39.7258988375756
          11 :   -27.1957179240743
          12 :    15.9409155606591
          13 :   -4.57350599953043
          14 :   -6.20249231614298
          15 :    14.6717759614787
          16 :   -19.3337768861476
          17 :    19.7749055283512
          18 :   -16.9096020904301
          19 :    12.5913953839788
          20 :   -8.84685928038357
          21 :    7.10040148730377
          22 :   -7.71229648205644
          23 :    9.98323630741106
          24 :   -12.5780013260826
          25 :    14.1550099087336
          26 :   -13.9264437131787
          27 :    11.9256466780275
          28 :   -8.90376560860591
          29 :    5.94011747940442
          30 :   -3.96367258470275
          31 :   -47.5883044701059
          32 :   -35.5242210633880

     Forces acting on atoms (Ry/au):

     negative rho (up, down):  2.729E+00 0.000E+00
     atom    1 type  1   force =    -0.00000188    0.01605318    0.02261996
     atom    2 type  1   force =     0.00000089    0.01605086    0.02261972
     atom    3 type  2   force =     0.00000074   -0.02483513    0.02494471
     atom    4 type  2   force =    -0.00000043   -0.02483419    0.02494428
     atom    5 type  1   force =     0.00000385    0.00494326   -0.02805669
     atom    6 type  1   force =    -0.00000239    0.00494126   -0.02805580
     atom    7 type  2   force =    -0.00000047    0.00353408   -0.01965013
     atom    8 type  2   force =    -0.00000012    0.00353268   -0.01965049
     atom    9 type  1   force =    -0.00000147    0.00053642   -0.00027778
     atom   10 type  1   force =     0.00000261    0.00053653   -0.00027757
     atom   11 type  2   force =    -0.00000030   -0.00023087    0.00042015
     atom   12 type  2   force =    -0.00000103   -0.00022808    0.00041965

     Total force =     0.080238     Total SCF correction =     0.002158

     entering subroutine stress ...

     negative rho (up, down):  2.729E+00 0.000E+00
          total   stress  (Ry/bohr**3)                   (kbar)     P=  -32.50
  -0.00022524   0.00000000   0.00000000        -33.13      0.00      0.00
   0.00000000  -0.00030465   0.00001706          0.00    -44.81      2.51
   0.00000000   0.00001706  -0.00013300          0.00      2.51    -19.56

 !ASE

     Writing output data file calc.save

     General routines

     Parallel routines

   This run was terminated on:   2:40:15  19Dec2018

   JOB DONE.
Job  /afs/slac/g/suncat/bin/suncat-tsmpirun -x LD_LIBRARY_PATH -wdir /scratch/qe530449_znYGB pw.x -in pw.inp

TID   HOST_NAME   COMMAND_LINE            STATUS            TERMINATION_TIME
00000 suncat2060 pw.x -in pw.inp   Done                     12/19/2018 02:40:15
00001 suncat2060 pw.x -in pw.inp   Done                     12/19/2018 02:40:15
00002 suncat2060 pw.x -in pw.inp   Done                     12/19/2018 02:40:15
00003 suncat2060 pw.x -in pw.inp   Done                     12/19/2018 02:40:15
00004 suncat2060 pw.x -in pw.inp   Done                     12/19/2018 02:40:15
00005 suncat2060 pw.x -in pw.inp   Done                     12/19/2018 02:40:15
00006 suncat2060 pw.x -in pw.inp   Done                     12/19/2018 02:40:15
00007 suncat2060 pw.x -in pw.inp   Done                     12/19/2018 02:40:15
00008 suncat2060 pw.x -in pw.inp   Done                     12/19/2018 02:40:15
00009 suncat2060 pw.x -in pw.inp   Done                     12/19/2018 02:40:15
00010 suncat2060 pw.x -in pw.inp   Done                     12/19/2018 02:40:15
00011 suncat2060 pw.x -in pw.inp   Done                     12/19/2018 02:40:15
00012 suncat2060 pw.x -in pw.inp   Done                     12/19/2018 02:40:15
00013 suncat2060 pw.x -in pw.inp   Done                     12/19/2018 02:40:15
00014 suncat2060 pw.x -in pw.inp   Done                     12/19/2018 02:40:15
00015 suncat2060 pw.x -in pw.inp   Done                     12/19/2018 02:40:15
00016 suncat2059 pw.x -in pw.inp   Done                     12/19/2018 02:40:15
00017 suncat2059 pw.x -in pw.inp   Done                     12/19/2018 02:40:15
00018 suncat2059 pw.x -in pw.inp   Done                     12/19/2018 02:40:15
00019 suncat2059 pw.x -in pw.inp   Done                     12/19/2018 02:40:15
00020 suncat2059 pw.x -in pw.inp   Done                     12/19/2018 02:40:15
00021 suncat2059 pw.x -in pw.inp   Done                     12/19/2018 02:40:15
00022 suncat2059 pw.x -in pw.inp   Done                     12/19/2018 02:40:15
00023 suncat2059 pw.x -in pw.inp   Done                     12/19/2018 02:40:15
00024 suncat2059 pw.x -in pw.inp   Done                     12/19/2018 02:40:15
00025 suncat2059 pw.x -in pw.inp   Done                     12/19/2018 02:40:15
00026 suncat2059 pw.x -in pw.inp   Done                     12/19/2018 02:40:15
00027 suncat2059 pw.x -in pw.inp   Done                     12/19/2018 02:40:15
00028 suncat2059 pw.x -in pw.inp   Done                     12/19/2018 02:40:15
00029 suncat2059 pw.x -in pw.inp   Done                     12/19/2018 02:40:15
00030 suncat2059 pw.x -in pw.inp   Done                     12/19/2018 02:40:15
00031 suncat2059 pw.x -in pw.inp   Done                     12/19/2018 02:40:15