     Program PWSCF v.5.1rc2 (svn rev. 11289) starts on 19Dec2018 at  9:26:38

     Current dimensions of program PWSCF are:
     Max number of different atomic species (ntypx) = 10
     Max number of k-points (npk) =  40000
     Max angular momentum in pseudopotentials (lmaxx) =  3
     Presently stress not available with electric field

     IMPORTANT: XC functional enforced from input :
     Exchange-correlation      = BEEF-VDW ( 1  4 27 13 2)
     Any further DFT definition will be discarded
     Please, verify this is what you really want

     Subspace diagonalization in iterative solution of the eigenvalue problem:
     a serial algorithm will be used

     Found symmetry operation: I + ( -0.5000  0.0000  0.0000)
     This is a supercell, fractional translations are disabled

     Generating pointlists ...
     new r_m :   0.4125 (alat units)  0.7795 (a.u.) for type    1
     new r_m :   0.4125 (alat units)  0.7795 (a.u.) for type    2

     bravais-lattice index     =            0
     lattice parameter (alat)  =       1.8897  a.u.
     unit-cell volume          =    3618.0589 (a.u.)^3
     number of atoms/cell      =           12
     number of atomic types    =            2
     number of electrons       =       204.00
     number of Kohn-Sham states=          132
     kinetic-energy cutoff     =      36.7493  Ry
     charge density cutoff     =     367.4932  Ry
     convergence threshold     =      1.0E-06
     mixing beta               =       0.1000
     number of iterations used =           10  plain     mixing
     Exchange-correlation      = BEEF-VDW ( 1  4 27 13 2)
     nstep                     =           50

     celldm(1)=   1.889726  celldm(2)=   0.000000  celldm(3)=   0.000000
     celldm(4)=   0.000000  celldm(5)=   0.000000  celldm(6)=   0.000000

     crystal axes: (cart. coord. in units of alat)
               a(1) = (   5.052266   0.000000   0.000000 )
               a(2) = (  -2.526133   4.396855   0.000000 )
               a(3) = (   0.000000   0.000000  24.135190 )

     reciprocal axes: (cart. coord. in units 2 pi/alat)
               b(1) = (  0.197931  0.113718  0.000000 )
               b(2) = (  0.000000  0.227435  0.000000 )
               b(3) = (  0.000000  0.000000  0.041433 )

     PseudoPot. # 1 for Fe read from file:
     /afs/slac.stanford.edu/u/if/mamunm/psp/gbrv1.5pbe/Fe.UPF
     MD5 check sum: a130daea23fe5165f5d574ae7f82ed95
     Pseudo is Ultrasoft + core correction, Zval = 16.0
     Generated by new atomic code, or converted to UPF format
     Using radial grid of  861 points,  6 beta functions with:
                l(1) =   0
                l(2) =   0
                l(3) =   1
                l(4) =   1
                l(5) =   2
                l(6) =   2
     Q(r) pseudized with  8 coefficients,  rinner =    1.000   1.000   1.000
                                                       1.000   1.000

     PseudoPot. # 2 for Ni read from file:
     /afs/slac.stanford.edu/u/if/mamunm/psp/gbrv1.5pbe/Ni.UPF
     MD5 check sum: 1ee80287db30b12d2bc1f57a5b5d6409
     Pseudo is Ultrasoft + core correction, Zval = 18.0
     Generated by new atomic code, or converted to UPF format
     Using radial grid of  865 points,  6 beta functions with:
                l(1) =   0
                l(2) =   0
                l(3) =   1
                l(4) =   1
                l(5) =   2
                l(6) =   2
     Q(r) pseudized with 10 coefficients,  rinner =    0.980   0.980   0.980
                                                       0.980   0.980

     vdW kernel table read from file vdW_kernel_table
     MD5 check sum: 095c7af220d748ca6e76c0b4c6cfb241

     atomic species   valence    mass     pseudopotential
        Fe1           16.00    55.84500     Fe( 1.00)
        Ni1           18.00    58.69340     Ni( 1.00)

     Starting magnetic structure
     atomic species   magnetization
        Fe1          0.125
        Ni1          0.111

     No symmetry found

   Cartesian axes

     site n.     atom                  positions (alat units)
         1           Fe1 tau(   1) = (   0.0000000   0.0000000  10.0000000  )
         2           Fe1 tau(   2) = (   2.5261330   0.0000000  10.0000000  )
         3           Ni1 tau(   3) = (   1.2630665   2.1984273  10.0000000  )
         4           Ni1 tau(   4) = (  -1.2630665   2.1984273  10.0000000  )
         5           Fe1 tau(   5) = (   2.5261330   1.4513438  12.0675950  )
         6           Fe1 tau(   6) = (   0.0000000   1.4513438  12.0675950  )
         7           Ni1 tau(   7) = (  -1.2630665   3.6497711  12.0675950  )
         8           Ni1 tau(   8) = (   1.2630665   3.6497711  12.0675950  )
         9           Fe1 tau(   9) = (   0.0000000   2.9026876  14.1351899  )
        10           Fe1 tau(  10) = (   2.5261330   2.9026876  14.1351899  )
        11           Ni1 tau(  11) = (   3.7891995   0.7042603  14.1351899  )
        12           Ni1 tau(  12) = (   1.2630665   0.7042603  14.1351899  )

     number of k points=    40  Fermi-Dirac smearing, width (Ry)=  0.0110
                       cart. coord. in units 2pi/alat
        k(    1) = (   0.0000000   0.0000000   0.0000000), wk =   0.0277778
        k(    2) = (   0.0000000   0.0379059   0.0000000), wk =   0.0555556
        k(    3) = (   0.0000000   0.0758118   0.0000000), wk =   0.0555556
        k(    4) = (   0.0000000  -0.1137177   0.0000000), wk =   0.0277778
        k(    5) = (   0.0329885   0.0189529   0.0000000), wk =   0.0555556
        k(    6) = (   0.0329885   0.0568588   0.0000000), wk =   0.0555556
        k(    7) = (   0.0329885   0.0947647   0.0000000), wk =   0.0555556
        k(    8) = (   0.0329885  -0.0947647   0.0000000), wk =   0.0555556
        k(    9) = (   0.0329885  -0.0568588   0.0000000), wk =   0.0555556
        k(   10) = (   0.0329885  -0.0189529   0.0000000), wk =   0.0555556
        k(   11) = (   0.0659770   0.0379059   0.0000000), wk =   0.0555556
        k(   12) = (   0.0659770   0.0758118   0.0000000), wk =   0.0555556
        k(   13) = (   0.0659770   0.1137177   0.0000000), wk =   0.0555556
        k(   14) = (   0.0659770  -0.0758118   0.0000000), wk =   0.0555556
        k(   15) = (   0.0659770  -0.0379059   0.0000000), wk =   0.0555556
        k(   16) = (   0.0659770  -0.0000000   0.0000000), wk =   0.0555556
        k(   17) = (  -0.0989655  -0.0568588   0.0000000), wk =   0.0277778
        k(   18) = (  -0.0989655  -0.0189529   0.0000000), wk =   0.0555556
        k(   19) = (  -0.0989655   0.0189529   0.0000000), wk =   0.0555556
        k(   20) = (  -0.0989655  -0.1705765   0.0000000), wk =   0.0277778
        k(   21) = (   0.0000000   0.0000000   0.0000000), wk =   0.0277778
        k(   22) = (   0.0000000   0.0379059   0.0000000), wk =   0.0555556
        k(   23) = (   0.0000000   0.0758118   0.0000000), wk =   0.0555556
        k(   24) = (   0.0000000  -0.1137177   0.0000000), wk =   0.0277778
        k(   25) = (   0.0329885   0.0189529   0.0000000), wk =   0.0555556
        k(   26) = (   0.0329885   0.0568588   0.0000000), wk =   0.0555556
        k(   27) = (   0.0329885   0.0947647   0.0000000), wk =   0.0555556
        k(   28) = (   0.0329885  -0.0947647   0.0000000), wk =   0.0555556
        k(   29) = (   0.0329885  -0.0568588   0.0000000), wk =   0.0555556
        k(   30) = (   0.0329885  -0.0189529   0.0000000), wk =   0.0555556
        k(   31) = (   0.0659770   0.0379059   0.0000000), wk =   0.0555556
        k(   32) = (   0.0659770   0.0758118   0.0000000), wk =   0.0555556
        k(   33) = (   0.0659770   0.1137177   0.0000000), wk =   0.0555556
        k(   34) = (   0.0659770  -0.0758118   0.0000000), wk =   0.0555556
        k(   35) = (   0.0659770  -0.0379059   0.0000000), wk =   0.0555556
        k(   36) = (   0.0659770  -0.0000000   0.0000000), wk =   0.0555556
        k(   37) = (  -0.0989655  -0.0568588   0.0000000), wk =   0.0277778
        k(   38) = (  -0.0989655  -0.0189529   0.0000000), wk =   0.0555556
        k(   39) = (  -0.0989655   0.0189529   0.0000000), wk =   0.0555556
        k(   40) = (  -0.0989655  -0.1705765   0.0000000), wk =   0.0277778

     Largest allocated arrays     est. size (Mb)     dimensions
     Largest temporary arrays     est. size (Mb)     dimensions

     Check: negative/imaginary core charge=   -0.000006    0.000000

     Initial potential from superposition of free atoms
     Check: negative starting charge=(component1):   -0.000314
     Check: negative starting charge=(component2):   -0.000251

     starting charge  185.99997, renormalised to  204.00000

     negative rho (up, down):  3.446E-04 2.754E-04

     *
     * You are using vdW-DF for exchange-correlation in this calculation.
     * Please cite the following three references that made this development
     * possible:
     *
     *   M. Dion, H. Rydberg, E. Schroder, D. C. Langreth, and
     *   B. I. Lundqvist, Phys. Rev. Lett. 92, 246401 (2004).
     *
     *   T. Thonhauser, V. R. Cooper, S. Li, A. Puzder, P. Hyldgaard, and
     *   D. C. Langreth, Phys. Rev. B 76, 125112 (2007).
     *
     *   G. Roman-Perez and J. M. Soler, Phys. Rev. Lett. 103, 096102 (2009).
     *
     *
     * If you are using vdW-DF2, please also cite:
     *
     *   K. Lee, E. D. Murray, L. Kong, B. I. Lundqvist, and
     *   D. C. Langreth, Phys. Rev. B 82, 081101(R) (2010).
     *
     *
     * If you are calculating the stress with vdW-DF, please also cite:
     *
     *   R. Sabatini, E. Kucukbenli, B. Kolb, T. Thonhauser, and
     *   S. de Gironcoli, J. Phys.: Condens. Matter 24, 424209 (2012).
     *

     Carrying out vdW-DF run using the following parameters:

     Nqs =      20    Nr_points =    1024   r_max =   100.000
     q_mesh =
               0.00001000     0.04494208     0.09755937     0.15916263
               0.23128650     0.31572767     0.41458969     0.53033537
               0.66584808     0.82450364     1.01025438     1.22772762
               1.48234092     1.78043706     2.12944203     2.53805004
               3.01644009     3.57652955     4.23227104     5.00000000

     Gradients computed in reciprocal space

     Adding external electric field

     Computed dipole along edir(3) :
        Dipole                0.0000 Ry au,          0.0000 Debye
        Dipole field          0.0000 Ry au

        Potential amp.       -0.0000 Ry
        Total length         44.4687 bohr

[...]

     Starting wfc are  156 randomized atomic wfcs

     Self-consistent Calculation

     iteration #  1     ecut=    36.75 Ry     beta=0.10
     Davidson diagonalization with overlap
     ethr =  1.00E-02,  avg # of iterations =  7.2

[...]

     Magnetic moment per site:
     atom:    1    charge:    7.4371    magn:    0.8951    constr:    0.0000
     atom:    2    charge:    7.4370    magn:    0.8951    constr:    0.0000
     atom:    3    charge:    9.7387    magn:    1.0297    constr:    0.0000
     atom:    4    charge:    9.7387    magn:    1.0297    constr:    0.0000
     atom:    5    charge:    7.4503    magn:    0.8976    constr:    0.0000
     atom:    6    charge:    7.4503    magn:    0.8976    constr:    0.0000
[...]

     PseudoPot. # 2 for Ni read from file:
     /afs/slac.stanford.edu/u/if/mamunm/psp/gbrv1.5pbe/Ni.UPF
     MD5 check sum: 1ee80287db30b12d2bc1f57a5b5d6409
     Pseudo is Ultrasoft + core correction, Zval = 18.0
     Generated by new atomic code, or converted to UPF format
     Using radial grid of  865 points,  6 beta functions with:
                l(1) =   0
                l(2) =   0
                l(3) =   1
                l(4) =   1
                l(5) =   2
                l(6) =   2
     Q(r) pseudized with 10 coefficients,  rinner =    0.980   0.980   0.980
                                                       0.980   0.980

     vdW kernel table read from file vdW_kernel_table
     MD5 check sum: 095c7af220d748ca6e76c0b4c6cfb241

     atomic species   valence    mass     pseudopotential
        Fe1           16.00    55.84500     Fe( 1.00)
        Ni1           18.00    58.69340     Ni( 1.00)

     Starting magnetic structure
     atomic species   magnetization
        Fe1          0.125
        Ni1          0.111

     No symmetry found

   Cartesian axes

     site n.     atom                  positions (alat units)
         1           Fe1 tau(   1) = (   0.0000000   0.0000000  10.0000000  )
         2           Fe1 tau(   2) = (   2.5261330   0.0000000  10.0000000  )
         3           Ni1 tau(   3) = (   1.2630665   2.1984273  10.0000000  )
         4           Ni1 tau(   4) = (  -1.2630665   2.1984273  10.0000000  )
         5           Fe1 tau(   5) = (   2.5261330   1.4513438  12.0675950  )
         6           Fe1 tau(   6) = (   0.0000000   1.4513438  12.0675950  )
         7           Ni1 tau(   7) = (  -1.2630665   3.6497711  12.0675950  )
         8           Ni1 tau(   8) = (   1.2630665   3.6497711  12.0675950  )
         9           Fe1 tau(   9) = (   0.0000056   2.9170830  14.1180667  )
        10           Fe1 tau(  10) = (   2.5261272   2.9172792  14.1179166  )
        11           Ni1 tau(  11) = (   3.7894338   0.7193543  14.1064247  )
        12           Ni1 tau(  12) = (   1.2628339   0.7193453  14.1064078  )

     number of k points=    40  Fermi-Dirac smearing, width (Ry)=  0.0110
                       cart. coord. in units 2pi/alat
        k(    1) = (   0.0000000   0.0000000   0.0000000), wk =   0.0277778
        k(    2) = (   0.0000000   0.0379059   0.0000000), wk =   0.0555556
        k(    3) = (   0.0000000   0.0758118   0.0000000), wk =   0.0555556
        k(    4) = (   0.0000000  -0.1137177   0.0000000), wk =   0.0277778
        k(    5) = (   0.0329885   0.0189529   0.0000000), wk =   0.0555556
        k(    6) = (   0.0329885   0.0568588   0.0000000), wk =   0.0555556
        k(    7) = (   0.0329885   0.0947647   0.0000000), wk =   0.0555556
        k(    8) = (   0.0329885  -0.0947647   0.0000000), wk =   0.0555556
        k(    9) = (   0.0329885  -0.0568588   0.0000000), wk =   0.0555556
        k(   10) = (   0.0329885  -0.0189529   0.0000000), wk =   0.0555556
        k(   11) = (   0.0659770   0.0379059   0.0000000), wk =   0.0555556
        k(   12) = (   0.0659770   0.0758118   0.0000000), wk =   0.0555556
        k(   13) = (   0.0659770   0.1137177   0.0000000), wk =   0.0555556
        k(   14) = (   0.0659770  -0.0758118   0.0000000), wk =   0.0555556
        k(   15) = (   0.0659770  -0.0379059   0.0000000), wk =   0.0555556
        k(   16) = (   0.0659770  -0.0000000   0.0000000), wk =   0.0555556
        k(   17) = (  -0.0989655  -0.0568588   0.0000000), wk =   0.0277778
        k(   18) = (  -0.0989655  -0.0189529   0.0000000), wk =   0.0555556
        k(   19) = (  -0.0989655   0.0189529   0.0000000), wk =   0.0555556
        k(   20) = (  -0.0989655  -0.1705765   0.0000000), wk =   0.0277778
        k(   21) = (   0.0000000   0.0000000   0.0000000), wk =   0.0277778
        k(   22) = (   0.0000000   0.0379059   0.0000000), wk =   0.0555556
        k(   23) = (   0.0000000   0.0758118   0.0000000), wk =   0.0555556
        k(   24) = (   0.0000000  -0.1137177   0.0000000), wk =   0.0277778
        k(   25) = (   0.0329885   0.0189529   0.0000000), wk =   0.0555556
        k(   26) = (   0.0329885   0.0568588   0.0000000), wk =   0.0555556
        k(   27) = (   0.0329885   0.0947647   0.0000000), wk =   0.0555556
        k(   28) = (   0.0329885  -0.0947647   0.0000000), wk =   0.0555556
        k(   29) = (   0.0329885  -0.0568588   0.0000000), wk =   0.0555556
        k(   30) = (   0.0329885  -0.0189529   0.0000000), wk =   0.0555556
        k(   31) = (   0.0659770   0.0379059   0.0000000), wk =   0.0555556
        k(   32) = (   0.0659770   0.0758118   0.0000000), wk =   0.0555556
        k(   33) = (   0.0659770   0.1137177   0.0000000), wk =   0.0555556
        k(   34) = (   0.0659770  -0.0758118   0.0000000), wk =   0.0555556
        k(   35) = (   0.0659770  -0.0379059   0.0000000), wk =   0.0555556
        k(   36) = (   0.0659770  -0.0000000   0.0000000), wk =   0.0555556
        k(   37) = (  -0.0989655  -0.0568588   0.0000000), wk =   0.0277778
        k(   38) = (  -0.0989655  -0.0189529   0.0000000), wk =   0.0555556
        k(   39) = (  -0.0989655   0.0189529   0.0000000), wk =   0.0555556
        k(   40) = (  -0.0989655  -0.1705765   0.0000000), wk =   0.0277778

     Largest allocated arrays     est. size (Mb)     dimensions
     Largest temporary arrays     est. size (Mb)     dimensions

     Check: negative/imaginary core charge=   -0.000006    0.000000

     Initial potential from superposition of free atoms
     Check: negative starting charge=(component1):   -0.000319
     Check: negative starting charge=(component2):   -0.000255

     starting charge  185.99997, renormalised to  204.00000

[...]

     *
     * You are using vdW-DF for exchange-correlation in this calculation.
     * Please cite the following three references that made this development
     * possible:
     *
     *   M. Dion, H. Rydberg, E. Schroder, D. C. Langreth, and
     *   B. I. Lundqvist, Phys. Rev. Lett. 92, 246401 (2004).
     *
     *   T. Thonhauser, V. R. Cooper, S. Li, A. Puzder, P. Hyldgaard, and
     *   D. C. Langreth, Phys. Rev. B 76, 125112 (2007).
     *
     *   G. Roman-Perez and J. M. Soler, Phys. Rev. Lett. 103, 096102 (2009).
     *
     *
     * If you are using vdW-DF2, please also cite:
     *
     *   K. Lee, E. D. Murray, L. Kong, B. I. Lundqvist, and
     *   D. C. Langreth, Phys. Rev. B 82, 081101(R) (2010).
     *
     *
     * If you are calculating the stress with vdW-DF, please also cite:
     *
     *   R. Sabatini, E. Kucukbenli, B. Kolb, T. Thonhauser, and
     *   S. de Gironcoli, J. Phys.: Condens. Matter 24, 424209 (2012).
     *

     Carrying out vdW-DF run using the following parameters:

     Nqs =      20    Nr_points =    1024   r_max =   100.000
     q_mesh =
               0.00001000     0.04494208     0.09755937     0.15916263
               0.23128650     0.31572767     0.41458969     0.53033537
               0.66584808     0.82450364     1.01025438     1.22772762
               1.48234092     1.78043706     2.12944203     2.53805004
               3.01644009     3.57652955     4.23227104     5.00000000

     Gradients computed in reciprocal space

[...]

     Starting wfc are  156 randomized atomic wfcs

     Self-consistent Calculation

[...]

     total energy              =   -3574.55775485 Ry
     Harris-Foulkes estimate   =   -3574.55775322 Ry
     estimated scf accuracy    <       0.00000147 Ry

[...]

     iteration # 32     ecut=    36.75 Ry     beta=0.10
     Davidson diagonalization with overlap
     ethr =  7.23E-10,  avg # of iterations =  1.6

[...]

     negative rho (up, down):  7.051E-04 7.611E-04

[...]

     Adding external electric field

     Computed dipole along edir(3) :
        Dipole                0.0023 Ry au,          0.0059 Debye
        Dipole field          0.0000 Ry au

        Potential amp.       -0.0007 Ry
        Total length         44.4687 bohr

     Magnetic moment per site:
     atom:    1    charge:    7.0874    magn:    1.3785    constr:    0.0000
     atom:    2    charge:    7.0871    magn:    1.3787    constr:    0.0000
     atom:    3    charge:    9.3433    magn:    0.4474    constr:    0.0000
     atom:    4    charge:    9.3433    magn:    0.4474    constr:    0.0000
     atom:    5    charge:    7.0901    magn:    1.3408    constr:    0.0000
     atom:    6    charge:    7.0901    magn:    1.3408    constr:    0.0000
     atom:    7    charge:    9.3459    magn:    0.4977    constr:    0.0000
     atom:    8    charge:    9.3458    magn:    0.4978    constr:    0.0000
     atom:    9    charge:    7.0915    magn:    1.3771    constr:    0.0000
     atom:   10    charge:    7.0917    magn:    1.3770    constr:    0.0000
     atom:   11    charge:    9.3432    magn:    0.4477    constr:    0.0000
     atom:   12    charge:    9.3433    magn:    0.4476    constr:    0.0000

     End of self-consistent calculation

 ------ SPIN UP ------------

[...]

 ------ SPIN DOWN ----------

[...]

          k = 0.0660-0.0000 0.0000 ( 13613 PWs)   bands (ev):

[...]

          k =-0.0990-0.1706 0.0000 ( 13622 PWs)   bands (ev):

  -102.1271-102.1269-101.8733-101.8730-101.8595-101.8594 -84.5910 -84.5910
   -84.5750 -84.5748 -84.5691 -84.5690 -62.5472 -62.5470 -62.5183 -62.5181
   -62.5103 -62.5101 -62.3151 -62.3149 -62.3037 -62.3037 -62.2879 -62.2875
   -62.2753 -62.2752 -62.2097 -62.2094 -62.1914 -62.1913 -50.7553 -50.7553
   -50.7233 -50.7233 -50.6997 -50.6997 -50.6951 -50.6949 -50.6887 -50.6886
   -50.6782 -50.6782 -50.6606 -50.6604 -50.6584 -50.6582 -50.5841 -50.5840
    -5.2467  -5.2465  -3.5137  -3.5134  -2.6834  -2.6834  -2.2299  -2.2297
    -2.1847  -2.1846  -1.6911  -1.6911  -1.5591  -1.5590  -1.3742  -1.3742
    -1.1219  -1.1217  -1.0712  -1.0709  -1.0051  -1.0050  -0.7452  -0.7446
    -0.7329  -0.7327  -0.6595  -0.6592  -0.4882  -0.4879  -0.3608  -0.3605
    -0.1645  -0.1643  -0.0740  -0.0738   0.1134   0.1136   0.4338   0.4339
     0.5184   0.5186   0.8504   0.8505   1.0256   1.0258   1.2076   1.2079
     1.3262   1.3266   1.3642   1.3644   1.4832   1.4834   1.5802   1.5803
     1.7982   1.7985   2.0665   2.0666   2.2098   2.2098   2.3366   2.3367
     3.1264   3.1266   3.5047   3.5047   4.1145   4.1146   4.9119   4.9122
     6.0397   6.0398   6.7447   6.7447   7.2332   7.2333   7.4492   7.4492
     8.4946   8.4947   8.6387   8.6388

     the Fermi energy is     0.7993 ev

!    total energy              =   -3574.55776212 Ry
     Harris-Foulkes estimate   =   -3574.55775496 Ry
     estimated scf accuracy    <       0.00000083 Ry

     The total energy is the sum of the following terms:

     one-electron contribution =  -30476.40831064 Ry
     hartree contribution      =   15242.45788357 Ry
     xc contribution           =    -402.52634056 Ry
     ewald contribution        =   12061.98633092 Ry
     electric field correction =       0.00000002 Ry
     smearing contrib. (-TS)   =      -0.06732543 Ry

     total magnetization       =    20.93 Bohr mag/cell
     absolute magnetization    =    22.90 Bohr mag/cell

     convergence has been achieved in  32 iterations

 BEEF-vdW xc energy contributions
           1 :   -353.669413008490
           2 :    320.283601910881
           3 :   -264.299568282271
           4 :    202.118627588100
           5 :   -148.568414890837
           6 :    111.454171832902
           7 :   -90.2645531482962
           8 :    78.8866724477250
           9 :   -70.2109628872969
          10 :    59.9140139086325
          11 :   -47.7074121204818
          12 :    36.0121565925031
          13 :   -27.4569066398608
          14 :    22.9347697136304
          15 :   -21.2637762627217
          16 :    20.2718579379704
          17 :   -18.3064803848656
          18 :    15.1048894401657
          19 :   -11.6096046622748
          20 :    9.04807483568641
          21 :   -8.01439073246365
          22 :    8.13416530314123
          23 :   -8.43324476673206
          24 :    8.04398232150646
          25 :   -6.74246831633559
          26 :    4.99118029051891
          27 :   -3.54387386347651
          28 :    2.92184474759642
          29 :   -3.11143995281566
          30 :    3.63083774089858
          31 :   -30.0784329246621
          32 :   -21.1145052709575

     Forces acting on atoms (Ry/au):

     negative rho (up, down):  7.051E-04 7.611E-04
     atom    1 type  1   force =    -0.00001491   -0.00211017    0.00277722
     atom    2 type  1   force =     0.00001467   -0.00211381    0.00277663
     atom    3 type  2   force =    -0.00000175   -0.00186044    0.00519437
     atom    4 type  2   force =     0.00000258   -0.00188561    0.00515286
     atom    5 type  1   force =     0.00001555    0.00129614   -0.00409199
     atom    6 type  1   force =    -0.00001515    0.00141487   -0.00402326
     atom    7 type  2   force =     0.00017566   -0.00045385   -0.00333851
     atom    8 type  2   force =    -0.00017626   -0.00040517   -0.00333785
     atom    9 type  1   force =     0.00001178    0.00188127   -0.00032366
     atom   10 type  1   force =    -0.00001182    0.00176515   -0.00029278
     atom   11 type  2   force =    -0.00011932    0.00121970   -0.00027246
     atom   12 type  2   force =     0.00011897    0.00125191   -0.00022055

     Total force =     0.012421     Total SCF correction =     0.003400
     SCF correction compared to forces is large: reduce conv_thr to get better values

     entering subroutine stress ...

     negative rho (up, down):  7.051E-04 7.611E-04
          total   stress  (Ry/bohr**3)                   (kbar)     P=  -42.32
  -0.00028587   0.00000000  -0.00000000        -42.05      0.00     -0.00
   0.00000000  -0.00032573   0.00001470          0.00    -47.92      2.16
  -0.00000000   0.00001470  -0.00025143         -0.00      2.16    -36.99

 !ASE

     Writing output data file calc.save

     General routines

     Parallel routines

   This run was terminated on:  12: 0:12  19Dec2018

   JOB DONE.
Job  /afs/slac/g/suncat/bin/suncat-tsmpirun -x LD_LIBRARY_PATH -wdir /scratch/qe529931_y0je5 pw.x -in pw.inp

TID   HOST_NAME   COMMAND_LINE            STATUS            TERMINATION_TIME
00000 suncat1017 pw.x -in pw.inp   Done                     12/19/2018 12:00:12
00001 suncat1017 pw.x -in pw.inp   Done                     12/19/2018 12:00:12
00002 suncat1017 pw.x -in pw.inp   Done                     12/19/2018 12:00:12
00003 suncat1017 pw.x -in pw.inp   Done                     12/19/2018 12:00:12
00004 suncat1017 pw.x -in pw.inp   Done                     12/19/2018 12:00:12
00005 suncat1017 pw.x -in pw.inp   Done                     12/19/2018 12:00:12
00006 suncat1017 pw.x -in pw.inp   Done                     12/19/2018 12:00:12
00007 suncat1017 pw.x -in pw.inp   Done                     12/19/2018 12:00:12
00008 suncat1016 pw.x -in pw.inp   Done                     12/19/2018 12:00:12
00009 suncat1016 pw.x -in pw.inp   Done                     12/19/2018 12:00:12
00010 suncat1016 pw.x -in pw.inp   Done                     12/19/2018 12:00:12
00011 suncat1016 pw.x -in pw.inp   Done                     12/19/2018 12:00:12
00012 suncat1016 pw.x -in pw.inp   Done                     12/19/2018 12:00:12
00013 suncat1016 pw.x -in pw.inp   Done                     12/19/2018 12:00:12
00014 suncat1016 pw.x -in pw.inp   Done                     12/19/2018 12:00:12
00015 suncat1016 pw.x -in pw.inp   Done                     12/19/2018 12:00:12
00016 suncat1016 pw.x -in pw.inp   Done                     12/19/2018 12:00:12
00017 suncat1016 pw.x -in pw.inp   Done                     12/19/2018 12:00:12
00018 suncat1016 pw.x -in pw.inp   Done                     12/19/2018 12:00:12
00019 suncat1016 pw.x -in pw.inp   Done                     12/19/2018 12:00:12
00020 suncat1015 pw.x -in pw.inp   Done                     12/19/2018 12:00:12
00021 suncat1015 pw.x -in pw.inp   Done                     12/19/2018 12:00:12
00022 suncat1015 pw.x -in pw.inp   Done                     12/19/2018 12:00:12
00023 suncat1015 pw.x -in pw.inp   Done                     12/19/2018 12:00:12
00024 suncat1015 pw.x -in pw.inp   Done                     12/19/2018 12:00:12
00025 suncat1015 pw.x -in pw.inp   Done                     12/19/2018 12:00:12
00026 suncat1015 pw.x -in pw.inp   Done                     12/19/2018 12:00:12
00027 suncat1015 pw.x -in pw.inp   Done                     12/19/2018 12:00:12
00028 suncat1015 pw.x -in pw.inp   Done                     12/19/2018 12:00:12
00029 suncat1015 pw.x -in pw.inp   Done                     12/19/2018 12:00:12
00030 suncat1015 pw.x -in pw.inp   Done                     12/19/2018 12:00:12
00031 suncat1015 pw.x -in pw.inp   Done                     12/19/2018 12:00:12