     Program PWSCF v.5.1rc2 (svn rev. 11289) starts on 19Dec2018 at  4:26:21

     Current dimensions of program PWSCF are:
     Max number of different atomic species (ntypx) = 10
     Max number of k-points (npk) =  40000
     Max angular momentum in pseudopotentials (lmaxx) =  3
     Presently stress not available with electric field

     IMPORTANT: XC functional enforced from input :
     Exchange-correlation      = BEEF-VDW ( 1  4 27 13 2)
     Any further DFT definition will be discarded
     Please, verify this is what you really want

     Subspace diagonalization in iterative solution of the eigenvalue problem:
     a serial algorithm will be used

     Found symmetry operation: I + ( -0.5000  0.5000  0.0000)
     This is a supercell, fractional translations are disabled

     bravais-lattice index     =            0
     lattice parameter (alat)  =       1.8897  a.u.
     unit-cell volume          =    5675.8439 (a.u.)^3
     number of atoms/cell      =           12
     number of atomic types    =            2
     number of electrons       =       180.00
     number of Kohn-Sham states=          120
     kinetic-energy cutoff     =      36.7493  Ry
     charge density cutoff     =     367.4932  Ry
     convergence threshold     =      1.0E-06
     mixing beta               =       0.1000
     number of iterations used =           10  plain     mixing
     Exchange-correlation      = BEEF-VDW ( 1  4 27 13 2)
     nstep                     =           50

     celldm(1)=   1.889726  celldm(2)=   0.000000  celldm(3)=   0.000000
     celldm(4)=   0.000000  celldm(5)=   0.000000  celldm(6)=   0.000000

     crystal axes: (cart. coord. in units of alat)
               a(1) = (   5.990613   0.000000   0.000000 )
               a(2) = (   2.022973   5.638707   0.000000 )
               a(3) = (   0.000000   0.000000  24.899066 )

     reciprocal axes: (cart. coord. in units 2 pi/alat)
               b(1) = (  0.166928 -0.059888  0.000000 )
               b(2) = (  0.000000  0.177346  0.000000 )
               b(3) = (  0.000000  0.000000  0.040162 )

     PseudoPot. # 1 for Sc read from file:
     /afs/slac.stanford.edu/u/if/mamunm/psp/gbrv1.5pbe/Sc.UPF
     MD5 check sum: db30a2753ba66ef00f23801d899b7e7f
     Pseudo is Ultrasoft + core correction, Zval = 11.0
     Generated by new atomic code, or converted to UPF format
     Using radial grid of  849 points,  6 beta functions with:
                l(1) =   0
                l(2) =   0
                l(3) =   1
                l(4) =   1
                l(5) =   2
                l(6) =   2
     Q(r) pseudized with  6 coefficients,  rinner =    1.200   1.200   1.200
                                                       1.200   1.200

     PseudoPot. # 2 for Ag read from file:
     /afs/slac.stanford.edu/u/if/mamunm/psp/gbrv1.5pbe/Ag.UPF
     MD5 check sum: d66d668201baa78d5eb5b04ef7011058
     Pseudo is Ultrasoft + core correction, Zval = 19.0
     Generated by new atomic code, or converted to UPF format
     Using radial grid of  887 points,  6 beta functions with:
                l(1) =   0
                l(2) =   0
                l(3) =   1
                l(4) =   1
                l(5) =   2
                l(6) =   2
     Q(r) pseudized with  6 coefficients,  rinner =    1.300   1.300   1.300
                                                       1.300   1.300

     vdW kernel table read from file vdW_kernel_table
     MD5 check sum: 095c7af220d748ca6e76c0b4c6cfb241

     atomic species   valence    mass     pseudopotential
        Sc1           11.00    44.95591     Sc( 1.00)
        Ag1           19.00   107.86820     Ag( 1.00)

     No symmetry found

   Cartesian axes

     site n.     atom                  positions (alat units)
         1           Sc1 tau(   1) = (   0.0000000   0.0000000  10.0000000  )
         2           Sc1 tau(   2) = (   4.0067928   2.8193536  10.0000000  )
         3           Ag1 tau(   3) = (   2.9953063   0.0000000  10.0000000  )
         4           Ag1 tau(   4) = (   1.0114865   2.8193536  10.0000000  )
         5           Sc1 tau(   5) = (   5.9906126   4.2152554  12.4495332  )
         6           Sc1 tau(   6) = (   1.9838198   1.3959018  12.4495332  )
         7           Ag1 tau(   7) = (   2.9953063   4.2152554  12.4495332  )
         8           Ag1 tau(   8) = (   4.9791260   1.3959018  12.4495332  )
         9           Sc1 tau(   9) = (   3.9676395   2.7918036  14.8990664  )
        10           Sc1 tau(  10) = (   7.9744323   5.6111572  14.8990664  )
        11           Ag1 tau(  11) = (   6.9629458   2.7918036  14.8990664  )
        12           Ag1 tau(  12) = (   4.9791260   5.6111572  14.8990664  )

     number of k points=    20  Fermi-Dirac smearing, width (Ry)=  0.0110
                       cart. coord. in units 2pi/alat
        k(    1) = (   0.0000000   0.0000000   0.0000000), wk =   0.0555556
        k(    2) = (   0.0000000   0.0295576   0.0000000), wk =   0.1111111
        k(    3) = (   0.0000000   0.0591152   0.0000000), wk =   0.1111111
        k(    4) = (   0.0000000  -0.0886728   0.0000000), wk =   0.0555556
        k(    5) = (   0.0278213  -0.0099813   0.0000000), wk =   0.1111111
        k(    6) = (   0.0278213   0.0195763   0.0000000), wk =   0.1111111
        k(    7) = (   0.0278213   0.0491339   0.0000000), wk =   0.1111111
        k(    8) = (   0.0278213  -0.0986541   0.0000000), wk =   0.1111111
        k(    9) = (   0.0278213  -0.0690965   0.0000000), wk =   0.1111111
        k(   10) = (   0.0278213  -0.0395389   0.0000000), wk =   0.1111111
        k(   11) = (   0.0556426  -0.0199626   0.0000000), wk =   0.1111111
        k(   12) = (   0.0556426   0.0095950   0.0000000), wk =   0.1111111
        k(   13) = (   0.0556426   0.0391526   0.0000000), wk =   0.1111111
        k(   14) = (   0.0556426  -0.1086355   0.0000000), wk =   0.1111111
        k(   15) = (   0.0556426  -0.0790778   0.0000000), wk =   0.1111111
        k(   16) = (   0.0556426  -0.0495202   0.0000000), wk =   0.1111111
        k(   17) = (  -0.0834639   0.0299440   0.0000000), wk =   0.0555556
        k(   18) = (  -0.0834639   0.0595016   0.0000000), wk =   0.1111111
        k(   19) = (  -0.0834639   0.0890592   0.0000000), wk =   0.1111111
        k(   20) = (  -0.0834639  -0.0587288   0.0000000), wk =   0.0555556

     Largest allocated arrays     est. size (Mb)     dimensions
     Largest temporary arrays     est. size (Mb)     dimensions

     Initial potential from superposition of free atoms
     Check: negative starting charge=   -0.001496

     starting charge  176.98530, renormalised to  180.00000

     negative rho (up, down):  1.521E-03 0.000E+00

     *
     * You are using vdW-DF for exchange-correlation in this calculation.
     * Please cite the following three references that made this development
     * possible:
     *
     *   M. Dion, H. Rydberg, E. Schroder, D. C. Langreth, and
     *   B. I. Lundqvist, Phys. Rev. Lett. 92, 246401 (2004).
     *
     *   T. Thonhauser, V. R. Cooper, S. Li, A. Puzder, P. Hyldgaard, and
     *   D. C. Langreth, Phys. Rev. B 76, 125112 (2007).
     *
     *   G. Roman-Perez and J. M. Soler, Phys. Rev. Lett. 103, 096102 (2009).
     *
     *
     * If you are using vdW-DF2, please also cite:
     *
     *   K. Lee, E. D. Murray, L. Kong, B. I. Lundqvist, and
     *   D. C. Langreth, Phys. Rev. B 82, 081101(R) (2010).
     *
     *
     * If you are calculating the stress with vdW-DF, please also cite:
     *
     *   R. Sabatini, E. Kucukbenli, B. Kolb, T. Thonhauser, and
     *   S. de Gironcoli, J. Phys.: Condens. Matter 24, 424209 (2012).
     *

     Carrying out vdW-DF run using the following parameters:

     Nqs =      20    Nr_points =    1024   r_max =   100.000
     q_mesh =
               0.00001000     0.04494208     0.09755937     0.15916263
               0.23128650     0.31572767     0.41458969     0.53033537
               0.66584808     0.82450364     1.01025438     1.22772762
               1.48234092     1.78043706     2.12944203     2.53805004
               3.01644009     3.57652955     4.23227104     5.00000000

     Gradients computed in reciprocal space

     Adding external electric field

     Computed dipole along edir(3) :
        Dipole                0.0000 Ry au,          0.0000 Debye
        Dipole field          0.0000 Ry au

        Potential amp.       -0.0000 Ry
        Total length         45.8761 bohr

     Starting wfc are  156 randomized atomic wfcs

     Self-consistent Calculation

     iteration #  1     ecut=    36.75 Ry     beta=0.10
     Davidson diagonalization with overlap
     ethr =  1.00E-02,  avg # of iterations =  2.0

[...]

     total energy              =   -2349.02742779 Ry
     Harris-Foulkes estimate   =   -2350.37473122 Ry
     estimated scf accuracy    <       7.96749466 Ry

[...]

     End of self-consistent calculation

          k = 0.0000 0.0000 0.0000 ( 21283 PWs)   bands (ev):

   -91.5072 -91.5069 -91.4165 -91.4165 -91.4162 -91.4161 -54.9881 -54.9876
   -54.9748 -54.9698 -54.9692 -54.9663 -54.9274 -54.9272 -54.9269 -54.9268
   -54.8889 -54.8887 -54.8805 -54.8804 -54.8544 -54.8541 -54.8536 -54.8535
   -49.5069 -49.5065 -49.4975 -49.4974 -49.2819 -49.2726 -28.1621 -28.1604
   -28.1528 -28.1480 -28.0692 -28.0643 -28.0627 -28.0545 -28.0442 -28.0431
   -27.9299 -27.9298 -27.9139 -27.8631 -27.8467 -27.8220 -27.8118 -27.7971
    -4.8706  -4.3620  -4.3490  -4.3395  -4.2840  -4.2123  -4.1516  -4.1419
    -4.1241  -4.0345  -4.0295  -3.9966  -3.8877  -3.8723  -3.8080  -3.7967
    -3.7847  -3.7564  -3.7435  -3.6974  -3.6965  -3.6523  -3.6226  -3.5438
    -3.5085  -3.3855  -3.3768  -3.3215  -3.2178  -3.1436  -3.0683  -2.9188
    -1.1930  -0.7899  -0.6924  -0.3935   0.3641   0.7014   0.8907   1.2653
     1.2933   1.3119   1.3640   1.4969   1.5283   1.6326   1.7681   1.8035
     1.9006   1.9384   2.0365   2.2330   2.3031   2.3609   2.6447   2.6908
     2.7255   2.7481   2.7744   2.9220   2.9616   3.0397   3.1675   3.1725
     3.2301   3.3824   3.4487   3.5404   3.5436   3.7472   4.2161   4.3268

[...]

          k =-0.0835 0.0299 0.0000 ( 21342 PWs)   bands (ev):

[...]

     the Fermi energy is     1.1607 ev

!    total energy              =   -2348.89720237 Ry
     Harris-Foulkes estimate   =   -2348.89720609 Ry
     estimated scf accuracy    <       0.00000079 Ry

     The total energy is the sum of the following terms:

     one-electron contribution =  -14786.89957222 Ry
     hartree contribution      =    7376.51223797 Ry
     xc contribution           =    -263.22521990 Ry
     ewald contribution        =    5324.80485898 Ry
     electric field correction =       0.00000002 Ry
     smearing contrib. (-TS)   =      -0.08950722 Ry

     convergence has been achieved in  16 iterations

 BEEF-vdW xc energy contributions
           1 :   -226.602777326106
           2 :    203.494579309078
           3 :   -165.750677161773
           4 :    125.707004621620
           5 :   -93.6030216483537
           6 :    73.8196470804819
           7 :   -64.8503724574126
           8 :    61.9832237208090
           9 :   -60.5057511604005
[...]
00030 suncat2043 pw.x -in pw.inp   Done                     12/19/2018 04:31:02
00031 suncat2043 pw.x -in pw.inp   Done                     12/19/2018 04:31:02

     Program PWSCF v.5.1rc2 (svn rev. 11289) starts on 19Dec2018 at  4:31: 9

[...]

   This run was terminated on:   4:36:24  19Dec2018

[...]

     Program PWSCF v.5.1rc2 (svn rev. 11289) starts on 19Dec2018 at  4:36:30

     Current dimensions of program PWSCF are:
     Max number of different atomic species (ntypx) = 10
     Max number of k-points (npk) =  40000
     Max angular momentum in pseudopotentials (lmaxx) =  3
     Presently stress not available with electric field

     IMPORTANT: XC functional enforced from input :
     Exchange-correlation      = BEEF-VDW ( 1  4 27 13 2)
     Any further DFT definition will be discarded
     Please, verify this is what you really want

     Subspace diagonalization in iterative solution of the eigenvalue problem:
     a serial algorithm will be used

     Found symmetry operation: I + ( -0.5000  0.5000  0.0000)
     This is a supercell, fractional translations are disabled

     bravais-lattice index     =            0
     lattice parameter (alat)  =       1.8897  a.u.
     unit-cell volume          =    5675.8439 (a.u.)^3
     number of atoms/cell      =           12
     number of atomic types    =            2
     number of electrons       =       180.00
     number of Kohn-Sham states=          120
     kinetic-energy cutoff     =      36.7493  Ry
     charge density cutoff     =     367.4932  Ry
     convergence threshold     =      1.0E-06
     mixing beta               =       0.1000
     number of iterations used =           10  plain     mixing
     Exchange-correlation      = BEEF-VDW ( 1  4 27 13 2)
     nstep                     =           50

     celldm(1)=   1.889726  celldm(2)=   0.000000  celldm(3)=   0.000000
     celldm(4)=   0.000000  celldm(5)=   0.000000  celldm(6)=   0.000000

     crystal axes: (cart. coord. in units of alat)
               a(1) = (   5.990613   0.000000   0.000000 )
               a(2) = (   2.022973   5.638707   0.000000 )
               a(3) = (   0.000000   0.000000  24.899066 )

     reciprocal axes: (cart. coord. in units 2 pi/alat)
               b(1) = (  0.166928 -0.059888  0.000000 )
               b(2) = (  0.000000  0.177346  0.000000 )
               b(3) = (  0.000000  0.000000  0.040162 )

     PseudoPot. # 1 for Sc read from file:
     /afs/slac.stanford.edu/u/if/mamunm/psp/gbrv1.5pbe/Sc.UPF
     MD5 check sum: db30a2753ba66ef00f23801d899b7e7f
     Pseudo is Ultrasoft + core correction, Zval = 11.0
     Generated by new atomic code, or converted to UPF format
     Using radial grid of  849 points,  6 beta functions with:
                l(1) =   0
                l(2) =   0
                l(3) =   1
                l(4) =   1
                l(5) =   2
                l(6) =   2
     Q(r) pseudized with  6 coefficients,  rinner =    1.200   1.200   1.200
                                                       1.200   1.200

     PseudoPot. # 2 for Ag read from file:
     /afs/slac.stanford.edu/u/if/mamunm/psp/gbrv1.5pbe/Ag.UPF
     MD5 check sum: d66d668201baa78d5eb5b04ef7011058
     Pseudo is Ultrasoft + core correction, Zval = 19.0
     Generated by new atomic code, or converted to UPF format
     Using radial grid of  887 points,  6 beta functions with:
                l(1) =   0
                l(2) =   0
                l(3) =   1
                l(4) =   1
                l(5) =   2
                l(6) =   2
     Q(r) pseudized with  6 coefficients,  rinner =    1.300   1.300   1.300
                                                       1.300   1.300

     vdW kernel table read from file vdW_kernel_table
     MD5 check sum: 095c7af220d748ca6e76c0b4c6cfb241

     atomic species   valence    mass     pseudopotential
        Sc1           11.00    44.95591     Sc( 1.00)
        Ag1           19.00   107.86820     Ag( 1.00)

     No symmetry found

   Cartesian axes

     site n.     atom                  positions (alat units)
         1           Sc1 tau(   1) = (   0.0000000   0.0000000  10.0000000  )
         2           Sc1 tau(   2) = (   4.0067928   2.8193536  10.0000000  )
         3           Ag1 tau(   3) = (   2.9953063   0.0000000  10.0000000  )
         4           Ag1 tau(   4) = (   1.0114865   2.8193536  10.0000000  )
         5           Sc1 tau(   5) = (   5.9906126   4.2152554  12.4495332  )
         6           Sc1 tau(   6) = (   1.9838198   1.3959018  12.4495332  )
         7           Ag1 tau(   7) = (   2.9953063   4.2152554  12.4495332  )
         8           Ag1 tau(   8) = (   4.9791260   1.3959018  12.4495332  )
         9           Sc1 tau(   9) = (   3.9722202   2.7950237  14.8662019  )
        10           Sc1 tau(  10) = (   7.9790258   5.6143895  14.8662550  )
        11           Ag1 tau(  11) = (   6.9636513   2.7922875  14.7878108  )
        12           Ag1 tau(  12) = (   4.9798133   5.6116627  14.7877811  )

     number of k points=    20  Fermi-Dirac smearing, width (Ry)=  0.0110
                       cart. coord. in units 2pi/alat
        k(    1) = (   0.0000000   0.0000000   0.0000000), wk =   0.0555556
        k(    2) = (   0.0000000   0.0295576   0.0000000), wk =   0.1111111
        k(    3) = (   0.0000000   0.0591152   0.0000000), wk =   0.1111111
        k(    4) = (   0.0000000  -0.0886728   0.0000000), wk =   0.0555556
        k(    5) = (   0.0278213  -0.0099813   0.0000000), wk =   0.1111111
        k(    6) = (   0.0278213   0.0195763   0.0000000), wk =   0.1111111
        k(    7) = (   0.0278213   0.0491339   0.0000000), wk =   0.1111111
        k(    8) = (   0.0278213  -0.0986541   0.0000000), wk =   0.1111111
        k(    9) = (   0.0278213  -0.0690965   0.0000000), wk =   0.1111111
        k(   10) = (   0.0278213  -0.0395389   0.0000000), wk =   0.1111111
        k(   11) = (   0.0556426  -0.0199626   0.0000000), wk =   0.1111111
        k(   12) = (   0.0556426   0.0095950   0.0000000), wk =   0.1111111
        k(   13) = (   0.0556426   0.0391526   0.0000000), wk =   0.1111111
        k(   14) = (   0.0556426  -0.1086355   0.0000000), wk =   0.1111111
        k(   15) = (   0.0556426  -0.0790778   0.0000000), wk =   0.1111111
        k(   16) = (   0.0556426  -0.0495202   0.0000000), wk =   0.1111111
        k(   17) = (  -0.0834639   0.0299440   0.0000000), wk =   0.0555556
        k(   18) = (  -0.0834639   0.0595016   0.0000000), wk =   0.1111111
        k(   19) = (  -0.0834639   0.0890592   0.0000000), wk =   0.1111111
        k(   20) = (  -0.0834639  -0.0587288   0.0000000), wk =   0.0555556

     Largest allocated arrays     est. size (Mb)     dimensions
     Largest temporary arrays     est. size (Mb)     dimensions

     Initial potential from superposition of free atoms
     Check: negative starting charge=   -0.001455

     starting charge  176.98530, renormalised to  180.00000

[...]

     *
     * You are using vdW-DF for exchange-correlation in this calculation.
     * Please cite the following three references that made this development
     * possible:
     *
     *   M. Dion, H. Rydberg, E. Schroder, D. C. Langreth, and
     *   B. I. Lundqvist, Phys. Rev. Lett. 92, 246401 (2004).
     *
     *   T. Thonhauser, V. R. Cooper, S. Li, A. Puzder, P. Hyldgaard, and
     *   D. C. Langreth, Phys. Rev. B 76, 125112 (2007).
     *
     *   G. Roman-Perez and J. M. Soler, Phys. Rev. Lett. 103, 096102 (2009).
     *
     *
     * If you are using vdW-DF2, please also cite:
     *
     *   K. Lee, E. D. Murray, L. Kong, B. I. Lundqvist, and
     *   D. C. Langreth, Phys. Rev. B 82, 081101(R) (2010).
     *
     *
     * If you are calculating the stress with vdW-DF, please also cite:
     *
     *   R. Sabatini, E. Kucukbenli, B. Kolb, T. Thonhauser, and
     *   S. de Gironcoli, J. Phys.: Condens. Matter 24, 424209 (2012).
     *

     Carrying out vdW-DF run using the following parameters:

     Nqs =      20    Nr_points =    1024   r_max =   100.000
     q_mesh =
               0.00001000     0.04494208     0.09755937     0.15916263
               0.23128650     0.31572767     0.41458969     0.53033537
               0.66584808     0.82450364     1.01025438     1.22772762
               1.48234092     1.78043706     2.12944203     2.53805004
               3.01644009     3.57652955     4.23227104     5.00000000

     Gradients computed in reciprocal space

[...]

     Starting wfc are  156 randomized atomic wfcs

     Self-consistent Calculation

[...]

     total energy              =   -2348.89923316 Ry
     Harris-Foulkes estimate   =   -2348.89923411 Ry
     estimated scf accuracy    <       0.00000238 Ry

     iteration # 17     ecut=    36.75 Ry     beta=0.10
     Davidson diagonalization with overlap
     ethr =  1.32E-09,  avg # of iterations =  3.0

[...]

     negative rho (up, down):  1.318E-03 0.000E+00

     Adding external electric field

     Computed dipole along edir(3) :
        Dipole                0.0240 Ry au,          0.0609 Debye
        Dipole field          0.0001 Ry au

        Potential amp.       -0.0049 Ry
        Total length         45.8761 bohr

     End of self-consistent calculation

[...]

          k = 0.0556-0.0495 0.0000 ( 21314 PWs)   bands (ev):

[...]

          k =-0.0835-0.0587 0.0000 ( 21402 PWs)   bands (ev):

   -91.4905 -91.4902 -91.4729 -91.4726 -91.3890 -91.3887 -54.9711 -54.9704
   -54.9690 -54.9654 -54.9596 -54.9551 -54.9550 -54.9508 -54.9454 -54.9368
   -54.9229 -54.9222 -54.8997 -54.8987 -54.8620 -54.8534 -54.8274 -54.8267
   -49.4718 -49.4685 -49.4629 -49.4596 -49.2125 -49.2032 -28.1317 -28.1236
   -28.1176 -28.1134 -28.0423 -28.0311 -28.0255 -28.0166 -28.0139 -28.0108
   -27.8976 -27.8954 -27.8547 -27.7919 -27.7848 -27.7603 -27.7468 -27.7364
    -4.1785  -4.1477  -4.1275  -4.1138  -4.0522  -4.0237  -4.0121  -4.0043
    -3.9755  -3.9675  -3.9188  -3.8893  -3.8289  -3.8205  -3.7451  -3.7327
    -3.7041  -3.6973  -3.6876  -3.6286  -3.6077  -3.6060  -3.5294  -3.4960
    -3.4416  -3.4341  -3.3465  -3.3225  -3.1697  -3.0421  -2.9648  -2.5726
    -1.4697  -1.3075  -1.1595  -1.1338  -0.7060   0.1192   0.1356   0.3209
     0.3701   0.6686   0.8606   1.0322   1.1657   1.3076   1.3639   1.4255
     1.5468   1.9344   2.0252   2.0395   2.2785   2.3500   2.3706   2.3763
     2.4158   2.6423   2.6538   2.7075   2.9647   2.9803   3.0855   3.2267
     3.3881   3.4833   3.6327   4.3082   4.3496   4.3854   4.4245   4.6852

     the Fermi energy is     1.1910 ev

!    total energy              =   -2348.89923065 Ry
     Harris-Foulkes estimate   =   -2348.89923359 Ry
     estimated scf accuracy    <       0.00000037 Ry

     The total energy is the sum of the following terms:

     one-electron contribution =  -14949.14841463 Ry
     hartree contribution      =    7457.69325449 Ry
     xc contribution           =    -263.26943849 Ry
     ewald contribution        =    5405.91342328 Ry
     electric field correction =       0.00000127 Ry
     smearing contrib. (-TS)   =      -0.08805656 Ry

     convergence has been achieved in  17 iterations

 BEEF-vdW xc energy contributions
           1 :   -226.653443686771
           2 :    203.583369319041
           3 :   -165.875791507392
           4 :    125.822702560969
           5 :   -93.6539409622962
           6 :    73.7847108346468
           7 :   -64.7599745427046
           8 :    61.8965213540158
           9 :   -60.4676560073636
          10 :    57.6988173918504
          11 :   -53.0728061598776
          12 :    47.4717182799198
          13 :   -42.0811274505247
          14 :    37.7087509043805
          15 :   -34.6271424551578
          16 :    32.6752286805826
          17 :   -31.3961629131865
          18 :    30.2037589633476
          19 :   -28.6388143140894
          20 :    26.6192329423302
          21 :   -24.4799159065128
          22 :    22.7150891543827
          23 :   -21.5961989672387
          24 :    20.9645881571809
          25 :   -20.3716182051077
          26 :    19.4516664580981
          27 :   -18.2202368122520
          28 :    17.0483573862251
          29 :   -16.3421952479953
          30 :    16.2024084974939
          31 :   -23.8621012226583
          32 :   -17.2755524181005

     Forces acting on atoms (Ry/au):

     negative rho (up, down):  1.318E-03 0.000E+00
     atom    1 type  1   force =    -0.00040967   -0.00028944    0.00219190
     atom    2 type  1   force =    -0.00041144   -0.00028823    0.00219144
     atom    3 type  2   force =    -0.00005241   -0.00003614    0.00828924
     atom    4 type  2   force =    -0.00005056   -0.00003627    0.00828977
     atom    5 type  1   force =     0.00014139    0.00009763   -0.00843875
     atom    6 type  1   force =     0.00013928    0.00010019   -0.00844194
     atom    7 type  2   force =    -0.00000916   -0.00000681   -0.00150540
     atom    8 type  2   force =    -0.00000901   -0.00000642   -0.00150376
     atom    9 type  1   force =    -0.00015279   -0.00010778   -0.00050719
     atom   10 type  1   force =    -0.00015896   -0.00011036   -0.00051559
     atom   11 type  2   force =     0.00048419    0.00034405   -0.00002647
     atom   12 type  2   force =     0.00048914    0.00033959   -0.00002325

     Total force =     0.017202     Total SCF correction =     0.004225
     SCF correction compared to forces is large: reduce conv_thr to get better values

     entering subroutine stress ...

     negative rho (up, down):  1.318E-03 0.000E+00
          total   stress  (Ry/bohr**3)                   (kbar)     P=   -6.44
  -0.00005103   0.00000104   0.00000113         -7.51      0.15      0.17
   0.00000104  -0.00005178   0.00000079          0.15     -7.62      0.12
   0.00000113   0.00000079  -0.00002851          0.17      0.12     -4.19

 !ASE

     Writing output data file calc.save

     General routines

     Parallel routines

   This run was terminated on:   4:41:26  19Dec2018

   JOB DONE.
Job  /afs/slac/g/suncat/bin/suncat-tsmpirun -x LD_LIBRARY_PATH -wdir /scratch/qe530544_iDi5b pw.x -in pw.inp

TID   HOST_NAME   COMMAND_LINE            STATUS            TERMINATION_TIME
00000 suncat2044 pw.x -in pw.inp   Done                     12/19/2018 04:41:26
00001 suncat2044 pw.x -in pw.inp   Done                     12/19/2018 04:41:26
00002 suncat2044 pw.x -in pw.inp   Done                     12/19/2018 04:41:26
00003 suncat2044 pw.x -in pw.inp   Done                     12/19/2018 04:41:26
00004 suncat2044 pw.x -in pw.inp   Done                     12/19/2018 04:41:26
00005 suncat2044 pw.x -in pw.inp   Done                     12/19/2018 04:41:26
00006 suncat2044 pw.x -in pw.inp   Done                     12/19/2018 04:41:26
00007 suncat2044 pw.x -in pw.inp   Done                     12/19/2018 04:41:26
00008 suncat2044 pw.x -in pw.inp   Done                     12/19/2018 04:41:26
00009 suncat2044 pw.x -in pw.inp   Done                     12/19/2018 04:41:26
00010 suncat2044 pw.x -in pw.inp   Done                     12/19/2018 04:41:26
00011 suncat2044 pw.x -in pw.inp   Done                     12/19/2018 04:41:26
00012 suncat2044 pw.x -in pw.inp   Done                     12/19/2018 04:41:26
00013 suncat2044 pw.x -in pw.inp   Done                     12/19/2018 04:41:26
00014 suncat2044 pw.x -in pw.inp   Done                     12/19/2018 04:41:26
00015 suncat2044 pw.x -in pw.inp   Done                     12/19/2018 04:41:26
00016 suncat2043 pw.x -in pw.inp   Done                     12/19/2018 04:41:26
00017 suncat2043 pw.x -in pw.inp   Done                     12/19/2018 04:41:26
00018 suncat2043 pw.x -in pw.inp   Done                     12/19/2018 04:41:26
00019 suncat2043 pw.x -in pw.inp   Done                     12/19/2018 04:41:26
00020 suncat2043 pw.x -in pw.inp   Done                     12/19/2018 04:41:26
00021 suncat2043 pw.x -in pw.inp   Done                     12/19/2018 04:41:26
00022 suncat2043 pw.x -in pw.inp   Done                     12/19/2018 04:41:26
00023 suncat2043 pw.x -in pw.inp   Done                     12/19/2018 04:41:26
00024 suncat2043 pw.x -in pw.inp   Done                     12/19/2018 04:41:26
00025 suncat2043 pw.x -in pw.inp   Done                     12/19/2018 04:41:26
00026 suncat2043 pw.x -in pw.inp   Done                     12/19/2018 04:41:26
00027 suncat2043 pw.x -in pw.inp   Done                     12/19/2018 04:41:26
00028 suncat2043 pw.x -in pw.inp   Done                     12/19/2018 04:41:26
00029 suncat2043 pw.x -in pw.inp   Done                     12/19/2018 04:41:26
00030 suncat2043 pw.x -in pw.inp   Done                     12/19/2018 04:41:26
00031 suncat2043 pw.x -in pw.inp   Done                     12/19/2018 04:41:26