     Program PWSCF v.5.1rc2 (svn rev. 11289) starts on 18Dec2018 at 19:52:10

     Current dimensions of program PWSCF are:
     Max number of different atomic species (ntypx) = 10
     Max number of k-points (npk) =  40000
     Max angular momentum in pseudopotentials (lmaxx) =  3
     Presently stress not available with electric field

     IMPORTANT: XC functional enforced from input :
     Exchange-correlation      = BEEF-VDW ( 1  4 27 13 2)
     Any further DFT definition will be discarded
     Please, verify this is what you really want

     Subspace diagonalization in iterative solution of the eigenvalue problem:
     a serial algorithm will be used

     Found symmetry operation: I + (  0.5000  0.0000  0.0000)
     This is a supercell, fractional translations are disabled

     bravais-lattice index     =            0
     lattice parameter (alat)  =       1.8897  a.u.
     unit-cell volume          =    5404.6971 (a.u.)^3
     number of atoms/cell      =           12
     number of atomic types    =            2
     number of electrons       =       156.00
     number of Kohn-Sham states=          108
     kinetic-energy cutoff     =      36.7493  Ry
     charge density cutoff     =     367.4932  Ry
     convergence threshold     =      1.0E-06
     mixing beta               =       0.1000
     number of iterations used =           10  plain     mixing
     Exchange-correlation      = BEEF-VDW ( 1  4 27 13 2)
     nstep                     =           50

     celldm(1)=   1.889726  celldm(2)=   0.000000  celldm(3)=   0.000000
     celldm(4)=   0.000000  celldm(5)=   0.000000  celldm(6)=   0.000000

     crystal axes: (cart. coord. in units of alat)
               a(1) = (   5.938688   0.000000   0.000000 )
               a(2) = (  -2.969344   5.402765   0.000000 )
               a(3) = (   0.000000   0.000000  24.961357 )

     reciprocal axes: (cart. coord. in units 2 pi/alat)
               b(1) = (  0.168387  0.092545  0.000000 )
               b(2) = (  0.000000  0.185090  0.000000 )
               b(3) = (  0.000000  0.000000  0.040062 )

     PseudoPot. # 1 for Nb read from file:
     /afs/slac.stanford.edu/u/if/mamunm/psp/gbrv1.5pbe/Nb.UPF
     MD5 check sum: 573aab8a2fa660278ed4a62cd769473f
     Pseudo is Ultrasoft + core correction, Zval = 13.0
     Generated by new atomic code, or converted to UPF format
     Using radial grid of  887 points,  6 beta functions with:
                l(1) =   0
                l(2) =   0
                l(3) =   1
                l(4) =   1
                l(5) =   2
                l(6) =   2
     Q(r) pseudized with  6 coefficients,  rinner =    1.000   1.000   1.000
                                                       1.000   1.000

     PseudoPot. # 2 for In read from file:
     /afs/slac.stanford.edu/u/if/mamunm/psp/gbrv1.5pbe/In.UPF
     MD5 check sum: 90777abd96fbb83f2e67db2a40c566b9
     Pseudo is Ultrasoft + core correction, Zval = 13.0
     Generated by new atomic code, or converted to UPF format
     Using radial grid of  889 points,  6 beta functions with:
                l(1) =   0
                l(2) =   0
                l(3) =   1
                l(4) =   1
                l(5) =   2
                l(6) =   2
     Q(r) pseudized with  6 coefficients,  rinner =    1.400   1.400   1.400
                                                       1.400   1.400

     vdW kernel table read from file vdW_kernel_table
     MD5 check sum: 095c7af220d748ca6e76c0b4c6cfb241

     atomic species   valence    mass     pseudopotential
        Nb1           13.00    92.90637     Nb( 1.00)
        In1           13.00   114.81800     In( 1.00)

     No symmetry found

   Cartesian axes

     site n.     atom                  positions (alat units)
         1           Nb1 tau(   1) = (   0.0000000   0.0000000  10.0000000  )
         2           Nb1 tau(   2) = (   2.9693440   0.0000000  10.0000000  )
         3           In1 tau(   3) = (   1.4846720   2.7013824  10.0000000  )
         4           In1 tau(   4) = (  -1.4846720   2.7013824  10.0000000  )
         5           Nb1 tau(   5) = (   2.9693440   1.6319429  12.4806785  )
         6           Nb1 tau(   6) = (   0.0000000   1.6319429  12.4806785  )
         7           In1 tau(   7) = (  -1.4846720   4.3333253  12.4806785  )
         8           In1 tau(   8) = (   1.4846720   4.3333253  12.4806785  )
         9           Nb1 tau(   9) = (  -0.0000000   3.2638858  14.9613571  )
        10           Nb1 tau(  10) = (   2.9693440   3.2638858  14.9613571  )
        11           In1 tau(  11) = (   4.4540160   0.5625035  14.9613571  )
        12           In1 tau(  12) = (   1.4846720   0.5625035  14.9613571  )

     number of k points=    20  Fermi-Dirac smearing, width (Ry)=  0.0110
                       cart. coord. in units 2pi/alat
        k(    1) = (   0.0000000   0.0000000   0.0000000), wk =   0.0555556
        k(    2) = (   0.0000000   0.0308484   0.0000000), wk =   0.1111111
        k(    3) = (   0.0000000   0.0616968   0.0000000), wk =   0.1111111
        k(    4) = (   0.0000000  -0.0925452   0.0000000), wk =   0.0555556
        k(    5) = (   0.0280646   0.0154242   0.0000000), wk =   0.1111111
        k(    6) = (   0.0280646   0.0462726   0.0000000), wk =   0.1111111
        k(    7) = (   0.0280646   0.0771210   0.0000000), wk =   0.1111111
        k(    8) = (   0.0280646  -0.0771210   0.0000000), wk =   0.1111111
        k(    9) = (   0.0280646  -0.0462726   0.0000000), wk =   0.1111111
        k(   10) = (   0.0280646  -0.0154242   0.0000000), wk =   0.1111111
        k(   11) = (   0.0561291   0.0308484   0.0000000), wk =   0.1111111
        k(   12) = (   0.0561291   0.0616968   0.0000000), wk =   0.1111111
        k(   13) = (   0.0561291   0.0925452   0.0000000), wk =   0.1111111
        k(   14) = (   0.0561291  -0.0616968   0.0000000), wk =   0.1111111
        k(   15) = (   0.0561291  -0.0308484   0.0000000), wk =   0.1111111
        k(   16) = (   0.0561291   0.0000000   0.0000000), wk =   0.1111111
        k(   17) = (  -0.0841937  -0.0462726   0.0000000), wk =   0.0555556
        k(   18) = (  -0.0841937  -0.0154242   0.0000000), wk =   0.1111111
        k(   19) = (  -0.0841937   0.0154242   0.0000000), wk =   0.1111111
        k(   20) = (  -0.0841937  -0.1388178   0.0000000), wk =   0.0555556

     Largest allocated arrays     est. size (Mb)     dimensions
     Largest temporary arrays     est. size (Mb)     dimensions

     Initial potential from superposition of free atoms
     Check: negative starting charge=   -0.004222

     starting charge  146.98360, renormalised to  156.00000

     negative rho (up, down):  4.481E-03 0.000E+00

     *
     * You are using vdW-DF for exchange-correlation in this calculation.
     * Please cite the following three references that made this development
     * possible:
     *
     *   M. Dion, H. Rydberg, E. Schroder, D. C. Langreth, and
     *   B. I. Lundqvist, Phys. Rev. Lett. 92, 246401 (2004).
     *
     *   T. Thonhauser, V. R. Cooper, S. Li, A. Puzder, P. Hyldgaard, and
     *   D. C. Langreth, Phys. Rev. B 76, 125112 (2007).
     *
     *   G. Roman-Perez and J. M. Soler, Phys. Rev. Lett. 103, 096102 (2009).
     *
     *
     * If you are using vdW-DF2, please also cite:
     *
     *   K. Lee, E. D. Murray, L. Kong, B. I. Lundqvist, and
     *   D. C. Langreth, Phys. Rev. B 82, 081101(R) (2010).
     *
     *
     * If you are calculating the stress with vdW-DF, please also cite:
     *
     *   R. Sabatini, E. Kucukbenli, B. Kolb, T. Thonhauser, and
     *   S. de Gironcoli, J. Phys.: Condens. Matter 24, 424209 (2012).
     *

     Carrying out vdW-DF run using the following parameters:

     Nqs =      20    Nr_points =    1024   r_max =   100.000
     q_mesh =
               0.00001000     0.04494208     0.09755937     0.15916263
               0.23128650     0.31572767     0.41458969     0.53033537
               0.66584808     0.82450364     1.01025438     1.22772762
               1.48234092     1.78043706     2.12944203     2.53805004
               3.01644009     3.57652955     4.23227104     5.00000000

     Gradients computed in reciprocal space

     Adding external electric field

     Computed dipole along edir(3) :
        Dipole               -0.0000 Ry au,         -0.0000 Debye
        Dipole field         -0.0000 Ry au

        Potential amp.        0.0000 Ry
        Total length         45.9909 bohr

     Starting wfc are  132 randomized atomic wfcs

     Self-consistent Calculation

     iteration #  1     ecut=    36.75 Ry     beta=0.10
     Davidson diagonalization with overlap
     ethr =  1.00E-02,  avg # of iterations =  8.0

[...]

     total energy              =   -1521.52962865 Ry
     Harris-Foulkes estimate   =   -1523.93027223 Ry
     estimated scf accuracy    <      15.02835124 Ry

[...]

     End of self-consistent calculation

          k = 0.0000 0.0000 0.0000 ( 20303 PWs)   bands (ev):

   -53.9300 -53.9263 -53.8662 -53.8628 -53.7826 -53.7176 -30.1373 -30.1078
   -30.0853 -30.0619 -30.0585 -30.0467 -30.0095 -29.9886 -29.9436 -29.9384
   -29.9035 -29.8739 -29.8274 -29.6207 -29.5585 -29.4821 -29.4721 -29.4320
   -13.8121 -13.6213 -13.5338 -13.4903 -13.4560 -13.4263 -13.4039 -13.3810
   -13.3396 -13.2632 -13.1912 -13.1856 -13.1584 -13.1438 -13.1371 -13.0824
   -12.9925 -12.9699 -12.9588 -12.9579 -12.9337 -12.9227 -12.8883 -12.8703
   -12.8525 -12.8229 -12.8150 -12.8148 -12.6721 -12.6359  -7.4333  -5.8530
    -4.4549  -3.7808  -2.5491  -2.2034  -1.5812  -1.2140  -1.1570  -0.9115
    -0.6876  -0.5610  -0.5147  -0.2933   0.1633   0.2497   0.3884   0.4227
     0.4788   0.8316   1.2686   1.2841   1.2925   1.3353   1.8191   1.9966
     2.0041   2.0085   2.0962   2.3864   2.4032   2.6679   2.7448   2.9769
     3.0253   3.4277   3.5023   3.6743   3.6986   3.7185   3.8426   3.8908
     3.9046   4.5091   4.6349   4.8126   5.1380   5.1977   5.2408   5.3470
     5.4578   5.8543   6.4871   6.6701

[...]

          k =-0.0842-0.0463 0.0000 ( 20378 PWs)   bands (ev):

[...]

     the Fermi energy is     1.5032 ev

!    total energy              =   -1519.66777242 Ry
     Harris-Foulkes estimate   =   -1519.66776872 Ry
     estimated scf accuracy    <       0.00000065 Ry

     The total energy is the sum of the following terms:

     one-electron contribution =  -10955.43798373 Ry
     hartree contribution      =    5514.74977287 Ry
     xc contribution           =    -349.24839829 Ry
     ewald contribution        =    4270.33365206 Ry
     electric field correction =       0.00000000 Ry
     smearing contrib. (-TS)   =      -0.06481533 Ry

     convergence has been achieved in  19 iterations

 BEEF-vdW xc energy contributions
           1 :   -303.983450809141
           2 :    277.830931405727
           3 :   -233.368142368566
           4 :    182.711354653134
           5 :   -137.266294928551
           6 :    103.690218803562
           7 :   -82.5167019500939
           8 :    69.6205319108098
           9 :   -59.3903056304007
          10 :    47.8110472050348
          11 :   -34.0183374685611
          12 :    19.8559851356460
          13 :   -8.08442994833143
[...]
00029 suncat2057 pw.x -in pw.inp   Done                     12/18/2018 19:57:25
00030 suncat2057 pw.x -in pw.inp   Done                     12/18/2018 19:57:25
00031 suncat2057 pw.x -in pw.inp   Done                     12/18/2018 19:57:25

[...]

   This run was terminated on:  20: 2:38  18Dec2018

[...]

     Program PWSCF v.5.1rc2 (svn rev. 11289) starts on 18Dec2018 at 20: 2:47

[...]

   This run was terminated on:  20: 8:29  18Dec2018

[...]

     Program PWSCF v.5.1rc2 (svn rev. 11289) starts on 18Dec2018 at 20: 8:36

[...]

     Program PWSCF v.5.1rc2 (svn rev. 11289) starts on 18Dec2018 at 20:38:20

     Current dimensions of program PWSCF are:
     Max number of different atomic species (ntypx) = 10
     Max number of k-points (npk) =  40000
     Max angular momentum in pseudopotentials (lmaxx) =  3
     Presently stress not available with electric field

     IMPORTANT: XC functional enforced from input :
     Exchange-correlation      = BEEF-VDW ( 1  4 27 13 2)
     Any further DFT definition will be discarded
     Please, verify this is what you really want

     Subspace diagonalization in iterative solution of the eigenvalue problem:
     a serial algorithm will be used

     Found symmetry operation: I + (  0.5000  0.0000  0.0000)
     This is a supercell, fractional translations are disabled

     bravais-lattice index     =            0
     lattice parameter (alat)  =       1.8897  a.u.
     unit-cell volume          =    5404.6971 (a.u.)^3
     number of atoms/cell      =           12
     number of atomic types    =            2
     number of electrons       =       156.00
     number of Kohn-Sham states=          108
     kinetic-energy cutoff     =      36.7493  Ry
     charge density cutoff     =     367.4932  Ry
     convergence threshold     =      1.0E-06
     mixing beta               =       0.1000
     number of iterations used =           10  plain     mixing
     Exchange-correlation      = BEEF-VDW ( 1  4 27 13 2)
     nstep                     =           50

     celldm(1)=   1.889726  celldm(2)=   0.000000  celldm(3)=   0.000000
     celldm(4)=   0.000000  celldm(5)=   0.000000  celldm(6)=   0.000000

     crystal axes: (cart. coord. in units of alat)
               a(1) = (   5.938688   0.000000   0.000000 )
               a(2) = (  -2.969344   5.402765   0.000000 )
               a(3) = (   0.000000   0.000000  24.961357 )

     reciprocal axes: (cart. coord. in units 2 pi/alat)
               b(1) = (  0.168387  0.092545  0.000000 )
               b(2) = (  0.000000  0.185090  0.000000 )
               b(3) = (  0.000000  0.000000  0.040062 )

     PseudoPot. # 1 for Nb read from file:
     /afs/slac.stanford.edu/u/if/mamunm/psp/gbrv1.5pbe/Nb.UPF
     MD5 check sum: 573aab8a2fa660278ed4a62cd769473f
     Pseudo is Ultrasoft + core correction, Zval = 13.0
     Generated by new atomic code, or converted to UPF format
     Using radial grid of  887 points,  6 beta functions with:
                l(1) =   0
                l(2) =   0
                l(3) =   1
                l(4) =   1
                l(5) =   2
                l(6) =   2
     Q(r) pseudized with  6 coefficients,  rinner =    1.000   1.000   1.000
                                                       1.000   1.000

     PseudoPot. # 2 for In read from file:
     /afs/slac.stanford.edu/u/if/mamunm/psp/gbrv1.5pbe/In.UPF
     MD5 check sum: 90777abd96fbb83f2e67db2a40c566b9
     Pseudo is Ultrasoft + core correction, Zval = 13.0
     Generated by new atomic code, or converted to UPF format
     Using radial grid of  889 points,  6 beta functions with:
                l(1) =   0
                l(2) =   0
                l(3) =   1
                l(4) =   1
                l(5) =   2
                l(6) =   2
     Q(r) pseudized with  6 coefficients,  rinner =    1.400   1.400   1.400
                                                       1.400   1.400

     vdW kernel table read from file vdW_kernel_table
     MD5 check sum: 095c7af220d748ca6e76c0b4c6cfb241

     atomic species   valence    mass     pseudopotential
        Nb1           13.00    92.90637     Nb( 1.00)
        In1           13.00   114.81800     In( 1.00)

     No symmetry found

   Cartesian axes

     site n.     atom                  positions (alat units)
         1           Nb1 tau(   1) = (   0.0000000   0.0000000  10.0000000  )
         2           Nb1 tau(   2) = (   2.9693440   0.0000000  10.0000000  )
         3           In1 tau(   3) = (   1.4846720   2.7013824  10.0000000  )
         4           In1 tau(   4) = (  -1.4846720   2.7013824  10.0000000  )
         5           Nb1 tau(   5) = (   2.9693440   1.6319429  12.4806785  )
         6           Nb1 tau(   6) = (   0.0000000   1.6319429  12.4806785  )
         7           In1 tau(   7) = (  -1.4846720   4.3333253  12.4806785  )
         8           In1 tau(   8) = (   1.4846720   4.3333253  12.4806785  )
         9           Nb1 tau(   9) = (   0.0000007   3.0411138  14.7670719  )
        10           Nb1 tau(  10) = (   2.9693448   3.0411139  14.7670702  )
        11           In1 tau(  11) = (   4.4540159   0.4078335  15.2593682  )
        12           In1 tau(  12) = (   1.4846690   0.4078333  15.2593653  )

     number of k points=    20  Fermi-Dirac smearing, width (Ry)=  0.0110
                       cart. coord. in units 2pi/alat
        k(    1) = (   0.0000000   0.0000000   0.0000000), wk =   0.0555556
        k(    2) = (   0.0000000   0.0308484   0.0000000), wk =   0.1111111
        k(    3) = (   0.0000000   0.0616968   0.0000000), wk =   0.1111111
        k(    4) = (   0.0000000  -0.0925452   0.0000000), wk =   0.0555556
        k(    5) = (   0.0280646   0.0154242   0.0000000), wk =   0.1111111
        k(    6) = (   0.0280646   0.0462726   0.0000000), wk =   0.1111111
        k(    7) = (   0.0280646   0.0771210   0.0000000), wk =   0.1111111
        k(    8) = (   0.0280646  -0.0771210   0.0000000), wk =   0.1111111
        k(    9) = (   0.0280646  -0.0462726   0.0000000), wk =   0.1111111
        k(   10) = (   0.0280646  -0.0154242   0.0000000), wk =   0.1111111
        k(   11) = (   0.0561291   0.0308484   0.0000000), wk =   0.1111111
        k(   12) = (   0.0561291   0.0616968   0.0000000), wk =   0.1111111
        k(   13) = (   0.0561291   0.0925452   0.0000000), wk =   0.1111111
        k(   14) = (   0.0561291  -0.0616968   0.0000000), wk =   0.1111111
        k(   15) = (   0.0561291  -0.0308484   0.0000000), wk =   0.1111111
        k(   16) = (   0.0561291   0.0000000   0.0000000), wk =   0.1111111
        k(   17) = (  -0.0841937  -0.0462726   0.0000000), wk =   0.0555556
        k(   18) = (  -0.0841937  -0.0154242   0.0000000), wk =   0.1111111
        k(   19) = (  -0.0841937   0.0154242   0.0000000), wk =   0.1111111
        k(   20) = (  -0.0841937  -0.1388178   0.0000000), wk =   0.0555556

     Largest allocated arrays     est. size (Mb)     dimensions
     Largest temporary arrays     est. size (Mb)     dimensions

     Initial potential from superposition of free atoms
     Check: negative starting charge=   -0.004148

     starting charge  146.98360, renormalised to  156.00000

[...]

     *
     * You are using vdW-DF for exchange-correlation in this calculation.
     * Please cite the following three references that made this development
     * possible:
     *
     *   M. Dion, H. Rydberg, E. Schroder, D. C. Langreth, and
     *   B. I. Lundqvist, Phys. Rev. Lett. 92, 246401 (2004).
     *
     *   T. Thonhauser, V. R. Cooper, S. Li, A. Puzder, P. Hyldgaard, and
     *   D. C. Langreth, Phys. Rev. B 76, 125112 (2007).
     *
     *   G. Roman-Perez and J. M. Soler, Phys. Rev. Lett. 103, 096102 (2009).
     *
     *
     * If you are using vdW-DF2, please also cite:
     *
     *   K. Lee, E. D. Murray, L. Kong, B. I. Lundqvist, and
     *   D. C. Langreth, Phys. Rev. B 82, 081101(R) (2010).
     *
     *
     * If you are calculating the stress with vdW-DF, please also cite:
     *
     *   R. Sabatini, E. Kucukbenli, B. Kolb, T. Thonhauser, and
     *   S. de Gironcoli, J. Phys.: Condens. Matter 24, 424209 (2012).
     *

     Carrying out vdW-DF run using the following parameters:

     Nqs =      20    Nr_points =    1024   r_max =   100.000
     q_mesh =
               0.00001000     0.04494208     0.09755937     0.15916263
               0.23128650     0.31572767     0.41458969     0.53033537
               0.66584808     0.82450364     1.01025438     1.22772762
               1.48234092     1.78043706     2.12944203     2.53805004
               3.01644009     3.57652955     4.23227104     5.00000000

     Gradients computed in reciprocal space

[...]

     Starting wfc are  132 randomized atomic wfcs

     Self-consistent Calculation

[...]

     total energy              =   -1519.71433506 Ry
     Harris-Foulkes estimate   =   -1519.71433414 Ry
     estimated scf accuracy    <       0.00000193 Ry

     iteration # 19     ecut=    36.75 Ry     beta=0.10
     Davidson diagonalization with overlap
     ethr =  1.24E-09,  avg # of iterations =  2.0

[...]

     negative rho (up, down):  3.718E-03 0.000E+00

     Adding external electric field

     Computed dipole along edir(3) :
        Dipole               -0.0082 Ry au,         -0.0208 Debye
        Dipole field         -0.0000 Ry au

        Potential amp.        0.0017 Ry
        Total length         45.9909 bohr

     End of self-consistent calculation

[...]

          k = 0.0561 0.0000 0.0000 ( 20345 PWs)   bands (ev):

[...]

          k =-0.0842-0.1388 0.0000 ( 20378 PWs)   bands (ev):

   -53.9360 -53.9359 -53.7749 -53.7749 -53.6489 -53.6489 -30.1765 -30.1765
   -30.0390 -30.0390 -29.9414 -29.9414 -29.8686 -29.8686 -29.8201 -29.8201
   -29.7730 -29.7730 -29.7311 -29.7310 -29.6405 -29.6405 -29.3342 -29.3342
   -13.4747 -13.4747 -13.3868 -13.3868 -13.3391 -13.3391 -13.3237 -13.3237
   -13.2984 -13.2984 -13.0559 -13.0559 -13.0261 -13.0261 -13.0097 -13.0097
   -12.9963 -12.9963 -12.9856 -12.9856 -12.9509 -12.9509 -12.9454 -12.9454
   -12.9208 -12.9208 -12.9098 -12.9098 -12.8720 -12.8720  -5.9015  -5.9015
    -4.5531  -4.5530  -3.4698  -3.4698  -1.4611  -1.4611  -0.7131  -0.7131
    -0.2821  -0.2821   0.0103   0.0103   0.3162   0.3162   0.4724   0.4724
     0.5919   0.5919   1.2174   1.2174   1.3321   1.3321   1.6082   1.6082
     2.0042   2.0042   2.1007   2.1007   2.4692   2.4692   2.7043   2.7043
     3.2687   3.2687   3.5061   3.5061   3.6879   3.6879   4.0701   4.0701
     4.6424   4.6424   5.5272   5.5272   5.6455   5.6455   6.0984   6.0984
     6.3791   6.3791   6.4910   6.4910

     the Fermi energy is     1.4820 ev

!    total energy              =   -1519.71433948 Ry
     Harris-Foulkes estimate   =   -1519.71433527 Ry
     estimated scf accuracy    <       0.00000046 Ry

     The total energy is the sum of the following terms:

     one-electron contribution =  -10864.21687906 Ry
     hartree contribution      =    5469.32144842 Ry
     xc contribution           =    -349.26556912 Ry
     ewald contribution        =    4224.50437496 Ry
     electric field correction =       0.00000016 Ry
     smearing contrib. (-TS)   =      -0.05771484 Ry

     convergence has been achieved in  19 iterations

 BEEF-vdW xc energy contributions
           1 :   -303.998304538020
           2 :    277.819526613158
           3 :   -233.320863589456
           4 :    182.637698414617
           5 :   -137.179650504500
           6 :    103.589359230546
           7 :   -82.3780120691186
           8 :    69.4130092381544
           9 :   -59.1086208843014
          10 :    47.5004934829170
          11 :   -33.7618241079174
          12 :    19.7231646333939
          13 :   -8.07764034549308
          14 :   0.503653070451946
          15 :    3.23040423305099
          16 :   -4.86917637191669
          17 :    6.44480140790273
          18 :   -9.09140638397577
          19 :    12.5851058316446
          20 :   -15.7629186918206
          21 :    17.4233019776559
          22 :   -17.0993072864205
          23 :    15.2639602680278
          24 :   -12.9462560434425
          25 :    11.0846571306424
          26 :   -10.0486279916747
          27 :    9.57756477867133
          28 :   -9.09864228350295
          29 :    8.16238202099709
          30 :   -6.71726387861253
          31 :   -29.9405794974113
          32 :   -22.1764539593316

     Forces acting on atoms (Ry/au):

     negative rho (up, down):  3.718E-03 0.000E+00
     atom    1 type  1   force =    -0.00000008    0.01526912    0.04141919
     atom    2 type  1   force =    -0.00000002    0.01527113    0.04141733
     atom    3 type  2   force =    -0.00000008   -0.00451870   -0.04066151
     atom    4 type  2   force =    -0.00000004   -0.00451876   -0.04066154
     atom    5 type  1   force =    -0.00000006   -0.02156698   -0.00347016
     atom    6 type  1   force =    -0.00000018   -0.02156761   -0.00347114
     atom    7 type  2   force =     0.00000264    0.01036325    0.00413524
     atom    8 type  2   force =    -0.00000253    0.01036333    0.00413541
     atom    9 type  1   force =    -0.00000026    0.00084590   -0.00023565
     atom   10 type  1   force =    -0.00000038    0.00084534   -0.00023539
     atom   11 type  2   force =    -0.00000028   -0.00039285   -0.00118602
     atom   12 type  2   force =     0.00000127   -0.00039317   -0.00118576

     Total force =     0.091940     Total SCF correction =     0.001953

     entering subroutine stress ...

     negative rho (up, down):  3.718E-03 0.000E+00
          total   stress  (Ry/bohr**3)                   (kbar)     P=  -12.09
  -0.00009039   0.00000000   0.00000000        -13.30      0.00      0.00
   0.00000000  -0.00014939  -0.00001778          0.00    -21.98     -2.62
   0.00000000  -0.00001778  -0.00000681          0.00     -2.62     -1.00

 !ASE

     Writing output data file calc.save

     General routines

     Parallel routines

   This run was terminated on:  20:44:15  18Dec2018

   JOB DONE.
Job  /afs/slac/g/suncat/bin/suncat-tsmpirun -x LD_LIBRARY_PATH -wdir /scratch/qe530295_Uc7Ri pw.x -in pw.inp

TID   HOST_NAME   COMMAND_LINE            STATUS            TERMINATION_TIME
00000 suncat2058 pw.x -in pw.inp   Done                     12/18/2018 20:44:15
00001 suncat2058 pw.x -in pw.inp   Done                     12/18/2018 20:44:15
00002 suncat2058 pw.x -in pw.inp   Done                     12/18/2018 20:44:15
00003 suncat2058 pw.x -in pw.inp   Done                     12/18/2018 20:44:15
00004 suncat2058 pw.x -in pw.inp   Done                     12/18/2018 20:44:15
00005 suncat2058 pw.x -in pw.inp   Done                     12/18/2018 20:44:15
00006 suncat2058 pw.x -in pw.inp   Done                     12/18/2018 20:44:15
00007 suncat2058 pw.x -in pw.inp   Done                     12/18/2018 20:44:15
00008 suncat2058 pw.x -in pw.inp   Done                     12/18/2018 20:44:15
00009 suncat2058 pw.x -in pw.inp   Done                     12/18/2018 20:44:15
00010 suncat2058 pw.x -in pw.inp   Done                     12/18/2018 20:44:15
00011 suncat2058 pw.x -in pw.inp   Done                     12/18/2018 20:44:15
00012 suncat2058 pw.x -in pw.inp   Done                     12/18/2018 20:44:15
00013 suncat2058 pw.x -in pw.inp   Done                     12/18/2018 20:44:15
00014 suncat2058 pw.x -in pw.inp   Done                     12/18/2018 20:44:15
00015 suncat2058 pw.x -in pw.inp   Done                     12/18/2018 20:44:15
00016 suncat2057 pw.x -in pw.inp   Done                     12/18/2018 20:44:15
00017 suncat2057 pw.x -in pw.inp   Done                     12/18/2018 20:44:15
00018 suncat2057 pw.x -in pw.inp   Done                     12/18/2018 20:44:15
00019 suncat2057 pw.x -in pw.inp   Done                     12/18/2018 20:44:15
00020 suncat2057 pw.x -in pw.inp   Done                     12/18/2018 20:44:15
00021 suncat2057 pw.x -in pw.inp   Done                     12/18/2018 20:44:15
00022 suncat2057 pw.x -in pw.inp   Done                     12/18/2018 20:44:15
00023 suncat2057 pw.x -in pw.inp   Done                     12/18/2018 20:44:15
00024 suncat2057 pw.x -in pw.inp   Done                     12/18/2018 20:44:15
00025 suncat2057 pw.x -in pw.inp   Done                     12/18/2018 20:44:15
00026 suncat2057 pw.x -in pw.inp   Done                     12/18/2018 20:44:15
00027 suncat2057 pw.x -in pw.inp   Done                     12/18/2018 20:44:15
00028 suncat2057 pw.x -in pw.inp   Done                     12/18/2018 20:44:15
00029 suncat2057 pw.x -in pw.inp   Done                     12/18/2018 20:44:15
00030 suncat2057 pw.x -in pw.inp   Done                     12/18/2018 20:44:15
00031 suncat2057 pw.x -in pw.inp   Done                     12/18/2018 20:44:15