     Program PWSCF v.5.1rc2 (svn rev. 11289) starts on 24Dec2018 at 23:16:52

     Current dimensions of program PWSCF are:
     Max number of different atomic species (ntypx) = 10
     Max number of k-points (npk) =  40000
     Max angular momentum in pseudopotentials (lmaxx) =  3
     Presently stress not available with electric field

     IMPORTANT: XC functional enforced from input :
     Exchange-correlation      = BEEF-VDW ( 1  4 27 13 2)
     Any further DFT definition will be discarded
     Please, verify this is what you really want

     Subspace diagonalization in iterative solution of the eigenvalue problem:
     a serial algorithm will be used

     Found symmetry operation: I + ( -0.5000 -0.5000  0.0000)
     This is a supercell, fractional translations are disabled

     bravais-lattice index     =            0
     lattice parameter (alat)  =       1.8897  a.u.
     unit-cell volume          =    4995.5187 (a.u.)^3
     number of atoms/cell      =           12
     number of atomic types    =            2
     number of electrons       =       162.00
     number of Kohn-Sham states=          111
     kinetic-energy cutoff     =      36.7493  Ry
     charge density cutoff     =     367.4932  Ry
     convergence threshold     =      1.0E-06
     mixing beta               =       0.1000
     number of iterations used =           10  plain     mixing
     Exchange-correlation      = BEEF-VDW ( 1  4 27 13 2)
     nstep                     =           50

     celldm(1)=   1.889726  celldm(2)=   0.000000  celldm(3)=   0.000000
     celldm(4)=   0.000000  celldm(5)=   0.000000  celldm(6)=   0.000000

     crystal axes: (cart. coord. in units of alat)
               a(1) = (   5.824742   0.000000   0.000000 )
               a(2) = (   2.765163   5.126548   0.000000 )
               a(3) = (   0.000000   0.000000  24.790329 )

     reciprocal axes: (cart. coord. in units 2 pi/alat)
               b(1) = (  0.171681 -0.092602  0.000000 )
               b(2) = (  0.000000  0.195063  0.000000 )
               b(3) = (  0.000000  0.000000  0.040338 )

     PseudoPot. # 1 for Ir read from file:
     /afs/slac.stanford.edu/u/if/mamunm/psp/gbrv1.5pbe/Ir.UPF
     MD5 check sum: 8836f839c3459d2b385c504ce6d91f2c
     Pseudo is Ultrasoft + core correction, Zval = 15.0
     Generated by new atomic code, or converted to UPF format
     Using radial grid of  983 points,  7 beta functions with:
                l(1) =   0
                l(2) =   0
                l(3) =   1
                l(4) =   1
                l(5) =   1
                l(6) =   2
                l(7) =   2
     Q(r) pseudized with  8 coefficients,  rinner =    1.400   1.400   1.400
                                                       1.400   1.400

     PseudoPot. # 2 for Hg read from file:
     /afs/slac.stanford.edu/u/if/mamunm/psp/gbrv1.5pbe/Hg.UPF
     MD5 check sum: 8f42caffe07f7fd9c0a564347f8c5498
     Pseudo is Ultrasoft + core correction, Zval = 12.0
     Generated by new atomic code, or converted to UPF format
     Using radial grid of  985 points,  6 beta functions with:
                l(1) =   0
                l(2) =   0
                l(3) =   1
                l(4) =   1
                l(5) =   2
                l(6) =   2
     Q(r) pseudized with  8 coefficients,  rinner =    2.000   2.000   2.000
                                                       2.000   2.000

     vdW kernel table read from file vdW_kernel_table
     MD5 check sum: 095c7af220d748ca6e76c0b4c6cfb241

     atomic species   valence    mass     pseudopotential
        Ir1           15.00   192.21700     Ir( 1.00)
        Hg1           12.00   200.59200     Hg( 1.00)

     No symmetry found

   Cartesian axes

     site n.     atom                  positions (alat units)
         1           Ir1 tau(   1) = (   0.0000000   0.0000000  10.0000000  )
         2           Ir1 tau(   2) = (   4.2949522   2.5632739  10.0000000  )
         3           Hg1 tau(   3) = (   2.9123709   0.0000000  10.0000000  )
         4           Hg1 tau(   4) = (   1.3825813   2.5632739  10.0000000  )
         5           Ir1 tau(   5) = (   5.8247418   3.4762689  12.3951646  )
         6           Ir1 tau(   6) = (   1.5297896   0.9129950  12.3951646  )
         7           Hg1 tau(   7) = (   2.9123709   3.4762689  12.3951646  )
         8           Hg1 tau(   8) = (   4.4421605   0.9129950  12.3951646  )
         9           Ir1 tau(   9) = (   3.0595792   1.8259900  14.7903292  )
        10           Ir1 tau(  10) = (   7.3545314   4.3892639  14.7903292  )
        11           Hg1 tau(  11) = (   5.9719501   1.8259900  14.7903292  )
        12           Hg1 tau(  12) = (   4.4421605   4.3892639  14.7903292  )

     number of k points=    20  Fermi-Dirac smearing, width (Ry)=  0.0110
                       cart. coord. in units 2pi/alat
        k(    1) = (   0.0000000   0.0000000   0.0000000), wk =   0.0555556
        k(    2) = (   0.0000000   0.0325105   0.0000000), wk =   0.1111111
        k(    3) = (   0.0000000   0.0650210   0.0000000), wk =   0.1111111
        k(    4) = (   0.0000000  -0.0975315   0.0000000), wk =   0.0555556
        k(    5) = (   0.0286136  -0.0154336   0.0000000), wk =   0.1111111
        k(    6) = (   0.0286136   0.0170769   0.0000000), wk =   0.1111111
        k(    7) = (   0.0286136   0.0495874   0.0000000), wk =   0.1111111
        k(    8) = (   0.0286136  -0.1129651   0.0000000), wk =   0.1111111
        k(    9) = (   0.0286136  -0.0804546   0.0000000), wk =   0.1111111
        k(   10) = (   0.0286136  -0.0479441   0.0000000), wk =   0.1111111
        k(   11) = (   0.0572271  -0.0308672   0.0000000), wk =   0.1111111
        k(   12) = (   0.0572271   0.0016433   0.0000000), wk =   0.1111111
        k(   13) = (   0.0572271   0.0341538   0.0000000), wk =   0.1111111
        k(   14) = (   0.0572271  -0.1283988   0.0000000), wk =   0.1111111
        k(   15) = (   0.0572271  -0.0958882   0.0000000), wk =   0.1111111
        k(   16) = (   0.0572271  -0.0633777   0.0000000), wk =   0.1111111
        k(   17) = (  -0.0858407   0.0463009   0.0000000), wk =   0.0555556
        k(   18) = (  -0.0858407   0.0788114   0.0000000), wk =   0.1111111
        k(   19) = (  -0.0858407   0.1113219   0.0000000), wk =   0.1111111
        k(   20) = (  -0.0858407  -0.0512307   0.0000000), wk =   0.0555556

     Largest allocated arrays     est. size (Mb)     dimensions
     Largest temporary arrays     est. size (Mb)     dimensions

     Initial potential from superposition of free atoms
     Check: negative starting charge=   -2.184228

     starting charge  158.99946, renormalised to  162.00000

     negative rho (up, down):  2.225E+00 0.000E+00

     *
     * You are using vdW-DF for exchange-correlation in this calculation.
     * Please cite the following three references that made this development
     * possible:
     *
     *   M. Dion, H. Rydberg, E. Schroder, D. C. Langreth, and
     *   B. I. Lundqvist, Phys. Rev. Lett. 92, 246401 (2004).
     *
     *   T. Thonhauser, V. R. Cooper, S. Li, A. Puzder, P. Hyldgaard, and
     *   D. C. Langreth, Phys. Rev. B 76, 125112 (2007).
     *
     *   G. Roman-Perez and J. M. Soler, Phys. Rev. Lett. 103, 096102 (2009).
     *
     *
     * If you are using vdW-DF2, please also cite:
     *
     *   K. Lee, E. D. Murray, L. Kong, B. I. Lundqvist, and
     *   D. C. Langreth, Phys. Rev. B 82, 081101(R) (2010).
     *
     *
     * If you are calculating the stress with vdW-DF, please also cite:
     *
     *   R. Sabatini, E. Kucukbenli, B. Kolb, T. Thonhauser, and
     *   S. de Gironcoli, J. Phys.: Condens. Matter 24, 424209 (2012).
     *

     Carrying out vdW-DF run using the following parameters:

     Nqs =      20    Nr_points =    1024   r_max =   100.000
     q_mesh =
               0.00001000     0.04494208     0.09755937     0.15916263
               0.23128650     0.31572767     0.41458969     0.53033537
               0.66584808     0.82450364     1.01025438     1.22772762
               1.48234092     1.78043706     2.12944203     2.53805004
               3.01644009     3.57652955     4.23227104     5.00000000

     Gradients computed in reciprocal space

     Adding external electric field

     Computed dipole along edir(3) :
        Dipole               -0.0000 Ry au,         -0.0000 Debye
        Dipole field         -0.0000 Ry au

        Potential amp.        0.0000 Ry
        Total length         45.6758 bohr

     Starting wfc are  126 randomized atomic wfcs

     Self-consistent Calculation

     iteration #  1     ecut=    36.75 Ry     beta=0.10
     Davidson diagonalization with overlap
     ethr =  1.00E-02,  avg # of iterations =  8.1

[...]

     total energy              =   -1754.13977363 Ry
     Harris-Foulkes estimate   =   -1754.70854091 Ry
     estimated scf accuracy    <       3.74878283 Ry

[...]

     End of self-consistent calculation

          k = 0.0000 0.0000 0.0000 ( 18819 PWs)   bands (ev):

   -47.2608 -47.2499 -47.2475 -47.1857 -47.1853 -47.1040 -47.0576 -47.0476
   -47.0448 -47.0421 -47.0418 -47.0355 -47.0224 -47.0086 -46.9002 -46.8986
   -46.8869 -46.8856  -7.8358  -7.0453  -7.0152  -6.9514  -6.8965  -6.8745
    -6.7688  -6.6034  -6.5804  -6.5742  -6.4964  -6.4524  -6.3126  -6.0965
    -6.0169  -5.8902  -5.8547  -5.7706  -5.6642  -5.5818  -5.5646  -5.5502
    -5.5058  -5.4490  -5.3393  -5.3184  -5.3109  -5.1531  -5.0979  -5.0922
    -4.9834  -4.4794  -3.3023  -2.6150  -2.0373  -2.0029  -1.7750  -1.7324
    -1.6163  -1.1705  -1.1026  -1.0131  -0.9855  -0.7643  -0.4844  -0.1855
    -0.1804  -0.1169   0.0418   0.1523   0.6159   0.6363   0.6750   0.8088
     0.9199   0.9783   1.0279   1.0649   1.1689   1.1748   1.2217   1.2461
     1.3530   1.3594   1.6905   1.7015   1.7985   2.4274   2.4590   2.9055
     3.0761   3.1519   3.1860   4.0127   4.4370   4.9063   5.3318   5.3573
     5.4782   5.6724   5.7342   5.8854   5.9413   6.1117   6.7248   6.9603
     7.5013   8.8099   8.9615   9.0338   9.1553   9.2692   9.5419

[...]

          k =-0.0858 0.0463 0.0000 ( 18802 PWs)   bands (ev):

[...]

     the Fermi energy is     1.1481 ev

!    total energy              =   -1753.93541217 Ry
     Harris-Foulkes estimate   =   -1753.93541133 Ry
     estimated scf accuracy    <       0.00000064 Ry

     The total energy is the sum of the following terms:

     one-electron contribution =  -12685.78731132 Ry
     hartree contribution      =    6405.28824638 Ry
     xc contribution           =    -554.56039377 Ry
     ewald contribution        =    5081.20513162 Ry
     electric field correction =       0.00000003 Ry
     smearing contrib. (-TS)   =      -0.08108512 Ry

     convergence has been achieved in  17 iterations

 BEEF-vdW xc energy contributions
           1 :   -489.066856278665
           2 :    452.891298611964
           3 :   -388.943969634125
           4 :    310.917520777312
           5 :   -233.321226338785
           6 :    167.426656528041
           7 :   -118.853368338889
           8 :    87.3125387187881
           9 :   -68.2760558408767
          10 :    55.6744724565066
          11 :   -44.4709302274284
[...]

     PseudoPot. # 1 for Ir read from file:
     /afs/slac.stanford.edu/u/if/mamunm/psp/gbrv1.5pbe/Ir.UPF
     MD5 check sum: 8836f839c3459d2b385c504ce6d91f2c
     Pseudo is Ultrasoft + core correction, Zval = 15.0
     Generated by new atomic code, or converted to UPF format
     Using radial grid of  983 points,  7 beta functions with:
                l(1) =   0
                l(2) =   0
                l(3) =   1
                l(4) =   1
                l(5) =   1
                l(6) =   2
                l(7) =   2
     Q(r) pseudized with  8 coefficients,  rinner =    1.400   1.400   1.400
                                                       1.400   1.400

     PseudoPot. # 2 for Hg read from file:
     /afs/slac.stanford.edu/u/if/mamunm/psp/gbrv1.5pbe/Hg.UPF
     MD5 check sum: 8f42caffe07f7fd9c0a564347f8c5498
     Pseudo is Ultrasoft + core correction, Zval = 12.0
     Generated by new atomic code, or converted to UPF format
     Using radial grid of  985 points,  6 beta functions with:
                l(1) =   0
                l(2) =   0
                l(3) =   1
                l(4) =   1
                l(5) =   2
                l(6) =   2
     Q(r) pseudized with  8 coefficients,  rinner =    2.000   2.000   2.000
                                                       2.000   2.000

     vdW kernel table read from file vdW_kernel_table
     MD5 check sum: 095c7af220d748ca6e76c0b4c6cfb241

     atomic species   valence    mass     pseudopotential
        Ir1           15.00   192.21700     Ir( 1.00)
        Hg1           12.00   200.59200     Hg( 1.00)

     No symmetry found

   Cartesian axes

     site n.     atom                  positions (alat units)
         1           Ir1 tau(   1) = (   0.0000000   0.0000000  10.0000000  )
         2           Ir1 tau(   2) = (   4.2949522   2.5632739  10.0000000  )
         3           Hg1 tau(   3) = (   2.9123709   0.0000000  10.0000000  )
         4           Hg1 tau(   4) = (   1.3825813   2.5632739  10.0000000  )
         5           Ir1 tau(   5) = (   5.8247418   3.4762689  12.3951646  )
         6           Ir1 tau(   6) = (   1.5297896   0.9129950  12.3951646  )
         7           Hg1 tau(   7) = (   2.9123709   3.4762689  12.3951646  )
         8           Hg1 tau(   8) = (   4.4421605   0.9129950  12.3951646  )
         9           Ir1 tau(   9) = (   2.5116723   1.4990231  14.6026025  )
        10           Ir1 tau(  10) = (   6.8066510   4.0622636  14.6025675  )
        11           Hg1 tau(  11) = (   5.4850499   1.5354260  15.2662577  )
        12           Hg1 tau(  12) = (   3.9552876   4.0986952  15.2662385  )

     number of k points=    20  Fermi-Dirac smearing, width (Ry)=  0.0110
                       cart. coord. in units 2pi/alat
        k(    1) = (   0.0000000   0.0000000   0.0000000), wk =   0.0555556
        k(    2) = (   0.0000000   0.0325105   0.0000000), wk =   0.1111111
        k(    3) = (   0.0000000   0.0650210   0.0000000), wk =   0.1111111
        k(    4) = (   0.0000000  -0.0975315   0.0000000), wk =   0.0555556
        k(    5) = (   0.0286136  -0.0154336   0.0000000), wk =   0.1111111
        k(    6) = (   0.0286136   0.0170769   0.0000000), wk =   0.1111111
        k(    7) = (   0.0286136   0.0495874   0.0000000), wk =   0.1111111
        k(    8) = (   0.0286136  -0.1129651   0.0000000), wk =   0.1111111
        k(    9) = (   0.0286136  -0.0804546   0.0000000), wk =   0.1111111
        k(   10) = (   0.0286136  -0.0479441   0.0000000), wk =   0.1111111
        k(   11) = (   0.0572271  -0.0308672   0.0000000), wk =   0.1111111
        k(   12) = (   0.0572271   0.0016433   0.0000000), wk =   0.1111111
        k(   13) = (   0.0572271   0.0341538   0.0000000), wk =   0.1111111
        k(   14) = (   0.0572271  -0.1283988   0.0000000), wk =   0.1111111
        k(   15) = (   0.0572271  -0.0958882   0.0000000), wk =   0.1111111
        k(   16) = (   0.0572271  -0.0633777   0.0000000), wk =   0.1111111
        k(   17) = (  -0.0858407   0.0463009   0.0000000), wk =   0.0555556
        k(   18) = (  -0.0858407   0.0788114   0.0000000), wk =   0.1111111
        k(   19) = (  -0.0858407   0.1113219   0.0000000), wk =   0.1111111
        k(   20) = (  -0.0858407  -0.0512307   0.0000000), wk =   0.0555556

     Largest allocated arrays     est. size (Mb)     dimensions
     Largest temporary arrays     est. size (Mb)     dimensions

     Initial potential from superposition of free atoms
     Check: negative starting charge=   -2.184530

     starting charge  158.99946, renormalised to  162.00000

[...]

     *
     * You are using vdW-DF for exchange-correlation in this calculation.
     * Please cite the following three references that made this development
     * possible:
     *
     *   M. Dion, H. Rydberg, E. Schroder, D. C. Langreth, and
     *   B. I. Lundqvist, Phys. Rev. Lett. 92, 246401 (2004).
     *
     *   T. Thonhauser, V. R. Cooper, S. Li, A. Puzder, P. Hyldgaard, and
     *   D. C. Langreth, Phys. Rev. B 76, 125112 (2007).
     *
     *   G. Roman-Perez and J. M. Soler, Phys. Rev. Lett. 103, 096102 (2009).
     *
     *
     * If you are using vdW-DF2, please also cite:
     *
     *   K. Lee, E. D. Murray, L. Kong, B. I. Lundqvist, and
     *   D. C. Langreth, Phys. Rev. B 82, 081101(R) (2010).
     *
     *
     * If you are calculating the stress with vdW-DF, please also cite:
     *
     *   R. Sabatini, E. Kucukbenli, B. Kolb, T. Thonhauser, and
     *   S. de Gironcoli, J. Phys.: Condens. Matter 24, 424209 (2012).
     *

     Carrying out vdW-DF run using the following parameters:

     Nqs =      20    Nr_points =    1024   r_max =   100.000
     q_mesh =
               0.00001000     0.04494208     0.09755937     0.15916263
               0.23128650     0.31572767     0.41458969     0.53033537
               0.66584808     0.82450364     1.01025438     1.22772762
               1.48234092     1.78043706     2.12944203     2.53805004
               3.01644009     3.57652955     4.23227104     5.00000000

     Gradients computed in reciprocal space

[...]

     Starting wfc are  126 randomized atomic wfcs

     Self-consistent Calculation

[...]

     total energy              =   -1754.00523253 Ry
     Harris-Foulkes estimate   =   -1754.00522959 Ry
     estimated scf accuracy    <       0.00000107 Ry

     iteration # 18     ecut=    36.75 Ry     beta=0.10
     Davidson diagonalization with overlap
     ethr =  6.62E-10,  avg # of iterations =  2.7

[...]

     negative rho (up, down):  1.997E+00 0.000E+00

     Adding external electric field

     Computed dipole along edir(3) :
        Dipole                0.1286 Ry au,          0.3267 Debye
        Dipole field          0.0003 Ry au

        Potential amp.       -0.0295 Ry
        Total length         45.6758 bohr

     End of self-consistent calculation

[...]

          k = 0.0572-0.0634 0.0000 ( 18807 PWs)   bands (ev):

[...]

          k =-0.0858-0.0512 0.0000 ( 18740 PWs)   bands (ev):

   -47.7350 -47.7205 -47.3491 -47.2584 -47.2366 -47.2253 -47.2039 -47.1178
   -47.0996 -47.0855 -47.0360 -47.0232 -46.9612 -46.8364 -46.8229 -46.8171
   -46.6895 -46.6763  -6.9620  -6.6470  -6.5391  -6.4529  -6.4261  -6.4011
    -6.1881  -6.1359  -6.1079  -5.9876  -5.9289  -5.8863  -5.8646  -5.7310
    -5.6348  -5.5919  -5.4580  -5.4173  -5.3519  -5.3079  -5.3060  -5.3025
    -5.2006  -5.1066  -5.0856  -5.0405  -4.9226  -4.8827  -4.8667  -4.7607
    -4.7176  -4.3577  -3.7692  -3.1109  -3.0246  -2.7558  -2.4093  -2.2725
    -2.0598  -2.0330  -1.9247  -1.7206  -1.5126  -1.5045  -1.3677  -1.2404
    -1.1292  -1.0016  -0.7755  -0.5905  -0.3736  -0.3701  -0.2181  -0.0442
     0.1254   0.4527   0.4982   0.8537   0.9083   0.9951   1.0724   1.1956
     1.2671   1.3268   1.4556   1.6888   2.3729   2.4023   2.9875   3.3758
     3.6460   3.8631   4.5206   4.8292   6.1307   6.2170   6.4773   6.7645
     7.1314   7.1642   7.2469   7.3633   7.3819   7.4499   7.6040   7.9853
     8.1062   8.3211   8.4084   8.5421   8.7503   8.7882   8.8323

     the Fermi energy is     1.3295 ev

!    total energy              =   -1754.00523897 Ry
     Harris-Foulkes estimate   =   -1754.00523481 Ry
     estimated scf accuracy    <       0.00000065 Ry

     The total energy is the sum of the following terms:

     one-electron contribution =  -12469.77717078 Ry
     hartree contribution      =    6297.50543881 Ry
     xc contribution           =    -554.45234830 Ry
     ewald contribution        =    4972.80064352 Ry
     electric field correction =       0.00004157 Ry
     smearing contrib. (-TS)   =      -0.08184378 Ry

     convergence has been achieved in  18 iterations

 BEEF-vdW xc energy contributions
           1 :   -488.952458679012
           2 :    452.675707863585
           3 :   -388.600842405502
           4 :    310.511233571190
           5 :   -232.955717848405
           6 :    167.169994012240
           7 :   -118.689989047085
           8 :    87.1545737336012
           9 :   -68.0275223554386
          10 :    55.3078176025138
          11 :   -44.0655372476486
          12 :    31.8905364232605
          13 :   -18.9505837103554
          14 :    6.97755299583002
          15 :    2.12633333448457
          16 :   -7.37992574815394
          17 :    9.11269139709668
          18 :   -8.64628924590988
          19 :    7.57134565503009
          20 :   -7.04732241918396
          21 :    7.45003455705080
          22 :   -8.45837472265066
          23 :    9.43775000179176
          24 :   -9.86839406540196
          25 :    9.59922942334651
          26 :   -8.84434422427364
          27 :    7.98366395715300
          28 :   -7.31923188589610
          29 :    6.93016798462929
          30 :   -6.68880952206894
          31 :   -43.3942807885539
          32 :   -32.2247019639457

     Forces acting on atoms (Ry/au):

     negative rho (up, down):  1.997E+00 0.000E+00
     atom    1 type  1   force =     0.01746820    0.01042573    0.02609149
     atom    2 type  1   force =     0.01746899    0.01042539    0.02609525
     atom    3 type  2   force =    -0.00445663   -0.00266214   -0.03970589
     atom    4 type  2   force =    -0.00445975   -0.00265906   -0.03970573
     atom    5 type  1   force =    -0.02567239   -0.01532228    0.00194995
     atom    6 type  1   force =    -0.02567218   -0.01532071    0.00195395
     atom    7 type  2   force =     0.01277733    0.00763534    0.01140318
     atom    8 type  2   force =     0.01278437    0.00762085    0.01140598
     atom    9 type  1   force =     0.00068536    0.00041032    0.00026477
     atom   10 type  1   force =     0.00068786    0.00040890    0.00026839
     atom   11 type  2   force =    -0.00080522   -0.00048390   -0.00001094
     atom   12 type  2   force =    -0.00080593   -0.00047843   -0.00001040

     Total force =     0.088871     Total SCF correction =     0.004566

     entering subroutine stress ...

     negative rho (up, down):  1.997E+00 0.000E+00
          total   stress  (Ry/bohr**3)                   (kbar)     P=  -16.35
  -0.00016738   0.00000233  -0.00002433        -24.62      0.34     -3.58
   0.00000233  -0.00016989  -0.00001452          0.34    -24.99     -2.14
  -0.00002433  -0.00001452   0.00000386         -3.58     -2.14      0.57

 !ASE

     Writing output data file calc.save

     General routines

     Parallel routines

   This run was terminated on:   2:47:47  25Dec2018

   JOB DONE.
Job  /afs/slac/g/suncat/bin/suncat-tsmpirun -x LD_LIBRARY_PATH -wdir /scratch/qe109041_flsvO pw.x -in pw.inp

TID   HOST_NAME   COMMAND_LINE            STATUS            TERMINATION_TIME
00000 suncat0040 pw.x -in pw.inp   Done                     12/25/2018 02:47:47
00001 suncat0040 pw.x -in pw.inp   Done                     12/25/2018 02:47:47
00002 suncat0040 pw.x -in pw.inp   Done                     12/25/2018 02:47:47
00003 suncat0040 pw.x -in pw.inp   Done                     12/25/2018 02:47:47
00004 suncat0040 pw.x -in pw.inp   Done                     12/25/2018 02:47:47
00005 suncat0040 pw.x -in pw.inp   Done                     12/25/2018 02:47:47
00006 suncat0040 pw.x -in pw.inp   Done                     12/25/2018 02:47:47
00007 suncat0040 pw.x -in pw.inp   Done                     12/25/2018 02:47:47
00008 suncat0179 pw.x -in pw.inp   Done                     12/25/2018 02:47:47
00009 suncat0179 pw.x -in pw.inp   Done                     12/25/2018 02:47:47
00010 suncat0179 pw.x -in pw.inp   Done                     12/25/2018 02:47:47
00011 suncat0179 pw.x -in pw.inp   Done                     12/25/2018 02:47:47
00012 suncat0179 pw.x -in pw.inp   Done                     12/25/2018 02:47:47
00013 suncat0179 pw.x -in pw.inp   Done                     12/25/2018 02:47:47
00014 suncat0179 pw.x -in pw.inp   Done                     12/25/2018 02:47:47
00015 suncat0179 pw.x -in pw.inp   Done                     12/25/2018 02:47:47
00016 suncat0147 pw.x -in pw.inp   Done                     12/25/2018 02:47:47
00017 suncat0147 pw.x -in pw.inp   Done                     12/25/2018 02:47:47
00018 suncat0147 pw.x -in pw.inp   Done                     12/25/2018 02:47:47
00019 suncat0147 pw.x -in pw.inp   Done                     12/25/2018 02:47:47
00020 suncat0147 pw.x -in pw.inp   Done                     12/25/2018 02:47:47
00021 suncat0147 pw.x -in pw.inp   Done                     12/25/2018 02:47:47
00022 suncat0147 pw.x -in pw.inp   Done                     12/25/2018 02:47:47
00023 suncat0147 pw.x -in pw.inp   Done                     12/25/2018 02:47:47
00024 suncat0146 pw.x -in pw.inp   Done                     12/25/2018 02:47:47
00025 suncat0146 pw.x -in pw.inp   Done                     12/25/2018 02:47:47
00026 suncat0146 pw.x -in pw.inp   Done                     12/25/2018 02:47:47
00027 suncat0146 pw.x -in pw.inp   Done                     12/25/2018 02:47:47
00028 suncat0146 pw.x -in pw.inp   Done                     12/25/2018 02:47:47
00029 suncat0146 pw.x -in pw.inp   Done                     12/25/2018 02:47:47
00030 suncat0146 pw.x -in pw.inp   Done                     12/25/2018 02:47:47
00031 suncat0146 pw.x -in pw.inp   Done                     12/25/2018 02:47:47
00032 suncat0272 pw.x -in pw.inp   Done                     12/25/2018 02:47:47
00033 suncat0272 pw.x -in pw.inp   Done                     12/25/2018 02:47:47
00034 suncat0272 pw.x -in pw.inp   Done                     12/25/2018 02:47:47
00035 suncat0272 pw.x -in pw.inp   Done                     12/25/2018 02:47:47
00036 suncat0272 pw.x -in pw.inp   Done                     12/25/2018 02:47:47
00037 suncat0272 pw.x -in pw.inp   Done                     12/25/2018 02:47:47
00038 suncat0272 pw.x -in pw.inp   Done                     12/25/2018 02:47:47
00039 suncat0272 pw.x -in pw.inp   Done                     12/25/2018 02:47:47
00040 suncat0271 pw.x -in pw.inp   Done                     12/25/2018 02:47:47
00041 suncat0271 pw.x -in pw.inp   Done                     12/25/2018 02:47:47
00042 suncat0271 pw.x -in pw.inp   Done                     12/25/2018 02:47:47
00043 suncat0271 pw.x -in pw.inp   Done                     12/25/2018 02:47:47
00044 suncat0271 pw.x -in pw.inp   Done                     12/25/2018 02:47:47
00045 suncat0271 pw.x -in pw.inp   Done                     12/25/2018 02:47:47
00046 suncat0271 pw.x -in pw.inp   Done                     12/25/2018 02:47:47
00047 suncat0271 pw.x -in pw.inp   Done                     12/25/2018 02:47:47
00048 suncat0260 pw.x -in pw.inp   Done                     12/25/2018 02:47:47
00049 suncat0260 pw.x -in pw.inp   Done                     12/25/2018 02:47:47
00050 suncat0260 pw.x -in pw.inp   Done                     12/25/2018 02:47:47
00051 suncat0260 pw.x -in pw.inp   Done                     12/25/2018 02:47:47
00052 suncat0260 pw.x -in pw.inp   Done                     12/25/2018 02:47:47
00053 suncat0260 pw.x -in pw.inp   Done                     12/25/2018 02:47:47
00054 suncat0260 pw.x -in pw.inp   Done                     12/25/2018 02:47:47
00055 suncat0260 pw.x -in pw.inp   Done                     12/25/2018 02:47:47
00056 suncat0259 pw.x -in pw.inp   Done                     12/25/2018 02:47:47
00057 suncat0259 pw.x -in pw.inp   Done                     12/25/2018 02:47:47
00058 suncat0259 pw.x -in pw.inp   Done                     12/25/2018 02:47:47
00059 suncat0259 pw.x -in pw.inp   Done                     12/25/2018 02:47:47
00060 suncat0259 pw.x -in pw.inp   Done                     12/25/2018 02:47:47
00061 suncat0259 pw.x -in pw.inp   Done                     12/25/2018 02:47:47
00062 suncat0259 pw.x -in pw.inp   Done                     12/25/2018 02:47:47
00063 suncat0259 pw.x -in pw.inp   Done                     12/25/2018 02:47:47