     Program PWSCF v.5.1rc2 (svn rev. 11289) starts on 18Dec2018 at 21:53:34

     Current dimensions of program PWSCF are:
     Max number of different atomic species (ntypx) = 10
     Max number of k-points (npk) =  40000
     Max angular momentum in pseudopotentials (lmaxx) =  3
     Presently stress not available with electric field

     IMPORTANT: XC functional enforced from input :
     Exchange-correlation      = BEEF-VDW ( 1  4 27 13 2)
     Any further DFT definition will be discarded
     Please, verify this is what you really want

     Subspace diagonalization in iterative solution of the eigenvalue problem:
     a serial algorithm will be used

     Found symmetry operation: I + ( -0.5000  0.0000  0.0000)
     This is a supercell, fractional translations are disabled

     Generating pointlists ...
     new r_m :   0.4125 (alat units)  0.7795 (a.u.) for type    1
     new r_m :   0.4125 (alat units)  0.7795 (a.u.) for type    2

     bravais-lattice index     =            0
     lattice parameter (alat)  =       1.8897  a.u.
     unit-cell volume          =    3900.2137 (a.u.)^3
     number of atoms/cell      =           12
     number of atomic types    =            2
     number of electrons       =       204.00
     number of Kohn-Sham states=          132
     kinetic-energy cutoff     =      36.7493  Ry
     charge density cutoff     =     367.4932  Ry
     convergence threshold     =      1.0E-06
     mixing beta               =       0.1000
     number of iterations used =           10  plain     mixing
     Exchange-correlation      = BEEF-VDW ( 1  4 27 13 2)
     nstep                     =           50

     celldm(1)=   1.889726  celldm(2)=   0.000000  celldm(3)=   0.000000
     celldm(4)=   0.000000  celldm(5)=   0.000000  celldm(6)=   0.000000

     crystal axes: (cart. coord. in units of alat)
               a(1) = (   5.235715   0.000000   0.000000 )
               a(2) = (  -2.617857   4.546285   0.000000 )
               a(3) = (   0.000000   0.000000  24.280585 )

     reciprocal axes: (cart. coord. in units 2 pi/alat)
               b(1) = (  0.190996  0.109980  0.000000 )
               b(2) = (  0.000000  0.219960  0.000000 )
               b(3) = (  0.000000  0.000000  0.041185 )

     PseudoPot. # 1 for Ni read from file:
     /afs/slac.stanford.edu/u/if/mamunm/psp/gbrv1.5pbe/Ni.UPF
     MD5 check sum: 1ee80287db30b12d2bc1f57a5b5d6409
     Pseudo is Ultrasoft + core correction, Zval = 18.0
     Generated by new atomic code, or converted to UPF format
     Using radial grid of  865 points,  6 beta functions with:
                l(1) =   0
                l(2) =   0
                l(3) =   1
                l(4) =   1
                l(5) =   2
                l(6) =   2
     Q(r) pseudized with 10 coefficients,  rinner =    0.980   0.980   0.980
                                                       0.980   0.980

     PseudoPot. # 2 for Os read from file:
     /afs/slac.stanford.edu/u/if/mamunm/psp/gbrv1.5pbe/Os.UPF
     MD5 check sum: a3fb40a04f0c37c25c34bbc47164c9a8
     Pseudo is Ultrasoft + core correction, Zval = 16.0
     Generated by new atomic code, or converted to UPF format
     Using radial grid of  983 points,  8 beta functions with:
                l(1) =   0
                l(2) =   0
                l(3) =   1
                l(4) =   1
                l(5) =   2
                l(6) =   2
                l(7) =   3
                l(8) =   3
     Q(r) pseudized with  8 coefficients,  rinner =    1.150   1.150   1.150
                                                       1.150   1.150   1.150
                                                       1.150

     vdW kernel table read from file vdW_kernel_table
     MD5 check sum: 095c7af220d748ca6e76c0b4c6cfb241

     atomic species   valence    mass     pseudopotential
        Ni1           18.00    58.69340     Ni( 1.00)
        Os1           16.00   190.23000     Os( 1.00)

     Starting magnetic structure
     atomic species   magnetization
        Ni1          0.111
        Os1          0.125

     No symmetry found

   Cartesian axes

     site n.     atom                  positions (alat units)
         1           Ni1 tau(   1) = (   0.0000000   0.0000000  10.0000000  )
         2           Ni1 tau(   2) = (   2.6178575   0.0000000  10.0000000  )
         3           Os1 tau(   3) = (   1.3089287   2.2731426  10.0000000  )
         4           Os1 tau(   4) = (  -1.3089287   2.2731426  10.0000000  )
         5           Ni1 tau(   5) = (   2.6178575   1.5074236  12.1402924  )
         6           Ni1 tau(   6) = (  -0.0000000   1.5074236  12.1402924  )
         7           Os1 tau(   7) = (  -1.3089287   3.7805662  12.1402924  )
         8           Os1 tau(   8) = (   1.3089287   3.7805662  12.1402924  )
         9           Ni1 tau(   9) = (   0.0000000   3.0148473  14.2805848  )
        10           Ni1 tau(  10) = (   2.6178575   3.0148473  14.2805848  )
        11           Os1 tau(  11) = (   3.9267862   0.7417047  14.2805848  )
        12           Os1 tau(  12) = (   1.3089287   0.7417047  14.2805848  )

     number of k points=    40  Fermi-Dirac smearing, width (Ry)=  0.0110
                       cart. coord. in units 2pi/alat
        k(    1) = (   0.0000000   0.0000000   0.0000000), wk =   0.0277778
        k(    2) = (   0.0000000   0.0366600   0.0000000), wk =   0.0555556
        k(    3) = (   0.0000000   0.0733199   0.0000000), wk =   0.0555556
        k(    4) = (   0.0000000  -0.1099799   0.0000000), wk =   0.0277778
        k(    5) = (   0.0318326   0.0183300   0.0000000), wk =   0.0555556
        k(    6) = (   0.0318326   0.0549900   0.0000000), wk =   0.0555556
        k(    7) = (   0.0318326   0.0916499   0.0000000), wk =   0.0555556
        k(    8) = (   0.0318326  -0.0916499   0.0000000), wk =   0.0555556
        k(    9) = (   0.0318326  -0.0549900   0.0000000), wk =   0.0555556
        k(   10) = (   0.0318326  -0.0183300   0.0000000), wk =   0.0555556
        k(   11) = (   0.0636653   0.0366600   0.0000000), wk =   0.0555556
        k(   12) = (   0.0636653   0.0733199   0.0000000), wk =   0.0555556
        k(   13) = (   0.0636653   0.1099799   0.0000000), wk =   0.0555556
        k(   14) = (   0.0636653  -0.0733199   0.0000000), wk =   0.0555556
        k(   15) = (   0.0636653  -0.0366600   0.0000000), wk =   0.0555556
        k(   16) = (   0.0636653   0.0000000   0.0000000), wk =   0.0555556
        k(   17) = (  -0.0954979  -0.0549900   0.0000000), wk =   0.0277778
        k(   18) = (  -0.0954979  -0.0183300   0.0000000), wk =   0.0555556
        k(   19) = (  -0.0954979   0.0183300   0.0000000), wk =   0.0555556
        k(   20) = (  -0.0954979  -0.1649699   0.0000000), wk =   0.0277778
        k(   21) = (   0.0000000   0.0000000   0.0000000), wk =   0.0277778
        k(   22) = (   0.0000000   0.0366600   0.0000000), wk =   0.0555556
        k(   23) = (   0.0000000   0.0733199   0.0000000), wk =   0.0555556
        k(   24) = (   0.0000000  -0.1099799   0.0000000), wk =   0.0277778
        k(   25) = (   0.0318326   0.0183300   0.0000000), wk =   0.0555556
        k(   26) = (   0.0318326   0.0549900   0.0000000), wk =   0.0555556
        k(   27) = (   0.0318326   0.0916499   0.0000000), wk =   0.0555556
        k(   28) = (   0.0318326  -0.0916499   0.0000000), wk =   0.0555556
        k(   29) = (   0.0318326  -0.0549900   0.0000000), wk =   0.0555556
        k(   30) = (   0.0318326  -0.0183300   0.0000000), wk =   0.0555556
        k(   31) = (   0.0636653   0.0366600   0.0000000), wk =   0.0555556
        k(   32) = (   0.0636653   0.0733199   0.0000000), wk =   0.0555556
        k(   33) = (   0.0636653   0.1099799   0.0000000), wk =   0.0555556
        k(   34) = (   0.0636653  -0.0733199   0.0000000), wk =   0.0555556
        k(   35) = (   0.0636653  -0.0366600   0.0000000), wk =   0.0555556
        k(   36) = (   0.0636653   0.0000000   0.0000000), wk =   0.0555556
        k(   37) = (  -0.0954979  -0.0549900   0.0000000), wk =   0.0277778
        k(   38) = (  -0.0954979  -0.0183300   0.0000000), wk =   0.0555556
        k(   39) = (  -0.0954979   0.0183300   0.0000000), wk =   0.0555556
        k(   40) = (  -0.0954979  -0.1649699   0.0000000), wk =   0.0277778

     Largest allocated arrays     est. size (Mb)     dimensions
     Largest temporary arrays     est. size (Mb)     dimensions

     Check: negative/imaginary core charge=   -0.000001    0.000000

     Initial potential from superposition of free atoms
     Check: negative starting charge=(component1):   -0.421479
     Check: negative starting charge=(component2):   -0.327822

     starting charge  188.99978, renormalised to  204.00000

     negative rho (up, down):  4.549E-01 3.538E-01

     *
     * You are using vdW-DF for exchange-correlation in this calculation.
     * Please cite the following three references that made this development
     * possible:
     *
     *   M. Dion, H. Rydberg, E. Schroder, D. C. Langreth, and
     *   B. I. Lundqvist, Phys. Rev. Lett. 92, 246401 (2004).
     *
     *   T. Thonhauser, V. R. Cooper, S. Li, A. Puzder, P. Hyldgaard, and
     *   D. C. Langreth, Phys. Rev. B 76, 125112 (2007).
     *
     *   G. Roman-Perez and J. M. Soler, Phys. Rev. Lett. 103, 096102 (2009).
     *
     *
     * If you are using vdW-DF2, please also cite:
     *
     *   K. Lee, E. D. Murray, L. Kong, B. I. Lundqvist, and
     *   D. C. Langreth, Phys. Rev. B 82, 081101(R) (2010).
     *
     *
     * If you are calculating the stress with vdW-DF, please also cite:
     *
     *   R. Sabatini, E. Kucukbenli, B. Kolb, T. Thonhauser, and
     *   S. de Gironcoli, J. Phys.: Condens. Matter 24, 424209 (2012).
     *

     Carrying out vdW-DF run using the following parameters:

     Nqs =      20    Nr_points =    1024   r_max =   100.000
     q_mesh =
               0.00001000     0.04494208     0.09755937     0.15916263
               0.23128650     0.31572767     0.41458969     0.53033537
               0.66584808     0.82450364     1.01025438     1.22772762
               1.48234092     1.78043706     2.12944203     2.53805004
               3.01644009     3.57652955     4.23227104     5.00000000

     Gradients computed in reciprocal space

     Adding external electric field

     Computed dipole along edir(3) :
        Dipole                0.0000 Ry au,          0.0000 Debye
        Dipole field          0.0000 Ry au

        Potential amp.       -0.0000 Ry
        Total length         44.7366 bohr

[...]

     Starting wfc are  156 randomized atomic wfcs

     Self-consistent Calculation

     iteration #  1     ecut=    36.75 Ry     beta=0.10
     Davidson diagonalization with overlap
     ethr =  1.00E-02,  avg # of iterations =  7.3

[...]

     Magnetic moment per site:
     atom:    1    charge:    9.6146    magn:    1.0184    constr:    0.0000
     atom:    2    charge:    9.6146    magn:    1.0184    constr:    0.0000
     atom:    3    charge:    2.3313    magn:    0.2666    constr:    0.0000
     atom:    4    charge:    2.3313    magn:    0.2666    constr:    0.0000
[...]

     PseudoPot. # 2 for Os read from file:
     /afs/slac.stanford.edu/u/if/mamunm/psp/gbrv1.5pbe/Os.UPF
     MD5 check sum: a3fb40a04f0c37c25c34bbc47164c9a8
     Pseudo is Ultrasoft + core correction, Zval = 16.0
     Generated by new atomic code, or converted to UPF format
     Using radial grid of  983 points,  8 beta functions with:
                l(1) =   0
                l(2) =   0
                l(3) =   1
                l(4) =   1
                l(5) =   2
                l(6) =   2
                l(7) =   3
                l(8) =   3
     Q(r) pseudized with  8 coefficients,  rinner =    1.150   1.150   1.150
                                                       1.150   1.150   1.150
                                                       1.150

     vdW kernel table read from file vdW_kernel_table
     MD5 check sum: 095c7af220d748ca6e76c0b4c6cfb241

     atomic species   valence    mass     pseudopotential
        Ni1           18.00    58.69340     Ni( 1.00)
        Os1           16.00   190.23000     Os( 1.00)

     Starting magnetic structure
     atomic species   magnetization
        Ni1          0.111
        Os1          0.125

     No symmetry found

   Cartesian axes

     site n.     atom                  positions (alat units)
         1           Ni1 tau(   1) = (   0.0000000   0.0000000  10.0000000  )
         2           Ni1 tau(   2) = (   2.6178575   0.0000000  10.0000000  )
         3           Os1 tau(   3) = (   1.3089287   2.2731426  10.0000000  )
         4           Os1 tau(   4) = (  -1.3089287   2.2731426  10.0000000  )
         5           Ni1 tau(   5) = (   2.6178575   1.5074236  12.1402924  )
         6           Ni1 tau(   6) = (  -0.0000000   1.5074236  12.1402924  )
         7           Os1 tau(   7) = (  -1.3089287   3.7805662  12.1402924  )
         8           Os1 tau(   8) = (   1.3089287   3.7805662  12.1402924  )
         9           Ni1 tau(   9) = (   0.0000002   2.9849089  14.2212233  )
        10           Ni1 tau(  10) = (   2.6178575   2.9849994  14.2213258  )
        11           Os1 tau(  11) = (   3.9267385   0.6889794  14.2197980  )
        12           Os1 tau(  12) = (   1.3089760   0.6889793  14.2197980  )

     number of k points=    40  Fermi-Dirac smearing, width (Ry)=  0.0110
                       cart. coord. in units 2pi/alat
        k(    1) = (   0.0000000   0.0000000   0.0000000), wk =   0.0277778
        k(    2) = (   0.0000000   0.0366600   0.0000000), wk =   0.0555556
        k(    3) = (   0.0000000   0.0733199   0.0000000), wk =   0.0555556
        k(    4) = (   0.0000000  -0.1099799   0.0000000), wk =   0.0277778
        k(    5) = (   0.0318326   0.0183300   0.0000000), wk =   0.0555556
        k(    6) = (   0.0318326   0.0549900   0.0000000), wk =   0.0555556
        k(    7) = (   0.0318326   0.0916499   0.0000000), wk =   0.0555556
        k(    8) = (   0.0318326  -0.0916499   0.0000000), wk =   0.0555556
        k(    9) = (   0.0318326  -0.0549900   0.0000000), wk =   0.0555556
        k(   10) = (   0.0318326  -0.0183300   0.0000000), wk =   0.0555556
        k(   11) = (   0.0636653   0.0366600   0.0000000), wk =   0.0555556
        k(   12) = (   0.0636653   0.0733199   0.0000000), wk =   0.0555556
        k(   13) = (   0.0636653   0.1099799   0.0000000), wk =   0.0555556
        k(   14) = (   0.0636653  -0.0733199   0.0000000), wk =   0.0555556
        k(   15) = (   0.0636653  -0.0366600   0.0000000), wk =   0.0555556
        k(   16) = (   0.0636653   0.0000000   0.0000000), wk =   0.0555556
        k(   17) = (  -0.0954979  -0.0549900   0.0000000), wk =   0.0277778
        k(   18) = (  -0.0954979  -0.0183300   0.0000000), wk =   0.0555556
        k(   19) = (  -0.0954979   0.0183300   0.0000000), wk =   0.0555556
        k(   20) = (  -0.0954979  -0.1649699   0.0000000), wk =   0.0277778
        k(   21) = (   0.0000000   0.0000000   0.0000000), wk =   0.0277778
        k(   22) = (   0.0000000   0.0366600   0.0000000), wk =   0.0555556
        k(   23) = (   0.0000000   0.0733199   0.0000000), wk =   0.0555556
        k(   24) = (   0.0000000  -0.1099799   0.0000000), wk =   0.0277778
        k(   25) = (   0.0318326   0.0183300   0.0000000), wk =   0.0555556
        k(   26) = (   0.0318326   0.0549900   0.0000000), wk =   0.0555556
        k(   27) = (   0.0318326   0.0916499   0.0000000), wk =   0.0555556
        k(   28) = (   0.0318326  -0.0916499   0.0000000), wk =   0.0555556
        k(   29) = (   0.0318326  -0.0549900   0.0000000), wk =   0.0555556
        k(   30) = (   0.0318326  -0.0183300   0.0000000), wk =   0.0555556
        k(   31) = (   0.0636653   0.0366600   0.0000000), wk =   0.0555556
        k(   32) = (   0.0636653   0.0733199   0.0000000), wk =   0.0555556
        k(   33) = (   0.0636653   0.1099799   0.0000000), wk =   0.0555556
        k(   34) = (   0.0636653  -0.0733199   0.0000000), wk =   0.0555556
        k(   35) = (   0.0636653  -0.0366600   0.0000000), wk =   0.0555556
        k(   36) = (   0.0636653   0.0000000   0.0000000), wk =   0.0555556
        k(   37) = (  -0.0954979  -0.0549900   0.0000000), wk =   0.0277778
        k(   38) = (  -0.0954979  -0.0183300   0.0000000), wk =   0.0555556
        k(   39) = (  -0.0954979   0.0183300   0.0000000), wk =   0.0555556
        k(   40) = (  -0.0954979  -0.1649699   0.0000000), wk =   0.0277778

     Largest allocated arrays     est. size (Mb)     dimensions
     Largest temporary arrays     est. size (Mb)     dimensions

     Check: negative/imaginary core charge=   -0.000001    0.000000

     Initial potential from superposition of free atoms
     Check: negative starting charge=(component1):   -0.421151
     Check: negative starting charge=(component2):   -0.327566

     starting charge  188.99978, renormalised to  204.00000

[...]

     *
     * You are using vdW-DF for exchange-correlation in this calculation.
     * Please cite the following three references that made this development
     * possible:
     *
     *   M. Dion, H. Rydberg, E. Schroder, D. C. Langreth, and
     *   B. I. Lundqvist, Phys. Rev. Lett. 92, 246401 (2004).
     *
     *   T. Thonhauser, V. R. Cooper, S. Li, A. Puzder, P. Hyldgaard, and
     *   D. C. Langreth, Phys. Rev. B 76, 125112 (2007).
     *
     *   G. Roman-Perez and J. M. Soler, Phys. Rev. Lett. 103, 096102 (2009).
     *
     *
     * If you are using vdW-DF2, please also cite:
     *
     *   K. Lee, E. D. Murray, L. Kong, B. I. Lundqvist, and
     *   D. C. Langreth, Phys. Rev. B 82, 081101(R) (2010).
     *
     *
     * If you are calculating the stress with vdW-DF, please also cite:
     *
     *   R. Sabatini, E. Kucukbenli, B. Kolb, T. Thonhauser, and
     *   S. de Gironcoli, J. Phys.: Condens. Matter 24, 424209 (2012).
     *

     Carrying out vdW-DF run using the following parameters:

     Nqs =      20    Nr_points =    1024   r_max =   100.000
     q_mesh =
               0.00001000     0.04494208     0.09755937     0.15916263
               0.23128650     0.31572767     0.41458969     0.53033537
               0.66584808     0.82450364     1.01025438     1.22772762
               1.48234092     1.78043706     2.12944203     2.53805004
               3.01644009     3.57652955     4.23227104     5.00000000

     Gradients computed in reciprocal space

[...]

     Starting wfc are  156 randomized atomic wfcs

     Self-consistent Calculation

[...]

     total energy              =   -3265.03799147 Ry
     Harris-Foulkes estimate   =   -3265.03799060 Ry
     estimated scf accuracy    <       0.00000112 Ry

[...]

     iteration # 38     ecut=    36.75 Ry     beta=0.10
     Davidson diagonalization with overlap
     ethr =  5.47E-10,  avg # of iterations =  1.3

[...]

     negative rho (up, down):  3.744E-01 3.743E-01

[...]

     Adding external electric field

     Computed dipole along edir(3) :
        Dipole                0.0105 Ry au,          0.0268 Debye
        Dipole field          0.0000 Ry au

        Potential amp.       -0.0030 Ry
        Total length         44.7366 bohr

     Magnetic moment per site:
     atom:    1    charge:    9.3457    magn:    0.0020    constr:    0.0000
     atom:    2    charge:    9.3456    magn:    0.0020    constr:    0.0000
     atom:    3    charge:    2.1816    magn:    0.0001    constr:    0.0000
     atom:    4    charge:    2.1816    magn:    0.0001    constr:    0.0000
     atom:    5    charge:    9.3495    magn:   -0.0018    constr:    0.0000
     atom:    6    charge:    9.3495    magn:   -0.0018    constr:    0.0000
     atom:    7    charge:    2.1896    magn:   -0.0001    constr:    0.0000
     atom:    8    charge:    2.1896    magn:   -0.0001    constr:    0.0000
     atom:    9    charge:    9.3363    magn:   -0.0027    constr:    0.0000
     atom:   10    charge:    9.3362    magn:   -0.0027    constr:    0.0000
     atom:   11    charge:    2.1805    magn:   -0.0002    constr:    0.0000
     atom:   12    charge:    2.1805    magn:   -0.0002    constr:    0.0000

     End of self-consistent calculation

 ------ SPIN UP ------------

[...]

 ------ SPIN DOWN ----------

[...]

          k = 0.0637 0.0000 0.0000 ( 14671 PWs)   bands (ev):

[...]

          k =-0.0955-0.1650 0.0000 ( 14654 PWs)   bands (ev):

  -101.8583-101.8581-101.5625-101.5624-101.5115-101.5113 -85.2322 -85.2322
   -84.6815 -84.6814 -84.6147 -84.6147 -62.3403 -62.3401 -62.2177 -62.2175
   -62.1547 -62.1546 -62.0565 -62.0564 -62.0152 -62.0151 -61.9284 -61.9283
   -61.8791 -61.8790 -61.8330 -61.8329 -61.7684 -61.7683 -44.6906 -44.6906
   -44.4785 -44.4785 -44.4770 -44.4770 -44.0375 -44.0372 -43.9891 -43.9891
   -43.9180 -43.9179 -43.8864 -43.8864 -43.8448 -43.8448 -43.7517 -43.7517
    -5.2590  -5.2589  -3.7022  -3.7022  -3.3394  -3.3394  -3.0437  -3.0436
    -2.6535  -2.6535  -2.2691  -2.2690  -2.1053  -2.1052  -1.7974  -1.7974
    -1.4828  -1.4827  -1.3805  -1.3804  -1.2087  -1.2086  -0.7971  -0.7970
    -0.6655  -0.6654  -0.5257  -0.5256  -0.3805  -0.3805  -0.2999  -0.2998
    -0.1616  -0.1616  -0.1093  -0.1092  -0.0448  -0.0448   0.0051   0.0051
     0.3386   0.3387   0.5782   0.5783   0.8668   0.8668   0.9295   0.9296
     1.0436   1.0437   1.2076   1.2076   1.3044   1.3044   1.4350   1.4351
     1.7722   1.7723   2.0285   2.0287   2.5372   2.5373   2.7389   2.7389
     3.9890   3.9891   4.5844   4.5844   5.3568   5.3569   6.3762   6.3763
     7.5514   7.5514   8.0556   8.0556   8.5888   8.5888   8.7504   8.7504
     9.8114   9.8114  10.0165  10.0166

     the Fermi energy is     1.8038 ev

!    total energy              =   -3265.03799909 Ry
     Harris-Foulkes estimate   =   -3265.03799176 Ry
     estimated scf accuracy    <       0.00000068 Ry

     The total energy is the sum of the following terms:

     one-electron contribution =  -27777.08380519 Ry
     hartree contribution      =   13884.70043892 Ry
     xc contribution           =    -452.65889073 Ry
     ewald contribution        =   11080.09141627 Ry
     electric field correction =       0.00000036 Ry
     smearing contrib. (-TS)   =      -0.08715872 Ry

     total magnetization       =    -0.01 Bohr mag/cell
     absolute magnetization    =     0.04 Bohr mag/cell

     convergence has been achieved in  38 iterations

 BEEF-vdW xc energy contributions
           1 :   -397.721911956547
           2 :    364.684958055655
           3 :   -307.802981563846
           4 :    241.597118600172
           5 :   -180.378954269288
           6 :    133.565757834851
           7 :   -103.691029878382
           8 :    87.4587331330153
           9 :   -78.8108390072666
          10 :    72.2126584020594
          11 :   -64.6528331349057
          12 :    55.8050851904570
          13 :   -46.8775836103907
          14 :    39.1759549960508
          15 :   -33.2553934990053
          16 :    28.8977184575330
          17 :   -25.5941107239020
          18 :    22.9968751953741
          19 :   -21.0260331903619
          20 :    19.6557693869706
          21 :   -18.6664998451388
          22 :    17.6161971171730
          23 :   -16.0825447716471
          24 :    13.9739262591600
          25 :   -11.6512886587201
          26 :    9.73008156266428
          27 :   -8.68624150313605
          28 :    8.52937920213600
          29 :   -8.77853240826153
          30 :    8.75956578777601
          31 :   -35.3645860331837
          32 :   -25.9556463124048

     Forces acting on atoms (Ry/au):

     negative rho (up, down):  3.744E-01 3.743E-01
     atom    1 type  1   force =    -0.00000018   -0.00338692    0.00923944
     atom    2 type  1   force =     0.00000013   -0.00341212    0.00922635
     atom    3 type  2   force =     0.00001272    0.01015716    0.01695469
     atom    4 type  2   force =    -0.00001289    0.01015731    0.01695448
     atom    5 type  1   force =     0.00000026    0.00196025   -0.01019379
     atom    6 type  1   force =    -0.00000048    0.00196263   -0.01018990
     atom    7 type  2   force =    -0.00001029   -0.00602001   -0.01684454
     atom    8 type  2   force =     0.00001056   -0.00602038   -0.01684443
     atom    9 type  1   force =    -0.00000026   -0.00121548    0.00071148
     atom   10 type  1   force =     0.00000028   -0.00120172    0.00071525
     atom   11 type  2   force =     0.00000517   -0.00149057    0.00013555
     atom   12 type  2   force =    -0.00000503   -0.00149013    0.00013543

     Total force =     0.042880     Total SCF correction =     0.002339

     entering subroutine stress ...

     negative rho (up, down):  3.744E-01 3.743E-01
          total   stress  (Ry/bohr**3)                   (kbar)     P=  -53.31
  -0.00045421  -0.00000000   0.00000000        -66.82     -0.00      0.00
  -0.00000000  -0.00037114  -0.00002069         -0.00    -54.60     -3.04
   0.00000000  -0.00002069  -0.00026186          0.00     -3.04    -38.52

 !ASE

     Writing output data file calc.save

     General routines

     Parallel routines

   This run was terminated on:   0: 8:10  19Dec2018

   JOB DONE.
Job  /afs/slac/g/suncat/bin/suncat-tsmpirun -x LD_LIBRARY_PATH -wdir /scratch/qe530366_7YEbO pw.x -in pw.inp

TID   HOST_NAME   COMMAND_LINE            STATUS            TERMINATION_TIME
00000 suncat2052 pw.x -in pw.inp   Done                     12/19/2018 00:08:10
00001 suncat2052 pw.x -in pw.inp   Done                     12/19/2018 00:08:10
00002 suncat2052 pw.x -in pw.inp   Done                     12/19/2018 00:08:10
00003 suncat2052 pw.x -in pw.inp   Done                     12/19/2018 00:08:10
00004 suncat2052 pw.x -in pw.inp   Done                     12/19/2018 00:08:10
00005 suncat2052 pw.x -in pw.inp   Done                     12/19/2018 00:08:10
00006 suncat2052 pw.x -in pw.inp   Done                     12/19/2018 00:08:10
00007 suncat2052 pw.x -in pw.inp   Done                     12/19/2018 00:08:10
00008 suncat2052 pw.x -in pw.inp   Done                     12/19/2018 00:08:10
00009 suncat2052 pw.x -in pw.inp   Done                     12/19/2018 00:08:10
00010 suncat2052 pw.x -in pw.inp   Done                     12/19/2018 00:08:10
00011 suncat2052 pw.x -in pw.inp   Done                     12/19/2018 00:08:10
00012 suncat2052 pw.x -in pw.inp   Done                     12/19/2018 00:08:10
00013 suncat2052 pw.x -in pw.inp   Done                     12/19/2018 00:08:10
00014 suncat2052 pw.x -in pw.inp   Done                     12/19/2018 00:08:10
00015 suncat2052 pw.x -in pw.inp   Done                     12/19/2018 00:08:10
00016 suncat2051 pw.x -in pw.inp   Done                     12/19/2018 00:08:10
00017 suncat2051 pw.x -in pw.inp   Done                     12/19/2018 00:08:10
00018 suncat2051 pw.x -in pw.inp   Done                     12/19/2018 00:08:10
00019 suncat2051 pw.x -in pw.inp   Done                     12/19/2018 00:08:10
00020 suncat2051 pw.x -in pw.inp   Done                     12/19/2018 00:08:10
00021 suncat2051 pw.x -in pw.inp   Done                     12/19/2018 00:08:10
00022 suncat2051 pw.x -in pw.inp   Done                     12/19/2018 00:08:10
00023 suncat2051 pw.x -in pw.inp   Done                     12/19/2018 00:08:10
00024 suncat2051 pw.x -in pw.inp   Done                     12/19/2018 00:08:10
00025 suncat2051 pw.x -in pw.inp   Done                     12/19/2018 00:08:10
00026 suncat2051 pw.x -in pw.inp   Done                     12/19/2018 00:08:10
00027 suncat2051 pw.x -in pw.inp   Done                     12/19/2018 00:08:10
00028 suncat2051 pw.x -in pw.inp   Done                     12/19/2018 00:08:10
00029 suncat2051 pw.x -in pw.inp   Done                     12/19/2018 00:08:10
00030 suncat2051 pw.x -in pw.inp   Done                     12/19/2018 00:08:10
00031 suncat2051 pw.x -in pw.inp   Done                     12/19/2018 00:08:10