     Program PWSCF v.5.1rc2 (svn rev. 11289) starts on 29Dec2018 at 21: 9:11

     Current dimensions of program PWSCF are:
     Max number of different atomic species (ntypx) = 10
     Max number of k-points (npk) =  40000
     Max angular momentum in pseudopotentials (lmaxx) =  3
     Presently stress not available with electric field

     IMPORTANT: XC functional enforced from input :
     Exchange-correlation      = BEEF-VDW ( 1  4 27 13 2)
     Any further DFT definition will be discarded
     Please, verify this is what you really want

     Subspace diagonalization in iterative solution of the eigenvalue problem:
     a serial algorithm will be used

     Found symmetry operation: I + ( -0.5000  0.0000  0.0000)
     This is a supercell, fractional translations are disabled

     bravais-lattice index     =            0
     lattice parameter (alat)  =       1.8897  a.u.
     unit-cell volume          =    4226.5298 (a.u.)^3
     number of atoms/cell      =           12
     number of atomic types    =            2
     number of electrons       =       186.00
     number of Kohn-Sham states=          123
     kinetic-energy cutoff     =      36.7493  Ry
     charge density cutoff     =     367.4932  Ry
     convergence threshold     =      1.0E-06
     mixing beta               =       0.1000
     number of iterations used =           10  plain     mixing
     Exchange-correlation      = BEEF-VDW ( 1  4 27 13 2)
     nstep                     =           50

     celldm(1)=   1.889726  celldm(2)=   0.000000  celldm(3)=   0.000000
     celldm(4)=   0.000000  celldm(5)=   0.000000  celldm(6)=   0.000000

     crystal axes: (cart. coord. in units of alat)
               a(1) = (   5.438273   0.000000   0.000000 )
               a(2) = (  -2.719137   4.711946   0.000000 )
               a(3) = (   0.000000   0.000000  24.441397 )

     reciprocal axes: (cart. coord. in units 2 pi/alat)
               b(1) = (  0.183882  0.106113  0.000000 )
               b(2) = (  0.000000  0.212227  0.000000 )
               b(3) = (  0.000000  0.000000  0.040914 )

     PseudoPot. # 1 for Tc read from file:
     /afs/slac.stanford.edu/u/if/mamunm/psp/gbrv1.5pbe/Tc.UPF
     MD5 check sum: 9eb49e5b028550b2339a02317eb7b844
     Pseudo is Ultrasoft + core correction, Zval = 15.0
     Generated by new atomic code, or converted to UPF format
     Using radial grid of  965 points,  6 beta functions with:
                l(1) =   0
                l(2) =   0
                l(3) =   1
                l(4) =   1
                l(5) =   2
                l(6) =   2
     Q(r) pseudized with  8 coefficients,  rinner =    1.300   1.300   1.300
                                                       1.300   1.300

     PseudoPot. # 2 for Ru read from file:
     /afs/slac.stanford.edu/u/if/mamunm/psp/gbrv1.5pbe/Ru.UPF
     MD5 check sum: 7158a806dd851261a58e6920c40ebe78
     Pseudo is Ultrasoft + core correction, Zval = 16.0
     Generated by new atomic code, or converted to UPF format
     Using radial grid of  967 points,  6 beta functions with:
                l(1) =   0
                l(2) =   0
                l(3) =   1
                l(4) =   1
                l(5) =   2
                l(6) =   2
     Q(r) pseudized with  8 coefficients,  rinner =    1.300   1.300   1.300
                                                       1.300   1.300

     vdW kernel table read from file vdW_kernel_table
     MD5 check sum: 095c7af220d748ca6e76c0b4c6cfb241

     atomic species   valence    mass     pseudopotential
        Tc1           15.00    97.90721     Tc( 1.00)
        Ru1           16.00   101.07000     Ru( 1.00)

     No symmetry found

   Cartesian axes

     site n.     atom                  positions (alat units)
         1           Tc1 tau(   1) = (   0.0000000   0.0000000  10.0000000  )
         2           Tc1 tau(   2) = (   2.7191366   0.0000000  10.0000000  )
         3           Ru1 tau(   3) = (   1.3595683   2.3559729  10.0000000  )
         4           Ru1 tau(   4) = (  -1.3595683   2.3559729  10.0000000  )
         5           Tc1 tau(   5) = (   2.7191366   1.5691402  12.2206987  )
         6           Tc1 tau(   6) = (  -0.0000000   1.5691402  12.2206987  )
         7           Ru1 tau(   7) = (  -1.3595683   3.9251131  12.2206987  )
         8           Ru1 tau(   8) = (   1.3595683   3.9251131  12.2206987  )
         9           Tc1 tau(   9) = (  -0.0000000   3.1382804  14.4413974  )
        10           Tc1 tau(  10) = (   2.7191366   3.1382804  14.4413974  )
        11           Ru1 tau(  11) = (   4.0787049   0.7823075  14.4413974  )
        12           Ru1 tau(  12) = (   1.3595683   0.7823075  14.4413974  )

     number of k points=    20  Fermi-Dirac smearing, width (Ry)=  0.0110
                       cart. coord. in units 2pi/alat
        k(    1) = (   0.0000000   0.0000000   0.0000000), wk =   0.0555556
        k(    2) = (   0.0000000   0.0353711   0.0000000), wk =   0.1111111
        k(    3) = (   0.0000000   0.0707422   0.0000000), wk =   0.1111111
        k(    4) = (   0.0000000  -0.1061133   0.0000000), wk =   0.0555556
        k(    5) = (   0.0306470   0.0176855   0.0000000), wk =   0.1111111
        k(    6) = (   0.0306470   0.0530566   0.0000000), wk =   0.1111111
        k(    7) = (   0.0306470   0.0884277   0.0000000), wk =   0.1111111
        k(    8) = (   0.0306470  -0.0884277   0.0000000), wk =   0.1111111
        k(    9) = (   0.0306470  -0.0530566   0.0000000), wk =   0.1111111
        k(   10) = (   0.0306470  -0.0176855   0.0000000), wk =   0.1111111
        k(   11) = (   0.0612940   0.0353711   0.0000000), wk =   0.1111111
        k(   12) = (   0.0612940   0.0707422   0.0000000), wk =   0.1111111
        k(   13) = (   0.0612940   0.1061133   0.0000000), wk =   0.1111111
        k(   14) = (   0.0612940  -0.0707422   0.0000000), wk =   0.1111111
        k(   15) = (   0.0612940  -0.0353711   0.0000000), wk =   0.1111111
        k(   16) = (   0.0612940   0.0000000   0.0000000), wk =   0.1111111
        k(   17) = (  -0.0919409  -0.0530566   0.0000000), wk =   0.0555556
        k(   18) = (  -0.0919409  -0.0176855   0.0000000), wk =   0.1111111
        k(   19) = (  -0.0919409   0.0176855   0.0000000), wk =   0.1111111
        k(   20) = (  -0.0919409  -0.1591699   0.0000000), wk =   0.0555556

     Largest allocated arrays     est. size (Mb)     dimensions
     Largest temporary arrays     est. size (Mb)     dimensions

     Check: negative/imaginary core charge=   -0.000016    0.000000

     Initial potential from superposition of free atoms
     Check: negative starting charge=   -1.189486

     starting charge  173.99974, renormalised to  186.00000

     negative rho (up, down):  1.272E+00 0.000E+00

     *
     * You are using vdW-DF for exchange-correlation in this calculation.
     * Please cite the following three references that made this development
     * possible:
     *
     *   M. Dion, H. Rydberg, E. Schroder, D. C. Langreth, and
     *   B. I. Lundqvist, Phys. Rev. Lett. 92, 246401 (2004).
     *
     *   T. Thonhauser, V. R. Cooper, S. Li, A. Puzder, P. Hyldgaard, and
     *   D. C. Langreth, Phys. Rev. B 76, 125112 (2007).
     *
     *   G. Roman-Perez and J. M. Soler, Phys. Rev. Lett. 103, 096102 (2009).
     *
     *
     * If you are using vdW-DF2, please also cite:
     *
     *   K. Lee, E. D. Murray, L. Kong, B. I. Lundqvist, and
     *   D. C. Langreth, Phys. Rev. B 82, 081101(R) (2010).
     *
     *
     * If you are calculating the stress with vdW-DF, please also cite:
     *
     *   R. Sabatini, E. Kucukbenli, B. Kolb, T. Thonhauser, and
     *   S. de Gironcoli, J. Phys.: Condens. Matter 24, 424209 (2012).
     *

     Carrying out vdW-DF run using the following parameters:

     Nqs =      20    Nr_points =    1024   r_max =   100.000
     q_mesh =
               0.00001000     0.04494208     0.09755937     0.15916263
               0.23128650     0.31572767     0.41458969     0.53033537
               0.66584808     0.82450364     1.01025438     1.22772762
               1.48234092     1.78043706     2.12944203     2.53805004
               3.01644009     3.57652955     4.23227104     5.00000000

     Gradients computed in reciprocal space

     Adding external electric field

     Computed dipole along edir(3) :
        Dipole               -0.0000 Ry au,         -0.0000 Debye
        Dipole field         -0.0000 Ry au

        Potential amp.        0.0000 Ry
        Total length         45.0329 bohr

     Starting wfc are  156 randomized atomic wfcs

     Self-consistent Calculation

     iteration #  1     ecut=    36.75 Ry     beta=0.10
     Davidson diagonalization with overlap
     ethr =  1.00E-02,  avg # of iterations =  8.4

[...]

     total energy              =   -2223.02735306 Ry
     Harris-Foulkes estimate   =   -2227.58410561 Ry
     estimated scf accuracy    <      28.27114855 Ry

[...]

     End of self-consistent calculation

          k = 0.0000 0.0000 0.0000 ( 15845 PWs)   bands (ev):

   -70.7712 -70.7219 -70.2973 -70.2968 -70.2483 -70.2476 -64.9990 -64.9261
   -64.6653 -64.6628 -64.5925 -64.5904 -40.9402 -40.8109 -40.7710 -40.7473
   -40.7017 -40.4926 -40.4855 -40.4469 -40.3105 -40.3010 -40.2406 -40.2375
   -40.2257 -40.2049 -40.1879 -40.1508 -40.0007 -40.0004 -37.2454 -37.0728
   -37.0157 -36.9499 -36.9063 -36.9060 -36.8945 -36.6860 -36.6366 -36.6165
   -36.6138 -36.6134 -36.5902 -36.5690 -36.5214 -36.4683 -36.2669 -36.2643
    -4.2753  -3.0580  -3.0447  -3.0312  -2.9256  -2.8135  -2.6399  -2.6308
    -2.6286  -2.4174  -2.3880  -2.3630  -2.0245  -2.0244  -2.0180  -0.8711
    -0.8577  -0.8292  -0.2057  -0.1946  -0.1651   0.0839   0.2701   0.3130
     0.3261   0.5931   0.6192   0.6992   0.7599   0.8905   0.9347   0.9614
     1.2355   1.4249   1.5817   2.1199   2.2481   2.2883   2.3759   2.5057
     2.5213   2.5954   2.6260   2.6484   3.2207   3.3761   3.4042   3.4915
     3.7232   3.7690   3.9577   4.0559   4.1700   4.1907   4.2243   4.2592
     4.6095   4.6551   4.7470   4.8380   4.8418   4.8494   4.8837   4.9916
     5.0614   5.2207   5.3154   6.3718   6.6539   7.0133   7.0321   7.0814
     7.0899   7.1512   7.2233

[...]

          k =-0.0919-0.0531 0.0000 ( 15952 PWs)   bands (ev):

[...]

     the Fermi energy is     2.3812 ev

!    total energy              =   -2222.28832394 Ry
     Harris-Foulkes estimate   =   -2222.28831934 Ry
     estimated scf accuracy    <       0.00000022 Ry

     The total energy is the sum of the following terms:

     one-electron contribution =  -20248.30805670 Ry
     hartree contribution      =   10123.03931463 Ry
     xc contribution           =    -359.36562573 Ry
     ewald contribution        =    8262.44678872 Ry
     electric field correction =       0.00000000 Ry
     smearing contrib. (-TS)   =      -0.10074485 Ry

     convergence has been achieved in  18 iterations

 BEEF-vdW xc energy contributions
           1 :   -313.529076145497
           2 :    288.173780965547
           3 :   -243.558984063263
           4 :    189.510039062874
           5 :   -136.351974971467
           6 :    91.8667230273249
           7 :   -59.6297657804727
[...]
     Pseudo is Ultrasoft + core correction, Zval = 15.0
     Generated by new atomic code, or converted to UPF format
     Using radial grid of  965 points,  6 beta functions with:
                l(1) =   0
                l(2) =   0
                l(3) =   1
                l(4) =   1
                l(5) =   2
                l(6) =   2
     Q(r) pseudized with  8 coefficients,  rinner =    1.300   1.300   1.300
                                                       1.300   1.300

     PseudoPot. # 2 for Ru read from file:
     /afs/slac.stanford.edu/u/if/mamunm/psp/gbrv1.5pbe/Ru.UPF
     MD5 check sum: 7158a806dd851261a58e6920c40ebe78
     Pseudo is Ultrasoft + core correction, Zval = 16.0
     Generated by new atomic code, or converted to UPF format
     Using radial grid of  967 points,  6 beta functions with:
                l(1) =   0
                l(2) =   0
                l(3) =   1
                l(4) =   1
                l(5) =   2
                l(6) =   2
     Q(r) pseudized with  8 coefficients,  rinner =    1.300   1.300   1.300
                                                       1.300   1.300

     vdW kernel table read from file vdW_kernel_table
     MD5 check sum: 095c7af220d748ca6e76c0b4c6cfb241

     atomic species   valence    mass     pseudopotential
        Tc1           15.00    97.90721     Tc( 1.00)
        Ru1           16.00   101.07000     Ru( 1.00)

     No symmetry found

   Cartesian axes

     site n.     atom                  positions (alat units)
         1           Tc1 tau(   1) = (   0.0000000   0.0000000  10.0000000  )
         2           Tc1 tau(   2) = (   2.7191366   0.0000000  10.0000000  )
         3           Ru1 tau(   3) = (   1.3595683   2.3559729  10.0000000  )
         4           Ru1 tau(   4) = (  -1.3595683   2.3559729  10.0000000  )
         5           Tc1 tau(   5) = (   2.7191366   1.5691402  12.2206987  )
         6           Tc1 tau(   6) = (  -0.0000000   1.5691402  12.2206987  )
         7           Ru1 tau(   7) = (  -1.3595683   3.9251131  12.2206987  )
         8           Ru1 tau(   8) = (   1.3595683   3.9251131  12.2206987  )
         9           Tc1 tau(   9) = (  -0.0000002   3.1378224  14.3283309  )
        10           Tc1 tau(  10) = (   2.7191360   3.1378219  14.3283307  )
        11           Ru1 tau(  11) = (   4.0787038   0.7944081  14.3517659  )
        12           Ru1 tau(  12) = (   1.3595677   0.7944083  14.3517663  )

     number of k points=    20  Fermi-Dirac smearing, width (Ry)=  0.0110
                       cart. coord. in units 2pi/alat
        k(    1) = (   0.0000000   0.0000000   0.0000000), wk =   0.0555556
        k(    2) = (   0.0000000   0.0353711   0.0000000), wk =   0.1111111
        k(    3) = (   0.0000000   0.0707422   0.0000000), wk =   0.1111111
        k(    4) = (   0.0000000  -0.1061133   0.0000000), wk =   0.0555556
        k(    5) = (   0.0306470   0.0176855   0.0000000), wk =   0.1111111
        k(    6) = (   0.0306470   0.0530566   0.0000000), wk =   0.1111111
        k(    7) = (   0.0306470   0.0884277   0.0000000), wk =   0.1111111
        k(    8) = (   0.0306470  -0.0884277   0.0000000), wk =   0.1111111
        k(    9) = (   0.0306470  -0.0530566   0.0000000), wk =   0.1111111
        k(   10) = (   0.0306470  -0.0176855   0.0000000), wk =   0.1111111
        k(   11) = (   0.0612940   0.0353711   0.0000000), wk =   0.1111111
        k(   12) = (   0.0612940   0.0707422   0.0000000), wk =   0.1111111
        k(   13) = (   0.0612940   0.1061133   0.0000000), wk =   0.1111111
        k(   14) = (   0.0612940  -0.0707422   0.0000000), wk =   0.1111111
        k(   15) = (   0.0612940  -0.0353711   0.0000000), wk =   0.1111111
        k(   16) = (   0.0612940   0.0000000   0.0000000), wk =   0.1111111
        k(   17) = (  -0.0919409  -0.0530566   0.0000000), wk =   0.0555556
        k(   18) = (  -0.0919409  -0.0176855   0.0000000), wk =   0.1111111
        k(   19) = (  -0.0919409   0.0176855   0.0000000), wk =   0.1111111
        k(   20) = (  -0.0919409  -0.1591699   0.0000000), wk =   0.0555556

     Largest allocated arrays     est. size (Mb)     dimensions
     Largest temporary arrays     est. size (Mb)     dimensions

     Check: negative/imaginary core charge=   -0.000015    0.000000

     Initial potential from superposition of free atoms
     Check: negative starting charge=   -1.188911

     starting charge  173.99974, renormalised to  186.00000

[...]

     *
     * You are using vdW-DF for exchange-correlation in this calculation.
     * Please cite the following three references that made this development
     * possible:
     *
     *   M. Dion, H. Rydberg, E. Schroder, D. C. Langreth, and
     *   B. I. Lundqvist, Phys. Rev. Lett. 92, 246401 (2004).
     *
     *   T. Thonhauser, V. R. Cooper, S. Li, A. Puzder, P. Hyldgaard, and
     *   D. C. Langreth, Phys. Rev. B 76, 125112 (2007).
     *
     *   G. Roman-Perez and J. M. Soler, Phys. Rev. Lett. 103, 096102 (2009).
     *
     *
     * If you are using vdW-DF2, please also cite:
     *
     *   K. Lee, E. D. Murray, L. Kong, B. I. Lundqvist, and
     *   D. C. Langreth, Phys. Rev. B 82, 081101(R) (2010).
     *
     *
     * If you are calculating the stress with vdW-DF, please also cite:
     *
     *   R. Sabatini, E. Kucukbenli, B. Kolb, T. Thonhauser, and
     *   S. de Gironcoli, J. Phys.: Condens. Matter 24, 424209 (2012).
     *

     Carrying out vdW-DF run using the following parameters:

     Nqs =      20    Nr_points =    1024   r_max =   100.000
     q_mesh =
               0.00001000     0.04494208     0.09755937     0.15916263
               0.23128650     0.31572767     0.41458969     0.53033537
               0.66584808     0.82450364     1.01025438     1.22772762
               1.48234092     1.78043706     2.12944203     2.53805004
               3.01644009     3.57652955     4.23227104     5.00000000

     Gradients computed in reciprocal space

[...]

     Starting wfc are  156 randomized atomic wfcs

     Self-consistent Calculation

[...]

     total energy              =   -2222.30033914 Ry
     Harris-Foulkes estimate   =   -2222.30033825 Ry
     estimated scf accuracy    <       0.00000143 Ry

     iteration # 19     ecut=    36.75 Ry     beta=0.10
     Davidson diagonalization with overlap
     ethr =  7.67E-10,  avg # of iterations =  1.6

[...]

     negative rho (up, down):  1.249E+00 0.000E+00

     Adding external electric field

     Computed dipole along edir(3) :
        Dipole                0.0342 Ry au,          0.0870 Debye
        Dipole field          0.0001 Ry au

        Potential amp.       -0.0092 Ry
        Total length         45.0329 bohr

     End of self-consistent calculation

[...]

          k = 0.0613 0.0000 0.0000 ( 15896 PWs)   bands (ev):

[...]

          k =-0.0919-0.1592 0.0000 ( 15952 PWs)   bands (ev):

   -70.7743 -70.7743 -70.2813 -70.2813 -70.2266 -70.2266 -64.9642 -64.9641
   -64.6124 -64.6123 -64.5953 -64.5952 -40.8221 -40.8221 -40.7644 -40.7644
   -40.7310 -40.7310 -40.2769 -40.2769 -40.2587 -40.2587 -40.2331 -40.2331
   -40.2047 -40.2047 -40.1952 -40.1952 -40.1426 -40.1426 -37.1028 -37.1028
   -36.9560 -36.9560 -36.9374 -36.9374 -36.6286 -36.6286 -36.6150 -36.6150
   -36.5928 -36.5928 -36.5836 -36.5836 -36.5587 -36.5587 -36.4536 -36.4536
    -2.7891  -2.7891  -2.1932  -2.1932  -2.1578  -2.1578  -1.8510  -1.8510
    -1.6607  -1.6607  -1.5504  -1.5504  -1.1721  -1.1721  -1.1239  -1.1239
    -0.7169  -0.7169  -0.5103  -0.5103  -0.2966  -0.2966   0.1811   0.1811
     0.4513   0.4513   0.5436   0.5436   0.7123   0.7123   0.7916   0.7916
     0.9449   0.9449   1.0082   1.0082   1.0317   1.0317   1.1943   1.1943
     1.7144   1.7144   1.9782   1.9783   2.2163   2.2163   2.4407   2.4407
     2.6560   2.6560   2.7922   2.7922   3.0318   3.0318   3.2690   3.2690
     3.3497   3.3497   3.9176   3.9176   4.3855   4.3855   4.6874   4.6874
     5.6078   5.6078   7.0495   7.0495   7.4909   7.4909   7.5200   7.5200
     8.0894   8.0894   8.7542

     the Fermi energy is     2.3996 ev

!    total energy              =   -2222.30034296 Ry
     Harris-Foulkes estimate   =   -2222.30033943 Ry
     estimated scf accuracy    <       0.00000032 Ry

     The total energy is the sum of the following terms:

     one-electron contribution =  -20540.77666001 Ry
     hartree contribution      =   10269.29204335 Ry
     xc contribution           =    -359.60240742 Ry
     ewald contribution        =    8408.88605099 Ry
     electric field correction =       0.00000348 Ry
     smearing contrib. (-TS)   =      -0.09937335 Ry

     convergence has been achieved in  19 iterations

 BEEF-vdW xc energy contributions
           1 :   -313.772634108096
           2 :    288.511635083087
           3 :   -244.024628258180
           4 :    190.050737536664
           5 :   -136.846607316088
           6 :    92.1838885726274
           7 :   -59.6960799012839
           8 :    38.8628978837049
           9 :   -26.3958490310175
          10 :    18.2137316750719
          11 :   -11.2103591844079
          12 :    4.17986467145198
          13 :    2.24357054365032
          14 :   -6.43165558761422
          15 :    6.88762331653459
          16 :   -3.16097650028104
          17 :   -3.81827527574239
          18 :    12.0462443632899
          19 :   -19.2076258929788
          20 :    23.5147991802548
          21 :   -24.2692226498791
          22 :    21.9262016318919
          23 :   -17.7030510592634
          24 :    12.9550048098119
          25 :   -8.62987957850464
          26 :    5.02619498126745
          27 :   -1.91970381623332
          28 :   -1.07064257646999
          29 :    4.09772586589389
          30 :   -6.88943582813710
          31 :   -30.9913204029107
          32 :   -23.1332182211950

     Forces acting on atoms (Ry/au):

     negative rho (up, down):  1.249E+00 0.000E+00
     atom    1 type  1   force =     0.00000005    0.00179539    0.01825107
     atom    2 type  1   force =     0.00000006    0.00179642    0.01825059
     atom    3 type  2   force =     0.00000008   -0.00292767    0.01543537
     atom    4 type  2   force =    -0.00000028   -0.00292743    0.01543547
     atom    5 type  1   force =     0.00000009    0.00194009   -0.01584774
     atom    6 type  1   force =    -0.00000005    0.00194152   -0.01584573
     atom    7 type  2   force =     0.00000141   -0.00165704   -0.01759635
     atom    8 type  2   force =    -0.00000140   -0.00165695   -0.01759660
     atom    9 type  1   force =    -0.00000014    0.00045439   -0.00015938
     atom   10 type  1   force =     0.00000027    0.00045424   -0.00015906
     atom   11 type  2   force =    -0.00000050    0.00039374   -0.00008398
     atom   12 type  2   force =     0.00000040    0.00039331   -0.00008366

     Total force =     0.047975     Total SCF correction =     0.002834

     entering subroutine stress ...

     negative rho (up, down):  1.249E+00 0.000E+00
          total   stress  (Ry/bohr**3)                   (kbar)     P=  -19.57
  -0.00015074  -0.00000000   0.00000000        -22.17     -0.00      0.00
  -0.00000000  -0.00016737   0.00000407         -0.00    -24.62      0.60
   0.00000000   0.00000407  -0.00008100          0.00      0.60    -11.92

 !ASE

     Writing output data file calc.save

     General routines

     Parallel routines

   This run was terminated on:  22: 6: 0  29Dec2018

   JOB DONE.
Job  /afs/slac/g/suncat/bin/suncat-tsmpirun -x LD_LIBRARY_PATH -wdir /scratch/qe387728_trugQ pw.x -in pw.inp

TID   HOST_NAME   COMMAND_LINE            STATUS            TERMINATION_TIME
00000 suncat0068 pw.x -in pw.inp   Done                     12/29/2018 22:06:00
00001 suncat0068 pw.x -in pw.inp   Done                     12/29/2018 22:06:00
00002 suncat0068 pw.x -in pw.inp   Done                     12/29/2018 22:06:00
00003 suncat0068 pw.x -in pw.inp   Done                     12/29/2018 22:06:00
00004 suncat0068 pw.x -in pw.inp   Done                     12/29/2018 22:06:00
00005 suncat0068 pw.x -in pw.inp   Done                     12/29/2018 22:06:00
00006 suncat0068 pw.x -in pw.inp   Done                     12/29/2018 22:06:00
00007 suncat0068 pw.x -in pw.inp   Done                     12/29/2018 22:06:00
00008 suncat0059 pw.x -in pw.inp   Done                     12/29/2018 22:06:00
00009 suncat0059 pw.x -in pw.inp   Done                     12/29/2018 22:06:00
00010 suncat0059 pw.x -in pw.inp   Done                     12/29/2018 22:06:00
00011 suncat0059 pw.x -in pw.inp   Done                     12/29/2018 22:06:00
00012 suncat0059 pw.x -in pw.inp   Done                     12/29/2018 22:06:00
00013 suncat0059 pw.x -in pw.inp   Done                     12/29/2018 22:06:00
00014 suncat0059 pw.x -in pw.inp   Done                     12/29/2018 22:06:00
00015 suncat0059 pw.x -in pw.inp   Done                     12/29/2018 22:06:00
00016 suncat0031 pw.x -in pw.inp   Done                     12/29/2018 22:06:00
00017 suncat0031 pw.x -in pw.inp   Done                     12/29/2018 22:06:00
00018 suncat0031 pw.x -in pw.inp   Done                     12/29/2018 22:06:00
00019 suncat0031 pw.x -in pw.inp   Done                     12/29/2018 22:06:00
00020 suncat0031 pw.x -in pw.inp   Done                     12/29/2018 22:06:00
00021 suncat0031 pw.x -in pw.inp   Done                     12/29/2018 22:06:00
00022 suncat0031 pw.x -in pw.inp   Done                     12/29/2018 22:06:00
00023 suncat0031 pw.x -in pw.inp   Done                     12/29/2018 22:06:00
00024 suncat0030 pw.x -in pw.inp   Done                     12/29/2018 22:06:00
00025 suncat0030 pw.x -in pw.inp   Done                     12/29/2018 22:06:00
00026 suncat0030 pw.x -in pw.inp   Done                     12/29/2018 22:06:00
00027 suncat0030 pw.x -in pw.inp   Done                     12/29/2018 22:06:00
00028 suncat0030 pw.x -in pw.inp   Done                     12/29/2018 22:06:00
00029 suncat0030 pw.x -in pw.inp   Done                     12/29/2018 22:06:00
00030 suncat0030 pw.x -in pw.inp   Done                     12/29/2018 22:06:00
00031 suncat0030 pw.x -in pw.inp   Done                     12/29/2018 22:06:00
00032 suncat0280 pw.x -in pw.inp   Done                     12/29/2018 22:06:00
00033 suncat0280 pw.x -in pw.inp   Done                     12/29/2018 22:06:00
00034 suncat0280 pw.x -in pw.inp   Done                     12/29/2018 22:06:00
00035 suncat0280 pw.x -in pw.inp   Done                     12/29/2018 22:06:00
00036 suncat0280 pw.x -in pw.inp   Done                     12/29/2018 22:06:00
00037 suncat0280 pw.x -in pw.inp   Done                     12/29/2018 22:06:00
00038 suncat0280 pw.x -in pw.inp   Done                     12/29/2018 22:06:00
00039 suncat0280 pw.x -in pw.inp   Done                     12/29/2018 22:06:00
00040 suncat0279 pw.x -in pw.inp   Done                     12/29/2018 22:06:00
00041 suncat0279 pw.x -in pw.inp   Done                     12/29/2018 22:06:00
00042 suncat0279 pw.x -in pw.inp   Done                     12/29/2018 22:06:00
00043 suncat0279 pw.x -in pw.inp   Done                     12/29/2018 22:06:00
00044 suncat0279 pw.x -in pw.inp   Done                     12/29/2018 22:06:00
00045 suncat0279 pw.x -in pw.inp   Done                     12/29/2018 22:06:00
00046 suncat0279 pw.x -in pw.inp   Done                     12/29/2018 22:06:00
00047 suncat0279 pw.x -in pw.inp   Done                     12/29/2018 22:06:00
00048 suncat0278 pw.x -in pw.inp   Done                     12/29/2018 22:06:00
00049 suncat0278 pw.x -in pw.inp   Done                     12/29/2018 22:06:00
00050 suncat0278 pw.x -in pw.inp   Done                     12/29/2018 22:06:00
00051 suncat0278 pw.x -in pw.inp   Done                     12/29/2018 22:06:00
00052 suncat0278 pw.x -in pw.inp   Done                     12/29/2018 22:06:00
00053 suncat0278 pw.x -in pw.inp   Done                     12/29/2018 22:06:00
00054 suncat0278 pw.x -in pw.inp   Done                     12/29/2018 22:06:00
00055 suncat0278 pw.x -in pw.inp   Done                     12/29/2018 22:06:00
00056 suncat0099 pw.x -in pw.inp   Done                     12/29/2018 22:06:00
00057 suncat0099 pw.x -in pw.inp   Done                     12/29/2018 22:06:00
00058 suncat0099 pw.x -in pw.inp   Done                     12/29/2018 22:06:00
00059 suncat0099 pw.x -in pw.inp   Done                     12/29/2018 22:06:00
00060 suncat0099 pw.x -in pw.inp   Done                     12/29/2018 22:06:00
00061 suncat0099 pw.x -in pw.inp   Done                     12/29/2018 22:06:00
00062 suncat0099 pw.x -in pw.inp   Done                     12/29/2018 22:06:00
00063 suncat0099 pw.x -in pw.inp   Done                     12/29/2018 22:06:00