     Program PWSCF v.5.1rc2 (svn rev. 11289) starts on 19Dec2018 at  7: 3:17

     Current dimensions of program PWSCF are:
     Max number of different atomic species (ntypx) = 10
     Max number of k-points (npk) =  40000
     Max angular momentum in pseudopotentials (lmaxx) =  3
     Presently stress not available with electric field

     IMPORTANT: XC functional enforced from input :
     Exchange-correlation      = BEEF-VDW ( 1  4 27 13 2)
     Any further DFT definition will be discarded
     Please, verify this is what you really want

     Subspace diagonalization in iterative solution of the eigenvalue problem:
     a serial algorithm will be used

     Found symmetry operation: I + ( -0.5000 -0.5000  0.0000)
     This is a supercell, fractional translations are disabled

     bravais-lattice index     =            0
     lattice parameter (alat)  =       1.8897  a.u.
     unit-cell volume          =    3968.3140 (a.u.)^3
     number of atoms/cell      =           12
     number of atomic types    =            2
     number of electrons       =       174.00
     number of Kohn-Sham states=          117
     kinetic-energy cutoff     =      36.7493  Ry
     charge density cutoff     =     367.4932  Ry
     convergence threshold     =      1.0E-06
     mixing beta               =       0.1000
     number of iterations used =           10  plain     mixing
     Exchange-correlation      = BEEF-VDW ( 1  4 27 13 2)
     nstep                     =           50

     celldm(1)=   1.889726  celldm(2)=   0.000000  celldm(3)=   0.000000
     celldm(4)=   0.000000  celldm(5)=   0.000000  celldm(6)=   0.000000

     crystal axes: (cart. coord. in units of alat)
               a(1) = (   5.273061   0.000000   0.000000 )
               a(2) = (   2.601785   4.586490   0.000000 )
               a(3) = (   0.000000   0.000000  24.314549 )

     reciprocal axes: (cart. coord. in units 2 pi/alat)
               b(1) = (  0.189643 -0.107579  0.000000 )
               b(2) = (  0.000000  0.218032  0.000000 )
               b(3) = (  0.000000  0.000000  0.041128 )

     PseudoPot. # 1 for Cr read from file:
     /afs/slac.stanford.edu/u/if/mamunm/psp/gbrv1.5pbe/Cr.UPF
     MD5 check sum: 0d52af634a40206e4dee301ad30da4bf
     Pseudo is Ultrasoft + core correction, Zval = 14.0
     Generated by new atomic code, or converted to UPF format
     Using radial grid of  857 points,  6 beta functions with:
                l(1) =   0
                l(2) =   0
                l(3) =   1
                l(4) =   1
                l(5) =   2
                l(6) =   2
     Q(r) pseudized with  8 coefficients,  rinner =    0.950   0.950   0.950
                                                       0.950   0.950

     PseudoPot. # 2 for Rh read from file:
     /afs/slac.stanford.edu/u/if/mamunm/psp/gbrv1.5pbe/Rh.UPF
     MD5 check sum: 761627e959a2e3a1f56b0b5fe687810e
     Pseudo is Ultrasoft + core correction, Zval = 15.0
     Generated by new atomic code, or converted to UPF format
     Using radial grid of  969 points,  7 beta functions with:
                l(1) =   0
                l(2) =   0
                l(3) =   1
                l(4) =   1
                l(5) =   2
                l(6) =   2
                l(7) =   2
     Q(r) pseudized with  8 coefficients,  rinner =    1.200   1.200   1.200
                                                       1.200   1.200

     vdW kernel table read from file vdW_kernel_table
     MD5 check sum: 095c7af220d748ca6e76c0b4c6cfb241

     atomic species   valence    mass     pseudopotential
        Cr1           14.00    51.99610     Cr( 1.00)
        Rh1           15.00   102.90550     Rh( 1.00)

     No symmetry found

   Cartesian axes

     site n.     atom                  positions (alat units)
         1           Cr1 tau(   1) = (   0.0000000   0.0000000  10.0000000  )
         2           Cr1 tau(   2) = (   3.9374232   2.2932448  10.0000000  )
         3           Rh1 tau(   3) = (   2.6365305   0.0000000  10.0000000  )
         4           Rh1 tau(   4) = (   1.3008927   2.2932448  10.0000000  )
         5           Cr1 tau(   5) = (   5.2730611   3.0711506  12.1572747  )
         6           Cr1 tau(   6) = (   1.3356379   0.7779059  12.1572747  )
         7           Rh1 tau(   7) = (   2.6365305   3.0711506  12.1572747  )
         8           Rh1 tau(   8) = (   3.9721684   0.7779059  12.1572747  )
         9           Cr1 tau(   9) = (   2.6712758   1.5558117  14.3145494  )
        10           Cr1 tau(  10) = (   6.6086990   3.8490565  14.3145494  )
        11           Rh1 tau(  11) = (   5.3078063   1.5558117  14.3145494  )
        12           Rh1 tau(  12) = (   3.9721684   3.8490565  14.3145494  )

     number of k points=    20  Fermi-Dirac smearing, width (Ry)=  0.0110
                       cart. coord. in units 2pi/alat
        k(    1) = (   0.0000000   0.0000000   0.0000000), wk =   0.0555556
        k(    2) = (   0.0000000   0.0363386   0.0000000), wk =   0.1111111
        k(    3) = (   0.0000000   0.0726772   0.0000000), wk =   0.1111111
        k(    4) = (   0.0000000  -0.1090158   0.0000000), wk =   0.0555556
        k(    5) = (   0.0316072  -0.0179299   0.0000000), wk =   0.1111111
        k(    6) = (   0.0316072   0.0184087   0.0000000), wk =   0.1111111
        k(    7) = (   0.0316072   0.0547474   0.0000000), wk =   0.1111111
        k(    8) = (   0.0316072  -0.1269457   0.0000000), wk =   0.1111111
        k(    9) = (   0.0316072  -0.0906071   0.0000000), wk =   0.1111111
        k(   10) = (   0.0316072  -0.0542685   0.0000000), wk =   0.1111111
        k(   11) = (   0.0632144  -0.0358597   0.0000000), wk =   0.1111111
        k(   12) = (   0.0632144   0.0004789   0.0000000), wk =   0.1111111
        k(   13) = (   0.0632144   0.0368175   0.0000000), wk =   0.1111111
        k(   14) = (   0.0632144  -0.1448756   0.0000000), wk =   0.1111111
        k(   15) = (   0.0632144  -0.1085370   0.0000000), wk =   0.1111111
        k(   16) = (   0.0632144  -0.0721983   0.0000000), wk =   0.1111111
        k(   17) = (  -0.0948216   0.0537896   0.0000000), wk =   0.0555556
        k(   18) = (  -0.0948216   0.0901282   0.0000000), wk =   0.1111111
        k(   19) = (  -0.0948216   0.1264668   0.0000000), wk =   0.1111111
        k(   20) = (  -0.0948216  -0.0552262   0.0000000), wk =   0.0555556

     Largest allocated arrays     est. size (Mb)     dimensions
     Largest temporary arrays     est. size (Mb)     dimensions

     Check: negative/imaginary core charge=   -0.000002    0.000000

     Initial potential from superposition of free atoms
     Check: negative starting charge=   -0.332307

     starting charge  164.99932, renormalised to  174.00000

     negative rho (up, down):  3.504E-01 0.000E+00

     *
     * You are using vdW-DF for exchange-correlation in this calculation.
     * Please cite the following three references that made this development
     * possible:
     *
     *   M. Dion, H. Rydberg, E. Schroder, D. C. Langreth, and
     *   B. I. Lundqvist, Phys. Rev. Lett. 92, 246401 (2004).
     *
     *   T. Thonhauser, V. R. Cooper, S. Li, A. Puzder, P. Hyldgaard, and
     *   D. C. Langreth, Phys. Rev. B 76, 125112 (2007).
     *
     *   G. Roman-Perez and J. M. Soler, Phys. Rev. Lett. 103, 096102 (2009).
     *
     *
     * If you are using vdW-DF2, please also cite:
     *
     *   K. Lee, E. D. Murray, L. Kong, B. I. Lundqvist, and
     *   D. C. Langreth, Phys. Rev. B 82, 081101(R) (2010).
     *
     *
     * If you are calculating the stress with vdW-DF, please also cite:
     *
     *   R. Sabatini, E. Kucukbenli, B. Kolb, T. Thonhauser, and
     *   S. de Gironcoli, J. Phys.: Condens. Matter 24, 424209 (2012).
     *

     Carrying out vdW-DF run using the following parameters:

     Nqs =      20    Nr_points =    1024   r_max =   100.000
     q_mesh =
               0.00001000     0.04494208     0.09755937     0.15916263
               0.23128650     0.31572767     0.41458969     0.53033537
               0.66584808     0.82450364     1.01025438     1.22772762
               1.48234092     1.78043706     2.12944203     2.53805004
               3.01644009     3.57652955     4.23227104     5.00000000

     Gradients computed in reciprocal space

     Adding external electric field

     Computed dipole along edir(3) :
        Dipole                0.0000 Ry au,          0.0000 Debye
        Dipole field          0.0000 Ry au

        Potential amp.       -0.0000 Ry
        Total length         44.7991 bohr

     Starting wfc are  132 randomized atomic wfcs

     Self-consistent Calculation

     iteration #  1     ecut=    36.75 Ry     beta=0.10
     Davidson diagonalization with overlap
     ethr =  1.00E-02,  avg # of iterations =  7.0

[...]

     total energy              =   -2091.22633073 Ry
     Harris-Foulkes estimate   =   -2095.02895394 Ry
     estimated scf accuracy    <      22.75047266 Ry

[...]

     End of self-consistent calculation

          k = 0.0000 0.0000 0.0000 ( 15029 PWs)   bands (ev):

   -70.5109 -70.4739 -70.3503 -70.3491 -70.3137 -70.3127 -45.6007 -45.4716
   -45.4524 -45.4184 -45.3981 -45.1604 -45.1385 -45.1347 -44.9926 -44.9807
   -44.9364 -44.9233 -44.8624 -44.8376 -44.8179 -44.7908 -44.6984 -44.6981
   -41.9284 -41.8340 -41.8141 -41.8030 -41.7778 -41.7258 -41.6948 -41.6835
   -41.6664 -41.6638 -41.6608 -41.6369 -41.6345 -41.6179 -41.5797 -41.5575
   -41.3688 -41.3677  -5.3797  -3.9075  -3.7781  -3.6041  -3.5676  -3.5660
    -3.2366  -3.0210  -2.9331  -2.9243  -2.8757  -2.7520  -2.7199  -2.6761
    -2.0327  -1.9940  -1.6025  -1.1949  -1.1279  -1.0527  -1.0279  -0.7894
    -0.6548  -0.6133  -0.3878  -0.3042  -0.1867  -0.0436  -0.0099   0.3266
     0.5460   0.6642   0.8430   0.8909   0.9131   1.0152   1.0902   1.1459
     1.2959   1.3170   1.5360   1.7459   1.8088   1.8439   2.0882   2.1188
     2.2630   2.3859   2.4026   2.5176   2.6906   2.7269   2.7566   2.7620
     2.8155   2.8331   3.0563   3.0601   3.1504   3.1811   3.3365   3.3551
     3.3673   3.4317   3.4872   3.5404   3.7001   5.3419   5.4979   5.5259
     5.5363   5.5724   5.7049   5.7840   5.9832

[...]

          k =-0.0948 0.0538 0.0000 ( 14916 PWs)   bands (ev):

[...]

     the Fermi energy is     1.5307 ev

!    total energy              =   -2090.76635828 Ry
     Harris-Foulkes estimate   =   -2090.76635925 Ry
     estimated scf accuracy    <       0.00000022 Ry

     The total energy is the sum of the following terms:

     one-electron contribution =  -19186.11970335 Ry
     hartree contribution      =    9608.05025732 Ry
     xc contribution           =    -325.48235837 Ry
     ewald contribution        =    7812.89776341 Ry
     electric field correction =       0.00000001 Ry
     smearing contrib. (-TS)   =      -0.11231730 Ry

     convergence has been achieved in  27 iterations

 BEEF-vdW xc energy contributions
           1 :   -282.834800386192
           2 :    257.655614827881
           3 :   -214.810343789134
           4 :    165.991718771871
           5 :   -122.361323791922
           6 :    90.7567957989692
           7 :   -72.3120237544234
           8 :    63.6322057028785
[...]
00030 suncat0021 pw.x -in pw.inp   Done                     12/19/2018 07:23:53
00031 suncat0021 pw.x -in pw.inp   Done                     12/19/2018 07:23:53

     Program PWSCF v.5.1rc2 (svn rev. 11289) starts on 19Dec2018 at  7:24: 0

[...]

     Program PWSCF v.5.1rc2 (svn rev. 11289) starts on 19Dec2018 at  7:41:54

[...]

     Program PWSCF v.5.1rc2 (svn rev. 11289) starts on 19Dec2018 at  7:59:42

     Current dimensions of program PWSCF are:
     Max number of different atomic species (ntypx) = 10
     Max number of k-points (npk) =  40000
     Max angular momentum in pseudopotentials (lmaxx) =  3
     Presently stress not available with electric field

     IMPORTANT: XC functional enforced from input :
     Exchange-correlation      = BEEF-VDW ( 1  4 27 13 2)
     Any further DFT definition will be discarded
     Please, verify this is what you really want

     Subspace diagonalization in iterative solution of the eigenvalue problem:
     a serial algorithm will be used

     Found symmetry operation: I + ( -0.5000 -0.5000  0.0000)
     This is a supercell, fractional translations are disabled

     bravais-lattice index     =            0
     lattice parameter (alat)  =       1.8897  a.u.
     unit-cell volume          =    3968.3140 (a.u.)^3
     number of atoms/cell      =           12
     number of atomic types    =            2
     number of electrons       =       174.00
     number of Kohn-Sham states=          117
     kinetic-energy cutoff     =      36.7493  Ry
     charge density cutoff     =     367.4932  Ry
     convergence threshold     =      1.0E-06
     mixing beta               =       0.1000
     number of iterations used =           10  plain     mixing
     Exchange-correlation      = BEEF-VDW ( 1  4 27 13 2)
     nstep                     =           50

     celldm(1)=   1.889726  celldm(2)=   0.000000  celldm(3)=   0.000000
     celldm(4)=   0.000000  celldm(5)=   0.000000  celldm(6)=   0.000000

     crystal axes: (cart. coord. in units of alat)
               a(1) = (   5.273061   0.000000   0.000000 )
               a(2) = (   2.601785   4.586490   0.000000 )
               a(3) = (   0.000000   0.000000  24.314549 )

     reciprocal axes: (cart. coord. in units 2 pi/alat)
               b(1) = (  0.189643 -0.107579  0.000000 )
               b(2) = (  0.000000  0.218032  0.000000 )
               b(3) = (  0.000000  0.000000  0.041128 )

     PseudoPot. # 1 for Cr read from file:
     /afs/slac.stanford.edu/u/if/mamunm/psp/gbrv1.5pbe/Cr.UPF
     MD5 check sum: 0d52af634a40206e4dee301ad30da4bf
     Pseudo is Ultrasoft + core correction, Zval = 14.0
     Generated by new atomic code, or converted to UPF format
     Using radial grid of  857 points,  6 beta functions with:
                l(1) =   0
                l(2) =   0
                l(3) =   1
                l(4) =   1
                l(5) =   2
                l(6) =   2
     Q(r) pseudized with  8 coefficients,  rinner =    0.950   0.950   0.950
                                                       0.950   0.950

     PseudoPot. # 2 for Rh read from file:
     /afs/slac.stanford.edu/u/if/mamunm/psp/gbrv1.5pbe/Rh.UPF
     MD5 check sum: 761627e959a2e3a1f56b0b5fe687810e
     Pseudo is Ultrasoft + core correction, Zval = 15.0
     Generated by new atomic code, or converted to UPF format
     Using radial grid of  969 points,  7 beta functions with:
                l(1) =   0
                l(2) =   0
                l(3) =   1
                l(4) =   1
                l(5) =   2
                l(6) =   2
                l(7) =   2
     Q(r) pseudized with  8 coefficients,  rinner =    1.200   1.200   1.200
                                                       1.200   1.200

     vdW kernel table read from file vdW_kernel_table
     MD5 check sum: 095c7af220d748ca6e76c0b4c6cfb241

     atomic species   valence    mass     pseudopotential
        Cr1           14.00    51.99610     Cr( 1.00)
        Rh1           15.00   102.90550     Rh( 1.00)

     No symmetry found

   Cartesian axes

     site n.     atom                  positions (alat units)
         1           Cr1 tau(   1) = (   0.0000000   0.0000000  10.0000000  )
         2           Cr1 tau(   2) = (   3.9374232   2.2932448  10.0000000  )
         3           Rh1 tau(   3) = (   2.6365305   0.0000000  10.0000000  )
         4           Rh1 tau(   4) = (   1.3008927   2.2932448  10.0000000  )
         5           Cr1 tau(   5) = (   5.2730611   3.0711506  12.1572747  )
         6           Cr1 tau(   6) = (   1.3356379   0.7779059  12.1572747  )
         7           Rh1 tau(   7) = (   2.6365305   3.0711506  12.1572747  )
         8           Rh1 tau(   8) = (   3.9721684   0.7779059  12.1572747  )
         9           Cr1 tau(   9) = (   2.6382412   1.5365716  14.1597522  )
        10           Cr1 tau(  10) = (   6.5756740   3.8298226  14.1597681  )
        11           Rh1 tau(  11) = (   5.3535627   1.5824822  14.2750137  )
        12           Rh1 tau(  12) = (   4.0179435   3.8756957  14.2750137  )

     number of k points=    20  Fermi-Dirac smearing, width (Ry)=  0.0110
                       cart. coord. in units 2pi/alat
        k(    1) = (   0.0000000   0.0000000   0.0000000), wk =   0.0555556
        k(    2) = (   0.0000000   0.0363386   0.0000000), wk =   0.1111111
        k(    3) = (   0.0000000   0.0726772   0.0000000), wk =   0.1111111
        k(    4) = (   0.0000000  -0.1090158   0.0000000), wk =   0.0555556
        k(    5) = (   0.0316072  -0.0179299   0.0000000), wk =   0.1111111
        k(    6) = (   0.0316072   0.0184087   0.0000000), wk =   0.1111111
        k(    7) = (   0.0316072   0.0547474   0.0000000), wk =   0.1111111
        k(    8) = (   0.0316072  -0.1269457   0.0000000), wk =   0.1111111
        k(    9) = (   0.0316072  -0.0906071   0.0000000), wk =   0.1111111
        k(   10) = (   0.0316072  -0.0542685   0.0000000), wk =   0.1111111
        k(   11) = (   0.0632144  -0.0358597   0.0000000), wk =   0.1111111
        k(   12) = (   0.0632144   0.0004789   0.0000000), wk =   0.1111111
        k(   13) = (   0.0632144   0.0368175   0.0000000), wk =   0.1111111
        k(   14) = (   0.0632144  -0.1448756   0.0000000), wk =   0.1111111
        k(   15) = (   0.0632144  -0.1085370   0.0000000), wk =   0.1111111
        k(   16) = (   0.0632144  -0.0721983   0.0000000), wk =   0.1111111
        k(   17) = (  -0.0948216   0.0537896   0.0000000), wk =   0.0555556
        k(   18) = (  -0.0948216   0.0901282   0.0000000), wk =   0.1111111
        k(   19) = (  -0.0948216   0.1264668   0.0000000), wk =   0.1111111
        k(   20) = (  -0.0948216  -0.0552262   0.0000000), wk =   0.0555556

     Largest allocated arrays     est. size (Mb)     dimensions
     Largest temporary arrays     est. size (Mb)     dimensions

     Check: negative/imaginary core charge=   -0.000002    0.000000

     Initial potential from superposition of free atoms
     Check: negative starting charge=   -0.332116

     starting charge  164.99932, renormalised to  174.00000

[...]

     *
     * You are using vdW-DF for exchange-correlation in this calculation.
     * Please cite the following three references that made this development
     * possible:
     *
     *   M. Dion, H. Rydberg, E. Schroder, D. C. Langreth, and
     *   B. I. Lundqvist, Phys. Rev. Lett. 92, 246401 (2004).
     *
     *   T. Thonhauser, V. R. Cooper, S. Li, A. Puzder, P. Hyldgaard, and
     *   D. C. Langreth, Phys. Rev. B 76, 125112 (2007).
     *
     *   G. Roman-Perez and J. M. Soler, Phys. Rev. Lett. 103, 096102 (2009).
     *
     *
     * If you are using vdW-DF2, please also cite:
     *
     *   K. Lee, E. D. Murray, L. Kong, B. I. Lundqvist, and
     *   D. C. Langreth, Phys. Rev. B 82, 081101(R) (2010).
     *
     *
     * If you are calculating the stress with vdW-DF, please also cite:
     *
     *   R. Sabatini, E. Kucukbenli, B. Kolb, T. Thonhauser, and
     *   S. de Gironcoli, J. Phys.: Condens. Matter 24, 424209 (2012).
     *

     Carrying out vdW-DF run using the following parameters:

     Nqs =      20    Nr_points =    1024   r_max =   100.000
     q_mesh =
               0.00001000     0.04494208     0.09755937     0.15916263
               0.23128650     0.31572767     0.41458969     0.53033537
               0.66584808     0.82450364     1.01025438     1.22772762
               1.48234092     1.78043706     2.12944203     2.53805004
               3.01644009     3.57652955     4.23227104     5.00000000

     Gradients computed in reciprocal space

[...]

     Starting wfc are  132 randomized atomic wfcs

     Self-consistent Calculation

[...]

     total energy              =   -2090.78054923 Ry
     Harris-Foulkes estimate   =   -2090.78054926 Ry
     estimated scf accuracy    <       0.00000121 Ry

     iteration # 23     ecut=    36.75 Ry     beta=0.10
     Davidson diagonalization with overlap
     ethr =  6.93E-10,  avg # of iterations =  2.2

[...]

     negative rho (up, down):  3.530E-01 0.000E+00

     Adding external electric field

     Computed dipole along edir(3) :
        Dipole                0.0042 Ry au,          0.0107 Debye
        Dipole field          0.0000 Ry au

        Potential amp.       -0.0012 Ry
        Total length         44.7991 bohr

     End of self-consistent calculation

[...]

          k = 0.0632-0.0722 0.0000 ( 14925 PWs)   bands (ev):

[...]

          k =-0.0948-0.0552 0.0000 ( 14946 PWs)   bands (ev):

   -70.5290 -70.4916 -70.3690 -70.3529 -70.3323 -70.3158 -45.7078 -45.5808
   -45.5284 -45.5267 -45.4803 -45.2702 -45.1822 -45.1329 -45.0010 -44.9711
   -44.9547 -44.9268 -44.9003 -44.8510 -44.8475 -44.8043 -44.7479 -44.7018
   -41.9651 -41.8850 -41.8617 -41.8478 -41.8352 -41.7356 -41.7122 -41.7081
   -41.6926 -41.6853 -41.6845 -41.6838 -41.6607 -41.6513 -41.5605 -41.5333
   -41.3856 -41.3810  -4.0880  -3.6420  -3.4480  -3.1041  -3.0505  -2.9680
    -2.8718  -2.6669  -2.5750  -2.5153  -2.1869  -2.1851  -2.1060  -2.0698
    -1.9527  -1.9014  -1.7565  -1.4151  -1.1889  -0.9945  -0.9912  -0.9001
    -0.6350  -0.5493  -0.4730  -0.4158  -0.3965  -0.2077  -0.0473   0.0654
     0.1401   0.1408   0.2104   0.3115   0.3170   0.4217   0.4814   0.5813
     0.6609   0.6663   0.7422   0.7908   0.8477   0.8583   0.8871   1.2220
     1.2226   1.5203   1.6564   1.6622   1.7892   1.9394   2.0811   2.2174
     2.3324   2.3630   2.4032   2.4130   2.5175   2.5181   2.8076   2.9214
     2.9972   3.3550   4.1585   4.2159   4.9192   5.0379   5.6959   5.6980
     6.1226   6.2453   7.5229   7.5234   7.5572

     the Fermi energy is     1.5176 ev

!    total energy              =   -2090.78054547 Ry
     Harris-Foulkes estimate   =   -2090.78054936 Ry
     estimated scf accuracy    <       0.00000072 Ry

     The total energy is the sum of the following terms:

     one-electron contribution =  -19443.28025053 Ry
     hartree contribution      =    9736.43050204 Ry
     xc contribution           =    -325.66359190 Ry
     ewald contribution        =    7941.84097942 Ry
     electric field correction =       0.00000006 Ry
     smearing contrib. (-TS)   =      -0.10818456 Ry

     convergence has been achieved in  23 iterations

 BEEF-vdW xc energy contributions
           1 :   -283.023783982956
           2 :    257.919966783996
           3 :   -215.163818889559
           4 :    166.367886110657
           5 :   -122.651900536685
           6 :    90.8803627425542
           7 :   -72.2658746602442
           8 :    63.4943208217634
           9 :   -59.3678783614999
          10 :    55.4741543433383
          11 :   -49.7189992819082
          12 :    42.3562699647061
          13 :   -34.9377669028879
          14 :    28.9962863806924
          15 :   -25.1833657688492
          16 :    23.1541486017024
          17 :   -22.0278908755141
          18 :    20.9903768225269
          19 :   -19.6543401346011
          20 :    18.0513422265558
          21 :   -16.3941515988411
          22 :    14.8477610273551
          23 :   -13.4634858544473
          24 :    12.2558786221163
          25 :   -11.2891977592006
          26 :    10.6619543562350
          27 :   -10.3991293894236
          28 :    10.3592457721276
          29 :   -10.2607651339186
          30 :    9.83438705984412
          31 :   -27.9190269174475
          32 :   -20.5990066512543

     Forces acting on atoms (Ry/au):

     negative rho (up, down):  3.530E-01 0.000E+00
     atom    1 type  1   force =     0.01150976    0.00670355    0.02342631
     atom    2 type  1   force =     0.01151046    0.00670404    0.02342760
     atom    3 type  2   force =    -0.01598202   -0.00930777    0.00225601
     atom    4 type  2   force =    -0.01598160   -0.00930858    0.00225682
     atom    5 type  1   force =     0.00472314    0.00275089   -0.00775541
     atom    6 type  1   force =     0.00472341    0.00275104   -0.00775411
     atom    7 type  2   force =     0.00112114    0.00065263   -0.01711741
     atom    8 type  2   force =     0.00112083    0.00065309   -0.01711718
     atom    9 type  1   force =    -0.00056914   -0.00033154   -0.00069460
     atom   10 type  1   force =    -0.00056461   -0.00032876   -0.00070321
     atom   11 type  2   force =    -0.00079920   -0.00048008   -0.00011274
     atom   12 type  2   force =    -0.00081217   -0.00045851   -0.00011209

     Total force =     0.054035     Total SCF correction =     0.002615

     entering subroutine stress ...

     negative rho (up, down):  3.530E-01 0.000E+00
          total   stress  (Ry/bohr**3)                   (kbar)     P=  -25.71
  -0.00020490  -0.00002487   0.00000630        -30.14     -3.66      0.93
  -0.00002487  -0.00017668   0.00000367         -3.66    -25.99      0.54
   0.00000630   0.00000367  -0.00014278          0.93      0.54    -21.00

 !ASE

     Writing output data file calc.save

     General routines

     Parallel routines

   This run was terminated on:   8:17:10  19Dec2018

   JOB DONE.
Job  /afs/slac/g/suncat/bin/suncat-tsmpirun -x LD_LIBRARY_PATH -wdir /scratch/qe529758_GXKgJ pw.x -in pw.inp

TID   HOST_NAME   COMMAND_LINE            STATUS            TERMINATION_TIME
00000 suncat0024 pw.x -in pw.inp   Done                     12/19/2018 08:17:10
00001 suncat0024 pw.x -in pw.inp   Done                     12/19/2018 08:17:10
00002 suncat0024 pw.x -in pw.inp   Done                     12/19/2018 08:17:10
00003 suncat0024 pw.x -in pw.inp   Done                     12/19/2018 08:17:10
00004 suncat0024 pw.x -in pw.inp   Done                     12/19/2018 08:17:10
00005 suncat0024 pw.x -in pw.inp   Done                     12/19/2018 08:17:10
00006 suncat0024 pw.x -in pw.inp   Done                     12/19/2018 08:17:10
00007 suncat0024 pw.x -in pw.inp   Done                     12/19/2018 08:17:10
00008 suncat0023 pw.x -in pw.inp   Done                     12/19/2018 08:17:10
00009 suncat0023 pw.x -in pw.inp   Done                     12/19/2018 08:17:10
00010 suncat0023 pw.x -in pw.inp   Done                     12/19/2018 08:17:10
00011 suncat0023 pw.x -in pw.inp   Done                     12/19/2018 08:17:10
00012 suncat0023 pw.x -in pw.inp   Done                     12/19/2018 08:17:10
00013 suncat0023 pw.x -in pw.inp   Done                     12/19/2018 08:17:10
00014 suncat0023 pw.x -in pw.inp   Done                     12/19/2018 08:17:10
00015 suncat0023 pw.x -in pw.inp   Done                     12/19/2018 08:17:10
00016 suncat0022 pw.x -in pw.inp   Done                     12/19/2018 08:17:10
00017 suncat0022 pw.x -in pw.inp   Done                     12/19/2018 08:17:10
00018 suncat0022 pw.x -in pw.inp   Done                     12/19/2018 08:17:10
00019 suncat0022 pw.x -in pw.inp   Done                     12/19/2018 08:17:10
00020 suncat0022 pw.x -in pw.inp   Done                     12/19/2018 08:17:10
00021 suncat0022 pw.x -in pw.inp   Done                     12/19/2018 08:17:10
00022 suncat0022 pw.x -in pw.inp   Done                     12/19/2018 08:17:10
00023 suncat0022 pw.x -in pw.inp   Done                     12/19/2018 08:17:10
00024 suncat0021 pw.x -in pw.inp   Done                     12/19/2018 08:17:10
00025 suncat0021 pw.x -in pw.inp   Done                     12/19/2018 08:17:10
00026 suncat0021 pw.x -in pw.inp   Done                     12/19/2018 08:17:10
00027 suncat0021 pw.x -in pw.inp   Done                     12/19/2018 08:17:10
00028 suncat0021 pw.x -in pw.inp   Done                     12/19/2018 08:17:10
00029 suncat0021 pw.x -in pw.inp   Done                     12/19/2018 08:17:10
00030 suncat0021 pw.x -in pw.inp   Done                     12/19/2018 08:17:10
00031 suncat0021 pw.x -in pw.inp   Done                     12/19/2018 08:17:10