     Program PWSCF v.5.1rc2 (svn rev. 11289) starts on 18Dec2018 at 16:49:47

     Current dimensions of program PWSCF are:
     Max number of different atomic species (ntypx) = 10
     Max number of k-points (npk) =  40000
     Max angular momentum in pseudopotentials (lmaxx) =  3
     Presently stress not available with electric field

     IMPORTANT: XC functional enforced from input :
     Exchange-correlation      = BEEF-VDW ( 1  4 27 13 2)
     Any further DFT definition will be discarded
     Please, verify this is what you really want

     Subspace diagonalization in iterative solution of the eigenvalue problem:
     a serial algorithm will be used

     Found symmetry operation: I + ( -0.5000  0.0000  0.0000)
     This is a supercell, fractional translations are disabled

     bravais-lattice index     =            0
     lattice parameter (alat)  =       1.8897  a.u.
     unit-cell volume          =    5003.4943 (a.u.)^3
     number of atoms/cell      =           12
     number of atomic types    =            2
     number of electrons       =       192.00
     number of Kohn-Sham states=          126
     kinetic-energy cutoff     =      36.7493  Ry
     charge density cutoff     =     367.4932  Ry
     convergence threshold     =      1.0E-06
     mixing beta               =       0.1000
     number of iterations used =           10  plain     mixing
     Exchange-correlation      = BEEF-VDW ( 1  4 27 13 2)
     nstep                     =           50

     celldm(1)=   1.889726  celldm(2)=   0.000000  celldm(3)=   0.000000
     celldm(4)=   0.000000  celldm(5)=   0.000000  celldm(6)=   0.000000

     crystal axes: (cart. coord. in units of alat)
               a(1) = (   5.680196   0.000000   0.000000 )
               a(2) = (  -2.840098   5.266831   0.000000 )
               a(3) = (   0.000000   0.000000  24.783581 )

     reciprocal axes: (cart. coord. in units 2 pi/alat)
               b(1) = (  0.176050  0.094934  0.000000 )
               b(2) = (  0.000000  0.189867  0.000000 )
               b(3) = (  0.000000  0.000000  0.040349 )

     PseudoPot. # 1 for Ag read from file:
     /afs/slac.stanford.edu/u/if/mamunm/psp/gbrv1.5pbe/Ag.UPF
     MD5 check sum: d66d668201baa78d5eb5b04ef7011058
     Pseudo is Ultrasoft + core correction, Zval = 19.0
     Generated by new atomic code, or converted to UPF format
     Using radial grid of  887 points,  6 beta functions with:
                l(1) =   0
                l(2) =   0
                l(3) =   1
                l(4) =   1
                l(5) =   2
                l(6) =   2
     Q(r) pseudized with  6 coefficients,  rinner =    1.300   1.300   1.300
                                                       1.300   1.300

     PseudoPot. # 2 for Ta read from file:
     /afs/slac.stanford.edu/u/if/mamunm/psp/gbrv1.5pbe/Ta.UPF
     MD5 check sum: f8bbe9446314a3b8ea5d9f3e3836c939
     Pseudo is Ultrasoft + core correction, Zval = 13.0
     Generated by new atomic code, or converted to UPF format
     Using radial grid of  921 points,  7 beta functions with:
                l(1) =   0
                l(2) =   0
                l(3) =   1
                l(4) =   1
                l(5) =   2
                l(6) =   2
                l(7) =   3
     Q(r) pseudized with  6 coefficients,  rinner =    1.300   1.300   1.300
                                                       1.300   1.300   1.300
                                                       1.300

     vdW kernel table read from file vdW_kernel_table
     MD5 check sum: 095c7af220d748ca6e76c0b4c6cfb241

     atomic species   valence    mass     pseudopotential
        Ag1           19.00   107.86820     Ag( 1.00)
        Ta1           13.00   180.94788     Ta( 1.00)

     No symmetry found

   Cartesian axes

     site n.     atom                  positions (alat units)
         1           Ag1 tau(   1) = (   0.0000000   0.0000000  10.0000000  )
         2           Ag1 tau(   2) = (   2.8400981   0.0000000  10.0000000  )
         3           Ta1 tau(   3) = (   1.4200490   2.6334157  10.0000000  )
         4           Ta1 tau(   4) = (  -1.4200490   2.6334157  10.0000000  )
         5           Ag1 tau(   5) = (   2.8400981   1.5315009  12.3917905  )
         6           Ag1 tau(   6) = (   0.0000000   1.5315009  12.3917905  )
         7           Ta1 tau(   7) = (  -1.4200490   4.1649166  12.3917905  )
         8           Ta1 tau(   8) = (   1.4200490   4.1649166  12.3917905  )
         9           Ag1 tau(   9) = (   0.0000000   3.0630018  14.7835811  )
        10           Ag1 tau(  10) = (   2.8400981   3.0630018  14.7835811  )
        11           Ta1 tau(  11) = (   4.2601471   0.4295861  14.7835811  )
        12           Ta1 tau(  12) = (   1.4200490   0.4295861  14.7835811  )

     number of k points=    20  Fermi-Dirac smearing, width (Ry)=  0.0110
                       cart. coord. in units 2pi/alat
        k(    1) = (   0.0000000   0.0000000   0.0000000), wk =   0.0555556
        k(    2) = (   0.0000000   0.0316446   0.0000000), wk =   0.1111111
        k(    3) = (   0.0000000   0.0632892   0.0000000), wk =   0.1111111
        k(    4) = (   0.0000000  -0.0949337   0.0000000), wk =   0.0555556
        k(    5) = (   0.0293417   0.0158223   0.0000000), wk =   0.1111111
        k(    6) = (   0.0293417   0.0474669   0.0000000), wk =   0.1111111
        k(    7) = (   0.0293417   0.0791114   0.0000000), wk =   0.1111111
        k(    8) = (   0.0293417  -0.0791114   0.0000000), wk =   0.1111111
        k(    9) = (   0.0293417  -0.0474669   0.0000000), wk =   0.1111111
        k(   10) = (   0.0293417  -0.0158223   0.0000000), wk =   0.1111111
        k(   11) = (   0.0586834   0.0316446   0.0000000), wk =   0.1111111
        k(   12) = (   0.0586834   0.0632892   0.0000000), wk =   0.1111111
        k(   13) = (   0.0586834   0.0949337   0.0000000), wk =   0.1111111
        k(   14) = (   0.0586834  -0.0632892   0.0000000), wk =   0.1111111
        k(   15) = (   0.0586834  -0.0316446   0.0000000), wk =   0.1111111
        k(   16) = (   0.0586834   0.0000000   0.0000000), wk =   0.1111111
        k(   17) = (  -0.0880251  -0.0474669   0.0000000), wk =   0.0555556
        k(   18) = (  -0.0880251  -0.0158223   0.0000000), wk =   0.1111111
        k(   19) = (  -0.0880251   0.0158223   0.0000000), wk =   0.1111111
        k(   20) = (  -0.0880251  -0.1424006   0.0000000), wk =   0.0555556

     Largest allocated arrays     est. size (Mb)     dimensions
     Largest temporary arrays     est. size (Mb)     dimensions

     Initial potential from superposition of free atoms
     Check: negative starting charge=   -0.569873

     starting charge  188.99304, renormalised to  192.00000

     negative rho (up, down):  5.789E-01 0.000E+00

     *
     * You are using vdW-DF for exchange-correlation in this calculation.
     * Please cite the following three references that made this development
     * possible:
     *
     *   M. Dion, H. Rydberg, E. Schroder, D. C. Langreth, and
     *   B. I. Lundqvist, Phys. Rev. Lett. 92, 246401 (2004).
     *
     *   T. Thonhauser, V. R. Cooper, S. Li, A. Puzder, P. Hyldgaard, and
     *   D. C. Langreth, Phys. Rev. B 76, 125112 (2007).
     *
     *   G. Roman-Perez and J. M. Soler, Phys. Rev. Lett. 103, 096102 (2009).
     *
     *
     * If you are using vdW-DF2, please also cite:
     *
     *   K. Lee, E. D. Murray, L. Kong, B. I. Lundqvist, and
     *   D. C. Langreth, Phys. Rev. B 82, 081101(R) (2010).
     *
     *
     * If you are calculating the stress with vdW-DF, please also cite:
     *
     *   R. Sabatini, E. Kucukbenli, B. Kolb, T. Thonhauser, and
     *   S. de Gironcoli, J. Phys.: Condens. Matter 24, 424209 (2012).
     *

     Carrying out vdW-DF run using the following parameters:

     Nqs =      20    Nr_points =    1024   r_max =   100.000
     q_mesh =
               0.00001000     0.04494208     0.09755937     0.15916263
               0.23128650     0.31572767     0.41458969     0.53033537
               0.66584808     0.82450364     1.01025438     1.22772762
               1.48234092     1.78043706     2.12944203     2.53805004
               3.01644009     3.57652955     4.23227104     5.00000000

     Gradients computed in reciprocal space

     Adding external electric field

     Computed dipole along edir(3) :
        Dipole               -0.0000 Ry au,         -0.0000 Debye
        Dipole field         -0.0000 Ry au

        Potential amp.        0.0000 Ry
        Total length         45.6633 bohr

     Starting wfc are  156 randomized atomic wfcs

     Self-consistent Calculation

     iteration #  1     ecut=    36.75 Ry     beta=0.10
     Davidson diagonalization with overlap
     ethr =  1.00E-02,  avg # of iterations =  6.0

[...]

     total energy              =   -2638.73143169 Ry
     Harris-Foulkes estimate   =   -2640.18017162 Ry
     estimated scf accuracy    <       8.54112873 Ry

[...]

     End of self-consistent calculation

          k = 0.0000 0.0000 0.0000 ( 18807 PWs)   bands (ev):

   -90.7986 -90.7915 -90.5980 -90.5979 -90.5908 -90.5907 -66.8253 -66.8241
   -66.7743 -66.7731 -66.5691 -66.5169 -54.3073 -54.2922 -54.2830 -54.2600
   -54.2508 -54.2069 -54.1182 -54.1182 -54.1127 -54.1112 -54.1034 -54.1020
   -54.0217 -54.0176 -54.0176 -54.0174 -54.0129 -54.0085 -33.3620 -33.3488
   -33.3446 -33.2878 -33.2619 -33.2523 -33.2509 -33.2005 -33.1736 -33.1688
   -33.0821 -33.0721 -32.9814 -32.6449 -32.5666 -32.5647 -32.5601 -32.4585
    -5.5858  -4.3891  -4.3338  -4.3232  -4.2790  -4.2420  -4.0116  -3.9485
    -3.9192  -3.8819  -3.8702  -3.8476  -3.6856  -3.4828  -3.3693  -3.2643
    -3.0814  -3.0674  -3.0600  -2.9040  -2.8027  -2.6638  -2.6237  -2.5488
    -2.5306  -2.4678  -2.3455  -2.3222  -2.2784  -2.1135  -1.9389  -1.4640
    -0.6919  -0.2991  -0.2072   0.0461   0.1668   0.2683   0.4770   0.5990
     0.8305   0.8344   1.0070   1.1261   1.5772   1.9442   1.9867   2.1236
     2.2423   2.2744   2.7776   2.8314   2.9306   3.2327   3.2370   3.2392
     3.7718   3.9424   4.0969   4.1883   4.4959   4.7052   4.9682   5.1071
     5.2052   5.2794   5.2993   5.4201   5.4827   5.5055   5.8361   5.8863
     5.9404   6.4280   6.5335   7.1473   7.3185   7.4892

[...]

          k =-0.0880-0.0475 0.0000 ( 18838 PWs)   bands (ev):

[...]

     the Fermi energy is     1.9019 ev

!    total energy              =   -2638.72048692 Ry
     Harris-Foulkes estimate   =   -2638.72048889 Ry
     estimated scf accuracy    <       0.00000014 Ry

     The total energy is the sum of the following terms:

     one-electron contribution =  -18586.31312724 Ry
     hartree contribution      =    9278.66238432 Ry
     xc contribution           =    -441.45566678 Ry
     ewald contribution        =    7110.44950568 Ry
     electric field correction =       0.00000000 Ry
     smearing contrib. (-TS)   =      -0.06358291 Ry

     convergence has been achieved in  16 iterations

 BEEF-vdW xc energy contributions
           1 :   -386.372405338636
           2 :    354.347222687003
           3 :   -299.216472535893
           4 :    235.055776436327
           5 :   -175.670215226183
[...]
00031 suncat0021 pw.x -in pw.inp   Done                     12/18/2018 17:07:15

     Program PWSCF v.5.1rc2 (svn rev. 11289) starts on 18Dec2018 at 17: 7:21

[...]

   This run was terminated on:  17:24:27  18Dec2018

[...]

     Program PWSCF v.5.1rc2 (svn rev. 11289) starts on 18Dec2018 at 17:41:53

     Current dimensions of program PWSCF are:
     Max number of different atomic species (ntypx) = 10
     Max number of k-points (npk) =  40000
     Max angular momentum in pseudopotentials (lmaxx) =  3
     Presently stress not available with electric field

     IMPORTANT: XC functional enforced from input :
     Exchange-correlation      = BEEF-VDW ( 1  4 27 13 2)
     Any further DFT definition will be discarded
     Please, verify this is what you really want

     Subspace diagonalization in iterative solution of the eigenvalue problem:
     a serial algorithm will be used

     Found symmetry operation: I + ( -0.5000  0.0000  0.0000)
     This is a supercell, fractional translations are disabled

     bravais-lattice index     =            0
     lattice parameter (alat)  =       1.8897  a.u.
     unit-cell volume          =    5003.4943 (a.u.)^3
     number of atoms/cell      =           12
     number of atomic types    =            2
     number of electrons       =       192.00
     number of Kohn-Sham states=          126
     kinetic-energy cutoff     =      36.7493  Ry
     charge density cutoff     =     367.4932  Ry
     convergence threshold     =      1.0E-06
     mixing beta               =       0.1000
     number of iterations used =           10  plain     mixing
     Exchange-correlation      = BEEF-VDW ( 1  4 27 13 2)
     nstep                     =           50

     celldm(1)=   1.889726  celldm(2)=   0.000000  celldm(3)=   0.000000
     celldm(4)=   0.000000  celldm(5)=   0.000000  celldm(6)=   0.000000

     crystal axes: (cart. coord. in units of alat)
               a(1) = (   5.680196   0.000000   0.000000 )
               a(2) = (  -2.840098   5.266831   0.000000 )
               a(3) = (   0.000000   0.000000  24.783581 )

     reciprocal axes: (cart. coord. in units 2 pi/alat)
               b(1) = (  0.176050  0.094934  0.000000 )
               b(2) = (  0.000000  0.189867  0.000000 )
               b(3) = (  0.000000  0.000000  0.040349 )

     PseudoPot. # 1 for Ag read from file:
     /afs/slac.stanford.edu/u/if/mamunm/psp/gbrv1.5pbe/Ag.UPF
     MD5 check sum: d66d668201baa78d5eb5b04ef7011058
     Pseudo is Ultrasoft + core correction, Zval = 19.0
     Generated by new atomic code, or converted to UPF format
     Using radial grid of  887 points,  6 beta functions with:
                l(1) =   0
                l(2) =   0
                l(3) =   1
                l(4) =   1
                l(5) =   2
                l(6) =   2
     Q(r) pseudized with  6 coefficients,  rinner =    1.300   1.300   1.300
                                                       1.300   1.300

     PseudoPot. # 2 for Ta read from file:
     /afs/slac.stanford.edu/u/if/mamunm/psp/gbrv1.5pbe/Ta.UPF
     MD5 check sum: f8bbe9446314a3b8ea5d9f3e3836c939
     Pseudo is Ultrasoft + core correction, Zval = 13.0
     Generated by new atomic code, or converted to UPF format
     Using radial grid of  921 points,  7 beta functions with:
                l(1) =   0
                l(2) =   0
                l(3) =   1
                l(4) =   1
                l(5) =   2
                l(6) =   2
                l(7) =   3
     Q(r) pseudized with  6 coefficients,  rinner =    1.300   1.300   1.300
                                                       1.300   1.300   1.300
                                                       1.300

     vdW kernel table read from file vdW_kernel_table
     MD5 check sum: 095c7af220d748ca6e76c0b4c6cfb241

     atomic species   valence    mass     pseudopotential
        Ag1           19.00   107.86820     Ag( 1.00)
        Ta1           13.00   180.94788     Ta( 1.00)

     No symmetry found

   Cartesian axes

     site n.     atom                  positions (alat units)
         1           Ag1 tau(   1) = (   0.0000000   0.0000000  10.0000000  )
         2           Ag1 tau(   2) = (   2.8400981   0.0000000  10.0000000  )
         3           Ta1 tau(   3) = (   1.4200490   2.6334157  10.0000000  )
         4           Ta1 tau(   4) = (  -1.4200490   2.6334157  10.0000000  )
         5           Ag1 tau(   5) = (   2.8400981   1.5315009  12.3917905  )
         6           Ag1 tau(   6) = (   0.0000000   1.5315009  12.3917905  )
         7           Ta1 tau(   7) = (  -1.4200490   4.1649166  12.3917905  )
         8           Ta1 tau(   8) = (   1.4200490   4.1649166  12.3917905  )
         9           Ag1 tau(   9) = (   0.0000005   3.0694153  14.8630436  )
        10           Ag1 tau(  10) = (   2.8400981   3.0694164  14.8630442  )
        11           Ta1 tau(  11) = (   4.2601470   0.3939203  14.6445446  )
        12           Ta1 tau(  12) = (   1.4200496   0.3939201  14.6445446  )

     number of k points=    20  Fermi-Dirac smearing, width (Ry)=  0.0110
                       cart. coord. in units 2pi/alat
        k(    1) = (   0.0000000   0.0000000   0.0000000), wk =   0.0555556
        k(    2) = (   0.0000000   0.0316446   0.0000000), wk =   0.1111111
        k(    3) = (   0.0000000   0.0632892   0.0000000), wk =   0.1111111
        k(    4) = (   0.0000000  -0.0949337   0.0000000), wk =   0.0555556
        k(    5) = (   0.0293417   0.0158223   0.0000000), wk =   0.1111111
        k(    6) = (   0.0293417   0.0474669   0.0000000), wk =   0.1111111
        k(    7) = (   0.0293417   0.0791114   0.0000000), wk =   0.1111111
        k(    8) = (   0.0293417  -0.0791114   0.0000000), wk =   0.1111111
        k(    9) = (   0.0293417  -0.0474669   0.0000000), wk =   0.1111111
        k(   10) = (   0.0293417  -0.0158223   0.0000000), wk =   0.1111111
        k(   11) = (   0.0586834   0.0316446   0.0000000), wk =   0.1111111
        k(   12) = (   0.0586834   0.0632892   0.0000000), wk =   0.1111111
        k(   13) = (   0.0586834   0.0949337   0.0000000), wk =   0.1111111
        k(   14) = (   0.0586834  -0.0632892   0.0000000), wk =   0.1111111
        k(   15) = (   0.0586834  -0.0316446   0.0000000), wk =   0.1111111
        k(   16) = (   0.0586834   0.0000000   0.0000000), wk =   0.1111111
        k(   17) = (  -0.0880251  -0.0474669   0.0000000), wk =   0.0555556
        k(   18) = (  -0.0880251  -0.0158223   0.0000000), wk =   0.1111111
        k(   19) = (  -0.0880251   0.0158223   0.0000000), wk =   0.1111111
        k(   20) = (  -0.0880251  -0.1424006   0.0000000), wk =   0.0555556

     Largest allocated arrays     est. size (Mb)     dimensions
     Largest temporary arrays     est. size (Mb)     dimensions

     Initial potential from superposition of free atoms
     Check: negative starting charge=   -0.571418

     starting charge  188.99304, renormalised to  192.00000

[...]

     *
     * You are using vdW-DF for exchange-correlation in this calculation.
     * Please cite the following three references that made this development
     * possible:
     *
     *   M. Dion, H. Rydberg, E. Schroder, D. C. Langreth, and
     *   B. I. Lundqvist, Phys. Rev. Lett. 92, 246401 (2004).
     *
     *   T. Thonhauser, V. R. Cooper, S. Li, A. Puzder, P. Hyldgaard, and
     *   D. C. Langreth, Phys. Rev. B 76, 125112 (2007).
     *
     *   G. Roman-Perez and J. M. Soler, Phys. Rev. Lett. 103, 096102 (2009).
     *
     *
     * If you are using vdW-DF2, please also cite:
     *
     *   K. Lee, E. D. Murray, L. Kong, B. I. Lundqvist, and
     *   D. C. Langreth, Phys. Rev. B 82, 081101(R) (2010).
     *
     *
     * If you are calculating the stress with vdW-DF, please also cite:
     *
     *   R. Sabatini, E. Kucukbenli, B. Kolb, T. Thonhauser, and
     *   S. de Gironcoli, J. Phys.: Condens. Matter 24, 424209 (2012).
     *

     Carrying out vdW-DF run using the following parameters:

     Nqs =      20    Nr_points =    1024   r_max =   100.000
     q_mesh =
               0.00001000     0.04494208     0.09755937     0.15916263
               0.23128650     0.31572767     0.41458969     0.53033537
               0.66584808     0.82450364     1.01025438     1.22772762
               1.48234092     1.78043706     2.12944203     2.53805004
               3.01644009     3.57652955     4.23227104     5.00000000

     Gradients computed in reciprocal space

[...]

     Starting wfc are  156 randomized atomic wfcs

     Self-consistent Calculation

[...]

     total energy              =   -2638.73368834 Ry
     Harris-Foulkes estimate   =   -2638.73368888 Ry
     estimated scf accuracy    <       0.00000154 Ry

     iteration # 16     ecut=    36.75 Ry     beta=0.10
     Davidson diagonalization with overlap
     ethr =  8.00E-10,  avg # of iterations =  2.0

[...]

     negative rho (up, down):  5.923E-01 0.000E+00

     Adding external electric field

     Computed dipole along edir(3) :
        Dipole               -0.0185 Ry au,         -0.0470 Debye
        Dipole field         -0.0000 Ry au

        Potential amp.        0.0042 Ry
        Total length         45.6633 bohr

     End of self-consistent calculation

[...]

          k = 0.0587 0.0000 0.0000 ( 18789 PWs)   bands (ev):

[...]

          k =-0.0880-0.1424 0.0000 ( 18838 PWs)   bands (ev):

   -90.9003 -90.9003 -90.6331 -90.6331 -90.5391 -90.5391 -66.8542 -66.8542
   -66.7080 -66.7080 -66.5117 -66.5117 -54.3931 -54.3931 -54.3613 -54.3613
   -54.3600 -54.3600 -54.1456 -54.1456 -54.1063 -54.1063 -54.0605 -54.0605
   -54.0563 -54.0563 -54.0208 -54.0208 -53.9503 -53.9503 -33.3555 -33.3555
   -33.2759 -33.2759 -33.1712 -33.1712 -33.1324 -33.1324 -33.0122 -33.0122
   -33.0006 -33.0006 -32.9328 -32.9328 -32.8422 -32.8422 -32.5138 -32.5138
    -4.1996  -4.1996  -3.8895  -3.8895  -3.7700  -3.7700  -3.6891  -3.6891
    -3.4818  -3.4818  -3.3856  -3.3856  -3.3363  -3.3363  -3.0985  -3.0985
    -3.0069  -3.0069  -2.9456  -2.9456  -2.8686  -2.8686  -2.8367  -2.8367
    -2.7058  -2.7058  -2.6321  -2.6321  -2.5064  -2.5064  -2.4428  -2.4428
    -1.6994  -1.6994  -0.7218  -0.7218   0.0519   0.0519   0.3343   0.3343
     0.9900   0.9900   1.0917   1.0917   1.7775   1.7775   1.8114   1.8114
     2.1161   2.1161   2.3649   2.3649   2.4418   2.4418   2.6215   2.6215
     2.9921   2.9921   3.6277   3.6277   4.2583   4.2583   4.4807   4.4807
     4.9869   4.9869   5.0975   5.0975   5.5041   5.5041   6.1787   6.1787
     6.9582   6.9582   7.3518   7.3519   7.7342   7.7343

     the Fermi energy is     1.8798 ev

!    total energy              =   -2638.73368661 Ry
     Harris-Foulkes estimate   =   -2638.73368854 Ry
     estimated scf accuracy    <       0.00000057 Ry

     The total energy is the sum of the following terms:

     one-electron contribution =  -18606.47637031 Ry
     hartree contribution      =    9288.64885096 Ry
     xc contribution           =    -441.57420818 Ry
     ewald contribution        =    7120.73023654 Ry
     electric field correction =       0.00000086 Ry
     smearing contrib. (-TS)   =      -0.06219647 Ry

     convergence has been achieved in  16 iterations

 BEEF-vdW xc energy contributions
           1 :   -386.488958270549
           2 :    354.484957358338
           3 :   -299.380013599677
           4 :    235.223088561807
           5 :   -175.798279059063
           6 :    130.072048311582
           7 :   -100.293096483290
           8 :    83.0954021380156
           9 :   -72.5711301659856
          10 :    63.5448775210025
          11 :   -53.5355258549146
          12 :    42.8346571592623
          13 :   -33.1912489456926
          14 :    26.1624169161011
          15 :   -22.0923887424751
          16 :    20.0927900974204
          17 :   -18.7646527530080
          18 :    17.0591802595000
          19 :   -14.7505803456128
          20 :    12.3309350793938
          21 :   -10.5088055348352
          22 :    9.68096497161127
          23 :   -9.69513267643345
          24 :    9.99178973655683
          25 :   -9.97860591192409
          26 :    9.37689983514878
          27 :   -8.33916501803947
          28 :    7.29853568056217
          29 :   -6.67533933882953
          30 :    6.63010196910739
          31 :   -36.0876744508753
          32 :   -26.6258283958218

     Forces acting on atoms (Ry/au):

     negative rho (up, down):  5.923E-01 0.000E+00
     atom    1 type  1   force =    -0.00000003   -0.00717705   -0.01724340
     atom    2 type  1   force =    -0.00000006   -0.00717731   -0.01724341
     atom    3 type  2   force =     0.00000003    0.01430297    0.03532451
     atom    4 type  2   force =    -0.00000014    0.01430311    0.03532446
     atom    5 type  1   force =     0.00000007    0.00875415   -0.00739269
     atom    6 type  1   force =    -0.00000001    0.00875412   -0.00739269
     atom    7 type  2   force =     0.00000003   -0.01514606   -0.01345380
     atom    8 type  2   force =     0.00000001   -0.01514597   -0.01345378
     atom    9 type  1   force =    -0.00000012   -0.00042225    0.00187707
     atom   10 type  1   force =     0.00000010   -0.00042215    0.00187709
     atom   11 type  2   force =     0.00000001   -0.00031176    0.00088830
     atom   12 type  2   force =     0.00000013   -0.00031180    0.00088833

     Total force =     0.068520     Total SCF correction =     0.002279

     entering subroutine stress ...

     negative rho (up, down):  5.923E-01 0.000E+00
          total   stress  (Ry/bohr**3)                   (kbar)     P=  -16.41
  -0.00014635   0.00000000  -0.00000000        -21.53      0.00     -0.00
   0.00000000  -0.00012711  -0.00001447          0.00    -18.70     -2.13
  -0.00000000  -0.00001447  -0.00006110         -0.00     -2.13     -8.99

 !ASE

     Writing output data file calc.save

     General routines

     Parallel routines

   This run was terminated on:  17:59:12  18Dec2018

   JOB DONE.
Job  /afs/slac/g/suncat/bin/suncat-tsmpirun -x LD_LIBRARY_PATH -wdir /scratch/qe529565_BeT9G pw.x -in pw.inp

TID   HOST_NAME   COMMAND_LINE            STATUS            TERMINATION_TIME
00000 suncat0024 pw.x -in pw.inp   Done                     12/18/2018 17:59:12
00001 suncat0024 pw.x -in pw.inp   Done                     12/18/2018 17:59:12
00002 suncat0024 pw.x -in pw.inp   Done                     12/18/2018 17:59:12
00003 suncat0024 pw.x -in pw.inp   Done                     12/18/2018 17:59:12
00004 suncat0024 pw.x -in pw.inp   Done                     12/18/2018 17:59:12
00005 suncat0024 pw.x -in pw.inp   Done                     12/18/2018 17:59:12
00006 suncat0024 pw.x -in pw.inp   Done                     12/18/2018 17:59:12
00007 suncat0024 pw.x -in pw.inp   Done                     12/18/2018 17:59:12
00008 suncat0023 pw.x -in pw.inp   Done                     12/18/2018 17:59:12
00009 suncat0023 pw.x -in pw.inp   Done                     12/18/2018 17:59:12
00010 suncat0023 pw.x -in pw.inp   Done                     12/18/2018 17:59:12
00011 suncat0023 pw.x -in pw.inp   Done                     12/18/2018 17:59:12
00012 suncat0023 pw.x -in pw.inp   Done                     12/18/2018 17:59:12
00013 suncat0023 pw.x -in pw.inp   Done                     12/18/2018 17:59:12
00014 suncat0023 pw.x -in pw.inp   Done                     12/18/2018 17:59:12
00015 suncat0023 pw.x -in pw.inp   Done                     12/18/2018 17:59:12
00016 suncat0022 pw.x -in pw.inp   Done                     12/18/2018 17:59:12
00017 suncat0022 pw.x -in pw.inp   Done                     12/18/2018 17:59:12
00018 suncat0022 pw.x -in pw.inp   Done                     12/18/2018 17:59:12
00019 suncat0022 pw.x -in pw.inp   Done                     12/18/2018 17:59:12
00020 suncat0022 pw.x -in pw.inp   Done                     12/18/2018 17:59:12
00021 suncat0022 pw.x -in pw.inp   Done                     12/18/2018 17:59:12
00022 suncat0022 pw.x -in pw.inp   Done                     12/18/2018 17:59:12
00023 suncat0022 pw.x -in pw.inp   Done                     12/18/2018 17:59:12
00024 suncat0021 pw.x -in pw.inp   Done                     12/18/2018 17:59:12
00025 suncat0021 pw.x -in pw.inp   Done                     12/18/2018 17:59:12
00026 suncat0021 pw.x -in pw.inp   Done                     12/18/2018 17:59:12
00027 suncat0021 pw.x -in pw.inp   Done                     12/18/2018 17:59:12
00028 suncat0021 pw.x -in pw.inp   Done                     12/18/2018 17:59:12
00029 suncat0021 pw.x -in pw.inp   Done                     12/18/2018 17:59:12
00030 suncat0021 pw.x -in pw.inp   Done                     12/18/2018 17:59:12
00031 suncat0021 pw.x -in pw.inp   Done                     12/18/2018 17:59:12