     Program PWSCF v.5.1rc2 (svn rev. 11289) starts on 19Dec2018 at  6:33:14

     Current dimensions of program PWSCF are:
     Max number of different atomic species (ntypx) = 10
     Max number of k-points (npk) =  40000
     Max angular momentum in pseudopotentials (lmaxx) =  3
     Presently stress not available with electric field

     IMPORTANT: XC functional enforced from input :
     Exchange-correlation      = BEEF-VDW ( 1  4 27 13 2)
     Any further DFT definition will be discarded
     Please, verify this is what you really want

     Subspace diagonalization in iterative solution of the eigenvalue problem:
     a serial algorithm will be used

     Found symmetry operation: I + ( -0.5000 -0.5000  0.0000)
     This is a supercell, fractional translations are disabled

     bravais-lattice index     =            0
     lattice parameter (alat)  =       1.8897  a.u.
     unit-cell volume          =    4832.3590 (a.u.)^3
     number of atoms/cell      =           12
     number of atomic types    =            2
     number of electrons       =       156.00
     number of Kohn-Sham states=          108
     kinetic-energy cutoff     =      36.7493  Ry
     charge density cutoff     =     367.4932  Ry
     convergence threshold     =      1.0E-06
     mixing beta               =       0.1000
     number of iterations used =           10  plain     mixing
     Exchange-correlation      = BEEF-VDW ( 1  4 27 13 2)
     nstep                     =           50

     celldm(1)=   1.889726  celldm(2)=   0.000000  celldm(3)=   0.000000
     celldm(4)=   0.000000  celldm(5)=   0.000000  celldm(6)=   0.000000

     crystal axes: (cart. coord. in units of alat)
               a(1) = (   5.554843   0.000000   0.000000 )
               a(2) = (   1.790410   5.258395   0.000000 )
               a(3) = (   0.000000   0.000000  24.515320 )

     reciprocal axes: (cart. coord. in units 2 pi/alat)
               b(1) = (  0.180023 -0.061295  0.000000 )
               b(2) = (  0.000000  0.190172  0.000000 )
               b(3) = (  0.000000  0.000000  0.040791 )

     PseudoPot. # 1 for Cr read from file:
     /afs/slac.stanford.edu/u/if/mamunm/psp/gbrv1.5pbe/Cr.UPF
     MD5 check sum: 0d52af634a40206e4dee301ad30da4bf
     Pseudo is Ultrasoft + core correction, Zval = 14.0
     Generated by new atomic code, or converted to UPF format
     Using radial grid of  857 points,  6 beta functions with:
                l(1) =   0
                l(2) =   0
                l(3) =   1
                l(4) =   1
                l(5) =   2
                l(6) =   2
     Q(r) pseudized with  8 coefficients,  rinner =    0.950   0.950   0.950
                                                       0.950   0.950

     PseudoPot. # 2 for Hf read from file:
     /afs/slac.stanford.edu/u/if/mamunm/psp/gbrv1.5pbe/Hf.UPF
     MD5 check sum: 8ee9378dfe14276e333edf04c5e4aa26
     Pseudo is Ultrasoft + core correction, Zval = 12.0
     Generated by new atomic code, or converted to UPF format
     Using radial grid of  921 points,  8 beta functions with:
                l(1) =   0
                l(2) =   0
                l(3) =   0
                l(4) =   1
                l(5) =   1
                l(6) =   2
                l(7) =   2
                l(8) =   3
     Q(r) pseudized with  6 coefficients,  rinner =    1.200   1.200   1.200
                                                       1.200   1.200   1.200
                                                       1.200

     vdW kernel table read from file vdW_kernel_table
     MD5 check sum: 095c7af220d748ca6e76c0b4c6cfb241

     atomic species   valence    mass     pseudopotential
        Cr1           14.00    51.99610     Cr( 1.00)
        Hf1           12.00   178.49000     Hf( 1.00)

     No symmetry found

   Cartesian axes

     site n.     atom                  positions (alat units)
         1           Cr1 tau(   1) = (   0.0000000   0.0000000  10.0000000  )
         2           Cr1 tau(   2) = (   3.6726268   2.6291974  10.0000000  )
         3           Hf1 tau(   3) = (   2.7774217   0.0000000  10.0000000  )
         4           Hf1 tau(   4) = (   0.8952051   2.6291974  10.0000000  )
         5           Cr1 tau(   5) = (   5.5548434   3.9766577  12.2576602  )
         6           Cr1 tau(   6) = (   1.8822166   1.3474603  12.2576602  )
         7           Hf1 tau(   7) = (   2.7774217   3.9766577  12.2576602  )
         8           Hf1 tau(   8) = (   4.6596383   1.3474603  12.2576602  )
         9           Cr1 tau(   9) = (   3.7644331   2.6949206  14.5153205  )
        10           Cr1 tau(  10) = (   0.0918063   0.0657232  14.5153205  )
        11           Hf1 tau(  11) = (   0.9870114   2.6949206  14.5153205  )
        12           Hf1 tau(  12) = (   2.8692280   0.0657232  14.5153205  )

     number of k points=    20  Fermi-Dirac smearing, width (Ry)=  0.0110
                       cart. coord. in units 2pi/alat
        k(    1) = (   0.0000000   0.0000000   0.0000000), wk =   0.0555556
        k(    2) = (   0.0000000   0.0316954   0.0000000), wk =   0.1111111
        k(    3) = (   0.0000000   0.0633907   0.0000000), wk =   0.1111111
        k(    4) = (   0.0000000  -0.0950861   0.0000000), wk =   0.0555556
        k(    5) = (   0.0300038  -0.0102159   0.0000000), wk =   0.1111111
        k(    6) = (   0.0300038   0.0214795   0.0000000), wk =   0.1111111
        k(    7) = (   0.0300038   0.0531748   0.0000000), wk =   0.1111111
        k(    8) = (   0.0300038  -0.1053019   0.0000000), wk =   0.1111111
        k(    9) = (   0.0300038  -0.0736066   0.0000000), wk =   0.1111111
        k(   10) = (   0.0300038  -0.0419112   0.0000000), wk =   0.1111111
        k(   11) = (   0.0600077  -0.0204318   0.0000000), wk =   0.1111111
        k(   12) = (   0.0600077   0.0112636   0.0000000), wk =   0.1111111
        k(   13) = (   0.0600077   0.0429589   0.0000000), wk =   0.1111111
        k(   14) = (   0.0600077  -0.1155178   0.0000000), wk =   0.1111111
        k(   15) = (   0.0600077  -0.0838225   0.0000000), wk =   0.1111111
        k(   16) = (   0.0600077  -0.0521271   0.0000000), wk =   0.1111111
        k(   17) = (  -0.0900115   0.0306477   0.0000000), wk =   0.0555556
        k(   18) = (  -0.0900115   0.0623430   0.0000000), wk =   0.1111111
        k(   19) = (  -0.0900115   0.0940384   0.0000000), wk =   0.1111111
        k(   20) = (  -0.0900115  -0.0644384   0.0000000), wk =   0.0555556

     Largest allocated arrays     est. size (Mb)     dimensions
     Largest temporary arrays     est. size (Mb)     dimensions

     Check: negative/imaginary core charge=   -0.000004    0.000000

     Initial potential from superposition of free atoms
     Check: negative starting charge=   -0.653044

     starting charge  137.99990, renormalised to  156.00000

     negative rho (up, down):  7.382E-01 0.000E+00

     *
     * You are using vdW-DF for exchange-correlation in this calculation.
     * Please cite the following three references that made this development
     * possible:
     *
     *   M. Dion, H. Rydberg, E. Schroder, D. C. Langreth, and
     *   B. I. Lundqvist, Phys. Rev. Lett. 92, 246401 (2004).
     *
     *   T. Thonhauser, V. R. Cooper, S. Li, A. Puzder, P. Hyldgaard, and
     *   D. C. Langreth, Phys. Rev. B 76, 125112 (2007).
     *
     *   G. Roman-Perez and J. M. Soler, Phys. Rev. Lett. 103, 096102 (2009).
     *
     *
     * If you are using vdW-DF2, please also cite:
     *
     *   K. Lee, E. D. Murray, L. Kong, B. I. Lundqvist, and
     *   D. C. Langreth, Phys. Rev. B 82, 081101(R) (2010).
     *
     *
     * If you are calculating the stress with vdW-DF, please also cite:
     *
     *   R. Sabatini, E. Kucukbenli, B. Kolb, T. Thonhauser, and
     *   S. de Gironcoli, J. Phys.: Condens. Matter 24, 424209 (2012).
     *

     Carrying out vdW-DF run using the following parameters:

     Nqs =      20    Nr_points =    1024   r_max =   100.000
     q_mesh =
               0.00001000     0.04494208     0.09755937     0.15916263
               0.23128650     0.31572767     0.41458969     0.53033537
               0.66584808     0.82450364     1.01025438     1.22772762
               1.48234092     1.78043706     2.12944203     2.53805004
               3.01644009     3.57652955     4.23227104     5.00000000

     Gradients computed in reciprocal space

     Adding external electric field

     Computed dipole along edir(3) :
        Dipole                0.0000 Ry au,          0.0000 Debye
        Dipole field          0.0000 Ry au

        Potential amp.       -0.0000 Ry
        Total length         45.1691 bohr

     Starting wfc are  138 randomized atomic wfcs

     Self-consistent Calculation

     iteration #  1     ecut=    36.75 Ry     beta=0.10
     Davidson diagonalization with overlap
     ethr =  1.00E-02,  avg # of iterations =  8.9

[...]

     total energy              =   -2002.04942900 Ry
     Harris-Foulkes estimate   =   -2041.55977521 Ry
     estimated scf accuracy    <     221.75318294 Ry

[...]

     End of self-consistent calculation

          k = 0.0000 0.0000 0.0000 ( 18203 PWs)   bands (ev):

   -70.0027 -69.9992 -69.9830 -69.9827 -69.9800 -69.9800 -60.7528 -60.7528
   -60.7380 -60.7379 -60.1203 -60.1054 -41.3888 -41.3882 -41.3809 -41.3776
   -41.3468 -41.3356 -41.3328 -41.3311 -41.3304 -41.3300 -41.2941 -41.2878
   -41.2872 -41.2477 -41.2336 -41.2310 -41.2287 -41.2243 -29.4360 -29.4297
   -29.4103 -29.4007 -29.3881 -29.3626 -29.2943 -29.2788 -29.2699 -29.2446
   -29.1016 -29.1005 -28.8789 -28.7207 -28.7038 -28.6737 -28.6702 -28.5353
    -5.1575  -3.5842  -2.3083  -1.8924  -1.7932  -1.6189  -1.5967  -1.3920
    -1.3500  -1.1918  -1.0554  -0.9331  -0.7282   0.0266   0.1089   0.1486
     0.1953   0.2510   0.3192   0.3420   0.3737   0.5739   0.7049   0.8939
     1.0122   1.0547   1.1600   1.2159   1.3992   1.6334   1.6650   1.7217
     1.8144   1.8861   2.1312   2.2844   2.8474   2.8533   2.8894   2.9189
     2.9193   3.0047   3.2260   3.4022   3.5215   3.5715   3.5871   3.7303
     3.9597   4.1461   4.2915   4.3577   4.5151   4.5724   4.5841   4.5860
     4.7345   4.8451   4.9084   4.9444

[...]

          k =-0.0900 0.0306 0.0000 ( 18170 PWs)   bands (ev):

[...]

     the Fermi energy is     1.2603 ev

!    total energy              =   -2020.74258934 Ry
     Harris-Foulkes estimate   =   -2020.74258458 Ry
     estimated scf accuracy    <       0.00000014 Ry

     The total energy is the sum of the following terms:

     one-electron contribution =  -12735.52169377 Ry
     hartree contribution      =    6357.04768550 Ry
     xc contribution           =    -603.95559598 Ry
     ewald contribution        =    4961.82178703 Ry
     electric field correction =       0.00000000 Ry
     smearing contrib. (-TS)   =      -0.13477212 Ry

     convergence has been achieved in  31 iterations

 BEEF-vdW xc energy contributions
           1 :   -540.898986975225
           2 :    499.340801499920
           3 :   -426.818570168703
           4 :    340.123766544601
           5 :   -255.997808030661
           6 :    185.925473420487
           7 :   -134.126934190035
[...]

[...]

   This run was terminated on:   8:42: 2  19Dec2018

[...]

     Program PWSCF v.5.1rc2 (svn rev. 11289) starts on 19Dec2018 at  8:42: 9

[...]

     iteration # 21     ecut=    36.75 Ry     beta=0.10
     Davidson diagonalization with overlap
     c_bands:  1 eigenvalues not converged
     ethr =  4.01E-06,  avg # of iterations =  7.0

[...]

   This run was terminated on:   9: 4:28  19Dec2018

[...]

     Program PWSCF v.5.1rc2 (svn rev. 11289) starts on 19Dec2018 at  9: 4:34

     Current dimensions of program PWSCF are:
     Max number of different atomic species (ntypx) = 10
     Max number of k-points (npk) =  40000
     Max angular momentum in pseudopotentials (lmaxx) =  3
     Presently stress not available with electric field

     IMPORTANT: XC functional enforced from input :
     Exchange-correlation      = BEEF-VDW ( 1  4 27 13 2)
     Any further DFT definition will be discarded
     Please, verify this is what you really want

     Subspace diagonalization in iterative solution of the eigenvalue problem:
     a serial algorithm will be used

     bravais-lattice index     =            0
     lattice parameter (alat)  =       1.8897  a.u.
     unit-cell volume          =    4832.3590 (a.u.)^3
     number of atoms/cell      =           12
     number of atomic types    =            2
     number of electrons       =       156.00
     number of Kohn-Sham states=          108
     kinetic-energy cutoff     =      36.7493  Ry
     charge density cutoff     =     367.4932  Ry
     convergence threshold     =      1.0E-06
     mixing beta               =       0.1000
     number of iterations used =           10  plain     mixing
     Exchange-correlation      = BEEF-VDW ( 1  4 27 13 2)
     nstep                     =           50

     celldm(1)=   1.889726  celldm(2)=   0.000000  celldm(3)=   0.000000
     celldm(4)=   0.000000  celldm(5)=   0.000000  celldm(6)=   0.000000

     crystal axes: (cart. coord. in units of alat)
               a(1) = (   5.554843   0.000000   0.000000 )
               a(2) = (   1.790410   5.258395   0.000000 )
               a(3) = (   0.000000   0.000000  24.515320 )

     reciprocal axes: (cart. coord. in units 2 pi/alat)
               b(1) = (  0.180023 -0.061295  0.000000 )
               b(2) = (  0.000000  0.190172  0.000000 )
               b(3) = (  0.000000  0.000000  0.040791 )

     PseudoPot. # 1 for Cr read from file:
     /afs/slac.stanford.edu/u/if/mamunm/psp/gbrv1.5pbe/Cr.UPF
     MD5 check sum: 0d52af634a40206e4dee301ad30da4bf
     Pseudo is Ultrasoft + core correction, Zval = 14.0
     Generated by new atomic code, or converted to UPF format
     Using radial grid of  857 points,  6 beta functions with:
                l(1) =   0
                l(2) =   0
                l(3) =   1
                l(4) =   1
                l(5) =   2
                l(6) =   2
     Q(r) pseudized with  8 coefficients,  rinner =    0.950   0.950   0.950
                                                       0.950   0.950

     PseudoPot. # 2 for Hf read from file:
     /afs/slac.stanford.edu/u/if/mamunm/psp/gbrv1.5pbe/Hf.UPF
     MD5 check sum: 8ee9378dfe14276e333edf04c5e4aa26
     Pseudo is Ultrasoft + core correction, Zval = 12.0
     Generated by new atomic code, or converted to UPF format
     Using radial grid of  921 points,  8 beta functions with:
                l(1) =   0
                l(2) =   0
                l(3) =   0
                l(4) =   1
                l(5) =   1
                l(6) =   2
                l(7) =   2
                l(8) =   3
     Q(r) pseudized with  6 coefficients,  rinner =    1.200   1.200   1.200
                                                       1.200   1.200   1.200
                                                       1.200

     vdW kernel table read from file vdW_kernel_table
     MD5 check sum: 095c7af220d748ca6e76c0b4c6cfb241

     atomic species   valence    mass     pseudopotential
        Cr1           14.00    51.99610     Cr( 1.00)
        Hf1           12.00   178.49000     Hf( 1.00)

     No symmetry found

   Cartesian axes

     site n.     atom                  positions (alat units)
         1           Cr1 tau(   1) = (   0.0000000   0.0000000  10.0000000  )
         2           Cr1 tau(   2) = (   3.6726268   2.6291974  10.0000000  )
         3           Hf1 tau(   3) = (   2.7774217   0.0000000  10.0000000  )
         4           Hf1 tau(   4) = (   0.8952051   2.6291974  10.0000000  )
         5           Cr1 tau(   5) = (   5.5548434   3.9766577  12.2576602  )
         6           Cr1 tau(   6) = (   1.8822166   1.3474603  12.2576602  )
         7           Hf1 tau(   7) = (   2.7774217   3.9766577  12.2576602  )
         8           Hf1 tau(   8) = (   4.6596383   1.3474603  12.2576602  )
         9           Cr1 tau(   9) = (   3.7440358   2.6803154  14.3788550  )
        10           Cr1 tau(  10) = (   0.0716321   0.0512810  14.3789168  )
        11           Hf1 tau(  11) = (   0.9535912   2.6707837  14.4986242  )
        12           Hf1 tau(  12) = (   2.8356034   0.0418661  14.4986192  )

     number of k points=    20  Fermi-Dirac smearing, width (Ry)=  0.0110
                       cart. coord. in units 2pi/alat
        k(    1) = (   0.0000000   0.0000000   0.0000000), wk =   0.0555556
        k(    2) = (   0.0000000   0.0316954   0.0000000), wk =   0.1111111
        k(    3) = (   0.0000000   0.0633907   0.0000000), wk =   0.1111111
        k(    4) = (   0.0000000  -0.0950861   0.0000000), wk =   0.0555556
        k(    5) = (   0.0300038  -0.0102159   0.0000000), wk =   0.1111111
        k(    6) = (   0.0300038   0.0214795   0.0000000), wk =   0.1111111
        k(    7) = (   0.0300038   0.0531748   0.0000000), wk =   0.1111111
        k(    8) = (   0.0300038  -0.1053019   0.0000000), wk =   0.1111111
        k(    9) = (   0.0300038  -0.0736066   0.0000000), wk =   0.1111111
        k(   10) = (   0.0300038  -0.0419112   0.0000000), wk =   0.1111111
        k(   11) = (   0.0600077  -0.0204318   0.0000000), wk =   0.1111111
        k(   12) = (   0.0600077   0.0112636   0.0000000), wk =   0.1111111
        k(   13) = (   0.0600077   0.0429589   0.0000000), wk =   0.1111111
        k(   14) = (   0.0600077  -0.1155178   0.0000000), wk =   0.1111111
        k(   15) = (   0.0600077  -0.0838225   0.0000000), wk =   0.1111111
        k(   16) = (   0.0600077  -0.0521271   0.0000000), wk =   0.1111111
        k(   17) = (  -0.0900115   0.0306477   0.0000000), wk =   0.0555556
        k(   18) = (  -0.0900115   0.0623430   0.0000000), wk =   0.1111111
        k(   19) = (  -0.0900115   0.0940384   0.0000000), wk =   0.1111111
        k(   20) = (  -0.0900115  -0.0644384   0.0000000), wk =   0.0555556

     Largest allocated arrays     est. size (Mb)     dimensions
     Largest temporary arrays     est. size (Mb)     dimensions

     Check: negative/imaginary core charge=   -0.000004    0.000000

     Initial potential from superposition of free atoms
     Check: negative starting charge=   -0.654882

     starting charge  137.99990, renormalised to  156.00000

[...]

     *
     * You are using vdW-DF for exchange-correlation in this calculation.
     * Please cite the following three references that made this development
     * possible:
     *
     *   M. Dion, H. Rydberg, E. Schroder, D. C. Langreth, and
     *   B. I. Lundqvist, Phys. Rev. Lett. 92, 246401 (2004).
     *
     *   T. Thonhauser, V. R. Cooper, S. Li, A. Puzder, P. Hyldgaard, and
     *   D. C. Langreth, Phys. Rev. B 76, 125112 (2007).
     *
     *   G. Roman-Perez and J. M. Soler, Phys. Rev. Lett. 103, 096102 (2009).
     *
     *
     * If you are using vdW-DF2, please also cite:
     *
     *   K. Lee, E. D. Murray, L. Kong, B. I. Lundqvist, and
     *   D. C. Langreth, Phys. Rev. B 82, 081101(R) (2010).
     *
     *
     * If you are calculating the stress with vdW-DF, please also cite:
     *
     *   R. Sabatini, E. Kucukbenli, B. Kolb, T. Thonhauser, and
     *   S. de Gironcoli, J. Phys.: Condens. Matter 24, 424209 (2012).
     *

     Carrying out vdW-DF run using the following parameters:

     Nqs =      20    Nr_points =    1024   r_max =   100.000
     q_mesh =
               0.00001000     0.04494208     0.09755937     0.15916263
               0.23128650     0.31572767     0.41458969     0.53033537
               0.66584808     0.82450364     1.01025438     1.22772762
               1.48234092     1.78043706     2.12944203     2.53805004
               3.01644009     3.57652955     4.23227104     5.00000000

     Gradients computed in reciprocal space

[...]

     Starting wfc are  138 randomized atomic wfcs

     Self-consistent Calculation

[...]

     total energy              =   -2020.74834482 Ry
     Harris-Foulkes estimate   =   -2020.74834328 Ry
     estimated scf accuracy    <       0.00000108 Ry

     iteration # 31     ecut=    36.75 Ry     beta=0.10
     Davidson diagonalization with overlap
     ethr =  6.93E-10,  avg # of iterations =  1.2

[...]

     negative rho (up, down):  6.919E-01 0.000E+00

     Adding external electric field

     Computed dipole along edir(3) :
        Dipole                0.0277 Ry au,          0.0703 Debye
        Dipole field          0.0001 Ry au

        Potential amp.       -0.0065 Ry
        Total length         45.1691 bohr

     End of self-consistent calculation

[...]

          k = 0.0600-0.0521 0.0000 ( 18185 PWs)   bands (ev):

[...]

          k =-0.0900-0.0644 0.0000 ( 18172 PWs)   bands (ev):

   -70.0142 -70.0114 -69.9717 -69.9687 -69.9407 -69.9376 -60.7489 -60.7440
   -60.7339 -60.7291 -60.0026 -59.9869 -41.3806 -41.3733 -41.3565 -41.3561
   -41.3483 -41.3441 -41.3181 -41.3130 -41.3107 -41.3011 -41.2956 -41.2762
   -41.2559 -41.2550 -41.2147 -41.2120 -41.2065 -41.2043 -29.4417 -29.4331
   -29.4322 -29.3866 -29.3834 -29.3567 -29.3249 -29.2881 -29.2696 -29.2451
   -29.0960 -29.0938 -28.7919 -28.6235 -28.6103 -28.5938 -28.5870 -28.4390
    -3.1079  -3.0006  -2.1916  -1.9575  -1.3107  -1.0592  -0.8044  -0.7626
    -0.7226  -0.5679  -0.1474   0.0478   0.1688   0.1937   0.2355   0.2692
     0.3687   0.4124   0.4747   0.4833   0.6211   0.6421   0.7407   0.9089
     0.9951   1.0777   1.1616   1.1765   1.2195   1.2366   1.2692   1.2700
     1.3327   1.4528   1.4706   1.5255   1.6056   1.8058   1.8661   1.9520
     2.0276   2.4169   2.8383   2.9431   3.0009   3.0593   3.1055   3.1308
     3.2674   3.3223   3.6829   3.7536   3.8603   3.8884   3.9469   4.0116
     4.0626   4.4926   4.5476   4.6280

     the Fermi energy is     1.2771 ev

!    total energy              =   -2020.74835162 Ry
     Harris-Foulkes estimate   =   -2020.74834492 Ry
     estimated scf accuracy    <       0.00000066 Ry

     The total energy is the sum of the following terms:

     one-electron contribution =  -12878.05869872 Ry
     hartree contribution      =    6428.47391651 Ry
     xc contribution           =    -604.06427266 Ry
     ewald contribution        =    5033.03469080 Ry
     electric field correction =       0.00000199 Ry
     smearing contrib. (-TS)   =      -0.13398954 Ry

     convergence has been achieved in  31 iterations

 BEEF-vdW xc energy contributions
           1 :   -541.013163896303
           2 :    499.504400248687
           3 :   -427.034469883526
           4 :    340.337904283765
           5 :   -256.135208050950
           6 :    185.945256504208
           7 :   -134.055373696458
           8 :    98.7948897055828
           9 :   -75.6842320064818
          10 :    60.4099265265199
          11 :   -50.2759625406748
          12 :    43.9611206355395
          13 :   -40.4396403606369
          14 :    38.1446213609267
          15 :   -35.0271297448245
          16 :    29.3888578307988
          17 :   -20.8448995485635
          18 :    10.6952951677583
          19 :   -1.40240875714403
          20 :   -4.57630808664510
          21 :    5.94963667661136
          22 :   -3.13145505192995
          23 :   -2.08250266825758
          24 :    7.43281095818782
          25 :   -11.1592624603780
          26 :    12.5134876509271
          27 :   -11.6757485873379
          28 :    9.29330715698177
          29 :   -6.03062437487392
          30 :    2.40276990106622
          31 :   -42.0298616041441
          32 :   -30.2268977075648

     Forces acting on atoms (Ry/au):

     negative rho (up, down):  6.919E-01 0.000E+00
     atom    1 type  1   force =     0.00007572    0.00005422    0.02016237
     atom    2 type  1   force =     0.00007705    0.00005519    0.02016643
     atom    3 type  2   force =     0.00507302    0.00368728   -0.00318285
     atom    4 type  2   force =     0.00512550    0.00361396   -0.00318318
     atom    5 type  1   force =    -0.00096303   -0.00068948    0.00129213
     atom    6 type  1   force =    -0.00096262   -0.00068908    0.00129471
     atom    7 type  2   force =    -0.00302160   -0.00216720   -0.01916794
     atom    8 type  2   force =    -0.00302475   -0.00216178   -0.01916801
     atom    9 type  1   force =    -0.00102168   -0.00073090    0.00089776
     atom   10 type  1   force =    -0.00108692   -0.00077745    0.00088779
     atom   11 type  2   force =    -0.00014175   -0.00008852   -0.00000016
     atom   12 type  2   force =    -0.00012894   -0.00010623    0.00000096

     Total force =     0.041058     Total SCF correction =     0.001841

     entering subroutine stress ...

     negative rho (up, down):  6.919E-01 0.000E+00
          total   stress  (Ry/bohr**3)                   (kbar)     P=  -17.52
  -0.00015980  -0.00001624  -0.00001071        -23.51     -2.39     -1.57
  -0.00001624  -0.00014874  -0.00000766         -2.39    -21.88     -1.13
  -0.00001071  -0.00000766  -0.00004880         -1.57     -1.13     -7.18

 !ASE

     Writing output data file calc.save

     General routines

     Parallel routines

   This run was terminated on:   9:26:26  19Dec2018

   JOB DONE.
Job  /afs/slac/g/suncat/bin/suncat-tsmpirun -x LD_LIBRARY_PATH -wdir /scratch/qe529724_z4IPL pw.x -in pw.inp

TID   HOST_NAME   COMMAND_LINE            STATUS            TERMINATION_TIME
00000 suncat0228 pw.x -in pw.inp   Done                     12/19/2018 09:26:26
00001 suncat0228 pw.x -in pw.inp   Done                     12/19/2018 09:26:26
00002 suncat0228 pw.x -in pw.inp   Done                     12/19/2018 09:26:26
00003 suncat0228 pw.x -in pw.inp   Done                     12/19/2018 09:26:26
00004 suncat0228 pw.x -in pw.inp   Done                     12/19/2018 09:26:26
00005 suncat0228 pw.x -in pw.inp   Done                     12/19/2018 09:26:26
00006 suncat0228 pw.x -in pw.inp   Done                     12/19/2018 09:26:26
00007 suncat0228 pw.x -in pw.inp   Done                     12/19/2018 09:26:26
00008 suncat0227 pw.x -in pw.inp   Done                     12/19/2018 09:26:26
00009 suncat0227 pw.x -in pw.inp   Done                     12/19/2018 09:26:26
00010 suncat0227 pw.x -in pw.inp   Done                     12/19/2018 09:26:26
00011 suncat0227 pw.x -in pw.inp   Done                     12/19/2018 09:26:26
00012 suncat0227 pw.x -in pw.inp   Done                     12/19/2018 09:26:26
00013 suncat0227 pw.x -in pw.inp   Done                     12/19/2018 09:26:26
00014 suncat0227 pw.x -in pw.inp   Done                     12/19/2018 09:26:26
00015 suncat0227 pw.x -in pw.inp   Done                     12/19/2018 09:26:26
00016 suncat0226 pw.x -in pw.inp   Done                     12/19/2018 09:26:26
00017 suncat0226 pw.x -in pw.inp   Done                     12/19/2018 09:26:26
00018 suncat0226 pw.x -in pw.inp   Done                     12/19/2018 09:26:26
00019 suncat0226 pw.x -in pw.inp   Done                     12/19/2018 09:26:26
00020 suncat0226 pw.x -in pw.inp   Done                     12/19/2018 09:26:26
00021 suncat0226 pw.x -in pw.inp   Done                     12/19/2018 09:26:26
00022 suncat0226 pw.x -in pw.inp   Done                     12/19/2018 09:26:26
00023 suncat0226 pw.x -in pw.inp   Done                     12/19/2018 09:26:26
00024 suncat0225 pw.x -in pw.inp   Done                     12/19/2018 09:26:26
00025 suncat0225 pw.x -in pw.inp   Done                     12/19/2018 09:26:26
00026 suncat0225 pw.x -in pw.inp   Done                     12/19/2018 09:26:26
00027 suncat0225 pw.x -in pw.inp   Done                     12/19/2018 09:26:26
00028 suncat0225 pw.x -in pw.inp   Done                     12/19/2018 09:26:26
00029 suncat0225 pw.x -in pw.inp   Done                     12/19/2018 09:26:26
00030 suncat0225 pw.x -in pw.inp   Done                     12/19/2018 09:26:26
00031 suncat0225 pw.x -in pw.inp   Done                     12/19/2018 09:26:26