     Program PWSCF v.5.1rc2 (svn rev. 11289) starts on 19Dec2018 at  8:55:28

     Current dimensions of program PWSCF are:
     Max number of different atomic species (ntypx) = 10
     Max number of k-points (npk) =  40000
     Max angular momentum in pseudopotentials (lmaxx) =  3
     Presently stress not available with electric field

     IMPORTANT: XC functional enforced from input :
     Exchange-correlation      = BEEF-VDW ( 1  4 27 13 2)
     Any further DFT definition will be discarded
     Please, verify this is what you really want

     Subspace diagonalization in iterative solution of the eigenvalue problem:
     a serial algorithm will be used

     Found symmetry operation: I + ( -0.5000 -0.5000  0.0000)
     This is a supercell, fractional translations are disabled

     bravais-lattice index     =            0
     lattice parameter (alat)  =       1.8897  a.u.
     unit-cell volume          =    6545.8177 (a.u.)^3
     number of atoms/cell      =           12
     number of atomic types    =            2
     number of electrons       =       180.00
     number of Kohn-Sham states=          120
     kinetic-energy cutoff     =      36.7493  Ry
     charge density cutoff     =     367.4932  Ry
     convergence threshold     =      1.0E-06
     mixing beta               =       0.1000
     number of iterations used =           10  plain     mixing
     Exchange-correlation      = BEEF-VDW ( 1  4 27 13 2)
     nstep                     =           50

     celldm(1)=   1.889726  celldm(2)=   0.000000  celldm(3)=   0.000000
     celldm(4)=   0.000000  celldm(5)=   0.000000  celldm(6)=   0.000000

     crystal axes: (cart. coord. in units of alat)
               a(1) = (   6.389888   0.000000   0.000000 )
               a(2) = (   2.146696   6.018502   0.000000 )
               a(3) = (   0.000000   0.000000  25.222353 )

     reciprocal axes: (cart. coord. in units 2 pi/alat)
               b(1) = (  0.156497 -0.055820  0.000000 )
               b(2) = (  0.000000  0.166154  0.000000 )
               b(3) = (  0.000000  0.000000  0.039647 )

     PseudoPot. # 1 for Cu read from file:
     /afs/slac.stanford.edu/u/if/mamunm/psp/gbrv1.5pbe/Cu.UPF
     MD5 check sum: 6e991ff952a84172a2a52a1c1e996048
     Pseudo is Ultrasoft + core correction, Zval = 19.0
     Generated by new atomic code, or converted to UPF format
     Using radial grid of  867 points,  6 beta functions with:
                l(1) =   0
                l(2) =   0
                l(3) =   1
                l(4) =   1
                l(5) =   2
                l(6) =   2
     Q(r) pseudized with  8 coefficients,  rinner =    1.150   1.150   1.150
                                                       1.150   1.150

     PseudoPot. # 2 for La read from file:
     /afs/slac.stanford.edu/u/if/mamunm/psp/gbrv1.5pbe/La.UPF
     MD5 check sum: 5937b0c7494ba0601a847275249473aa
     Pseudo is Ultrasoft + core correction, Zval = 11.0
     Generated by new atomic code, or converted to UPF format
     Using radial grid of  995 points,  8 beta functions with:
                l(1) =   0
                l(2) =   0
                l(3) =   1
                l(4) =   1
                l(5) =   2
                l(6) =   2
                l(7) =   3
                l(8) =   3
     Q(r) pseudized with  8 coefficients,  rinner =    1.700   1.700   1.700
                                                       1.700   1.700   1.700
                                                       1.700

     vdW kernel table read from file vdW_kernel_table
     MD5 check sum: 095c7af220d748ca6e76c0b4c6cfb241

     atomic species   valence    mass     pseudopotential
        Cu1           19.00    63.54600     Cu( 1.00)
        La1           11.00   138.90547     La( 1.00)

     No symmetry found

   Cartesian axes

     site n.     atom                  positions (alat units)
         1           Cu1 tau(   1) = (   0.0000000   0.0000000  10.0000000  )
         2           Cu1 tau(   2) = (   4.2682921   3.0092512  10.0000000  )
         3           La1 tau(   3) = (   3.1949442   0.0000000  10.0000000  )
         4           La1 tau(   4) = (   1.0733479   3.0092512  10.0000000  )
         5           Cu1 tau(   5) = (   6.3898884   4.5050289  12.6111763  )
         6           Cu1 tau(   6) = (   2.1215963   1.4957777  12.6111763  )
         7           La1 tau(   7) = (   3.1949442   4.5050289  12.6111763  )
         8           La1 tau(   8) = (   5.3165405   1.4957777  12.6111763  )
         9           Cu1 tau(   9) = (   4.2431926   2.9915554  15.2223527  )
        10           Cu1 tau(  10) = (   8.5114847   6.0008066  15.2223527  )
        11           La1 tau(  11) = (   7.4381368   2.9915554  15.2223527  )
        12           La1 tau(  12) = (   5.3165405   6.0008066  15.2223527  )

     number of k points=    20  Fermi-Dirac smearing, width (Ry)=  0.0110
                       cart. coord. in units 2pi/alat
        k(    1) = (   0.0000000   0.0000000   0.0000000), wk =   0.0555556
        k(    2) = (   0.0000000   0.0276924   0.0000000), wk =   0.1111111
        k(    3) = (   0.0000000   0.0553848   0.0000000), wk =   0.1111111
        k(    4) = (   0.0000000  -0.0830771   0.0000000), wk =   0.0555556
        k(    5) = (   0.0260829  -0.0093033   0.0000000), wk =   0.1111111
        k(    6) = (   0.0260829   0.0183891   0.0000000), wk =   0.1111111
        k(    7) = (   0.0260829   0.0460815   0.0000000), wk =   0.1111111
        k(    8) = (   0.0260829  -0.0923805   0.0000000), wk =   0.1111111
        k(    9) = (   0.0260829  -0.0646881   0.0000000), wk =   0.1111111
        k(   10) = (   0.0260829  -0.0369957   0.0000000), wk =   0.1111111
        k(   11) = (   0.0521658  -0.0186066   0.0000000), wk =   0.1111111
        k(   12) = (   0.0521658   0.0090858   0.0000000), wk =   0.1111111
        k(   13) = (   0.0521658   0.0367781   0.0000000), wk =   0.1111111
        k(   14) = (   0.0521658  -0.1016838   0.0000000), wk =   0.1111111
        k(   15) = (   0.0521658  -0.0739914   0.0000000), wk =   0.1111111
        k(   16) = (   0.0521658  -0.0462990   0.0000000), wk =   0.1111111
        k(   17) = (  -0.0782486   0.0279099   0.0000000), wk =   0.0555556
        k(   18) = (  -0.0782486   0.0556023   0.0000000), wk =   0.1111111
        k(   19) = (  -0.0782486   0.0832947   0.0000000), wk =   0.1111111
        k(   20) = (  -0.0782486  -0.0551672   0.0000000), wk =   0.0555556

     Largest allocated arrays     est. size (Mb)     dimensions
     Largest temporary arrays     est. size (Mb)     dimensions

     Initial potential from superposition of free atoms
     Check: negative starting charge=   -0.424236

     starting charge  173.80758, renormalised to  180.00000

     negative rho (up, down):  4.394E-01 0.000E+00

     *
     * You are using vdW-DF for exchange-correlation in this calculation.
     * Please cite the following three references that made this development
     * possible:
     *
     *   M. Dion, H. Rydberg, E. Schroder, D. C. Langreth, and
     *   B. I. Lundqvist, Phys. Rev. Lett. 92, 246401 (2004).
     *
     *   T. Thonhauser, V. R. Cooper, S. Li, A. Puzder, P. Hyldgaard, and
     *   D. C. Langreth, Phys. Rev. B 76, 125112 (2007).
     *
     *   G. Roman-Perez and J. M. Soler, Phys. Rev. Lett. 103, 096102 (2009).
     *
     *
     * If you are using vdW-DF2, please also cite:
     *
     *   K. Lee, E. D. Murray, L. Kong, B. I. Lundqvist, and
     *   D. C. Langreth, Phys. Rev. B 82, 081101(R) (2010).
     *
     *
     * If you are calculating the stress with vdW-DF, please also cite:
     *
     *   R. Sabatini, E. Kucukbenli, B. Kolb, T. Thonhauser, and
     *   S. de Gironcoli, J. Phys.: Condens. Matter 24, 424209 (2012).
     *

     Carrying out vdW-DF run using the following parameters:

     Nqs =      20    Nr_points =    1024   r_max =   100.000
     q_mesh =
               0.00001000     0.04494208     0.09755937     0.15916263
               0.23128650     0.31572767     0.41458969     0.53033537
               0.66584808     0.82450364     1.01025438     1.22772762
               1.48234092     1.78043706     2.12944203     2.53805004
               3.01644009     3.57652955     4.23227104     5.00000000

     Gradients computed in reciprocal space

     Adding external electric field

     Computed dipole along edir(3) :
        Dipole               -0.0000 Ry au,         -0.0000 Debye
        Dipole field         -0.0000 Ry au

        Potential amp.        0.0000 Ry
        Total length         46.4718 bohr

     Starting wfc are  198 randomized atomic wfcs

     Self-consistent Calculation

     iteration #  1     ecut=    36.75 Ry     beta=0.10
     Davidson diagonalization with overlap
     ethr =  1.00E-02,  avg # of iterations =  3.0

[...]

     total energy              =   -3053.75979930 Ry
     Harris-Foulkes estimate   =   -3055.22249977 Ry
     estimated scf accuracy    <       8.42466515 Ry

[...]

     iteration #  8     ecut=    36.75 Ry     beta=0.10
     Davidson diagonalization with overlap
     c_bands:  2 eigenvalues not converged
     ethr =  5.19E-05,  avg # of iterations = 10.5

[...]

     End of self-consistent calculation

          k = 0.0000 0.0000 0.0000 ( 24649 PWs)   bands (ev):

  -111.2218-111.2218-111.0985-111.0984-111.0983-111.0983 -68.6178 -68.6177
   -68.6066 -68.6066 -68.5981 -68.5977 -68.5247 -68.5247 -68.5246 -68.5245
   -68.4947 -68.4945 -68.4944 -68.4942 -68.4566 -68.4566 -68.4565 -68.4564
   -32.0757 -32.0688 -31.9942 -31.9938 -31.6674 -31.5969 -15.9846 -15.9789
   -15.8468 -15.7887 -15.7634 -15.7438 -15.7418 -15.6936 -15.6395 -15.6249
   -15.5604 -15.2302 -15.1841 -15.1749 -15.1534 -15.0524 -15.0372 -14.8497
    -3.2326  -2.2672  -2.2189  -2.1779  -2.1562  -1.7248  -1.7226  -1.6764
    -1.6197  -1.6003  -1.5564  -1.5431  -1.4768  -1.4512  -1.4376  -1.4161
    -1.3870  -1.3751  -1.3492  -1.3257  -1.3155  -1.2858  -1.2696  -1.2305
    -1.2298  -1.1375  -1.1068  -1.0998  -1.0774  -1.0726  -1.0487  -1.0197
    -0.7656  -0.6650  -0.6329  -0.5307   1.2313   1.3287   1.3794   1.4635
     1.5371   1.5627   1.7974   1.9328   2.1826   2.3276   2.3753   2.3808
     2.3848   2.4190   2.4913   2.5350   2.5867   2.6707   2.6735   2.6756
     2.7079   2.7407   2.7514   2.7748   2.7887   2.8321   2.8488   2.8741
     2.8892   2.8937   2.9228   2.9338   2.9413   2.9658   2.9857   3.0072

[...]

          k =-0.0782 0.0279 0.0000 ( 24636 PWs)   bands (ev):

[...]

     the Fermi energy is     1.4871 ev

!    total energy              =   -3053.84300060 Ry
     Harris-Foulkes estimate   =   -3053.84300987 Ry
     estimated scf accuracy    <       0.00000030 Ry

     The total energy is the sum of the following terms:

     one-electron contribution =  -13885.10736998 Ry
     hartree contribution      =    6957.40551545 Ry
     xc contribution           =    -543.96500682 Ry
     ewald contribution        =    4417.90792790 Ry
     electric field correction =       0.00000000 Ry
     smearing contrib. (-TS)   =      -0.08406716 Ry

     convergence has been achieved in  20 iterations

 BEEF-vdW xc energy contributions
[...]

[...]

     Program PWSCF v.5.1rc2 (svn rev. 11289) starts on 19Dec2018 at 11: 4:13

[...]

   This run was terminated on:  11:31:46  19Dec2018

[...]

     Program PWSCF v.5.1rc2 (svn rev. 11289) starts on 19Dec2018 at 11:31:52

     Current dimensions of program PWSCF are:
     Max number of different atomic species (ntypx) = 10
     Max number of k-points (npk) =  40000
     Max angular momentum in pseudopotentials (lmaxx) =  3
     Presently stress not available with electric field

     IMPORTANT: XC functional enforced from input :
     Exchange-correlation      = BEEF-VDW ( 1  4 27 13 2)
     Any further DFT definition will be discarded
     Please, verify this is what you really want

     Subspace diagonalization in iterative solution of the eigenvalue problem:
     a serial algorithm will be used

     bravais-lattice index     =            0
     lattice parameter (alat)  =       1.8897  a.u.
     unit-cell volume          =    6545.8177 (a.u.)^3
     number of atoms/cell      =           12
     number of atomic types    =            2
     number of electrons       =       180.00
     number of Kohn-Sham states=          120
     kinetic-energy cutoff     =      36.7493  Ry
     charge density cutoff     =     367.4932  Ry
     convergence threshold     =      1.0E-06
     mixing beta               =       0.1000
     number of iterations used =           10  plain     mixing
     Exchange-correlation      = BEEF-VDW ( 1  4 27 13 2)
     nstep                     =           50

     celldm(1)=   1.889726  celldm(2)=   0.000000  celldm(3)=   0.000000
     celldm(4)=   0.000000  celldm(5)=   0.000000  celldm(6)=   0.000000

     crystal axes: (cart. coord. in units of alat)
               a(1) = (   6.389888   0.000000   0.000000 )
               a(2) = (   2.146696   6.018502   0.000000 )
               a(3) = (   0.000000   0.000000  25.222353 )

     reciprocal axes: (cart. coord. in units 2 pi/alat)
               b(1) = (  0.156497 -0.055820  0.000000 )
               b(2) = (  0.000000  0.166154  0.000000 )
               b(3) = (  0.000000  0.000000  0.039647 )

     PseudoPot. # 1 for Cu read from file:
     /afs/slac.stanford.edu/u/if/mamunm/psp/gbrv1.5pbe/Cu.UPF
     MD5 check sum: 6e991ff952a84172a2a52a1c1e996048
     Pseudo is Ultrasoft + core correction, Zval = 19.0
     Generated by new atomic code, or converted to UPF format
     Using radial grid of  867 points,  6 beta functions with:
                l(1) =   0
                l(2) =   0
                l(3) =   1
                l(4) =   1
                l(5) =   2
                l(6) =   2
     Q(r) pseudized with  8 coefficients,  rinner =    1.150   1.150   1.150
                                                       1.150   1.150

     PseudoPot. # 2 for La read from file:
     /afs/slac.stanford.edu/u/if/mamunm/psp/gbrv1.5pbe/La.UPF
     MD5 check sum: 5937b0c7494ba0601a847275249473aa
     Pseudo is Ultrasoft + core correction, Zval = 11.0
     Generated by new atomic code, or converted to UPF format
     Using radial grid of  995 points,  8 beta functions with:
                l(1) =   0
                l(2) =   0
                l(3) =   1
                l(4) =   1
                l(5) =   2
                l(6) =   2
                l(7) =   3
                l(8) =   3
     Q(r) pseudized with  8 coefficients,  rinner =    1.700   1.700   1.700
                                                       1.700   1.700   1.700
                                                       1.700

     vdW kernel table read from file vdW_kernel_table
     MD5 check sum: 095c7af220d748ca6e76c0b4c6cfb241

     atomic species   valence    mass     pseudopotential
        Cu1           19.00    63.54600     Cu( 1.00)
        La1           11.00   138.90547     La( 1.00)

     No symmetry found

   Cartesian axes

     site n.     atom                  positions (alat units)
         1           Cu1 tau(   1) = (   0.0000000   0.0000000  10.0000000  )
         2           Cu1 tau(   2) = (   4.2682921   3.0092512  10.0000000  )
         3           La1 tau(   3) = (   3.1949442   0.0000000  10.0000000  )
         4           La1 tau(   4) = (   1.0733479   3.0092512  10.0000000  )
         5           Cu1 tau(   5) = (   6.3898884   4.5050289  12.6111763  )
         6           Cu1 tau(   6) = (   2.1215963   1.4957777  12.6111763  )
         7           La1 tau(   7) = (   3.1949442   4.5050289  12.6111763  )
         8           La1 tau(   8) = (   5.3165405   1.4957777  12.6111763  )
         9           Cu1 tau(   9) = (   4.2492310   2.9959560  14.9961786  )
        10           Cu1 tau(  10) = (   8.5153435   6.0033967  14.9961645  )
        11           La1 tau(  11) = (   7.4441872   2.9951659  15.2246544  )
        12           La1 tau(  12) = (   5.3220730   6.0053759  15.2246653  )

     number of k points=    20  Fermi-Dirac smearing, width (Ry)=  0.0110
                       cart. coord. in units 2pi/alat
        k(    1) = (   0.0000000   0.0000000   0.0000000), wk =   0.0555556
        k(    2) = (   0.0000000   0.0276924   0.0000000), wk =   0.1111111
        k(    3) = (   0.0000000   0.0553848   0.0000000), wk =   0.1111111
        k(    4) = (   0.0000000  -0.0830771   0.0000000), wk =   0.0555556
        k(    5) = (   0.0260829  -0.0093033   0.0000000), wk =   0.1111111
        k(    6) = (   0.0260829   0.0183891   0.0000000), wk =   0.1111111
        k(    7) = (   0.0260829   0.0460815   0.0000000), wk =   0.1111111
        k(    8) = (   0.0260829  -0.0923805   0.0000000), wk =   0.1111111
        k(    9) = (   0.0260829  -0.0646881   0.0000000), wk =   0.1111111
        k(   10) = (   0.0260829  -0.0369957   0.0000000), wk =   0.1111111
        k(   11) = (   0.0521658  -0.0186066   0.0000000), wk =   0.1111111
        k(   12) = (   0.0521658   0.0090858   0.0000000), wk =   0.1111111
        k(   13) = (   0.0521658   0.0367781   0.0000000), wk =   0.1111111
        k(   14) = (   0.0521658  -0.1016838   0.0000000), wk =   0.1111111
        k(   15) = (   0.0521658  -0.0739914   0.0000000), wk =   0.1111111
        k(   16) = (   0.0521658  -0.0462990   0.0000000), wk =   0.1111111
        k(   17) = (  -0.0782486   0.0279099   0.0000000), wk =   0.0555556
        k(   18) = (  -0.0782486   0.0556023   0.0000000), wk =   0.1111111
        k(   19) = (  -0.0782486   0.0832947   0.0000000), wk =   0.1111111
        k(   20) = (  -0.0782486  -0.0551672   0.0000000), wk =   0.0555556

     Largest allocated arrays     est. size (Mb)     dimensions
     Largest temporary arrays     est. size (Mb)     dimensions

     Initial potential from superposition of free atoms
     Check: negative starting charge=   -0.424119

     starting charge  173.80758, renormalised to  180.00000

[...]

     *
     * You are using vdW-DF for exchange-correlation in this calculation.
     * Please cite the following three references that made this development
     * possible:
     *
     *   M. Dion, H. Rydberg, E. Schroder, D. C. Langreth, and
     *   B. I. Lundqvist, Phys. Rev. Lett. 92, 246401 (2004).
     *
     *   T. Thonhauser, V. R. Cooper, S. Li, A. Puzder, P. Hyldgaard, and
     *   D. C. Langreth, Phys. Rev. B 76, 125112 (2007).
     *
     *   G. Roman-Perez and J. M. Soler, Phys. Rev. Lett. 103, 096102 (2009).
     *
     *
     * If you are using vdW-DF2, please also cite:
     *
     *   K. Lee, E. D. Murray, L. Kong, B. I. Lundqvist, and
     *   D. C. Langreth, Phys. Rev. B 82, 081101(R) (2010).
     *
     *
     * If you are calculating the stress with vdW-DF, please also cite:
     *
     *   R. Sabatini, E. Kucukbenli, B. Kolb, T. Thonhauser, and
     *   S. de Gironcoli, J. Phys.: Condens. Matter 24, 424209 (2012).
     *

     Carrying out vdW-DF run using the following parameters:

     Nqs =      20    Nr_points =    1024   r_max =   100.000
     q_mesh =
               0.00001000     0.04494208     0.09755937     0.15916263
               0.23128650     0.31572767     0.41458969     0.53033537
               0.66584808     0.82450364     1.01025438     1.22772762
               1.48234092     1.78043706     2.12944203     2.53805004
               3.01644009     3.57652955     4.23227104     5.00000000

     Gradients computed in reciprocal space

[...]

     Starting wfc are  198 randomized atomic wfcs

     Self-consistent Calculation

[...]

     iteration # 10     ecut=    36.75 Ry     beta=0.10
     Davidson diagonalization with overlap
     c_bands:  1 eigenvalues not converged
     c_bands:  1 eigenvalues not converged
     ethr =  6.69E-06,  avg # of iterations = 12.5

[...]

     total energy              =   -3053.84904755 Ry
     Harris-Foulkes estimate   =   -3053.84904924 Ry
     estimated scf accuracy    <       0.00000122 Ry

     iteration # 21     ecut=    36.75 Ry     beta=0.10
     Davidson diagonalization with overlap
     ethr =  6.79E-10,  avg # of iterations =  3.7

[...]

     negative rho (up, down):  2.911E-01 0.000E+00

     Adding external electric field

     Computed dipole along edir(3) :
        Dipole                0.0662 Ry au,          0.1683 Debye
        Dipole field          0.0001 Ry au

        Potential amp.       -0.0118 Ry
        Total length         46.4718 bohr

     End of self-consistent calculation

[...]

          k = 0.0522-0.0463 0.0000 ( 24598 PWs)   bands (ev):

[...]

          k =-0.0782-0.0552 0.0000 ( 24582 PWs)   bands (ev):

  -111.1981-111.1981-111.1404-111.1399-111.0306-111.0306 -68.5953 -68.5949
   -68.5906 -68.5905 -68.5796 -68.5796 -68.5344 -68.5340 -68.5251 -68.5245
   -68.5202 -68.5196 -68.4570 -68.4570 -68.4280 -68.4276 -68.3882 -68.3881
   -32.0300 -32.0056 -31.9592 -31.9345 -31.5257 -31.4438 -15.9738 -15.9344
   -15.8551 -15.8141 -15.6790 -15.6736 -15.6283 -15.5876 -15.5838 -15.5657
   -15.4857 -15.1402 -15.1119 -15.0396 -15.0219 -15.0160 -14.9379 -14.7324
    -1.8382  -1.7040  -1.5459  -1.5156  -1.4986  -1.4791  -1.4344  -1.4130
    -1.4097  -1.3524  -1.3436  -1.3382  -1.3362  -1.3116  -1.3013  -1.2895
    -1.2398  -1.2250  -1.2243  -1.2200  -1.2152  -1.1833  -1.1813  -1.1751
    -1.1732  -1.1341  -1.1275  -1.1030  -1.0604  -1.0454  -0.9936  -0.9478
    -0.6349  -0.4382  -0.4088  -0.2557   0.0325   0.1363   0.3087   0.5627
     0.6725   1.0012   1.0245   1.0763   1.0840   1.6863   1.7768   1.9607
     2.1003   2.3088   2.5335   2.5670   2.5969   2.6657   2.6937   2.7564
     2.7831   2.8497   2.8742   2.8786   2.8896   2.8984   2.9185   2.9203
     2.9236   2.9285   2.9397   2.9524   2.9682   2.9878   2.9885   3.0229

     the Fermi energy is     1.5504 ev

!    total energy              =   -3053.84904009 Ry
     Harris-Foulkes estimate   =   -3053.84904804 Ry
     estimated scf accuracy    <       0.00000027 Ry

     The total energy is the sum of the following terms:

     one-electron contribution =  -14123.51586816 Ry
     hartree contribution      =    7076.87835569 Ry
     xc contribution           =    -544.00945115 Ry
     ewald contribution        =    4536.87959164 Ry
     electric field correction =       0.00000841 Ry
     smearing contrib. (-TS)   =      -0.08167653 Ry

     convergence has been achieved in  21 iterations

 BEEF-vdW xc energy contributions
           1 :   -482.131365060971
           2 :    440.435807032511
           3 :   -368.207061100504
           4 :    283.025236377090
           5 :   -202.132486764058
           6 :    136.993038403291
           7 :   -91.2878235938715
           8 :    62.3899945491588
           9 :   -44.7888669359274
          10 :    33.3952252772639
          11 :   -25.2237111626284
          12 :    19.1478321445297
          13 :   -14.6105989650309
          14 :    10.6087789661674
          15 :   -5.75386205186931
          16 :  -0.807098807266925
          17 :    8.52044297120710
          18 :   -15.4356552100038
          19 :    19.2232212181669
          20 :   -18.5812636405984
          21 :    14.1137447102928
          22 :   -8.09872970868980
          23 :    3.28017920768968
          24 :   -1.44157482824403
          25 :    2.62209424428841
          26 :   -5.37994601140645
          27 :    7.82598041517713
          28 :   -8.72113807272626
          29 :    7.98892924516224
          30 :   -6.44862695002712
          31 :   -39.7345336961037
          32 :   -27.8163943356100

     Forces acting on atoms (Ry/au):

     negative rho (up, down):  2.911E-01 0.000E+00
     atom    1 type  1   force =    -0.00000276   -0.00000214    0.01249972
     atom    2 type  1   force =    -0.00000415    0.00000210    0.01250345
     atom    3 type  2   force =    -0.00045434   -0.00032392   -0.00289400
     atom    4 type  2   force =    -0.00045843   -0.00031872   -0.00289463
     atom    5 type  1   force =     0.00009317    0.00006202    0.00173689
     atom    6 type  1   force =    -0.00002266   -0.00001411    0.00168550
     atom    7 type  2   force =     0.00018072    0.00014142   -0.01180171
     atom    8 type  2   force =     0.00019361    0.00012177   -0.01179588
     atom    9 type  1   force =     0.00004836    0.00003249    0.00093871
     atom   10 type  1   force =     0.00002005    0.00001306    0.00094162
     atom   11 type  2   force =     0.00018521    0.00016994   -0.00045942
     atom   12 type  2   force =     0.00022122    0.00011610   -0.00046026

     Total force =     0.024833     Total SCF correction =     0.001645

     entering subroutine stress ...

     negative rho (up, down):  2.911E-01 0.000E+00
          total   stress  (Ry/bohr**3)                   (kbar)     P=   -8.78
  -0.00007722  -0.00001860   0.00000102        -11.36     -2.74      0.15
  -0.00001860  -0.00006395   0.00000072         -2.74     -9.41      0.11
   0.00000102   0.00000072  -0.00003778          0.15      0.11     -5.56

 !ASE

     Writing output data file calc.save

     General routines

     Parallel routines

   This run was terminated on:  12: 0: 0  19Dec2018

   JOB DONE.
Job  /afs/slac/g/suncat/bin/suncat-tsmpirun -x LD_LIBRARY_PATH -wdir /scratch/qe529792_oXAVI pw.x -in pw.inp

TID   HOST_NAME   COMMAND_LINE            STATUS            TERMINATION_TIME
00000 suncat0146 pw.x -in pw.inp   Done                     12/19/2018 12:00:00
00001 suncat0146 pw.x -in pw.inp   Done                     12/19/2018 12:00:00
00002 suncat0146 pw.x -in pw.inp   Done                     12/19/2018 12:00:00
00003 suncat0146 pw.x -in pw.inp   Done                     12/19/2018 12:00:00
00004 suncat0146 pw.x -in pw.inp   Done                     12/19/2018 12:00:00
00005 suncat0146 pw.x -in pw.inp   Done                     12/19/2018 12:00:00
00006 suncat0146 pw.x -in pw.inp   Done                     12/19/2018 12:00:00
00007 suncat0146 pw.x -in pw.inp   Done                     12/19/2018 12:00:00
00008 suncat0145 pw.x -in pw.inp   Done                     12/19/2018 12:00:00
00009 suncat0145 pw.x -in pw.inp   Done                     12/19/2018 12:00:00
00010 suncat0145 pw.x -in pw.inp   Done                     12/19/2018 12:00:00
00011 suncat0145 pw.x -in pw.inp   Done                     12/19/2018 12:00:00
00012 suncat0145 pw.x -in pw.inp   Done                     12/19/2018 12:00:00
00013 suncat0145 pw.x -in pw.inp   Done                     12/19/2018 12:00:00
00014 suncat0145 pw.x -in pw.inp   Done                     12/19/2018 12:00:00
00015 suncat0145 pw.x -in pw.inp   Done                     12/19/2018 12:00:00
00016 suncat0144 pw.x -in pw.inp   Done                     12/19/2018 12:00:00
00017 suncat0144 pw.x -in pw.inp   Done                     12/19/2018 12:00:00
00018 suncat0144 pw.x -in pw.inp   Done                     12/19/2018 12:00:00
00019 suncat0144 pw.x -in pw.inp   Done                     12/19/2018 12:00:00
00020 suncat0144 pw.x -in pw.inp   Done                     12/19/2018 12:00:00
00021 suncat0144 pw.x -in pw.inp   Done                     12/19/2018 12:00:00
00022 suncat0144 pw.x -in pw.inp   Done                     12/19/2018 12:00:00
00023 suncat0144 pw.x -in pw.inp   Done                     12/19/2018 12:00:00
00024 suncat0143 pw.x -in pw.inp   Done                     12/19/2018 12:00:00
00025 suncat0143 pw.x -in pw.inp   Done                     12/19/2018 12:00:00
00026 suncat0143 pw.x -in pw.inp   Done                     12/19/2018 12:00:00
00027 suncat0143 pw.x -in pw.inp   Done                     12/19/2018 12:00:00
00028 suncat0143 pw.x -in pw.inp   Done                     12/19/2018 12:00:00
00029 suncat0143 pw.x -in pw.inp   Done                     12/19/2018 12:00:00
00030 suncat0143 pw.x -in pw.inp   Done                     12/19/2018 12:00:00
00031 suncat0143 pw.x -in pw.inp   Done                     12/19/2018 12:00:00