     Program PWSCF v.5.1rc2 (svn rev. 11289) starts on 18Dec2018 at 19: 4:52

     Current dimensions of program PWSCF are:
     Max number of different atomic species (ntypx) = 10
     Max number of k-points (npk) =  40000
     Max angular momentum in pseudopotentials (lmaxx) =  3
     Presently stress not available with electric field

     IMPORTANT: XC functional enforced from input :
     Exchange-correlation      = BEEF-VDW ( 1  4 27 13 2)
     Any further DFT definition will be discarded
     Please, verify this is what you really want

     Subspace diagonalization in iterative solution of the eigenvalue problem:
     a serial algorithm will be used

     Found symmetry operation: I + ( -0.5000 -0.5000  0.0000)
     This is a supercell, fractional translations are disabled

     bravais-lattice index     =            0
     lattice parameter (alat)  =       1.8897  a.u.
     unit-cell volume          =    7164.4623 (a.u.)^3
     number of atoms/cell      =           12
     number of atomic types    =            2
     number of electrons       =       156.00
     number of Kohn-Sham states=          108
     kinetic-energy cutoff     =      36.7493  Ry
     charge density cutoff     =     367.4932  Ry
     convergence threshold     =      1.0E-06
     mixing beta               =       0.1000
     number of iterations used =           10  plain     mixing
     Exchange-correlation      = BEEF-VDW ( 1  4 27 13 2)
     nstep                     =           50

     celldm(1)=   1.889726  celldm(2)=   0.000000  celldm(3)=   0.000000
     celldm(4)=   0.000000  celldm(5)=   0.000000  celldm(6)=   0.000000

     crystal axes: (cart. coord. in units of alat)
               a(1) = (   6.881320   0.000000   0.000000 )
               a(2) = (   3.340055   6.016361   0.000000 )
               a(3) = (   0.000000   0.000000  25.643743 )

     reciprocal axes: (cart. coord. in units 2 pi/alat)
               b(1) = (  0.145321 -0.080677  0.000000 )
               b(2) = (  0.000000  0.166213  0.000000 )
               b(3) = (  0.000000  0.000000  0.038996 )

     PseudoPot. # 1 for Cd read from file:
     /afs/slac.stanford.edu/u/if/mamunm/psp/gbrv1.5pbe/Cd.UPF
     MD5 check sum: 17164a7926edb8e0dc231208abae86a6
     Pseudo is Ultrasoft + core correction, Zval = 12.0
     Generated by new atomic code, or converted to UPF format
     Using radial grid of  889 points,  6 beta functions with:
                l(1) =   0
                l(2) =   0
                l(3) =   1
                l(4) =   1
                l(5) =   2
                l(6) =   2
     Q(r) pseudized with  6 coefficients,  rinner =    1.000   1.000   1.000
                                                       1.000   1.000

     PseudoPot. # 2 for Pb read from file:
     /afs/slac.stanford.edu/u/if/mamunm/psp/gbrv1.5pbe/Pb.UPF
     MD5 check sum: 3d1c1779aa92214d1e8f3a7db79003e2
     Pseudo is Ultrasoft + core correction, Zval = 14.0
     Generated by new atomic code, or converted to UPF format
     Using radial grid of  899 points,  6 beta functions with:
                l(1) =   0
                l(2) =   0
                l(3) =   1
                l(4) =   1
                l(5) =   2
                l(6) =   2
     Q(r) pseudized with  6 coefficients,  rinner =    1.000   1.000   1.000
                                                       1.000   1.000

     vdW kernel table read from file vdW_kernel_table
     MD5 check sum: 095c7af220d748ca6e76c0b4c6cfb241

     atomic species   valence    mass     pseudopotential
        Cd1           12.00   112.41400     Cd( 1.00)
        Pb1           14.00   207.20000     Pb( 1.00)

     No symmetry found

   Cartesian axes

     site n.     atom                  positions (alat units)
         1           Cd1 tau(   1) = (   0.0000000   0.0000000  10.0000000  )
         2           Cd1 tau(   2) = (   5.1106873   3.0081803  10.0000000  )
         3           Pb1 tau(   3) = (   3.4406599   0.0000000  10.0000000  )
         4           Pb1 tau(   4) = (   1.6700274   3.0081803  10.0000000  )
         5           Cd1 tau(   5) = (   6.8813197   4.0503848  12.8218714  )
         6           Cd1 tau(   6) = (   1.7706324   1.0422045  12.8218714  )
         7           Pb1 tau(   7) = (   3.4406599   4.0503848  12.8218714  )
         8           Pb1 tau(   8) = (   5.2112923   1.0422045  12.8218714  )
         9           Cd1 tau(   9) = (   3.5412648   2.0844091  15.6437428  )
        10           Cd1 tau(  10) = (   8.6519521   5.0925894  15.6437428  )
        11           Pb1 tau(  11) = (   6.9819247   2.0844091  15.6437428  )
        12           Pb1 tau(  12) = (   5.2112923   5.0925894  15.6437428  )

     number of k points=    20  Fermi-Dirac smearing, width (Ry)=  0.0110
                       cart. coord. in units 2pi/alat
        k(    1) = (   0.0000000   0.0000000   0.0000000), wk =   0.0555556
        k(    2) = (   0.0000000   0.0277022   0.0000000), wk =   0.1111111
        k(    3) = (   0.0000000   0.0554045   0.0000000), wk =   0.1111111
        k(    4) = (   0.0000000  -0.0831067   0.0000000), wk =   0.0555556
        k(    5) = (   0.0242202  -0.0134461   0.0000000), wk =   0.1111111
        k(    6) = (   0.0242202   0.0142561   0.0000000), wk =   0.1111111
        k(    7) = (   0.0242202   0.0419584   0.0000000), wk =   0.1111111
        k(    8) = (   0.0242202  -0.0965528   0.0000000), wk =   0.1111111
        k(    9) = (   0.0242202  -0.0688506   0.0000000), wk =   0.1111111
        k(   10) = (   0.0242202  -0.0411484   0.0000000), wk =   0.1111111
        k(   11) = (   0.0484403  -0.0268922   0.0000000), wk =   0.1111111
        k(   12) = (   0.0484403   0.0008100   0.0000000), wk =   0.1111111
        k(   13) = (   0.0484403   0.0285123   0.0000000), wk =   0.1111111
        k(   14) = (   0.0484403  -0.1099989   0.0000000), wk =   0.1111111
        k(   15) = (   0.0484403  -0.0822967   0.0000000), wk =   0.1111111
        k(   16) = (   0.0484403  -0.0545945   0.0000000), wk =   0.1111111
        k(   17) = (  -0.0726605   0.0403383   0.0000000), wk =   0.0555556
        k(   18) = (  -0.0726605   0.0680406   0.0000000), wk =   0.1111111
        k(   19) = (  -0.0726605   0.0957428   0.0000000), wk =   0.1111111
        k(   20) = (  -0.0726605  -0.0427684   0.0000000), wk =   0.0555556

     Largest allocated arrays     est. size (Mb)     dimensions
     Largest temporary arrays     est. size (Mb)     dimensions

     Initial potential from superposition of free atoms
     Check: negative starting charge=   -0.236877

     starting charge  152.98564, renormalised to  156.00000

     negative rho (up, down):  2.415E-01 0.000E+00

     *
     * You are using vdW-DF for exchange-correlation in this calculation.
     * Please cite the following three references that made this development
     * possible:
     *
     *   M. Dion, H. Rydberg, E. Schroder, D. C. Langreth, and
     *   B. I. Lundqvist, Phys. Rev. Lett. 92, 246401 (2004).
     *
     *   T. Thonhauser, V. R. Cooper, S. Li, A. Puzder, P. Hyldgaard, and
     *   D. C. Langreth, Phys. Rev. B 76, 125112 (2007).
     *
     *   G. Roman-Perez and J. M. Soler, Phys. Rev. Lett. 103, 096102 (2009).
     *
     *
     * If you are using vdW-DF2, please also cite:
     *
     *   K. Lee, E. D. Murray, L. Kong, B. I. Lundqvist, and
     *   D. C. Langreth, Phys. Rev. B 82, 081101(R) (2010).
     *
     *
     * If you are calculating the stress with vdW-DF, please also cite:
     *
     *   R. Sabatini, E. Kucukbenli, B. Kolb, T. Thonhauser, and
     *   S. de Gironcoli, J. Phys.: Condens. Matter 24, 424209 (2012).
     *

     Carrying out vdW-DF run using the following parameters:

     Nqs =      20    Nr_points =    1024   r_max =   100.000
     q_mesh =
               0.00001000     0.04494208     0.09755937     0.15916263
               0.23128650     0.31572767     0.41458969     0.53033537
               0.66584808     0.82450364     1.01025438     1.22772762
               1.48234092     1.78043706     2.12944203     2.53805004
               3.01644009     3.57652955     4.23227104     5.00000000

     Gradients computed in reciprocal space

     Adding external electric field

     Computed dipole along edir(3) :
        Dipole               -0.0000 Ry au,         -0.0000 Debye
        Dipole field         -0.0000 Ry au

        Potential amp.        0.0000 Ry
        Total length         47.2482 bohr

     Starting wfc are  108 randomized atomic wfcs

     Self-consistent Calculation

     iteration #  1     ecut=    36.75 Ry     beta=0.10
     Davidson diagonalization with overlap
     ethr =  1.00E-02,  avg # of iterations =  7.8

     Threshold (ethr) on eigenvalues was too large:
     Diagonalizing with lowered threshold

     Davidson diagonalization with overlap
     ethr =  3.49E-04,  avg # of iterations =  5.8

[...]

     total energy              =   -1692.68048323 Ry
     Harris-Foulkes estimate   =   -1692.77211786 Ry
     estimated scf accuracy    <       0.55653046 Ry

[...]

     iteration #  6     ecut=    36.75 Ry     beta=0.10
     Davidson diagonalization with overlap
     c_bands:  1 eigenvalues not converged
     ethr =  3.49E-06,  avg # of iterations =  5.0

[...]

     End of self-consistent calculation

          k = 0.0000 0.0000 0.0000 ( 26985 PWs)   bands (ev):

   -17.0516 -17.0385 -16.9686 -16.9673 -16.9580 -16.9525 -16.9504 -16.9479
   -16.9355 -16.9237 -16.9231 -16.9223 -16.9189 -16.9148 -16.9095 -16.8773
   -16.8727 -16.8693 -16.8606 -16.8581 -16.8405 -16.8217 -16.8145 -16.8051
   -16.7923 -16.7814 -16.7765 -16.7617 -16.7564 -16.6780  -9.6442  -9.0099
    -8.8872  -8.7989  -8.5943  -8.5486  -8.4997  -8.4231  -8.3985  -8.3940
    -8.3608  -8.3572  -8.3452  -8.3030  -8.2602  -8.2570  -8.2497  -8.2211
    -8.2166  -8.2113  -8.2071  -8.1927  -8.1773  -8.1434  -8.1235  -8.1190
    -8.1127  -8.1057  -8.0966  -8.0214  -8.0086  -7.9766  -7.2846  -6.8918
    -6.7190  -6.1868  -3.0428  -2.9186  -2.7990  -2.5564  -2.1415  -1.9138
    -1.8987  -1.4999  -1.2882  -0.9975  -0.8986  -0.5665  -0.2495  -0.1771
     0.2638   0.5320   1.3148   1.9537   2.4055   2.7096   3.3681   3.3828
     3.9469   4.0191   4.0515   4.1573   4.2219   4.6196   4.7413   4.8791
     5.1476   5.5645   5.6091   5.7173   6.0569   6.1002   6.3643   6.4463
     6.4832   6.5560   6.6020   6.9817

[...]

          k =-0.0727 0.0403 0.0000 ( 26908 PWs)   bands (ev):

[...]

     the Fermi energy is     0.4433 ev

!    total energy              =   -1692.59071402 Ry
     Harris-Foulkes estimate   =   -1692.59067137 Ry
     estimated scf accuracy    <       0.00000065 Ry

     The total energy is the sum of the following terms:

     one-electron contribution =   -8163.04373001 Ry
     hartree contribution      =    4160.80507173 Ry
     xc contribution           =    -636.24096076 Ry
     ewald contribution        =    2945.92689481 Ry
     electric field correction =       0.00000000 Ry
     smearing contrib. (-TS)   =      -0.03798979 Ry

     convergence has been achieved in  13 iterations

 BEEF-vdW xc energy contributions
           1 :   -563.438944440386
[...]

[...]

   This run was terminated on:  19:51:34  18Dec2018

[...]

     Program PWSCF v.5.1rc2 (svn rev. 11289) starts on 18Dec2018 at 19:51:42

     Current dimensions of program PWSCF are:
     Max number of different atomic species (ntypx) = 10
     Max number of k-points (npk) =  40000
     Max angular momentum in pseudopotentials (lmaxx) =  3
     Presently stress not available with electric field

     IMPORTANT: XC functional enforced from input :
     Exchange-correlation      = BEEF-VDW ( 1  4 27 13 2)
     Any further DFT definition will be discarded
     Please, verify this is what you really want

     Subspace diagonalization in iterative solution of the eigenvalue problem:
     a serial algorithm will be used

     Found symmetry operation: I + ( -0.5000 -0.5000  0.0000)
     This is a supercell, fractional translations are disabled

     bravais-lattice index     =            0
     lattice parameter (alat)  =       1.8897  a.u.
     unit-cell volume          =    7164.4623 (a.u.)^3
     number of atoms/cell      =           12
     number of atomic types    =            2
     number of electrons       =       156.00
     number of Kohn-Sham states=          108
     kinetic-energy cutoff     =      36.7493  Ry
     charge density cutoff     =     367.4932  Ry
     convergence threshold     =      1.0E-06
     mixing beta               =       0.1000
     number of iterations used =           10  plain     mixing
     Exchange-correlation      = BEEF-VDW ( 1  4 27 13 2)
     nstep                     =           50

     celldm(1)=   1.889726  celldm(2)=   0.000000  celldm(3)=   0.000000
     celldm(4)=   0.000000  celldm(5)=   0.000000  celldm(6)=   0.000000

     crystal axes: (cart. coord. in units of alat)
               a(1) = (   6.881320   0.000000   0.000000 )
               a(2) = (   3.340055   6.016361   0.000000 )
               a(3) = (   0.000000   0.000000  25.643743 )

     reciprocal axes: (cart. coord. in units 2 pi/alat)
               b(1) = (  0.145321 -0.080677  0.000000 )
               b(2) = (  0.000000  0.166213  0.000000 )
               b(3) = (  0.000000  0.000000  0.038996 )

     PseudoPot. # 1 for Cd read from file:
     /afs/slac.stanford.edu/u/if/mamunm/psp/gbrv1.5pbe/Cd.UPF
     MD5 check sum: 17164a7926edb8e0dc231208abae86a6
     Pseudo is Ultrasoft + core correction, Zval = 12.0
     Generated by new atomic code, or converted to UPF format
     Using radial grid of  889 points,  6 beta functions with:
                l(1) =   0
                l(2) =   0
                l(3) =   1
                l(4) =   1
                l(5) =   2
                l(6) =   2
     Q(r) pseudized with  6 coefficients,  rinner =    1.000   1.000   1.000
                                                       1.000   1.000

     PseudoPot. # 2 for Pb read from file:
     /afs/slac.stanford.edu/u/if/mamunm/psp/gbrv1.5pbe/Pb.UPF
     MD5 check sum: 3d1c1779aa92214d1e8f3a7db79003e2
     Pseudo is Ultrasoft + core correction, Zval = 14.0
     Generated by new atomic code, or converted to UPF format
     Using radial grid of  899 points,  6 beta functions with:
                l(1) =   0
                l(2) =   0
                l(3) =   1
                l(4) =   1
                l(5) =   2
                l(6) =   2
     Q(r) pseudized with  6 coefficients,  rinner =    1.000   1.000   1.000
                                                       1.000   1.000

     vdW kernel table read from file vdW_kernel_table
     MD5 check sum: 095c7af220d748ca6e76c0b4c6cfb241

     atomic species   valence    mass     pseudopotential
        Cd1           12.00   112.41400     Cd( 1.00)
        Pb1           14.00   207.20000     Pb( 1.00)

     No symmetry found

   Cartesian axes

     site n.     atom                  positions (alat units)
         1           Cd1 tau(   1) = (   0.0000000   0.0000000  10.0000000  )
         2           Cd1 tau(   2) = (   5.1106873   3.0081803  10.0000000  )
         3           Pb1 tau(   3) = (   3.4406599   0.0000000  10.0000000  )
         4           Pb1 tau(   4) = (   1.6700274   3.0081803  10.0000000  )
         5           Cd1 tau(   5) = (   6.8813197   4.0503848  12.8218714  )
         6           Cd1 tau(   6) = (   1.7706324   1.0422045  12.8218714  )
         7           Pb1 tau(   7) = (   3.4406599   4.0503848  12.8218714  )
         8           Pb1 tau(   8) = (   5.2112923   1.0422045  12.8218714  )
         9           Cd1 tau(   9) = (   3.5361956   2.0813986  15.6508113  )
        10           Cd1 tau(  10) = (   8.6468823   5.0895807  15.6507553  )
        11           Pb1 tau(  11) = (   6.9919759   2.0903373  15.5968444  )
        12           Pb1 tau(  12) = (   5.2213881   5.0985275  15.5967626  )

     number of k points=    20  Fermi-Dirac smearing, width (Ry)=  0.0110
                       cart. coord. in units 2pi/alat
        k(    1) = (   0.0000000   0.0000000   0.0000000), wk =   0.0555556
        k(    2) = (   0.0000000   0.0277022   0.0000000), wk =   0.1111111
        k(    3) = (   0.0000000   0.0554045   0.0000000), wk =   0.1111111
        k(    4) = (   0.0000000  -0.0831067   0.0000000), wk =   0.0555556
        k(    5) = (   0.0242202  -0.0134461   0.0000000), wk =   0.1111111
        k(    6) = (   0.0242202   0.0142561   0.0000000), wk =   0.1111111
        k(    7) = (   0.0242202   0.0419584   0.0000000), wk =   0.1111111
        k(    8) = (   0.0242202  -0.0965528   0.0000000), wk =   0.1111111
        k(    9) = (   0.0242202  -0.0688506   0.0000000), wk =   0.1111111
        k(   10) = (   0.0242202  -0.0411484   0.0000000), wk =   0.1111111
        k(   11) = (   0.0484403  -0.0268922   0.0000000), wk =   0.1111111
        k(   12) = (   0.0484403   0.0008100   0.0000000), wk =   0.1111111
        k(   13) = (   0.0484403   0.0285123   0.0000000), wk =   0.1111111
        k(   14) = (   0.0484403  -0.1099989   0.0000000), wk =   0.1111111
        k(   15) = (   0.0484403  -0.0822967   0.0000000), wk =   0.1111111
        k(   16) = (   0.0484403  -0.0545945   0.0000000), wk =   0.1111111
        k(   17) = (  -0.0726605   0.0403383   0.0000000), wk =   0.0555556
        k(   18) = (  -0.0726605   0.0680406   0.0000000), wk =   0.1111111
        k(   19) = (  -0.0726605   0.0957428   0.0000000), wk =   0.1111111
        k(   20) = (  -0.0726605  -0.0427684   0.0000000), wk =   0.0555556

     Largest allocated arrays     est. size (Mb)     dimensions
     Largest temporary arrays     est. size (Mb)     dimensions

     Initial potential from superposition of free atoms
     Check: negative starting charge=   -0.236280

     starting charge  152.98564, renormalised to  156.00000

[...]

     *
     * You are using vdW-DF for exchange-correlation in this calculation.
     * Please cite the following three references that made this development
     * possible:
     *
     *   M. Dion, H. Rydberg, E. Schroder, D. C. Langreth, and
     *   B. I. Lundqvist, Phys. Rev. Lett. 92, 246401 (2004).
     *
     *   T. Thonhauser, V. R. Cooper, S. Li, A. Puzder, P. Hyldgaard, and
     *   D. C. Langreth, Phys. Rev. B 76, 125112 (2007).
     *
     *   G. Roman-Perez and J. M. Soler, Phys. Rev. Lett. 103, 096102 (2009).
     *
     *
     * If you are using vdW-DF2, please also cite:
     *
     *   K. Lee, E. D. Murray, L. Kong, B. I. Lundqvist, and
     *   D. C. Langreth, Phys. Rev. B 82, 081101(R) (2010).
     *
     *
     * If you are calculating the stress with vdW-DF, please also cite:
     *
     *   R. Sabatini, E. Kucukbenli, B. Kolb, T. Thonhauser, and
     *   S. de Gironcoli, J. Phys.: Condens. Matter 24, 424209 (2012).
     *

     Carrying out vdW-DF run using the following parameters:

     Nqs =      20    Nr_points =    1024   r_max =   100.000
     q_mesh =
               0.00001000     0.04494208     0.09755937     0.15916263
               0.23128650     0.31572767     0.41458969     0.53033537
               0.66584808     0.82450364     1.01025438     1.22772762
               1.48234092     1.78043706     2.12944203     2.53805004
               3.01644009     3.57652955     4.23227104     5.00000000

     Gradients computed in reciprocal space

[...]

     Starting wfc are  108 randomized atomic wfcs

     Self-consistent Calculation

[...]

     Threshold (ethr) on eigenvalues was too large:
     Diagonalizing with lowered threshold

     Davidson diagonalization with overlap
     ethr =  3.49E-04,  avg # of iterations =  6.0

[...]

     iteration #  7     ecut=    36.75 Ry     beta=0.10
     Davidson diagonalization with overlap
     c_bands:  1 eigenvalues not converged
     ethr =  1.30E-06,  avg # of iterations =  4.3

[...]

     total energy              =   -1692.59092948 Ry
     Harris-Foulkes estimate   =   -1692.59087018 Ry
     estimated scf accuracy    <       0.00000270 Ry

     iteration # 13     ecut=    36.75 Ry     beta=0.10
     Davidson diagonalization with overlap
     ethr =  1.73E-09,  avg # of iterations =  2.6

[...]

     negative rho (up, down):  2.445E-01 0.000E+00

     Adding external electric field

     Computed dipole along edir(3) :
        Dipole               -0.0028 Ry au,         -0.0070 Debye
        Dipole field         -0.0000 Ry au

        Potential amp.        0.0005 Ry
        Total length         47.2482 bohr

     End of self-consistent calculation

[...]

          k = 0.0484-0.0546 0.0000 ( 26961 PWs)   bands (ev):

[...]

          k =-0.0727-0.0428 0.0000 ( 26930 PWs)   bands (ev):

   -17.0538 -17.0391 -16.9725 -16.9672 -16.9596 -16.9573 -16.9507 -16.9456
   -16.9319 -16.9246 -16.9218 -16.9213 -16.9182 -16.9138 -16.9095 -16.8785
   -16.8728 -16.8724 -16.8618 -16.8572 -16.8429 -16.8182 -16.8181 -16.8073
   -16.7933 -16.7883 -16.7809 -16.7660 -16.7598 -16.6810  -9.2667  -8.9449
    -8.5947  -8.5617  -8.5033  -8.4532  -8.4401  -8.4151  -8.4123  -8.4048
    -8.3747  -8.3440  -8.3414  -8.3286  -8.3176  -8.2800  -8.2689  -8.2660
    -8.2292  -8.2286  -8.2187  -8.2108  -8.1948  -8.1924  -8.1360  -8.1325
    -8.1316  -8.1302  -8.1168  -8.1035  -8.0296  -8.0291  -7.9865  -7.5806
    -6.8741  -6.2166  -4.8545  -3.7567  -3.5570  -3.5498  -2.6338  -1.0349
    -0.4313  -0.1155   0.1839   0.3135   0.5455   0.5514   0.9558   1.6743
     1.8174   1.9001   1.9351   2.2166   2.3494   2.5500   2.6056   3.1869
     3.2581   3.4836   3.6502   3.9367   3.9953   4.2064   4.2290   4.3034
     4.6369   4.8220   4.9082   4.9639   4.9897   5.0690   5.1367   5.2826
     5.4084   5.5464   5.7711   5.9374

     the Fermi energy is     0.4376 ev

!    total energy              =   -1692.59097802 Ry
     Harris-Foulkes estimate   =   -1692.59092998 Ry
     estimated scf accuracy    <       0.00000061 Ry

     The total energy is the sum of the following terms:

     one-electron contribution =   -8188.27218235 Ry
     hartree contribution      =    4173.39940609 Ry
     xc contribution           =    -636.25402140 Ry
     ewald contribution        =    2958.57389148 Ry
     electric field correction =       0.00000001 Ry
     smearing contrib. (-TS)   =      -0.03807185 Ry

     convergence has been achieved in  13 iterations

 BEEF-vdW xc energy contributions
           1 :   -563.453105967911
           2 :    520.000357861435
           3 :   -445.081749121568
           4 :    357.459512891041
           5 :   -275.265754685348
           6 :    209.978966684262
           7 :   -164.161631455893
           8 :    133.293997341458
           9 :   -110.099125000081
          10 :    88.8422328815886
          11 :   -67.5784255938348
          12 :    47.7600761611221
          13 :   -32.1072267908042
          14 :    22.3484259411933
          15 :   -18.1180222647910
          16 :    17.3348815553570
          17 :   -17.4852693353051
          18 :    16.8750480896690
          19 :   -15.1739279665942
          20 :    13.1316730041298
          21 :   -11.8179051188621
          22 :    11.8902465186507
          23 :   -13.2487055702628
          24 :    15.1499377067081
          25 :   -16.6267060020335
          26 :    16.9667666499753
          27 :   -16.0355755242165
          28 :    14.3155873669352
          29 :   -12.6514469511187
          30 :    11.8137569856727
          31 :   -47.1345509092397
          32 :   -34.3885966213102

     Forces acting on atoms (Ry/au):

     negative rho (up, down):  2.445E-01 0.000E+00
     atom    1 type  1   force =     0.00042990    0.00025199   -0.00048825
     atom    2 type  1   force =     0.00042550    0.00025651   -0.00048780
     atom    3 type  2   force =    -0.00073762   -0.00043384    0.00371194
     atom    4 type  2   force =    -0.00073810   -0.00043797    0.00370834
     atom    5 type  1   force =     0.00049665    0.00029499   -0.00154515
     atom    6 type  1   force =     0.00049806    0.00029837   -0.00153516
     atom    7 type  2   force =    -0.00082377   -0.00048670   -0.00094595
     atom    8 type  2   force =    -0.00082482   -0.00048603   -0.00094471
     atom    9 type  1   force =     0.00042549    0.00025189    0.00039858
     atom   10 type  1   force =     0.00042654    0.00024698    0.00040218
     atom   11 type  2   force =     0.00020987    0.00012056   -0.00113768
     atom   12 type  2   force =     0.00021230    0.00012326   -0.00113635

     Total force =     0.006521     Total SCF correction =     0.004955
     SCF correction compared to forces is large: reduce conv_thr to get better values

     entering subroutine stress ...

     negative rho (up, down):  2.445E-01 0.000E+00
          total   stress  (Ry/bohr**3)                   (kbar)     P=   -6.37
  -0.00005867  -0.00000384   0.00000152         -8.63     -0.56      0.22
  -0.00000384  -0.00005441   0.00000090         -0.56     -8.00      0.13
   0.00000152   0.00000090  -0.00001672          0.22      0.13     -2.46

 !ASE

     Writing output data file calc.save

     General routines

     Parallel routines

   This run was terminated on:  20:15: 3  18Dec2018

   JOB DONE.
Job  /afs/slac/g/suncat/bin/suncat-tsmpirun -x LD_LIBRARY_PATH -wdir /scratch/qe529649_cyzII pw.x -in pw.inp

TID   HOST_NAME   COMMAND_LINE            STATUS            TERMINATION_TIME
00000 suncat0053 pw.x -in pw.inp   Done                     12/18/2018 20:15:03
00001 suncat0053 pw.x -in pw.inp   Done                     12/18/2018 20:15:03
00002 suncat0053 pw.x -in pw.inp   Done                     12/18/2018 20:15:03
00003 suncat0053 pw.x -in pw.inp   Done                     12/18/2018 20:15:03
00004 suncat0053 pw.x -in pw.inp   Done                     12/18/2018 20:15:03
00005 suncat0053 pw.x -in pw.inp   Done                     12/18/2018 20:15:03
00006 suncat0053 pw.x -in pw.inp   Done                     12/18/2018 20:15:03
00007 suncat0053 pw.x -in pw.inp   Done                     12/18/2018 20:15:03
00008 suncat0052 pw.x -in pw.inp   Done                     12/18/2018 20:15:03
00009 suncat0052 pw.x -in pw.inp   Done                     12/18/2018 20:15:03
00010 suncat0052 pw.x -in pw.inp   Done                     12/18/2018 20:15:03
00011 suncat0052 pw.x -in pw.inp   Done                     12/18/2018 20:15:03
00012 suncat0052 pw.x -in pw.inp   Done                     12/18/2018 20:15:03
00013 suncat0052 pw.x -in pw.inp   Done                     12/18/2018 20:15:03
00014 suncat0052 pw.x -in pw.inp   Done                     12/18/2018 20:15:03
00015 suncat0052 pw.x -in pw.inp   Done                     12/18/2018 20:15:03
00016 suncat0051 pw.x -in pw.inp   Done                     12/18/2018 20:15:03
00017 suncat0051 pw.x -in pw.inp   Done                     12/18/2018 20:15:03
00018 suncat0051 pw.x -in pw.inp   Done                     12/18/2018 20:15:03
00019 suncat0051 pw.x -in pw.inp   Done                     12/18/2018 20:15:03
00020 suncat0051 pw.x -in pw.inp   Done                     12/18/2018 20:15:03
00021 suncat0051 pw.x -in pw.inp   Done                     12/18/2018 20:15:03
00022 suncat0051 pw.x -in pw.inp   Done                     12/18/2018 20:15:03
00023 suncat0051 pw.x -in pw.inp   Done                     12/18/2018 20:15:03
00024 suncat0050 pw.x -in pw.inp   Done                     12/18/2018 20:15:03
00025 suncat0050 pw.x -in pw.inp   Done                     12/18/2018 20:15:03
00026 suncat0050 pw.x -in pw.inp   Done                     12/18/2018 20:15:03
00027 suncat0050 pw.x -in pw.inp   Done                     12/18/2018 20:15:03
00028 suncat0050 pw.x -in pw.inp   Done                     12/18/2018 20:15:03
00029 suncat0050 pw.x -in pw.inp   Done                     12/18/2018 20:15:03
00030 suncat0050 pw.x -in pw.inp   Done                     12/18/2018 20:15:03
00031 suncat0050 pw.x -in pw.inp   Done                     12/18/2018 20:15:03