     Program PWSCF v.5.1rc2 (svn rev. 11289) starts on 19Dec2018 at  1:54: 2

     Current dimensions of program PWSCF are:
     Max number of different atomic species (ntypx) = 10
     Max number of k-points (npk) =  40000
     Max angular momentum in pseudopotentials (lmaxx) =  3
     Presently stress not available with electric field

     IMPORTANT: XC functional enforced from input :
     Exchange-correlation      = BEEF-VDW ( 1  4 27 13 2)
     Any further DFT definition will be discarded
     Please, verify this is what you really want

     Subspace diagonalization in iterative solution of the eigenvalue problem:
     a serial algorithm will be used

     Found symmetry operation: I + ( -0.5000  0.0000  0.0000)
     This is a supercell, fractional translations are disabled

     bravais-lattice index     =            0
     lattice parameter (alat)  =       1.8897  a.u.
     unit-cell volume          =    4721.1421 (a.u.)^3
     number of atoms/cell      =           12
     number of atomic types    =            2
     number of electrons       =       174.00
     number of Kohn-Sham states=          117
     kinetic-energy cutoff     =      36.7493  Ry
     charge density cutoff     =     367.4932  Ry
     convergence threshold     =      1.0E-06
     mixing beta               =       0.1000
     number of iterations used =           10  plain     mixing
     Exchange-correlation      = BEEF-VDW ( 1  4 27 13 2)
     nstep                     =           50

     celldm(1)=   1.889726  celldm(2)=   0.000000  celldm(3)=   0.000000
     celldm(4)=   0.000000  celldm(5)=   0.000000  celldm(6)=   0.000000

     crystal axes: (cart. coord. in units of alat)
               a(1) = (   5.657819   0.000000   0.000000 )
               a(2) = (  -2.828910   5.012144   0.000000 )
               a(3) = (   0.000000   0.000000  24.670495 )

     reciprocal axes: (cart. coord. in units 2 pi/alat)
               b(1) = (  0.176747  0.099758  0.000000 )
               b(2) = (  0.000000  0.199515  0.000000 )
               b(3) = (  0.000000  0.000000  0.040534 )

     PseudoPot. # 1 for Pd read from file:
     /afs/slac.stanford.edu/u/if/mamunm/psp/gbrv1.5pbe/Pd.UPF
     MD5 check sum: 2d733d2bc2cbfd217af676df1668a4bc
     Pseudo is Ultrasoft + core correction, Zval = 16.0
     Generated by new atomic code, or converted to UPF format
     Using radial grid of  887 points,  6 beta functions with:
                l(1) =   0
                l(2) =   0
                l(3) =   1
                l(4) =   1
                l(5) =   2
                l(6) =   2
     Q(r) pseudized with  8 coefficients,  rinner =    1.130   1.130   1.130
                                                       1.130   1.130

     PseudoPot. # 2 for Ta read from file:
     /afs/slac.stanford.edu/u/if/mamunm/psp/gbrv1.5pbe/Ta.UPF
     MD5 check sum: f8bbe9446314a3b8ea5d9f3e3836c939
     Pseudo is Ultrasoft + core correction, Zval = 13.0
     Generated by new atomic code, or converted to UPF format
     Using radial grid of  921 points,  7 beta functions with:
                l(1) =   0
                l(2) =   0
                l(3) =   1
                l(4) =   1
                l(5) =   2
                l(6) =   2
                l(7) =   3
     Q(r) pseudized with  6 coefficients,  rinner =    1.300   1.300   1.300
                                                       1.300   1.300   1.300
                                                       1.300

     vdW kernel table read from file vdW_kernel_table
     MD5 check sum: 095c7af220d748ca6e76c0b4c6cfb241

     atomic species   valence    mass     pseudopotential
        Pd1           16.00   106.42000     Pd( 1.00)
        Ta1           13.00   180.94788     Ta( 1.00)

     No symmetry found

   Cartesian axes

     site n.     atom                  positions (alat units)
         1           Pd1 tau(   1) = (   0.0000000   0.0000000  10.0000000  )
         2           Pd1 tau(   2) = (   2.8289096   0.0000000  10.0000000  )
         3           Ta1 tau(   3) = (   1.4144548   2.5060721  10.0000000  )
         4           Ta1 tau(   4) = (  -1.4144548   2.5060721  10.0000000  )
         5           Pd1 tau(   5) = (   2.8289096   1.5966678  12.3352476  )
         6           Pd1 tau(   6) = (   0.0000000   1.5966678  12.3352476  )
         7           Ta1 tau(   7) = (  -1.4144548   4.1027399  12.3352476  )
         8           Ta1 tau(   8) = (   1.4144548   4.1027399  12.3352476  )
         9           Pd1 tau(   9) = (  -0.0000000   3.1933357  14.6704951  )
        10           Pd1 tau(  10) = (   2.8289096   3.1933357  14.6704951  )
        11           Ta1 tau(  11) = (   4.2433643   0.6872636  14.6704951  )
        12           Ta1 tau(  12) = (   1.4144548   0.6872636  14.6704951  )

     number of k points=    20  Fermi-Dirac smearing, width (Ry)=  0.0110
                       cart. coord. in units 2pi/alat
        k(    1) = (   0.0000000   0.0000000   0.0000000), wk =   0.0555556
        k(    2) = (   0.0000000   0.0332526   0.0000000), wk =   0.1111111
        k(    3) = (   0.0000000   0.0665051   0.0000000), wk =   0.1111111
        k(    4) = (   0.0000000  -0.0997577   0.0000000), wk =   0.0555556
        k(    5) = (   0.0294578   0.0166263   0.0000000), wk =   0.1111111
        k(    6) = (   0.0294578   0.0498789   0.0000000), wk =   0.1111111
        k(    7) = (   0.0294578   0.0831314   0.0000000), wk =   0.1111111
        k(    8) = (   0.0294578  -0.0831314   0.0000000), wk =   0.1111111
        k(    9) = (   0.0294578  -0.0498789   0.0000000), wk =   0.1111111
        k(   10) = (   0.0294578  -0.0166263   0.0000000), wk =   0.1111111
        k(   11) = (   0.0589155   0.0332526   0.0000000), wk =   0.1111111
        k(   12) = (   0.0589155   0.0665051   0.0000000), wk =   0.1111111
        k(   13) = (   0.0589155   0.0997577   0.0000000), wk =   0.1111111
        k(   14) = (   0.0589155  -0.0665051   0.0000000), wk =   0.1111111
        k(   15) = (   0.0589155  -0.0332526   0.0000000), wk =   0.1111111
        k(   16) = (   0.0589155   0.0000000   0.0000000), wk =   0.1111111
        k(   17) = (  -0.0883733  -0.0498789   0.0000000), wk =   0.0555556
        k(   18) = (  -0.0883733  -0.0166263   0.0000000), wk =   0.1111111
        k(   19) = (  -0.0883733   0.0166263   0.0000000), wk =   0.1111111
        k(   20) = (  -0.0883733  -0.1496366   0.0000000), wk =   0.0555556

     Largest allocated arrays     est. size (Mb)     dimensions
     Largest temporary arrays     est. size (Mb)     dimensions

     Initial potential from superposition of free atoms
     Check: negative starting charge=   -1.017558

     starting charge  170.99329, renormalised to  174.00000

     negative rho (up, down):  1.035E+00 0.000E+00

     *
     * You are using vdW-DF for exchange-correlation in this calculation.
     * Please cite the following three references that made this development
     * possible:
     *
     *   M. Dion, H. Rydberg, E. Schroder, D. C. Langreth, and
     *   B. I. Lundqvist, Phys. Rev. Lett. 92, 246401 (2004).
     *
     *   T. Thonhauser, V. R. Cooper, S. Li, A. Puzder, P. Hyldgaard, and
     *   D. C. Langreth, Phys. Rev. B 76, 125112 (2007).
     *
     *   G. Roman-Perez and J. M. Soler, Phys. Rev. Lett. 103, 096102 (2009).
     *
     *
     * If you are using vdW-DF2, please also cite:
     *
     *   K. Lee, E. D. Murray, L. Kong, B. I. Lundqvist, and
     *   D. C. Langreth, Phys. Rev. B 82, 081101(R) (2010).
     *
     *
     * If you are calculating the stress with vdW-DF, please also cite:
     *
     *   R. Sabatini, E. Kucukbenli, B. Kolb, T. Thonhauser, and
     *   S. de Gironcoli, J. Phys.: Condens. Matter 24, 424209 (2012).
     *

     Carrying out vdW-DF run using the following parameters:

     Nqs =      20    Nr_points =    1024   r_max =   100.000
     q_mesh =
               0.00001000     0.04494208     0.09755937     0.15916263
               0.23128650     0.31572767     0.41458969     0.53033537
               0.66584808     0.82450364     1.01025438     1.22772762
               1.48234092     1.78043706     2.12944203     2.53805004
               3.01644009     3.57652955     4.23227104     5.00000000

     Gradients computed in reciprocal space

     Adding external electric field

     Computed dipole along edir(3) :
        Dipole               -0.0000 Ry au,         -0.0000 Debye
        Dipole field         -0.0000 Ry au

        Potential amp.        0.0000 Ry
        Total length         45.4550 bohr

     Starting wfc are  150 randomized atomic wfcs

     Self-consistent Calculation

     iteration #  1     ecut=    36.75 Ry     beta=0.10
     Davidson diagonalization with overlap
     ethr =  1.00E-02,  avg # of iterations =  5.2

[...]

     total energy              =   -2056.93838141 Ry
     Harris-Foulkes estimate   =   -2060.21216896 Ry
     estimated scf accuracy    <      18.97692397 Ry

[...]

     End of self-consistent calculation

          k = 0.0000 0.0000 0.0000 ( 17781 PWs)   bands (ev):

   -66.7563 -66.7549 -66.7025 -66.7012 -66.4895 -66.4343 -48.9652 -48.9495
   -48.9453 -48.8620 -48.8467 -48.7897 -48.6541 -48.6519 -48.6385 -48.6361
   -48.5654 -48.5652 -48.4497 -48.4436 -48.4355 -48.4292 -48.4100 -48.4099
   -33.3240 -33.3092 -33.2903 -33.2267 -33.2112 -33.1940 -33.1622 -33.1206
   -33.0866 -33.0748 -32.9984 -32.9392 -32.8465 -32.5699 -32.4982 -32.4904
   -32.4870 -32.4028  -5.3743  -3.8585  -3.4936  -3.2882  -3.1643  -3.1641
    -2.9987  -2.8839  -2.7377  -2.6651  -2.6387  -2.6377  -2.5898  -2.4414
    -2.2564  -1.6516  -1.5166  -1.4237  -1.3400  -1.2748  -1.0797  -0.8990
    -0.8571  -0.7965  -0.7134  -0.6407  -0.3997  -0.3874  -0.3783   0.1512
     0.3387   0.4215   0.5265   0.5569   0.8158   0.9259   1.1895   1.3398
     1.4542   1.5801   1.8214   1.8369   1.8566   2.0108   2.4468   2.5424
     2.6346   2.6991   2.9493   3.3518   3.4585   3.5345   3.6374   3.7389
     3.8785   4.1127   4.5055   4.8975   5.0462   5.1981   5.3560   5.4776
     5.7066   5.7337   5.7826   5.9064   5.9267   5.9453   6.0455   6.1454
     6.1726   6.4570   6.5035   6.5976   6.7755

[...]

          k =-0.0884-0.0499 0.0000 ( 17744 PWs)   bands (ev):

[...]

     the Fermi energy is     1.9391 ev

!    total energy              =   -2058.05701948 Ry
     Harris-Foulkes estimate   =   -2058.05702641 Ry
     estimated scf accuracy    <       0.00000019 Ry

     The total energy is the sum of the following terms:

     one-electron contribution =  -15822.94296658 Ry
     hartree contribution      =    7926.13666967 Ry
     xc contribution           =    -456.32445684 Ry
     ewald contribution        =    6295.14205678 Ry
     electric field correction =       0.00000000 Ry
     smearing contrib. (-TS)   =      -0.06832250 Ry

     convergence has been achieved in  16 iterations

 BEEF-vdW xc energy contributions
           1 :   -400.050788540180
           2 :    368.107283938015
           3 :   -312.643355491370
           4 :    247.096714925359
           5 :   -184.974299667796
           6 :    135.583653874655
           7 :   -102.039627411763
           8 :    81.9493610761889
[...]

[...]

   This run was terminated on:   2: 8:55  19Dec2018

[...]

     Program PWSCF v.5.1rc2 (svn rev. 11289) starts on 19Dec2018 at  2: 9: 1

[...]

   This run was terminated on:   2:19: 1  19Dec2018

[...]

     Program PWSCF v.5.1rc2 (svn rev. 11289) starts on 19Dec2018 at  2:19: 7

[...]

   This run was terminated on:   2:24: 5  19Dec2018

[...]

     Program PWSCF v.5.1rc2 (svn rev. 11289) starts on 19Dec2018 at  2:29:17

     Current dimensions of program PWSCF are:
     Max number of different atomic species (ntypx) = 10
     Max number of k-points (npk) =  40000
     Max angular momentum in pseudopotentials (lmaxx) =  3
     Presently stress not available with electric field

     IMPORTANT: XC functional enforced from input :
     Exchange-correlation      = BEEF-VDW ( 1  4 27 13 2)
     Any further DFT definition will be discarded
     Please, verify this is what you really want

     Subspace diagonalization in iterative solution of the eigenvalue problem:
     a serial algorithm will be used

     Found symmetry operation: I + ( -0.5000  0.0000  0.0000)
     This is a supercell, fractional translations are disabled

     bravais-lattice index     =            0
     lattice parameter (alat)  =       1.8897  a.u.
     unit-cell volume          =    4721.1421 (a.u.)^3
     number of atoms/cell      =           12
     number of atomic types    =            2
     number of electrons       =       174.00
     number of Kohn-Sham states=          117
     kinetic-energy cutoff     =      36.7493  Ry
     charge density cutoff     =     367.4932  Ry
     convergence threshold     =      1.0E-06
     mixing beta               =       0.1000
     number of iterations used =           10  plain     mixing
     Exchange-correlation      = BEEF-VDW ( 1  4 27 13 2)
     nstep                     =           50

     celldm(1)=   1.889726  celldm(2)=   0.000000  celldm(3)=   0.000000
     celldm(4)=   0.000000  celldm(5)=   0.000000  celldm(6)=   0.000000

     crystal axes: (cart. coord. in units of alat)
               a(1) = (   5.657819   0.000000   0.000000 )
               a(2) = (  -2.828910   5.012144   0.000000 )
               a(3) = (   0.000000   0.000000  24.670495 )

     reciprocal axes: (cart. coord. in units 2 pi/alat)
               b(1) = (  0.176747  0.099758  0.000000 )
               b(2) = (  0.000000  0.199515  0.000000 )
               b(3) = (  0.000000  0.000000  0.040534 )

     PseudoPot. # 1 for Pd read from file:
     /afs/slac.stanford.edu/u/if/mamunm/psp/gbrv1.5pbe/Pd.UPF
     MD5 check sum: 2d733d2bc2cbfd217af676df1668a4bc
     Pseudo is Ultrasoft + core correction, Zval = 16.0
     Generated by new atomic code, or converted to UPF format
     Using radial grid of  887 points,  6 beta functions with:
                l(1) =   0
                l(2) =   0
                l(3) =   1
                l(4) =   1
                l(5) =   2
                l(6) =   2
     Q(r) pseudized with  8 coefficients,  rinner =    1.130   1.130   1.130
                                                       1.130   1.130

     PseudoPot. # 2 for Ta read from file:
     /afs/slac.stanford.edu/u/if/mamunm/psp/gbrv1.5pbe/Ta.UPF
     MD5 check sum: f8bbe9446314a3b8ea5d9f3e3836c939
     Pseudo is Ultrasoft + core correction, Zval = 13.0
     Generated by new atomic code, or converted to UPF format
     Using radial grid of  921 points,  7 beta functions with:
                l(1) =   0
                l(2) =   0
                l(3) =   1
                l(4) =   1
                l(5) =   2
                l(6) =   2
                l(7) =   3
     Q(r) pseudized with  6 coefficients,  rinner =    1.300   1.300   1.300
                                                       1.300   1.300   1.300
                                                       1.300

     vdW kernel table read from file vdW_kernel_table
     MD5 check sum: 095c7af220d748ca6e76c0b4c6cfb241

     atomic species   valence    mass     pseudopotential
        Pd1           16.00   106.42000     Pd( 1.00)
        Ta1           13.00   180.94788     Ta( 1.00)

     No symmetry found

   Cartesian axes

     site n.     atom                  positions (alat units)
         1           Pd1 tau(   1) = (   0.0000000   0.0000000  10.0000000  )
         2           Pd1 tau(   2) = (   2.8289096   0.0000000  10.0000000  )
         3           Ta1 tau(   3) = (   1.4144548   2.5060721  10.0000000  )
         4           Ta1 tau(   4) = (  -1.4144548   2.5060721  10.0000000  )
         5           Pd1 tau(   5) = (   2.8289096   1.5966678  12.3352476  )
         6           Pd1 tau(   6) = (   0.0000000   1.5966678  12.3352476  )
         7           Ta1 tau(   7) = (  -1.4144548   4.1027399  12.3352476  )
         8           Ta1 tau(   8) = (   1.4144548   4.1027399  12.3352476  )
         9           Pd1 tau(   9) = (  -0.0000016   3.3049555  14.6599492  )
        10           Pd1 tau(  10) = (   2.8289098   3.3049547  14.6599491  )
        11           Ta1 tau(  11) = (   4.2433637   0.7466920  14.5489913  )
        12           Ta1 tau(  12) = (   1.4144545   0.7466952  14.5489922  )

     number of k points=    20  Fermi-Dirac smearing, width (Ry)=  0.0110
                       cart. coord. in units 2pi/alat
        k(    1) = (   0.0000000   0.0000000   0.0000000), wk =   0.0555556
        k(    2) = (   0.0000000   0.0332526   0.0000000), wk =   0.1111111
        k(    3) = (   0.0000000   0.0665051   0.0000000), wk =   0.1111111
        k(    4) = (   0.0000000  -0.0997577   0.0000000), wk =   0.0555556
        k(    5) = (   0.0294578   0.0166263   0.0000000), wk =   0.1111111
        k(    6) = (   0.0294578   0.0498789   0.0000000), wk =   0.1111111
        k(    7) = (   0.0294578   0.0831314   0.0000000), wk =   0.1111111
        k(    8) = (   0.0294578  -0.0831314   0.0000000), wk =   0.1111111
        k(    9) = (   0.0294578  -0.0498789   0.0000000), wk =   0.1111111
        k(   10) = (   0.0294578  -0.0166263   0.0000000), wk =   0.1111111
        k(   11) = (   0.0589155   0.0332526   0.0000000), wk =   0.1111111
        k(   12) = (   0.0589155   0.0665051   0.0000000), wk =   0.1111111
        k(   13) = (   0.0589155   0.0997577   0.0000000), wk =   0.1111111
        k(   14) = (   0.0589155  -0.0665051   0.0000000), wk =   0.1111111
        k(   15) = (   0.0589155  -0.0332526   0.0000000), wk =   0.1111111
        k(   16) = (   0.0589155   0.0000000   0.0000000), wk =   0.1111111
        k(   17) = (  -0.0883733  -0.0498789   0.0000000), wk =   0.0555556
        k(   18) = (  -0.0883733  -0.0166263   0.0000000), wk =   0.1111111
        k(   19) = (  -0.0883733   0.0166263   0.0000000), wk =   0.1111111
        k(   20) = (  -0.0883733  -0.1496366   0.0000000), wk =   0.0555556

     Largest allocated arrays     est. size (Mb)     dimensions
     Largest temporary arrays     est. size (Mb)     dimensions

     Initial potential from superposition of free atoms
     Check: negative starting charge=   -1.020094

     starting charge  170.99329, renormalised to  174.00000

[...]

     *
     * You are using vdW-DF for exchange-correlation in this calculation.
     * Please cite the following three references that made this development
     * possible:
     *
     *   M. Dion, H. Rydberg, E. Schroder, D. C. Langreth, and
     *   B. I. Lundqvist, Phys. Rev. Lett. 92, 246401 (2004).
     *
     *   T. Thonhauser, V. R. Cooper, S. Li, A. Puzder, P. Hyldgaard, and
     *   D. C. Langreth, Phys. Rev. B 76, 125112 (2007).
     *
     *   G. Roman-Perez and J. M. Soler, Phys. Rev. Lett. 103, 096102 (2009).
     *
     *
     * If you are using vdW-DF2, please also cite:
     *
     *   K. Lee, E. D. Murray, L. Kong, B. I. Lundqvist, and
     *   D. C. Langreth, Phys. Rev. B 82, 081101(R) (2010).
     *
     *
     * If you are calculating the stress with vdW-DF, please also cite:
     *
     *   R. Sabatini, E. Kucukbenli, B. Kolb, T. Thonhauser, and
     *   S. de Gironcoli, J. Phys.: Condens. Matter 24, 424209 (2012).
     *

     Carrying out vdW-DF run using the following parameters:

     Nqs =      20    Nr_points =    1024   r_max =   100.000
     q_mesh =
               0.00001000     0.04494208     0.09755937     0.15916263
               0.23128650     0.31572767     0.41458969     0.53033537
               0.66584808     0.82450364     1.01025438     1.22772762
               1.48234092     1.78043706     2.12944203     2.53805004
               3.01644009     3.57652955     4.23227104     5.00000000

     Gradients computed in reciprocal space

[...]

     Starting wfc are  150 randomized atomic wfcs

     Self-consistent Calculation

[...]

     total energy              =   -2058.06674333 Ry
     Harris-Foulkes estimate   =   -2058.06674327 Ry
     estimated scf accuracy    <       0.00000131 Ry

     iteration # 17     ecut=    36.75 Ry     beta=0.10
     Davidson diagonalization with overlap
     ethr =  7.55E-10,  avg # of iterations =  2.9

[...]

     negative rho (up, down):  1.070E+00 0.000E+00

     Adding external electric field

     Computed dipole along edir(3) :
        Dipole                0.0029 Ry au,          0.0074 Debye
        Dipole field          0.0000 Ry au

        Potential amp.       -0.0007 Ry
        Total length         45.4550 bohr

     End of self-consistent calculation

[...]

          k = 0.0589 0.0000 0.0000 ( 17802 PWs)   bands (ev):

[...]

          k =-0.0884-0.1496 0.0000 ( 17744 PWs)   bands (ev):

   -66.7405 -66.7405 -66.6602 -66.6602 -66.4311 -66.4311 -49.0950 -49.0950
   -49.0012 -49.0012 -48.9662 -48.9662 -48.6629 -48.6629 -48.6469 -48.6469
   -48.5175 -48.5175 -48.4920 -48.4920 -48.4743 -48.4742 -48.4402 -48.4402
   -33.2524 -33.2524 -33.1550 -33.1550 -33.0963 -33.0963 -33.0258 -33.0258
   -32.9268 -32.9268 -32.8867 -32.8867 -32.8680 -32.8680 -32.8090 -32.8090
   -32.4778 -32.4778  -3.7431  -3.7431  -2.7505  -2.7505  -2.6058  -2.6058
    -2.4921  -2.4921  -2.1734  -2.1734  -2.0715  -2.0715  -1.8919  -1.8919
    -1.7441  -1.7441  -1.4493  -1.4493  -1.2728  -1.2728  -1.1744  -1.1744
    -0.9819  -0.9819  -0.9121  -0.9121  -0.8167  -0.8167  -0.7475  -0.7475
    -0.5898  -0.5898  -0.4408  -0.4408   0.2802   0.2802   0.8507   0.8507
     1.0106   1.0106   1.4391   1.4391   1.6210   1.6210   2.2925   2.2925
     2.4823   2.4823   2.7716   2.7716   2.9790   2.9790   3.0374   3.0374
     3.2755   3.2755   3.3734   3.3734   4.4451   4.4451   4.7785   4.7785
     5.0400   5.0400   5.4510   5.4510   6.0594   6.0594   6.6605   6.6605
     6.9107   6.9107   7.5301   7.5301   8.0680

     the Fermi energy is     1.9330 ev

!    total energy              =   -2058.06673906 Ry
     Harris-Foulkes estimate   =   -2058.06674365 Ry
     estimated scf accuracy    <       0.00000047 Ry

     The total energy is the sum of the following terms:

     one-electron contribution =  -15957.55028676 Ry
     hartree contribution      =    7993.31870505 Ry
     xc contribution           =    -456.47269112 Ry
     ewald contribution        =    6362.70369599 Ry
     electric field correction =       0.00000002 Ry
     smearing contrib. (-TS)   =      -0.06616224 Ry

     convergence has been achieved in  17 iterations

 BEEF-vdW xc energy contributions
           1 :   -400.202439923189
           2 :    368.312380543842
           3 :   -312.915417512321
           4 :    247.392506388866
           5 :   -185.212555454786
           6 :    135.690919295877
           7 :   -101.996005335699
           8 :    81.8048536917720
           9 :   -69.8415976310413
          10 :    60.8532046773691
          11 :   -51.6822086564659
          12 :    41.7842008167153
          13 :   -32.3964346988641
          14 :    25.1224989712626
          15 :   -20.7743655996944
          16 :    18.9673772165912
          17 :   -18.4762785050118
          18 :    17.9802790188824
          19 :   -16.7205940518380
          20 :    14.7387055146976
          21 :   -12.6492669958349
          22 :    11.1530450872086
          23 :   -10.6011847639196
          24 :    10.8357456785931
          25 :   -11.3402572108769
          26 :    11.5579528009019
          27 :   -11.1782742311850
          28 :    10.2497796883741
          29 :   -9.09665368521826
          30 :    8.11542972912491
          31 :   -37.0480499250373
          32 :   -27.5136903534634

     Forces acting on atoms (Ry/au):

     negative rho (up, down):  1.070E+00 0.000E+00
     atom    1 type  1   force =     0.00000023   -0.01606879   -0.00166573
     atom    2 type  1   force =    -0.00000015   -0.01606870   -0.00166571
     atom    3 type  2   force =    -0.00000001    0.00967694    0.02766488
     atom    4 type  2   force =    -0.00000003    0.00967648    0.02766464
     atom    5 type  1   force =     0.00000015    0.00651246   -0.01190091
     atom    6 type  1   force =    -0.00000018    0.00651263   -0.01190091
     atom    7 type  2   force =    -0.00000017   -0.00011498   -0.01458701
     atom    8 type  2   force =     0.00000011   -0.00011549   -0.01458727
     atom    9 type  1   force =     0.00000010   -0.00004336    0.00065993
     atom   10 type  1   force =    -0.00000004   -0.00004333    0.00065994
     atom   11 type  2   force =     0.00000031    0.00003807   -0.00017091
     atom   12 type  2   force =    -0.00000032    0.00003808   -0.00017092

     Total force =     0.055087     Total SCF correction =     0.003585

     entering subroutine stress ...

     negative rho (up, down):  1.070E+00 0.000E+00
          total   stress  (Ry/bohr**3)                   (kbar)     P=  -17.51
  -0.00008807  -0.00000000   0.00000000        -12.96     -0.00      0.00
  -0.00000000  -0.00018774   0.00001036         -0.00    -27.62      1.52
   0.00000000   0.00001036  -0.00008122          0.00      1.52    -11.95

 !ASE

     Writing output data file calc.save

     General routines

     Parallel routines

   This run was terminated on:   2:34:13  19Dec2018

   JOB DONE.
Job  /afs/slac/g/suncat/bin/suncat-tsmpirun -x LD_LIBRARY_PATH -wdir /scratch/qe530430_TcYN1 pw.x -in pw.inp

TID   HOST_NAME   COMMAND_LINE            STATUS            TERMINATION_TIME
00000 suncat2058 pw.x -in pw.inp   Done                     12/19/2018 02:34:13
00001 suncat2058 pw.x -in pw.inp   Done                     12/19/2018 02:34:13
00002 suncat2058 pw.x -in pw.inp   Done                     12/19/2018 02:34:13
00003 suncat2058 pw.x -in pw.inp   Done                     12/19/2018 02:34:13
00004 suncat2058 pw.x -in pw.inp   Done                     12/19/2018 02:34:13
00005 suncat2058 pw.x -in pw.inp   Done                     12/19/2018 02:34:13
00006 suncat2058 pw.x -in pw.inp   Done                     12/19/2018 02:34:13
00007 suncat2058 pw.x -in pw.inp   Done                     12/19/2018 02:34:13
00008 suncat2058 pw.x -in pw.inp   Done                     12/19/2018 02:34:13
00009 suncat2058 pw.x -in pw.inp   Done                     12/19/2018 02:34:13
00010 suncat2058 pw.x -in pw.inp   Done                     12/19/2018 02:34:13
00011 suncat2058 pw.x -in pw.inp   Done                     12/19/2018 02:34:13
00012 suncat2058 pw.x -in pw.inp   Done                     12/19/2018 02:34:13
00013 suncat2058 pw.x -in pw.inp   Done                     12/19/2018 02:34:13
00014 suncat2058 pw.x -in pw.inp   Done                     12/19/2018 02:34:13
00015 suncat2058 pw.x -in pw.inp   Done                     12/19/2018 02:34:13
00016 suncat2057 pw.x -in pw.inp   Done                     12/19/2018 02:34:13
00017 suncat2057 pw.x -in pw.inp   Done                     12/19/2018 02:34:13
00018 suncat2057 pw.x -in pw.inp   Done                     12/19/2018 02:34:13
00019 suncat2057 pw.x -in pw.inp   Done                     12/19/2018 02:34:13
00020 suncat2057 pw.x -in pw.inp   Done                     12/19/2018 02:34:13
00021 suncat2057 pw.x -in pw.inp   Done                     12/19/2018 02:34:13
00022 suncat2057 pw.x -in pw.inp   Done                     12/19/2018 02:34:13
00023 suncat2057 pw.x -in pw.inp   Done                     12/19/2018 02:34:13
00024 suncat2057 pw.x -in pw.inp   Done                     12/19/2018 02:34:13
00025 suncat2057 pw.x -in pw.inp   Done                     12/19/2018 02:34:13
00026 suncat2057 pw.x -in pw.inp   Done                     12/19/2018 02:34:13
00027 suncat2057 pw.x -in pw.inp   Done                     12/19/2018 02:34:13
00028 suncat2057 pw.x -in pw.inp   Done                     12/19/2018 02:34:13
00029 suncat2057 pw.x -in pw.inp   Done                     12/19/2018 02:34:13
00030 suncat2057 pw.x -in pw.inp   Done                     12/19/2018 02:34:13
00031 suncat2057 pw.x -in pw.inp   Done                     12/19/2018 02:34:13