     Program PWSCF v.5.1rc2 (svn rev. 11289) starts on 24Dec2018 at 22: 3:59

     Current dimensions of program PWSCF are:
     Max number of different atomic species (ntypx) = 10
     Max number of k-points (npk) =  40000
     Max angular momentum in pseudopotentials (lmaxx) =  3
     Presently stress not available with electric field

     IMPORTANT: XC functional enforced from input :
     Exchange-correlation      = BEEF-VDW ( 1  4 27 13 2)
     Any further DFT definition will be discarded
     Please, verify this is what you really want

     Subspace diagonalization in iterative solution of the eigenvalue problem:
     a serial algorithm will be used

     Found symmetry operation: I + ( -0.5000 -0.5000  0.0000)
     This is a supercell, fractional translations are disabled

     bravais-lattice index     =            0
     lattice parameter (alat)  =       1.8897  a.u.
     unit-cell volume          =    6122.5147 (a.u.)^3
     number of atoms/cell      =           12
     number of atomic types    =            2
     number of electrons       =       144.00
     number of Kohn-Sham states=          102
     kinetic-energy cutoff     =      36.7493  Ry
     charge density cutoff     =     367.4932  Ry
     convergence threshold     =      1.0E-06
     mixing beta               =       0.1000
     number of iterations used =           10  plain     mixing
     Exchange-correlation      = BEEF-VDW ( 1  4 27 13 2)
     nstep                     =           50

     celldm(1)=   1.889726  celldm(2)=   0.000000  celldm(3)=   0.000000
     celldm(4)=   0.000000  celldm(5)=   0.000000  celldm(6)=   0.000000

     crystal axes: (cart. coord. in units of alat)
               a(1) = (   6.181761   0.000000   0.000000 )
               a(2) = (   1.940580   5.869269   0.000000 )
               a(3) = (   0.000000   0.000000  25.005583 )

     reciprocal axes: (cart. coord. in units 2 pi/alat)
               b(1) = (  0.161766 -0.053485  0.000000 )
               b(2) = (  0.000000  0.170379  0.000000 )
               b(3) = (  0.000000  0.000000  0.039991 )

     PseudoPot. # 1 for In read from file:
     /afs/slac.stanford.edu/u/if/mamunm/psp/gbrv1.5pbe/In.UPF
     MD5 check sum: 90777abd96fbb83f2e67db2a40c566b9
     Pseudo is Ultrasoft + core correction, Zval = 13.0
     Generated by new atomic code, or converted to UPF format
     Using radial grid of  889 points,  6 beta functions with:
                l(1) =   0
                l(2) =   0
                l(3) =   1
                l(4) =   1
                l(5) =   2
                l(6) =   2
     Q(r) pseudized with  6 coefficients,  rinner =    1.400   1.400   1.400
                                                       1.400   1.400

     PseudoPot. # 2 for Au read from file:
     /afs/slac.stanford.edu/u/if/mamunm/psp/gbrv1.5pbe/Au.UPF
     MD5 check sum: 9d7f43293ad2c663164586bc4b293ffc
     Pseudo is Ultrasoft + core correction, Zval = 11.0
     Generated by new atomic code, or converted to UPF format
     Using radial grid of  985 points,  7 beta functions with:
                l(1) =   0
                l(2) =   0
                l(3) =   1
                l(4) =   1
                l(5) =   2
                l(6) =   2
                l(7) =   3
     Q(r) pseudized with  6 coefficients,  rinner =    1.900   1.900   1.900
                                                       1.900   1.900   1.900
                                                       1.900

     vdW kernel table read from file vdW_kernel_table
     MD5 check sum: 095c7af220d748ca6e76c0b4c6cfb241

     atomic species   valence    mass     pseudopotential
        In1           13.00   114.81800     In( 1.00)
        Au1           11.00   196.96657     Au( 1.00)

     No symmetry found

   Cartesian axes

     site n.     atom                  positions (alat units)
         1           In1 tau(   1) = (   0.0000000   0.0000000  10.0000000  )
         2           In1 tau(   2) = (   4.0611705   2.9346346  10.0000000  )
         3           Au1 tau(   3) = (   3.0908806   0.0000000  10.0000000  )
         4           Au1 tau(   4) = (   0.9702899   2.9346346  10.0000000  )
         5           In1 tau(   5) = (   6.1817611   4.4669905  12.5027915  )
         6           In1 tau(   6) = (   2.1205906   1.5323559  12.5027915  )
         7           Au1 tau(   7) = (   3.0908806   4.4669905  12.5027915  )
         8           Au1 tau(   8) = (   5.2114712   1.5323559  12.5027915  )
         9           In1 tau(   9) = (   4.2411813   3.0647118  15.0055831  )
        10           In1 tau(  10) = (   0.1800108   0.1300772  15.0055831  )
        11           Au1 tau(  11) = (   1.1503007   3.0647118  15.0055831  )
        12           Au1 tau(  12) = (   3.2708913   0.1300772  15.0055831  )

     number of k points=    20  Fermi-Dirac smearing, width (Ry)=  0.0110
                       cart. coord. in units 2pi/alat
        k(    1) = (   0.0000000   0.0000000   0.0000000), wk =   0.0555556
        k(    2) = (   0.0000000   0.0283965   0.0000000), wk =   0.1111111
        k(    3) = (   0.0000000   0.0567930   0.0000000), wk =   0.1111111
        k(    4) = (   0.0000000  -0.0851895   0.0000000), wk =   0.0555556
        k(    5) = (   0.0269610  -0.0089142   0.0000000), wk =   0.1111111
        k(    6) = (   0.0269610   0.0194823   0.0000000), wk =   0.1111111
        k(    7) = (   0.0269610   0.0478788   0.0000000), wk =   0.1111111
        k(    8) = (   0.0269610  -0.0941037   0.0000000), wk =   0.1111111
        k(    9) = (   0.0269610  -0.0657072   0.0000000), wk =   0.1111111
        k(   10) = (   0.0269610  -0.0373107   0.0000000), wk =   0.1111111
        k(   11) = (   0.0539221  -0.0178285   0.0000000), wk =   0.1111111
        k(   12) = (   0.0539221   0.0105680   0.0000000), wk =   0.1111111
        k(   13) = (   0.0539221   0.0389645   0.0000000), wk =   0.1111111
        k(   14) = (   0.0539221  -0.1030179   0.0000000), wk =   0.1111111
        k(   15) = (   0.0539221  -0.0746215   0.0000000), wk =   0.1111111
        k(   16) = (   0.0539221  -0.0462250   0.0000000), wk =   0.1111111
        k(   17) = (  -0.0808831   0.0267427   0.0000000), wk =   0.0555556
        k(   18) = (  -0.0808831   0.0551392   0.0000000), wk =   0.1111111
        k(   19) = (  -0.0808831   0.0835357   0.0000000), wk =   0.1111111
        k(   20) = (  -0.0808831  -0.0584468   0.0000000), wk =   0.0555556

     Largest allocated arrays     est. size (Mb)     dimensions
     Largest temporary arrays     est. size (Mb)     dimensions

     Check: negative/imaginary core charge=   -0.000001    0.000000

     Initial potential from superposition of free atoms
     Check: negative starting charge=   -0.000130

     starting charge  134.99926, renormalised to  144.00000

     negative rho (up, down):  1.385E-04 0.000E+00

     *
     * You are using vdW-DF for exchange-correlation in this calculation.
     * Please cite the following three references that made this development
     * possible:
     *
     *   M. Dion, H. Rydberg, E. Schroder, D. C. Langreth, and
     *   B. I. Lundqvist, Phys. Rev. Lett. 92, 246401 (2004).
     *
     *   T. Thonhauser, V. R. Cooper, S. Li, A. Puzder, P. Hyldgaard, and
     *   D. C. Langreth, Phys. Rev. B 76, 125112 (2007).
     *
     *   G. Roman-Perez and J. M. Soler, Phys. Rev. Lett. 103, 096102 (2009).
     *
     *
     * If you are using vdW-DF2, please also cite:
     *
     *   K. Lee, E. D. Murray, L. Kong, B. I. Lundqvist, and
     *   D. C. Langreth, Phys. Rev. B 82, 081101(R) (2010).
     *
     *
     * If you are calculating the stress with vdW-DF, please also cite:
     *
     *   R. Sabatini, E. Kucukbenli, B. Kolb, T. Thonhauser, and
     *   S. de Gironcoli, J. Phys.: Condens. Matter 24, 424209 (2012).
     *

     Carrying out vdW-DF run using the following parameters:

     Nqs =      20    Nr_points =    1024   r_max =   100.000
     q_mesh =
               0.00001000     0.04494208     0.09755937     0.15916263
               0.23128650     0.31572767     0.41458969     0.53033537
               0.66584808     0.82450364     1.01025438     1.22772762
               1.48234092     1.78043706     2.12944203     2.53805004
               3.01644009     3.57652955     4.23227104     5.00000000

     Gradients computed in reciprocal space

     Adding external electric field

     Computed dipole along edir(3) :
        Dipole               -0.0000 Ry au,         -0.0000 Debye
        Dipole field         -0.0000 Ry au

        Potential amp.        0.0000 Ry
        Total length         46.0724 bohr

     Starting wfc are  108 randomized atomic wfcs

     Self-consistent Calculation

     iteration #  1     ecut=    36.75 Ry     beta=0.10
     Davidson diagonalization with overlap
     ethr =  1.00E-02,  avg # of iterations =  7.5

[...]

     total energy              =   -1510.19387534 Ry
     Harris-Foulkes estimate   =   -1512.82244022 Ry
     estimated scf accuracy    <      15.69079089 Ry

[...]

     End of self-consistent calculation

          k = 0.0000 0.0000 0.0000 ( 23033 PWs)   bands (ev):

   -14.7513 -14.7227 -14.7179 -14.7089 -14.7035 -14.6754 -14.6568 -14.6532
   -14.6432 -14.6399 -14.6349 -14.6242 -14.6207 -14.6159 -14.6096 -14.5954
   -14.5871 -14.5827 -14.5815 -14.5733 -14.5671 -14.5655 -14.5633 -14.5563
   -14.5411 -14.5355 -14.5105 -14.4973 -14.4875 -14.4667  -8.3621  -6.8216
    -5.8168  -5.7392  -5.5278  -5.2651  -4.4161  -4.2678  -4.2289  -4.0852
    -3.9732  -3.9541  -3.8379  -3.8292  -3.8178  -3.7939  -3.7773  -3.6807
    -3.5680  -3.4852  -3.4601  -3.4152  -3.4074  -3.3374  -3.2877  -3.2825
    -3.2484  -3.2411  -3.1125  -3.1016  -3.0544  -2.8520  -2.5039  -2.0151
    -1.9770  -1.9242  -1.5544  -1.1767  -0.8584  -0.7545  -0.7079  -0.5497
    -0.4252  -0.1509   0.2673   0.6887   0.8831   1.3281   1.7045   1.7317
     2.4558   2.6651   2.9355   3.7013   3.8376   3.8949   4.2118   4.8498
     5.1352   5.2184   5.2202   5.4602   5.5435   5.8443   6.0221   6.7073
     7.0282   7.1815   7.3145   7.4151   7.5001   7.5307

[...]

          k =-0.0809 0.0267 0.0000 ( 23048 PWs)   bands (ev):

[...]

     the Fermi energy is     0.1140 ev

!    total energy              =   -1509.01265132 Ry
     Harris-Foulkes estimate   =   -1509.01264249 Ry
     estimated scf accuracy    <       0.00000026 Ry

     The total energy is the sum of the following terms:

     one-electron contribution =   -8211.74346817 Ry
     hartree contribution      =    4192.17232181 Ry
     xc contribution           =    -618.61642569 Ry
     ewald contribution        =    3129.20041582 Ry
     electric field correction =       0.00000000 Ry
     smearing contrib. (-TS)   =      -0.02549508 Ry

     convergence has been achieved in  15 iterations

 BEEF-vdW xc energy contributions
           1 :   -548.811416344625
           2 :    506.706570434528
           3 :   -433.308690434080
           4 :    345.659705630367
           5 :   -260.625572604237
           6 :    189.636697239751
           7 :   -136.582057797543
           8 :    99.0970040370133
           9 :   -71.9646204414095
          10 :    50.5710596982522
[...]
     Pseudo is Ultrasoft + core correction, Zval = 13.0
     Generated by new atomic code, or converted to UPF format
     Using radial grid of  889 points,  6 beta functions with:
                l(1) =   0
                l(2) =   0
                l(3) =   1
                l(4) =   1
                l(5) =   2
                l(6) =   2
     Q(r) pseudized with  6 coefficients,  rinner =    1.400   1.400   1.400
                                                       1.400   1.400

     PseudoPot. # 2 for Au read from file:
     /afs/slac.stanford.edu/u/if/mamunm/psp/gbrv1.5pbe/Au.UPF
     MD5 check sum: 9d7f43293ad2c663164586bc4b293ffc
     Pseudo is Ultrasoft + core correction, Zval = 11.0
     Generated by new atomic code, or converted to UPF format
     Using radial grid of  985 points,  7 beta functions with:
                l(1) =   0
                l(2) =   0
                l(3) =   1
                l(4) =   1
                l(5) =   2
                l(6) =   2
                l(7) =   3
     Q(r) pseudized with  6 coefficients,  rinner =    1.900   1.900   1.900
                                                       1.900   1.900   1.900
                                                       1.900

     vdW kernel table read from file vdW_kernel_table
     MD5 check sum: 095c7af220d748ca6e76c0b4c6cfb241

     atomic species   valence    mass     pseudopotential
        In1           13.00   114.81800     In( 1.00)
        Au1           11.00   196.96657     Au( 1.00)

     No symmetry found

   Cartesian axes

     site n.     atom                  positions (alat units)
         1           In1 tau(   1) = (   0.0000000   0.0000000  10.0000000  )
         2           In1 tau(   2) = (   4.0611705   2.9346346  10.0000000  )
         3           Au1 tau(   3) = (   3.0908806   0.0000000  10.0000000  )
         4           Au1 tau(   4) = (   0.9702899   2.9346346  10.0000000  )
         5           In1 tau(   5) = (   6.1817611   4.4669905  12.5027915  )
         6           In1 tau(   6) = (   2.1205906   1.5323559  12.5027915  )
         7           Au1 tau(   7) = (   3.0908806   4.4669905  12.5027915  )
         8           Au1 tau(   8) = (   5.2114712   1.5323559  12.5027915  )
         9           In1 tau(   9) = (   4.2225287   3.0512247  15.2339751  )
        10           In1 tau(  10) = (   0.1613508   0.1165998  15.2339622  )
        11           Au1 tau(  11) = (   1.1472733   3.0625360  14.9033671  )
        12           Au1 tau(  12) = (   3.2678761   0.1279147  14.9033772  )

     number of k points=    20  Fermi-Dirac smearing, width (Ry)=  0.0110
                       cart. coord. in units 2pi/alat
        k(    1) = (   0.0000000   0.0000000   0.0000000), wk =   0.0555556
        k(    2) = (   0.0000000   0.0283965   0.0000000), wk =   0.1111111
        k(    3) = (   0.0000000   0.0567930   0.0000000), wk =   0.1111111
        k(    4) = (   0.0000000  -0.0851895   0.0000000), wk =   0.0555556
        k(    5) = (   0.0269610  -0.0089142   0.0000000), wk =   0.1111111
        k(    6) = (   0.0269610   0.0194823   0.0000000), wk =   0.1111111
        k(    7) = (   0.0269610   0.0478788   0.0000000), wk =   0.1111111
        k(    8) = (   0.0269610  -0.0941037   0.0000000), wk =   0.1111111
        k(    9) = (   0.0269610  -0.0657072   0.0000000), wk =   0.1111111
        k(   10) = (   0.0269610  -0.0373107   0.0000000), wk =   0.1111111
        k(   11) = (   0.0539221  -0.0178285   0.0000000), wk =   0.1111111
        k(   12) = (   0.0539221   0.0105680   0.0000000), wk =   0.1111111
        k(   13) = (   0.0539221   0.0389645   0.0000000), wk =   0.1111111
        k(   14) = (   0.0539221  -0.1030179   0.0000000), wk =   0.1111111
        k(   15) = (   0.0539221  -0.0746215   0.0000000), wk =   0.1111111
        k(   16) = (   0.0539221  -0.0462250   0.0000000), wk =   0.1111111
        k(   17) = (  -0.0808831   0.0267427   0.0000000), wk =   0.0555556
        k(   18) = (  -0.0808831   0.0551392   0.0000000), wk =   0.1111111
        k(   19) = (  -0.0808831   0.0835357   0.0000000), wk =   0.1111111
        k(   20) = (  -0.0808831  -0.0584468   0.0000000), wk =   0.0555556

     Largest allocated arrays     est. size (Mb)     dimensions
     Largest temporary arrays     est. size (Mb)     dimensions

     Check: negative/imaginary core charge=   -0.000001    0.000000

     Initial potential from superposition of free atoms
     Check: negative starting charge=   -0.000133

     starting charge  134.99926, renormalised to  144.00000

[...]

     *
     * You are using vdW-DF for exchange-correlation in this calculation.
     * Please cite the following three references that made this development
     * possible:
     *
     *   M. Dion, H. Rydberg, E. Schroder, D. C. Langreth, and
     *   B. I. Lundqvist, Phys. Rev. Lett. 92, 246401 (2004).
     *
     *   T. Thonhauser, V. R. Cooper, S. Li, A. Puzder, P. Hyldgaard, and
     *   D. C. Langreth, Phys. Rev. B 76, 125112 (2007).
     *
     *   G. Roman-Perez and J. M. Soler, Phys. Rev. Lett. 103, 096102 (2009).
     *
     *
     * If you are using vdW-DF2, please also cite:
     *
     *   K. Lee, E. D. Murray, L. Kong, B. I. Lundqvist, and
     *   D. C. Langreth, Phys. Rev. B 82, 081101(R) (2010).
     *
     *
     * If you are calculating the stress with vdW-DF, please also cite:
     *
     *   R. Sabatini, E. Kucukbenli, B. Kolb, T. Thonhauser, and
     *   S. de Gironcoli, J. Phys.: Condens. Matter 24, 424209 (2012).
     *

     Carrying out vdW-DF run using the following parameters:

     Nqs =      20    Nr_points =    1024   r_max =   100.000
     q_mesh =
               0.00001000     0.04494208     0.09755937     0.15916263
               0.23128650     0.31572767     0.41458969     0.53033537
               0.66584808     0.82450364     1.01025438     1.22772762
               1.48234092     1.78043706     2.12944203     2.53805004
               3.01644009     3.57652955     4.23227104     5.00000000

     Gradients computed in reciprocal space

[...]

     Starting wfc are  108 randomized atomic wfcs

     Self-consistent Calculation

[...]

     total energy              =   -1509.01829772 Ry
     Harris-Foulkes estimate   =   -1509.01829660 Ry
     estimated scf accuracy    <       0.00000941 Ry

     iteration # 14     ecut=    36.75 Ry     beta=0.10
     Davidson diagonalization with overlap
     ethr =  6.53E-09,  avg # of iterations =  2.0

[...]

     negative rho (up, down):  8.171E-04 0.000E+00

     Adding external electric field

     Computed dipole along edir(3) :
        Dipole                0.0911 Ry au,          0.2315 Debye
        Dipole field          0.0002 Ry au

        Potential amp.       -0.0172 Ry
        Total length         46.0724 bohr

     End of self-consistent calculation

[...]

          k = 0.0539-0.0462 0.0000 ( 23035 PWs)   bands (ev):

[...]

          k =-0.0809-0.0584 0.0000 ( 23048 PWs)   bands (ev):

   -14.6587 -14.6266 -14.6152 -14.6106 -14.6035 -14.5872 -14.5843 -14.5679
   -14.5614 -14.5585 -14.5459 -14.5285 -14.5282 -14.5239 -14.5200 -14.5097
   -14.5054 -14.5049 -14.5029 -14.4969 -14.4947 -14.4769 -14.4742 -14.4733
   -14.4716 -14.4636 -14.4382 -14.4251 -14.4216 -14.3917  -6.6283  -6.5154
    -5.5927  -5.2895  -5.1591  -5.0530  -5.0417  -4.5285  -4.4602  -4.3943
    -4.1049  -4.0941  -4.0229  -4.0211  -4.0157  -3.9472  -3.8541  -3.7698
    -3.7662  -3.6913  -3.5969  -3.5673  -3.5615  -3.5220  -3.4564  -3.4118
    -3.3543  -3.2395  -3.2156  -3.1586  -3.0942  -3.0567  -2.9165  -2.8278
    -2.6190  -2.5389  -2.3654  -1.7683  -1.5345  -1.4401  -1.2514  -0.0084
     1.2760   1.8715   2.1421   2.5186   2.8567   3.6232   3.6277   3.7579
     3.7972   4.0965   4.1289   4.5083   4.8298   4.9456   5.2630   5.3927
     5.4607   5.5903   5.6982   5.9239   6.1450   6.2083   6.2578   6.3291
     6.3445   6.4523   6.6388   6.6842   6.7844   6.8301

     the Fermi energy is     0.1929 ev

!    total energy              =   -1509.01831070 Ry
     Harris-Foulkes estimate   =   -1509.01829928 Ry
     estimated scf accuracy    <       0.00000089 Ry

     The total energy is the sum of the following terms:

     one-electron contribution =   -8119.41203562 Ry
     hartree contribution      =    4146.39581700 Ry
     xc contribution           =    -618.56685897 Ry
     ewald contribution        =    3082.59064297 Ry
     electric field correction =       0.00001702 Ry
     smearing contrib. (-TS)   =      -0.02589309 Ry

     convergence has been achieved in  14 iterations

 BEEF-vdW xc energy contributions
           1 :   -548.757453528753
           2 :    506.615353215705
           3 :   -433.168098246406
           4 :    345.495922850676
           5 :   -260.491223835144
           6 :    189.576724724660
           7 :   -136.601738963191
           8 :    99.1565788464324
           9 :   -72.0048070563366
          10 :    50.5507420365683
          11 :   -32.6896789940376
          12 :    18.5687330333437
          13 :   -9.04112402923829
          14 :    4.12172940068842
          15 :   -2.43217523423266
          16 :    1.76508273854370
          17 :  -0.185676400155103
          18 :   -3.11982683534234
          19 :    7.70097191005561
          20 :   -12.3487990713409
          21 :    15.8307140158918
          22 :   -17.4294976631663
          23 :    17.0936938913625
          24 :   -15.2838160513895
          25 :    12.7093223501772
          26 :   -10.1015037102391
          27 :    8.04595983424440
          28 :   -6.85340573471319
          29 :    6.48029886525524
          30 :   -6.56615536425102
          31 :   -45.6910719837175
          32 :   -33.1404707816389

     Forces acting on atoms (Ry/au):

     negative rho (up, down):  8.171E-04 0.000E+00
     atom    1 type  1   force =     0.00089684    0.00064487   -0.00943445
     atom    2 type  1   force =     0.00089551    0.00064947   -0.00943699
     atom    3 type  2   force =    -0.00002799   -0.00001995    0.00498670
     atom    4 type  2   force =    -0.00002608   -0.00001845    0.00498311
     atom    5 type  1   force =    -0.00109952   -0.00079479    0.00024499
     atom    6 type  1   force =    -0.00110142   -0.00079268    0.00024516
     atom    7 type  2   force =     0.00057823    0.00041684    0.00449552
     atom    8 type  2   force =     0.00057944    0.00041936    0.00449406
     atom    9 type  1   force =     0.00030650    0.00022454    0.00096620
     atom   10 type  1   force =     0.00030884    0.00021934    0.00096556
     atom   11 type  2   force =    -0.00065332   -0.00047233   -0.00125560
     atom   12 type  2   force =    -0.00065703   -0.00047622   -0.00125425

     Total force =     0.016794     Total SCF correction =     0.002626
     SCF correction compared to forces is large: reduce conv_thr to get better values

     entering subroutine stress ...

     negative rho (up, down):  8.171E-04 0.000E+00
          total   stress  (Ry/bohr**3)                   (kbar)     P=   -7.72
  -0.00008560  -0.00002220  -0.00000185        -12.59     -3.27     -0.27
  -0.00002220  -0.00007092  -0.00000134         -3.27    -10.43     -0.20
  -0.00000185  -0.00000134  -0.00000089         -0.27     -0.20     -0.13

 !ASE

     Writing output data file calc.save

     General routines

     Parallel routines

   This run was terminated on:  23: 3:12  24Dec2018

   JOB DONE.
Job  /afs/slac/g/suncat/bin/suncat-tsmpirun -x LD_LIBRARY_PATH -wdir /scratch/qe109015_aOfsh pw.x -in pw.inp

TID   HOST_NAME   COMMAND_LINE            STATUS            TERMINATION_TIME
00000 suncat0161 pw.x -in pw.inp   Done                     12/24/2018 23:03:12
00001 suncat0161 pw.x -in pw.inp   Done                     12/24/2018 23:03:12
00002 suncat0161 pw.x -in pw.inp   Done                     12/24/2018 23:03:12
00003 suncat0161 pw.x -in pw.inp   Done                     12/24/2018 23:03:12
00004 suncat0161 pw.x -in pw.inp   Done                     12/24/2018 23:03:12
00005 suncat0161 pw.x -in pw.inp   Done                     12/24/2018 23:03:12
00006 suncat0161 pw.x -in pw.inp   Done                     12/24/2018 23:03:12
00007 suncat0161 pw.x -in pw.inp   Done                     12/24/2018 23:03:12
00008 suncat0159 pw.x -in pw.inp   Done                     12/24/2018 23:03:12
00009 suncat0159 pw.x -in pw.inp   Done                     12/24/2018 23:03:12
00010 suncat0159 pw.x -in pw.inp   Done                     12/24/2018 23:03:12
00011 suncat0159 pw.x -in pw.inp   Done                     12/24/2018 23:03:12
00012 suncat0159 pw.x -in pw.inp   Done                     12/24/2018 23:03:12
00013 suncat0159 pw.x -in pw.inp   Done                     12/24/2018 23:03:12
00014 suncat0159 pw.x -in pw.inp   Done                     12/24/2018 23:03:12
00015 suncat0159 pw.x -in pw.inp   Done                     12/24/2018 23:03:12
00016 suncat0137 pw.x -in pw.inp   Done                     12/24/2018 23:03:12
00017 suncat0137 pw.x -in pw.inp   Done                     12/24/2018 23:03:12
00018 suncat0137 pw.x -in pw.inp   Done                     12/24/2018 23:03:12
00019 suncat0137 pw.x -in pw.inp   Done                     12/24/2018 23:03:12
00020 suncat0137 pw.x -in pw.inp   Done                     12/24/2018 23:03:12
00021 suncat0137 pw.x -in pw.inp   Done                     12/24/2018 23:03:12
00022 suncat0137 pw.x -in pw.inp   Done                     12/24/2018 23:03:12
00023 suncat0137 pw.x -in pw.inp   Done                     12/24/2018 23:03:12
00024 suncat0136 pw.x -in pw.inp   Done                     12/24/2018 23:03:12
00025 suncat0136 pw.x -in pw.inp   Done                     12/24/2018 23:03:12
00026 suncat0136 pw.x -in pw.inp   Done                     12/24/2018 23:03:12
00027 suncat0136 pw.x -in pw.inp   Done                     12/24/2018 23:03:12
00028 suncat0136 pw.x -in pw.inp   Done                     12/24/2018 23:03:12
00029 suncat0136 pw.x -in pw.inp   Done                     12/24/2018 23:03:12
00030 suncat0136 pw.x -in pw.inp   Done                     12/24/2018 23:03:12
00031 suncat0136 pw.x -in pw.inp   Done                     12/24/2018 23:03:12
00032 suncat0135 pw.x -in pw.inp   Done                     12/24/2018 23:03:12
00033 suncat0135 pw.x -in pw.inp   Done                     12/24/2018 23:03:12
00034 suncat0135 pw.x -in pw.inp   Done                     12/24/2018 23:03:12
00035 suncat0135 pw.x -in pw.inp   Done                     12/24/2018 23:03:12
00036 suncat0135 pw.x -in pw.inp   Done                     12/24/2018 23:03:12
00037 suncat0135 pw.x -in pw.inp   Done                     12/24/2018 23:03:12
00038 suncat0135 pw.x -in pw.inp   Done                     12/24/2018 23:03:12
00039 suncat0135 pw.x -in pw.inp   Done                     12/24/2018 23:03:12
00040 suncat0134 pw.x -in pw.inp   Done                     12/24/2018 23:03:12
00041 suncat0134 pw.x -in pw.inp   Done                     12/24/2018 23:03:12
00042 suncat0134 pw.x -in pw.inp   Done                     12/24/2018 23:03:12
00043 suncat0134 pw.x -in pw.inp   Done                     12/24/2018 23:03:12
00044 suncat0134 pw.x -in pw.inp   Done                     12/24/2018 23:03:12
00045 suncat0134 pw.x -in pw.inp   Done                     12/24/2018 23:03:12
00046 suncat0134 pw.x -in pw.inp   Done                     12/24/2018 23:03:12
00047 suncat0134 pw.x -in pw.inp   Done                     12/24/2018 23:03:12
00048 suncat0201 pw.x -in pw.inp   Done                     12/24/2018 23:03:12
00049 suncat0201 pw.x -in pw.inp   Done                     12/24/2018 23:03:12
00050 suncat0201 pw.x -in pw.inp   Done                     12/24/2018 23:03:12
00051 suncat0201 pw.x -in pw.inp   Done                     12/24/2018 23:03:12
00052 suncat0201 pw.x -in pw.inp   Done                     12/24/2018 23:03:12
00053 suncat0201 pw.x -in pw.inp   Done                     12/24/2018 23:03:12
00054 suncat0201 pw.x -in pw.inp   Done                     12/24/2018 23:03:12
00055 suncat0201 pw.x -in pw.inp   Done                     12/24/2018 23:03:12
00056 suncat0200 pw.x -in pw.inp   Done                     12/24/2018 23:03:12
00057 suncat0200 pw.x -in pw.inp   Done                     12/24/2018 23:03:12
00058 suncat0200 pw.x -in pw.inp   Done                     12/24/2018 23:03:12
00059 suncat0200 pw.x -in pw.inp   Done                     12/24/2018 23:03:12
00060 suncat0200 pw.x -in pw.inp   Done                     12/24/2018 23:03:12
00061 suncat0200 pw.x -in pw.inp   Done                     12/24/2018 23:03:12
00062 suncat0200 pw.x -in pw.inp   Done                     12/24/2018 23:03:12
00063 suncat0200 pw.x -in pw.inp   Done                     12/24/2018 23:03:12