     Program PWSCF v.5.1rc2 (svn rev. 11289) starts on 18Dec2018 at 22:52:28

     Current dimensions of program PWSCF are:
     Max number of different atomic species (ntypx) = 10
     Max number of k-points (npk) =  40000
     Max angular momentum in pseudopotentials (lmaxx) =  3
     Presently stress not available with electric field

     IMPORTANT: XC functional enforced from input :
     Exchange-correlation      = BEEF-VDW ( 1  4 27 13 2)
     Any further DFT definition will be discarded
     Please, verify this is what you really want

     Subspace diagonalization in iterative solution of the eigenvalue problem:
     a serial algorithm will be used

     Found symmetry operation: I + (  0.5000  0.5000  0.0000)
     This is a supercell, fractional translations are disabled

     Generating pointlists ...
     new r_m :   0.4125 (alat units)  0.7795 (a.u.) for type    1
     new r_m :   0.4125 (alat units)  0.7795 (a.u.) for type    2

     bravais-lattice index     =            0
     lattice parameter (alat)  =       1.8897  a.u.
     unit-cell volume          =    4902.1952 (a.u.)^3
     number of atoms/cell      =           12
     number of atomic types    =            2
     number of electrons       =       192.00
     number of Kohn-Sham states=          126
     kinetic-energy cutoff     =      36.7493  Ry
     charge density cutoff     =     367.4932  Ry
     convergence threshold     =      1.0E-06
     mixing beta               =       0.1000
     number of iterations used =           10  plain     mixing
     Exchange-correlation      = BEEF-VDW ( 1  4 27 13 2)
     nstep                     =           50

     celldm(1)=   1.889726  celldm(2)=   0.000000  celldm(3)=   0.000000
     celldm(4)=   0.000000  celldm(5)=   0.000000  celldm(6)=   0.000000

     crystal axes: (cart. coord. in units of alat)
               a(1) = (   5.588722   0.000000   0.000000 )
               a(2) = (   1.779644   5.297799   0.000000 )
               a(3) = (   0.000000   0.000000  24.534998 )

     reciprocal axes: (cart. coord. in units 2 pi/alat)
               b(1) = (  0.178932 -0.060107  0.000000 )
               b(2) = (  0.000000  0.188758  0.000000 )
               b(3) = (  0.000000  0.000000  0.040758 )

     PseudoPot. # 1 for Ni read from file:
     /afs/slac.stanford.edu/u/if/mamunm/psp/gbrv1.5pbe/Ni.UPF
     MD5 check sum: 1ee80287db30b12d2bc1f57a5b5d6409
     Pseudo is Ultrasoft + core correction, Zval = 18.0
     Generated by new atomic code, or converted to UPF format
     Using radial grid of  865 points,  6 beta functions with:
                l(1) =   0
                l(2) =   0
                l(3) =   1
                l(4) =   1
                l(5) =   2
                l(6) =   2
     Q(r) pseudized with 10 coefficients,  rinner =    0.980   0.980   0.980
                                                       0.980   0.980

     PseudoPot. # 2 for Sn read from file:
     /afs/slac.stanford.edu/u/if/mamunm/psp/gbrv1.5pbe/Sn.UPF
     MD5 check sum: 469debedee59599fedebd795477fea03
     Pseudo is Ultrasoft + core correction, Zval = 14.0
     Generated by new atomic code, or converted to UPF format
     Using radial grid of  891 points,  6 beta functions with:
                l(1) =   0
                l(2) =   0
                l(3) =   1
                l(4) =   1
                l(5) =   2
                l(6) =   2
     Q(r) pseudized with  8 coefficients,  rinner =    1.350   1.350   1.350
                                                       1.350   1.350

     vdW kernel table read from file vdW_kernel_table
     MD5 check sum: 095c7af220d748ca6e76c0b4c6cfb241

     atomic species   valence    mass     pseudopotential
        Ni1           18.00    58.69340     Ni( 1.00)
        Sn1           14.00   118.71000     Sn( 1.00)

     Starting magnetic structure
     atomic species   magnetization
        Ni1          0.111
        Sn1          0.143

     No symmetry found

   Cartesian axes

     site n.     atom                  positions (alat units)
         1           Ni1 tau(   1) = (   0.0000000   0.0000000  10.0000000  )
         2           Ni1 tau(   2) = (   3.6841828   2.6488996  10.0000000  )
         3           Sn1 tau(   3) = (   2.7943608   0.0000000  10.0000000  )
         4           Sn1 tau(   4) = (   0.8898220   2.6488996  10.0000000  )
         5           Ni1 tau(   5) = (   5.5887216   4.0182486  12.2674991  )
         6           Ni1 tau(   6) = (   1.9045388   1.3693490  12.2674991  )
         7           Sn1 tau(   7) = (   2.7943608   4.0182486  12.2674991  )
         8           Sn1 tau(   8) = (   4.6988996   1.3693490  12.2674991  )
         9           Ni1 tau(   9) = (   3.8090776   2.7386980  14.5349983  )
        10           Ni1 tau(  10) = (   0.1248948   0.0897984  14.5349983  )
        11           Sn1 tau(  11) = (   1.0147168   2.7386980  14.5349983  )
        12           Sn1 tau(  12) = (   2.9192556   0.0897984  14.5349983  )

     number of k points=    40  Fermi-Dirac smearing, width (Ry)=  0.0110
                       cart. coord. in units 2pi/alat
        k(    1) = (   0.0000000   0.0000000   0.0000000), wk =   0.0277778
        k(    2) = (   0.0000000   0.0314596   0.0000000), wk =   0.0555556
        k(    3) = (   0.0000000   0.0629192   0.0000000), wk =   0.0555556
        k(    4) = (   0.0000000  -0.0943788   0.0000000), wk =   0.0277778
        k(    5) = (   0.0298220  -0.0100178   0.0000000), wk =   0.0555556
        k(    6) = (   0.0298220   0.0214418   0.0000000), wk =   0.0555556
        k(    7) = (   0.0298220   0.0529014   0.0000000), wk =   0.0555556
        k(    8) = (   0.0298220  -0.1043966   0.0000000), wk =   0.0555556
        k(    9) = (   0.0298220  -0.0729370   0.0000000), wk =   0.0555556
        k(   10) = (   0.0298220  -0.0414774   0.0000000), wk =   0.0555556
        k(   11) = (   0.0596439  -0.0200357   0.0000000), wk =   0.0555556
        k(   12) = (   0.0596439   0.0114239   0.0000000), wk =   0.0555556
        k(   13) = (   0.0596439   0.0428835   0.0000000), wk =   0.0555556
        k(   14) = (   0.0596439  -0.1144145   0.0000000), wk =   0.0555556
        k(   15) = (   0.0596439  -0.0829549   0.0000000), wk =   0.0555556
        k(   16) = (   0.0596439  -0.0514953   0.0000000), wk =   0.0555556
        k(   17) = (  -0.0894659   0.0300535   0.0000000), wk =   0.0277778
        k(   18) = (  -0.0894659   0.0615131   0.0000000), wk =   0.0555556
        k(   19) = (  -0.0894659   0.0929727   0.0000000), wk =   0.0555556
        k(   20) = (  -0.0894659  -0.0643253   0.0000000), wk =   0.0277778
        k(   21) = (   0.0000000   0.0000000   0.0000000), wk =   0.0277778
        k(   22) = (   0.0000000   0.0314596   0.0000000), wk =   0.0555556
        k(   23) = (   0.0000000   0.0629192   0.0000000), wk =   0.0555556
        k(   24) = (   0.0000000  -0.0943788   0.0000000), wk =   0.0277778
        k(   25) = (   0.0298220  -0.0100178   0.0000000), wk =   0.0555556
        k(   26) = (   0.0298220   0.0214418   0.0000000), wk =   0.0555556
        k(   27) = (   0.0298220   0.0529014   0.0000000), wk =   0.0555556
        k(   28) = (   0.0298220  -0.1043966   0.0000000), wk =   0.0555556
        k(   29) = (   0.0298220  -0.0729370   0.0000000), wk =   0.0555556
        k(   30) = (   0.0298220  -0.0414774   0.0000000), wk =   0.0555556
        k(   31) = (   0.0596439  -0.0200357   0.0000000), wk =   0.0555556
        k(   32) = (   0.0596439   0.0114239   0.0000000), wk =   0.0555556
        k(   33) = (   0.0596439   0.0428835   0.0000000), wk =   0.0555556
        k(   34) = (   0.0596439  -0.1144145   0.0000000), wk =   0.0555556
        k(   35) = (   0.0596439  -0.0829549   0.0000000), wk =   0.0555556
        k(   36) = (   0.0596439  -0.0514953   0.0000000), wk =   0.0555556
        k(   37) = (  -0.0894659   0.0300535   0.0000000), wk =   0.0277778
        k(   38) = (  -0.0894659   0.0615131   0.0000000), wk =   0.0555556
        k(   39) = (  -0.0894659   0.0929727   0.0000000), wk =   0.0555556
        k(   40) = (  -0.0894659  -0.0643253   0.0000000), wk =   0.0277778

     Largest allocated arrays     est. size (Mb)     dimensions
     Largest temporary arrays     est. size (Mb)     dimensions

     Check: negative/imaginary core charge=   -0.000001    0.000000

     Initial potential from superposition of free atoms
     Check: negative starting charge=(component1):   -0.000669
     Check: negative starting charge=(component2):   -0.000510

     starting charge  173.99973, renormalised to  192.00000

     negative rho (up, down):  7.377E-04 5.627E-04

     *
     * You are using vdW-DF for exchange-correlation in this calculation.
     * Please cite the following three references that made this development
     * possible:
     *
     *   M. Dion, H. Rydberg, E. Schroder, D. C. Langreth, and
     *   B. I. Lundqvist, Phys. Rev. Lett. 92, 246401 (2004).
     *
     *   T. Thonhauser, V. R. Cooper, S. Li, A. Puzder, P. Hyldgaard, and
     *   D. C. Langreth, Phys. Rev. B 76, 125112 (2007).
     *
     *   G. Roman-Perez and J. M. Soler, Phys. Rev. Lett. 103, 096102 (2009).
     *
     *
     * If you are using vdW-DF2, please also cite:
     *
     *   K. Lee, E. D. Murray, L. Kong, B. I. Lundqvist, and
     *   D. C. Langreth, Phys. Rev. B 82, 081101(R) (2010).
     *
     *
     * If you are calculating the stress with vdW-DF, please also cite:
     *
     *   R. Sabatini, E. Kucukbenli, B. Kolb, T. Thonhauser, and
     *   S. de Gironcoli, J. Phys.: Condens. Matter 24, 424209 (2012).
     *

     Carrying out vdW-DF run using the following parameters:

     Nqs =      20    Nr_points =    1024   r_max =   100.000
     q_mesh =
               0.00001000     0.04494208     0.09755937     0.15916263
               0.23128650     0.31572767     0.41458969     0.53033537
               0.66584808     0.82450364     1.01025438     1.22772762
               1.48234092     1.78043706     2.12944203     2.53805004
               3.01644009     3.57652955     4.23227104     5.00000000

     Gradients computed in reciprocal space

     Adding external electric field

     Computed dipole along edir(3) :
        Dipole               -0.0000 Ry au,         -0.0000 Debye
        Dipole field         -0.0000 Ry au

        Potential amp.        0.0000 Ry
        Total length         45.2053 bohr

[...]

     Starting wfc are  132 randomized atomic wfcs

     Self-consistent Calculation

     iteration #  1     ecut=    36.75 Ry     beta=0.10
     Davidson diagonalization with overlap
     ethr =  1.00E-02,  avg # of iterations =  8.8

[...]

     Magnetic moment per site:
     atom:    1    charge:    9.7750    magn:    1.0351    constr:    0.0000
     atom:    2    charge:    9.7750    magn:    1.0351    constr:    0.0000
     atom:    3    charge:    3.7754    magn:    0.4982    constr:    0.0000
     atom:    4    charge:    3.7754    magn:    0.4982    constr:    0.0000
     atom:    5    charge:    9.7722    magn:    1.0350    constr:    0.0000
     atom:    6    charge:    9.7722    magn:    1.0350    constr:    0.0000
[...]
                l(6) =   2
     Q(r) pseudized with 10 coefficients,  rinner =    0.980   0.980   0.980
                                                       0.980   0.980

     PseudoPot. # 2 for Sn read from file:
     /afs/slac.stanford.edu/u/if/mamunm/psp/gbrv1.5pbe/Sn.UPF
     MD5 check sum: 469debedee59599fedebd795477fea03
     Pseudo is Ultrasoft + core correction, Zval = 14.0
     Generated by new atomic code, or converted to UPF format
     Using radial grid of  891 points,  6 beta functions with:
                l(1) =   0
                l(2) =   0
                l(3) =   1
                l(4) =   1
                l(5) =   2
                l(6) =   2
     Q(r) pseudized with  8 coefficients,  rinner =    1.350   1.350   1.350
                                                       1.350   1.350

     vdW kernel table read from file vdW_kernel_table
     MD5 check sum: 095c7af220d748ca6e76c0b4c6cfb241

     atomic species   valence    mass     pseudopotential
        Ni1           18.00    58.69340     Ni( 1.00)
        Sn1           14.00   118.71000     Sn( 1.00)

     Starting magnetic structure
     atomic species   magnetization
        Ni1          0.111
        Sn1          0.143

     No symmetry found

   Cartesian axes

     site n.     atom                  positions (alat units)
         1           Ni1 tau(   1) = (   0.0000000   0.0000000  10.0000000  )
         2           Ni1 tau(   2) = (   3.6841828   2.6488996  10.0000000  )
         3           Sn1 tau(   3) = (   2.7943608   0.0000000  10.0000000  )
         4           Sn1 tau(   4) = (   0.8898220   2.6488996  10.0000000  )
         5           Ni1 tau(   5) = (   5.5887216   4.0182486  12.2674991  )
         6           Ni1 tau(   6) = (   1.9045388   1.3693490  12.2674991  )
         7           Sn1 tau(   7) = (   2.7943608   4.0182486  12.2674991  )
         8           Sn1 tau(   8) = (   4.6988996   1.3693490  12.2674991  )
         9           Ni1 tau(   9) = (   3.7997059   2.7319724  14.2808700  )
        10           Ni1 tau(  10) = (   0.1152602   0.0828624  14.2807377  )
        11           Sn1 tau(  11) = (   0.9975487   2.7269122  14.7424365  )
        12           Sn1 tau(  12) = (   2.9026074   0.0772687  14.7424369  )

     number of k points=    40  Fermi-Dirac smearing, width (Ry)=  0.0110
                       cart. coord. in units 2pi/alat
        k(    1) = (   0.0000000   0.0000000   0.0000000), wk =   0.0277778
        k(    2) = (   0.0000000   0.0314596   0.0000000), wk =   0.0555556
        k(    3) = (   0.0000000   0.0629192   0.0000000), wk =   0.0555556
        k(    4) = (   0.0000000  -0.0943788   0.0000000), wk =   0.0277778
        k(    5) = (   0.0298220  -0.0100178   0.0000000), wk =   0.0555556
        k(    6) = (   0.0298220   0.0214418   0.0000000), wk =   0.0555556
        k(    7) = (   0.0298220   0.0529014   0.0000000), wk =   0.0555556
        k(    8) = (   0.0298220  -0.1043966   0.0000000), wk =   0.0555556
        k(    9) = (   0.0298220  -0.0729370   0.0000000), wk =   0.0555556
        k(   10) = (   0.0298220  -0.0414774   0.0000000), wk =   0.0555556
        k(   11) = (   0.0596439  -0.0200357   0.0000000), wk =   0.0555556
        k(   12) = (   0.0596439   0.0114239   0.0000000), wk =   0.0555556
        k(   13) = (   0.0596439   0.0428835   0.0000000), wk =   0.0555556
        k(   14) = (   0.0596439  -0.1144145   0.0000000), wk =   0.0555556
        k(   15) = (   0.0596439  -0.0829549   0.0000000), wk =   0.0555556
        k(   16) = (   0.0596439  -0.0514953   0.0000000), wk =   0.0555556
        k(   17) = (  -0.0894659   0.0300535   0.0000000), wk =   0.0277778
        k(   18) = (  -0.0894659   0.0615131   0.0000000), wk =   0.0555556
        k(   19) = (  -0.0894659   0.0929727   0.0000000), wk =   0.0555556
        k(   20) = (  -0.0894659  -0.0643253   0.0000000), wk =   0.0277778
        k(   21) = (   0.0000000   0.0000000   0.0000000), wk =   0.0277778
        k(   22) = (   0.0000000   0.0314596   0.0000000), wk =   0.0555556
        k(   23) = (   0.0000000   0.0629192   0.0000000), wk =   0.0555556
        k(   24) = (   0.0000000  -0.0943788   0.0000000), wk =   0.0277778
        k(   25) = (   0.0298220  -0.0100178   0.0000000), wk =   0.0555556
        k(   26) = (   0.0298220   0.0214418   0.0000000), wk =   0.0555556
        k(   27) = (   0.0298220   0.0529014   0.0000000), wk =   0.0555556
        k(   28) = (   0.0298220  -0.1043966   0.0000000), wk =   0.0555556
        k(   29) = (   0.0298220  -0.0729370   0.0000000), wk =   0.0555556
        k(   30) = (   0.0298220  -0.0414774   0.0000000), wk =   0.0555556
        k(   31) = (   0.0596439  -0.0200357   0.0000000), wk =   0.0555556
        k(   32) = (   0.0596439   0.0114239   0.0000000), wk =   0.0555556
        k(   33) = (   0.0596439   0.0428835   0.0000000), wk =   0.0555556
        k(   34) = (   0.0596439  -0.1144145   0.0000000), wk =   0.0555556
        k(   35) = (   0.0596439  -0.0829549   0.0000000), wk =   0.0555556
        k(   36) = (   0.0596439  -0.0514953   0.0000000), wk =   0.0555556
        k(   37) = (  -0.0894659   0.0300535   0.0000000), wk =   0.0277778
        k(   38) = (  -0.0894659   0.0615131   0.0000000), wk =   0.0555556
        k(   39) = (  -0.0894659   0.0929727   0.0000000), wk =   0.0555556
        k(   40) = (  -0.0894659  -0.0643253   0.0000000), wk =   0.0277778

     Largest allocated arrays     est. size (Mb)     dimensions
     Largest temporary arrays     est. size (Mb)     dimensions

     Check: negative/imaginary core charge=   -0.000001    0.000000

     Initial potential from superposition of free atoms
     Check: negative starting charge=(component1):   -0.000669
     Check: negative starting charge=(component2):   -0.000510

     starting charge  173.99973, renormalised to  192.00000

[...]

     *
     * You are using vdW-DF for exchange-correlation in this calculation.
     * Please cite the following three references that made this development
     * possible:
     *
     *   M. Dion, H. Rydberg, E. Schroder, D. C. Langreth, and
     *   B. I. Lundqvist, Phys. Rev. Lett. 92, 246401 (2004).
     *
     *   T. Thonhauser, V. R. Cooper, S. Li, A. Puzder, P. Hyldgaard, and
     *   D. C. Langreth, Phys. Rev. B 76, 125112 (2007).
     *
     *   G. Roman-Perez and J. M. Soler, Phys. Rev. Lett. 103, 096102 (2009).
     *
     *
     * If you are using vdW-DF2, please also cite:
     *
     *   K. Lee, E. D. Murray, L. Kong, B. I. Lundqvist, and
     *   D. C. Langreth, Phys. Rev. B 82, 081101(R) (2010).
     *
     *
     * If you are calculating the stress with vdW-DF, please also cite:
     *
     *   R. Sabatini, E. Kucukbenli, B. Kolb, T. Thonhauser, and
     *   S. de Gironcoli, J. Phys.: Condens. Matter 24, 424209 (2012).
     *

     Carrying out vdW-DF run using the following parameters:

     Nqs =      20    Nr_points =    1024   r_max =   100.000
     q_mesh =
               0.00001000     0.04494208     0.09755937     0.15916263
               0.23128650     0.31572767     0.41458969     0.53033537
               0.66584808     0.82450364     1.01025438     1.22772762
               1.48234092     1.78043706     2.12944203     2.53805004
               3.01644009     3.57652955     4.23227104     5.00000000

     Gradients computed in reciprocal space

[...]

     Starting wfc are  132 randomized atomic wfcs

     Self-consistent Calculation

[...]

     total energy              =   -3030.76941599 Ry
     Harris-Foulkes estimate   =   -3030.76941478 Ry
     estimated scf accuracy    <       0.00000171 Ry

[...]

     iteration # 32     ecut=    36.75 Ry     beta=0.10
     Davidson diagonalization with overlap
     ethr =  8.91E-10,  avg # of iterations =  2.0

[...]

     negative rho (up, down):  7.284E-04 7.285E-04

[...]

     Adding external electric field

     Computed dipole along edir(3) :
        Dipole                0.0636 Ry au,          0.1617 Debye
        Dipole field          0.0002 Ry au

        Potential amp.       -0.0147 Ry
        Total length         45.2053 bohr

     Magnetic moment per site:
     atom:    1    charge:    9.3636    magn:    0.0009    constr:    0.0000
     atom:    2    charge:    9.3637    magn:    0.0009    constr:    0.0000
     atom:    3    charge:    3.5149    magn:    0.0000    constr:    0.0000
     atom:    4    charge:    3.5149    magn:    0.0000    constr:    0.0000
     atom:    5    charge:    9.3554    magn:   -0.0008    constr:    0.0000
     atom:    6    charge:    9.3554    magn:   -0.0008    constr:    0.0000
     atom:    7    charge:    3.5173    magn:    0.0000    constr:    0.0000
     atom:    8    charge:    3.5173    magn:    0.0000    constr:    0.0000
     atom:    9    charge:    9.3628    magn:   -0.0012    constr:    0.0000
     atom:   10    charge:    9.3630    magn:   -0.0011    constr:    0.0000
     atom:   11    charge:    3.5223    magn:    0.0000    constr:    0.0000
     atom:   12    charge:    3.5223    magn:    0.0000    constr:    0.0000

     End of self-consistent calculation

 ------ SPIN UP ------------

[...]

 ------ SPIN DOWN ----------

[...]

          k = 0.0596-0.0515 0.0000 ( 18457 PWs)   bands (ev):

[...]

          k =-0.0895-0.0643 0.0000 ( 18456 PWs)   bands (ev):

  -102.1889-102.1887-102.0615-102.0607-101.9453-101.9452 -62.6333 -62.6326
   -62.6024 -62.5974 -62.5528 -62.5523 -62.5134 -62.5125 -62.4706 -62.4656
   -62.4606 -62.4599 -62.4331 -62.4322 -62.3716 -62.3667 -62.2403 -62.2400
   -21.2764 -21.2262 -21.2115 -21.1928 -21.1863 -21.1798 -21.1734 -21.1539
   -21.1427 -21.0811 -21.0326 -21.0084 -20.9830 -20.9703 -20.9335 -20.9246
   -20.9240 -20.9186 -20.9097 -20.9063 -20.9049 -20.9006 -20.8996 -20.8987
   -20.8953 -20.8665 -20.8605 -20.8583 -20.8167 -20.8111  -8.4996  -8.0538
    -7.2808  -7.2149  -5.6156  -5.1388  -4.8081  -3.7578  -3.5503  -3.3938
    -2.7330  -2.4571  -2.4348  -1.6259  -1.5667  -1.3552  -1.1573  -1.1147
    -1.0883  -1.0822  -1.0304  -0.9856  -0.8752  -0.8405  -0.7878  -0.6613
    -0.6447  -0.5924  -0.3943  -0.3844  -0.3606  -0.3506  -0.2166  -0.1995
    -0.1449  -0.0999   0.0652   0.0781   0.1262   0.2287   0.3122   1.0251
     1.0714   1.8796   2.0088   2.2714   3.3509   3.8898   3.9151   3.9254
     4.3071   4.4064   4.6049   5.3453   5.3747   5.8707   5.9225   5.9870
     6.0555   6.1267   6.4901   6.5189   6.6753   6.7848   7.0394   7.1366
     7.5309   7.6134   7.6190   7.6193   7.7973   7.8537

     the Fermi energy is     0.8069 ev

!    total energy              =   -3030.76942108 Ry
     Harris-Foulkes estimate   =   -3030.76941625 Ry
     estimated scf accuracy    <       0.00000100 Ry

     The total energy is the sum of the following terms:

     one-electron contribution =  -20029.43287915 Ry
     hartree contribution      =   10054.16279148 Ry
     xc contribution           =    -488.27267282 Ry
     ewald contribution        =    7432.81663679 Ry
     electric field correction =       0.00001037 Ry
     smearing contrib. (-TS)   =      -0.04330776 Ry

     total magnetization       =     0.00 Bohr mag/cell
     absolute magnetization    =     0.01 Bohr mag/cell

     convergence has been achieved in  32 iterations

 BEEF-vdW xc energy contributions
           1 :   -429.630894198598
           2 :    391.702647881315
           3 :   -327.691023738376
           4 :    255.839564981544
           5 :   -193.078057986510
           6 :    148.881997528229
           7 :   -123.376261659479
           8 :    109.927228883223
           9 :   -100.229317676508
          10 :    88.8734449491303
          11 :   -75.1700243494353
          12 :    61.8625543336115
          13 :   -52.1909570012922
          14 :    47.4002753572726
          15 :   -46.1171017052129
          16 :    45.5773479231959
          17 :   -43.5590083893745
          18 :    39.6332956444616
          19 :   -35.0491932753549
          20 :    31.5490978814079
          21 :   -30.0704323304587
          22 :    30.1993028957237
          23 :   -30.6264205678292
          24 :    30.1421868828369
          25 :   -28.4276772677648
          26 :    26.1313084962749
          27 :   -24.2836918378616
          28 :    23.5301016234164
          29 :   -23.7291165628007
          30 :    24.1379781002495
          31 :   -36.6391825756737
          32 :   -26.2595958633842

     Forces acting on atoms (Ry/au):

     negative rho (up, down):  7.284E-04 7.285E-04
     atom    1 type  1   force =    -0.00102423   -0.00073699    0.03105464
     atom    2 type  1   force =    -0.00101904   -0.00073191    0.03108225
     atom    3 type  2   force =     0.00317192    0.00227746   -0.02694908
     atom    4 type  2   force =     0.00316909    0.00228179   -0.02694961
     atom    5 type  1   force =     0.00115074    0.00082935    0.00921694
     atom    6 type  1   force =     0.00126069    0.00090445    0.00923121
     atom    7 type  2   force =    -0.00217453   -0.00172274   -0.01224608
     atom    8 type  2   force =    -0.00232764   -0.00151434   -0.01224219
     atom    9 type  1   force =    -0.00008012   -0.00005860   -0.00126722
     atom   10 type  1   force =    -0.00002576   -0.00001788   -0.00127537
     atom   11 type  2   force =    -0.00099770   -0.00083042    0.00017319
     atom   12 type  2   force =    -0.00110342   -0.00068018    0.00017132

     Total force =     0.062556     Total SCF correction =     0.002639

     entering subroutine stress ...

     negative rho (up, down):  7.284E-04 7.285E-04
          total   stress  (Ry/bohr**3)                   (kbar)     P=  -40.80
  -0.00034161  -0.00003753  -0.00000583        -50.25     -5.52     -0.86
  -0.00003753  -0.00031640  -0.00000419         -5.52    -46.54     -0.62
  -0.00000583  -0.00000419  -0.00017407         -0.86     -0.62    -25.61

 !ASE

     Writing output data file calc.save

     General routines

     Parallel routines

   This run was terminated on:   1: 8:45  19Dec2018

   JOB DONE.
Job  /afs/slac/g/suncat/bin/suncat-tsmpirun -x LD_LIBRARY_PATH -wdir /scratch/qe530381_SJHgn pw.x -in pw.inp

TID   HOST_NAME   COMMAND_LINE            STATUS            TERMINATION_TIME
00000 suncat2060 pw.x -in pw.inp   Done                     12/19/2018 01:08:45
00001 suncat2060 pw.x -in pw.inp   Done                     12/19/2018 01:08:45
00002 suncat2060 pw.x -in pw.inp   Done                     12/19/2018 01:08:45
00003 suncat2060 pw.x -in pw.inp   Done                     12/19/2018 01:08:45
00004 suncat2060 pw.x -in pw.inp   Done                     12/19/2018 01:08:45
00005 suncat2060 pw.x -in pw.inp   Done                     12/19/2018 01:08:45
00006 suncat2060 pw.x -in pw.inp   Done                     12/19/2018 01:08:45
00007 suncat2060 pw.x -in pw.inp   Done                     12/19/2018 01:08:45
00008 suncat2060 pw.x -in pw.inp   Done                     12/19/2018 01:08:45
00009 suncat2060 pw.x -in pw.inp   Done                     12/19/2018 01:08:45
00010 suncat2060 pw.x -in pw.inp   Done                     12/19/2018 01:08:45
00011 suncat2060 pw.x -in pw.inp   Done                     12/19/2018 01:08:45
00012 suncat2060 pw.x -in pw.inp   Done                     12/19/2018 01:08:45
00013 suncat2060 pw.x -in pw.inp   Done                     12/19/2018 01:08:45
00014 suncat2060 pw.x -in pw.inp   Done                     12/19/2018 01:08:45
00015 suncat2060 pw.x -in pw.inp   Done                     12/19/2018 01:08:45
00016 suncat2059 pw.x -in pw.inp   Done                     12/19/2018 01:08:45
00017 suncat2059 pw.x -in pw.inp   Done                     12/19/2018 01:08:45
00018 suncat2059 pw.x -in pw.inp   Done                     12/19/2018 01:08:45
00019 suncat2059 pw.x -in pw.inp   Done                     12/19/2018 01:08:45
00020 suncat2059 pw.x -in pw.inp   Done                     12/19/2018 01:08:45
00021 suncat2059 pw.x -in pw.inp   Done                     12/19/2018 01:08:45
00022 suncat2059 pw.x -in pw.inp   Done                     12/19/2018 01:08:45
00023 suncat2059 pw.x -in pw.inp   Done                     12/19/2018 01:08:45
00024 suncat2059 pw.x -in pw.inp   Done                     12/19/2018 01:08:45
00025 suncat2059 pw.x -in pw.inp   Done                     12/19/2018 01:08:45
00026 suncat2059 pw.x -in pw.inp   Done                     12/19/2018 01:08:45
00027 suncat2059 pw.x -in pw.inp   Done                     12/19/2018 01:08:45
00028 suncat2059 pw.x -in pw.inp   Done                     12/19/2018 01:08:45
00029 suncat2059 pw.x -in pw.inp   Done                     12/19/2018 01:08:45
00030 suncat2059 pw.x -in pw.inp   Done                     12/19/2018 01:08:45
00031 suncat2059 pw.x -in pw.inp   Done                     12/19/2018 01:08:45