     Program PWSCF v.5.1rc2 (svn rev. 11289) starts on 19Dec2018 at  6:47: 5

     Current dimensions of program PWSCF are:
     Max number of different atomic species (ntypx) = 10
     Max number of k-points (npk) =  40000
     Max angular momentum in pseudopotentials (lmaxx) =  3
     Presently stress not available with electric field

     IMPORTANT: XC functional enforced from input :
     Exchange-correlation      = BEEF-VDW ( 1  4 27 13 2)
     Any further DFT definition will be discarded
     Please, verify this is what you really want

     Subspace diagonalization in iterative solution of the eigenvalue problem:
     a serial algorithm will be used

     Found symmetry operation: I + (  0.5000  0.0000  0.0000)
     This is a supercell, fractional translations are disabled

     bravais-lattice index     =            0
     lattice parameter (alat)  =       1.8897  a.u.
     unit-cell volume          =    4255.2486 (a.u.)^3
     number of atoms/cell      =           12
     number of atomic types    =            2
     number of electrons       =       168.00
     number of Kohn-Sham states=          114
     kinetic-energy cutoff     =      36.7493  Ry
     charge density cutoff     =     367.4932  Ry
     convergence threshold     =      1.0E-06
     mixing beta               =       0.1000
     number of iterations used =           10  plain     mixing
     Exchange-correlation      = BEEF-VDW ( 1  4 27 13 2)
     nstep                     =           50

     celldm(1)=   1.889726  celldm(2)=   0.000000  celldm(3)=   0.000000
     celldm(4)=   0.000000  celldm(5)=   0.000000  celldm(6)=   0.000000

     crystal axes: (cart. coord. in units of alat)
               a(1) = (   5.092956   0.000000   0.000000 )
               a(2) = (  -2.546478   5.073196   0.000000 )
               a(3) = (   0.000000   0.000000  24.404888 )

     reciprocal axes: (cart. coord. in units 2 pi/alat)
               b(1) = (  0.196350  0.098557  0.000000 )
               b(2) = (  0.000000  0.197114  0.000000 )
               b(3) = (  0.000000  0.000000  0.040975 )

     PseudoPot. # 1 for Cr read from file:
     /afs/slac.stanford.edu/u/if/mamunm/psp/gbrv1.5pbe/Cr.UPF
     MD5 check sum: 0d52af634a40206e4dee301ad30da4bf
     Pseudo is Ultrasoft + core correction, Zval = 14.0
     Generated by new atomic code, or converted to UPF format
     Using radial grid of  857 points,  6 beta functions with:
                l(1) =   0
                l(2) =   0
                l(3) =   1
                l(4) =   1
                l(5) =   2
                l(6) =   2
     Q(r) pseudized with  8 coefficients,  rinner =    0.950   0.950   0.950
                                                       0.950   0.950

     PseudoPot. # 2 for Mo read from file:
     /afs/slac.stanford.edu/u/if/mamunm/psp/gbrv1.5pbe/Mo.UPF
     MD5 check sum: 30c4dcd161f5d35cd49bb5239c51a633
     Pseudo is Ultrasoft + core correction, Zval = 14.0
     Generated by new atomic code, or converted to UPF format
     Using radial grid of  889 points,  6 beta functions with:
                l(1) =   0
                l(2) =   0
                l(3) =   1
                l(4) =   1
                l(5) =   2
                l(6) =   2
     Q(r) pseudized with  6 coefficients,  rinner =    1.000   1.000   1.000
                                                       1.000   1.000

     vdW kernel table read from file vdW_kernel_table
     MD5 check sum: 095c7af220d748ca6e76c0b4c6cfb241

     atomic species   valence    mass     pseudopotential
        Cr1           14.00    51.99610     Cr( 1.00)
        Mo1           14.00    95.95000     Mo( 1.00)

     No symmetry found

   Cartesian axes

     site n.     atom                  positions (alat units)
         1           Cr1 tau(   1) = (   0.0000000   0.0000000  10.0000000  )
         2           Cr1 tau(   2) = (   2.5464778   0.0000000  10.0000000  )
         3           Mo1 tau(   3) = (   1.2732389   2.5365980  10.0000000  )
         4           Mo1 tau(   4) = (  -1.2732389   2.5365980  10.0000000  )
         5           Cr1 tau(   5) = (   2.5464778   1.2781980  12.2024438  )
         6           Cr1 tau(   6) = (  -0.0000000   1.2781980  12.2024438  )
         7           Mo1 tau(   7) = (  -1.2732389   3.8147960  12.2024438  )
         8           Mo1 tau(   8) = (   1.2732389   3.8147960  12.2024438  )
         9           Cr1 tau(   9) = (   0.0000000   2.5563960  14.4048877  )
        10           Cr1 tau(  10) = (   2.5464778   2.5563960  14.4048877  )
        11           Mo1 tau(  11) = (   3.8197166   0.0197980  14.4048877  )
        12           Mo1 tau(  12) = (   1.2732389   0.0197980  14.4048877  )

     number of k points=    20  Fermi-Dirac smearing, width (Ry)=  0.0110
                       cart. coord. in units 2pi/alat
        k(    1) = (   0.0000000   0.0000000   0.0000000), wk =   0.0555556
        k(    2) = (   0.0000000   0.0328524   0.0000000), wk =   0.1111111
        k(    3) = (   0.0000000   0.0657048   0.0000000), wk =   0.1111111
        k(    4) = (   0.0000000  -0.0985572   0.0000000), wk =   0.0555556
        k(    5) = (   0.0327249   0.0164262   0.0000000), wk =   0.1111111
        k(    6) = (   0.0327249   0.0492786   0.0000000), wk =   0.1111111
        k(    7) = (   0.0327249   0.0821310   0.0000000), wk =   0.1111111
        k(    8) = (   0.0327249  -0.0821310   0.0000000), wk =   0.1111111
        k(    9) = (   0.0327249  -0.0492786   0.0000000), wk =   0.1111111
        k(   10) = (   0.0327249  -0.0164262   0.0000000), wk =   0.1111111
        k(   11) = (   0.0654499   0.0328524   0.0000000), wk =   0.1111111
        k(   12) = (   0.0654499   0.0657048   0.0000000), wk =   0.1111111
        k(   13) = (   0.0654499   0.0985572   0.0000000), wk =   0.1111111
        k(   14) = (   0.0654499  -0.0657048   0.0000000), wk =   0.1111111
        k(   15) = (   0.0654499  -0.0328524   0.0000000), wk =   0.1111111
        k(   16) = (   0.0654499   0.0000000   0.0000000), wk =   0.1111111
        k(   17) = (  -0.0981748  -0.0492786   0.0000000), wk =   0.0555556
        k(   18) = (  -0.0981748  -0.0164262   0.0000000), wk =   0.1111111
        k(   19) = (  -0.0981748   0.0164262   0.0000000), wk =   0.1111111
        k(   20) = (  -0.0981748  -0.1478358   0.0000000), wk =   0.0555556

     Largest allocated arrays     est. size (Mb)     dimensions
     Largest temporary arrays     est. size (Mb)     dimensions

     Check: negative/imaginary core charge=   -0.000003    0.000000

     Initial potential from superposition of free atoms
     Check: negative starting charge=   -0.009604

     starting charge  161.99353, renormalised to  168.00000

     negative rho (up, down):  9.960E-03 0.000E+00

     *
     * You are using vdW-DF for exchange-correlation in this calculation.
     * Please cite the following three references that made this development
     * possible:
     *
     *   M. Dion, H. Rydberg, E. Schroder, D. C. Langreth, and
     *   B. I. Lundqvist, Phys. Rev. Lett. 92, 246401 (2004).
     *
     *   T. Thonhauser, V. R. Cooper, S. Li, A. Puzder, P. Hyldgaard, and
     *   D. C. Langreth, Phys. Rev. B 76, 125112 (2007).
     *
     *   G. Roman-Perez and J. M. Soler, Phys. Rev. Lett. 103, 096102 (2009).
     *
     *
     * If you are using vdW-DF2, please also cite:
     *
     *   K. Lee, E. D. Murray, L. Kong, B. I. Lundqvist, and
     *   D. C. Langreth, Phys. Rev. B 82, 081101(R) (2010).
     *
     *
     * If you are calculating the stress with vdW-DF, please also cite:
     *
     *   R. Sabatini, E. Kucukbenli, B. Kolb, T. Thonhauser, and
     *   S. de Gironcoli, J. Phys.: Condens. Matter 24, 424209 (2012).
     *

     Carrying out vdW-DF run using the following parameters:

     Nqs =      20    Nr_points =    1024   r_max =   100.000
     q_mesh =
               0.00001000     0.04494208     0.09755937     0.15916263
               0.23128650     0.31572767     0.41458969     0.53033537
               0.66584808     0.82450364     1.01025438     1.22772762
               1.48234092     1.78043706     2.12944203     2.53805004
               3.01644009     3.57652955     4.23227104     5.00000000

     Gradients computed in reciprocal space

     Adding external electric field

     Computed dipole along edir(3) :
        Dipole                0.0000 Ry au,          0.0000 Debye
        Dipole field          0.0000 Ry au

        Potential amp.       -0.0000 Ry
        Total length         44.9656 bohr

     Starting wfc are  138 randomized atomic wfcs

     Self-consistent Calculation

     iteration #  1     ecut=    36.75 Ry     beta=0.10
     Davidson diagonalization with overlap
     ethr =  1.00E-02,  avg # of iterations =  3.0

[...]

     total energy              =   -1896.55835420 Ry
     Harris-Foulkes estimate   =   -1898.86229763 Ry
     estimated scf accuracy    <      13.18670820 Ry

[...]

     End of self-consistent calculation

          k = 0.0000 0.0000 0.0000 ( 16043 PWs)   bands (ev):

   -70.2962 -70.2364 -70.0880 -70.0858 -70.0285 -70.0264 -59.6318 -59.4700
   -59.4257 -59.3954 -59.2381 -59.1957 -41.7924 -41.6530 -41.6167 -41.5948
   -41.5615 -41.5117 -41.5108 -41.4608 -41.4255 -41.4113 -41.3724 -41.3685
   -41.3407 -41.3149 -41.2871 -41.2420 -41.0603 -41.0596 -34.4428 -34.2085
   -34.1831 -34.1757 -33.9557 -33.6187 -33.5744 -33.4485 -33.4297 -33.4187
   -33.3746 -33.2521 -33.2365 -32.9957 -32.8262 -32.7951 -32.5871 -32.5720
    -4.7399  -3.3749  -3.1526  -2.8647  -2.8246  -2.5955  -2.0902  -2.0156
    -1.9186  -1.8314  -1.8201  -1.8112  -1.5937  -1.5376  -1.2317  -0.9974
    -0.6191  -0.4296  -0.2481   0.0317   0.0770   0.2437   0.2673   0.5534
     0.5736   0.7550   1.0461   1.2352   1.3243   1.4356   1.7226   1.7353
     1.8454   1.8624   1.9396   2.0270   2.0509   2.1272   2.2910   2.3497
     2.4455   2.5524   2.6423   2.7837   2.7886   2.8499   3.1452   3.1915
     3.2847   3.3198   3.4383   3.7313   3.7812   3.7875   3.8854   3.9837
     4.1445   4.2842   4.3681   4.4636   4.7098   4.7431   4.9083   4.9143
     4.9569   4.9898

[...]

          k =-0.0982-0.0493 0.0000 ( 16006 PWs)   bands (ev):

[...]

     the Fermi energy is     1.6235 ev

!    total energy              =   -1896.98838553 Ry
     Harris-Foulkes estimate   =   -1896.98838582 Ry
     estimated scf accuracy    <       0.00000065 Ry

     The total energy is the sum of the following terms:

     one-electron contribution =  -16660.85792246 Ry
     hartree contribution      =    8321.16128965 Ry
     xc contribution           =    -259.41439563 Ry
     ewald contribution        =    6702.23035137 Ry
     electric field correction =       0.00000000 Ry
     smearing contrib. (-TS)   =      -0.10770846 Ry

     convergence has been achieved in  24 iterations

 BEEF-vdW xc energy contributions
           1 :   -223.785124281459
           2 :    202.765540038329
           3 :   -167.347375343226
           4 :    127.734678841767
           5 :   -93.4909835393867
           6 :    70.1682769464544
           7 :   -58.2124338515216
           8 :    54.2000359762501
           9 :   -53.3763181571861
[...]
00031 suncat0215 pw.x -in pw.inp   Done                     12/19/2018 07:04:35

     Program PWSCF v.5.1rc2 (svn rev. 11289) starts on 19Dec2018 at  7: 4:42

[...]

   This run was terminated on:   7:22:18  19Dec2018

[...]

     Program PWSCF v.5.1rc2 (svn rev. 11289) starts on 19Dec2018 at  7:22:25

[...]

   This run was terminated on:   8:34: 8  19Dec2018

[...]

     Program PWSCF v.5.1rc2 (svn rev. 11289) starts on 19Dec2018 at  9:12:46

     Current dimensions of program PWSCF are:
     Max number of different atomic species (ntypx) = 10
     Max number of k-points (npk) =  40000
     Max angular momentum in pseudopotentials (lmaxx) =  3
     Presently stress not available with electric field

     IMPORTANT: XC functional enforced from input :
     Exchange-correlation      = BEEF-VDW ( 1  4 27 13 2)
     Any further DFT definition will be discarded
     Please, verify this is what you really want

     Subspace diagonalization in iterative solution of the eigenvalue problem:
     a serial algorithm will be used

     Found symmetry operation: I + (  0.5000  0.0000  0.0000)
     This is a supercell, fractional translations are disabled

     bravais-lattice index     =            0
     lattice parameter (alat)  =       1.8897  a.u.
     unit-cell volume          =    4255.2486 (a.u.)^3
     number of atoms/cell      =           12
     number of atomic types    =            2
     number of electrons       =       168.00
     number of Kohn-Sham states=          114
     kinetic-energy cutoff     =      36.7493  Ry
     charge density cutoff     =     367.4932  Ry
     convergence threshold     =      1.0E-06
     mixing beta               =       0.1000
     number of iterations used =           10  plain     mixing
     Exchange-correlation      = BEEF-VDW ( 1  4 27 13 2)
     nstep                     =           50

     celldm(1)=   1.889726  celldm(2)=   0.000000  celldm(3)=   0.000000
     celldm(4)=   0.000000  celldm(5)=   0.000000  celldm(6)=   0.000000

     crystal axes: (cart. coord. in units of alat)
               a(1) = (   5.092956   0.000000   0.000000 )
               a(2) = (  -2.546478   5.073196   0.000000 )
               a(3) = (   0.000000   0.000000  24.404888 )

     reciprocal axes: (cart. coord. in units 2 pi/alat)
               b(1) = (  0.196350  0.098557  0.000000 )
               b(2) = (  0.000000  0.197114  0.000000 )
               b(3) = (  0.000000  0.000000  0.040975 )

     PseudoPot. # 1 for Cr read from file:
     /afs/slac.stanford.edu/u/if/mamunm/psp/gbrv1.5pbe/Cr.UPF
     MD5 check sum: 0d52af634a40206e4dee301ad30da4bf
     Pseudo is Ultrasoft + core correction, Zval = 14.0
     Generated by new atomic code, or converted to UPF format
     Using radial grid of  857 points,  6 beta functions with:
                l(1) =   0
                l(2) =   0
                l(3) =   1
                l(4) =   1
                l(5) =   2
                l(6) =   2
     Q(r) pseudized with  8 coefficients,  rinner =    0.950   0.950   0.950
                                                       0.950   0.950

     PseudoPot. # 2 for Mo read from file:
     /afs/slac.stanford.edu/u/if/mamunm/psp/gbrv1.5pbe/Mo.UPF
     MD5 check sum: 30c4dcd161f5d35cd49bb5239c51a633
     Pseudo is Ultrasoft + core correction, Zval = 14.0
     Generated by new atomic code, or converted to UPF format
     Using radial grid of  889 points,  6 beta functions with:
                l(1) =   0
                l(2) =   0
                l(3) =   1
                l(4) =   1
                l(5) =   2
                l(6) =   2
     Q(r) pseudized with  6 coefficients,  rinner =    1.000   1.000   1.000
                                                       1.000   1.000

     vdW kernel table read from file vdW_kernel_table
     MD5 check sum: 095c7af220d748ca6e76c0b4c6cfb241

     atomic species   valence    mass     pseudopotential
        Cr1           14.00    51.99610     Cr( 1.00)
        Mo1           14.00    95.95000     Mo( 1.00)

     No symmetry found

   Cartesian axes

     site n.     atom                  positions (alat units)
         1           Cr1 tau(   1) = (   0.0000000   0.0000000  10.0000000  )
         2           Cr1 tau(   2) = (   2.5464778   0.0000000  10.0000000  )
         3           Mo1 tau(   3) = (   1.2732389   2.5365980  10.0000000  )
         4           Mo1 tau(   4) = (  -1.2732389   2.5365980  10.0000000  )
         5           Cr1 tau(   5) = (   2.5464778   1.2781980  12.2024438  )
         6           Cr1 tau(   6) = (  -0.0000000   1.2781980  12.2024438  )
         7           Mo1 tau(   7) = (  -1.2732389   3.8147960  12.2024438  )
         8           Mo1 tau(   8) = (   1.2732389   3.8147960  12.2024438  )
         9           Cr1 tau(   9) = (   0.0004959   2.4263227  14.2132523  )
        10           Cr1 tau(  10) = (   2.5469737   2.4263155  14.2132151  )
        11           Mo1 tau(  11) = (   1.2735585   5.0691457  14.4394402  )
        12           Mo1 tau(  12) = (  -1.2729322   5.0691449  14.4394406  )

     number of k points=    20  Fermi-Dirac smearing, width (Ry)=  0.0110
                       cart. coord. in units 2pi/alat
        k(    1) = (   0.0000000   0.0000000   0.0000000), wk =   0.0555556
        k(    2) = (   0.0000000   0.0328524   0.0000000), wk =   0.1111111
        k(    3) = (   0.0000000   0.0657048   0.0000000), wk =   0.1111111
        k(    4) = (   0.0000000  -0.0985572   0.0000000), wk =   0.0555556
        k(    5) = (   0.0327249   0.0164262   0.0000000), wk =   0.1111111
        k(    6) = (   0.0327249   0.0492786   0.0000000), wk =   0.1111111
        k(    7) = (   0.0327249   0.0821310   0.0000000), wk =   0.1111111
        k(    8) = (   0.0327249  -0.0821310   0.0000000), wk =   0.1111111
        k(    9) = (   0.0327249  -0.0492786   0.0000000), wk =   0.1111111
        k(   10) = (   0.0327249  -0.0164262   0.0000000), wk =   0.1111111
        k(   11) = (   0.0654499   0.0328524   0.0000000), wk =   0.1111111
        k(   12) = (   0.0654499   0.0657048   0.0000000), wk =   0.1111111
        k(   13) = (   0.0654499   0.0985572   0.0000000), wk =   0.1111111
        k(   14) = (   0.0654499  -0.0657048   0.0000000), wk =   0.1111111
        k(   15) = (   0.0654499  -0.0328524   0.0000000), wk =   0.1111111
        k(   16) = (   0.0654499   0.0000000   0.0000000), wk =   0.1111111
        k(   17) = (  -0.0981748  -0.0492786   0.0000000), wk =   0.0555556
        k(   18) = (  -0.0981748  -0.0164262   0.0000000), wk =   0.1111111
        k(   19) = (  -0.0981748   0.0164262   0.0000000), wk =   0.1111111
        k(   20) = (  -0.0981748  -0.1478358   0.0000000), wk =   0.0555556

     Largest allocated arrays     est. size (Mb)     dimensions
     Largest temporary arrays     est. size (Mb)     dimensions

     Check: negative/imaginary core charge=   -0.000003    0.000000

     Initial potential from superposition of free atoms
     Check: negative starting charge=   -0.009197

     starting charge  161.99353, renormalised to  168.00000

[...]

     *
     * You are using vdW-DF for exchange-correlation in this calculation.
     * Please cite the following three references that made this development
     * possible:
     *
     *   M. Dion, H. Rydberg, E. Schroder, D. C. Langreth, and
     *   B. I. Lundqvist, Phys. Rev. Lett. 92, 246401 (2004).
     *
     *   T. Thonhauser, V. R. Cooper, S. Li, A. Puzder, P. Hyldgaard, and
     *   D. C. Langreth, Phys. Rev. B 76, 125112 (2007).
     *
     *   G. Roman-Perez and J. M. Soler, Phys. Rev. Lett. 103, 096102 (2009).
     *
     *
     * If you are using vdW-DF2, please also cite:
     *
     *   K. Lee, E. D. Murray, L. Kong, B. I. Lundqvist, and
     *   D. C. Langreth, Phys. Rev. B 82, 081101(R) (2010).
     *
     *
     * If you are calculating the stress with vdW-DF, please also cite:
     *
     *   R. Sabatini, E. Kucukbenli, B. Kolb, T. Thonhauser, and
     *   S. de Gironcoli, J. Phys.: Condens. Matter 24, 424209 (2012).
     *

     Carrying out vdW-DF run using the following parameters:

     Nqs =      20    Nr_points =    1024   r_max =   100.000
     q_mesh =
               0.00001000     0.04494208     0.09755937     0.15916263
               0.23128650     0.31572767     0.41458969     0.53033537
               0.66584808     0.82450364     1.01025438     1.22772762
               1.48234092     1.78043706     2.12944203     2.53805004
               3.01644009     3.57652955     4.23227104     5.00000000

     Gradients computed in reciprocal space

[...]

     Starting wfc are  138 randomized atomic wfcs

     Self-consistent Calculation

[...]

     total energy              =   -1897.00045594 Ry
     Harris-Foulkes estimate   =   -1897.00045560 Ry
     estimated scf accuracy    <       0.00000107 Ry

     iteration # 25     ecut=    36.75 Ry     beta=0.10
     Davidson diagonalization with overlap
     ethr =  6.34E-10,  avg # of iterations =  1.9

[...]

     negative rho (up, down):  9.043E-03 0.000E+00

     Adding external electric field

     Computed dipole along edir(3) :
        Dipole                0.0268 Ry au,          0.0682 Debye
        Dipole field          0.0001 Ry au

        Potential amp.       -0.0071 Ry
        Total length         44.9656 bohr

     End of self-consistent calculation

[...]

          k = 0.0654 0.0000 0.0000 ( 16039 PWs)   bands (ev):

[...]

          k =-0.0982-0.1478 0.0000 ( 16006 PWs)   bands (ev):

   -70.2531 -70.2530 -70.0400 -70.0400 -70.0203 -70.0202 -59.4929 -59.4929
   -59.3368 -59.3368 -59.2944 -59.2944 -41.7457 -41.7457 -41.5769 -41.5769
   -41.5395 -41.5395 -41.4172 -41.4172 -41.3484 -41.3483 -41.3310 -41.3309
   -41.2668 -41.2668 -41.2517 -41.2516 -41.1618 -41.1617 -34.0388 -34.0388
   -33.6300 -33.6300 -33.5114 -33.5114 -33.4583 -33.4583 -33.4050 -33.4050
   -33.3826 -33.3826 -33.3447 -33.3447 -33.3244 -33.3244 -32.9076 -32.9076
    -3.0080  -3.0080  -1.9363  -1.9363  -1.8519  -1.8519  -1.4672  -1.4672
    -1.3123  -1.3123  -1.0370  -1.0370  -0.6488  -0.6488  -0.4417  -0.4417
    -0.3913  -0.3913  -0.0558  -0.0558   0.1652   0.1652   0.3932   0.3932
     0.7123   0.7123   0.8261   0.8261   0.9418   0.9418   1.0049   1.0049
     1.1365   1.1365   1.2627   1.2627   1.3933   1.3933   1.9000   1.9000
     2.0909   2.0909   2.1737   2.1738   2.3086   2.3086   2.4677   2.4677
     2.6172   2.6172   2.6560   2.6560   2.7960   2.7960   2.9131   2.9131
     3.4998   3.4999   3.6119   3.6119   4.0717   4.0717   4.1986   4.1987
     5.1029   5.1029

     the Fermi energy is     1.6497 ev

!    total energy              =   -1897.00045618 Ry
     Harris-Foulkes estimate   =   -1897.00045572 Ry
     estimated scf accuracy    <       0.00000051 Ry

     The total energy is the sum of the following terms:

     one-electron contribution =  -16843.55269777 Ry
     hartree contribution      =    8412.60561541 Ry
     xc contribution           =    -259.55751063 Ry
     ewald contribution        =    6793.60820864 Ry
     electric field correction =       0.00000212 Ry
     smearing contrib. (-TS)   =      -0.10407395 Ry

     convergence has been achieved in  25 iterations

 BEEF-vdW xc energy contributions
           1 :   -223.932568031299
           2 :    202.958883809340
           3 :   -167.584772486006
           4 :    127.956801902050
           5 :   -93.6173621497475
           6 :    70.1533617551266
           7 :   -58.0798082551135
           8 :    54.0313260223956
           9 :   -53.2637466186171
          10 :    52.0261140133968
          11 :   -48.7735301631239
          12 :    43.9801648682038
          13 :   -39.0655748971038
          14 :    35.2263702027181
          15 :   -32.7976936168849
          16 :    31.3089138633857
          17 :   -29.9934325391484
          18 :    28.3204897300698
          19 :   -26.2294949263344
          20 :    24.0000637996456
          21 :   -21.9433642914963
          22 :    20.1693159453669
          23 :   -18.5776709953397
          24 :    17.0198478402710
          25 :   -15.4637866394528
          26 :    14.0167105950152
          27 :   -12.8036392470680
          28 :    11.8189898656010
          29 :   -10.8884264436986
          30 :    9.77798878241205
          31 :   -23.6544026766225
          32 :   -17.5577933974290

     Forces acting on atoms (Ry/au):

     negative rho (up, down):  9.043E-03 0.000E+00
     atom    1 type  1   force =     0.00000201    0.00962098    0.01981477
     atom    2 type  1   force =     0.00000181    0.00961349    0.01980949
     atom    3 type  2   force =     0.00001622   -0.02009606   -0.01202778
     atom    4 type  2   force =     0.00001436   -0.02009605   -0.01202782
     atom    5 type  1   force =    -0.00001143   -0.00567011   -0.00342648
     atom    6 type  1   force =    -0.00001132   -0.00566976   -0.00342226
     atom    7 type  2   force =    -0.00002480    0.01618080   -0.00513983
     atom    8 type  2   force =    -0.00002973    0.01618075   -0.00513991
     atom    9 type  1   force =     0.00000761    0.00010472   -0.00014623
     atom   10 type  1   force =     0.00000748    0.00010226   -0.00015514
     atom   11 type  2   force =     0.00001115   -0.00013565    0.00093068
     atom   12 type  2   force =     0.00001664   -0.00013538    0.00093050

     Total force =     0.052279     Total SCF correction =     0.002135

     entering subroutine stress ...

     negative rho (up, down):  9.043E-03 0.000E+00
          total   stress  (Ry/bohr**3)                   (kbar)     P=  -22.98
  -0.00020242   0.00000008   0.00000010        -29.78      0.01      0.01
   0.00000008  -0.00024894   0.00002047          0.01    -36.62      3.01
   0.00000010   0.00002047  -0.00001734          0.01      3.01     -2.55

 !ASE

     Writing output data file calc.save

     General routines

     Parallel routines

   This run was terminated on:   9:30:32  19Dec2018

   JOB DONE.
Job  /afs/slac/g/suncat/bin/suncat-tsmpirun -x LD_LIBRARY_PATH -wdir /scratch/qe529746_CBX38 pw.x -in pw.inp

TID   HOST_NAME   COMMAND_LINE            STATUS            TERMINATION_TIME
00000 suncat0153 pw.x -in pw.inp   Done                     12/19/2018 09:30:32
00001 suncat0153 pw.x -in pw.inp   Done                     12/19/2018 09:30:32
00002 suncat0153 pw.x -in pw.inp   Done                     12/19/2018 09:30:32
00003 suncat0153 pw.x -in pw.inp   Done                     12/19/2018 09:30:32
00004 suncat0153 pw.x -in pw.inp   Done                     12/19/2018 09:30:32
00005 suncat0153 pw.x -in pw.inp   Done                     12/19/2018 09:30:32
00006 suncat0153 pw.x -in pw.inp   Done                     12/19/2018 09:30:32
00007 suncat0153 pw.x -in pw.inp   Done                     12/19/2018 09:30:32
00008 suncat0152 pw.x -in pw.inp   Done                     12/19/2018 09:30:32
00009 suncat0152 pw.x -in pw.inp   Done                     12/19/2018 09:30:32
00010 suncat0152 pw.x -in pw.inp   Done                     12/19/2018 09:30:32
00011 suncat0152 pw.x -in pw.inp   Done                     12/19/2018 09:30:32
00012 suncat0152 pw.x -in pw.inp   Done                     12/19/2018 09:30:32
00013 suncat0152 pw.x -in pw.inp   Done                     12/19/2018 09:30:32
00014 suncat0152 pw.x -in pw.inp   Done                     12/19/2018 09:30:32
00015 suncat0152 pw.x -in pw.inp   Done                     12/19/2018 09:30:32
00016 suncat0230 pw.x -in pw.inp   Done                     12/19/2018 09:30:32
00017 suncat0230 pw.x -in pw.inp   Done                     12/19/2018 09:30:32
00018 suncat0230 pw.x -in pw.inp   Done                     12/19/2018 09:30:32
00019 suncat0230 pw.x -in pw.inp   Done                     12/19/2018 09:30:32
00020 suncat0230 pw.x -in pw.inp   Done                     12/19/2018 09:30:32
00021 suncat0230 pw.x -in pw.inp   Done                     12/19/2018 09:30:32
00022 suncat0230 pw.x -in pw.inp   Done                     12/19/2018 09:30:32
00023 suncat0230 pw.x -in pw.inp   Done                     12/19/2018 09:30:32
00024 suncat0215 pw.x -in pw.inp   Done                     12/19/2018 09:30:32
00025 suncat0215 pw.x -in pw.inp   Done                     12/19/2018 09:30:32
00026 suncat0215 pw.x -in pw.inp   Done                     12/19/2018 09:30:32
00027 suncat0215 pw.x -in pw.inp   Done                     12/19/2018 09:30:32
00028 suncat0215 pw.x -in pw.inp   Done                     12/19/2018 09:30:32
00029 suncat0215 pw.x -in pw.inp   Done                     12/19/2018 09:30:32
00030 suncat0215 pw.x -in pw.inp   Done                     12/19/2018 09:30:32
00031 suncat0215 pw.x -in pw.inp   Done                     12/19/2018 09:30:32