     Program PWSCF v.5.1rc2 (svn rev. 11289) starts on 19Dec2018 at  4: 2: 9

     Current dimensions of program PWSCF are:
     Max number of different atomic species (ntypx) = 10
     Max number of k-points (npk) =  40000
     Max angular momentum in pseudopotentials (lmaxx) =  3
     Presently stress not available with electric field

     IMPORTANT: XC functional enforced from input :
     Exchange-correlation      = BEEF-VDW ( 1  4 27 13 2)
     Any further DFT definition will be discarded
     Please, verify this is what you really want

     Subspace diagonalization in iterative solution of the eigenvalue problem:
     a serial algorithm will be used

     Found symmetry operation: I + ( -0.5000  0.0000  0.0000)
     This is a supercell, fractional translations are disabled

     bravais-lattice index     =            0
     lattice parameter (alat)  =       1.8897  a.u.
     unit-cell volume          =    4345.8055 (a.u.)^3
     number of atoms/cell      =           12
     number of atomic types    =            2
     number of electrons       =       192.00
     number of Kohn-Sham states=          126
     kinetic-energy cutoff     =      36.7493  Ry
     charge density cutoff     =     367.4932  Ry
     convergence threshold     =      1.0E-06
     mixing beta               =       0.1000
     number of iterations used =           10  plain     mixing
     Exchange-correlation      = BEEF-VDW ( 1  4 27 13 2)
     nstep                     =           50

     celldm(1)=   1.889726  celldm(2)=   0.000000  celldm(3)=   0.000000
     celldm(4)=   0.000000  celldm(5)=   0.000000  celldm(6)=   0.000000

     crystal axes: (cart. coord. in units of alat)
               a(1) = (   5.448683   0.000000   0.000000 )
               a(2) = (  -2.724341   4.824706   0.000000 )
               a(3) = (   0.000000   0.000000  24.496909 )

     reciprocal axes: (cart. coord. in units 2 pi/alat)
               b(1) = (  0.183531  0.103633  0.000000 )
               b(2) = (  0.000000  0.207267  0.000000 )
               b(3) = (  0.000000  0.000000  0.040821 )

     PseudoPot. # 1 for Ru read from file:
     /afs/slac.stanford.edu/u/if/mamunm/psp/gbrv1.5pbe/Ru.UPF
     MD5 check sum: 7158a806dd851261a58e6920c40ebe78
     Pseudo is Ultrasoft + core correction, Zval = 16.0
     Generated by new atomic code, or converted to UPF format
     Using radial grid of  967 points,  6 beta functions with:
                l(1) =   0
                l(2) =   0
                l(3) =   1
                l(4) =   1
                l(5) =   2
                l(6) =   2
     Q(r) pseudized with  8 coefficients,  rinner =    1.300   1.300   1.300
                                                       1.300   1.300

     PseudoPot. # 2 for Pd read from file:
     /afs/slac.stanford.edu/u/if/mamunm/psp/gbrv1.5pbe/Pd.UPF
     MD5 check sum: 2d733d2bc2cbfd217af676df1668a4bc
     Pseudo is Ultrasoft + core correction, Zval = 16.0
     Generated by new atomic code, or converted to UPF format
     Using radial grid of  887 points,  6 beta functions with:
                l(1) =   0
                l(2) =   0
                l(3) =   1
                l(4) =   1
                l(5) =   2
                l(6) =   2
     Q(r) pseudized with  8 coefficients,  rinner =    1.130   1.130   1.130
                                                       1.130   1.130

     vdW kernel table read from file vdW_kernel_table
     MD5 check sum: 095c7af220d748ca6e76c0b4c6cfb241

     atomic species   valence    mass     pseudopotential
        Ru1           16.00   101.07000     Ru( 1.00)
        Pd1           16.00   106.42000     Pd( 1.00)

     No symmetry found

   Cartesian axes

     site n.     atom                  positions (alat units)
         1           Ru1 tau(   1) = (   0.0000000   0.0000000  10.0000000  )
         2           Ru1 tau(   2) = (   2.7243415   0.0000000  10.0000000  )
         3           Pd1 tau(   3) = (   1.3621707   2.4123530  10.0000000  )
         4           Pd1 tau(   4) = (  -1.3621707   2.4123530  10.0000000  )
         5           Ru1 tau(   5) = (   2.7243415   1.5383396  12.2484545  )
         6           Ru1 tau(   6) = (  -0.0000000   1.5383396  12.2484545  )
         7           Pd1 tau(   7) = (  -1.3621707   3.9506926  12.2484545  )
         8           Pd1 tau(   8) = (   1.3621707   3.9506926  12.2484545  )
         9           Ru1 tau(   9) = (   0.0000000   3.0766793  14.4969090  )
        10           Ru1 tau(  10) = (   2.7243415   3.0766793  14.4969090  )
        11           Pd1 tau(  11) = (   4.0865122   0.6643263  14.4969090  )
        12           Pd1 tau(  12) = (   1.3621707   0.6643263  14.4969090  )

     number of k points=    20  Fermi-Dirac smearing, width (Ry)=  0.0110
                       cart. coord. in units 2pi/alat
        k(    1) = (   0.0000000   0.0000000   0.0000000), wk =   0.0555556
        k(    2) = (   0.0000000   0.0345444   0.0000000), wk =   0.1111111
        k(    3) = (   0.0000000   0.0690888   0.0000000), wk =   0.1111111
        k(    4) = (   0.0000000  -0.1036333   0.0000000), wk =   0.0555556
        k(    5) = (   0.0305884   0.0172722   0.0000000), wk =   0.1111111
        k(    6) = (   0.0305884   0.0518166   0.0000000), wk =   0.1111111
        k(    7) = (   0.0305884   0.0863610   0.0000000), wk =   0.1111111
        k(    8) = (   0.0305884  -0.0863610   0.0000000), wk =   0.1111111
        k(    9) = (   0.0305884  -0.0518166   0.0000000), wk =   0.1111111
        k(   10) = (   0.0305884  -0.0172722   0.0000000), wk =   0.1111111
        k(   11) = (   0.0611769   0.0345444   0.0000000), wk =   0.1111111
        k(   12) = (   0.0611769   0.0690888   0.0000000), wk =   0.1111111
        k(   13) = (   0.0611769   0.1036333   0.0000000), wk =   0.1111111
        k(   14) = (   0.0611769  -0.0690888   0.0000000), wk =   0.1111111
        k(   15) = (   0.0611769  -0.0345444   0.0000000), wk =   0.1111111
        k(   16) = (   0.0611769   0.0000000   0.0000000), wk =   0.1111111
        k(   17) = (  -0.0917653  -0.0518166   0.0000000), wk =   0.0555556
        k(   18) = (  -0.0917653  -0.0172722   0.0000000), wk =   0.1111111
        k(   19) = (  -0.0917653   0.0172722   0.0000000), wk =   0.1111111
        k(   20) = (  -0.0917653  -0.1554499   0.0000000), wk =   0.0555556

     Largest allocated arrays     est. size (Mb)     dimensions
     Largest temporary arrays     est. size (Mb)     dimensions

     Initial potential from superposition of free atoms
     Check: negative starting charge=   -0.893876

     starting charge  182.99986, renormalised to  192.00000

     negative rho (up, down):  9.378E-01 0.000E+00

     *
     * You are using vdW-DF for exchange-correlation in this calculation.
     * Please cite the following three references that made this development
     * possible:
     *
     *   M. Dion, H. Rydberg, E. Schroder, D. C. Langreth, and
     *   B. I. Lundqvist, Phys. Rev. Lett. 92, 246401 (2004).
     *
     *   T. Thonhauser, V. R. Cooper, S. Li, A. Puzder, P. Hyldgaard, and
     *   D. C. Langreth, Phys. Rev. B 76, 125112 (2007).
     *
     *   G. Roman-Perez and J. M. Soler, Phys. Rev. Lett. 103, 096102 (2009).
     *
     *
     * If you are using vdW-DF2, please also cite:
     *
     *   K. Lee, E. D. Murray, L. Kong, B. I. Lundqvist, and
     *   D. C. Langreth, Phys. Rev. B 82, 081101(R) (2010).
     *
     *
     * If you are calculating the stress with vdW-DF, please also cite:
     *
     *   R. Sabatini, E. Kucukbenli, B. Kolb, T. Thonhauser, and
     *   S. de Gironcoli, J. Phys.: Condens. Matter 24, 424209 (2012).
     *

     Carrying out vdW-DF run using the following parameters:

     Nqs =      20    Nr_points =    1024   r_max =   100.000
     q_mesh =
               0.00001000     0.04494208     0.09755937     0.15916263
               0.23128650     0.31572767     0.41458969     0.53033537
               0.66584808     0.82450364     1.01025438     1.22772762
               1.48234092     1.78043706     2.12944203     2.53805004
               3.01644009     3.57652955     4.23227104     5.00000000

     Gradients computed in reciprocal space

     Adding external electric field

     Computed dipole along edir(3) :
        Dipole               -0.0000 Ry au,         -0.0000 Debye
        Dipole field         -0.0000 Ry au

        Potential amp.        0.0000 Ry
        Total length         45.1351 bohr

     Starting wfc are  150 randomized atomic wfcs

     Self-consistent Calculation

     iteration #  1     ecut=    36.75 Ry     beta=0.10
     Davidson diagonalization with overlap
     ethr =  1.00E-02,  avg # of iterations =  7.2

[...]

     total energy              =   -2362.28033026 Ry
     Harris-Foulkes estimate   =   -2378.05975524 Ry
     estimated scf accuracy    <      90.61636764 Ry

[...]

     End of self-consistent calculation

          k = 0.0000 0.0000 0.0000 ( 16301 PWs)   bands (ev):

   -71.3463 -71.2996 -70.8999 -70.8992 -70.8526 -70.8519 -48.9925 -48.9551
   -48.9302 -48.8584 -48.8339 -48.7577 -48.6537 -48.6532 -48.6287 -48.6222
   -48.6038 -48.5973 -48.4190 -48.4190 -48.3948 -48.3837 -48.3726 -48.3611
   -41.4502 -41.3719 -41.3244 -41.2731 -41.2293 -41.1395 -41.1367 -40.9963
   -40.8418 -40.8324 -40.7973 -40.7886 -40.7784 -40.7361 -40.7306 -40.6922
   -40.6830 -40.6821  -4.8406  -3.6043  -3.5730  -3.5325  -3.5283  -3.4634
    -3.3688  -3.2903  -3.2340  -3.1064  -3.0904  -3.0641  -2.8753  -2.8249
    -2.7267  -1.9122  -1.7663  -1.6518  -1.6490  -1.4884  -1.3273  -1.1767
    -1.0305  -1.0048  -0.8745  -0.8514  -0.8343  -0.7623  -0.6171  -0.5989
    -0.5590  -0.3700  -0.3386   0.2194   0.2766   0.3589   0.4639   0.6012
     0.6412   0.7047   0.7887   1.1854   1.2227   1.2392   1.3372   1.3697
     1.5290   1.7391   1.9083   1.9339   1.9404   1.9676   2.1055   2.1089
     2.2508   2.3441   2.3880   2.4694   2.6880   2.7623   2.7740   2.8535
     3.0051   3.2760   3.7784   3.8412   3.8434   5.3072   5.3227   5.4737
     5.7246   5.7387   5.9136   6.1769   6.4139   6.8663   7.7919   8.6956
     8.9189   8.9228   9.0429   9.0490   9.3857   9.3889

[...]

          k =-0.0918-0.0518 0.0000 ( 16360 PWs)   bands (ev):

[...]

     the Fermi energy is     1.6997 ev

!    total energy              =   -2369.10151171 Ry
     Harris-Foulkes estimate   =   -2369.10151284 Ry
     estimated scf accuracy    <       0.00000035 Ry

     The total energy is the sum of the following terms:

     one-electron contribution =  -21088.18489224 Ry
     hartree contribution      =   10566.98227301 Ry
     xc contribution           =    -355.75296052 Ry
     ewald contribution        =    8507.96507125 Ry
     electric field correction =       0.00000001 Ry
     smearing contrib. (-TS)   =      -0.11100321 Ry

     convergence has been achieved in  21 iterations

 BEEF-vdW xc energy contributions
           1 :   -309.268217574598
           2 :    283.281573695102
           3 :   -238.571892430356
           4 :    186.671518678737
           5 :   -139.096596161103
           6 :    103.656000930503
           7 :   -82.6601526019140
           8 :    73.4107382244900
[...]
00031 suncat2047 pw.x -in pw.inp   Done                     12/19/2018 04:07:38

     Program PWSCF v.5.1rc2 (svn rev. 11289) starts on 19Dec2018 at  4: 7:45

[...]

   This run was terminated on:   4:13:24  19Dec2018

[...]

     Program PWSCF v.5.1rc2 (svn rev. 11289) starts on 19Dec2018 at  4:13:30

[...]

     Found symmetry operation: I + ( -0.5000  0.0000  0.0000)
     This is a supercell, fractional translations are disabled

[...]

     Program PWSCF v.5.1rc2 (svn rev. 11289) starts on 19Dec2018 at  4:30:30

     Current dimensions of program PWSCF are:
     Max number of different atomic species (ntypx) = 10
     Max number of k-points (npk) =  40000
     Max angular momentum in pseudopotentials (lmaxx) =  3
     Presently stress not available with electric field

     IMPORTANT: XC functional enforced from input :
     Exchange-correlation      = BEEF-VDW ( 1  4 27 13 2)
     Any further DFT definition will be discarded
     Please, verify this is what you really want

     Subspace diagonalization in iterative solution of the eigenvalue problem:
     a serial algorithm will be used

     bravais-lattice index     =            0
     lattice parameter (alat)  =       1.8897  a.u.
     unit-cell volume          =    4345.8055 (a.u.)^3
     number of atoms/cell      =           12
     number of atomic types    =            2
     number of electrons       =       192.00
     number of Kohn-Sham states=          126
     kinetic-energy cutoff     =      36.7493  Ry
     charge density cutoff     =     367.4932  Ry
     convergence threshold     =      1.0E-06
     mixing beta               =       0.1000
     number of iterations used =           10  plain     mixing
     Exchange-correlation      = BEEF-VDW ( 1  4 27 13 2)
     nstep                     =           50

     celldm(1)=   1.889726  celldm(2)=   0.000000  celldm(3)=   0.000000
     celldm(4)=   0.000000  celldm(5)=   0.000000  celldm(6)=   0.000000

     crystal axes: (cart. coord. in units of alat)
               a(1) = (   5.448683   0.000000   0.000000 )
               a(2) = (  -2.724341   4.824706   0.000000 )
               a(3) = (   0.000000   0.000000  24.496909 )

     reciprocal axes: (cart. coord. in units 2 pi/alat)
               b(1) = (  0.183531  0.103633  0.000000 )
               b(2) = (  0.000000  0.207267  0.000000 )
               b(3) = (  0.000000  0.000000  0.040821 )

     PseudoPot. # 1 for Ru read from file:
     /afs/slac.stanford.edu/u/if/mamunm/psp/gbrv1.5pbe/Ru.UPF
     MD5 check sum: 7158a806dd851261a58e6920c40ebe78
     Pseudo is Ultrasoft + core correction, Zval = 16.0
     Generated by new atomic code, or converted to UPF format
     Using radial grid of  967 points,  6 beta functions with:
                l(1) =   0
                l(2) =   0
                l(3) =   1
                l(4) =   1
                l(5) =   2
                l(6) =   2
     Q(r) pseudized with  8 coefficients,  rinner =    1.300   1.300   1.300
                                                       1.300   1.300

     PseudoPot. # 2 for Pd read from file:
     /afs/slac.stanford.edu/u/if/mamunm/psp/gbrv1.5pbe/Pd.UPF
     MD5 check sum: 2d733d2bc2cbfd217af676df1668a4bc
     Pseudo is Ultrasoft + core correction, Zval = 16.0
     Generated by new atomic code, or converted to UPF format
     Using radial grid of  887 points,  6 beta functions with:
                l(1) =   0
                l(2) =   0
                l(3) =   1
                l(4) =   1
                l(5) =   2
                l(6) =   2
     Q(r) pseudized with  8 coefficients,  rinner =    1.130   1.130   1.130
                                                       1.130   1.130

     vdW kernel table read from file vdW_kernel_table
     MD5 check sum: 095c7af220d748ca6e76c0b4c6cfb241

     atomic species   valence    mass     pseudopotential
        Ru1           16.00   101.07000     Ru( 1.00)
        Pd1           16.00   106.42000     Pd( 1.00)

     No symmetry found

   Cartesian axes

     site n.     atom                  positions (alat units)
         1           Ru1 tau(   1) = (   0.0000000   0.0000000  10.0000000  )
         2           Ru1 tau(   2) = (   2.7243415   0.0000000  10.0000000  )
         3           Pd1 tau(   3) = (   1.3621707   2.4123530  10.0000000  )
         4           Pd1 tau(   4) = (  -1.3621707   2.4123530  10.0000000  )
         5           Ru1 tau(   5) = (   2.7243415   1.5383396  12.2484545  )
         6           Ru1 tau(   6) = (  -0.0000000   1.5383396  12.2484545  )
         7           Pd1 tau(   7) = (  -1.3621707   3.9506926  12.2484545  )
         8           Pd1 tau(   8) = (   1.3621707   3.9506926  12.2484545  )
         9           Ru1 tau(   9) = (   0.0000027   2.9470414  14.3560882  )
        10           Ru1 tau(  10) = (   2.7243418   2.9474236  14.3565466  )
        11           Pd1 tau(  11) = (   4.0864532   0.6086201  14.5373767  )
        12           Pd1 tau(  12) = (   1.3622299   0.6086175  14.5373783  )

     number of k points=    20  Fermi-Dirac smearing, width (Ry)=  0.0110
                       cart. coord. in units 2pi/alat
        k(    1) = (   0.0000000   0.0000000   0.0000000), wk =   0.0555556
        k(    2) = (   0.0000000   0.0345444   0.0000000), wk =   0.1111111
        k(    3) = (   0.0000000   0.0690888   0.0000000), wk =   0.1111111
        k(    4) = (   0.0000000  -0.1036333   0.0000000), wk =   0.0555556
        k(    5) = (   0.0305884   0.0172722   0.0000000), wk =   0.1111111
        k(    6) = (   0.0305884   0.0518166   0.0000000), wk =   0.1111111
        k(    7) = (   0.0305884   0.0863610   0.0000000), wk =   0.1111111
        k(    8) = (   0.0305884  -0.0863610   0.0000000), wk =   0.1111111
        k(    9) = (   0.0305884  -0.0518166   0.0000000), wk =   0.1111111
        k(   10) = (   0.0305884  -0.0172722   0.0000000), wk =   0.1111111
        k(   11) = (   0.0611769   0.0345444   0.0000000), wk =   0.1111111
        k(   12) = (   0.0611769   0.0690888   0.0000000), wk =   0.1111111
        k(   13) = (   0.0611769   0.1036333   0.0000000), wk =   0.1111111
        k(   14) = (   0.0611769  -0.0690888   0.0000000), wk =   0.1111111
        k(   15) = (   0.0611769  -0.0345444   0.0000000), wk =   0.1111111
        k(   16) = (   0.0611769   0.0000000   0.0000000), wk =   0.1111111
        k(   17) = (  -0.0917653  -0.0518166   0.0000000), wk =   0.0555556
        k(   18) = (  -0.0917653  -0.0172722   0.0000000), wk =   0.1111111
        k(   19) = (  -0.0917653   0.0172722   0.0000000), wk =   0.1111111
        k(   20) = (  -0.0917653  -0.1554499   0.0000000), wk =   0.0555556

     Largest allocated arrays     est. size (Mb)     dimensions
     Largest temporary arrays     est. size (Mb)     dimensions

     Initial potential from superposition of free atoms
     Check: negative starting charge=   -0.889106

     starting charge  182.99986, renormalised to  192.00000

[...]

     *
     * You are using vdW-DF for exchange-correlation in this calculation.
     * Please cite the following three references that made this development
     * possible:
     *
     *   M. Dion, H. Rydberg, E. Schroder, D. C. Langreth, and
     *   B. I. Lundqvist, Phys. Rev. Lett. 92, 246401 (2004).
     *
     *   T. Thonhauser, V. R. Cooper, S. Li, A. Puzder, P. Hyldgaard, and
     *   D. C. Langreth, Phys. Rev. B 76, 125112 (2007).
     *
     *   G. Roman-Perez and J. M. Soler, Phys. Rev. Lett. 103, 096102 (2009).
     *
     *
     * If you are using vdW-DF2, please also cite:
     *
     *   K. Lee, E. D. Murray, L. Kong, B. I. Lundqvist, and
     *   D. C. Langreth, Phys. Rev. B 82, 081101(R) (2010).
     *
     *
     * If you are calculating the stress with vdW-DF, please also cite:
     *
     *   R. Sabatini, E. Kucukbenli, B. Kolb, T. Thonhauser, and
     *   S. de Gironcoli, J. Phys.: Condens. Matter 24, 424209 (2012).
     *

     Carrying out vdW-DF run using the following parameters:

     Nqs =      20    Nr_points =    1024   r_max =   100.000
     q_mesh =
               0.00001000     0.04494208     0.09755937     0.15916263
               0.23128650     0.31572767     0.41458969     0.53033537
               0.66584808     0.82450364     1.01025438     1.22772762
               1.48234092     1.78043706     2.12944203     2.53805004
               3.01644009     3.57652955     4.23227104     5.00000000

     Gradients computed in reciprocal space

[...]

     Starting wfc are  150 randomized atomic wfcs

     Self-consistent Calculation

[...]

     total energy              =   -2369.11418812 Ry
     Harris-Foulkes estimate   =   -2369.11418838 Ry
     estimated scf accuracy    <       0.00000109 Ry

     iteration # 22     ecut=    36.75 Ry     beta=0.10
     Davidson diagonalization with overlap
     ethr =  5.65E-10,  avg # of iterations =  1.1

[...]

     negative rho (up, down):  9.270E-01 0.000E+00

     Adding external electric field

     Computed dipole along edir(3) :
        Dipole                0.0024 Ry au,          0.0061 Debye
        Dipole field          0.0000 Ry au

        Potential amp.       -0.0006 Ry
        Total length         45.1351 bohr

     End of self-consistent calculation

[...]

          k = 0.0612 0.0000 0.0000 ( 16330 PWs)   bands (ev):

[...]

          k =-0.0918-0.1554 0.0000 ( 16360 PWs)   bands (ev):

   -71.3748 -71.3745 -70.9805 -70.9800 -70.8530 -70.8529 -48.9870 -48.9870
   -48.9081 -48.9081 -48.8641 -48.8641 -48.6110 -48.6110 -48.5376 -48.5376
   -48.5327 -48.5327 -48.4483 -48.4482 -48.3765 -48.3765 -48.2732 -48.2732
   -41.5066 -41.5058 -41.2977 -41.2974 -41.2515 -41.2513 -40.9763 -40.9759
   -40.9268 -40.9264 -40.9004 -40.9004 -40.8440 -40.8436 -40.7949 -40.7949
   -40.6979 -40.6978  -3.4446  -3.4444  -2.8958  -2.8955  -2.8167  -2.8166
    -2.6147  -2.6147  -2.5291  -2.5290  -2.3991  -2.3990  -2.0856  -2.0855
    -2.0418  -2.0415  -1.7761  -1.7759  -1.5026  -1.5026  -1.4527  -1.4525
    -1.1202  -1.1201  -0.9616  -0.9611  -0.8794  -0.8792  -0.7705  -0.7704
    -0.6168  -0.6166  -0.5239  -0.5234  -0.3772  -0.3772  -0.1650  -0.1649
     0.0688   0.0695   0.1817   0.1819   0.5217   0.5219   0.8211   0.8213
     0.8670   0.8673   0.9323   0.9324   1.1089   1.1092   1.1758   1.1760
     1.3324   1.3325   1.7926   1.7927   1.9022   1.9025   2.2245   2.2246
     2.4992   2.4995   4.2036   4.2037   4.7097   4.7100   5.5856   5.5859
     6.3411   6.3415   7.5419   7.5422   7.7859   7.7860   8.3766   8.3767
     8.4903   8.4904   9.6097   9.6097   9.7206   9.7209

     the Fermi energy is     1.6980 ev

!    total energy              =   -2369.11418700 Ry
     Harris-Foulkes estimate   =   -2369.11418820 Ry
     estimated scf accuracy    <       0.00000058 Ry

     The total energy is the sum of the following terms:

     one-electron contribution =  -21235.21595284 Ry
     hartree contribution      =   10640.41207057 Ry
     xc contribution           =    -355.87482304 Ry
     ewald contribution        =    8581.67054034 Ry
     electric field correction =       0.00000002 Ry
     smearing contrib. (-TS)   =      -0.10602204 Ry

     convergence has been achieved in  22 iterations

 BEEF-vdW xc energy contributions
           1 :   -309.394279269345
           2 :    283.454410000586
           3 :   -238.808395343170
           4 :    186.942039996065
           5 :   -139.333133300903
           6 :    103.784312119479
           7 :   -82.6403356418272
           8 :    73.2633077349863
           9 :   -70.2291947963581
          10 :    68.0912368383454
          11 :   -63.5062624374987
          12 :    55.9789527231310
          13 :   -47.2059508070879
          14 :    39.6075570954337
          15 :   -34.8815983951360
          16 :    33.2323131085781
          17 :   -33.4937505976469
          18 :    33.9115956751808
          19 :   -33.0893227629041
          20 :    30.6069025814602
          21 :   -27.0583569894374
          22 :    23.5774352377365
          23 :   -21.1661599156035
          24 :    20.1889853651177
          25 :   -20.2644363703601
          26 :    20.5562716153370
          27 :   -20.2652160385169
          28 :    19.0407948500751
          29 :   -17.1073342796082
          30 :    15.0692133411986
          31 :   -30.9763674613104
          32 :   -23.1852020326161

     Forces acting on atoms (Ry/au):

     negative rho (up, down):  9.270E-01 0.000E+00
     atom    1 type  1   force =     0.00000008    0.01408809    0.02488068
     atom    2 type  1   force =     0.00000008    0.01408366    0.02491838
     atom    3 type  2   force =    -0.00000195   -0.01414896   -0.00959601
     atom    4 type  2   force =     0.00000194   -0.01414896   -0.00959591
     atom    5 type  1   force =     0.00000015   -0.00815308   -0.00122398
     atom    6 type  1   force =    -0.00000003   -0.00819159   -0.00127299
     atom    7 type  2   force =    -0.00001749    0.00869798   -0.01478129
     atom    8 type  2   force =     0.00001773    0.00869801   -0.01478163
     atom    9 type  1   force =    -0.00000029   -0.00023623   -0.00104832
     atom   10 type  1   force =    -0.00000040   -0.00032403   -0.00117656
     atom   11 type  2   force =     0.00002128   -0.00018258    0.00183888
     atom   12 type  2   force =    -0.00002110   -0.00018231    0.00183877

     Total force =     0.054367     Total SCF correction =     0.005165

     entering subroutine stress ...

     negative rho (up, down):  9.270E-01 0.000E+00
          total   stress  (Ry/bohr**3)                   (kbar)     P=  -14.14
  -0.00014332  -0.00000000  -0.00000000        -21.08     -0.00     -0.00
  -0.00000000  -0.00010520  -0.00000070         -0.00    -15.48     -0.10
  -0.00000000  -0.00000070  -0.00003988         -0.00     -0.10     -5.87

 !ASE

     Writing output data file calc.save

     General routines

     Parallel routines

   This run was terminated on:   4:36:16  19Dec2018

   JOB DONE.
Job  /afs/slac/g/suncat/bin/suncat-tsmpirun -x LD_LIBRARY_PATH -wdir /scratch/qe530523_JYxDu pw.x -in pw.inp

TID   HOST_NAME   COMMAND_LINE            STATUS            TERMINATION_TIME
00000 suncat2048 pw.x -in pw.inp   Done                     12/19/2018 04:36:16
00001 suncat2048 pw.x -in pw.inp   Done                     12/19/2018 04:36:16
00002 suncat2048 pw.x -in pw.inp   Done                     12/19/2018 04:36:16
00003 suncat2048 pw.x -in pw.inp   Done                     12/19/2018 04:36:16
00004 suncat2048 pw.x -in pw.inp   Done                     12/19/2018 04:36:16
00005 suncat2048 pw.x -in pw.inp   Done                     12/19/2018 04:36:16
00006 suncat2048 pw.x -in pw.inp   Done                     12/19/2018 04:36:16
00007 suncat2048 pw.x -in pw.inp   Done                     12/19/2018 04:36:16
00008 suncat2048 pw.x -in pw.inp   Done                     12/19/2018 04:36:16
00009 suncat2048 pw.x -in pw.inp   Done                     12/19/2018 04:36:16
00010 suncat2048 pw.x -in pw.inp   Done                     12/19/2018 04:36:16
00011 suncat2048 pw.x -in pw.inp   Done                     12/19/2018 04:36:16
00012 suncat2048 pw.x -in pw.inp   Done                     12/19/2018 04:36:16
00013 suncat2048 pw.x -in pw.inp   Done                     12/19/2018 04:36:16
00014 suncat2048 pw.x -in pw.inp   Done                     12/19/2018 04:36:16
00015 suncat2048 pw.x -in pw.inp   Done                     12/19/2018 04:36:16
00016 suncat2047 pw.x -in pw.inp   Done                     12/19/2018 04:36:16
00017 suncat2047 pw.x -in pw.inp   Done                     12/19/2018 04:36:16
00018 suncat2047 pw.x -in pw.inp   Done                     12/19/2018 04:36:16
00019 suncat2047 pw.x -in pw.inp   Done                     12/19/2018 04:36:16
00020 suncat2047 pw.x -in pw.inp   Done                     12/19/2018 04:36:16
00021 suncat2047 pw.x -in pw.inp   Done                     12/19/2018 04:36:16
00022 suncat2047 pw.x -in pw.inp   Done                     12/19/2018 04:36:16
00023 suncat2047 pw.x -in pw.inp   Done                     12/19/2018 04:36:16
00024 suncat2047 pw.x -in pw.inp   Done                     12/19/2018 04:36:16
00025 suncat2047 pw.x -in pw.inp   Done                     12/19/2018 04:36:16
00026 suncat2047 pw.x -in pw.inp   Done                     12/19/2018 04:36:16
00027 suncat2047 pw.x -in pw.inp   Done                     12/19/2018 04:36:16
00028 suncat2047 pw.x -in pw.inp   Done                     12/19/2018 04:36:16
00029 suncat2047 pw.x -in pw.inp   Done                     12/19/2018 04:36:16
00030 suncat2047 pw.x -in pw.inp   Done                     12/19/2018 04:36:16
00031 suncat2047 pw.x -in pw.inp   Done                     12/19/2018 04:36:16