     Program PWSCF v.5.1rc2 (svn rev. 11289) starts on 18Dec2018 at 20:53: 5

     Current dimensions of program PWSCF are:
     Max number of different atomic species (ntypx) = 10
     Max number of k-points (npk) =  40000
     Max angular momentum in pseudopotentials (lmaxx) =  3
     Presently stress not available with electric field

     IMPORTANT: XC functional enforced from input :
     Exchange-correlation      = BEEF-VDW ( 1  4 27 13 2)
     Any further DFT definition will be discarded
     Please, verify this is what you really want

     Subspace diagonalization in iterative solution of the eigenvalue problem:
     a serial algorithm will be used

     Found symmetry operation: I + ( -0.5000 -0.5000  0.0000)
     This is a supercell, fractional translations are disabled

     Generating pointlists ...
     new r_m :   0.4125 (alat units)  0.7795 (a.u.) for type    1
     new r_m :   0.4125 (alat units)  0.7795 (a.u.) for type    2

     bravais-lattice index     =            0
     lattice parameter (alat)  =       1.8897  a.u.
     unit-cell volume          =    4698.3650 (a.u.)^3
     number of atoms/cell      =           12
     number of atomic types    =            2
     number of electrons       =       186.00
     number of Kohn-Sham states=          123
     kinetic-energy cutoff     =      36.7493  Ry
     charge density cutoff     =     367.4932  Ry
     convergence threshold     =      1.0E-06
     mixing beta               =       0.1000
     number of iterations used =           10  plain     mixing
     Exchange-correlation      = BEEF-VDW ( 1  4 27 13 2)
     nstep                     =           50

     celldm(1)=   1.889726  celldm(2)=   0.000000  celldm(3)=   0.000000
     celldm(4)=   0.000000  celldm(5)=   0.000000  celldm(6)=   0.000000

     crystal axes: (cart. coord. in units of alat)
               a(1) = (   5.489352   0.000000   0.000000 )
               a(2) = (   1.811531   5.181828   0.000000 )
               a(3) = (   0.000000   0.000000  24.476319 )

     reciprocal axes: (cart. coord. in units 2 pi/alat)
               b(1) = (  0.182171 -0.063686  0.000000 )
               b(2) = (  0.000000  0.192982  0.000000 )
               b(3) = (  0.000000  0.000000  0.040856 )

     PseudoPot. # 1 for Ni read from file:
     /afs/slac.stanford.edu/u/if/mamunm/psp/gbrv1.5pbe/Ni.UPF
     MD5 check sum: 1ee80287db30b12d2bc1f57a5b5d6409
     Pseudo is Ultrasoft + core correction, Zval = 18.0
     Generated by new atomic code, or converted to UPF format
     Using radial grid of  865 points,  6 beta functions with:
                l(1) =   0
                l(2) =   0
                l(3) =   1
                l(4) =   1
                l(5) =   2
                l(6) =   2
     Q(r) pseudized with 10 coefficients,  rinner =    0.980   0.980   0.980
                                                       0.980   0.980

     PseudoPot. # 2 for In read from file:
     /afs/slac.stanford.edu/u/if/mamunm/psp/gbrv1.5pbe/In.UPF
     MD5 check sum: 90777abd96fbb83f2e67db2a40c566b9
     Pseudo is Ultrasoft + core correction, Zval = 13.0
     Generated by new atomic code, or converted to UPF format
     Using radial grid of  889 points,  6 beta functions with:
                l(1) =   0
                l(2) =   0
                l(3) =   1
                l(4) =   1
                l(5) =   2
                l(6) =   2
     Q(r) pseudized with  6 coefficients,  rinner =    1.400   1.400   1.400
                                                       1.400   1.400

     vdW kernel table read from file vdW_kernel_table
     MD5 check sum: 095c7af220d748ca6e76c0b4c6cfb241

     atomic species   valence    mass     pseudopotential
        Ni1           18.00    58.69340     Ni( 1.00)
        In1           13.00   114.81800     In( 1.00)

     Starting magnetic structure
     atomic species   magnetization
        Ni1          0.111
        In1          0.154

     No symmetry found

   Cartesian axes

     site n.     atom                  positions (alat units)
         1           Ni1 tau(   1) = (   0.0000000   0.0000000  10.0000000  )
         2           Ni1 tau(   2) = (   3.6504415   2.5909139  10.0000000  )
         3           In1 tau(   3) = (   2.7446760   0.0000000  10.0000000  )
         4           In1 tau(   4) = (   0.9057655   2.5909139  10.0000000  )
         5           Ni1 tau(   5) = (   5.4893519   3.8960872  12.2381594  )
         6           Ni1 tau(   6) = (   1.8389104   1.3051733  12.2381594  )
         7           In1 tau(   7) = (   2.7446760   3.8960872  12.2381594  )
         8           In1 tau(   8) = (   4.5835864   1.3051733  12.2381594  )
         9           Ni1 tau(   9) = (   3.6778209   2.6103465  14.4763189  )
        10           Ni1 tau(  10) = (   0.0273794   0.0194326  14.4763189  )
        11           In1 tau(  11) = (   0.9331449   2.6103465  14.4763189  )
        12           In1 tau(  12) = (   2.7720554   0.0194326  14.4763189  )

     number of k points=    40  Fermi-Dirac smearing, width (Ry)=  0.0110
                       cart. coord. in units 2pi/alat
        k(    1) = (   0.0000000   0.0000000   0.0000000), wk =   0.0277778
        k(    2) = (   0.0000000   0.0321637   0.0000000), wk =   0.0555556
        k(    3) = (   0.0000000   0.0643274   0.0000000), wk =   0.0555556
        k(    4) = (   0.0000000  -0.0964910   0.0000000), wk =   0.0277778
        k(    5) = (   0.0303618  -0.0106143   0.0000000), wk =   0.0555556
        k(    6) = (   0.0303618   0.0215494   0.0000000), wk =   0.0555556
        k(    7) = (   0.0303618   0.0537131   0.0000000), wk =   0.0555556
        k(    8) = (   0.0303618  -0.1071053   0.0000000), wk =   0.0555556
        k(    9) = (   0.0303618  -0.0749416   0.0000000), wk =   0.0555556
        k(   10) = (   0.0303618  -0.0427780   0.0000000), wk =   0.0555556
        k(   11) = (   0.0607236  -0.0212286   0.0000000), wk =   0.0555556
        k(   12) = (   0.0607236   0.0109351   0.0000000), wk =   0.0555556
        k(   13) = (   0.0607236   0.0430988   0.0000000), wk =   0.0555556
        k(   14) = (   0.0607236  -0.1177196   0.0000000), wk =   0.0555556
        k(   15) = (   0.0607236  -0.0855559   0.0000000), wk =   0.0555556
        k(   16) = (   0.0607236  -0.0533922   0.0000000), wk =   0.0555556
        k(   17) = (  -0.0910854   0.0318428   0.0000000), wk =   0.0277778
        k(   18) = (  -0.0910854   0.0640065   0.0000000), wk =   0.0555556
        k(   19) = (  -0.0910854   0.0961702   0.0000000), wk =   0.0555556
        k(   20) = (  -0.0910854  -0.0646482   0.0000000), wk =   0.0277778
        k(   21) = (   0.0000000   0.0000000   0.0000000), wk =   0.0277778
        k(   22) = (   0.0000000   0.0321637   0.0000000), wk =   0.0555556
        k(   23) = (   0.0000000   0.0643274   0.0000000), wk =   0.0555556
        k(   24) = (   0.0000000  -0.0964910   0.0000000), wk =   0.0277778
        k(   25) = (   0.0303618  -0.0106143   0.0000000), wk =   0.0555556
        k(   26) = (   0.0303618   0.0215494   0.0000000), wk =   0.0555556
        k(   27) = (   0.0303618   0.0537131   0.0000000), wk =   0.0555556
        k(   28) = (   0.0303618  -0.1071053   0.0000000), wk =   0.0555556
        k(   29) = (   0.0303618  -0.0749416   0.0000000), wk =   0.0555556
        k(   30) = (   0.0303618  -0.0427780   0.0000000), wk =   0.0555556
        k(   31) = (   0.0607236  -0.0212286   0.0000000), wk =   0.0555556
        k(   32) = (   0.0607236   0.0109351   0.0000000), wk =   0.0555556
        k(   33) = (   0.0607236   0.0430988   0.0000000), wk =   0.0555556
        k(   34) = (   0.0607236  -0.1177196   0.0000000), wk =   0.0555556
        k(   35) = (   0.0607236  -0.0855559   0.0000000), wk =   0.0555556
        k(   36) = (   0.0607236  -0.0533922   0.0000000), wk =   0.0555556
        k(   37) = (  -0.0910854   0.0318428   0.0000000), wk =   0.0277778
        k(   38) = (  -0.0910854   0.0640065   0.0000000), wk =   0.0555556
        k(   39) = (  -0.0910854   0.0961702   0.0000000), wk =   0.0555556
        k(   40) = (  -0.0910854  -0.0646482   0.0000000), wk =   0.0277778

     Largest allocated arrays     est. size (Mb)     dimensions
     Largest temporary arrays     est. size (Mb)     dimensions

     Initial potential from superposition of free atoms
     Check: negative starting charge=(component1):   -0.000367
     Check: negative starting charge=(component2):   -0.000294

     starting charge  165.00000, renormalised to  186.00000

     negative rho (up, down):  4.132E-04 3.312E-04

     *
     * You are using vdW-DF for exchange-correlation in this calculation.
     * Please cite the following three references that made this development
     * possible:
     *
     *   M. Dion, H. Rydberg, E. Schroder, D. C. Langreth, and
     *   B. I. Lundqvist, Phys. Rev. Lett. 92, 246401 (2004).
     *
     *   T. Thonhauser, V. R. Cooper, S. Li, A. Puzder, P. Hyldgaard, and
     *   D. C. Langreth, Phys. Rev. B 76, 125112 (2007).
     *
     *   G. Roman-Perez and J. M. Soler, Phys. Rev. Lett. 103, 096102 (2009).
     *
     *
     * If you are using vdW-DF2, please also cite:
     *
     *   K. Lee, E. D. Murray, L. Kong, B. I. Lundqvist, and
     *   D. C. Langreth, Phys. Rev. B 82, 081101(R) (2010).
     *
     *
     * If you are calculating the stress with vdW-DF, please also cite:
     *
     *   R. Sabatini, E. Kucukbenli, B. Kolb, T. Thonhauser, and
     *   S. de Gironcoli, J. Phys.: Condens. Matter 24, 424209 (2012).
     *

     Carrying out vdW-DF run using the following parameters:

     Nqs =      20    Nr_points =    1024   r_max =   100.000
     q_mesh =
               0.00001000     0.04494208     0.09755937     0.15916263
               0.23128650     0.31572767     0.41458969     0.53033537
               0.66584808     0.82450364     1.01025438     1.22772762
               1.48234092     1.78043706     2.12944203     2.53805004
               3.01644009     3.57652955     4.23227104     5.00000000

     Gradients computed in reciprocal space

     Adding external electric field

     Computed dipole along edir(3) :
        Dipole                0.0000 Ry au,          0.0000 Debye
        Dipole field          0.0000 Ry au

        Potential amp.       -0.0000 Ry
        Total length         45.0972 bohr

[...]

     Starting wfc are  132 randomized atomic wfcs

     Self-consistent Calculation

     iteration #  1     ecut=    36.75 Ry     beta=0.10
     Davidson diagonalization with overlap
     ethr =  1.00E-02,  avg # of iterations =  8.6

[...]

     Magnetic moment per site:
     atom:    1    charge:    9.9585    magn:    1.0570    constr:    0.0000
     atom:    2    charge:    9.9585    magn:    1.0570    constr:    0.0000
     atom:    3    charge:    3.3284    magn:    0.4786    constr:    0.0000
     atom:    4    charge:    3.3284    magn:    0.4786    constr:    0.0000
     atom:    5    charge:    9.9569    magn:    1.0569    constr:    0.0000
     atom:    6    charge:    9.9569    magn:    1.0569    constr:    0.0000
     atom:    7    charge:    3.3291    magn:    0.4787    constr:    0.0000
[...]
                l(3) =   1
                l(4) =   1
                l(5) =   2
                l(6) =   2
     Q(r) pseudized with 10 coefficients,  rinner =    0.980   0.980   0.980
                                                       0.980   0.980

     PseudoPot. # 2 for In read from file:
     /afs/slac.stanford.edu/u/if/mamunm/psp/gbrv1.5pbe/In.UPF
     MD5 check sum: 90777abd96fbb83f2e67db2a40c566b9
     Pseudo is Ultrasoft + core correction, Zval = 13.0
     Generated by new atomic code, or converted to UPF format
     Using radial grid of  889 points,  6 beta functions with:
                l(1) =   0
                l(2) =   0
                l(3) =   1
                l(4) =   1
                l(5) =   2
                l(6) =   2
     Q(r) pseudized with  6 coefficients,  rinner =    1.400   1.400   1.400
                                                       1.400   1.400

     vdW kernel table read from file vdW_kernel_table
     MD5 check sum: 095c7af220d748ca6e76c0b4c6cfb241

     atomic species   valence    mass     pseudopotential
        Ni1           18.00    58.69340     Ni( 1.00)
        In1           13.00   114.81800     In( 1.00)

     Starting magnetic structure
     atomic species   magnetization
        Ni1          0.111
        In1          0.154

     No symmetry found

   Cartesian axes

     site n.     atom                  positions (alat units)
         1           Ni1 tau(   1) = (   0.0000000   0.0000000  10.0000000  )
         2           Ni1 tau(   2) = (   3.6504415   2.5909139  10.0000000  )
         3           In1 tau(   3) = (   2.7446760   0.0000000  10.0000000  )
         4           In1 tau(   4) = (   0.9057655   2.5909139  10.0000000  )
         5           Ni1 tau(   5) = (   5.4893519   3.8960872  12.2381594  )
         6           Ni1 tau(   6) = (   1.8389104   1.3051733  12.2381594  )
         7           In1 tau(   7) = (   2.7446760   3.8960872  12.2381594  )
         8           In1 tau(   8) = (   4.5835864   1.3051733  12.2381594  )
         9           Ni1 tau(   9) = (   3.6727388   2.6067412  14.3465106  )
        10           Ni1 tau(  10) = (   0.0219596   0.0155829  14.3462103  )
        11           In1 tau(  11) = (   0.9325150   2.6100270  14.7055399  )
        12           In1 tau(  12) = (   2.7715420   0.0189377  14.7055391  )

     number of k points=    40  Fermi-Dirac smearing, width (Ry)=  0.0110
                       cart. coord. in units 2pi/alat
        k(    1) = (   0.0000000   0.0000000   0.0000000), wk =   0.0277778
        k(    2) = (   0.0000000   0.0321637   0.0000000), wk =   0.0555556
        k(    3) = (   0.0000000   0.0643274   0.0000000), wk =   0.0555556
        k(    4) = (   0.0000000  -0.0964910   0.0000000), wk =   0.0277778
        k(    5) = (   0.0303618  -0.0106143   0.0000000), wk =   0.0555556
        k(    6) = (   0.0303618   0.0215494   0.0000000), wk =   0.0555556
        k(    7) = (   0.0303618   0.0537131   0.0000000), wk =   0.0555556
        k(    8) = (   0.0303618  -0.1071053   0.0000000), wk =   0.0555556
        k(    9) = (   0.0303618  -0.0749416   0.0000000), wk =   0.0555556
        k(   10) = (   0.0303618  -0.0427780   0.0000000), wk =   0.0555556
        k(   11) = (   0.0607236  -0.0212286   0.0000000), wk =   0.0555556
        k(   12) = (   0.0607236   0.0109351   0.0000000), wk =   0.0555556
        k(   13) = (   0.0607236   0.0430988   0.0000000), wk =   0.0555556
        k(   14) = (   0.0607236  -0.1177196   0.0000000), wk =   0.0555556
        k(   15) = (   0.0607236  -0.0855559   0.0000000), wk =   0.0555556
        k(   16) = (   0.0607236  -0.0533922   0.0000000), wk =   0.0555556
        k(   17) = (  -0.0910854   0.0318428   0.0000000), wk =   0.0277778
        k(   18) = (  -0.0910854   0.0640065   0.0000000), wk =   0.0555556
        k(   19) = (  -0.0910854   0.0961702   0.0000000), wk =   0.0555556
        k(   20) = (  -0.0910854  -0.0646482   0.0000000), wk =   0.0277778
        k(   21) = (   0.0000000   0.0000000   0.0000000), wk =   0.0277778
        k(   22) = (   0.0000000   0.0321637   0.0000000), wk =   0.0555556
        k(   23) = (   0.0000000   0.0643274   0.0000000), wk =   0.0555556
        k(   24) = (   0.0000000  -0.0964910   0.0000000), wk =   0.0277778
        k(   25) = (   0.0303618  -0.0106143   0.0000000), wk =   0.0555556
        k(   26) = (   0.0303618   0.0215494   0.0000000), wk =   0.0555556
        k(   27) = (   0.0303618   0.0537131   0.0000000), wk =   0.0555556
        k(   28) = (   0.0303618  -0.1071053   0.0000000), wk =   0.0555556
        k(   29) = (   0.0303618  -0.0749416   0.0000000), wk =   0.0555556
        k(   30) = (   0.0303618  -0.0427780   0.0000000), wk =   0.0555556
        k(   31) = (   0.0607236  -0.0212286   0.0000000), wk =   0.0555556
        k(   32) = (   0.0607236   0.0109351   0.0000000), wk =   0.0555556
        k(   33) = (   0.0607236   0.0430988   0.0000000), wk =   0.0555556
        k(   34) = (   0.0607236  -0.1177196   0.0000000), wk =   0.0555556
        k(   35) = (   0.0607236  -0.0855559   0.0000000), wk =   0.0555556
        k(   36) = (   0.0607236  -0.0533922   0.0000000), wk =   0.0555556
        k(   37) = (  -0.0910854   0.0318428   0.0000000), wk =   0.0277778
        k(   38) = (  -0.0910854   0.0640065   0.0000000), wk =   0.0555556
        k(   39) = (  -0.0910854   0.0961702   0.0000000), wk =   0.0555556
        k(   40) = (  -0.0910854  -0.0646482   0.0000000), wk =   0.0277778

     Largest allocated arrays     est. size (Mb)     dimensions
     Largest temporary arrays     est. size (Mb)     dimensions

     Initial potential from superposition of free atoms
     Check: negative starting charge=(component1):   -0.000375
     Check: negative starting charge=(component2):   -0.000300

     starting charge  165.00000, renormalised to  186.00000

[...]

     *
     * You are using vdW-DF for exchange-correlation in this calculation.
     * Please cite the following three references that made this development
     * possible:
     *
     *   M. Dion, H. Rydberg, E. Schroder, D. C. Langreth, and
     *   B. I. Lundqvist, Phys. Rev. Lett. 92, 246401 (2004).
     *
     *   T. Thonhauser, V. R. Cooper, S. Li, A. Puzder, P. Hyldgaard, and
     *   D. C. Langreth, Phys. Rev. B 76, 125112 (2007).
     *
     *   G. Roman-Perez and J. M. Soler, Phys. Rev. Lett. 103, 096102 (2009).
     *
     *
     * If you are using vdW-DF2, please also cite:
     *
     *   K. Lee, E. D. Murray, L. Kong, B. I. Lundqvist, and
     *   D. C. Langreth, Phys. Rev. B 82, 081101(R) (2010).
     *
     *
     * If you are calculating the stress with vdW-DF, please also cite:
     *
     *   R. Sabatini, E. Kucukbenli, B. Kolb, T. Thonhauser, and
     *   S. de Gironcoli, J. Phys.: Condens. Matter 24, 424209 (2012).
     *

     Carrying out vdW-DF run using the following parameters:

     Nqs =      20    Nr_points =    1024   r_max =   100.000
     q_mesh =
               0.00001000     0.04494208     0.09755937     0.15916263
               0.23128650     0.31572767     0.41458969     0.53033537
               0.66584808     0.82450364     1.01025438     1.22772762
               1.48234092     1.78043706     2.12944203     2.53805004
               3.01644009     3.57652955     4.23227104     5.00000000

     Gradients computed in reciprocal space

[...]

     Starting wfc are  132 randomized atomic wfcs

     Self-consistent Calculation

[...]

     total energy              =   -2875.21557349 Ry
     Harris-Foulkes estimate   =   -2875.21557181 Ry
     estimated scf accuracy    <       0.00000110 Ry

[...]

     iteration # 33     ecut=    36.75 Ry     beta=0.10
     Davidson diagonalization with overlap
     ethr =  5.93E-10,  avg # of iterations =  2.0

[...]

     negative rho (up, down):  7.734E-04 7.733E-04

[...]

     Adding external electric field

     Computed dipole along edir(3) :
        Dipole                0.0633 Ry au,          0.1609 Debye
        Dipole field          0.0002 Ry au

        Potential amp.       -0.0153 Ry
        Total length         45.0972 bohr

     Magnetic moment per site:
     atom:    1    charge:    9.3638    magn:    0.0008    constr:    0.0000
     atom:    2    charge:    9.3638    magn:    0.0009    constr:    0.0000
     atom:    3    charge:    3.0692    magn:    0.0000    constr:    0.0000
     atom:    4    charge:    3.0692    magn:    0.0000    constr:    0.0000
     atom:    5    charge:    9.3611    magn:   -0.0013    constr:    0.0000
     atom:    6    charge:    9.3610    magn:   -0.0013    constr:    0.0000
     atom:    7    charge:    3.0737    magn:    0.0000    constr:    0.0000
     atom:    8    charge:    3.0737    magn:    0.0000    constr:    0.0000
     atom:    9    charge:    9.3664    magn:    0.0003    constr:    0.0000
     atom:   10    charge:    9.3665    magn:    0.0004    constr:    0.0000
     atom:   11    charge:    3.0707    magn:    0.0000    constr:    0.0000
     atom:   12    charge:    3.0707    magn:    0.0000    constr:    0.0000

     End of self-consistent calculation

 ------ SPIN UP ------------

[...]

 ------ SPIN DOWN ----------

[...]

          k = 0.0607-0.0534 0.0000 ( 17673 PWs)   bands (ev):

[...]

          k =-0.0911-0.0646 0.0000 ( 17736 PWs)   bands (ev):

  -102.1717-102.1712-102.1129-102.1126-102.0327-102.0322 -62.6064 -62.6008
   -62.5889 -62.5883 -62.5804 -62.5788 -62.5502 -62.5496 -62.5421 -62.5366
   -62.5225 -62.5216 -62.4690 -62.4635 -62.4405 -62.4400 -62.3345 -62.3339
   -14.3122 -14.2303 -14.2274 -14.1970 -14.1842 -14.1795 -14.1445 -14.0786
   -14.0724 -14.0355 -14.0278 -14.0245 -14.0093 -14.0088 -13.9987 -13.9573
   -13.9537 -13.9511 -13.9390 -13.9371 -13.9234 -13.9121 -13.8841 -13.8763
   -13.8506 -13.8491 -13.8291 -13.7500 -13.7366 -13.6745  -6.8650  -6.6880
    -5.4107  -5.2441  -4.3251  -4.1537  -3.7585  -2.7668  -2.6492  -2.1539
    -1.9867  -1.8406  -1.6635  -1.3503  -1.2216  -1.1310  -1.1157  -1.0975
    -1.0597  -1.0097  -0.8439  -0.8386  -0.8364  -0.7728  -0.7718  -0.6062
    -0.5766  -0.4408  -0.3704  -0.3532  -0.3374  -0.3203  -0.2356  -0.1225
    -0.1002  -0.0840   0.2036   0.2523   0.4251   0.5159   0.8797   1.7038
     1.8889   2.5593   3.7098   4.0100   4.6718   4.8111   4.8501   5.0135
     5.4813   5.5794   6.1102   6.1792   6.1839   6.3063   6.5233   6.6991
     6.8294   6.8729   6.8978   7.2732   7.4322   7.7386   7.7670   7.9677
     8.1255   8.1513   8.1863

     the Fermi energy is     0.6521 ev

!    total energy              =   -2875.21558300 Ry
     Harris-Foulkes estimate   =   -2875.21557322 Ry
     estimated scf accuracy    <       0.00000066 Ry

     The total energy is the sum of the following terms:

     one-electron contribution =  -19427.12553227 Ry
     hartree contribution      =    9761.29765141 Ry
     xc contribution           =    -456.05759041 Ry
     ewald contribution        =    7246.71573514 Ry
     electric field correction =       0.00001072 Ry
     smearing contrib. (-TS)   =      -0.04585759 Ry

     total magnetization       =     0.00 Bohr mag/cell
     absolute magnetization    =     0.01 Bohr mag/cell

     convergence has been achieved in  33 iterations

 BEEF-vdW xc energy contributions
           1 :   -400.707286687692
           2 :    364.996212175786
           3 :   -304.795443976109
           4 :    237.289273991902
           5 :   -178.206451965119
           6 :    136.026773247745
           7 :   -110.395695789383
           8 :    94.8669947738793
           9 :   -81.8815244458697
          10 :    66.9985403049122
          11 :   -50.3087899957447
          12 :    34.8762046914741
          13 :   -23.7982421850828
          14 :    17.9559713475625
          15 :   -15.7033291724568
          16 :    14.2772934631885
          17 :   -11.6777596498991
          18 :    7.69527572413591
          19 :   -3.58072956340794
          20 :   0.823292264083932
          21 :  -1.938128561818075E-002
          22 :   0.570461256410738
          23 :   -1.26993473640363
          24 :    1.21237446142726
          25 :  -0.338616205486801
          26 :  -0.712351204950153
          27 :    1.22072804275456
          28 :  -0.954893023661384
          29 :   0.280578552806901
          30 :   0.198324459471394
          31 :   -34.7920315028156
          32 :   -24.8878740510764

     Forces acting on atoms (Ry/au):

     negative rho (up, down):  7.734E-04 7.733E-04
     atom    1 type  1   force =    -0.00003363   -0.00002378    0.02139724
     atom    2 type  1   force =    -0.00007260   -0.00005144    0.02140370
     atom    3 type  2   force =     0.00066352    0.00048973   -0.02900013
     atom    4 type  2   force =     0.00068125    0.00046472   -0.02900014
     atom    5 type  1   force =     0.00004275    0.00003025    0.01211291
     atom    6 type  1   force =     0.00005095    0.00003623    0.01211900
     atom    7 type  2   force =    -0.00032730   -0.00025819   -0.00467899
     atom    8 type  2   force =    -0.00035164   -0.00022367   -0.00467849
     atom    9 type  1   force =     0.00059124    0.00041914   -0.00050347
     atom   10 type  1   force =     0.00069665    0.00049466   -0.00046081
     atom   11 type  2   force =    -0.00093542   -0.00073928    0.00064470
     atom   12 type  2   force =    -0.00100576   -0.00063837    0.00064449

     Total force =     0.054245     Total SCF correction =     0.001277

     entering subroutine stress ...

     negative rho (up, down):  7.734E-04 7.733E-04
          total   stress  (Ry/bohr**3)                   (kbar)     P=  -38.23
  -0.00031453  -0.00002040  -0.00000154        -46.27     -3.00     -0.23
  -0.00002040  -0.00030027  -0.00000109         -3.00    -44.17     -0.16
  -0.00000154  -0.00000109  -0.00016478         -0.23     -0.16    -24.24

 !ASE

     Writing output data file calc.save

     General routines

     Parallel routines

   This run was terminated on:  22:41:23  18Dec2018

   JOB DONE.
Job  /afs/slac/g/suncat/bin/suncat-tsmpirun -x LD_LIBRARY_PATH -wdir /scratch/qe530351_HzlRn pw.x -in pw.inp

TID   HOST_NAME   COMMAND_LINE            STATUS            TERMINATION_TIME
00000 suncat2063 pw.x -in pw.inp   Done                     12/18/2018 22:41:23
00001 suncat2063 pw.x -in pw.inp   Done                     12/18/2018 22:41:23
00002 suncat2063 pw.x -in pw.inp   Done                     12/18/2018 22:41:23
00003 suncat2063 pw.x -in pw.inp   Done                     12/18/2018 22:41:23
00004 suncat2063 pw.x -in pw.inp   Done                     12/18/2018 22:41:23
00005 suncat2063 pw.x -in pw.inp   Done                     12/18/2018 22:41:23
00006 suncat2063 pw.x -in pw.inp   Done                     12/18/2018 22:41:23
00007 suncat2063 pw.x -in pw.inp   Done                     12/18/2018 22:41:23
00008 suncat2063 pw.x -in pw.inp   Done                     12/18/2018 22:41:23
00009 suncat2063 pw.x -in pw.inp   Done                     12/18/2018 22:41:23
00010 suncat2063 pw.x -in pw.inp   Done                     12/18/2018 22:41:23
00011 suncat2063 pw.x -in pw.inp   Done                     12/18/2018 22:41:23
00012 suncat2063 pw.x -in pw.inp   Done                     12/18/2018 22:41:23
00013 suncat2063 pw.x -in pw.inp   Done                     12/18/2018 22:41:23
00014 suncat2063 pw.x -in pw.inp   Done                     12/18/2018 22:41:23
00015 suncat2063 pw.x -in pw.inp   Done                     12/18/2018 22:41:23
00016 suncat2042 pw.x -in pw.inp   Done                     12/18/2018 22:41:23
00017 suncat2042 pw.x -in pw.inp   Done                     12/18/2018 22:41:23
00018 suncat2042 pw.x -in pw.inp   Done                     12/18/2018 22:41:23
00019 suncat2042 pw.x -in pw.inp   Done                     12/18/2018 22:41:23
00020 suncat2042 pw.x -in pw.inp   Done                     12/18/2018 22:41:23
00021 suncat2042 pw.x -in pw.inp   Done                     12/18/2018 22:41:23
00022 suncat2042 pw.x -in pw.inp   Done                     12/18/2018 22:41:23
00023 suncat2042 pw.x -in pw.inp   Done                     12/18/2018 22:41:23
00024 suncat2042 pw.x -in pw.inp   Done                     12/18/2018 22:41:23
00025 suncat2042 pw.x -in pw.inp   Done                     12/18/2018 22:41:23
00026 suncat2042 pw.x -in pw.inp   Done                     12/18/2018 22:41:23
00027 suncat2042 pw.x -in pw.inp   Done                     12/18/2018 22:41:23
00028 suncat2042 pw.x -in pw.inp   Done                     12/18/2018 22:41:23
00029 suncat2042 pw.x -in pw.inp   Done                     12/18/2018 22:41:23
00030 suncat2042 pw.x -in pw.inp   Done                     12/18/2018 22:41:23
00031 suncat2042 pw.x -in pw.inp   Done                     12/18/2018 22:41:23