     Program PWSCF v.5.1rc2 (svn rev. 11289) starts on 19Dec2018 at  2:23: 2

     Current dimensions of program PWSCF are:
     Max number of different atomic species (ntypx) = 10
     Max number of k-points (npk) =  40000
     Max angular momentum in pseudopotentials (lmaxx) =  3
     Presently stress not available with electric field

     IMPORTANT: XC functional enforced from input :
     Exchange-correlation      = BEEF-VDW ( 1  4 27 13 2)
     Any further DFT definition will be discarded
     Please, verify this is what you really want

     Subspace diagonalization in iterative solution of the eigenvalue problem:
     a serial algorithm will be used

     Found symmetry operation: I + ( -0.5000 -0.5000  0.0000)
     This is a supercell, fractional translations are disabled

     bravais-lattice index     =            0
     lattice parameter (alat)  =       1.8897  a.u.
     unit-cell volume          =    5405.9485 (a.u.)^3
     number of atoms/cell      =           12
     number of atomic types    =            2
     number of electrons       =       174.00
     number of Kohn-Sham states=          117
     kinetic-energy cutoff     =      36.7493  Ry
     charge density cutoff     =     367.4932  Ry
     convergence threshold     =      1.0E-06
     mixing beta               =       0.1000
     number of iterations used =           10  plain     mixing
     Exchange-correlation      = BEEF-VDW ( 1  4 27 13 2)
     nstep                     =           50

     celldm(1)=   1.889726  celldm(2)=   0.000000  celldm(3)=   0.000000
     celldm(4)=   0.000000  celldm(5)=   0.000000  celldm(6)=   0.000000

     crystal axes: (cart. coord. in units of alat)
               a(1) = (   5.856389   0.000000   0.000000 )
               a(2) = (   1.958332   5.519260   0.000000 )
               a(3) = (   0.000000   0.000000  24.783607 )

     reciprocal axes: (cart. coord. in units 2 pi/alat)
               b(1) = (  0.170754 -0.060586  0.000000 )
               b(2) = (  0.000000  0.181184  0.000000 )
               b(3) = (  0.000000  0.000000  0.040349 )

     PseudoPot. # 1 for Re read from file:
     /afs/slac.stanford.edu/u/if/mamunm/psp/gbrv1.5pbe/Re.UPF
     MD5 check sum: 85f993410f3e006da9d71c142b4ad953
     Pseudo is Ultrasoft + core correction, Zval = 15.0
     Generated by new atomic code, or converted to UPF format
     Using radial grid of  981 points,  8 beta functions with:
                l(1) =   0
                l(2) =   0
                l(3) =   1
                l(4) =   1
                l(5) =   2
                l(6) =   2
                l(7) =   3
                l(8) =   3
     Q(r) pseudized with  8 coefficients,  rinner =    1.150   1.150   1.150
                                                       1.150   1.150   1.150
                                                       1.150

     PseudoPot. # 2 for Pb read from file:
     /afs/slac.stanford.edu/u/if/mamunm/psp/gbrv1.5pbe/Pb.UPF
     MD5 check sum: 3d1c1779aa92214d1e8f3a7db79003e2
     Pseudo is Ultrasoft + core correction, Zval = 14.0
     Generated by new atomic code, or converted to UPF format
     Using radial grid of  899 points,  6 beta functions with:
                l(1) =   0
                l(2) =   0
                l(3) =   1
                l(4) =   1
                l(5) =   2
                l(6) =   2
     Q(r) pseudized with  6 coefficients,  rinner =    1.000   1.000   1.000
                                                       1.000   1.000

     vdW kernel table read from file vdW_kernel_table
     MD5 check sum: 095c7af220d748ca6e76c0b4c6cfb241

     atomic species   valence    mass     pseudopotential
        Re1           15.00   186.20700     Re( 1.00)
        Pb1           14.00   207.20000     Pb( 1.00)

     No symmetry found

   Cartesian axes

     site n.     atom                  positions (alat units)
         1           Re1 tau(   1) = (   0.0000000   0.0000000  10.0000000  )
         2           Re1 tau(   2) = (   3.9073609   2.7596300  10.0000000  )
         3           Pb1 tau(   3) = (   2.9281947   0.0000000  10.0000000  )
         4           Pb1 tau(   4) = (   0.9791662   2.7596300  10.0000000  )
         5           Re1 tau(   5) = (   5.8563894   4.1361594  12.3918036  )
         6           Re1 tau(   6) = (   1.9490285   1.3765295  12.3918036  )
         7           Pb1 tau(   7) = (   2.9281947   4.1361594  12.3918036  )
         8           Pb1 tau(   8) = (   4.8772231   1.3765295  12.3918036  )
         9           Re1 tau(   9) = (   3.8980569   2.7530589  14.7836071  )
        10           Re1 tau(  10) = (   7.8054178   5.5126889  14.7836071  )
        11           Pb1 tau(  11) = (   6.8262516   2.7530589  14.7836071  )
        12           Pb1 tau(  12) = (   4.8772231   5.5126889  14.7836071  )

     number of k points=    20  Fermi-Dirac smearing, width (Ry)=  0.0110
                       cart. coord. in units 2pi/alat
        k(    1) = (   0.0000000   0.0000000   0.0000000), wk =   0.0555556
        k(    2) = (   0.0000000   0.0301973   0.0000000), wk =   0.1111111
        k(    3) = (   0.0000000   0.0603946   0.0000000), wk =   0.1111111
        k(    4) = (   0.0000000  -0.0905919   0.0000000), wk =   0.0555556
        k(    5) = (   0.0284589  -0.0100977   0.0000000), wk =   0.1111111
        k(    6) = (   0.0284589   0.0200995   0.0000000), wk =   0.1111111
        k(    7) = (   0.0284589   0.0502968   0.0000000), wk =   0.1111111
        k(    8) = (   0.0284589  -0.1006896   0.0000000), wk =   0.1111111
        k(    9) = (   0.0284589  -0.0704923   0.0000000), wk =   0.1111111
        k(   10) = (   0.0284589  -0.0402950   0.0000000), wk =   0.1111111
        k(   11) = (   0.0569179  -0.0201955   0.0000000), wk =   0.1111111
        k(   12) = (   0.0569179   0.0100018   0.0000000), wk =   0.1111111
        k(   13) = (   0.0569179   0.0401991   0.0000000), wk =   0.1111111
        k(   14) = (   0.0569179  -0.1107873   0.0000000), wk =   0.1111111
        k(   15) = (   0.0569179  -0.0805901   0.0000000), wk =   0.1111111
        k(   16) = (   0.0569179  -0.0503928   0.0000000), wk =   0.1111111
        k(   17) = (  -0.0853768   0.0302932   0.0000000), wk =   0.0555556
        k(   18) = (  -0.0853768   0.0604905   0.0000000), wk =   0.1111111
        k(   19) = (  -0.0853768   0.0906878   0.0000000), wk =   0.1111111
        k(   20) = (  -0.0853768  -0.0602986   0.0000000), wk =   0.0555556

     Largest allocated arrays     est. size (Mb)     dimensions
     Largest temporary arrays     est. size (Mb)     dimensions

     Initial potential from superposition of free atoms
     Check: negative starting charge=   -0.878849

     starting charge  170.98562, renormalised to  174.00000

     negative rho (up, down):  8.943E-01 0.000E+00

     *
     * You are using vdW-DF for exchange-correlation in this calculation.
     * Please cite the following three references that made this development
     * possible:
     *
     *   M. Dion, H. Rydberg, E. Schroder, D. C. Langreth, and
     *   B. I. Lundqvist, Phys. Rev. Lett. 92, 246401 (2004).
     *
     *   T. Thonhauser, V. R. Cooper, S. Li, A. Puzder, P. Hyldgaard, and
     *   D. C. Langreth, Phys. Rev. B 76, 125112 (2007).
     *
     *   G. Roman-Perez and J. M. Soler, Phys. Rev. Lett. 103, 096102 (2009).
     *
     *
     * If you are using vdW-DF2, please also cite:
     *
     *   K. Lee, E. D. Murray, L. Kong, B. I. Lundqvist, and
     *   D. C. Langreth, Phys. Rev. B 82, 081101(R) (2010).
     *
     *
     * If you are calculating the stress with vdW-DF, please also cite:
     *
     *   R. Sabatini, E. Kucukbenli, B. Kolb, T. Thonhauser, and
     *   S. de Gironcoli, J. Phys.: Condens. Matter 24, 424209 (2012).
     *

     Carrying out vdW-DF run using the following parameters:

     Nqs =      20    Nr_points =    1024   r_max =   100.000
     q_mesh =
               0.00001000     0.04494208     0.09755937     0.15916263
               0.23128650     0.31572767     0.41458969     0.53033537
               0.66584808     0.82450364     1.01025438     1.22772762
               1.48234092     1.78043706     2.12944203     2.53805004
               3.01644009     3.57652955     4.23227104     5.00000000

     Gradients computed in reciprocal space

     Adding external electric field

     Computed dipole along edir(3) :
        Dipole                0.0000 Ry au,          0.0000 Debye
        Dipole field          0.0000 Ry au

        Potential amp.       -0.0000 Ry
        Total length         45.6634 bohr

     Starting wfc are  132 randomized atomic wfcs

     Self-consistent Calculation

     iteration #  1     ecut=    36.75 Ry     beta=0.10
     Davidson diagonalization with overlap
     ethr =  1.00E-02,  avg # of iterations =  6.7

     Threshold (ethr) on eigenvalues was too large:
     Diagonalizing with lowered threshold

     Davidson diagonalization with overlap
     ethr =  7.00E-04,  avg # of iterations =  5.8

[...]

     total energy              =   -2147.99632352 Ry
     Harris-Foulkes estimate   =   -2148.20080208 Ry
     estimated scf accuracy    <       1.24890843 Ry

[...]

     End of self-consistent calculation

          k = 0.0000 0.0000 0.0000 ( 20347 PWs)   bands (ev):

   -78.1924 -78.1916 -78.1898 -78.1897 -78.1893 -78.1881 -40.0151 -40.0149
   -39.9651 -39.9609 -39.9445 -39.9444 -39.9348 -39.9315 -39.9280 -39.8774
   -39.8748 -39.8713 -39.8712 -39.8681 -39.8649 -39.8598 -39.8586 -39.8541
   -15.2806 -15.2376 -15.2077 -15.1959 -15.1866 -15.1578 -15.1289 -15.0983
   -15.0980 -15.0911 -15.0657 -15.0539 -15.0532 -15.0505 -15.0324 -15.0306
   -14.9895 -14.9835 -14.9775 -14.9451 -14.9449 -14.9344 -14.9295 -14.9285
   -14.9268 -14.9198 -14.7924 -14.7864 -14.7806 -14.7425  -9.7208  -8.1148
    -6.7548  -6.5703  -6.1188  -6.1165  -2.2178  -2.1071  -1.4623  -1.3139
    -1.1641  -0.9498  -0.7208  -0.6152  -0.3269  -0.1364   0.0730   0.0743
     0.2495   0.5476   0.6967   0.8677   0.9319   0.9392   1.2462   1.3382
     1.4612   1.4796   1.4811   1.5528   1.6864   1.6923   1.9096   1.9577
     1.9916   2.0288   2.2675   2.3031   2.7794   2.9272   3.0652   3.2373
     3.6390   3.7246   3.7513   4.0395   4.1616   4.3561   4.4765   4.6907
     4.8005   5.3898   5.6366   5.6922   5.8592   6.3959   6.4969   6.6464
     6.6901   7.3216   7.3664   7.9289   8.2438

[...]

          k =-0.0854 0.0303 0.0000 ( 20324 PWs)   bands (ev):

[...]

     the Fermi energy is     1.9623 ev

!    total energy              =   -2147.91122469 Ry
     Harris-Foulkes estimate   =   -2147.91128812 Ry
     estimated scf accuracy    <       0.00000015 Ry

     The total energy is the sum of the following terms:

     one-electron contribution =  -13627.93086103 Ry
     hartree contribution      =    6843.12362944 Ry
     xc contribution           =    -716.83088627 Ry
     ewald contribution        =    5353.81816429 Ry
     electric field correction =       0.00000000 Ry
     smearing contrib. (-TS)   =      -0.09127113 Ry

     convergence has been achieved in  19 iterations

 BEEF-vdW xc energy contributions
           1 :   -638.442092564614
[...]

     Program PWSCF v.5.1rc2 (svn rev. 11289) starts on 19Dec2018 at  2:42:39

[...]

     Found symmetry operation: I + ( -0.5000 -0.5000  0.0000)
     This is a supercell, fractional translations are disabled

[...]

   This run was terminated on:   3:18: 9  19Dec2018

[...]

     Program PWSCF v.5.1rc2 (svn rev. 11289) starts on 19Dec2018 at  3:37: 6

[...]

   This run was terminated on:   3:56: 9  19Dec2018

[...]

     Program PWSCF v.5.1rc2 (svn rev. 11289) starts on 19Dec2018 at  3:56:15

     Current dimensions of program PWSCF are:
     Max number of different atomic species (ntypx) = 10
     Max number of k-points (npk) =  40000
     Max angular momentum in pseudopotentials (lmaxx) =  3
     Presently stress not available with electric field

     IMPORTANT: XC functional enforced from input :
     Exchange-correlation      = BEEF-VDW ( 1  4 27 13 2)
     Any further DFT definition will be discarded
     Please, verify this is what you really want

     Subspace diagonalization in iterative solution of the eigenvalue problem:
     a serial algorithm will be used

     bravais-lattice index     =            0
     lattice parameter (alat)  =       1.8897  a.u.
     unit-cell volume          =    5405.9485 (a.u.)^3
     number of atoms/cell      =           12
     number of atomic types    =            2
     number of electrons       =       174.00
     number of Kohn-Sham states=          117
     kinetic-energy cutoff     =      36.7493  Ry
     charge density cutoff     =     367.4932  Ry
     convergence threshold     =      1.0E-06
     mixing beta               =       0.1000
     number of iterations used =           10  plain     mixing
     Exchange-correlation      = BEEF-VDW ( 1  4 27 13 2)
     nstep                     =           50

     celldm(1)=   1.889726  celldm(2)=   0.000000  celldm(3)=   0.000000
     celldm(4)=   0.000000  celldm(5)=   0.000000  celldm(6)=   0.000000

     crystal axes: (cart. coord. in units of alat)
               a(1) = (   5.856389   0.000000   0.000000 )
               a(2) = (   1.958332   5.519260   0.000000 )
               a(3) = (   0.000000   0.000000  24.783607 )

     reciprocal axes: (cart. coord. in units 2 pi/alat)
               b(1) = (  0.170754 -0.060586  0.000000 )
               b(2) = (  0.000000  0.181184  0.000000 )
               b(3) = (  0.000000  0.000000  0.040349 )

     PseudoPot. # 1 for Re read from file:
     /afs/slac.stanford.edu/u/if/mamunm/psp/gbrv1.5pbe/Re.UPF
     MD5 check sum: 85f993410f3e006da9d71c142b4ad953
     Pseudo is Ultrasoft + core correction, Zval = 15.0
     Generated by new atomic code, or converted to UPF format
     Using radial grid of  981 points,  8 beta functions with:
                l(1) =   0
                l(2) =   0
                l(3) =   1
                l(4) =   1
                l(5) =   2
                l(6) =   2
                l(7) =   3
                l(8) =   3
     Q(r) pseudized with  8 coefficients,  rinner =    1.150   1.150   1.150
                                                       1.150   1.150   1.150
                                                       1.150

     PseudoPot. # 2 for Pb read from file:
     /afs/slac.stanford.edu/u/if/mamunm/psp/gbrv1.5pbe/Pb.UPF
     MD5 check sum: 3d1c1779aa92214d1e8f3a7db79003e2
     Pseudo is Ultrasoft + core correction, Zval = 14.0
     Generated by new atomic code, or converted to UPF format
     Using radial grid of  899 points,  6 beta functions with:
                l(1) =   0
                l(2) =   0
                l(3) =   1
                l(4) =   1
                l(5) =   2
                l(6) =   2
     Q(r) pseudized with  6 coefficients,  rinner =    1.000   1.000   1.000
                                                       1.000   1.000

     vdW kernel table read from file vdW_kernel_table
     MD5 check sum: 095c7af220d748ca6e76c0b4c6cfb241

     atomic species   valence    mass     pseudopotential
        Re1           15.00   186.20700     Re( 1.00)
        Pb1           14.00   207.20000     Pb( 1.00)

     No symmetry found

   Cartesian axes

     site n.     atom                  positions (alat units)
         1           Re1 tau(   1) = (   0.0000000   0.0000000  10.0000000  )
         2           Re1 tau(   2) = (   3.9073609   2.7596300  10.0000000  )
         3           Pb1 tau(   3) = (   2.9281947   0.0000000  10.0000000  )
         4           Pb1 tau(   4) = (   0.9791662   2.7596300  10.0000000  )
         5           Re1 tau(   5) = (   5.8563894   4.1361594  12.3918036  )
         6           Re1 tau(   6) = (   1.9490285   1.3765295  12.3918036  )
         7           Pb1 tau(   7) = (   2.9281947   4.1361594  12.3918036  )
         8           Pb1 tau(   8) = (   4.8772231   1.3765295  12.3918036  )
         9           Re1 tau(   9) = (   3.8970149   2.7522925  14.5241667  )
        10           Re1 tau(  10) = (   7.8047151   5.5122074  14.5241182  )
        11           Pb1 tau(  11) = (   6.8262774   2.7531302  15.1045058  )
        12           Pb1 tau(  12) = (   4.8772501   5.5125671  15.1044877  )

     number of k points=    20  Fermi-Dirac smearing, width (Ry)=  0.0110
                       cart. coord. in units 2pi/alat
        k(    1) = (   0.0000000   0.0000000   0.0000000), wk =   0.0555556
        k(    2) = (   0.0000000   0.0301973   0.0000000), wk =   0.1111111
        k(    3) = (   0.0000000   0.0603946   0.0000000), wk =   0.1111111
        k(    4) = (   0.0000000  -0.0905919   0.0000000), wk =   0.0555556
        k(    5) = (   0.0284589  -0.0100977   0.0000000), wk =   0.1111111
        k(    6) = (   0.0284589   0.0200995   0.0000000), wk =   0.1111111
        k(    7) = (   0.0284589   0.0502968   0.0000000), wk =   0.1111111
        k(    8) = (   0.0284589  -0.1006896   0.0000000), wk =   0.1111111
        k(    9) = (   0.0284589  -0.0704923   0.0000000), wk =   0.1111111
        k(   10) = (   0.0284589  -0.0402950   0.0000000), wk =   0.1111111
        k(   11) = (   0.0569179  -0.0201955   0.0000000), wk =   0.1111111
        k(   12) = (   0.0569179   0.0100018   0.0000000), wk =   0.1111111
        k(   13) = (   0.0569179   0.0401991   0.0000000), wk =   0.1111111
        k(   14) = (   0.0569179  -0.1107873   0.0000000), wk =   0.1111111
        k(   15) = (   0.0569179  -0.0805901   0.0000000), wk =   0.1111111
        k(   16) = (   0.0569179  -0.0503928   0.0000000), wk =   0.1111111
        k(   17) = (  -0.0853768   0.0302932   0.0000000), wk =   0.0555556
        k(   18) = (  -0.0853768   0.0604905   0.0000000), wk =   0.1111111
        k(   19) = (  -0.0853768   0.0906878   0.0000000), wk =   0.1111111
        k(   20) = (  -0.0853768  -0.0602986   0.0000000), wk =   0.0555556

     Largest allocated arrays     est. size (Mb)     dimensions
     Largest temporary arrays     est. size (Mb)     dimensions

     Initial potential from superposition of free atoms
     Check: negative starting charge=   -0.876744

     starting charge  170.98562, renormalised to  174.00000

[...]

     *
     * You are using vdW-DF for exchange-correlation in this calculation.
     * Please cite the following three references that made this development
     * possible:
     *
     *   M. Dion, H. Rydberg, E. Schroder, D. C. Langreth, and
     *   B. I. Lundqvist, Phys. Rev. Lett. 92, 246401 (2004).
     *
     *   T. Thonhauser, V. R. Cooper, S. Li, A. Puzder, P. Hyldgaard, and
     *   D. C. Langreth, Phys. Rev. B 76, 125112 (2007).
     *
     *   G. Roman-Perez and J. M. Soler, Phys. Rev. Lett. 103, 096102 (2009).
     *
     *
     * If you are using vdW-DF2, please also cite:
     *
     *   K. Lee, E. D. Murray, L. Kong, B. I. Lundqvist, and
     *   D. C. Langreth, Phys. Rev. B 82, 081101(R) (2010).
     *
     *
     * If you are calculating the stress with vdW-DF, please also cite:
     *
     *   R. Sabatini, E. Kucukbenli, B. Kolb, T. Thonhauser, and
     *   S. de Gironcoli, J. Phys.: Condens. Matter 24, 424209 (2012).
     *

     Carrying out vdW-DF run using the following parameters:

     Nqs =      20    Nr_points =    1024   r_max =   100.000
     q_mesh =
               0.00001000     0.04494208     0.09755937     0.15916263
               0.23128650     0.31572767     0.41458969     0.53033537
               0.66584808     0.82450364     1.01025438     1.22772762
               1.48234092     1.78043706     2.12944203     2.53805004
               3.01644009     3.57652955     4.23227104     5.00000000

     Gradients computed in reciprocal space

[...]

     Starting wfc are  132 randomized atomic wfcs

     Self-consistent Calculation

[...]

     total energy              =   -2147.97245939 Ry
     Harris-Foulkes estimate   =   -2147.97246043 Ry
     estimated scf accuracy    <       0.00000107 Ry

     iteration # 19     ecut=    36.75 Ry     beta=0.10
     Davidson diagonalization with overlap
     ethr =  6.18E-10,  avg # of iterations =  4.2

[...]

     negative rho (up, down):  8.703E-01 0.000E+00

     Adding external electric field

     Computed dipole along edir(3) :
        Dipole                0.0952 Ry au,          0.2420 Debye
        Dipole field          0.0002 Ry au

        Potential amp.       -0.0202 Ry
        Total length         45.6634 bohr

     End of self-consistent calculation

[...]

          k = 0.0569-0.0504 0.0000 ( 20336 PWs)   bands (ev):

[...]

          k =-0.0854-0.0603 0.0000 ( 20294 PWs)   bands (ev):

   -78.1445 -78.1427 -78.1011 -78.0992 -78.0943 -78.0923 -39.9464 -39.9322
   -39.9316 -39.9210 -39.8732 -39.8655 -39.8612 -39.8512 -39.8501 -39.7846
   -39.7817 -39.7788 -39.7767 -39.7766 -39.7724 -39.7680 -39.7649 -39.7641
   -15.1852 -15.1268 -15.1067 -15.0753 -15.0638 -15.0554 -15.0412 -15.0243
   -14.9944 -14.9890 -14.9507 -14.9475 -14.9402 -14.9319 -14.9198 -14.8918
   -14.8735 -14.8715 -14.8584 -14.8508 -14.8488 -14.8414 -14.8269 -14.8254
   -14.8218 -14.8121 -14.8007 -14.7204 -14.7155 -14.6568  -8.0597  -7.5938
    -6.9659  -6.9181  -5.6518  -4.5789  -4.0823  -3.9672  -3.2803  -2.3974
    -2.1159  -2.0704  -1.9615  -1.2211  -0.8742  -0.2262  -0.1503  -0.1080
     0.0133   0.1169   0.4719   0.4855   0.4913   0.6004   0.8313   1.1626
     1.2856   1.3196   1.6949   1.7624   2.1386   2.1632   2.2273   2.3459
     2.3760   2.4386   2.6036   2.9377   3.2903   3.4902   3.5901   3.7567
     3.8493   4.1485   4.5940   4.6366   5.6822   5.7269   5.8963   6.6109
     6.7457   7.1108   7.2142   7.3070   7.4174   7.7480   7.8611   7.9489
     8.1269   8.3502   8.4052   8.4318   8.5428

     the Fermi energy is     2.0724 ev

!    total energy              =   -2147.97240141 Ry
     Harris-Foulkes estimate   =   -2147.97245963 Ry
     estimated scf accuracy    <       0.00000035 Ry

     The total energy is the sum of the following terms:

     one-electron contribution =  -13565.04416483 Ry
     hartree contribution      =    6812.14092777 Ry
     xc contribution           =    -716.75970373 Ry
     ewald contribution        =    5321.77998919 Ry
     electric field correction =       0.00002107 Ry
     smearing contrib. (-TS)   =      -0.08947089 Ry

     convergence has been achieved in  19 iterations

 BEEF-vdW xc energy contributions
           1 :   -638.371479536726
           2 :    593.434739319373
           3 :   -513.425402729583
           4 :    414.581860477109
           5 :   -314.326981377373
           6 :    226.413597481047
           7 :   -157.978744706550
           8 :    109.244319043142
           9 :   -75.5784242293998
          10 :    50.7497762708235
          11 :   -29.8907291849036
          12 :    11.0283077066006
          13 :    5.14079020877671
          14 :   -16.7235116063158
          15 :    22.3735762933292
          16 :   -22.3946246008541
          17 :    18.7659557944473
          18 :   -14.2523213315459
          19 :    11.1764636551095
          20 :   -10.5200425500559
          21 :    11.7657492450319
          22 :   -13.4696130001876
          23 :    14.1821205923873
          24 :   -13.2139357824192
          25 :    10.8879328283076
          26 :   -8.22817802052896
          27 :    6.32494890279918
          28 :   -5.74888139152699
          29 :    6.31263848879701
          30 :   -7.26302090602701
          31 :   -51.8704310918131
          32 :   -38.2685295080005

     Forces acting on atoms (Ry/au):

     negative rho (up, down):  8.703E-01 0.000E+00
     atom    1 type  1   force =     0.00008014    0.00005797    0.06594167
     atom    2 type  1   force =     0.00008139    0.00006165    0.06594506
     atom    3 type  2   force =    -0.00029138   -0.00020796   -0.05243400
     atom    4 type  2   force =    -0.00028953   -0.00020294   -0.05244955
     atom    5 type  1   force =    -0.00000663   -0.00000361    0.03323713
     atom    6 type  1   force =     0.00001020    0.00000547    0.03327659
     atom    7 type  2   force =     0.00035500    0.00026912   -0.04571527
     atom    8 type  2   force =     0.00037050    0.00023704   -0.04571301
     atom    9 type  1   force =    -0.00017383   -0.00013100   -0.00080987
     atom   10 type  1   force =    -0.00021095   -0.00014016   -0.00078997
     atom   11 type  2   force =     0.00003483    0.00002730   -0.00024734
     atom   12 type  2   force =     0.00004026    0.00002713   -0.00024146

     Total force =     0.143496     Total SCF correction =     0.002839

     entering subroutine stress ...

     negative rho (up, down):  8.703E-01 0.000E+00
          total   stress  (Ry/bohr**3)                   (kbar)     P=  -20.35
  -0.00020287  -0.00003659   0.00000008        -29.84     -5.38      0.01
  -0.00003659  -0.00017690   0.00000006         -5.38    -26.02      0.01
   0.00000008   0.00000006  -0.00003524          0.01      0.01     -5.18

 !ASE

     Writing output data file calc.save

     General routines

     Parallel routines

   This run was terminated on:   4:14:44  19Dec2018

   JOB DONE.
Job  /afs/slac/g/suncat/bin/suncat-tsmpirun -x LD_LIBRARY_PATH -wdir /scratch/qe530453_8eRez pw.x -in pw.inp

TID   HOST_NAME   COMMAND_LINE            STATUS            TERMINATION_TIME
00000 suncat2071 pw.x -in pw.inp   Done                     12/19/2018 04:14:44
00001 suncat2071 pw.x -in pw.inp   Done                     12/19/2018 04:14:44
00002 suncat2071 pw.x -in pw.inp   Done                     12/19/2018 04:14:44
00003 suncat2071 pw.x -in pw.inp   Done                     12/19/2018 04:14:44
00004 suncat2071 pw.x -in pw.inp   Done                     12/19/2018 04:14:44
00005 suncat2071 pw.x -in pw.inp   Done                     12/19/2018 04:14:44
00006 suncat2071 pw.x -in pw.inp   Done                     12/19/2018 04:14:44
00007 suncat2071 pw.x -in pw.inp   Done                     12/19/2018 04:14:44
00008 suncat2071 pw.x -in pw.inp   Done                     12/19/2018 04:14:44
00009 suncat2071 pw.x -in pw.inp   Done                     12/19/2018 04:14:44
00010 suncat2071 pw.x -in pw.inp   Done                     12/19/2018 04:14:44
00011 suncat2071 pw.x -in pw.inp   Done                     12/19/2018 04:14:44
00012 suncat2071 pw.x -in pw.inp   Done                     12/19/2018 04:14:44
00013 suncat2071 pw.x -in pw.inp   Done                     12/19/2018 04:14:44
00014 suncat2071 pw.x -in pw.inp   Done                     12/19/2018 04:14:44
00015 suncat2071 pw.x -in pw.inp   Done                     12/19/2018 04:14:44
00016 suncat2070 pw.x -in pw.inp   Done                     12/19/2018 04:14:44
00017 suncat2070 pw.x -in pw.inp   Done                     12/19/2018 04:14:44
00018 suncat2070 pw.x -in pw.inp   Done                     12/19/2018 04:14:44
00019 suncat2070 pw.x -in pw.inp   Done                     12/19/2018 04:14:44
00020 suncat2070 pw.x -in pw.inp   Done                     12/19/2018 04:14:44
00021 suncat2070 pw.x -in pw.inp   Done                     12/19/2018 04:14:44
00022 suncat2070 pw.x -in pw.inp   Done                     12/19/2018 04:14:44
00023 suncat2070 pw.x -in pw.inp   Done                     12/19/2018 04:14:44
00024 suncat2070 pw.x -in pw.inp   Done                     12/19/2018 04:14:44
00025 suncat2070 pw.x -in pw.inp   Done                     12/19/2018 04:14:44
00026 suncat2070 pw.x -in pw.inp   Done                     12/19/2018 04:14:44
00027 suncat2070 pw.x -in pw.inp   Done                     12/19/2018 04:14:44
00028 suncat2070 pw.x -in pw.inp   Done                     12/19/2018 04:14:44
00029 suncat2070 pw.x -in pw.inp   Done                     12/19/2018 04:14:44
00030 suncat2070 pw.x -in pw.inp   Done                     12/19/2018 04:14:44
00031 suncat2070 pw.x -in pw.inp   Done                     12/19/2018 04:14:44