     Program PWSCF v.5.1rc2 (svn rev. 11289) starts on 19Dec2018 at  3:44:25

     Current dimensions of program PWSCF are:
     Max number of different atomic species (ntypx) = 10
     Max number of k-points (npk) =  40000
     Max angular momentum in pseudopotentials (lmaxx) =  3
     Presently stress not available with electric field

     IMPORTANT: XC functional enforced from input :
     Exchange-correlation      = BEEF-VDW ( 1  4 27 13 2)
     Any further DFT definition will be discarded
     Please, verify this is what you really want

     Subspace diagonalization in iterative solution of the eigenvalue problem:
     a serial algorithm will be used

     Found symmetry operation: I + ( -0.5000  0.0000  0.0000)
     This is a supercell, fractional translations are disabled

     Generating pointlists ...
     new r_m :   0.4125 (alat units)  0.7795 (a.u.) for type    1
     new r_m :   0.4125 (alat units)  0.7795 (a.u.) for type    2

     bravais-lattice index     =            0
     lattice parameter (alat)  =       1.8897  a.u.
     unit-cell volume          =    3773.8668 (a.u.)^3
     number of atoms/cell      =           12
     number of atomic types    =            2
     number of electrons       =       210.00
     number of Kohn-Sham states=          135
     kinetic-energy cutoff     =      36.7493  Ry
     charge density cutoff     =     367.4932  Ry
     convergence threshold     =      1.0E-06
     mixing beta               =       0.1000
     number of iterations used =           10  plain     mixing
     Exchange-correlation      = BEEF-VDW ( 1  4 27 13 2)
     nstep                     =           50

     celldm(1)=   1.889726  celldm(2)=   0.000000  celldm(3)=   0.000000
     celldm(4)=   0.000000  celldm(5)=   0.000000  celldm(6)=   0.000000

     crystal axes: (cart. coord. in units of alat)
               a(1) = (   5.090622   0.000000   0.000000 )
               a(2) = (  -2.545311   4.536833   0.000000 )
               a(3) = (   0.000000   0.000000  24.213985 )

     reciprocal axes: (cart. coord. in units 2 pi/alat)
               b(1) = (  0.196440  0.110209  0.000000 )
               b(2) = (  0.000000  0.220418  0.000000 )
               b(3) = (  0.000000  0.000000  0.041298 )

     PseudoPot. # 1 for Fe read from file:
     /afs/slac.stanford.edu/u/if/mamunm/psp/gbrv1.5pbe/Fe.UPF
     MD5 check sum: a130daea23fe5165f5d574ae7f82ed95
     Pseudo is Ultrasoft + core correction, Zval = 16.0
     Generated by new atomic code, or converted to UPF format
     Using radial grid of  861 points,  6 beta functions with:
                l(1) =   0
                l(2) =   0
                l(3) =   1
                l(4) =   1
                l(5) =   2
                l(6) =   2
     Q(r) pseudized with  8 coefficients,  rinner =    1.000   1.000   1.000
                                                       1.000   1.000

     PseudoPot. # 2 for Cu read from file:
     /afs/slac.stanford.edu/u/if/mamunm/psp/gbrv1.5pbe/Cu.UPF
     MD5 check sum: 6e991ff952a84172a2a52a1c1e996048
     Pseudo is Ultrasoft + core correction, Zval = 19.0
     Generated by new atomic code, or converted to UPF format
     Using radial grid of  867 points,  6 beta functions with:
                l(1) =   0
                l(2) =   0
                l(3) =   1
                l(4) =   1
                l(5) =   2
                l(6) =   2
     Q(r) pseudized with  8 coefficients,  rinner =    1.150   1.150   1.150
                                                       1.150   1.150

     vdW kernel table read from file vdW_kernel_table
     MD5 check sum: 095c7af220d748ca6e76c0b4c6cfb241

     atomic species   valence    mass     pseudopotential
        Fe1           16.00    55.84500     Fe( 1.00)
        Cu1           19.00    63.54600     Cu( 1.00)

     Starting magnetic structure
     atomic species   magnetization
        Fe1          0.125
        Cu1          0.105

     No symmetry found

   Cartesian axes

     site n.     atom                  positions (alat units)
         1           Fe1 tau(   1) = (   0.0000000   0.0000000  10.0000000  )
         2           Fe1 tau(   2) = (   2.5453111   0.0000000  10.0000000  )
         3           Cu1 tau(   3) = (   1.2726556   2.2684167  10.0000000  )
         4           Cu1 tau(   4) = (  -1.2726556   2.2684167  10.0000000  )
         5           Fe1 tau(   5) = (   2.5453111   1.4280024  12.1069926  )
         6           Fe1 tau(   6) = (  -0.0000000   1.4280024  12.1069926  )
         7           Cu1 tau(   7) = (  -1.2726556   3.6964190  12.1069926  )
         8           Cu1 tau(   8) = (   1.2726556   3.6964190  12.1069926  )
         9           Fe1 tau(   9) = (   0.0000000   2.8560047  14.2139853  )
        10           Fe1 tau(  10) = (   2.5453111   2.8560047  14.2139853  )
        11           Cu1 tau(  11) = (   3.8179667   0.5875881  14.2139853  )
        12           Cu1 tau(  12) = (   1.2726556   0.5875881  14.2139853  )

     number of k points=    40  Fermi-Dirac smearing, width (Ry)=  0.0110
                       cart. coord. in units 2pi/alat
        k(    1) = (   0.0000000   0.0000000   0.0000000), wk =   0.0277778
        k(    2) = (   0.0000000   0.0367363   0.0000000), wk =   0.0555556
        k(    3) = (   0.0000000   0.0734727   0.0000000), wk =   0.0555556
        k(    4) = (   0.0000000  -0.1102090   0.0000000), wk =   0.0277778
        k(    5) = (   0.0327399   0.0183682   0.0000000), wk =   0.0555556
        k(    6) = (   0.0327399   0.0551045   0.0000000), wk =   0.0555556
        k(    7) = (   0.0327399   0.0918409   0.0000000), wk =   0.0555556
        k(    8) = (   0.0327399  -0.0918409   0.0000000), wk =   0.0555556
        k(    9) = (   0.0327399  -0.0551045   0.0000000), wk =   0.0555556
        k(   10) = (   0.0327399  -0.0183682   0.0000000), wk =   0.0555556
        k(   11) = (   0.0654799   0.0367363   0.0000000), wk =   0.0555556
        k(   12) = (   0.0654799   0.0734727   0.0000000), wk =   0.0555556
        k(   13) = (   0.0654799   0.1102090   0.0000000), wk =   0.0555556
        k(   14) = (   0.0654799  -0.0734727   0.0000000), wk =   0.0555556
        k(   15) = (   0.0654799  -0.0367363   0.0000000), wk =   0.0555556
        k(   16) = (   0.0654799   0.0000000   0.0000000), wk =   0.0555556
        k(   17) = (  -0.0982198  -0.0551045   0.0000000), wk =   0.0277778
        k(   18) = (  -0.0982198  -0.0183682   0.0000000), wk =   0.0555556
        k(   19) = (  -0.0982198   0.0183682   0.0000000), wk =   0.0555556
        k(   20) = (  -0.0982198  -0.1653135   0.0000000), wk =   0.0277778
        k(   21) = (   0.0000000   0.0000000   0.0000000), wk =   0.0277778
        k(   22) = (   0.0000000   0.0367363   0.0000000), wk =   0.0555556
        k(   23) = (   0.0000000   0.0734727   0.0000000), wk =   0.0555556
        k(   24) = (   0.0000000  -0.1102090   0.0000000), wk =   0.0277778
        k(   25) = (   0.0327399   0.0183682   0.0000000), wk =   0.0555556
        k(   26) = (   0.0327399   0.0551045   0.0000000), wk =   0.0555556
        k(   27) = (   0.0327399   0.0918409   0.0000000), wk =   0.0555556
        k(   28) = (   0.0327399  -0.0918409   0.0000000), wk =   0.0555556
        k(   29) = (   0.0327399  -0.0551045   0.0000000), wk =   0.0555556
        k(   30) = (   0.0327399  -0.0183682   0.0000000), wk =   0.0555556
        k(   31) = (   0.0654799   0.0367363   0.0000000), wk =   0.0555556
        k(   32) = (   0.0654799   0.0734727   0.0000000), wk =   0.0555556
        k(   33) = (   0.0654799   0.1102090   0.0000000), wk =   0.0555556
        k(   34) = (   0.0654799  -0.0734727   0.0000000), wk =   0.0555556
        k(   35) = (   0.0654799  -0.0367363   0.0000000), wk =   0.0555556
        k(   36) = (   0.0654799   0.0000000   0.0000000), wk =   0.0555556
        k(   37) = (  -0.0982198  -0.0551045   0.0000000), wk =   0.0277778
        k(   38) = (  -0.0982198  -0.0183682   0.0000000), wk =   0.0555556
        k(   39) = (  -0.0982198   0.0183682   0.0000000), wk =   0.0555556
        k(   40) = (  -0.0982198  -0.1653135   0.0000000), wk =   0.0277778

     Largest allocated arrays     est. size (Mb)     dimensions
     Largest temporary arrays     est. size (Mb)     dimensions

     Check: negative/imaginary core charge=   -0.000005    0.000000

     Initial potential from superposition of free atoms
     Check: negative starting charge=(component1):   -0.000115

     starting charge  197.99995, renormalised to  210.00000

     negative rho (up, down):  1.221E-04 9.595E-05

     *
     * You are using vdW-DF for exchange-correlation in this calculation.
     * Please cite the following three references that made this development
     * possible:
     *
     *   M. Dion, H. Rydberg, E. Schroder, D. C. Langreth, and
     *   B. I. Lundqvist, Phys. Rev. Lett. 92, 246401 (2004).
     *
     *   T. Thonhauser, V. R. Cooper, S. Li, A. Puzder, P. Hyldgaard, and
     *   D. C. Langreth, Phys. Rev. B 76, 125112 (2007).
     *
     *   G. Roman-Perez and J. M. Soler, Phys. Rev. Lett. 103, 096102 (2009).
     *
     *
     * If you are using vdW-DF2, please also cite:
     *
     *   K. Lee, E. D. Murray, L. Kong, B. I. Lundqvist, and
     *   D. C. Langreth, Phys. Rev. B 82, 081101(R) (2010).
     *
     *
     * If you are calculating the stress with vdW-DF, please also cite:
     *
     *   R. Sabatini, E. Kucukbenli, B. Kolb, T. Thonhauser, and
     *   S. de Gironcoli, J. Phys.: Condens. Matter 24, 424209 (2012).
     *

     Carrying out vdW-DF run using the following parameters:

     Nqs =      20    Nr_points =    1024   r_max =   100.000
     q_mesh =
               0.00001000     0.04494208     0.09755937     0.15916263
               0.23128650     0.31572767     0.41458969     0.53033537
               0.66584808     0.82450364     1.01025438     1.22772762
               1.48234092     1.78043706     2.12944203     2.53805004
               3.01644009     3.57652955     4.23227104     5.00000000

     Gradients computed in reciprocal space

     Adding external electric field

     Computed dipole along edir(3) :
        Dipole                0.0000 Ry au,          0.0000 Debye
        Dipole field          0.0000 Ry au

        Potential amp.       -0.0000 Ry
        Total length         44.6139 bohr

[...]

     Starting wfc are  156 randomized atomic wfcs

     Self-consistent Calculation

     iteration #  1     ecut=    36.75 Ry     beta=0.10
     Davidson diagonalization with overlap
     ethr =  1.00E-02,  avg # of iterations =  7.4

[...]

     Magnetic moment per site:
     atom:    1    charge:    7.3928    magn:    0.8721    constr:    0.0000
     atom:    2    charge:    7.3928    magn:    0.8721    constr:    0.0000
     atom:    3    charge:   10.6622    magn:    1.1224    constr:    0.0000
     atom:    4    charge:   10.6622    magn:    1.1224    constr:    0.0000
     atom:    5    charge:    7.3749    magn:    0.8726    constr:    0.0000
     atom:    6    charge:    7.3749    magn:    0.8726    constr:    0.0000
     atom:    7    charge:   10.6567    magn:    1.1120    constr:    0.0000
[...]
     Generated by new atomic code, or converted to UPF format
     Using radial grid of  867 points,  6 beta functions with:
                l(1) =   0
                l(2) =   0
                l(3) =   1
                l(4) =   1
                l(5) =   2
                l(6) =   2
     Q(r) pseudized with  8 coefficients,  rinner =    1.150   1.150   1.150
                                                       1.150   1.150

     vdW kernel table read from file vdW_kernel_table
     MD5 check sum: 095c7af220d748ca6e76c0b4c6cfb241

     atomic species   valence    mass     pseudopotential
        Fe1           16.00    55.84500     Fe( 1.00)
        Cu1           19.00    63.54600     Cu( 1.00)

     Starting magnetic structure
     atomic species   magnetization
        Fe1          0.125
        Cu1          0.105

     No symmetry found

   Cartesian axes

     site n.     atom                  positions (alat units)
         1           Fe1 tau(   1) = (   0.0000000   0.0000000  10.0000000  )
         2           Fe1 tau(   2) = (   2.5453111   0.0000000  10.0000000  )
         3           Cu1 tau(   3) = (   1.2726556   2.2684167  10.0000000  )
         4           Cu1 tau(   4) = (  -1.2726556   2.2684167  10.0000000  )
         5           Fe1 tau(   5) = (   2.5453111   1.4280024  12.1069926  )
         6           Fe1 tau(   6) = (  -0.0000000   1.4280024  12.1069926  )
         7           Cu1 tau(   7) = (  -1.2726556   3.6964190  12.1069926  )
         8           Cu1 tau(   8) = (   1.2726556   3.6964190  12.1069926  )
         9           Fe1 tau(   9) = (  -0.0000004   2.8417706  14.1587755  )
        10           Fe1 tau(  10) = (   2.5453109   2.8417282  14.1588227  )
        11           Cu1 tau(  11) = (   3.8180905   0.5884399  14.2398955  )
        12           Cu1 tau(  12) = (   1.2725312   0.5884407  14.2398958  )

     number of k points=    40  Fermi-Dirac smearing, width (Ry)=  0.0110
                       cart. coord. in units 2pi/alat
        k(    1) = (   0.0000000   0.0000000   0.0000000), wk =   0.0277778
        k(    2) = (   0.0000000   0.0367363   0.0000000), wk =   0.0555556
        k(    3) = (   0.0000000   0.0734727   0.0000000), wk =   0.0555556
        k(    4) = (   0.0000000  -0.1102090   0.0000000), wk =   0.0277778
        k(    5) = (   0.0327399   0.0183682   0.0000000), wk =   0.0555556
        k(    6) = (   0.0327399   0.0551045   0.0000000), wk =   0.0555556
        k(    7) = (   0.0327399   0.0918409   0.0000000), wk =   0.0555556
        k(    8) = (   0.0327399  -0.0918409   0.0000000), wk =   0.0555556
        k(    9) = (   0.0327399  -0.0551045   0.0000000), wk =   0.0555556
        k(   10) = (   0.0327399  -0.0183682   0.0000000), wk =   0.0555556
        k(   11) = (   0.0654799   0.0367363   0.0000000), wk =   0.0555556
        k(   12) = (   0.0654799   0.0734727   0.0000000), wk =   0.0555556
        k(   13) = (   0.0654799   0.1102090   0.0000000), wk =   0.0555556
        k(   14) = (   0.0654799  -0.0734727   0.0000000), wk =   0.0555556
        k(   15) = (   0.0654799  -0.0367363   0.0000000), wk =   0.0555556
        k(   16) = (   0.0654799   0.0000000   0.0000000), wk =   0.0555556
        k(   17) = (  -0.0982198  -0.0551045   0.0000000), wk =   0.0277778
        k(   18) = (  -0.0982198  -0.0183682   0.0000000), wk =   0.0555556
        k(   19) = (  -0.0982198   0.0183682   0.0000000), wk =   0.0555556
        k(   20) = (  -0.0982198  -0.1653135   0.0000000), wk =   0.0277778
        k(   21) = (   0.0000000   0.0000000   0.0000000), wk =   0.0277778
        k(   22) = (   0.0000000   0.0367363   0.0000000), wk =   0.0555556
        k(   23) = (   0.0000000   0.0734727   0.0000000), wk =   0.0555556
        k(   24) = (   0.0000000  -0.1102090   0.0000000), wk =   0.0277778
        k(   25) = (   0.0327399   0.0183682   0.0000000), wk =   0.0555556
        k(   26) = (   0.0327399   0.0551045   0.0000000), wk =   0.0555556
        k(   27) = (   0.0327399   0.0918409   0.0000000), wk =   0.0555556
        k(   28) = (   0.0327399  -0.0918409   0.0000000), wk =   0.0555556
        k(   29) = (   0.0327399  -0.0551045   0.0000000), wk =   0.0555556
        k(   30) = (   0.0327399  -0.0183682   0.0000000), wk =   0.0555556
        k(   31) = (   0.0654799   0.0367363   0.0000000), wk =   0.0555556
        k(   32) = (   0.0654799   0.0734727   0.0000000), wk =   0.0555556
        k(   33) = (   0.0654799   0.1102090   0.0000000), wk =   0.0555556
        k(   34) = (   0.0654799  -0.0734727   0.0000000), wk =   0.0555556
        k(   35) = (   0.0654799  -0.0367363   0.0000000), wk =   0.0555556
        k(   36) = (   0.0654799   0.0000000   0.0000000), wk =   0.0555556
        k(   37) = (  -0.0982198  -0.0551045   0.0000000), wk =   0.0277778
        k(   38) = (  -0.0982198  -0.0183682   0.0000000), wk =   0.0555556
        k(   39) = (  -0.0982198   0.0183682   0.0000000), wk =   0.0555556
        k(   40) = (  -0.0982198  -0.1653135   0.0000000), wk =   0.0277778

     Largest allocated arrays     est. size (Mb)     dimensions
     Largest temporary arrays     est. size (Mb)     dimensions

     Check: negative/imaginary core charge=   -0.000005    0.000000

     Initial potential from superposition of free atoms
     Check: negative starting charge=(component1):   -0.000114

     starting charge  197.99995, renormalised to  210.00000

[...]

     *
     * You are using vdW-DF for exchange-correlation in this calculation.
     * Please cite the following three references that made this development
     * possible:
     *
     *   M. Dion, H. Rydberg, E. Schroder, D. C. Langreth, and
     *   B. I. Lundqvist, Phys. Rev. Lett. 92, 246401 (2004).
     *
     *   T. Thonhauser, V. R. Cooper, S. Li, A. Puzder, P. Hyldgaard, and
     *   D. C. Langreth, Phys. Rev. B 76, 125112 (2007).
     *
     *   G. Roman-Perez and J. M. Soler, Phys. Rev. Lett. 103, 096102 (2009).
     *
     *
     * If you are using vdW-DF2, please also cite:
     *
     *   K. Lee, E. D. Murray, L. Kong, B. I. Lundqvist, and
     *   D. C. Langreth, Phys. Rev. B 82, 081101(R) (2010).
     *
     *
     * If you are calculating the stress with vdW-DF, please also cite:
     *
     *   R. Sabatini, E. Kucukbenli, B. Kolb, T. Thonhauser, and
     *   S. de Gironcoli, J. Phys.: Condens. Matter 24, 424209 (2012).
     *

     Carrying out vdW-DF run using the following parameters:

     Nqs =      20    Nr_points =    1024   r_max =   100.000
     q_mesh =
               0.00001000     0.04494208     0.09755937     0.15916263
               0.23128650     0.31572767     0.41458969     0.53033537
               0.66584808     0.82450364     1.01025438     1.22772762
               1.48234092     1.78043706     2.12944203     2.53805004
               3.01644009     3.57652955     4.23227104     5.00000000

     Gradients computed in reciprocal space

[...]

     Starting wfc are  156 randomized atomic wfcs

     Self-consistent Calculation

[...]

     iteration # 17     ecut=    36.75 Ry     beta=0.10
     Davidson diagonalization with overlap
     c_bands:  1 eigenvalues not converged
     c_bands:  1 eigenvalues not converged
     ethr =  2.06E-06,  avg # of iterations =  4.4

[...]

     total energy              =   -3937.49800600 Ry
     Harris-Foulkes estimate   =   -3937.49800381 Ry
     estimated scf accuracy    <       0.00000107 Ry

[...]

     iteration # 29     ecut=    36.75 Ry     beta=0.10
     Davidson diagonalization with overlap
     ethr =  5.10E-10,  avg # of iterations =  1.2

[...]

     negative rho (up, down):  3.993E-04 7.617E-04

[...]

     Adding external electric field

     Computed dipole along edir(3) :
        Dipole               -0.0062 Ry au,         -0.0157 Debye
        Dipole field         -0.0000 Ry au

        Potential amp.        0.0018 Ry
        Total length         44.6139 bohr

     Magnetic moment per site:
     atom:    1    charge:    7.1016    magn:    1.3489    constr:    0.0000
     atom:    2    charge:    7.1016    magn:    1.3488    constr:    0.0000
     atom:    3    charge:   10.6042    magn:    0.0924    constr:    0.0000
     atom:    4    charge:   10.6042    magn:    0.0924    constr:    0.0000
     atom:    5    charge:    7.0870    magn:    1.2868    constr:    0.0000
     atom:    6    charge:    7.0870    magn:    1.2868    constr:    0.0000
     atom:    7    charge:   10.5895    magn:    0.0999    constr:    0.0000
     atom:    8    charge:   10.5895    magn:    0.0999    constr:    0.0000
     atom:    9    charge:    7.0946    magn:    1.3364    constr:    0.0000
     atom:   10    charge:    7.0945    magn:    1.3365    constr:    0.0000
     atom:   11    charge:   10.5945    magn:    0.0907    constr:    0.0000
     atom:   12    charge:   10.5945    magn:    0.0907    constr:    0.0000

     End of self-consistent calculation

 ------ SPIN UP ------------

[...]

 ------ SPIN DOWN ----------

[...]

          k = 0.0655 0.0000 0.0000 ( 14245 PWs)   bands (ev):

[...]

          k =-0.0982-0.1653 0.0000 ( 14196 PWs)   bands (ev):

  -112.1807-112.1807-111.9110-111.9110-111.8782-111.8782 -84.7652 -84.7652
   -84.7545 -84.7543 -84.7404 -84.7402 -69.5764 -69.5764 -69.5741 -69.5741
   -69.5631 -69.5631 -69.3380 -69.3380 -69.3181 -69.3181 -69.3073 -69.3073
   -69.2886 -69.2885 -69.2521 -69.2521 -69.2158 -69.2158 -50.9290 -50.9289
   -50.9153 -50.9151 -50.9074 -50.9074 -50.8924 -50.8923 -50.8556 -50.8555
   -50.8465 -50.8464 -50.8259 -50.8259 -50.8167 -50.8165 -50.7463 -50.7461
    -5.6345  -5.6344  -4.0182  -4.0180  -3.4104  -3.4103  -3.1529  -3.1528
    -3.0220  -3.0220  -2.8416  -2.8416  -2.7085  -2.7085  -2.5687  -2.5686
    -2.3621  -2.3620  -2.3321  -2.3319  -2.1988  -2.1988  -2.1848  -2.1848
    -2.1621  -2.1616  -2.0625  -2.0625  -2.0227  -2.0225  -1.8641  -1.8640
    -1.7659  -1.7658  -1.1279  -1.1278  -0.6026  -0.6025  -0.3707  -0.3707
    -0.0520  -0.0519   0.2249   0.2250   0.4854   0.4855   0.6077   0.6077
     0.7668   0.7668   0.8508   0.8508   0.9010   0.9010   1.1216   1.1216
     1.1896   1.1896   1.6460   1.6460   1.7588   1.7589   1.9226   1.9227
     2.5722   2.5723   2.6616   2.6616   3.2681   3.2682   4.2621   4.2622
     5.1413   5.1413   6.3455   6.3455   6.8684   6.8685   7.1388   7.1388
     7.7783   7.7784   8.1572   8.1573   8.4977   8.4979   8.7050

     the Fermi energy is     0.6788 ev

!    total energy              =   -3937.49801572 Ry
     Harris-Foulkes estimate   =   -3937.49800612 Ry
     estimated scf accuracy    <       0.00000087 Ry

     The total energy is the sum of the following terms:

     one-electron contribution =  -31274.47263805 Ry
     hartree contribution      =   15642.23235686 Ry
     xc contribution           =    -421.71808040 Ry
     ewald contribution        =   12116.52323811 Ry
     electric field correction =       0.00000013 Ry
     smearing contrib. (-TS)   =      -0.06289236 Ry

     total magnetization       =    16.97 Bohr mag/cell
     absolute magnetization    =    18.90 Bohr mag/cell

     convergence has been achieved in  29 iterations

 BEEF-vdW xc energy contributions
           1 :   -371.866504277587
           2 :    336.822295587226
           3 :   -277.781265694001
           4 :    211.513746129610
           5 :   -153.151365982380
           6 :    110.691759098904
           7 :   -83.8117601484511
           8 :    66.7450750253358
           9 :   -52.9517535880206
          10 :    38.7831494547553
          11 :   -24.4703062944811
          12 :    12.5429895794408
          13 :   -5.23600055888954
          14 :    2.69171554052343
          15 :   -2.93871212038937
          16 :    3.30310276598277
          17 :   -2.08205422512719
          18 :  -0.657346679563545
          19 :    3.51486696619145
          20 :   -4.96377970504022
          21 :    4.43928945388490
          22 :   -2.64367764515009
          23 :   0.974726591926128
          24 :  -0.562974446634314
          25 :    1.57798311374609
          26 :   -3.22515680169158
          27 :    4.35538890484395
          28 :   -4.24330722251574
          29 :    3.02058486141635
          30 :   -1.52732503008048
          31 :   -30.8760167245046
          32 :   -21.3973862820619

     Forces acting on atoms (Ry/au):

     negative rho (up, down):  3.993E-04 7.617E-04
     atom    1 type  1   force =    -0.00000002    0.00366214    0.00870344
     atom    2 type  1   force =     0.00000009    0.00369195    0.00873434
     atom    3 type  2   force =     0.00003996   -0.00238128   -0.00530255
     atom    4 type  2   force =    -0.00003989   -0.00238120   -0.00530288
     atom    5 type  1   force =     0.00000021   -0.00309049   -0.00073829
     atom    6 type  1   force =    -0.00000008   -0.00312696   -0.00078573
     atom    7 type  2   force =    -0.00009810    0.00295221   -0.00295960
     atom    8 type  2   force =     0.00009799    0.00295258   -0.00296030
     atom    9 type  1   force =    -0.00000021   -0.00051737    0.00010596
     atom   10 type  1   force =     0.00000024   -0.00055120    0.00009032
     atom   11 type  2   force =    -0.00007275   -0.00060470    0.00020777
     atom   12 type  2   force =     0.00007256   -0.00060566    0.00020750

     Total force =     0.017423     Total SCF correction =     0.004841
     SCF correction compared to forces is large: reduce conv_thr to get better values

     entering subroutine stress ...

     negative rho (up, down):  3.993E-04 7.617E-04
          total   stress  (Ry/bohr**3)                   (kbar)     P=  -14.88
  -0.00012794   0.00000000   0.00000000        -18.82      0.00      0.00
   0.00000000  -0.00012163  -0.00000721          0.00    -17.89     -1.06
   0.00000000  -0.00000721  -0.00005383          0.00     -1.06     -7.92

 !ASE

     Writing output data file calc.save

     General routines

     Parallel routines

   This run was terminated on:   7: 9:46  19Dec2018

   JOB DONE.
Job  /afs/slac/g/suncat/bin/suncat-tsmpirun -x LD_LIBRARY_PATH -wdir /scratch/qe529916_D5URz pw.x -in pw.inp

TID   HOST_NAME   COMMAND_LINE            STATUS            TERMINATION_TIME
00000 suncat1052 pw.x -in pw.inp   Done                     12/19/2018 07:09:46
00001 suncat1052 pw.x -in pw.inp   Done                     12/19/2018 07:09:46
00002 suncat1052 pw.x -in pw.inp   Done                     12/19/2018 07:09:46
00003 suncat1052 pw.x -in pw.inp   Done                     12/19/2018 07:09:46
00004 suncat1052 pw.x -in pw.inp   Done                     12/19/2018 07:09:46
00005 suncat1052 pw.x -in pw.inp   Done                     12/19/2018 07:09:46
00006 suncat1052 pw.x -in pw.inp   Done                     12/19/2018 07:09:46
00007 suncat1052 pw.x -in pw.inp   Done                     12/19/2018 07:09:46
00008 suncat1048 pw.x -in pw.inp   Done                     12/19/2018 07:09:46
00009 suncat1048 pw.x -in pw.inp   Done                     12/19/2018 07:09:46
00010 suncat1048 pw.x -in pw.inp   Done                     12/19/2018 07:09:46
00011 suncat1048 pw.x -in pw.inp   Done                     12/19/2018 07:09:46
00012 suncat1048 pw.x -in pw.inp   Done                     12/19/2018 07:09:46
00013 suncat1048 pw.x -in pw.inp   Done                     12/19/2018 07:09:46
00014 suncat1048 pw.x -in pw.inp   Done                     12/19/2018 07:09:46
00015 suncat1048 pw.x -in pw.inp   Done                     12/19/2018 07:09:46
00016 suncat1048 pw.x -in pw.inp   Done                     12/19/2018 07:09:46
00017 suncat1048 pw.x -in pw.inp   Done                     12/19/2018 07:09:46
00018 suncat1048 pw.x -in pw.inp   Done                     12/19/2018 07:09:46
00019 suncat1048 pw.x -in pw.inp   Done                     12/19/2018 07:09:46
00020 suncat1043 pw.x -in pw.inp   Done                     12/19/2018 07:09:46
00021 suncat1043 pw.x -in pw.inp   Done                     12/19/2018 07:09:46
00022 suncat1043 pw.x -in pw.inp   Done                     12/19/2018 07:09:46
00023 suncat1043 pw.x -in pw.inp   Done                     12/19/2018 07:09:46
00024 suncat1043 pw.x -in pw.inp   Done                     12/19/2018 07:09:46
00025 suncat1043 pw.x -in pw.inp   Done                     12/19/2018 07:09:46
00026 suncat1043 pw.x -in pw.inp   Done                     12/19/2018 07:09:46
00027 suncat1043 pw.x -in pw.inp   Done                     12/19/2018 07:09:46
00028 suncat1043 pw.x -in pw.inp   Done                     12/19/2018 07:09:46
00029 suncat1043 pw.x -in pw.inp   Done                     12/19/2018 07:09:46
00030 suncat1043 pw.x -in pw.inp   Done                     12/19/2018 07:09:46
00031 suncat1043 pw.x -in pw.inp   Done                     12/19/2018 07:09:46