     Program PWSCF v.5.1rc2 (svn rev. 11289) starts on 19Dec2018 at  4:36:37

     Current dimensions of program PWSCF are:
     Max number of different atomic species (ntypx) = 10
     Max number of k-points (npk) =  40000
     Max angular momentum in pseudopotentials (lmaxx) =  3
     Presently stress not available with electric field

     IMPORTANT: XC functional enforced from input :
     Exchange-correlation      = BEEF-VDW ( 1  4 27 13 2)
     Any further DFT definition will be discarded
     Please, verify this is what you really want

     Subspace diagonalization in iterative solution of the eigenvalue problem:
     a serial algorithm will be used

     Found symmetry operation: I + (  0.5000  0.0000  0.0000)
     This is a supercell, fractional translations are disabled

     bravais-lattice index     =            0
     lattice parameter (alat)  =       1.8897  a.u.
     unit-cell volume          =    4717.1927 (a.u.)^3
     number of atoms/cell      =           12
     number of atomic types    =            2
     number of electrons       =       150.00
     number of Kohn-Sham states=          105
     kinetic-energy cutoff     =      36.7493  Ry
     charge density cutoff     =     367.4932  Ry
     convergence threshold     =      1.0E-06
     mixing beta               =       0.1000
     number of iterations used =           10  plain     mixing
     Exchange-correlation      = BEEF-VDW ( 1  4 27 13 2)
     nstep                     =           50

     celldm(1)=   1.889726  celldm(2)=   0.000000  celldm(3)=   0.000000
     celldm(4)=   0.000000  celldm(5)=   0.000000  celldm(6)=   0.000000

     crystal axes: (cart. coord. in units of alat)
               a(1) = (   5.444134   0.000000   0.000000 )
               a(2) = (  -2.722067   5.210502   0.000000 )
               a(3) = (   0.000000   0.000000  24.642152 )

     reciprocal axes: (cart. coord. in units 2 pi/alat)
               b(1) = (  0.183684  0.095960  0.000000 )
               b(2) = (  0.000000  0.191920  0.000000 )
               b(3) = (  0.000000  0.000000  0.040581 )

     PseudoPot. # 1 for Sc read from file:
     /afs/slac.stanford.edu/u/if/mamunm/psp/gbrv1.5pbe/Sc.UPF
     MD5 check sum: db30a2753ba66ef00f23801d899b7e7f
     Pseudo is Ultrasoft + core correction, Zval = 11.0
     Generated by new atomic code, or converted to UPF format
     Using radial grid of  849 points,  6 beta functions with:
                l(1) =   0
                l(2) =   0
                l(3) =   1
                l(4) =   1
                l(5) =   2
                l(6) =   2
     Q(r) pseudized with  6 coefficients,  rinner =    1.200   1.200   1.200
                                                       1.200   1.200

     PseudoPot. # 2 for Cr read from file:
     /afs/slac.stanford.edu/u/if/mamunm/psp/gbrv1.5pbe/Cr.UPF
     MD5 check sum: 0d52af634a40206e4dee301ad30da4bf
     Pseudo is Ultrasoft + core correction, Zval = 14.0
     Generated by new atomic code, or converted to UPF format
     Using radial grid of  857 points,  6 beta functions with:
                l(1) =   0
                l(2) =   0
                l(3) =   1
                l(4) =   1
                l(5) =   2
                l(6) =   2
     Q(r) pseudized with  8 coefficients,  rinner =    0.950   0.950   0.950
                                                       0.950   0.950

     vdW kernel table read from file vdW_kernel_table
     MD5 check sum: 095c7af220d748ca6e76c0b4c6cfb241

     atomic species   valence    mass     pseudopotential
        Sc1           11.00    44.95591     Sc( 1.00)
        Cr1           14.00    51.99610     Cr( 1.00)

     No symmetry found

   Cartesian axes

     site n.     atom                  positions (alat units)
         1           Sc1 tau(   1) = (   0.0000000   0.0000000  10.0000000  )
         2           Sc1 tau(   2) = (   2.7220670   0.0000000  10.0000000  )
         3           Cr1 tau(   3) = (   1.3610335   2.6052512  10.0000000  )
         4           Cr1 tau(   4) = (  -1.3610335   2.6052512  10.0000000  )
         5           Sc1 tau(   5) = (   2.7220670   1.4220603  12.3210758  )
         6           Sc1 tau(   6) = (   0.0000000   1.4220603  12.3210758  )
         7           Cr1 tau(   7) = (  -1.3610335   4.0273115  12.3210758  )
         8           Cr1 tau(   8) = (   1.3610335   4.0273115  12.3210758  )
         9           Sc1 tau(   9) = (   0.0000000   2.8441206  14.6421517  )
        10           Sc1 tau(  10) = (   2.7220670   2.8441206  14.6421517  )
        11           Cr1 tau(  11) = (   4.0831004   0.2388695  14.6421517  )
        12           Cr1 tau(  12) = (   1.3610335   0.2388695  14.6421517  )

     number of k points=    20  Fermi-Dirac smearing, width (Ry)=  0.0110
                       cart. coord. in units 2pi/alat
        k(    1) = (   0.0000000   0.0000000   0.0000000), wk =   0.0555556
        k(    2) = (   0.0000000   0.0319867   0.0000000), wk =   0.1111111
        k(    3) = (   0.0000000   0.0639734   0.0000000), wk =   0.1111111
        k(    4) = (   0.0000000  -0.0959600   0.0000000), wk =   0.0555556
        k(    5) = (   0.0306140   0.0159933   0.0000000), wk =   0.1111111
        k(    6) = (   0.0306140   0.0479800   0.0000000), wk =   0.1111111
        k(    7) = (   0.0306140   0.0799667   0.0000000), wk =   0.1111111
        k(    8) = (   0.0306140  -0.0799667   0.0000000), wk =   0.1111111
        k(    9) = (   0.0306140  -0.0479800   0.0000000), wk =   0.1111111
        k(   10) = (   0.0306140  -0.0159933   0.0000000), wk =   0.1111111
        k(   11) = (   0.0612280   0.0319867   0.0000000), wk =   0.1111111
        k(   12) = (   0.0612280   0.0639734   0.0000000), wk =   0.1111111
        k(   13) = (   0.0612280   0.0959600   0.0000000), wk =   0.1111111
        k(   14) = (   0.0612280  -0.0639734   0.0000000), wk =   0.1111111
        k(   15) = (   0.0612280  -0.0319867   0.0000000), wk =   0.1111111
        k(   16) = (   0.0612280  -0.0000000   0.0000000), wk =   0.1111111
        k(   17) = (  -0.0918420  -0.0479800   0.0000000), wk =   0.0555556
        k(   18) = (  -0.0918420  -0.0159933   0.0000000), wk =   0.1111111
        k(   19) = (  -0.0918420   0.0159933   0.0000000), wk =   0.1111111
        k(   20) = (  -0.0918420  -0.1439401   0.0000000), wk =   0.0555556

     Largest allocated arrays     est. size (Mb)     dimensions
     Largest temporary arrays     est. size (Mb)     dimensions

     Check: negative/imaginary core charge=   -0.000003    0.000000

     Initial potential from superposition of free atoms
     Check: negative starting charge=   -0.006981

     starting charge  143.98549, renormalised to  150.00000

     negative rho (up, down):  7.273E-03 0.000E+00

     *
     * You are using vdW-DF for exchange-correlation in this calculation.
     * Please cite the following three references that made this development
     * possible:
     *
     *   M. Dion, H. Rydberg, E. Schroder, D. C. Langreth, and
     *   B. I. Lundqvist, Phys. Rev. Lett. 92, 246401 (2004).
     *
     *   T. Thonhauser, V. R. Cooper, S. Li, A. Puzder, P. Hyldgaard, and
     *   D. C. Langreth, Phys. Rev. B 76, 125112 (2007).
     *
     *   G. Roman-Perez and J. M. Soler, Phys. Rev. Lett. 103, 096102 (2009).
     *
     *
     * If you are using vdW-DF2, please also cite:
     *
     *   K. Lee, E. D. Murray, L. Kong, B. I. Lundqvist, and
     *   D. C. Langreth, Phys. Rev. B 82, 081101(R) (2010).
     *
     *
     * If you are calculating the stress with vdW-DF, please also cite:
     *
     *   R. Sabatini, E. Kucukbenli, B. Kolb, T. Thonhauser, and
     *   S. de Gironcoli, J. Phys.: Condens. Matter 24, 424209 (2012).
     *

     Carrying out vdW-DF run using the following parameters:

     Nqs =      20    Nr_points =    1024   r_max =   100.000
     q_mesh =
               0.00001000     0.04494208     0.09755937     0.15916263
               0.23128650     0.31572767     0.41458969     0.53033537
               0.66584808     0.82450364     1.01025438     1.22772762
               1.48234092     1.78043706     2.12944203     2.53805004
               3.01644009     3.57652955     4.23227104     5.00000000

     Gradients computed in reciprocal space

     Adding external electric field

     Computed dipole along edir(3) :
        Dipole                0.0000 Ry au,          0.0000 Debye
        Dipole field          0.0000 Ry au

        Potential amp.       -0.0000 Ry
        Total length         45.4027 bohr

     Starting wfc are  138 randomized atomic wfcs

     Self-consistent Calculation

     iteration #  1     ecut=    36.75 Ry     beta=0.10
     Davidson diagonalization with overlap
     ethr =  1.00E-02,  avg # of iterations =  3.1

[...]

     total energy              =   -1626.42340897 Ry
     Harris-Foulkes estimate   =   -1627.60056477 Ry
     estimated scf accuracy    <       7.06158501 Ry

[...]

     End of self-consistent calculation

          k = 0.0000 0.0000 0.0000 ( 17735 PWs)   bands (ev):

   -70.8485 -70.8217 -70.6944 -70.6938 -70.6674 -70.6668 -48.7523 -48.7461
   -48.5995 -48.5937 -48.3082 -48.1559 -42.2577 -42.2171 -42.1899 -42.0954
   -42.0950 -42.0719 -42.0459 -42.0349 -42.0189 -42.0103 -41.9958 -41.9732
   -41.9662 -41.9646 -41.9403 -41.9383 -41.8547 -41.8544 -27.8967 -27.8907
   -27.6320 -27.4834 -27.4644 -27.4229 -27.2942 -27.2560 -27.2470 -27.1276
   -27.1172 -26.8971 -26.8947 -26.8221 -26.7948 -26.7111 -26.6641 -26.4697
    -4.7017  -3.3422  -2.2070  -1.7180  -1.6442  -1.5672  -1.4910  -1.3876
    -1.2697  -1.0728  -1.0264  -0.9125  -0.8615  -0.8359  -0.8240  -0.3560
    -0.1515  -0.1456   0.0824   0.2701   0.3203   0.5910   0.6444   0.8769
     0.9153   0.9671   1.1281   1.2108   1.3193   1.3573   1.3901   1.4422
     1.5146   1.6171   1.6332   1.6718   1.7181   1.7428   1.8204   1.8516
     1.9978   2.1486   2.1860   2.3160   2.4418   2.5162   2.6091   2.9450
     3.1002   3.1126   3.1355   3.2591   3.3027   3.3746   3.4153   3.8097
     4.0532

[...]

          k =-0.0918-0.0480 0.0000 ( 17766 PWs)   bands (ev):

[...]

     the Fermi energy is     0.7637 ev

!    total energy              =   -1625.95134532 Ry
     Harris-Foulkes estimate   =   -1625.95134720 Ry
     estimated scf accuracy    <       0.00000081 Ry

     The total energy is the sum of the following terms:

     one-electron contribution =  -12157.35927045 Ry
     hartree contribution      =    6066.05544734 Ry
     xc contribution           =    -222.94575970 Ry
     ewald contribution        =    4688.43170284 Ry
     electric field correction =       0.00000000 Ry
     smearing contrib. (-TS)   =      -0.13346535 Ry

     convergence has been achieved in  27 iterations

 BEEF-vdW xc energy contributions
           1 :   -191.531063255152
           2 :    170.918691904878
           3 :   -137.357557824349
           4 :    102.074951845835
           5 :   -74.3909359111767
           6 :    58.0614509293916
           7 :   -51.1155216121643
           8 :    48.5738091767933
           9 :   -45.9443426256198
          10 :    41.4061980563381
          11 :   -35.8187350654192
[...]
     Davidson diagonalization with overlap
     c_bands:  1 eigenvalues not converged
     ethr =  2.40E-06,  avg # of iterations =  5.9

[...]

   This run was terminated on:   4:53:57  19Dec2018

[...]

   This run was terminated on:   5: 5: 3  19Dec2018

[...]

     Program PWSCF v.5.1rc2 (svn rev. 11289) starts on 19Dec2018 at  5: 5:14

[...]

     Found symmetry operation: I + (  0.5000  0.0000  0.0000)
     This is a supercell, fractional translations are disabled

[...]

   This run was terminated on:   5:22: 8  19Dec2018

[...]

     Program PWSCF v.5.1rc2 (svn rev. 11289) starts on 19Dec2018 at  5:22:14

[...]

     Program PWSCF v.5.1rc2 (svn rev. 11289) starts on 19Dec2018 at  5:28: 5

     Current dimensions of program PWSCF are:
     Max number of different atomic species (ntypx) = 10
     Max number of k-points (npk) =  40000
     Max angular momentum in pseudopotentials (lmaxx) =  3
     Presently stress not available with electric field

     IMPORTANT: XC functional enforced from input :
     Exchange-correlation      = BEEF-VDW ( 1  4 27 13 2)
     Any further DFT definition will be discarded
     Please, verify this is what you really want

     Subspace diagonalization in iterative solution of the eigenvalue problem:
     a serial algorithm will be used

     bravais-lattice index     =            0
     lattice parameter (alat)  =       1.8897  a.u.
     unit-cell volume          =    4717.1927 (a.u.)^3
     number of atoms/cell      =           12
     number of atomic types    =            2
     number of electrons       =       150.00
     number of Kohn-Sham states=          105
     kinetic-energy cutoff     =      36.7493  Ry
     charge density cutoff     =     367.4932  Ry
     convergence threshold     =      1.0E-06
     mixing beta               =       0.1000
     number of iterations used =           10  plain     mixing
     Exchange-correlation      = BEEF-VDW ( 1  4 27 13 2)
     nstep                     =           50

     celldm(1)=   1.889726  celldm(2)=   0.000000  celldm(3)=   0.000000
     celldm(4)=   0.000000  celldm(5)=   0.000000  celldm(6)=   0.000000

     crystal axes: (cart. coord. in units of alat)
               a(1) = (   5.444134   0.000000   0.000000 )
               a(2) = (  -2.722067   5.210502   0.000000 )
               a(3) = (   0.000000   0.000000  24.642152 )

     reciprocal axes: (cart. coord. in units 2 pi/alat)
               b(1) = (  0.183684  0.095960  0.000000 )
               b(2) = (  0.000000  0.191920  0.000000 )
               b(3) = (  0.000000  0.000000  0.040581 )

     PseudoPot. # 1 for Sc read from file:
     /afs/slac.stanford.edu/u/if/mamunm/psp/gbrv1.5pbe/Sc.UPF
     MD5 check sum: db30a2753ba66ef00f23801d899b7e7f
     Pseudo is Ultrasoft + core correction, Zval = 11.0
     Generated by new atomic code, or converted to UPF format
     Using radial grid of  849 points,  6 beta functions with:
                l(1) =   0
                l(2) =   0
                l(3) =   1
                l(4) =   1
                l(5) =   2
                l(6) =   2
     Q(r) pseudized with  6 coefficients,  rinner =    1.200   1.200   1.200
                                                       1.200   1.200

     PseudoPot. # 2 for Cr read from file:
     /afs/slac.stanford.edu/u/if/mamunm/psp/gbrv1.5pbe/Cr.UPF
     MD5 check sum: 0d52af634a40206e4dee301ad30da4bf
     Pseudo is Ultrasoft + core correction, Zval = 14.0
     Generated by new atomic code, or converted to UPF format
     Using radial grid of  857 points,  6 beta functions with:
                l(1) =   0
                l(2) =   0
                l(3) =   1
                l(4) =   1
                l(5) =   2
                l(6) =   2
     Q(r) pseudized with  8 coefficients,  rinner =    0.950   0.950   0.950
                                                       0.950   0.950

     vdW kernel table read from file vdW_kernel_table
     MD5 check sum: 095c7af220d748ca6e76c0b4c6cfb241

     atomic species   valence    mass     pseudopotential
        Sc1           11.00    44.95591     Sc( 1.00)
        Cr1           14.00    51.99610     Cr( 1.00)

     No symmetry found

   Cartesian axes

     site n.     atom                  positions (alat units)
         1           Sc1 tau(   1) = (   0.0000000   0.0000000  10.0000000  )
         2           Sc1 tau(   2) = (   2.7220670   0.0000000  10.0000000  )
         3           Cr1 tau(   3) = (   1.3610335   2.6052512  10.0000000  )
         4           Cr1 tau(   4) = (  -1.3610335   2.6052512  10.0000000  )
         5           Sc1 tau(   5) = (   2.7220670   1.4220603  12.3210758  )
         6           Sc1 tau(   6) = (   0.0000000   1.4220603  12.3210758  )
         7           Cr1 tau(   7) = (  -1.3610335   4.0273115  12.3210758  )
         8           Cr1 tau(   8) = (   1.3610335   4.0273115  12.3210758  )
         9           Sc1 tau(   9) = (  -0.0003648   2.8137876  14.8222643  )
        10           Sc1 tau(  10) = (   2.7218064   2.8138110  14.8222995  )
        11           Cr1 tau(  11) = (   1.3610397   5.1249293  14.2053546  )
        12           Cr1 tau(  12) = (  -1.3611281   5.1251032  14.2055415  )

     number of k points=    20  Fermi-Dirac smearing, width (Ry)=  0.0110
                       cart. coord. in units 2pi/alat
        k(    1) = (   0.0000000   0.0000000   0.0000000), wk =   0.0555556
        k(    2) = (   0.0000000   0.0319867   0.0000000), wk =   0.1111111
        k(    3) = (   0.0000000   0.0639734   0.0000000), wk =   0.1111111
        k(    4) = (   0.0000000  -0.0959600   0.0000000), wk =   0.0555556
        k(    5) = (   0.0306140   0.0159933   0.0000000), wk =   0.1111111
        k(    6) = (   0.0306140   0.0479800   0.0000000), wk =   0.1111111
        k(    7) = (   0.0306140   0.0799667   0.0000000), wk =   0.1111111
        k(    8) = (   0.0306140  -0.0799667   0.0000000), wk =   0.1111111
        k(    9) = (   0.0306140  -0.0479800   0.0000000), wk =   0.1111111
        k(   10) = (   0.0306140  -0.0159933   0.0000000), wk =   0.1111111
        k(   11) = (   0.0612280   0.0319867   0.0000000), wk =   0.1111111
        k(   12) = (   0.0612280   0.0639734   0.0000000), wk =   0.1111111
        k(   13) = (   0.0612280   0.0959600   0.0000000), wk =   0.1111111
        k(   14) = (   0.0612280  -0.0639734   0.0000000), wk =   0.1111111
        k(   15) = (   0.0612280  -0.0319867   0.0000000), wk =   0.1111111
        k(   16) = (   0.0612280  -0.0000000   0.0000000), wk =   0.1111111
        k(   17) = (  -0.0918420  -0.0479800   0.0000000), wk =   0.0555556
        k(   18) = (  -0.0918420  -0.0159933   0.0000000), wk =   0.1111111
        k(   19) = (  -0.0918420   0.0159933   0.0000000), wk =   0.1111111
        k(   20) = (  -0.0918420  -0.1439401   0.0000000), wk =   0.0555556

     Largest allocated arrays     est. size (Mb)     dimensions
     Largest temporary arrays     est. size (Mb)     dimensions

     Check: negative/imaginary core charge=   -0.000003    0.000000

     Initial potential from superposition of free atoms
     Check: negative starting charge=   -0.007271

     starting charge  143.98549, renormalised to  150.00000

[...]

     *
     * You are using vdW-DF for exchange-correlation in this calculation.
     * Please cite the following three references that made this development
     * possible:
     *
     *   M. Dion, H. Rydberg, E. Schroder, D. C. Langreth, and
     *   B. I. Lundqvist, Phys. Rev. Lett. 92, 246401 (2004).
     *
     *   T. Thonhauser, V. R. Cooper, S. Li, A. Puzder, P. Hyldgaard, and
     *   D. C. Langreth, Phys. Rev. B 76, 125112 (2007).
     *
     *   G. Roman-Perez and J. M. Soler, Phys. Rev. Lett. 103, 096102 (2009).
     *
     *
     * If you are using vdW-DF2, please also cite:
     *
     *   K. Lee, E. D. Murray, L. Kong, B. I. Lundqvist, and
     *   D. C. Langreth, Phys. Rev. B 82, 081101(R) (2010).
     *
     *
     * If you are calculating the stress with vdW-DF, please also cite:
     *
     *   R. Sabatini, E. Kucukbenli, B. Kolb, T. Thonhauser, and
     *   S. de Gironcoli, J. Phys.: Condens. Matter 24, 424209 (2012).
     *

     Carrying out vdW-DF run using the following parameters:

     Nqs =      20    Nr_points =    1024   r_max =   100.000
     q_mesh =
               0.00001000     0.04494208     0.09755937     0.15916263
               0.23128650     0.31572767     0.41458969     0.53033537
               0.66584808     0.82450364     1.01025438     1.22772762
               1.48234092     1.78043706     2.12944203     2.53805004
               3.01644009     3.57652955     4.23227104     5.00000000

     Gradients computed in reciprocal space

[...]

     Starting wfc are  138 randomized atomic wfcs

     Self-consistent Calculation

[...]

     total energy              =   -1626.03518897 Ry
     Harris-Foulkes estimate   =   -1626.03518883 Ry
     estimated scf accuracy    <       0.00000373 Ry

     iteration # 27     ecut=    36.75 Ry     beta=0.10
     Davidson diagonalization with overlap
     ethr =  2.49E-09,  avg # of iterations =  2.0

[...]

     negative rho (up, down):  6.540E-03 0.000E+00

     Adding external electric field

     Computed dipole along edir(3) :
        Dipole                0.2219 Ry au,          0.5641 Debye
        Dipole field          0.0006 Ry au

        Potential amp.       -0.0537 Ry
        Total length         45.4027 bohr

     End of self-consistent calculation

[...]

          k = 0.0612-0.0000 0.0000 ( 17764 PWs)   bands (ev):

[...]

          k =-0.0918-0.1439 0.0000 ( 17766 PWs)   bands (ev):

   -70.5142 -70.5140 -70.4070 -70.4070 -70.2831 -70.2831 -48.5575 -48.5575
   -48.3916 -48.3915 -47.9079 -47.9079 -42.1957 -42.1952 -41.7927 -41.7925
   -41.7626 -41.7625 -41.7571 -41.7570 -41.7116 -41.7116 -41.6625 -41.6625
   -41.6026 -41.6025 -41.5840 -41.5839 -41.3312 -41.3310 -27.3192 -27.3192
   -27.2335 -27.2332 -27.1711 -27.1710 -27.1272 -27.1271 -27.0902 -27.0901
   -26.9059 -26.9059 -26.6699 -26.6698 -26.4834 -26.4833 -26.4370 -26.4370
    -2.8408  -2.8407  -1.6671  -1.6670  -1.0724  -1.0722  -0.8317  -0.8316
    -0.7140  -0.7139  -0.4396  -0.4395  -0.1699  -0.1698  -0.0408  -0.0406
     0.1707   0.1707   0.3454   0.3454   0.5765   0.5766   0.6249   0.6250
     0.7498   0.7498   0.8154   0.8154   1.1110   1.1112   1.2438   1.2438
     1.4617   1.4618   1.5679   1.5680   1.8505   1.8505   2.1221   2.1221
     2.4127   2.4129   2.4776   2.4778   2.8117   2.8119   2.8807   2.8808
     3.0672   3.0674   3.2518   3.2518   3.3460   3.3461   3.5861   3.5864
     3.8587

     the Fermi energy is     1.0333 ev

!    total energy              =   -1626.03518441 Ry
     Harris-Foulkes estimate   =   -1626.03518549 Ry
     estimated scf accuracy    <       0.00000097 Ry

     The total energy is the sum of the following terms:

     one-electron contribution =  -12431.69101939 Ry
     hartree contribution      =    6204.71083276 Ry
     xc contribution           =    -223.24112220 Ry
     ewald contribution        =    4824.31011379 Ry
     electric field correction =       0.00013122 Ry
     smearing contrib. (-TS)   =      -0.12412058 Ry

     convergence has been achieved in  27 iterations

 BEEF-vdW xc energy contributions
           1 :   -191.842447174184
           2 :    171.333460311202
           3 :   -137.873682450956
           4 :    102.548719044533
           5 :   -74.6044512283101
           6 :    57.8692492629015
           7 :   -50.5713684573783
           8 :    47.9244884337394
           9 :   -45.4749779995393
          10 :    41.2523283889354
          11 :   -35.8907827386668
          12 :    31.2029092955806
          13 :   -28.4640767344779
          14 :    27.5521602082531
          15 :   -27.2973286879131
          16 :    26.5114985637654
          17 :   -24.8165736172115
          18 :    22.7202991943544
          19 :   -21.0451732827333
          20 :    20.2490723264249
          21 :   -20.1401833414494
          22 :    20.1098841393571
          23 :   -19.6269830208552
          24 :    18.5991882606295
          25 :   -17.3677381022890
          26 :    16.3960948034812
          27 :   -15.9234545483864
          28 :    15.8326639606749
          29 :   -15.7876357049919
          30 :    15.4954092327356
          31 :   -20.2463574630048
          32 :   -14.5098597846392

     Forces acting on atoms (Ry/au):

     negative rho (up, down):  6.540E-03 0.000E+00
     atom    1 type  1   force =     0.00001449   -0.02065956   -0.03313917
     atom    2 type  1   force =    -0.00001896   -0.02066116   -0.03314107
     atom    3 type  2   force =    -0.00000331    0.01338472    0.04320611
     atom    4 type  2   force =    -0.00000421    0.01338955    0.04320867
     atom    5 type  1   force =    -0.00000646    0.01780735   -0.01055908
     atom    6 type  1   force =     0.00000953    0.01781275   -0.01056304
     atom    7 type  2   force =     0.00002468   -0.01007186    0.00101214
     atom    8 type  2   force =     0.00002216   -0.01009835    0.00095712
     atom    9 type  1   force =     0.00002096   -0.00082755    0.00041251
     atom   10 type  1   force =    -0.00000250   -0.00082802    0.00041088
     atom   11 type  2   force =    -0.00002382    0.00039967   -0.00087816
     atom   12 type  2   force =    -0.00003258    0.00035247   -0.00092690

     Total force =     0.090603     Total SCF correction =     0.002238

     entering subroutine stress ...

     negative rho (up, down):  6.540E-03 0.000E+00
          total   stress  (Ry/bohr**3)                   (kbar)     P=   -4.38
   0.00002162  -0.00000001   0.00000000          3.18     -0.00      0.00
  -0.00000001  -0.00008730   0.00001304         -0.00    -12.84      1.92
   0.00000000   0.00001304  -0.00002355          0.00      1.92     -3.46

 !ASE

     Writing output data file calc.save

     General routines

     Parallel routines

   This run was terminated on:   5:33:41  19Dec2018

   JOB DONE.
Job  /afs/slac/g/suncat/bin/suncat-tsmpirun -x LD_LIBRARY_PATH -wdir /scratch/qe530549_XA2l8 pw.x -in pw.inp

TID   HOST_NAME   COMMAND_LINE            STATUS            TERMINATION_TIME
00000 suncat2048 pw.x -in pw.inp   Done                     12/19/2018 05:33:41
00001 suncat2048 pw.x -in pw.inp   Done                     12/19/2018 05:33:41
00002 suncat2048 pw.x -in pw.inp   Done                     12/19/2018 05:33:41
00003 suncat2048 pw.x -in pw.inp   Done                     12/19/2018 05:33:41
00004 suncat2048 pw.x -in pw.inp   Done                     12/19/2018 05:33:41
00005 suncat2048 pw.x -in pw.inp   Done                     12/19/2018 05:33:41
00006 suncat2048 pw.x -in pw.inp   Done                     12/19/2018 05:33:41
00007 suncat2048 pw.x -in pw.inp   Done                     12/19/2018 05:33:41
00008 suncat2048 pw.x -in pw.inp   Done                     12/19/2018 05:33:41
00009 suncat2048 pw.x -in pw.inp   Done                     12/19/2018 05:33:41
00010 suncat2048 pw.x -in pw.inp   Done                     12/19/2018 05:33:41
00011 suncat2048 pw.x -in pw.inp   Done                     12/19/2018 05:33:41
00012 suncat2048 pw.x -in pw.inp   Done                     12/19/2018 05:33:41
00013 suncat2048 pw.x -in pw.inp   Done                     12/19/2018 05:33:41
00014 suncat2048 pw.x -in pw.inp   Done                     12/19/2018 05:33:41
00015 suncat2048 pw.x -in pw.inp   Done                     12/19/2018 05:33:41
00016 suncat2047 pw.x -in pw.inp   Done                     12/19/2018 05:33:41
00017 suncat2047 pw.x -in pw.inp   Done                     12/19/2018 05:33:41
00018 suncat2047 pw.x -in pw.inp   Done                     12/19/2018 05:33:41
00019 suncat2047 pw.x -in pw.inp   Done                     12/19/2018 05:33:41
00020 suncat2047 pw.x -in pw.inp   Done                     12/19/2018 05:33:41
00021 suncat2047 pw.x -in pw.inp   Done                     12/19/2018 05:33:41
00022 suncat2047 pw.x -in pw.inp   Done                     12/19/2018 05:33:41
00023 suncat2047 pw.x -in pw.inp   Done                     12/19/2018 05:33:41
00024 suncat2047 pw.x -in pw.inp   Done                     12/19/2018 05:33:41
00025 suncat2047 pw.x -in pw.inp   Done                     12/19/2018 05:33:41
00026 suncat2047 pw.x -in pw.inp   Done                     12/19/2018 05:33:41
00027 suncat2047 pw.x -in pw.inp   Done                     12/19/2018 05:33:41
00028 suncat2047 pw.x -in pw.inp   Done                     12/19/2018 05:33:41
00029 suncat2047 pw.x -in pw.inp   Done                     12/19/2018 05:33:41
00030 suncat2047 pw.x -in pw.inp   Done                     12/19/2018 05:33:41
00031 suncat2047 pw.x -in pw.inp   Done                     12/19/2018 05:33:41