     Program PWSCF v.5.1rc2 (svn rev. 11289) starts on 19Dec2018 at  1:40: 2

     Current dimensions of program PWSCF are:
     Max number of different atomic species (ntypx) = 10
     Max number of k-points (npk) =  40000
     Max angular momentum in pseudopotentials (lmaxx) =  3
     Presently stress not available with electric field

     IMPORTANT: XC functional enforced from input :
     Exchange-correlation      = BEEF-VDW ( 1  4 27 13 2)
     Any further DFT definition will be discarded
     Please, verify this is what you really want

     Subspace diagonalization in iterative solution of the eigenvalue problem:
     a serial algorithm will be used

     Found symmetry operation: I + ( -0.5000 -0.5000  0.0000)
     This is a supercell, fractional translations are disabled

     bravais-lattice index     =            0
     lattice parameter (alat)  =       1.8897  a.u.
     unit-cell volume          =    5198.0699 (a.u.)^3
     number of atoms/cell      =           12
     number of atomic types    =            2
     number of electrons       =       168.00
     number of Kohn-Sham states=          114
     kinetic-energy cutoff     =      36.7493  Ry
     charge density cutoff     =     367.4932  Ry
     convergence threshold     =      1.0E-06
     mixing beta               =       0.1000
     number of iterations used =           10  plain     mixing
     Exchange-correlation      = BEEF-VDW ( 1  4 27 13 2)
     nstep                     =           50

     celldm(1)=   1.889726  celldm(2)=   0.000000  celldm(3)=   0.000000
     celldm(4)=   0.000000  celldm(5)=   0.000000  celldm(6)=   0.000000

     crystal axes: (cart. coord. in units of alat)
               a(1) = (   5.862316   0.000000   0.000000 )
               a(2) = (   2.533113   5.286784   0.000000 )
               a(3) = (   0.000000   0.000000  24.853338 )

     reciprocal axes: (cart. coord. in units 2 pi/alat)
               b(1) = (  0.170581 -0.081732  0.000000 )
               b(2) = (  0.000000  0.189151  0.000000 )
               b(3) = (  0.000000  0.000000  0.040236 )

     PseudoPot. # 1 for Pd read from file:
     /afs/slac.stanford.edu/u/if/mamunm/psp/gbrv1.5pbe/Pd.UPF
     MD5 check sum: 2d733d2bc2cbfd217af676df1668a4bc
     Pseudo is Ultrasoft + core correction, Zval = 16.0
     Generated by new atomic code, or converted to UPF format
     Using radial grid of  887 points,  6 beta functions with:
                l(1) =   0
                l(2) =   0
                l(3) =   1
                l(4) =   1
                l(5) =   2
                l(6) =   2
     Q(r) pseudized with  8 coefficients,  rinner =    1.130   1.130   1.130
                                                       1.130   1.130

     PseudoPot. # 2 for Hg read from file:
     /afs/slac.stanford.edu/u/if/mamunm/psp/gbrv1.5pbe/Hg.UPF
     MD5 check sum: 8f42caffe07f7fd9c0a564347f8c5498
     Pseudo is Ultrasoft + core correction, Zval = 12.0
     Generated by new atomic code, or converted to UPF format
     Using radial grid of  985 points,  6 beta functions with:
                l(1) =   0
                l(2) =   0
                l(3) =   1
                l(4) =   1
                l(5) =   2
                l(6) =   2
     Q(r) pseudized with  8 coefficients,  rinner =    2.000   2.000   2.000
                                                       2.000   2.000

     vdW kernel table read from file vdW_kernel_table
     MD5 check sum: 095c7af220d748ca6e76c0b4c6cfb241

     atomic species   valence    mass     pseudopotential
        Pd1           16.00   106.42000     Pd( 1.00)
        Hg1           12.00   200.59200     Hg( 1.00)

     No symmetry found

   Cartesian axes

     site n.     atom                  positions (alat units)
         1           Pd1 tau(   1) = (   0.0000000   0.0000000  10.0000000  )
         2           Pd1 tau(   2) = (   4.1977142   2.6433921  10.0000000  )
         3           Hg1 tau(   3) = (   2.9311579   0.0000000  10.0000000  )
         4           Hg1 tau(   4) = (   1.2665563   2.6433921  10.0000000  )
         5           Pd1 tau(   5) = (   5.8623158   3.6916279  12.4266692  )
         6           Pd1 tau(   6) = (   1.6646015   1.0482358  12.4266692  )
         7           Hg1 tau(   7) = (   2.9311579   3.6916279  12.4266692  )
         8           Hg1 tau(   8) = (   4.5957594   1.0482358  12.4266692  )
         9           Pd1 tau(   9) = (   3.3292031   2.0964717  14.8533383  )
        10           Pd1 tau(  10) = (   7.5269173   4.7398637  14.8533383  )
        11           Hg1 tau(  11) = (   6.2603610   2.0964717  14.8533383  )
        12           Hg1 tau(  12) = (   4.5957594   4.7398637  14.8533383  )

     number of k points=    20  Fermi-Dirac smearing, width (Ry)=  0.0110
                       cart. coord. in units 2pi/alat
        k(    1) = (   0.0000000   0.0000000   0.0000000), wk =   0.0555556
        k(    2) = (   0.0000000   0.0315252   0.0000000), wk =   0.1111111
        k(    3) = (   0.0000000   0.0630503   0.0000000), wk =   0.1111111
        k(    4) = (   0.0000000  -0.0945755   0.0000000), wk =   0.0555556
        k(    5) = (   0.0284302  -0.0136221   0.0000000), wk =   0.1111111
        k(    6) = (   0.0284302   0.0179031   0.0000000), wk =   0.1111111
        k(    7) = (   0.0284302   0.0494283   0.0000000), wk =   0.1111111
        k(    8) = (   0.0284302  -0.1081975   0.0000000), wk =   0.1111111
        k(    9) = (   0.0284302  -0.0766724   0.0000000), wk =   0.1111111
        k(   10) = (   0.0284302  -0.0451472   0.0000000), wk =   0.1111111
        k(   11) = (   0.0568604  -0.0272441   0.0000000), wk =   0.1111111
        k(   12) = (   0.0568604   0.0042811   0.0000000), wk =   0.1111111
        k(   13) = (   0.0568604   0.0358062   0.0000000), wk =   0.1111111
        k(   14) = (   0.0568604  -0.1218196   0.0000000), wk =   0.1111111
        k(   15) = (   0.0568604  -0.0902944   0.0000000), wk =   0.1111111
        k(   16) = (   0.0568604  -0.0587693   0.0000000), wk =   0.1111111
        k(   17) = (  -0.0852905   0.0408662   0.0000000), wk =   0.0555556
        k(   18) = (  -0.0852905   0.0723913   0.0000000), wk =   0.1111111
        k(   19) = (  -0.0852905   0.1039165   0.0000000), wk =   0.1111111
        k(   20) = (  -0.0852905  -0.0537093   0.0000000), wk =   0.0555556

     Largest allocated arrays     est. size (Mb)     dimensions
     Largest temporary arrays     est. size (Mb)     dimensions

     Initial potential from superposition of free atoms
     Check: negative starting charge=   -0.453476

     starting charge  164.99961, renormalised to  168.00000

     negative rho (up, down):  4.617E-01 0.000E+00

     *
     * You are using vdW-DF for exchange-correlation in this calculation.
     * Please cite the following three references that made this development
     * possible:
     *
     *   M. Dion, H. Rydberg, E. Schroder, D. C. Langreth, and
     *   B. I. Lundqvist, Phys. Rev. Lett. 92, 246401 (2004).
     *
     *   T. Thonhauser, V. R. Cooper, S. Li, A. Puzder, P. Hyldgaard, and
     *   D. C. Langreth, Phys. Rev. B 76, 125112 (2007).
     *
     *   G. Roman-Perez and J. M. Soler, Phys. Rev. Lett. 103, 096102 (2009).
     *
     *
     * If you are using vdW-DF2, please also cite:
     *
     *   K. Lee, E. D. Murray, L. Kong, B. I. Lundqvist, and
     *   D. C. Langreth, Phys. Rev. B 82, 081101(R) (2010).
     *
     *
     * If you are calculating the stress with vdW-DF, please also cite:
     *
     *   R. Sabatini, E. Kucukbenli, B. Kolb, T. Thonhauser, and
     *   S. de Gironcoli, J. Phys.: Condens. Matter 24, 424209 (2012).
     *

     Carrying out vdW-DF run using the following parameters:

     Nqs =      20    Nr_points =    1024   r_max =   100.000
     q_mesh =
               0.00001000     0.04494208     0.09755937     0.15916263
               0.23128650     0.31572767     0.41458969     0.53033537
               0.66584808     0.82450364     1.01025438     1.22772762
               1.48234092     1.78043706     2.12944203     2.53805004
               3.01644009     3.57652955     4.23227104     5.00000000

     Gradients computed in reciprocal space

     Adding external electric field

     Computed dipole along edir(3) :
        Dipole               -0.0000 Ry au,         -0.0000 Debye
        Dipole field         -0.0000 Ry au

        Potential amp.        0.0000 Ry
        Total length         45.7919 bohr

     Starting wfc are  126 randomized atomic wfcs

     Self-consistent Calculation

     iteration #  1     ecut=    36.75 Ry     beta=0.10
     Davidson diagonalization with overlap
     ethr =  1.00E-02,  avg # of iterations =  7.8

[...]

     total energy              =   -1853.44726308 Ry
     Harris-Foulkes estimate   =   -1854.22289939 Ry
     estimated scf accuracy    <       4.74355236 Ry

[...]

     End of self-consistent calculation

          k = 0.0000 0.0000 0.0000 ( 19579 PWs)   bands (ev):

   -48.9304 -48.9298 -48.9253 -48.8789 -48.8716 -48.8671 -48.6956 -48.6950
   -48.6912 -48.6906 -48.6898 -48.6897 -48.6391 -48.6390 -48.5941 -48.5931
   -48.5897 -48.5889  -7.4058  -7.1041  -7.0843  -6.9313  -6.9292  -6.9274
    -6.8385  -6.7527  -6.6468  -6.6432  -6.6006  -6.5785  -6.3401  -6.3020
    -6.2878  -6.2346  -6.1504  -6.1180  -6.0817  -6.0166  -5.9795  -5.9392
    -5.9391  -5.7915  -5.7731  -5.7131  -5.6263  -5.6089  -5.5692  -5.5689
    -5.1617  -5.1203  -3.6526  -3.1864  -2.5915  -2.5873  -1.9901  -1.7689
    -1.7066  -1.5191  -1.5050  -1.4842  -1.3967  -1.2909  -1.1614  -1.0720
    -1.0401  -0.8679  -0.8514  -0.8492  -0.7259  -0.6898  -0.5945  -0.5632
    -0.5176  -0.5046  -0.3407  -0.3214  -0.3166  -0.2804  -0.2549  -0.1819
     0.0247   0.8866   0.9390   0.9606   1.2453   1.3344   1.7602   1.7848
     1.7853   2.3649   2.5290   3.2244   3.3414   3.8019   4.6637   4.8035
     4.8377   5.2188   5.3988   5.4746   5.7257   5.8656   6.3861   6.5662
     6.8706   7.4712   7.8113   8.3029   8.4987   8.6286   8.6454   8.8210
     9.2842   9.5813

[...]

          k =-0.0853 0.0409 0.0000 ( 19584 PWs)   bands (ev):

[...]

     the Fermi energy is     0.7834 ev

!    total energy              =   -1853.40489550 Ry
     Harris-Foulkes estimate   =   -1853.40489760 Ry
     estimated scf accuracy    <       0.00000033 Ry

     The total energy is the sum of the following terms:

     one-electron contribution =  -13363.71911062 Ry
     hartree contribution      =    6752.64916569 Ry
     xc contribution           =    -438.18618993 Ry
     ewald contribution        =    5195.87537622 Ry
     electric field correction =       0.00000000 Ry
     smearing contrib. (-TS)   =      -0.02413687 Ry

     convergence has been achieved in  15 iterations

 BEEF-vdW xc energy contributions
           1 :   -383.035525458717
           2 :    351.454089901126
           3 :   -297.044885423031
           4 :    233.572628348736
           5 :   -174.575176155172
           6 :    129.044575703262
           7 :   -99.5553800993264
           8 :    83.1234146032079
           9 :   -73.9590894951570
          10 :    66.6118465366005
          11 :   -58.0942128664094
[...]
   This run was terminated on:   1:52:45  19Dec2018

[...]

     Program PWSCF v.5.1rc2 (svn rev. 11289) starts on 19Dec2018 at  1:52:51

[...]

   This run was terminated on:   1:57: 3  19Dec2018

[...]

   This run was terminated on:   2: 1:21  19Dec2018

[...]

     Program PWSCF v.5.1rc2 (svn rev. 11289) starts on 19Dec2018 at  2: 1:27

[...]

     Program PWSCF v.5.1rc2 (svn rev. 11289) starts on 19Dec2018 at  2: 5:45

[...]

   This run was terminated on:   2: 9:54  19Dec2018

[...]

     Program PWSCF v.5.1rc2 (svn rev. 11289) starts on 19Dec2018 at  2:10: 0

     Current dimensions of program PWSCF are:
     Max number of different atomic species (ntypx) = 10
     Max number of k-points (npk) =  40000
     Max angular momentum in pseudopotentials (lmaxx) =  3
     Presently stress not available with electric field

     IMPORTANT: XC functional enforced from input :
     Exchange-correlation      = BEEF-VDW ( 1  4 27 13 2)
     Any further DFT definition will be discarded
     Please, verify this is what you really want

     Subspace diagonalization in iterative solution of the eigenvalue problem:
     a serial algorithm will be used

     Found symmetry operation: I + ( -0.5000 -0.5000  0.0000)
     This is a supercell, fractional translations are disabled

     bravais-lattice index     =            0
     lattice parameter (alat)  =       1.8897  a.u.
     unit-cell volume          =    5198.0699 (a.u.)^3
     number of atoms/cell      =           12
     number of atomic types    =            2
     number of electrons       =       168.00
     number of Kohn-Sham states=          114
     kinetic-energy cutoff     =      36.7493  Ry
     charge density cutoff     =     367.4932  Ry
     convergence threshold     =      1.0E-06
     mixing beta               =       0.1000
     number of iterations used =           10  plain     mixing
     Exchange-correlation      = BEEF-VDW ( 1  4 27 13 2)
     nstep                     =           50

     celldm(1)=   1.889726  celldm(2)=   0.000000  celldm(3)=   0.000000
     celldm(4)=   0.000000  celldm(5)=   0.000000  celldm(6)=   0.000000

     crystal axes: (cart. coord. in units of alat)
               a(1) = (   5.862316   0.000000   0.000000 )
               a(2) = (   2.533113   5.286784   0.000000 )
               a(3) = (   0.000000   0.000000  24.853338 )

     reciprocal axes: (cart. coord. in units 2 pi/alat)
               b(1) = (  0.170581 -0.081732  0.000000 )
               b(2) = (  0.000000  0.189151  0.000000 )
               b(3) = (  0.000000  0.000000  0.040236 )

     PseudoPot. # 1 for Pd read from file:
     /afs/slac.stanford.edu/u/if/mamunm/psp/gbrv1.5pbe/Pd.UPF
     MD5 check sum: 2d733d2bc2cbfd217af676df1668a4bc
     Pseudo is Ultrasoft + core correction, Zval = 16.0
     Generated by new atomic code, or converted to UPF format
     Using radial grid of  887 points,  6 beta functions with:
                l(1) =   0
                l(2) =   0
                l(3) =   1
                l(4) =   1
                l(5) =   2
                l(6) =   2
     Q(r) pseudized with  8 coefficients,  rinner =    1.130   1.130   1.130
                                                       1.130   1.130

     PseudoPot. # 2 for Hg read from file:
     /afs/slac.stanford.edu/u/if/mamunm/psp/gbrv1.5pbe/Hg.UPF
     MD5 check sum: 8f42caffe07f7fd9c0a564347f8c5498
     Pseudo is Ultrasoft + core correction, Zval = 12.0
     Generated by new atomic code, or converted to UPF format
     Using radial grid of  985 points,  6 beta functions with:
                l(1) =   0
                l(2) =   0
                l(3) =   1
                l(4) =   1
                l(5) =   2
                l(6) =   2
     Q(r) pseudized with  8 coefficients,  rinner =    2.000   2.000   2.000
                                                       2.000   2.000

     vdW kernel table read from file vdW_kernel_table
     MD5 check sum: 095c7af220d748ca6e76c0b4c6cfb241

     atomic species   valence    mass     pseudopotential
        Pd1           16.00   106.42000     Pd( 1.00)
        Hg1           12.00   200.59200     Hg( 1.00)

     No symmetry found

   Cartesian axes

     site n.     atom                  positions (alat units)
         1           Pd1 tau(   1) = (   0.0000000   0.0000000  10.0000000  )
         2           Pd1 tau(   2) = (   4.1977142   2.6433921  10.0000000  )
         3           Hg1 tau(   3) = (   2.9311579   0.0000000  10.0000000  )
         4           Hg1 tau(   4) = (   1.2665563   2.6433921  10.0000000  )
         5           Pd1 tau(   5) = (   5.8623158   3.6916279  12.4266692  )
         6           Pd1 tau(   6) = (   1.6646015   1.0482358  12.4266692  )
         7           Hg1 tau(   7) = (   2.9311579   3.6916279  12.4266692  )
         8           Hg1 tau(   8) = (   4.5957594   1.0482358  12.4266692  )
         9           Pd1 tau(   9) = (   3.3046841   2.0810258  14.7221000  )
        10           Pd1 tau(  10) = (   7.5023942   4.7244241  14.7221004  )
        11           Hg1 tau(  11) = (   6.2613334   2.0970830  15.0914839  )
        12           Hg1 tau(  12) = (   4.5967373   4.7404808  15.0914925  )

     number of k points=    20  Fermi-Dirac smearing, width (Ry)=  0.0110
                       cart. coord. in units 2pi/alat
        k(    1) = (   0.0000000   0.0000000   0.0000000), wk =   0.0555556
        k(    2) = (   0.0000000   0.0315252   0.0000000), wk =   0.1111111
        k(    3) = (   0.0000000   0.0630503   0.0000000), wk =   0.1111111
        k(    4) = (   0.0000000  -0.0945755   0.0000000), wk =   0.0555556
        k(    5) = (   0.0284302  -0.0136221   0.0000000), wk =   0.1111111
        k(    6) = (   0.0284302   0.0179031   0.0000000), wk =   0.1111111
        k(    7) = (   0.0284302   0.0494283   0.0000000), wk =   0.1111111
        k(    8) = (   0.0284302  -0.1081975   0.0000000), wk =   0.1111111
        k(    9) = (   0.0284302  -0.0766724   0.0000000), wk =   0.1111111
        k(   10) = (   0.0284302  -0.0451472   0.0000000), wk =   0.1111111
        k(   11) = (   0.0568604  -0.0272441   0.0000000), wk =   0.1111111
        k(   12) = (   0.0568604   0.0042811   0.0000000), wk =   0.1111111
        k(   13) = (   0.0568604   0.0358062   0.0000000), wk =   0.1111111
        k(   14) = (   0.0568604  -0.1218196   0.0000000), wk =   0.1111111
        k(   15) = (   0.0568604  -0.0902944   0.0000000), wk =   0.1111111
        k(   16) = (   0.0568604  -0.0587693   0.0000000), wk =   0.1111111
        k(   17) = (  -0.0852905   0.0408662   0.0000000), wk =   0.0555556
        k(   18) = (  -0.0852905   0.0723913   0.0000000), wk =   0.1111111
        k(   19) = (  -0.0852905   0.1039165   0.0000000), wk =   0.1111111
        k(   20) = (  -0.0852905  -0.0537093   0.0000000), wk =   0.0555556

     Largest allocated arrays     est. size (Mb)     dimensions
     Largest temporary arrays     est. size (Mb)     dimensions

     Initial potential from superposition of free atoms
     Check: negative starting charge=   -0.450361

     starting charge  164.99961, renormalised to  168.00000

[...]

     *
     * You are using vdW-DF for exchange-correlation in this calculation.
     * Please cite the following three references that made this development
     * possible:
     *
     *   M. Dion, H. Rydberg, E. Schroder, D. C. Langreth, and
     *   B. I. Lundqvist, Phys. Rev. Lett. 92, 246401 (2004).
     *
     *   T. Thonhauser, V. R. Cooper, S. Li, A. Puzder, P. Hyldgaard, and
     *   D. C. Langreth, Phys. Rev. B 76, 125112 (2007).
     *
     *   G. Roman-Perez and J. M. Soler, Phys. Rev. Lett. 103, 096102 (2009).
     *
     *
     * If you are using vdW-DF2, please also cite:
     *
     *   K. Lee, E. D. Murray, L. Kong, B. I. Lundqvist, and
     *   D. C. Langreth, Phys. Rev. B 82, 081101(R) (2010).
     *
     *
     * If you are calculating the stress with vdW-DF, please also cite:
     *
     *   R. Sabatini, E. Kucukbenli, B. Kolb, T. Thonhauser, and
     *   S. de Gironcoli, J. Phys.: Condens. Matter 24, 424209 (2012).
     *

     Carrying out vdW-DF run using the following parameters:

     Nqs =      20    Nr_points =    1024   r_max =   100.000
     q_mesh =
               0.00001000     0.04494208     0.09755937     0.15916263
               0.23128650     0.31572767     0.41458969     0.53033537
               0.66584808     0.82450364     1.01025438     1.22772762
               1.48234092     1.78043706     2.12944203     2.53805004
               3.01644009     3.57652955     4.23227104     5.00000000

     Gradients computed in reciprocal space

[...]

     Starting wfc are  126 randomized atomic wfcs

     Self-consistent Calculation

[...]

     total energy              =   -1853.41760421 Ry
     Harris-Foulkes estimate   =   -1853.41760415 Ry
     estimated scf accuracy    <       0.00000292 Ry

     iteration # 15     ecut=    36.75 Ry     beta=0.10
     Davidson diagonalization with overlap
     ethr =  1.74E-09,  avg # of iterations =  1.5

[...]

     negative rho (up, down):  4.651E-01 0.000E+00

     Adding external electric field

     Computed dipole along edir(3) :
        Dipole                0.0108 Ry au,          0.0274 Debye
        Dipole field          0.0000 Ry au

        Potential amp.       -0.0024 Ry
        Total length         45.7919 bohr

     End of self-consistent calculation

[...]

          k = 0.0569-0.0588 0.0000 ( 19528 PWs)   bands (ev):

[...]

          k =-0.0853-0.0537 0.0000 ( 19554 PWs)   bands (ev):

   -48.8114 -48.8067 -48.7920 -48.7406 -48.7373 -48.7322 -48.7318 -48.7154
   -48.7117 -48.6813 -48.6681 -48.6636 -48.6615 -48.6563 -48.6521 -48.6106
   -48.5638 -48.5595  -7.1362  -6.8261  -6.8158  -6.6855  -6.6827  -6.6657
    -6.5073  -6.4489  -6.4174  -6.3795  -6.3033  -6.2407  -6.1180  -6.0877
    -6.0538  -6.0369  -5.9819  -5.9476  -5.9128  -5.8999  -5.8404  -5.8168
    -5.7574  -5.6214  -5.5740  -5.5602  -5.5180  -5.4506  -5.4333  -5.1248
    -5.0484  -4.8293  -3.5492  -2.8357  -2.7596  -2.5693  -2.5318  -2.2883
    -2.2011  -2.0319  -2.0170  -1.8744  -1.8329  -1.7658  -1.7618  -1.6757
    -1.6171  -1.4989  -1.3219  -1.2865  -1.1385  -1.1083  -0.9666  -0.9494
    -0.8688  -0.8123  -0.6724  -0.6033  -0.5624  -0.4762  -0.3385  -0.3159
    -0.2999  -0.2233   0.1240   0.2053   0.9775   1.3293   1.3842   1.7903
     2.0434   3.3730   3.6975   3.8761   5.4390   5.5828   5.7745   5.9218
     6.5149   6.5540   6.5866   6.7652   6.8281   6.8371   7.1934   7.7054
     7.8197   7.8443   7.8585   7.9455   8.0700   8.1725   8.2330   8.2656
     8.7612   9.0060

     the Fermi energy is     0.7947 ev

!    total energy              =   -1853.41760645 Ry
     Harris-Foulkes estimate   =   -1853.41760459 Ry
     estimated scf accuracy    <       0.00000069 Ry

     The total energy is the sum of the following terms:

     one-electron contribution =  -13303.09949820 Ry
     hartree contribution      =    6722.65647217 Ry
     xc contribution           =    -438.14181819 Ry
     ewald contribution        =    5165.18982220 Ry
     electric field correction =       0.00000028 Ry
     smearing contrib. (-TS)   =      -0.02258472 Ry

     convergence has been achieved in  15 iterations

 BEEF-vdW xc energy contributions
           1 :   -382.983785605524
           2 :    351.354092831945
           3 :   -296.887000782145
           4 :    233.394990128885
           5 :   -174.440028097829
           6 :    128.997577058378
           7 :   -99.5926811241688
           8 :    83.1892878548675
           9 :   -73.9788393176874
          10 :    66.5403257065244
          11 :   -57.9477085150027
          12 :    48.1327472100953
          13 :   -38.7767747901731
          14 :    31.6555430277105
          15 :   -27.4312948093933
          16 :    25.4170631877093
          17 :   -24.2007042230377
          18 :    22.5716248505196
          19 :   -20.1505606393022
          20 :    17.4065922332021
          21 :   -15.1613211483905
          22 :    13.9638607475106
          23 :   -13.7391275717582
          24 :    13.8822954280586
          25 :   -13.6791813798142
          26 :    12.7513151268245
          27 :   -11.2517259991617
          28 :    9.71843216407041
          29 :   -8.71078314733091
          30 :    8.46877811009699
          31 :   -36.3010858904129
          32 :   -26.7613647068495

     Forces acting on atoms (Ry/au):

     negative rho (up, down):  4.651E-01 0.000E+00
     atom    1 type  1   force =     0.00288916    0.00181938    0.01712370
     atom    2 type  1   force =     0.00288910    0.00181962    0.01712372
     atom    3 type  2   force =    -0.00351675   -0.00221422   -0.01904719
     atom    4 type  2   force =    -0.00351627   -0.00221524   -0.01904646
     atom    5 type  1   force =    -0.00415201   -0.00261484    0.00759974
     atom    6 type  1   force =    -0.00415232   -0.00261421    0.00759927
     atom    7 type  2   force =     0.00626607    0.00394568   -0.00623406
     atom    8 type  2   force =     0.00626546    0.00394493   -0.00623337
     atom    9 type  1   force =    -0.00083936   -0.00052752    0.00071476
     atom   10 type  1   force =    -0.00083927   -0.00052947    0.00071437
     atom   11 type  2   force =    -0.00064654   -0.00040560   -0.00015785
     atom   12 type  2   force =    -0.00064727   -0.00040850   -0.00015662

     Total force =     0.041534     Total SCF correction =     0.003903

     entering subroutine stress ...

     negative rho (up, down):  4.651E-01 0.000E+00
          total   stress  (Ry/bohr**3)                   (kbar)     P=   -7.71
  -0.00008940  -0.00002494  -0.00000171        -13.15     -3.67     -0.25
  -0.00002494  -0.00006550  -0.00000108         -3.67     -9.64     -0.16
  -0.00000171  -0.00000108  -0.00000226         -0.25     -0.16     -0.33

 !ASE

     Writing output data file calc.save

     General routines

     Parallel routines

   This run was terminated on:   2:14: 6  19Dec2018

   JOB DONE.
Job  /afs/slac/g/suncat/bin/suncat-tsmpirun -x LD_LIBRARY_PATH -wdir /scratch/qe530415_4UCOi pw.x -in pw.inp

TID   HOST_NAME   COMMAND_LINE            STATUS            TERMINATION_TIME
00000 suncat2060 pw.x -in pw.inp   Done                     12/19/2018 02:14:06
00001 suncat2060 pw.x -in pw.inp   Done                     12/19/2018 02:14:06
00002 suncat2060 pw.x -in pw.inp   Done                     12/19/2018 02:14:06
00003 suncat2060 pw.x -in pw.inp   Done                     12/19/2018 02:14:06
00004 suncat2060 pw.x -in pw.inp   Done                     12/19/2018 02:14:06
00005 suncat2060 pw.x -in pw.inp   Done                     12/19/2018 02:14:06
00006 suncat2060 pw.x -in pw.inp   Done                     12/19/2018 02:14:06
00007 suncat2060 pw.x -in pw.inp   Done                     12/19/2018 02:14:06
00008 suncat2060 pw.x -in pw.inp   Done                     12/19/2018 02:14:06
00009 suncat2060 pw.x -in pw.inp   Done                     12/19/2018 02:14:06
00010 suncat2060 pw.x -in pw.inp   Done                     12/19/2018 02:14:06
00011 suncat2060 pw.x -in pw.inp   Done                     12/19/2018 02:14:06
00012 suncat2060 pw.x -in pw.inp   Done                     12/19/2018 02:14:06
00013 suncat2060 pw.x -in pw.inp   Done                     12/19/2018 02:14:06
00014 suncat2060 pw.x -in pw.inp   Done                     12/19/2018 02:14:06
00015 suncat2060 pw.x -in pw.inp   Done                     12/19/2018 02:14:06
00016 suncat2059 pw.x -in pw.inp   Done                     12/19/2018 02:14:06
00017 suncat2059 pw.x -in pw.inp   Done                     12/19/2018 02:14:06
00018 suncat2059 pw.x -in pw.inp   Done                     12/19/2018 02:14:06
00019 suncat2059 pw.x -in pw.inp   Done                     12/19/2018 02:14:06
00020 suncat2059 pw.x -in pw.inp   Done                     12/19/2018 02:14:06
00021 suncat2059 pw.x -in pw.inp   Done                     12/19/2018 02:14:06
00022 suncat2059 pw.x -in pw.inp   Done                     12/19/2018 02:14:06
00023 suncat2059 pw.x -in pw.inp   Done                     12/19/2018 02:14:06
00024 suncat2059 pw.x -in pw.inp   Done                     12/19/2018 02:14:06
00025 suncat2059 pw.x -in pw.inp   Done                     12/19/2018 02:14:06
00026 suncat2059 pw.x -in pw.inp   Done                     12/19/2018 02:14:06
00027 suncat2059 pw.x -in pw.inp   Done                     12/19/2018 02:14:06
00028 suncat2059 pw.x -in pw.inp   Done                     12/19/2018 02:14:06
00029 suncat2059 pw.x -in pw.inp   Done                     12/19/2018 02:14:06
00030 suncat2059 pw.x -in pw.inp   Done                     12/19/2018 02:14:06
00031 suncat2059 pw.x -in pw.inp   Done                     12/19/2018 02:14:06