     Program PWSCF v.5.1rc2 (svn rev. 11289) starts on 18Dec2018 at 16:49:54

     Current dimensions of program PWSCF are:
     Max number of different atomic species (ntypx) = 10
     Max number of k-points (npk) =  40000
     Max angular momentum in pseudopotentials (lmaxx) =  3
     Presently stress not available with electric field

     IMPORTANT: XC functional enforced from input :
     Exchange-correlation      = BEEF-VDW ( 1  4 27 13 2)
     Any further DFT definition will be discarded
     Please, verify this is what you really want

     Subspace diagonalization in iterative solution of the eigenvalue problem:
     a serial algorithm will be used

     Found symmetry operation: I + (  0.5000 -0.5000  0.0000)
     This is a supercell, fractional translations are disabled

     bravais-lattice index     =            0
     lattice parameter (alat)  =       1.8897  a.u.
     unit-cell volume          =    5763.8461 (a.u.)^3
     number of atoms/cell      =           12
     number of atomic types    =            2
     number of electrons       =        90.00
     number of Kohn-Sham states=           75
     kinetic-energy cutoff     =      36.7493  Ry
     charge density cutoff     =     367.4932  Ry
     convergence threshold     =      1.0E-06
     mixing beta               =       0.1000
     number of iterations used =           10  plain     mixing
     Exchange-correlation      = BEEF-VDW ( 1  4 27 13 2)
     nstep                     =           50

     celldm(1)=   1.889726  celldm(2)=   0.000000  celldm(3)=   0.000000
     celldm(4)=   0.000000  celldm(5)=   0.000000  celldm(6)=   0.000000

     crystal axes: (cart. coord. in units of alat)
               a(1) = (   6.198844   0.000000   0.000000 )
               a(2) = (   2.883105   5.487565   0.000000 )
               a(3) = (   0.000000   0.000000  25.108768 )

     reciprocal axes: (cart. coord. in units 2 pi/alat)
               b(1) = (  0.161320 -0.084756  0.000000 )
               b(2) = (  0.000000  0.182230  0.000000 )
               b(3) = (  0.000000  0.000000  0.039827 )

     PseudoPot. # 1 for Al read from file:
     /afs/slac.stanford.edu/u/if/mamunm/psp/gbrv1.5pbe/Al.UPF
     MD5 check sum: 0a6289f5291fc8f409219462bc851e1f
     Pseudo is Ultrasoft + core correction, Zval =  3.0
     Generated by new atomic code, or converted to UPF format
     Using radial grid of  893 points,  3 beta functions with:
                l(1) =   0
                l(2) =   1
                l(3) =   2
     Q(r) pseudized with  8 coefficients,  rinner =    0.900   0.900   0.900
                                                       0.900   0.900

     PseudoPot. # 2 for Hg read from file:
     /afs/slac.stanford.edu/u/if/mamunm/psp/gbrv1.5pbe/Hg.UPF
     MD5 check sum: 8f42caffe07f7fd9c0a564347f8c5498
     Pseudo is Ultrasoft + core correction, Zval = 12.0
     Generated by new atomic code, or converted to UPF format
     Using radial grid of  985 points,  6 beta functions with:
                l(1) =   0
                l(2) =   0
                l(3) =   1
                l(4) =   1
                l(5) =   2
                l(6) =   2
     Q(r) pseudized with  8 coefficients,  rinner =    2.000   2.000   2.000
                                                       2.000   2.000

     vdW kernel table read from file vdW_kernel_table
     MD5 check sum: 095c7af220d748ca6e76c0b4c6cfb241

     atomic species   valence    mass     pseudopotential
        Al1            3.00    26.98154     Al( 1.00)
        Hg1           12.00   200.59200     Hg( 1.00)

     No symmetry found

   Cartesian axes

     site n.     atom                  positions (alat units)
         1           Al1 tau(   1) = (   0.0000000   0.0000000  10.0000000  )
         2           Al1 tau(   2) = (   4.5409742   2.7437825  10.0000000  )
         3           Hg1 tau(   3) = (   3.0994219   0.0000000  10.0000000  )
         4           Hg1 tau(   4) = (   1.4415523   2.7437825  10.0000000  )
         5           Al1 tau(   5) = (   6.1988437   3.7455133  12.5543841  )
         6           Al1 tau(   6) = (   1.6578695   1.0017307  12.5543841  )
         7           Hg1 tau(   7) = (   3.0994219   3.7455133  12.5543841  )
         8           Hg1 tau(   8) = (   4.7572914   1.0017307  12.5543841  )
         9           Al1 tau(   9) = (   3.3157390   2.0034615  15.1087682  )
        10           Al1 tau(  10) = (   7.8567132   4.7472440  15.1087682  )
        11           Hg1 tau(  11) = (   6.4151609   2.0034615  15.1087682  )
        12           Hg1 tau(  12) = (   4.7572914   4.7472440  15.1087682  )

     number of k points=    20  Fermi-Dirac smearing, width (Ry)=  0.0110
                       cart. coord. in units 2pi/alat
        k(    1) = (   0.0000000   0.0000000   0.0000000), wk =   0.0555556
        k(    2) = (   0.0000000   0.0303717   0.0000000), wk =   0.1111111
        k(    3) = (   0.0000000   0.0607434   0.0000000), wk =   0.1111111
        k(    4) = (   0.0000000  -0.0911151   0.0000000), wk =   0.0555556
        k(    5) = (   0.0268867  -0.0141260   0.0000000), wk =   0.1111111
        k(    6) = (   0.0268867   0.0162457   0.0000000), wk =   0.1111111
        k(    7) = (   0.0268867   0.0466174   0.0000000), wk =   0.1111111
        k(    8) = (   0.0268867  -0.1052411   0.0000000), wk =   0.1111111
        k(    9) = (   0.0268867  -0.0748694   0.0000000), wk =   0.1111111
        k(   10) = (   0.0268867  -0.0444977   0.0000000), wk =   0.1111111
        k(   11) = (   0.0537735  -0.0282520   0.0000000), wk =   0.1111111
        k(   12) = (   0.0537735   0.0021197   0.0000000), wk =   0.1111111
        k(   13) = (   0.0537735   0.0324914   0.0000000), wk =   0.1111111
        k(   14) = (   0.0537735  -0.1193671   0.0000000), wk =   0.1111111
        k(   15) = (   0.0537735  -0.0889954   0.0000000), wk =   0.1111111
        k(   16) = (   0.0537735  -0.0586237   0.0000000), wk =   0.1111111
        k(   17) = (  -0.0806602   0.0423780   0.0000000), wk =   0.0555556
        k(   18) = (  -0.0806602   0.0727497   0.0000000), wk =   0.1111111
        k(   19) = (  -0.0806602   0.1031214   0.0000000), wk =   0.1111111
        k(   20) = (  -0.0806602  -0.0487371   0.0000000), wk =   0.0555556

     Largest allocated arrays     est. size (Mb)     dimensions
     Largest temporary arrays     est. size (Mb)     dimensions

     Initial potential from superposition of free atoms
     Check: negative starting charge=   -0.000145

     starting charge   89.98486, renormalised to   90.00000

     negative rho (up, down):  1.450E-04 0.000E+00

     *
     * You are using vdW-DF for exchange-correlation in this calculation.
     * Please cite the following three references that made this development
     * possible:
     *
     *   M. Dion, H. Rydberg, E. Schroder, D. C. Langreth, and
     *   B. I. Lundqvist, Phys. Rev. Lett. 92, 246401 (2004).
     *
     *   T. Thonhauser, V. R. Cooper, S. Li, A. Puzder, P. Hyldgaard, and
     *   D. C. Langreth, Phys. Rev. B 76, 125112 (2007).
     *
     *   G. Roman-Perez and J. M. Soler, Phys. Rev. Lett. 103, 096102 (2009).
     *
     *
     * If you are using vdW-DF2, please also cite:
     *
     *   K. Lee, E. D. Murray, L. Kong, B. I. Lundqvist, and
     *   D. C. Langreth, Phys. Rev. B 82, 081101(R) (2010).
     *
     *
     * If you are calculating the stress with vdW-DF, please also cite:
     *
     *   R. Sabatini, E. Kucukbenli, B. Kolb, T. Thonhauser, and
     *   S. de Gironcoli, J. Phys.: Condens. Matter 24, 424209 (2012).
     *

     Carrying out vdW-DF run using the following parameters:

     Nqs =      20    Nr_points =    1024   r_max =   100.000
     q_mesh =
               0.00001000     0.04494208     0.09755937     0.15916263
               0.23128650     0.31572767     0.41458969     0.53033537
               0.66584808     0.82450364     1.01025438     1.22772762
               1.48234092     1.78043706     2.12944203     2.53805004
               3.01644009     3.57652955     4.23227104     5.00000000

     Gradients computed in reciprocal space

     Adding external electric field

     Computed dipole along edir(3) :
        Dipole                0.0000 Ry au,          0.0000 Debye
        Dipole field          0.0000 Ry au

        Potential amp.       -0.0000 Ry
        Total length         46.2625 bohr

     Starting wfc are   78 randomized atomic wfcs

     Self-consistent Calculation

     iteration #  1     ecut=    36.75 Ry     beta=0.10
     Davidson diagonalization with overlap
     ethr =  1.00E-02,  avg # of iterations =  7.7

     Threshold (ethr) on eigenvalues was too large:
     Diagonalizing with lowered threshold

     Davidson diagonalization with overlap
     ethr =  1.54E-04,  avg # of iterations =  6.0

[...]

     total energy              =    -695.59971690 Ry
     Harris-Foulkes estimate   =    -695.61808341 Ry
     estimated scf accuracy    <       0.14717795 Ry

[...]

     End of self-consistent calculation

          k = 0.0000 0.0000 0.0000 ( 21723 PWs)   bands (ev):

    -9.4537  -8.3949  -8.3656  -8.3154  -8.3108  -8.2749  -8.0251  -7.9586
    -7.9527  -7.9214  -7.8831  -7.7542  -7.7507  -7.6565  -7.4489  -7.4328
    -7.3863  -7.3796  -7.3546  -7.3332  -7.2986  -7.2659  -7.2111  -7.1345
    -7.0762  -7.0735  -7.0620  -7.0452  -7.0001  -6.9458  -6.9331  -6.6086
    -4.9711  -3.7133  -3.6832  -3.4153  -3.1981  -3.1698  -3.1499  -2.4610
    -2.2802  -2.1319  -1.9499  -1.8537  -1.7199  -1.5036  -0.3781  -0.3375
    -0.1755   0.1074   0.1876   0.3043   1.2763   2.8384   2.8776   3.1760
     3.2371   3.5048   3.7625   3.8544   4.0479   4.5258   4.6471   4.8261
     4.9456   5.8554   6.0337   6.1060   6.1567   6.2018   6.5812   6.6167
     6.6213   6.7668   7.1366

[...]

          k =-0.0807 0.0424 0.0000 ( 21650 PWs)   bands (ev):

[...]

     the Fermi energy is    -0.2839 ev

!    total energy              =    -695.58166404 Ry
     Harris-Foulkes estimate   =    -695.58166262 Ry
     estimated scf accuracy    <       0.00000034 Ry

     The total energy is the sum of the following terms:

     one-electron contribution =   -3432.45656736 Ry
     hartree contribution      =    1762.76825412 Ry
     xc contribution           =    -268.47030041 Ry
     ewald contribution        =    1242.60387831 Ry
     electric field correction =       0.00000000 Ry
     smearing contrib. (-TS)   =      -0.02692871 Ry

     convergence has been achieved in  12 iterations

 BEEF-vdW xc energy contributions
           1 :   -233.910656194413
           2 :    213.821148895911
           3 :   -179.454623812666
           4 :    139.642777139397
           5 :   -102.609469089827
           6 :    73.4107862851600
           7 :   -53.2909563241741
           8 :    40.6664715156999
           9 :   -32.7759938167743
          10 :    27.0551886319917
          11 :   -21.8313389879299
          12 :    16.4411650682196
          13 :   -11.0455387201710
          14 :    6.29123469864572
          15 :   -2.86240709202440
          16 :    1.02617602428785
          17 :  -0.408422317498577
          18 :   0.186875140871422
[...]

[...]

     Found symmetry operation: I + (  0.5000 -0.5000  0.0000)
     This is a supercell, fractional translations are disabled

[...]

     Program PWSCF v.5.1rc2 (svn rev. 11289) starts on 18Dec2018 at 19: 6:35

[...]

     Program PWSCF v.5.1rc2 (svn rev. 11289) starts on 18Dec2018 at 19:43: 4

[...]

     iteration #  7     ecut=    36.75 Ry     beta=0.10
     Davidson diagonalization with overlap
     c_bands:  1 eigenvalues not converged
     ethr =  1.47E-06,  avg # of iterations =  5.2

[...]

     Total force =     0.031594     Total SCF correction =     0.003370
     SCF correction compared to forces is large: reduce conv_thr to get better values

[...]

   This run was terminated on:  20: 5:51  18Dec2018

[...]

     Program PWSCF v.5.1rc2 (svn rev. 11289) starts on 18Dec2018 at 20: 6: 2

[...]

     Program PWSCF v.5.1rc2 (svn rev. 11289) starts on 18Dec2018 at 20:17:46

     Current dimensions of program PWSCF are:
     Max number of different atomic species (ntypx) = 10
     Max number of k-points (npk) =  40000
     Max angular momentum in pseudopotentials (lmaxx) =  3
     Presently stress not available with electric field

     IMPORTANT: XC functional enforced from input :
     Exchange-correlation      = BEEF-VDW ( 1  4 27 13 2)
     Any further DFT definition will be discarded
     Please, verify this is what you really want

     Subspace diagonalization in iterative solution of the eigenvalue problem:
     a serial algorithm will be used

     bravais-lattice index     =            0
     lattice parameter (alat)  =       1.8897  a.u.
     unit-cell volume          =    5763.8461 (a.u.)^3
     number of atoms/cell      =           12
     number of atomic types    =            2
     number of electrons       =        90.00
     number of Kohn-Sham states=           75
     kinetic-energy cutoff     =      36.7493  Ry
     charge density cutoff     =     367.4932  Ry
     convergence threshold     =      1.0E-06
     mixing beta               =       0.1000
     number of iterations used =           10  plain     mixing
     Exchange-correlation      = BEEF-VDW ( 1  4 27 13 2)
     nstep                     =           50

     celldm(1)=   1.889726  celldm(2)=   0.000000  celldm(3)=   0.000000
     celldm(4)=   0.000000  celldm(5)=   0.000000  celldm(6)=   0.000000

     crystal axes: (cart. coord. in units of alat)
               a(1) = (   6.198844   0.000000   0.000000 )
               a(2) = (   2.883105   5.487565   0.000000 )
               a(3) = (   0.000000   0.000000  25.108768 )

     reciprocal axes: (cart. coord. in units 2 pi/alat)
               b(1) = (  0.161320 -0.084756  0.000000 )
               b(2) = (  0.000000  0.182230  0.000000 )
               b(3) = (  0.000000  0.000000  0.039827 )

     PseudoPot. # 1 for Al read from file:
     /afs/slac.stanford.edu/u/if/mamunm/psp/gbrv1.5pbe/Al.UPF
     MD5 check sum: 0a6289f5291fc8f409219462bc851e1f
     Pseudo is Ultrasoft + core correction, Zval =  3.0
     Generated by new atomic code, or converted to UPF format
     Using radial grid of  893 points,  3 beta functions with:
                l(1) =   0
                l(2) =   1
                l(3) =   2
     Q(r) pseudized with  8 coefficients,  rinner =    0.900   0.900   0.900
                                                       0.900   0.900

     PseudoPot. # 2 for Hg read from file:
     /afs/slac.stanford.edu/u/if/mamunm/psp/gbrv1.5pbe/Hg.UPF
     MD5 check sum: 8f42caffe07f7fd9c0a564347f8c5498
     Pseudo is Ultrasoft + core correction, Zval = 12.0
     Generated by new atomic code, or converted to UPF format
     Using radial grid of  985 points,  6 beta functions with:
                l(1) =   0
                l(2) =   0
                l(3) =   1
                l(4) =   1
                l(5) =   2
                l(6) =   2
     Q(r) pseudized with  8 coefficients,  rinner =    2.000   2.000   2.000
                                                       2.000   2.000

     vdW kernel table read from file vdW_kernel_table
     MD5 check sum: 095c7af220d748ca6e76c0b4c6cfb241

     atomic species   valence    mass     pseudopotential
        Al1            3.00    26.98154     Al( 1.00)
        Hg1           12.00   200.59200     Hg( 1.00)

     No symmetry found

   Cartesian axes

     site n.     atom                  positions (alat units)
         1           Al1 tau(   1) = (   0.0000000   0.0000000  10.0000000  )
         2           Al1 tau(   2) = (   4.5409742   2.7437825  10.0000000  )
         3           Hg1 tau(   3) = (   3.0994219   0.0000000  10.0000000  )
         4           Hg1 tau(   4) = (   1.4415523   2.7437825  10.0000000  )
         5           Al1 tau(   5) = (   6.1988437   3.7455133  12.5543841  )
         6           Al1 tau(   6) = (   1.6578695   1.0017307  12.5543841  )
         7           Hg1 tau(   7) = (   3.0994219   3.7455133  12.5543841  )
         8           Hg1 tau(   8) = (   4.7572914   1.0017307  12.5543841  )
         9           Al1 tau(   9) = (   2.8478864   1.7207193  14.9662193  )
        10           Al1 tau(  10) = (   7.3888901   4.4646615  14.9661831  )
        11           Hg1 tau(  11) = (   6.0121193   1.7599631  15.5304413  )
        12           Hg1 tau(  12) = (   4.3541874   4.5037702  15.5303386  )

     number of k points=    20  Fermi-Dirac smearing, width (Ry)=  0.0110
                       cart. coord. in units 2pi/alat
        k(    1) = (   0.0000000   0.0000000   0.0000000), wk =   0.0555556
        k(    2) = (   0.0000000   0.0303717   0.0000000), wk =   0.1111111
        k(    3) = (   0.0000000   0.0607434   0.0000000), wk =   0.1111111
        k(    4) = (   0.0000000  -0.0911151   0.0000000), wk =   0.0555556
        k(    5) = (   0.0268867  -0.0141260   0.0000000), wk =   0.1111111
        k(    6) = (   0.0268867   0.0162457   0.0000000), wk =   0.1111111
        k(    7) = (   0.0268867   0.0466174   0.0000000), wk =   0.1111111
        k(    8) = (   0.0268867  -0.1052411   0.0000000), wk =   0.1111111
        k(    9) = (   0.0268867  -0.0748694   0.0000000), wk =   0.1111111
        k(   10) = (   0.0268867  -0.0444977   0.0000000), wk =   0.1111111
        k(   11) = (   0.0537735  -0.0282520   0.0000000), wk =   0.1111111
        k(   12) = (   0.0537735   0.0021197   0.0000000), wk =   0.1111111
        k(   13) = (   0.0537735   0.0324914   0.0000000), wk =   0.1111111
        k(   14) = (   0.0537735  -0.1193671   0.0000000), wk =   0.1111111
        k(   15) = (   0.0537735  -0.0889954   0.0000000), wk =   0.1111111
        k(   16) = (   0.0537735  -0.0586237   0.0000000), wk =   0.1111111
        k(   17) = (  -0.0806602   0.0423780   0.0000000), wk =   0.0555556
        k(   18) = (  -0.0806602   0.0727497   0.0000000), wk =   0.1111111
        k(   19) = (  -0.0806602   0.1031214   0.0000000), wk =   0.1111111
        k(   20) = (  -0.0806602  -0.0487371   0.0000000), wk =   0.0555556

     Largest allocated arrays     est. size (Mb)     dimensions
     Largest temporary arrays     est. size (Mb)     dimensions

     Initial potential from superposition of free atoms
     Check: negative starting charge=   -0.000141

     starting charge   89.98486, renormalised to   90.00000

[...]

     *
     * You are using vdW-DF for exchange-correlation in this calculation.
     * Please cite the following three references that made this development
     * possible:
     *
     *   M. Dion, H. Rydberg, E. Schroder, D. C. Langreth, and
     *   B. I. Lundqvist, Phys. Rev. Lett. 92, 246401 (2004).
     *
     *   T. Thonhauser, V. R. Cooper, S. Li, A. Puzder, P. Hyldgaard, and
     *   D. C. Langreth, Phys. Rev. B 76, 125112 (2007).
     *
     *   G. Roman-Perez and J. M. Soler, Phys. Rev. Lett. 103, 096102 (2009).
     *
     *
     * If you are using vdW-DF2, please also cite:
     *
     *   K. Lee, E. D. Murray, L. Kong, B. I. Lundqvist, and
     *   D. C. Langreth, Phys. Rev. B 82, 081101(R) (2010).
     *
     *
     * If you are calculating the stress with vdW-DF, please also cite:
     *
     *   R. Sabatini, E. Kucukbenli, B. Kolb, T. Thonhauser, and
     *   S. de Gironcoli, J. Phys.: Condens. Matter 24, 424209 (2012).
     *

     Carrying out vdW-DF run using the following parameters:

     Nqs =      20    Nr_points =    1024   r_max =   100.000
     q_mesh =
               0.00001000     0.04494208     0.09755937     0.15916263
               0.23128650     0.31572767     0.41458969     0.53033537
               0.66584808     0.82450364     1.01025438     1.22772762
               1.48234092     1.78043706     2.12944203     2.53805004
               3.01644009     3.57652955     4.23227104     5.00000000

     Gradients computed in reciprocal space

[...]

     Starting wfc are   78 randomized atomic wfcs

     Self-consistent Calculation

[...]

     Threshold (ethr) on eigenvalues was too large:
     Diagonalizing with lowered threshold

     Davidson diagonalization with overlap
     ethr =  2.29E-04,  avg # of iterations =  6.9

[...]

     total energy              =    -695.59564480 Ry
     Harris-Foulkes estimate   =    -695.59564480 Ry
     estimated scf accuracy    <       0.00000124 Ry

     iteration # 13     ecut=    36.75 Ry     beta=0.10
     Davidson diagonalization with overlap
     ethr =  1.38E-09,  avg # of iterations =  1.1

[...]

     negative rho (up, down):  2.484E-04 0.000E+00

     Adding external electric field

     Computed dipole along edir(3) :
        Dipole               -0.0122 Ry au,         -0.0309 Debye
        Dipole field         -0.0000 Ry au

        Potential amp.        0.0025 Ry
        Total length         46.2625 bohr

     End of self-consistent calculation

[...]

          k = 0.0538-0.0586 0.0000 ( 21687 PWs)   bands (ev):

[...]

          k =-0.0807-0.0487 0.0000 ( 21680 PWs)   bands (ev):

    -8.4652  -8.1803  -8.1520  -8.1212  -8.1032  -7.9554  -7.9233  -7.8342
    -7.8234  -7.7808  -7.7709  -7.6917  -7.6171  -7.5711  -7.5355  -7.3550
    -7.3328  -7.3293  -7.3180  -7.2865  -7.2016  -7.1791  -7.0796  -7.0747
    -7.0299  -7.0015  -6.9723  -6.9598  -6.8363  -6.8127  -6.7191  -6.5300
    -6.0331  -5.8064  -5.1636  -4.5502  -4.1073  -3.8127  -3.5400  -3.4339
    -1.7970  -1.6183  -0.5941  -0.4688   0.4525   0.5249   0.7626   0.8599
     1.4888   1.7114   2.0842   2.1532   2.3620   2.5858   2.6749   3.1230
     3.6850   3.7347   3.8236   3.8801   4.0616   4.1179   4.2249   4.3529
     4.7537   4.8484   4.8688   4.9221   5.0900   5.3537   5.5526   5.6202
     5.8255   5.9640   5.9966

     the Fermi energy is    -0.2981 ev

!    total energy              =    -695.59564623 Ry
     Harris-Foulkes estimate   =    -695.59564484 Ry
     estimated scf accuracy    <       0.00000042 Ry

     The total energy is the sum of the following terms:

     one-electron contribution =   -3287.54771431 Ry
     hartree contribution      =    1690.52176689 Ry
     xc contribution           =    -268.42860619 Ry
     ewald contribution        =    1169.88773177 Ry
     electric field correction =       0.00000032 Ry
     smearing contrib. (-TS)   =      -0.02882471 Ry

     convergence has been achieved in  13 iterations

 BEEF-vdW xc energy contributions
           1 :   -233.846877993583
           2 :    213.654929931854
           3 :   -179.178245383447
           4 :    139.351977017681
           5 :   -102.429885150906
           6 :    73.4063464044141
           7 :   -53.4157123492016
           8 :    40.7870694832089
           9 :   -32.7493585382603
          10 :    26.8153867564052
          11 :   -21.4353161829259
          12 :    16.0453195337506
          13 :   -10.8229014647866
          14 :    6.33463185056769
          15 :   -3.13002207654745
          16 :    1.36397740208628
          17 :  -0.638809120319252
          18 :   0.210861823654113
          19 :   0.535080048614191
          20 :   -1.68783872355215
          21 :    2.81024998042818
          22 :   -3.34603032875179
          23 :    3.09984367260734
          24 :   -2.40655343589356
          25 :    1.87733539221156
          26 :   -1.95548558199766
          27 :    2.63382440268020
          28 :   -3.51430724029183
          29 :    4.10728505845580
          30 :   -4.12339666996064
          31 :   -22.9731485939761
          32 :   -16.8139320117701

     Forces acting on atoms (Ry/au):

     negative rho (up, down):  2.484E-04 0.000E+00
     atom    1 type  1   force =     0.00404091    0.00244167    0.00479307
     atom    2 type  1   force =     0.00404026    0.00244102    0.00479322
     atom    3 type  2   force =    -0.00407075   -0.00245972   -0.01122422
     atom    4 type  2   force =    -0.00406975   -0.00245932   -0.01122256
     atom    5 type  1   force =    -0.00745979   -0.00450815    0.00005799
     atom    6 type  1   force =    -0.00746040   -0.00450739    0.00005563
     atom    7 type  2   force =     0.00760327    0.00459526    0.00510512
     atom    8 type  2   force =     0.00760674    0.00459648    0.00510493
     atom    9 type  1   force =     0.00031732    0.00019256    0.00095656
     atom   10 type  1   force =     0.00031260    0.00018762    0.00095770
     atom   11 type  2   force =    -0.00043169   -0.00025345    0.00031115
     atom   12 type  2   force =    -0.00042870   -0.00026658    0.00031142

     Total force =     0.027431     Total SCF correction =     0.002542

     entering subroutine stress ...

     negative rho (up, down):  2.484E-04 0.000E+00
          total   stress  (Ry/bohr**3)                   (kbar)     P=   -5.24
  -0.00006523  -0.00000922  -0.00000133         -9.60     -1.36     -0.20
  -0.00000922  -0.00005554  -0.00000081         -1.36     -8.17     -0.12
  -0.00000133  -0.00000081   0.00001400         -0.20     -0.12      2.06

 !ASE

     Writing output data file calc.save

     General routines

     Parallel routines

   This run was terminated on:  20:29:37  18Dec2018

   JOB DONE.
Job  /afs/slac/g/suncat/bin/suncat-tsmpirun -x LD_LIBRARY_PATH -wdir /scratch/qe529585_lAFLz pw.x -in pw.inp

TID   HOST_NAME   COMMAND_LINE            STATUS            TERMINATION_TIME
00000 suncat0074 pw.x -in pw.inp   Done                     12/18/2018 20:29:37
00001 suncat0074 pw.x -in pw.inp   Done                     12/18/2018 20:29:37
00002 suncat0074 pw.x -in pw.inp   Done                     12/18/2018 20:29:37
00003 suncat0074 pw.x -in pw.inp   Done                     12/18/2018 20:29:37
00004 suncat0074 pw.x -in pw.inp   Done                     12/18/2018 20:29:37
00005 suncat0074 pw.x -in pw.inp   Done                     12/18/2018 20:29:37
00006 suncat0074 pw.x -in pw.inp   Done                     12/18/2018 20:29:37
00007 suncat0074 pw.x -in pw.inp   Done                     12/18/2018 20:29:37
00008 suncat0073 pw.x -in pw.inp   Done                     12/18/2018 20:29:37
00009 suncat0073 pw.x -in pw.inp   Done                     12/18/2018 20:29:37
00010 suncat0073 pw.x -in pw.inp   Done                     12/18/2018 20:29:37
00011 suncat0073 pw.x -in pw.inp   Done                     12/18/2018 20:29:37
00012 suncat0073 pw.x -in pw.inp   Done                     12/18/2018 20:29:37
00013 suncat0073 pw.x -in pw.inp   Done                     12/18/2018 20:29:37
00014 suncat0073 pw.x -in pw.inp   Done                     12/18/2018 20:29:37
00015 suncat0073 pw.x -in pw.inp   Done                     12/18/2018 20:29:37
00016 suncat0072 pw.x -in pw.inp   Done                     12/18/2018 20:29:37
00017 suncat0072 pw.x -in pw.inp   Done                     12/18/2018 20:29:37
00018 suncat0072 pw.x -in pw.inp   Done                     12/18/2018 20:29:37
00019 suncat0072 pw.x -in pw.inp   Done                     12/18/2018 20:29:37
00020 suncat0072 pw.x -in pw.inp   Done                     12/18/2018 20:29:37
00021 suncat0072 pw.x -in pw.inp   Done                     12/18/2018 20:29:37
00022 suncat0072 pw.x -in pw.inp   Done                     12/18/2018 20:29:37
00023 suncat0072 pw.x -in pw.inp   Done                     12/18/2018 20:29:37
00024 suncat0071 pw.x -in pw.inp   Done                     12/18/2018 20:29:37
00025 suncat0071 pw.x -in pw.inp   Done                     12/18/2018 20:29:37
00026 suncat0071 pw.x -in pw.inp   Done                     12/18/2018 20:29:37
00027 suncat0071 pw.x -in pw.inp   Done                     12/18/2018 20:29:37
00028 suncat0071 pw.x -in pw.inp   Done                     12/18/2018 20:29:37
00029 suncat0071 pw.x -in pw.inp   Done                     12/18/2018 20:29:37
00030 suncat0071 pw.x -in pw.inp   Done                     12/18/2018 20:29:37
00031 suncat0071 pw.x -in pw.inp   Done                     12/18/2018 20:29:37