     Program PWSCF v.5.1rc2 (svn rev. 11289) starts on 19Dec2018 at  6:35:55

     Current dimensions of program PWSCF are:
     Max number of different atomic species (ntypx) = 10
     Max number of k-points (npk) =  40000
     Max angular momentum in pseudopotentials (lmaxx) =  3
     Presently stress not available with electric field

     IMPORTANT: XC functional enforced from input :
     Exchange-correlation      = BEEF-VDW ( 1  4 27 13 2)
     Any further DFT definition will be discarded
     Please, verify this is what you really want

     Subspace diagonalization in iterative solution of the eigenvalue problem:
     a serial algorithm will be used

     Found symmetry operation: I + ( -0.5000  0.0000  0.0000)
     This is a supercell, fractional translations are disabled

     bravais-lattice index     =            0
     lattice parameter (alat)  =       1.8897  a.u.
     unit-cell volume          =    4737.4885 (a.u.)^3
     number of atoms/cell      =           12
     number of atomic types    =            2
     number of electrons       =       156.00
     number of Kohn-Sham states=          108
     kinetic-energy cutoff     =      36.7493  Ry
     charge density cutoff     =     367.4932  Ry
     convergence threshold     =      1.0E-06
     mixing beta               =       0.1000
     number of iterations used =           10  plain     mixing
     Exchange-correlation      = BEEF-VDW ( 1  4 27 13 2)
     nstep                     =           50

     celldm(1)=   1.889726  celldm(2)=   0.000000  celldm(3)=   0.000000
     celldm(4)=   0.000000  celldm(5)=   0.000000  celldm(6)=   0.000000

     crystal axes: (cart. coord. in units of alat)
               a(1) = (   5.627128   0.000000   0.000000 )
               a(2) = (  -2.813564   5.055937   0.000000 )
               a(3) = (   0.000000   0.000000  24.675335 )

     reciprocal axes: (cart. coord. in units 2 pi/alat)
               b(1) = (  0.177711  0.098894  0.000000 )
               b(2) = (  0.000000  0.197787  0.000000 )
               b(3) = (  0.000000  0.000000  0.040526 )

     PseudoPot. # 1 for Cr read from file:
     /afs/slac.stanford.edu/u/if/mamunm/psp/gbrv1.5pbe/Cr.UPF
     MD5 check sum: 0d52af634a40206e4dee301ad30da4bf
     Pseudo is Ultrasoft + core correction, Zval = 14.0
     Generated by new atomic code, or converted to UPF format
     Using radial grid of  857 points,  6 beta functions with:
                l(1) =   0
                l(2) =   0
                l(3) =   1
                l(4) =   1
                l(5) =   2
                l(6) =   2
     Q(r) pseudized with  8 coefficients,  rinner =    0.950   0.950   0.950
                                                       0.950   0.950

     PseudoPot. # 2 for Hg read from file:
     /afs/slac.stanford.edu/u/if/mamunm/psp/gbrv1.5pbe/Hg.UPF
     MD5 check sum: 8f42caffe07f7fd9c0a564347f8c5498
     Pseudo is Ultrasoft + core correction, Zval = 12.0
     Generated by new atomic code, or converted to UPF format
     Using radial grid of  985 points,  6 beta functions with:
                l(1) =   0
                l(2) =   0
                l(3) =   1
                l(4) =   1
                l(5) =   2
                l(6) =   2
     Q(r) pseudized with  8 coefficients,  rinner =    2.000   2.000   2.000
                                                       2.000   2.000

     vdW kernel table read from file vdW_kernel_table
     MD5 check sum: 095c7af220d748ca6e76c0b4c6cfb241

     atomic species   valence    mass     pseudopotential
        Cr1           14.00    51.99610     Cr( 1.00)
        Hg1           12.00   200.59200     Hg( 1.00)

     No symmetry found

   Cartesian axes

     site n.     atom                  positions (alat units)
         1           Cr1 tau(   1) = (   0.0000000   0.0000000  10.0000000  )
         2           Cr1 tau(   2) = (   2.8135642   0.0000000  10.0000000  )
         3           Hg1 tau(   3) = (   1.4067821   2.5279687  10.0000000  )
         4           Hg1 tau(   4) = (  -1.4067821   2.5279687  10.0000000  )
         5           Cr1 tau(   5) = (   2.8135642   1.5657123  12.3376673  )
         6           Cr1 tau(   6) = (  -0.0000000   1.5657123  12.3376673  )
         7           Hg1 tau(   7) = (  -1.4067821   4.0936810  12.3376673  )
         8           Hg1 tau(   8) = (   1.4067821   4.0936810  12.3376673  )
         9           Cr1 tau(   9) = (  -0.0000000   3.1314246  14.6753346  )
        10           Cr1 tau(  10) = (   2.8135642   3.1314246  14.6753346  )
        11           Hg1 tau(  11) = (   4.2203463   0.6034559  14.6753346  )
        12           Hg1 tau(  12) = (   1.4067821   0.6034559  14.6753346  )

     number of k points=    20  Fermi-Dirac smearing, width (Ry)=  0.0110
                       cart. coord. in units 2pi/alat
        k(    1) = (   0.0000000   0.0000000   0.0000000), wk =   0.0555556
        k(    2) = (   0.0000000   0.0329645   0.0000000), wk =   0.1111111
        k(    3) = (   0.0000000   0.0659291   0.0000000), wk =   0.1111111
        k(    4) = (   0.0000000  -0.0988936   0.0000000), wk =   0.0555556
        k(    5) = (   0.0296184   0.0164823   0.0000000), wk =   0.1111111
        k(    6) = (   0.0296184   0.0494468   0.0000000), wk =   0.1111111
        k(    7) = (   0.0296184   0.0824114   0.0000000), wk =   0.1111111
        k(    8) = (   0.0296184  -0.0824114   0.0000000), wk =   0.1111111
        k(    9) = (   0.0296184  -0.0494468   0.0000000), wk =   0.1111111
        k(   10) = (   0.0296184  -0.0164823   0.0000000), wk =   0.1111111
        k(   11) = (   0.0592368   0.0329645   0.0000000), wk =   0.1111111
        k(   12) = (   0.0592368   0.0659291   0.0000000), wk =   0.1111111
        k(   13) = (   0.0592368   0.0988936   0.0000000), wk =   0.1111111
        k(   14) = (   0.0592368  -0.0659291   0.0000000), wk =   0.1111111
        k(   15) = (   0.0592368  -0.0329645   0.0000000), wk =   0.1111111
        k(   16) = (   0.0592368   0.0000000   0.0000000), wk =   0.1111111
        k(   17) = (  -0.0888553  -0.0494468   0.0000000), wk =   0.0555556
        k(   18) = (  -0.0888553  -0.0164823   0.0000000), wk =   0.1111111
        k(   19) = (  -0.0888553   0.0164823   0.0000000), wk =   0.1111111
        k(   20) = (  -0.0888553  -0.1483404   0.0000000), wk =   0.0555556

     Largest allocated arrays     est. size (Mb)     dimensions
     Largest temporary arrays     est. size (Mb)     dimensions

     Check: negative/imaginary core charge=   -0.000002    0.000000

     Initial potential from superposition of free atoms
     Check: negative starting charge=   -0.006493

     starting charge  149.99956, renormalised to  156.00000

     negative rho (up, down):  6.752E-03 0.000E+00

     *
     * You are using vdW-DF for exchange-correlation in this calculation.
     * Please cite the following three references that made this development
     * possible:
     *
     *   M. Dion, H. Rydberg, E. Schroder, D. C. Langreth, and
     *   B. I. Lundqvist, Phys. Rev. Lett. 92, 246401 (2004).
     *
     *   T. Thonhauser, V. R. Cooper, S. Li, A. Puzder, P. Hyldgaard, and
     *   D. C. Langreth, Phys. Rev. B 76, 125112 (2007).
     *
     *   G. Roman-Perez and J. M. Soler, Phys. Rev. Lett. 103, 096102 (2009).
     *
     *
     * If you are using vdW-DF2, please also cite:
     *
     *   K. Lee, E. D. Murray, L. Kong, B. I. Lundqvist, and
     *   D. C. Langreth, Phys. Rev. B 82, 081101(R) (2010).
     *
     *
     * If you are calculating the stress with vdW-DF, please also cite:
     *
     *   R. Sabatini, E. Kucukbenli, B. Kolb, T. Thonhauser, and
     *   S. de Gironcoli, J. Phys.: Condens. Matter 24, 424209 (2012).
     *

     Carrying out vdW-DF run using the following parameters:

     Nqs =      20    Nr_points =    1024   r_max =   100.000
     q_mesh =
               0.00001000     0.04494208     0.09755937     0.15916263
               0.23128650     0.31572767     0.41458969     0.53033537
               0.66584808     0.82450364     1.01025438     1.22772762
               1.48234092     1.78043706     2.12944203     2.53805004
               3.01644009     3.57652955     4.23227104     5.00000000

     Gradients computed in reciprocal space

     Adding external electric field

     Computed dipole along edir(3) :
        Dipole                0.0000 Ry au,          0.0000 Debye
        Dipole field          0.0000 Ry au

        Potential amp.       -0.0000 Ry
        Total length         45.4639 bohr

     Starting wfc are  114 randomized atomic wfcs

     Self-consistent Calculation

     iteration #  1     ecut=    36.75 Ry     beta=0.10
     Davidson diagonalization with overlap
     ethr =  1.00E-02,  avg # of iterations =  7.8

[...]

     total energy              =   -1711.60603247 Ry
     Harris-Foulkes estimate   =   -1713.38437516 Ry
     estimated scf accuracy    <      10.19124642 Ry

[...]

     End of self-consistent calculation

          k = 0.0000 0.0000 0.0000 ( 17881 PWs)   bands (ev):

   -70.7790 -70.7610 -70.6788 -70.6784 -70.6610 -70.6606 -42.1743 -42.1557
   -42.1250 -42.0745 -42.0589 -42.0560 -42.0481 -42.0412 -42.0311 -42.0186
   -42.0180 -41.9735 -41.9574 -41.9560 -41.9497 -41.9408 -41.8452 -41.8450
    -8.5237  -7.9777  -7.9294  -7.8623  -7.7592  -7.6107  -7.4327  -7.4032
    -7.1695  -7.1239  -7.0808  -7.0192  -6.8979  -6.6537  -6.4597  -6.3931
    -6.3459  -6.2345  -6.1876  -6.1115  -6.0811  -5.9852  -5.9690  -5.9438
    -5.7773  -5.6473  -5.6209  -5.5890  -5.5658  -5.4973  -5.3274  -4.7080
    -3.1739  -1.7978  -1.1821  -0.9503  -0.9062  -0.6978  -0.6789  -0.3184
    -0.2106  -0.2072  -0.1429  -0.0040   0.2118   0.2759   0.3581   0.6667
     0.7349   0.7585   0.9436   1.0851   1.1345   1.1877   1.2216   1.3821
     1.4576   1.4597   1.4988   1.6751   1.6909   1.6977   1.7141   1.8388
     1.8896   2.0555   2.1269   2.2098   2.2525   2.3081   2.3212   2.9026
     2.9085   3.6354   4.1257   4.2690   4.6751   5.0036   5.0164   5.2883
     5.4777   5.8676   6.3563   6.4431

[...]

          k =-0.0889-0.0494 0.0000 ( 17792 PWs)   bands (ev):

[...]

     the Fermi energy is     1.0021 ev

!    total energy              =   -1711.37284554 Ry
     Harris-Foulkes estimate   =   -1711.37285994 Ry
     estimated scf accuracy    <       0.00000076 Ry

     The total energy is the sum of the following terms:

     one-electron contribution =  -12822.72450500 Ry
     hartree contribution      =    6452.10147031 Ry
     xc contribution           =    -382.15409182 Ry
     ewald contribution        =    5041.53182976 Ry
     electric field correction =       0.00000000 Ry
     smearing contrib. (-TS)   =      -0.12754879 Ry

     convergence has been achieved in  24 iterations

 BEEF-vdW xc energy contributions
           1 :   -333.605347413928
           2 :    304.797493268212
           3 :   -255.512174746507
           4 :    198.654989164780
           5 :   -146.501975649357
           6 :    106.660143866240
           7 :   -80.7581948721782
           8 :    65.8172254376876
           9 :   -57.0212871875269
          10 :    50.2661128196100
          11 :   -43.4290065649490
[...]
00031 suncat0033 pw.x -in pw.inp   Done                     12/19/2018 06:54:52

[...]

   This run was terminated on:   7:16: 6  19Dec2018

[...]

   This run was terminated on:   8: 3: 7  19Dec2018

[...]

     Program PWSCF v.5.1rc2 (svn rev. 11289) starts on 19Dec2018 at  8: 3:15

[...]

     Program PWSCF v.5.1rc2 (svn rev. 11289) starts on 19Dec2018 at  8:28: 5

[...]

     Program PWSCF v.5.1rc2 (svn rev. 11289) starts on 19Dec2018 at  8:54: 2

[...]

   This run was terminated on:  10: 7:57  19Dec2018

[...]

     Program PWSCF v.5.1rc2 (svn rev. 11289) starts on 19Dec2018 at 10: 8: 4

[...]

     Program PWSCF v.5.1rc2 (svn rev. 11289) starts on 19Dec2018 at 12:38:39

     Current dimensions of program PWSCF are:
     Max number of different atomic species (ntypx) = 10
     Max number of k-points (npk) =  40000
     Max angular momentum in pseudopotentials (lmaxx) =  3
     Presently stress not available with electric field

     IMPORTANT: XC functional enforced from input :
     Exchange-correlation      = BEEF-VDW ( 1  4 27 13 2)
     Any further DFT definition will be discarded
     Please, verify this is what you really want

     Subspace diagonalization in iterative solution of the eigenvalue problem:
     a serial algorithm will be used

     bravais-lattice index     =            0
     lattice parameter (alat)  =       1.8897  a.u.
     unit-cell volume          =    4737.4885 (a.u.)^3
     number of atoms/cell      =           12
     number of atomic types    =            2
     number of electrons       =       156.00
     number of Kohn-Sham states=          108
     kinetic-energy cutoff     =      36.7493  Ry
     charge density cutoff     =     367.4932  Ry
     convergence threshold     =      1.0E-06
     mixing beta               =       0.1000
     number of iterations used =           10  plain     mixing
     Exchange-correlation      = BEEF-VDW ( 1  4 27 13 2)
     nstep                     =           50

     celldm(1)=   1.889726  celldm(2)=   0.000000  celldm(3)=   0.000000
     celldm(4)=   0.000000  celldm(5)=   0.000000  celldm(6)=   0.000000

     crystal axes: (cart. coord. in units of alat)
               a(1) = (   5.627128   0.000000   0.000000 )
               a(2) = (  -2.813564   5.055937   0.000000 )
               a(3) = (   0.000000   0.000000  24.675335 )

     reciprocal axes: (cart. coord. in units 2 pi/alat)
               b(1) = (  0.177711  0.098894  0.000000 )
               b(2) = (  0.000000  0.197787  0.000000 )
               b(3) = (  0.000000  0.000000  0.040526 )

     PseudoPot. # 1 for Cr read from file:
     /afs/slac.stanford.edu/u/if/mamunm/psp/gbrv1.5pbe/Cr.UPF
     MD5 check sum: 0d52af634a40206e4dee301ad30da4bf
     Pseudo is Ultrasoft + core correction, Zval = 14.0
     Generated by new atomic code, or converted to UPF format
     Using radial grid of  857 points,  6 beta functions with:
                l(1) =   0
                l(2) =   0
                l(3) =   1
                l(4) =   1
                l(5) =   2
                l(6) =   2
     Q(r) pseudized with  8 coefficients,  rinner =    0.950   0.950   0.950
                                                       0.950   0.950

     PseudoPot. # 2 for Hg read from file:
     /afs/slac.stanford.edu/u/if/mamunm/psp/gbrv1.5pbe/Hg.UPF
     MD5 check sum: 8f42caffe07f7fd9c0a564347f8c5498
     Pseudo is Ultrasoft + core correction, Zval = 12.0
     Generated by new atomic code, or converted to UPF format
     Using radial grid of  985 points,  6 beta functions with:
                l(1) =   0
                l(2) =   0
                l(3) =   1
                l(4) =   1
                l(5) =   2
                l(6) =   2
     Q(r) pseudized with  8 coefficients,  rinner =    2.000   2.000   2.000
                                                       2.000   2.000

     vdW kernel table read from file vdW_kernel_table
     MD5 check sum: 095c7af220d748ca6e76c0b4c6cfb241

     atomic species   valence    mass     pseudopotential
        Cr1           14.00    51.99610     Cr( 1.00)
        Hg1           12.00   200.59200     Hg( 1.00)

     No symmetry found

   Cartesian axes

     site n.     atom                  positions (alat units)
         1           Cr1 tau(   1) = (   0.0000000   0.0000000  10.0000000  )
         2           Cr1 tau(   2) = (   2.8135642   0.0000000  10.0000000  )
         3           Hg1 tau(   3) = (   1.4067821   2.5279687  10.0000000  )
         4           Hg1 tau(   4) = (  -1.4067821   2.5279687  10.0000000  )
         5           Cr1 tau(   5) = (   2.8135642   1.5657123  12.3376673  )
         6           Cr1 tau(   6) = (  -0.0000000   1.5657123  12.3376673  )
         7           Hg1 tau(   7) = (  -1.4067821   4.0936810  12.3376673  )
         8           Hg1 tau(   8) = (   1.4067821   4.0936810  12.3376673  )
         9           Cr1 tau(   9) = (  -0.0000073   2.1840069  14.0063574  )
        10           Cr1 tau(  10) = (   2.8135644   2.1838603  14.0053516  )
        11           Hg1 tau(  11) = (   1.4081797   5.0497020  15.3861647  )
        12           Hg1 tau(  12) = (  -1.4081903   5.0497206  15.3861669  )

     number of k points=    20  Fermi-Dirac smearing, width (Ry)=  0.0110
                       cart. coord. in units 2pi/alat
        k(    1) = (   0.0000000   0.0000000   0.0000000), wk =   0.0555556
        k(    2) = (   0.0000000   0.0329645   0.0000000), wk =   0.1111111
        k(    3) = (   0.0000000   0.0659291   0.0000000), wk =   0.1111111
        k(    4) = (   0.0000000  -0.0988936   0.0000000), wk =   0.0555556
        k(    5) = (   0.0296184   0.0164823   0.0000000), wk =   0.1111111
        k(    6) = (   0.0296184   0.0494468   0.0000000), wk =   0.1111111
        k(    7) = (   0.0296184   0.0824114   0.0000000), wk =   0.1111111
        k(    8) = (   0.0296184  -0.0824114   0.0000000), wk =   0.1111111
        k(    9) = (   0.0296184  -0.0494468   0.0000000), wk =   0.1111111
        k(   10) = (   0.0296184  -0.0164823   0.0000000), wk =   0.1111111
        k(   11) = (   0.0592368   0.0329645   0.0000000), wk =   0.1111111
        k(   12) = (   0.0592368   0.0659291   0.0000000), wk =   0.1111111
        k(   13) = (   0.0592368   0.0988936   0.0000000), wk =   0.1111111
        k(   14) = (   0.0592368  -0.0659291   0.0000000), wk =   0.1111111
        k(   15) = (   0.0592368  -0.0329645   0.0000000), wk =   0.1111111
        k(   16) = (   0.0592368   0.0000000   0.0000000), wk =   0.1111111
        k(   17) = (  -0.0888553  -0.0494468   0.0000000), wk =   0.0555556
        k(   18) = (  -0.0888553  -0.0164823   0.0000000), wk =   0.1111111
        k(   19) = (  -0.0888553   0.0164823   0.0000000), wk =   0.1111111
        k(   20) = (  -0.0888553  -0.1483404   0.0000000), wk =   0.0555556

     Largest allocated arrays     est. size (Mb)     dimensions
     Largest temporary arrays     est. size (Mb)     dimensions

     Check: negative/imaginary core charge=   -0.000002    0.000000

     Initial potential from superposition of free atoms
     Check: negative starting charge=   -0.005460

     starting charge  149.99956, renormalised to  156.00000

[...]

     *
     * You are using vdW-DF for exchange-correlation in this calculation.
     * Please cite the following three references that made this development
     * possible:
     *
     *   M. Dion, H. Rydberg, E. Schroder, D. C. Langreth, and
     *   B. I. Lundqvist, Phys. Rev. Lett. 92, 246401 (2004).
     *
     *   T. Thonhauser, V. R. Cooper, S. Li, A. Puzder, P. Hyldgaard, and
     *   D. C. Langreth, Phys. Rev. B 76, 125112 (2007).
     *
     *   G. Roman-Perez and J. M. Soler, Phys. Rev. Lett. 103, 096102 (2009).
     *
     *
     * If you are using vdW-DF2, please also cite:
     *
     *   K. Lee, E. D. Murray, L. Kong, B. I. Lundqvist, and
     *   D. C. Langreth, Phys. Rev. B 82, 081101(R) (2010).
     *
     *
     * If you are calculating the stress with vdW-DF, please also cite:
     *
     *   R. Sabatini, E. Kucukbenli, B. Kolb, T. Thonhauser, and
     *   S. de Gironcoli, J. Phys.: Condens. Matter 24, 424209 (2012).
     *

     Carrying out vdW-DF run using the following parameters:

     Nqs =      20    Nr_points =    1024   r_max =   100.000
     q_mesh =
               0.00001000     0.04494208     0.09755937     0.15916263
               0.23128650     0.31572767     0.41458969     0.53033537
               0.66584808     0.82450364     1.01025438     1.22772762
               1.48234092     1.78043706     2.12944203     2.53805004
               3.01644009     3.57652955     4.23227104     5.00000000

     Gradients computed in reciprocal space

[...]

     Starting wfc are  114 randomized atomic wfcs

     Self-consistent Calculation

[...]

     total energy              =   -1711.57772356 Ry
     Harris-Foulkes estimate   =   -1711.57772250 Ry
     estimated scf accuracy    <       0.00000179 Ry

     iteration # 27     ecut=    36.75 Ry     beta=0.10
     Davidson diagonalization with overlap
     ethr =  1.15E-09,  avg # of iterations =  2.0

[...]

     negative rho (up, down):  4.266E-03 0.000E+00

     Adding external electric field

     Computed dipole along edir(3) :
        Dipole                0.0630 Ry au,          0.1601 Debye
        Dipole field          0.0002 Ry au

        Potential amp.       -0.0152 Ry
        Total length         45.4639 bohr

     End of self-consistent calculation

[...]

          k = 0.0592 0.0000 0.0000 ( 17864 PWs)   bands (ev):

[...]

          k =-0.0889-0.1483 0.0000 ( 17792 PWs)   bands (ev):

   -71.1124 -71.1088 -70.5373 -70.5373 -70.0699 -70.0687 -43.7964 -43.7891
   -42.1974 -42.1956 -42.0835 -42.0814 -41.9150 -41.9150 -41.8300 -41.8300
   -41.8215 -41.8215 -41.6138 -41.6131 -41.5011 -41.5007 -40.3080 -40.3034
    -7.2781  -7.2781  -7.0483  -7.0481  -6.9570  -6.9570  -6.8249  -6.8247
    -6.7433  -6.7430  -6.4545  -6.4542  -6.3889  -6.3886  -6.2486  -6.2481
    -6.1325  -6.1210  -6.0938  -6.0929  -6.0815  -6.0793  -5.9915  -5.9851
    -5.8587  -5.8578  -5.8136  -5.8081  -5.7480  -5.7465  -5.5345  -5.5325
    -4.0552  -4.0503  -2.7513  -2.7482  -1.7684  -1.7674  -1.3591  -1.3564
    -0.9553  -0.9550  -0.6508  -0.6499   0.0355   0.0369   0.1722   0.1726
     0.6130   0.6132   0.8207   0.8212   0.8933   0.8936   1.1284   1.1285
     1.4034   1.4037   1.5782   1.5788   1.9980   1.9983   2.2657   2.2663
     2.7660   2.7665   3.0797   3.0816   3.5925   3.5940   3.8619   3.8631
     4.5104   4.5111   5.4272   5.4286   6.3280   6.3281   6.6407   6.6409
     6.6890   6.6894   6.9859   6.9861

     the Fermi energy is     1.0983 ev

!    total energy              =   -1711.57772379 Ry
     Harris-Foulkes estimate   =   -1711.57772414 Ry
     estimated scf accuracy    <       0.00000081 Ry

     The total energy is the sum of the following terms:

     one-electron contribution =  -12817.92051578 Ry
     hartree contribution      =    6450.31273391 Ry
     xc contribution           =    -382.85045537 Ry
     ewald contribution        =    5038.98289639 Ry
     electric field correction =       0.00001053 Ry
     smearing contrib. (-TS)   =      -0.10239348 Ry

     convergence has been achieved in  27 iterations

 BEEF-vdW xc energy contributions
           1 :   -334.285259043203
           2 :    305.439539061970
           3 :   -256.059610255199
           4 :    199.011961165166
           5 :   -146.555391893350
           6 :    106.348189399340
           7 :   -80.1224416070103
           8 :    64.9972947466881
           9 :   -56.2045820021298
          10 :    49.6244083654908
          11 :   -43.0644467374800
          12 :    36.1533343711716
          13 :   -29.4637927484674
          14 :    23.6444047283474
          15 :   -19.0131941606775
          16 :    15.5872899370122
          17 :   -13.2584398828817
          18 :    11.8698655699414
          19 :   -11.1735312874221
          20 :    10.7988769689655
          21 :   -10.3441490238926
          22 :    9.55924758422276
          23 :   -8.48097466245002
          24 :    7.39602319676953
          25 :   -6.63827761721126
          26 :    6.35749725436830
          27 :   -6.42451360610045
          28 :    6.53433762492642
          29 :   -6.42426600484174
          30 :    6.04645321469212
          31 :   -31.7139627755310
          32 :   -23.1653562850454

     Forces acting on atoms (Ry/au):

     negative rho (up, down):  4.266E-03 0.000E+00
     atom    1 type  1   force =    -0.00000024    0.00842741    0.02685684
     atom    2 type  1   force =     0.00000053    0.00842551    0.02685112
     atom    3 type  2   force =     0.00002881   -0.01737939   -0.05918758
     atom    4 type  2   force =    -0.00002883   -0.01737700   -0.05918880
     atom    5 type  1   force =    -0.00000021   -0.02086461    0.00743052
     atom    6 type  1   force =     0.00000028   -0.02070263    0.00780224
     atom    7 type  2   force =     0.00007589    0.02958553    0.02499870
     atom    8 type  2   force =    -0.00007679    0.02958513    0.02499873
     atom    9 type  1   force =     0.00000039   -0.00028107    0.00025527
     atom   10 type  1   force =    -0.00000043   -0.00022783    0.00102577
     atom   11 type  2   force =    -0.00086975    0.00040352   -0.00092215
     atom   12 type  2   force =     0.00087035    0.00040542   -0.00092066

     Total force =     0.114804     Total SCF correction =     0.002785

     entering subroutine stress ...

     negative rho (up, down):  4.266E-03 0.000E+00
          total   stress  (Ry/bohr**3)                   (kbar)     P=    3.54
   0.00006579   0.00000000  -0.00000000          9.68      0.00     -0.00
   0.00000000  -0.00004590   0.00001753          0.00     -6.75      2.58
  -0.00000000   0.00001753   0.00005224         -0.00      2.58      7.68

 !ASE

     Writing output data file calc.save

     General routines

     Parallel routines

   This run was terminated on:  12:59:34  19Dec2018

   JOB DONE.
Job  /afs/slac/g/suncat/bin/suncat-tsmpirun -x LD_LIBRARY_PATH -wdir /scratch/qe529726_Fsj3A pw.x -in pw.inp

TID   HOST_NAME   COMMAND_LINE            STATUS            TERMINATION_TIME
00000 suncat0036 pw.x -in pw.inp   Done                     12/19/2018 12:59:34
00001 suncat0036 pw.x -in pw.inp   Done                     12/19/2018 12:59:34
00002 suncat0036 pw.x -in pw.inp   Done                     12/19/2018 12:59:34
00003 suncat0036 pw.x -in pw.inp   Done                     12/19/2018 12:59:34
00004 suncat0036 pw.x -in pw.inp   Done                     12/19/2018 12:59:34
00005 suncat0036 pw.x -in pw.inp   Done                     12/19/2018 12:59:34
00006 suncat0036 pw.x -in pw.inp   Done                     12/19/2018 12:59:34
00007 suncat0036 pw.x -in pw.inp   Done                     12/19/2018 12:59:34
00008 suncat0035 pw.x -in pw.inp   Done                     12/19/2018 12:59:34
00009 suncat0035 pw.x -in pw.inp   Done                     12/19/2018 12:59:34
00010 suncat0035 pw.x -in pw.inp   Done                     12/19/2018 12:59:34
00011 suncat0035 pw.x -in pw.inp   Done                     12/19/2018 12:59:34
00012 suncat0035 pw.x -in pw.inp   Done                     12/19/2018 12:59:34
00013 suncat0035 pw.x -in pw.inp   Done                     12/19/2018 12:59:34
00014 suncat0035 pw.x -in pw.inp   Done                     12/19/2018 12:59:34
00015 suncat0035 pw.x -in pw.inp   Done                     12/19/2018 12:59:34
00016 suncat0034 pw.x -in pw.inp   Done                     12/19/2018 12:59:34
00017 suncat0034 pw.x -in pw.inp   Done                     12/19/2018 12:59:34
00018 suncat0034 pw.x -in pw.inp   Done                     12/19/2018 12:59:34
00019 suncat0034 pw.x -in pw.inp   Done                     12/19/2018 12:59:34
00020 suncat0034 pw.x -in pw.inp   Done                     12/19/2018 12:59:34
00021 suncat0034 pw.x -in pw.inp   Done                     12/19/2018 12:59:34
00022 suncat0034 pw.x -in pw.inp   Done                     12/19/2018 12:59:34
00023 suncat0034 pw.x -in pw.inp   Done                     12/19/2018 12:59:34
00024 suncat0033 pw.x -in pw.inp   Done                     12/19/2018 12:59:34
00025 suncat0033 pw.x -in pw.inp   Done                     12/19/2018 12:59:34
00026 suncat0033 pw.x -in pw.inp   Done                     12/19/2018 12:59:34
00027 suncat0033 pw.x -in pw.inp   Done                     12/19/2018 12:59:34
00028 suncat0033 pw.x -in pw.inp   Done                     12/19/2018 12:59:34
00029 suncat0033 pw.x -in pw.inp   Done                     12/19/2018 12:59:34
00030 suncat0033 pw.x -in pw.inp   Done                     12/19/2018 12:59:34
00031 suncat0033 pw.x -in pw.inp   Done                     12/19/2018 12:59:34