     Program PWSCF v.5.1rc2 (svn rev. 11289) starts on 24Dec2018 at 13:28:56

     Current dimensions of program PWSCF are:
     Max number of different atomic species (ntypx) = 10
     Max number of k-points (npk) =  40000
     Max angular momentum in pseudopotentials (lmaxx) =  3
     Presently stress not available with electric field

     IMPORTANT: XC functional enforced from input :
     Exchange-correlation      = BEEF-VDW ( 1  4 27 13 2)
     Any further DFT definition will be discarded
     Please, verify this is what you really want

     Subspace diagonalization in iterative solution of the eigenvalue problem:
     a serial algorithm will be used

     Found symmetry operation: I + (  0.5000 -0.5000  0.0000)
     This is a supercell, fractional translations are disabled

     Generating pointlists ...
     new r_m :   0.4125 (alat units)  0.7795 (a.u.) for type    1
     new r_m :   0.4125 (alat units)  0.7795 (a.u.) for type    2

     bravais-lattice index     =            0
     lattice parameter (alat)  =       1.8897  a.u.
     unit-cell volume          =    3926.5080 (a.u.)^3
     number of atoms/cell      =           12
     number of atomic types    =            2
     number of electrons       =       192.00
     number of Kohn-Sham states=          126
     kinetic-energy cutoff     =      36.7493  Ry
     charge density cutoff     =     367.4932  Ry
     convergence threshold     =      1.0E-06
     mixing beta               =       0.1000
     number of iterations used =           10  plain     mixing
     Exchange-correlation      = BEEF-VDW ( 1  4 27 13 2)
     nstep                     =           50

     celldm(1)=   1.889726  celldm(2)=   0.000000  celldm(3)=   0.000000
     celldm(4)=   0.000000  celldm(5)=   0.000000  celldm(6)=   0.000000

     crystal axes: (cart. coord. in units of alat)
               a(1) = (   5.232344   0.000000   0.000000 )
               a(2) = (   2.534311   4.577629   0.000000 )
               a(3) = (   0.000000   0.000000  24.292543 )

     reciprocal axes: (cart. coord. in units 2 pi/alat)
               b(1) = (  0.191119 -0.105809  0.000000 )
               b(2) = (  0.000000  0.218454  0.000000 )
               b(3) = (  0.000000  0.000000  0.041165 )

     PseudoPot. # 1 for Fe read from file:
     /afs/slac.stanford.edu/u/if/mamunm/psp/gbrv1.5pbe/Fe.UPF
     MD5 check sum: a130daea23fe5165f5d574ae7f82ed95
     Pseudo is Ultrasoft + core correction, Zval = 16.0
     Generated by new atomic code, or converted to UPF format
     Using radial grid of  861 points,  6 beta functions with:
                l(1) =   0
                l(2) =   0
                l(3) =   1
                l(4) =   1
                l(5) =   2
                l(6) =   2
     Q(r) pseudized with  8 coefficients,  rinner =    1.000   1.000   1.000
                                                       1.000   1.000

     PseudoPot. # 2 for Os read from file:
     /afs/slac.stanford.edu/u/if/mamunm/psp/gbrv1.5pbe/Os.UPF
     MD5 check sum: a3fb40a04f0c37c25c34bbc47164c9a8
     Pseudo is Ultrasoft + core correction, Zval = 16.0
     Generated by new atomic code, or converted to UPF format
     Using radial grid of  983 points,  8 beta functions with:
                l(1) =   0
                l(2) =   0
                l(3) =   1
                l(4) =   1
                l(5) =   2
                l(6) =   2
                l(7) =   3
                l(8) =   3
     Q(r) pseudized with  8 coefficients,  rinner =    1.150   1.150   1.150
                                                       1.150   1.150   1.150
                                                       1.150

     vdW kernel table read from file vdW_kernel_table
     MD5 check sum: 095c7af220d748ca6e76c0b4c6cfb241

     atomic species   valence    mass     pseudopotential
        Fe1           16.00    55.84500     Fe( 1.00)
        Os1           16.00   190.23000     Os( 1.00)

     Starting magnetic structure
     atomic species   magnetization
        Fe1          0.125
        Os1          0.125

     No symmetry found

   Cartesian axes

     site n.     atom                  positions (alat units)
         1           Fe1 tau(   1) = (   0.0000000   0.0000000  10.0000000  )
         2           Fe1 tau(   2) = (   3.8833272   2.2888147  10.0000000  )
         3           Os1 tau(   3) = (   2.6161719   0.0000000  10.0000000  )
         4           Os1 tau(   4) = (   1.2671553   2.2888147  10.0000000  )
         5           Fe1 tau(   5) = (   5.2323437   3.0839187  12.1462717  )
         6           Fe1 tau(   6) = (   1.3490166   0.7951040  12.1462717  )
         7           Os1 tau(   7) = (   2.6161719   3.0839187  12.1462717  )
         8           Os1 tau(   8) = (   3.9651884   0.7951040  12.1462717  )
         9           Fe1 tau(   9) = (   2.6980331   1.5902080  14.2925435  )
        10           Fe1 tau(  10) = (   6.5813603   3.8790227  14.2925435  )
        11           Os1 tau(  11) = (   5.3142050   1.5902080  14.2925435  )
        12           Os1 tau(  12) = (   3.9651884   3.8790227  14.2925435  )

     number of k points=    40  Fermi-Dirac smearing, width (Ry)=  0.0110
                       cart. coord. in units 2pi/alat
        k(    1) = (   0.0000000   0.0000000   0.0000000), wk =   0.0277778
        k(    2) = (   0.0000000   0.0364089   0.0000000), wk =   0.0555556
        k(    3) = (   0.0000000   0.0728179   0.0000000), wk =   0.0555556
        k(    4) = (   0.0000000  -0.1092268   0.0000000), wk =   0.0277778
        k(    5) = (   0.0318532  -0.0176348   0.0000000), wk =   0.0555556
        k(    6) = (   0.0318532   0.0187741   0.0000000), wk =   0.0555556
        k(    7) = (   0.0318532   0.0551830   0.0000000), wk =   0.0555556
        k(    8) = (   0.0318532  -0.1268617   0.0000000), wk =   0.0555556
        k(    9) = (   0.0318532  -0.0904527   0.0000000), wk =   0.0555556
        k(   10) = (   0.0318532  -0.0540438   0.0000000), wk =   0.0555556
        k(   11) = (   0.0637063  -0.0352697   0.0000000), wk =   0.0555556
        k(   12) = (   0.0637063   0.0011393   0.0000000), wk =   0.0555556
        k(   13) = (   0.0637063   0.0375482   0.0000000), wk =   0.0555556
        k(   14) = (   0.0637063  -0.1444965   0.0000000), wk =   0.0555556
        k(   15) = (   0.0637063  -0.1080876   0.0000000), wk =   0.0555556
        k(   16) = (   0.0637063  -0.0716786   0.0000000), wk =   0.0555556
        k(   17) = (  -0.0955595   0.0529045   0.0000000), wk =   0.0277778
        k(   18) = (  -0.0955595   0.0893135   0.0000000), wk =   0.0555556
        k(   19) = (  -0.0955595   0.1257224   0.0000000), wk =   0.0555556
        k(   20) = (  -0.0955595  -0.0563223   0.0000000), wk =   0.0277778
        k(   21) = (   0.0000000   0.0000000   0.0000000), wk =   0.0277778
        k(   22) = (   0.0000000   0.0364089   0.0000000), wk =   0.0555556
        k(   23) = (   0.0000000   0.0728179   0.0000000), wk =   0.0555556
        k(   24) = (   0.0000000  -0.1092268   0.0000000), wk =   0.0277778
        k(   25) = (   0.0318532  -0.0176348   0.0000000), wk =   0.0555556
        k(   26) = (   0.0318532   0.0187741   0.0000000), wk =   0.0555556
        k(   27) = (   0.0318532   0.0551830   0.0000000), wk =   0.0555556
        k(   28) = (   0.0318532  -0.1268617   0.0000000), wk =   0.0555556
        k(   29) = (   0.0318532  -0.0904527   0.0000000), wk =   0.0555556
        k(   30) = (   0.0318532  -0.0540438   0.0000000), wk =   0.0555556
        k(   31) = (   0.0637063  -0.0352697   0.0000000), wk =   0.0555556
        k(   32) = (   0.0637063   0.0011393   0.0000000), wk =   0.0555556
        k(   33) = (   0.0637063   0.0375482   0.0000000), wk =   0.0555556
        k(   34) = (   0.0637063  -0.1444965   0.0000000), wk =   0.0555556
        k(   35) = (   0.0637063  -0.1080876   0.0000000), wk =   0.0555556
        k(   36) = (   0.0637063  -0.0716786   0.0000000), wk =   0.0555556
        k(   37) = (  -0.0955595   0.0529045   0.0000000), wk =   0.0277778
        k(   38) = (  -0.0955595   0.0893135   0.0000000), wk =   0.0555556
        k(   39) = (  -0.0955595   0.1257224   0.0000000), wk =   0.0555556
        k(   40) = (  -0.0955595  -0.0563223   0.0000000), wk =   0.0277778

     Largest allocated arrays     est. size (Mb)     dimensions
     Largest temporary arrays     est. size (Mb)     dimensions

     Check: negative/imaginary core charge=   -0.000004    0.000000

     Initial potential from superposition of free atoms
     Check: negative starting charge=(component1):   -0.421618
     Check: negative starting charge=(component2):   -0.327925

     starting charge  182.99975, renormalised to  192.00000

     negative rho (up, down):  4.424E-01 3.441E-01

     *
     * You are using vdW-DF for exchange-correlation in this calculation.
     * Please cite the following three references that made this development
     * possible:
     *
     *   M. Dion, H. Rydberg, E. Schroder, D. C. Langreth, and
     *   B. I. Lundqvist, Phys. Rev. Lett. 92, 246401 (2004).
     *
     *   T. Thonhauser, V. R. Cooper, S. Li, A. Puzder, P. Hyldgaard, and
     *   D. C. Langreth, Phys. Rev. B 76, 125112 (2007).
     *
     *   G. Roman-Perez and J. M. Soler, Phys. Rev. Lett. 103, 096102 (2009).
     *
     *
     * If you are using vdW-DF2, please also cite:
     *
     *   K. Lee, E. D. Murray, L. Kong, B. I. Lundqvist, and
     *   D. C. Langreth, Phys. Rev. B 82, 081101(R) (2010).
     *
     *
     * If you are calculating the stress with vdW-DF, please also cite:
     *
     *   R. Sabatini, E. Kucukbenli, B. Kolb, T. Thonhauser, and
     *   S. de Gironcoli, J. Phys.: Condens. Matter 24, 424209 (2012).
     *

     Carrying out vdW-DF run using the following parameters:

     Nqs =      20    Nr_points =    1024   r_max =   100.000
     q_mesh =
               0.00001000     0.04494208     0.09755937     0.15916263
               0.23128650     0.31572767     0.41458969     0.53033537
               0.66584808     0.82450364     1.01025438     1.22772762
               1.48234092     1.78043706     2.12944203     2.53805004
               3.01644009     3.57652955     4.23227104     5.00000000

     Gradients computed in reciprocal space

     Adding external electric field

     Computed dipole along edir(3) :
        Dipole                0.0000 Ry au,          0.0000 Debye
        Dipole field          0.0000 Ry au

        Potential amp.       -0.0000 Ry
        Total length         44.7586 bohr

[...]

     Starting wfc are  156 randomized atomic wfcs

     Self-consistent Calculation

     iteration #  1     ecut=    36.75 Ry     beta=0.10
     Davidson diagonalization with overlap
     ethr =  1.00E-02,  avg # of iterations =  8.5

[...]

     Magnetic moment per site:
     atom:    1    charge:    7.2689    magn:    0.8858    constr:    0.0000
     atom:    2    charge:    7.2689    magn:    0.8858    constr:    0.0000
     atom:    3    charge:    2.2662    magn:    0.2612    constr:    0.0000
     atom:    4    charge:    2.2662    magn:    0.2612    constr:    0.0000
[...]
        k(    4) = (   0.0000000  -0.1092268   0.0000000), wk =   0.0277778
        k(    5) = (   0.0318532  -0.0176348   0.0000000), wk =   0.0555556
        k(    6) = (   0.0318532   0.0187741   0.0000000), wk =   0.0555556
        k(    7) = (   0.0318532   0.0551830   0.0000000), wk =   0.0555556
        k(    8) = (   0.0318532  -0.1268617   0.0000000), wk =   0.0555556
        k(    9) = (   0.0318532  -0.0904527   0.0000000), wk =   0.0555556
        k(   10) = (   0.0318532  -0.0540438   0.0000000), wk =   0.0555556
        k(   11) = (   0.0637063  -0.0352697   0.0000000), wk =   0.0555556
        k(   12) = (   0.0637063   0.0011393   0.0000000), wk =   0.0555556
        k(   13) = (   0.0637063   0.0375482   0.0000000), wk =   0.0555556
        k(   14) = (   0.0637063  -0.1444965   0.0000000), wk =   0.0555556
        k(   15) = (   0.0637063  -0.1080876   0.0000000), wk =   0.0555556
        k(   16) = (   0.0637063  -0.0716786   0.0000000), wk =   0.0555556
        k(   17) = (  -0.0955595   0.0529045   0.0000000), wk =   0.0277778
        k(   18) = (  -0.0955595   0.0893135   0.0000000), wk =   0.0555556
        k(   19) = (  -0.0955595   0.1257224   0.0000000), wk =   0.0555556
        k(   20) = (  -0.0955595  -0.0563223   0.0000000), wk =   0.0277778
        k(   21) = (   0.0000000   0.0000000   0.0000000), wk =   0.0277778
        k(   22) = (   0.0000000   0.0364089   0.0000000), wk =   0.0555556
        k(   23) = (   0.0000000   0.0728179   0.0000000), wk =   0.0555556
        k(   24) = (   0.0000000  -0.1092268   0.0000000), wk =   0.0277778
        k(   25) = (   0.0318532  -0.0176348   0.0000000), wk =   0.0555556
        k(   26) = (   0.0318532   0.0187741   0.0000000), wk =   0.0555556
        k(   27) = (   0.0318532   0.0551830   0.0000000), wk =   0.0555556
        k(   28) = (   0.0318532  -0.1268617   0.0000000), wk =   0.0555556
        k(   29) = (   0.0318532  -0.0904527   0.0000000), wk =   0.0555556
        k(   30) = (   0.0318532  -0.0540438   0.0000000), wk =   0.0555556
        k(   31) = (   0.0637063  -0.0352697   0.0000000), wk =   0.0555556
        k(   32) = (   0.0637063   0.0011393   0.0000000), wk =   0.0555556
        k(   33) = (   0.0637063   0.0375482   0.0000000), wk =   0.0555556
        k(   34) = (   0.0637063  -0.1444965   0.0000000), wk =   0.0555556
        k(   35) = (   0.0637063  -0.1080876   0.0000000), wk =   0.0555556
        k(   36) = (   0.0637063  -0.0716786   0.0000000), wk =   0.0555556
        k(   37) = (  -0.0955595   0.0529045   0.0000000), wk =   0.0277778
        k(   38) = (  -0.0955595   0.0893135   0.0000000), wk =   0.0555556
        k(   39) = (  -0.0955595   0.1257224   0.0000000), wk =   0.0555556
        k(   40) = (  -0.0955595  -0.0563223   0.0000000), wk =   0.0277778

     Largest allocated arrays     est. size (Mb)     dimensions
     Largest temporary arrays     est. size (Mb)     dimensions

     Check: negative/imaginary core charge=   -0.000004    0.000000

     Initial potential from superposition of free atoms
     Check: negative starting charge=(component1):   -0.421355
     Check: negative starting charge=(component2):   -0.327720

     starting charge  182.99975, renormalised to  192.00000

[...]

     *
     * You are using vdW-DF for exchange-correlation in this calculation.
     * Please cite the following three references that made this development
     * possible:
     *
     *   M. Dion, H. Rydberg, E. Schroder, D. C. Langreth, and
     *   B. I. Lundqvist, Phys. Rev. Lett. 92, 246401 (2004).
     *
     *   T. Thonhauser, V. R. Cooper, S. Li, A. Puzder, P. Hyldgaard, and
     *   D. C. Langreth, Phys. Rev. B 76, 125112 (2007).
     *
     *   G. Roman-Perez and J. M. Soler, Phys. Rev. Lett. 103, 096102 (2009).
     *
     *
     * If you are using vdW-DF2, please also cite:
     *
     *   K. Lee, E. D. Murray, L. Kong, B. I. Lundqvist, and
     *   D. C. Langreth, Phys. Rev. B 82, 081101(R) (2010).
     *
     *
     * If you are calculating the stress with vdW-DF, please also cite:
     *
     *   R. Sabatini, E. Kucukbenli, B. Kolb, T. Thonhauser, and
     *   S. de Gironcoli, J. Phys.: Condens. Matter 24, 424209 (2012).
     *

     Carrying out vdW-DF run using the following parameters:

     Nqs =      20    Nr_points =    1024   r_max =   100.000
     q_mesh =
               0.00001000     0.04494208     0.09755937     0.15916263
               0.23128650     0.31572767     0.41458969     0.53033537
               0.66584808     0.82450364     1.01025438     1.22772762
               1.48234092     1.78043706     2.12944203     2.53805004
               3.01644009     3.57652955     4.23227104     5.00000000

     Gradients computed in reciprocal space

[...]

     Starting wfc are  156 randomized atomic wfcs

     Self-consistent Calculation

[...]

     total energy              =   -2706.56156067 Ry
     Harris-Foulkes estimate   =   -2706.56155999 Ry
     estimated scf accuracy    <       0.00000121 Ry

[...]

     iteration # 36     ecut=    36.75 Ry     beta=0.10
     Davidson diagonalization with overlap
     ethr =  6.30E-10,  avg # of iterations =  1.4

[...]

     negative rho (up, down):  3.799E-01 3.747E-01

[...]

     Adding external electric field

     Computed dipole along edir(3) :
        Dipole                0.0134 Ry au,          0.0341 Debye
        Dipole field          0.0000 Ry au

        Potential amp.       -0.0038 Ry
        Total length         44.7586 bohr

     Magnetic moment per site:
     atom:    1    charge:    7.0866    magn:    1.1405    constr:    0.0000
     atom:    2    charge:    7.0866    magn:    1.1405    constr:    0.0000
     atom:    3    charge:    2.1866    magn:   -0.0040    constr:    0.0000
     atom:    4    charge:    2.1866    magn:   -0.0040    constr:    0.0000
     atom:    5    charge:    7.0690    magn:    0.8229    constr:    0.0000
     atom:    6    charge:    7.0689    magn:    0.8231    constr:    0.0000
     atom:    7    charge:    2.1838    magn:   -0.0149    constr:    0.0000
     atom:    8    charge:    2.1838    magn:   -0.0149    constr:    0.0000
     atom:    9    charge:    7.0784    magn:    1.0697    constr:    0.0000
     atom:   10    charge:    7.0786    magn:    1.0696    constr:    0.0000
     atom:   11    charge:    2.1827    magn:   -0.0080    constr:    0.0000
     atom:   12    charge:    2.1827    magn:   -0.0080    constr:    0.0000

     End of self-consistent calculation

 ------ SPIN UP ------------

[...]

 ------ SPIN DOWN ----------

[...]

          k = 0.0637-0.0717 0.0000 ( 14774 PWs)   bands (ev):

[...]

          k =-0.0956-0.0563 0.0000 ( 14730 PWs)   bands (ev):

   -84.9156 -84.8742 -84.4485 -84.4063 -84.3697 -84.3277 -84.1572 -84.1458
   -83.7797 -83.7665 -83.7420 -83.7287 -50.3375 -50.3219 -50.3202 -50.1800
   -50.1491 -50.1343 -49.9478 -49.9336 -49.9059 -49.8965 -49.8920 -49.8561
   -49.8161 -49.8014 -49.7859 -49.7721 -49.7566 -49.7164 -44.4801 -44.4040
   -44.3303 -44.2077 -44.1383 -44.0827 -44.0226 -43.8269 -43.7179 -43.6848
   -43.6524 -43.6229 -43.6172 -43.5557 -43.5552 -43.4918 -43.4323 -43.3719
    -5.4437  -4.6310  -3.8762  -3.6995  -3.0913  -2.9278  -2.9080  -2.7731
    -2.6579  -2.4502  -2.0193  -1.9772  -1.7752  -1.6985  -1.6943  -1.5199
    -1.4159  -0.8976  -0.7031  -0.5474  -0.4164  -0.1755  -0.0692  -0.0454
     0.3402   0.3478   0.4355   0.7429   0.8247   0.8253   0.8785   0.9772
     1.0538   1.1077   1.1225   1.1865   1.2438   1.2466   1.3453   1.3526
     1.5175   1.6006   1.9353   2.0401   2.1457   2.2622   2.3885   2.4319
     2.4596   2.4779   2.5976   2.6184   2.7874   2.8443   2.9302   2.9888
     3.0635   3.2332   3.5002   3.5584   3.5772   3.8304   3.9578   4.5843
     4.7926   4.8510   5.0029   5.7599   6.7912   7.0551   7.2842   7.3489
     8.0476   8.1175   8.1854   8.2421   8.7686   8.8415

     the Fermi energy is     2.0293 ev

!    total energy              =   -2706.56156205 Ry
     Harris-Foulkes estimate   =   -2706.56156069 Ry
     estimated scf accuracy    <       0.00000092 Ry

     The total energy is the sum of the following terms:

     one-electron contribution =  -24057.57338186 Ry
     hartree contribution      =   12019.33350915 Ry
     xc contribution           =    -413.74932581 Ry
     ewald contribution        =    9745.51462480 Ry
     electric field correction =       0.00000057 Ry
     smearing contrib. (-TS)   =      -0.08698891 Ry

     total magnetization       =    11.62 Bohr mag/cell
     absolute magnetization    =    14.45 Bohr mag/cell

     convergence has been achieved in  36 iterations

 BEEF-vdW xc energy contributions
           1 :   -362.394654707294
           2 :    332.457169175304
           3 :   -280.859586901754
           4 :    220.643112953851
           5 :   -164.656527038492
           6 :    121.432443383945
           7 :   -93.4716613316245
           8 :    78.1147789769536
           9 :   -70.0927413202307
          10 :    64.3067479399754
          11 :   -57.6636837785256
          12 :    49.4624789932270
          13 :   -40.6332311053079
          14 :    32.5506443729251
          15 :   -26.1459956230731
          16 :    21.6197090673105
          17 :   -18.6472295617261
          18 :    16.7299539116220
          19 :   -15.4324518401813
          20 :    14.4250779780644
          21 :   -13.4372520996737
          22 :    12.2370857992300
          23 :   -10.6968862815559
          24 :    8.87773345035686
          25 :   -7.04301381703846
          26 :    5.54223712743317
          27 :   -4.62565464063067
          28 :    4.29804062057718
          29 :   -4.31317726279491
          30 :    4.30372764054937
          31 :   -33.3162677307865
          32 :   -24.6513949348419

     Forces acting on atoms (Ry/au):

     negative rho (up, down):  3.799E-01 3.747E-01
     atom    1 type  1   force =     0.00322154    0.00189855   -0.00043782
     atom    2 type  1   force =     0.00319909    0.00188536   -0.00045144
     atom    3 type  2   force =     0.00353575    0.00205747    0.01854214
     atom    4 type  2   force =     0.00351216    0.00209705    0.01854202
     atom    5 type  1   force =     0.00303207    0.00178705   -0.00828527
     atom    6 type  1   force =     0.00306605    0.00180675   -0.00825305
     atom    7 type  2   force =    -0.00783272   -0.00457548   -0.01214347
     atom    8 type  2   force =    -0.00779734   -0.00463641   -0.01214325
     atom    9 type  1   force =    -0.00060356   -0.00035573    0.00124336
     atom   10 type  1   force =    -0.00052451   -0.00030931    0.00127346
     atom   11 type  2   force =    -0.00139962   -0.00083505    0.00105676
     atom   12 type  2   force =    -0.00140891   -0.00082023    0.00105655

     Total force =     0.037177     Total SCF correction =     0.003550

     entering subroutine stress ...

     negative rho (up, down):  3.799E-01 3.747E-01
          total   stress  (Ry/bohr**3)                   (kbar)     P=  -19.28
  -0.00014659   0.00004811  -0.00001869        -21.56      7.08     -2.75
   0.00004811  -0.00019986  -0.00001101          7.08    -29.40     -1.62
  -0.00001869  -0.00001101  -0.00004669         -2.75     -1.62     -6.87

 !ASE

     Writing output data file calc.save

     General routines

     Parallel routines

   This run was terminated on:  17:40:10  24Dec2018

   JOB DONE.
Job  /afs/slac/g/suncat/bin/suncat-tsmpirun -x LD_LIBRARY_PATH -wdir /scratch/qe108917_65J7L pw.x -in pw.inp

TID   HOST_NAME   COMMAND_LINE            STATUS            TERMINATION_TIME
00000 suncat0178 pw.x -in pw.inp   Done                     12/24/2018 17:40:10
00001 suncat0178 pw.x -in pw.inp   Done                     12/24/2018 17:40:10
00002 suncat0178 pw.x -in pw.inp   Done                     12/24/2018 17:40:10
00003 suncat0178 pw.x -in pw.inp   Done                     12/24/2018 17:40:10
00004 suncat0178 pw.x -in pw.inp   Done                     12/24/2018 17:40:10
00005 suncat0178 pw.x -in pw.inp   Done                     12/24/2018 17:40:10
00006 suncat0178 pw.x -in pw.inp   Done                     12/24/2018 17:40:10
00007 suncat0178 pw.x -in pw.inp   Done                     12/24/2018 17:40:10
00008 suncat0177 pw.x -in pw.inp   Done                     12/24/2018 17:40:10
00009 suncat0177 pw.x -in pw.inp   Done                     12/24/2018 17:40:10
00010 suncat0177 pw.x -in pw.inp   Done                     12/24/2018 17:40:10
00011 suncat0177 pw.x -in pw.inp   Done                     12/24/2018 17:40:10
00012 suncat0177 pw.x -in pw.inp   Done                     12/24/2018 17:40:10
00013 suncat0177 pw.x -in pw.inp   Done                     12/24/2018 17:40:10
00014 suncat0177 pw.x -in pw.inp   Done                     12/24/2018 17:40:10
00015 suncat0177 pw.x -in pw.inp   Done                     12/24/2018 17:40:10
00016 suncat0129 pw.x -in pw.inp   Done                     12/24/2018 17:40:10
00017 suncat0129 pw.x -in pw.inp   Done                     12/24/2018 17:40:10
00018 suncat0129 pw.x -in pw.inp   Done                     12/24/2018 17:40:10
00019 suncat0129 pw.x -in pw.inp   Done                     12/24/2018 17:40:10
00020 suncat0129 pw.x -in pw.inp   Done                     12/24/2018 17:40:10
00021 suncat0129 pw.x -in pw.inp   Done                     12/24/2018 17:40:10
00022 suncat0129 pw.x -in pw.inp   Done                     12/24/2018 17:40:10
00023 suncat0129 pw.x -in pw.inp   Done                     12/24/2018 17:40:10
00024 suncat0254 pw.x -in pw.inp   Done                     12/24/2018 17:40:10
00025 suncat0254 pw.x -in pw.inp   Done                     12/24/2018 17:40:10
00026 suncat0254 pw.x -in pw.inp   Done                     12/24/2018 17:40:10
00027 suncat0254 pw.x -in pw.inp   Done                     12/24/2018 17:40:10
00028 suncat0254 pw.x -in pw.inp   Done                     12/24/2018 17:40:10
00029 suncat0254 pw.x -in pw.inp   Done                     12/24/2018 17:40:10
00030 suncat0254 pw.x -in pw.inp   Done                     12/24/2018 17:40:10
00031 suncat0254 pw.x -in pw.inp   Done                     12/24/2018 17:40:10
00032 suncat0253 pw.x -in pw.inp   Done                     12/24/2018 17:40:10
00033 suncat0253 pw.x -in pw.inp   Done                     12/24/2018 17:40:10
00034 suncat0253 pw.x -in pw.inp   Done                     12/24/2018 17:40:10
00035 suncat0253 pw.x -in pw.inp   Done                     12/24/2018 17:40:10
00036 suncat0253 pw.x -in pw.inp   Done                     12/24/2018 17:40:10
00037 suncat0253 pw.x -in pw.inp   Done                     12/24/2018 17:40:10
00038 suncat0253 pw.x -in pw.inp   Done                     12/24/2018 17:40:10
00039 suncat0253 pw.x -in pw.inp   Done                     12/24/2018 17:40:10
00040 suncat0244 pw.x -in pw.inp   Done                     12/24/2018 17:40:10
00041 suncat0244 pw.x -in pw.inp   Done                     12/24/2018 17:40:10
00042 suncat0244 pw.x -in pw.inp   Done                     12/24/2018 17:40:10
00043 suncat0244 pw.x -in pw.inp   Done                     12/24/2018 17:40:10
00044 suncat0244 pw.x -in pw.inp   Done                     12/24/2018 17:40:10
00045 suncat0244 pw.x -in pw.inp   Done                     12/24/2018 17:40:10
00046 suncat0244 pw.x -in pw.inp   Done                     12/24/2018 17:40:10
00047 suncat0244 pw.x -in pw.inp   Done                     12/24/2018 17:40:10
00048 suncat0243 pw.x -in pw.inp   Done                     12/24/2018 17:40:10
00049 suncat0243 pw.x -in pw.inp   Done                     12/24/2018 17:40:10
00050 suncat0243 pw.x -in pw.inp   Done                     12/24/2018 17:40:10
00051 suncat0243 pw.x -in pw.inp   Done                     12/24/2018 17:40:10
00052 suncat0243 pw.x -in pw.inp   Done                     12/24/2018 17:40:10
00053 suncat0243 pw.x -in pw.inp   Done                     12/24/2018 17:40:10
00054 suncat0243 pw.x -in pw.inp   Done                     12/24/2018 17:40:10
00055 suncat0243 pw.x -in pw.inp   Done                     12/24/2018 17:40:10
00056 suncat0242 pw.x -in pw.inp   Done                     12/24/2018 17:40:10
00057 suncat0242 pw.x -in pw.inp   Done                     12/24/2018 17:40:10
00058 suncat0242 pw.x -in pw.inp   Done                     12/24/2018 17:40:10
00059 suncat0242 pw.x -in pw.inp   Done                     12/24/2018 17:40:10
00060 suncat0242 pw.x -in pw.inp   Done                     12/24/2018 17:40:10
00061 suncat0242 pw.x -in pw.inp   Done                     12/24/2018 17:40:10
00062 suncat0242 pw.x -in pw.inp   Done                     12/24/2018 17:40:10
00063 suncat0242 pw.x -in pw.inp   Done                     12/24/2018 17:40:10