     Program PWSCF v.5.1rc2 (svn rev. 11289) starts on 19Dec2018 at  5:38:29

     Current dimensions of program PWSCF are:
     Max number of different atomic species (ntypx) = 10
     Max number of k-points (npk) =  40000
     Max angular momentum in pseudopotentials (lmaxx) =  3
     Presently stress not available with electric field

     IMPORTANT: XC functional enforced from input :
     Exchange-correlation      = BEEF-VDW ( 1  4 27 13 2)
     Any further DFT definition will be discarded
     Please, verify this is what you really want

     Subspace diagonalization in iterative solution of the eigenvalue problem:
     a serial algorithm will be used

     Found symmetry operation: I + ( -0.5000 -0.5000  0.0000)
     This is a supercell, fractional translations are disabled

     Generating pointlists ...
     new r_m :   0.4125 (alat units)  0.7795 (a.u.) for type    1
     new r_m :   0.4125 (alat units)  0.7795 (a.u.) for type    2

     bravais-lattice index     =            0
     lattice parameter (alat)  =       1.8897  a.u.
     unit-cell volume          =    4777.7870 (a.u.)^3
     number of atoms/cell      =           12
     number of atomic types    =            2
     number of electrons       =       174.00
     number of Kohn-Sham states=          117
     kinetic-energy cutoff     =      36.7493  Ry
     charge density cutoff     =     367.4932  Ry
     convergence threshold     =      1.0E-06
     mixing beta               =       0.1000
     number of iterations used =           10  plain     mixing
     Exchange-correlation      = BEEF-VDW ( 1  4 27 13 2)
     nstep                     =           50

     celldm(1)=   1.889726  celldm(2)=   0.000000  celldm(3)=   0.000000
     celldm(4)=   0.000000  celldm(5)=   0.000000  celldm(6)=   0.000000

     crystal axes: (cart. coord. in units of alat)
               a(1) = (   5.528091   0.000000   0.000000 )
               a(2) = (   1.797687   5.227630   0.000000 )
               a(3) = (   0.000000   0.000000  24.499101 )

     reciprocal axes: (cart. coord. in units 2 pi/alat)
               b(1) = (  0.180894 -0.062206  0.000000 )
               b(2) = (  0.000000  0.191291  0.000000 )
               b(3) = (  0.000000  0.000000  0.040818 )

     PseudoPot. # 1 for Co read from file:
     /afs/slac.stanford.edu/u/if/mamunm/psp/gbrv1.5pbe/Co.UPF
     MD5 check sum: 5f91765df6ddd3222702df6e7b74a16d
     Pseudo is Ultrasoft + core correction, Zval = 17.0
     Generated by new atomic code, or converted to UPF format
     Using radial grid of  863 points,  6 beta functions with:
                l(1) =   0
                l(2) =   0
                l(3) =   1
                l(4) =   1
                l(5) =   2
                l(6) =   2
     Q(r) pseudized with  8 coefficients,  rinner =    1.200   1.200   1.200
                                                       1.200   1.200

     PseudoPot. # 2 for Hg read from file:
     /afs/slac.stanford.edu/u/if/mamunm/psp/gbrv1.5pbe/Hg.UPF
     MD5 check sum: 8f42caffe07f7fd9c0a564347f8c5498
     Pseudo is Ultrasoft + core correction, Zval = 12.0
     Generated by new atomic code, or converted to UPF format
     Using radial grid of  985 points,  6 beta functions with:
                l(1) =   0
                l(2) =   0
                l(3) =   1
                l(4) =   1
                l(5) =   2
                l(6) =   2
     Q(r) pseudized with  8 coefficients,  rinner =    2.000   2.000   2.000
                                                       2.000   2.000

     vdW kernel table read from file vdW_kernel_table
     MD5 check sum: 095c7af220d748ca6e76c0b4c6cfb241

     atomic species   valence    mass     pseudopotential
        Co1           17.00    58.93319     Co( 1.00)
        Hg1           12.00   200.59200     Hg( 1.00)

     Starting magnetic structure
     atomic species   magnetization
        Co1          0.118
        Hg1          0.167

     No symmetry found

   Cartesian axes

     site n.     atom                  positions (alat units)
         1           Co1 tau(   1) = (   0.0000000   0.0000000  10.0000000  )
         2           Co1 tau(   2) = (   3.6628893   2.6138149  10.0000000  )
         3           Hg1 tau(   3) = (   2.7640457   0.0000000  10.0000000  )
         4           Hg1 tau(   4) = (   0.8988437   2.6138149  10.0000000  )
         5           Co1 tau(   5) = (   5.5280913   3.9448114  12.2495504  )
         6           Co1 tau(   6) = (   1.8652020   1.3309965  12.2495504  )
         7           Hg1 tau(   7) = (   2.7640457   3.9448114  12.2495504  )
         8           Hg1 tau(   8) = (   4.6292476   1.3309965  12.2495504  )
         9           Co1 tau(   9) = (   3.7304040   2.6619929  14.4991007  )
        10           Co1 tau(  10) = (   0.0675146   0.0481780  14.4991007  )
        11           Hg1 tau(  11) = (   0.9663583   2.6619929  14.4991007  )
        12           Hg1 tau(  12) = (   2.8315603   0.0481780  14.4991007  )

     number of k points=    40  Fermi-Dirac smearing, width (Ry)=  0.0110
                       cart. coord. in units 2pi/alat
        k(    1) = (   0.0000000   0.0000000   0.0000000), wk =   0.0277778
        k(    2) = (   0.0000000   0.0318819   0.0000000), wk =   0.0555556
        k(    3) = (   0.0000000   0.0637638   0.0000000), wk =   0.0555556
        k(    4) = (   0.0000000  -0.0956456   0.0000000), wk =   0.0277778
        k(    5) = (   0.0301490  -0.0103677   0.0000000), wk =   0.0555556
        k(    6) = (   0.0301490   0.0215142   0.0000000), wk =   0.0555556
        k(    7) = (   0.0301490   0.0533960   0.0000000), wk =   0.0555556
        k(    8) = (   0.0301490  -0.1060134   0.0000000), wk =   0.0555556
        k(    9) = (   0.0301490  -0.0741315   0.0000000), wk =   0.0555556
        k(   10) = (   0.0301490  -0.0422496   0.0000000), wk =   0.0555556
        k(   11) = (   0.0602981  -0.0207354   0.0000000), wk =   0.0555556
        k(   12) = (   0.0602981   0.0111465   0.0000000), wk =   0.0555556
        k(   13) = (   0.0602981   0.0430283   0.0000000), wk =   0.0555556
        k(   14) = (   0.0602981  -0.1163811   0.0000000), wk =   0.0555556
        k(   15) = (   0.0602981  -0.0844992   0.0000000), wk =   0.0555556
        k(   16) = (   0.0602981  -0.0526173   0.0000000), wk =   0.0555556
        k(   17) = (  -0.0904471   0.0311031   0.0000000), wk =   0.0277778
        k(   18) = (  -0.0904471   0.0629850   0.0000000), wk =   0.0555556
        k(   19) = (  -0.0904471   0.0948669   0.0000000), wk =   0.0555556
        k(   20) = (  -0.0904471  -0.0645425   0.0000000), wk =   0.0277778
        k(   21) = (   0.0000000   0.0000000   0.0000000), wk =   0.0277778
        k(   22) = (   0.0000000   0.0318819   0.0000000), wk =   0.0555556
        k(   23) = (   0.0000000   0.0637638   0.0000000), wk =   0.0555556
        k(   24) = (   0.0000000  -0.0956456   0.0000000), wk =   0.0277778
        k(   25) = (   0.0301490  -0.0103677   0.0000000), wk =   0.0555556
        k(   26) = (   0.0301490   0.0215142   0.0000000), wk =   0.0555556
        k(   27) = (   0.0301490   0.0533960   0.0000000), wk =   0.0555556
        k(   28) = (   0.0301490  -0.1060134   0.0000000), wk =   0.0555556
        k(   29) = (   0.0301490  -0.0741315   0.0000000), wk =   0.0555556
        k(   30) = (   0.0301490  -0.0422496   0.0000000), wk =   0.0555556
        k(   31) = (   0.0602981  -0.0207354   0.0000000), wk =   0.0555556
        k(   32) = (   0.0602981   0.0111465   0.0000000), wk =   0.0555556
        k(   33) = (   0.0602981   0.0430283   0.0000000), wk =   0.0555556
        k(   34) = (   0.0602981  -0.1163811   0.0000000), wk =   0.0555556
        k(   35) = (   0.0602981  -0.0844992   0.0000000), wk =   0.0555556
        k(   36) = (   0.0602981  -0.0526173   0.0000000), wk =   0.0555556
        k(   37) = (  -0.0904471   0.0311031   0.0000000), wk =   0.0277778
        k(   38) = (  -0.0904471   0.0629850   0.0000000), wk =   0.0555556
        k(   39) = (  -0.0904471   0.0948669   0.0000000), wk =   0.0555556
        k(   40) = (  -0.0904471  -0.0645425   0.0000000), wk =   0.0277778

     Largest allocated arrays     est. size (Mb)     dimensions
     Largest temporary arrays     est. size (Mb)     dimensions

     Check: negative/imaginary core charge=   -0.000003    0.000000

     Initial potential from superposition of free atoms
     Check: negative starting charge=(component1):   -0.000159
     Check: negative starting charge=(component2):   -0.000126

     starting charge  167.99961, renormalised to  174.00000

     negative rho (up, down):  1.650E-04 1.300E-04

     *
     * You are using vdW-DF for exchange-correlation in this calculation.
     * Please cite the following three references that made this development
     * possible:
     *
     *   M. Dion, H. Rydberg, E. Schroder, D. C. Langreth, and
     *   B. I. Lundqvist, Phys. Rev. Lett. 92, 246401 (2004).
     *
     *   T. Thonhauser, V. R. Cooper, S. Li, A. Puzder, P. Hyldgaard, and
     *   D. C. Langreth, Phys. Rev. B 76, 125112 (2007).
     *
     *   G. Roman-Perez and J. M. Soler, Phys. Rev. Lett. 103, 096102 (2009).
     *
     *
     * If you are using vdW-DF2, please also cite:
     *
     *   K. Lee, E. D. Murray, L. Kong, B. I. Lundqvist, and
     *   D. C. Langreth, Phys. Rev. B 82, 081101(R) (2010).
     *
     *
     * If you are calculating the stress with vdW-DF, please also cite:
     *
     *   R. Sabatini, E. Kucukbenli, B. Kolb, T. Thonhauser, and
     *   S. de Gironcoli, J. Phys.: Condens. Matter 24, 424209 (2012).
     *

     Carrying out vdW-DF run using the following parameters:

     Nqs =      20    Nr_points =    1024   r_max =   100.000
     q_mesh =
               0.00001000     0.04494208     0.09755937     0.15916263
               0.23128650     0.31572767     0.41458969     0.53033537
               0.66584808     0.82450364     1.01025438     1.22772762
               1.48234092     1.78043706     2.12944203     2.53805004
               3.01644009     3.57652955     4.23227104     5.00000000

     Gradients computed in reciprocal space

     Adding external electric field

     Computed dipole along edir(3) :
        Dipole                0.0000 Ry au,          0.0000 Debye
        Dipole field          0.0000 Ry au

        Potential amp.       -0.0000 Ry
        Total length         45.1392 bohr

[...]

     Starting wfc are  132 randomized atomic wfcs

     Self-consistent Calculation

     iteration #  1     ecut=    36.75 Ry     beta=0.10
     Davidson diagonalization with overlap
     ethr =  1.00E-02,  avg # of iterations =  7.7

[...]

     Magnetic moment per site:
     atom:    1    charge:    8.4201    magn:    1.0131    constr:    0.0000
     atom:    2    charge:    8.4201    magn:    1.0131    constr:    0.0000
     atom:    3    charge:    1.9985    magn:    0.3049    constr:    0.0000
     atom:    4    charge:    1.9985    magn:    0.3049    constr:    0.0000
     atom:    5    charge:    8.3963    magn:    1.0164    constr:    0.0000
     atom:    6    charge:    8.3963    magn:    1.0164    constr:    0.0000
[...]
                l(3) =   1
                l(4) =   1
                l(5) =   2
                l(6) =   2
     Q(r) pseudized with  8 coefficients,  rinner =    1.200   1.200   1.200
                                                       1.200   1.200

     PseudoPot. # 2 for Hg read from file:
     /afs/slac.stanford.edu/u/if/mamunm/psp/gbrv1.5pbe/Hg.UPF
     MD5 check sum: 8f42caffe07f7fd9c0a564347f8c5498
     Pseudo is Ultrasoft + core correction, Zval = 12.0
     Generated by new atomic code, or converted to UPF format
     Using radial grid of  985 points,  6 beta functions with:
                l(1) =   0
                l(2) =   0
                l(3) =   1
                l(4) =   1
                l(5) =   2
                l(6) =   2
     Q(r) pseudized with  8 coefficients,  rinner =    2.000   2.000   2.000
                                                       2.000   2.000

     vdW kernel table read from file vdW_kernel_table
     MD5 check sum: 095c7af220d748ca6e76c0b4c6cfb241

     atomic species   valence    mass     pseudopotential
        Co1           17.00    58.93319     Co( 1.00)
        Hg1           12.00   200.59200     Hg( 1.00)

     Starting magnetic structure
     atomic species   magnetization
        Co1          0.118
        Hg1          0.167

     No symmetry found

   Cartesian axes

     site n.     atom                  positions (alat units)
         1           Co1 tau(   1) = (   0.0000000   0.0000000  10.0000000  )
         2           Co1 tau(   2) = (   3.6628893   2.6138149  10.0000000  )
         3           Hg1 tau(   3) = (   2.7640457   0.0000000  10.0000000  )
         4           Hg1 tau(   4) = (   0.8988437   2.6138149  10.0000000  )
         5           Co1 tau(   5) = (   5.5280913   3.9448114  12.2495504  )
         6           Co1 tau(   6) = (   1.8652020   1.3309965  12.2495504  )
         7           Hg1 tau(   7) = (   2.7640457   3.9448114  12.2495504  )
         8           Hg1 tau(   8) = (   4.6292476   1.3309965  12.2495504  )
         9           Co1 tau(   9) = (   3.7383510   2.6676635  14.3672117  )
        10           Co1 tau(  10) = (   0.0755963   0.0539461  14.3670444  )
        11           Hg1 tau(  11) = (   0.9718192   2.6660115  14.7931625  )
        12           Hg1 tau(  12) = (   2.8371398   0.0520371  14.7931626  )

     number of k points=    40  Fermi-Dirac smearing, width (Ry)=  0.0110
                       cart. coord. in units 2pi/alat
        k(    1) = (   0.0000000   0.0000000   0.0000000), wk =   0.0277778
        k(    2) = (   0.0000000   0.0318819   0.0000000), wk =   0.0555556
        k(    3) = (   0.0000000   0.0637638   0.0000000), wk =   0.0555556
        k(    4) = (   0.0000000  -0.0956456   0.0000000), wk =   0.0277778
        k(    5) = (   0.0301490  -0.0103677   0.0000000), wk =   0.0555556
        k(    6) = (   0.0301490   0.0215142   0.0000000), wk =   0.0555556
        k(    7) = (   0.0301490   0.0533960   0.0000000), wk =   0.0555556
        k(    8) = (   0.0301490  -0.1060134   0.0000000), wk =   0.0555556
        k(    9) = (   0.0301490  -0.0741315   0.0000000), wk =   0.0555556
        k(   10) = (   0.0301490  -0.0422496   0.0000000), wk =   0.0555556
        k(   11) = (   0.0602981  -0.0207354   0.0000000), wk =   0.0555556
        k(   12) = (   0.0602981   0.0111465   0.0000000), wk =   0.0555556
        k(   13) = (   0.0602981   0.0430283   0.0000000), wk =   0.0555556
        k(   14) = (   0.0602981  -0.1163811   0.0000000), wk =   0.0555556
        k(   15) = (   0.0602981  -0.0844992   0.0000000), wk =   0.0555556
        k(   16) = (   0.0602981  -0.0526173   0.0000000), wk =   0.0555556
        k(   17) = (  -0.0904471   0.0311031   0.0000000), wk =   0.0277778
        k(   18) = (  -0.0904471   0.0629850   0.0000000), wk =   0.0555556
        k(   19) = (  -0.0904471   0.0948669   0.0000000), wk =   0.0555556
        k(   20) = (  -0.0904471  -0.0645425   0.0000000), wk =   0.0277778
        k(   21) = (   0.0000000   0.0000000   0.0000000), wk =   0.0277778
        k(   22) = (   0.0000000   0.0318819   0.0000000), wk =   0.0555556
        k(   23) = (   0.0000000   0.0637638   0.0000000), wk =   0.0555556
        k(   24) = (   0.0000000  -0.0956456   0.0000000), wk =   0.0277778
        k(   25) = (   0.0301490  -0.0103677   0.0000000), wk =   0.0555556
        k(   26) = (   0.0301490   0.0215142   0.0000000), wk =   0.0555556
        k(   27) = (   0.0301490   0.0533960   0.0000000), wk =   0.0555556
        k(   28) = (   0.0301490  -0.1060134   0.0000000), wk =   0.0555556
        k(   29) = (   0.0301490  -0.0741315   0.0000000), wk =   0.0555556
        k(   30) = (   0.0301490  -0.0422496   0.0000000), wk =   0.0555556
        k(   31) = (   0.0602981  -0.0207354   0.0000000), wk =   0.0555556
        k(   32) = (   0.0602981   0.0111465   0.0000000), wk =   0.0555556
        k(   33) = (   0.0602981   0.0430283   0.0000000), wk =   0.0555556
        k(   34) = (   0.0602981  -0.1163811   0.0000000), wk =   0.0555556
        k(   35) = (   0.0602981  -0.0844992   0.0000000), wk =   0.0555556
        k(   36) = (   0.0602981  -0.0526173   0.0000000), wk =   0.0555556
        k(   37) = (  -0.0904471   0.0311031   0.0000000), wk =   0.0277778
        k(   38) = (  -0.0904471   0.0629850   0.0000000), wk =   0.0555556
        k(   39) = (  -0.0904471   0.0948669   0.0000000), wk =   0.0555556
        k(   40) = (  -0.0904471  -0.0645425   0.0000000), wk =   0.0277778

     Largest allocated arrays     est. size (Mb)     dimensions
     Largest temporary arrays     est. size (Mb)     dimensions

     Check: negative/imaginary core charge=   -0.000003    0.000000

     Initial potential from superposition of free atoms
     Check: negative starting charge=(component1):   -0.000152
     Check: negative starting charge=(component2):   -0.000120

     starting charge  167.99961, renormalised to  174.00000

[...]

     *
     * You are using vdW-DF for exchange-correlation in this calculation.
     * Please cite the following three references that made this development
     * possible:
     *
     *   M. Dion, H. Rydberg, E. Schroder, D. C. Langreth, and
     *   B. I. Lundqvist, Phys. Rev. Lett. 92, 246401 (2004).
     *
     *   T. Thonhauser, V. R. Cooper, S. Li, A. Puzder, P. Hyldgaard, and
     *   D. C. Langreth, Phys. Rev. B 76, 125112 (2007).
     *
     *   G. Roman-Perez and J. M. Soler, Phys. Rev. Lett. 103, 096102 (2009).
     *
     *
     * If you are using vdW-DF2, please also cite:
     *
     *   K. Lee, E. D. Murray, L. Kong, B. I. Lundqvist, and
     *   D. C. Langreth, Phys. Rev. B 82, 081101(R) (2010).
     *
     *
     * If you are calculating the stress with vdW-DF, please also cite:
     *
     *   R. Sabatini, E. Kucukbenli, B. Kolb, T. Thonhauser, and
     *   S. de Gironcoli, J. Phys.: Condens. Matter 24, 424209 (2012).
     *

     Carrying out vdW-DF run using the following parameters:

     Nqs =      20    Nr_points =    1024   r_max =   100.000
     q_mesh =
               0.00001000     0.04494208     0.09755937     0.15916263
               0.23128650     0.31572767     0.41458969     0.53033537
               0.66584808     0.82450364     1.01025438     1.22772762
               1.48234092     1.78043706     2.12944203     2.53805004
               3.01644009     3.57652955     4.23227104     5.00000000

     Gradients computed in reciprocal space

[...]

     Starting wfc are  132 randomized atomic wfcs

     Self-consistent Calculation

[...]

     total energy              =   -2451.27522995 Ry
     Harris-Foulkes estimate   =   -2451.27522982 Ry
     estimated scf accuracy    <       0.00000149 Ry

[...]

     iteration # 35     ecut=    36.75 Ry     beta=0.10
     Davidson diagonalization with overlap
     ethr =  8.57E-10,  avg # of iterations =  1.0

[...]

     negative rho (up, down):  4.666E-04 3.457E-04

[...]

     Adding external electric field

     Computed dipole along edir(3) :
        Dipole               -0.0132 Ry au,         -0.0336 Debye
        Dipole field         -0.0000 Ry au

        Potential amp.        0.0031 Ry
        Total length         45.1392 bohr

     Magnetic moment per site:
     atom:    1    charge:    8.3165    magn:    0.8844    constr:    0.0000
     atom:    2    charge:    8.3165    magn:    0.8844    constr:    0.0000
     atom:    3    charge:    1.9932    magn:   -0.0003    constr:    0.0000
     atom:    4    charge:    1.9932    magn:   -0.0003    constr:    0.0000
     atom:    5    charge:    8.3082    magn:    0.8658    constr:    0.0000
     atom:    6    charge:    8.3084    magn:    0.8656    constr:    0.0000
     atom:    7    charge:    1.9986    magn:    0.0007    constr:    0.0000
     atom:    8    charge:    1.9986    magn:    0.0007    constr:    0.0000
     atom:    9    charge:    8.3100    magn:    0.8753    constr:    0.0000
     atom:   10    charge:    8.3100    magn:    0.8753    constr:    0.0000
     atom:   11    charge:    1.9887    magn:   -0.0009    constr:    0.0000
     atom:   12    charge:    1.9887    magn:   -0.0009    constr:    0.0000

     End of self-consistent calculation

 ------ SPIN UP ------------

[...]

 ------ SPIN DOWN ----------

[...]

          k = 0.0603-0.0526 0.0000 ( 17991 PWs)   bands (ev):

[...]

          k =-0.0904-0.0645 0.0000 ( 18016 PWs)   bands (ev):

   -92.9570 -92.9566 -92.9518 -92.9514 -92.9115 -92.9110 -56.3645 -56.3620
   -56.3541 -56.3527 -56.3354 -56.3258 -56.3240 -56.3216 -56.3212 -56.3123
   -56.3122 -56.3117 -56.2985 -56.2977 -56.2943 -56.2936 -56.2815 -56.2722
    -7.6596  -7.4299  -7.2812  -7.2275  -7.1706  -7.1412  -7.1304  -7.0610
    -6.9800  -6.9190  -6.7908  -6.7825  -6.7468  -6.6464  -6.5796  -6.5596
    -6.5354  -6.4385  -6.3856  -6.3657  -6.2264  -6.2004  -6.1369  -6.1346
    -6.0532  -5.9676  -5.8862  -5.8169  -5.7690  -5.5852  -5.5666  -5.1751
    -3.9690  -3.6935  -3.0911  -3.0838  -2.6341  -1.6578  -1.3270  -0.9810
    -0.9621  -0.8339  -0.6861  -0.3682  -0.2918  -0.2836  -0.2293  -0.1650
    -0.0756   0.0795   0.1533   0.2183   0.2270   0.3215   0.3252   0.3739
     0.5062   0.6402   0.6985   0.7411   0.7507   0.8209   0.8965   0.9510
     1.0032   1.0876   1.3441   1.3837   1.6035   1.7428   1.9624   3.0753
     3.1841   3.6989   5.0666   5.3502   5.5643   5.9455   6.1281   6.5217
     6.5345   6.7478   6.7966   6.8041   6.8822   7.1374   7.3099   7.5152
     7.6228   7.8465   7.8717   7.9359   8.3361

     the Fermi energy is     0.6709 ev

!    total energy              =   -2451.27522962 Ry
     Harris-Foulkes estimate   =   -2451.27523023 Ry
     estimated scf accuracy    <       0.00000067 Ry

     The total energy is the sum of the following terms:

     one-electron contribution =  -16474.79323210 Ry
     hartree contribution      =    8287.18793664 Ry
     xc contribution           =    -445.41494728 Ry
     ewald contribution        =    6181.85408135 Ry
     electric field correction =       0.00000046 Ry
     smearing contrib. (-TS)   =      -0.10906869 Ry

     total magnetization       =     9.53 Bohr mag/cell
     absolute magnetization    =    11.28 Bohr mag/cell

     convergence has been achieved in  35 iterations

 BEEF-vdW xc energy contributions
           1 :   -391.356834793380
           2 :    357.654272975589
           3 :   -299.788417196883
           4 :    232.492929894561
           5 :   -169.727258155266
           6 :    120.075106317064
           7 :   -85.3338670122141
           8 :    62.2112461942803
           9 :   -45.6365620045943
          10 :    31.7167236241597
          11 :   -19.0318543072871
          12 :    8.12209040298018
          13 :  -5.322110908127797E-002
          14 :   -4.79486303378548
          15 :    7.02319976809201
          16 :   -7.70937684432414
          17 :    7.70918523779528
          18 :   -7.34206207137117
          19 :    6.57532353582349
          20 :   -5.42436823204287
          21 :    4.17168219091906
          22 :   -3.25150818192884
          23 :    2.93941750285757
          24 :   -3.14845846717230
          25 :    3.50734590102638
          26 :   -3.66067241560415
          27 :    3.53380534045459
          28 :   -3.35491147904838
          29 :    3.42138958890973
          30 :   -3.81814543596556
          31 :   -34.8462552877301
          32 :   -25.0019517384820

     Forces acting on atoms (Ry/au):

     negative rho (up, down):  4.666E-04 3.457E-04
     atom    1 type  1   force =    -0.00104222   -0.00074369    0.01850333
     atom    2 type  1   force =    -0.00095137   -0.00067886    0.01853773
     atom    3 type  2   force =     0.00092300    0.00058734   -0.03117133
     atom    4 type  2   force =     0.00085555    0.00068178   -0.03117135
     atom    5 type  1   force =     0.00008715    0.00006215    0.01770719
     atom    6 type  1   force =     0.00010599    0.00007549    0.01771996
     atom    7 type  2   force =    -0.00104079   -0.00076899   -0.00589269
     atom    8 type  2   force =    -0.00106582   -0.00073414   -0.00589292
     atom    9 type  1   force =     0.00133121    0.00095011    0.00064761
     atom   10 type  1   force =     0.00124459    0.00088788    0.00069637
     atom   11 type  2   force =    -0.00024298   -0.00013191    0.00015809
     atom   12 type  2   force =    -0.00020432   -0.00018717    0.00015801

     Total force =     0.057803     Total SCF correction =     0.001862

     entering subroutine stress ...

     negative rho (up, down):  4.666E-04 3.457E-04
          total   stress  (Ry/bohr**3)                   (kbar)     P=   -8.89
  -0.00009759  -0.00001012   0.00000191        -14.36     -1.49      0.28
  -0.00001012  -0.00009063   0.00000136         -1.49    -13.33      0.20
   0.00000191   0.00000136   0.00000690          0.28      0.20      1.01

 !ASE

     Writing output data file calc.save

     General routines

     Parallel routines

   This run was terminated on:  10:45:18  19Dec2018

   JOB DONE.
Job  /afs/slac/g/suncat/bin/suncat-tsmpirun -x LD_LIBRARY_PATH -wdir /scratch/qe529679_hRC02 pw.x -in pw.inp

TID   HOST_NAME   COMMAND_LINE            STATUS            TERMINATION_TIME
00000 suncat0057 pw.x -in pw.inp   Done                     12/19/2018 10:45:18
00001 suncat0057 pw.x -in pw.inp   Done                     12/19/2018 10:45:18
00002 suncat0057 pw.x -in pw.inp   Done                     12/19/2018 10:45:18
00003 suncat0057 pw.x -in pw.inp   Done                     12/19/2018 10:45:18
00004 suncat0057 pw.x -in pw.inp   Done                     12/19/2018 10:45:18
00005 suncat0057 pw.x -in pw.inp   Done                     12/19/2018 10:45:18
00006 suncat0057 pw.x -in pw.inp   Done                     12/19/2018 10:45:18
00007 suncat0057 pw.x -in pw.inp   Done                     12/19/2018 10:45:18
00008 suncat0056 pw.x -in pw.inp   Done                     12/19/2018 10:45:18
00009 suncat0056 pw.x -in pw.inp   Done                     12/19/2018 10:45:18
00010 suncat0056 pw.x -in pw.inp   Done                     12/19/2018 10:45:18
00011 suncat0056 pw.x -in pw.inp   Done                     12/19/2018 10:45:18
00012 suncat0056 pw.x -in pw.inp   Done                     12/19/2018 10:45:18
00013 suncat0056 pw.x -in pw.inp   Done                     12/19/2018 10:45:18
00014 suncat0056 pw.x -in pw.inp   Done                     12/19/2018 10:45:18
00015 suncat0056 pw.x -in pw.inp   Done                     12/19/2018 10:45:18
00016 suncat0055 pw.x -in pw.inp   Done                     12/19/2018 10:45:18
00017 suncat0055 pw.x -in pw.inp   Done                     12/19/2018 10:45:18
00018 suncat0055 pw.x -in pw.inp   Done                     12/19/2018 10:45:18
00019 suncat0055 pw.x -in pw.inp   Done                     12/19/2018 10:45:18
00020 suncat0055 pw.x -in pw.inp   Done                     12/19/2018 10:45:18
00021 suncat0055 pw.x -in pw.inp   Done                     12/19/2018 10:45:18
00022 suncat0055 pw.x -in pw.inp   Done                     12/19/2018 10:45:18
00023 suncat0055 pw.x -in pw.inp   Done                     12/19/2018 10:45:18
00024 suncat0054 pw.x -in pw.inp   Done                     12/19/2018 10:45:18
00025 suncat0054 pw.x -in pw.inp   Done                     12/19/2018 10:45:18
00026 suncat0054 pw.x -in pw.inp   Done                     12/19/2018 10:45:18
00027 suncat0054 pw.x -in pw.inp   Done                     12/19/2018 10:45:18
00028 suncat0054 pw.x -in pw.inp   Done                     12/19/2018 10:45:18
00029 suncat0054 pw.x -in pw.inp   Done                     12/19/2018 10:45:18
00030 suncat0054 pw.x -in pw.inp   Done                     12/19/2018 10:45:18
00031 suncat0054 pw.x -in pw.inp   Done                     12/19/2018 10:45:18