     Program PWSCF v.5.1rc2 (svn rev. 11289) starts on 19Dec2018 at  1:44:55

     Current dimensions of program PWSCF are:
     Max number of different atomic species (ntypx) = 10
     Max number of k-points (npk) =  40000
     Max angular momentum in pseudopotentials (lmaxx) =  3
     Presently stress not available with electric field

     IMPORTANT: XC functional enforced from input :
     Exchange-correlation      = BEEF-VDW ( 1  4 27 13 2)
     Any further DFT definition will be discarded
     Please, verify this is what you really want

     Subspace diagonalization in iterative solution of the eigenvalue problem:
     a serial algorithm will be used

     Found symmetry operation: I + ( -0.5000  0.5000  0.0000)
     This is a supercell, fractional translations are disabled

     bravais-lattice index     =            0
     lattice parameter (alat)  =       1.8897  a.u.
     unit-cell volume          =    5933.6274 (a.u.)^3
     number of atoms/cell      =           12
     number of atomic types    =            2
     number of electrons       =       180.00
     number of Kohn-Sham states=          120
     kinetic-energy cutoff     =      36.7493  Ry
     charge density cutoff     =     367.4932  Ry
     convergence threshold     =      1.0E-06
     mixing beta               =       0.1000
     number of iterations used =           10  plain     mixing
     Exchange-correlation      = BEEF-VDW ( 1  4 27 13 2)
     nstep                     =           50

     celldm(1)=   1.889726  celldm(2)=   0.000000  celldm(3)=   0.000000
     celldm(4)=   0.000000  celldm(5)=   0.000000  celldm(6)=   0.000000

     crystal axes: (cart. coord. in units of alat)
               a(1) = (   6.111471   0.000000   0.000000 )
               a(2) = (   2.053746   5.756058   0.000000 )
               a(3) = (   0.000000   0.000000  24.994979 )

     reciprocal axes: (cart. coord. in units 2 pi/alat)
               b(1) = (  0.163627 -0.058382  0.000000 )
               b(2) = (  0.000000  0.173730  0.000000 )
               b(3) = (  0.000000  0.000000  0.040008 )

     PseudoPot. # 1 for Pd read from file:
     /afs/slac.stanford.edu/u/if/mamunm/psp/gbrv1.5pbe/Pd.UPF
     MD5 check sum: 2d733d2bc2cbfd217af676df1668a4bc
     Pseudo is Ultrasoft + core correction, Zval = 16.0
     Generated by new atomic code, or converted to UPF format
     Using radial grid of  887 points,  6 beta functions with:
                l(1) =   0
                l(2) =   0
                l(3) =   1
                l(4) =   1
                l(5) =   2
                l(6) =   2
     Q(r) pseudized with  8 coefficients,  rinner =    1.130   1.130   1.130
                                                       1.130   1.130

     PseudoPot. # 2 for Pb read from file:
     /afs/slac.stanford.edu/u/if/mamunm/psp/gbrv1.5pbe/Pb.UPF
     MD5 check sum: 3d1c1779aa92214d1e8f3a7db79003e2
     Pseudo is Ultrasoft + core correction, Zval = 14.0
     Generated by new atomic code, or converted to UPF format
     Using radial grid of  899 points,  6 beta functions with:
                l(1) =   0
                l(2) =   0
                l(3) =   1
                l(4) =   1
                l(5) =   2
                l(6) =   2
     Q(r) pseudized with  6 coefficients,  rinner =    1.000   1.000   1.000
                                                       1.000   1.000

     vdW kernel table read from file vdW_kernel_table
     MD5 check sum: 095c7af220d748ca6e76c0b4c6cfb241

     atomic species   valence    mass     pseudopotential
        Pd1           16.00   106.42000     Pd( 1.00)
        Pb1           14.00   207.20000     Pb( 1.00)

     No symmetry found

   Cartesian axes

     site n.     atom                  positions (alat units)
         1           Pd1 tau(   1) = (   0.0000000   0.0000000  10.0000000  )
         2           Pd1 tau(   2) = (   4.0826082   2.8780290  10.0000000  )
         3           Pb1 tau(   3) = (   3.0557354   0.0000000  10.0000000  )
         4           Pb1 tau(   4) = (   1.0268728   2.8780290  10.0000000  )
         5           Pd1 tau(   5) = (   6.1114707   4.3082728  12.4974894  )
         6           Pd1 tau(   6) = (   2.0288625   1.4302438  12.4974894  )
         7           Pb1 tau(   7) = (   3.0557354   4.3082728  12.4974894  )
         8           Pb1 tau(   8) = (   5.0845979   1.4302438  12.4974894  )
         9           Pd1 tau(   9) = (   4.0577251   2.8604876  14.9949788  )
        10           Pd1 tau(  10) = (   8.1403333   5.7385166  14.9949788  )
        11           Pb1 tau(  11) = (   7.1134604   2.8604876  14.9949788  )
        12           Pb1 tau(  12) = (   5.0845979   5.7385166  14.9949788  )

     number of k points=    20  Fermi-Dirac smearing, width (Ry)=  0.0110
                       cart. coord. in units 2pi/alat
        k(    1) = (   0.0000000   0.0000000   0.0000000), wk =   0.0555556
        k(    2) = (   0.0000000   0.0289550   0.0000000), wk =   0.1111111
        k(    3) = (   0.0000000   0.0579100   0.0000000), wk =   0.1111111
        k(    4) = (   0.0000000  -0.0868650   0.0000000), wk =   0.0555556
        k(    5) = (   0.0272711  -0.0097303   0.0000000), wk =   0.1111111
        k(    6) = (   0.0272711   0.0192247   0.0000000), wk =   0.1111111
        k(    7) = (   0.0272711   0.0481797   0.0000000), wk =   0.1111111
        k(    8) = (   0.0272711  -0.0965953   0.0000000), wk =   0.1111111
        k(    9) = (   0.0272711  -0.0676403   0.0000000), wk =   0.1111111
        k(   10) = (   0.0272711  -0.0386853   0.0000000), wk =   0.1111111
        k(   11) = (   0.0545422  -0.0194605   0.0000000), wk =   0.1111111
        k(   12) = (   0.0545422   0.0094945   0.0000000), wk =   0.1111111
        k(   13) = (   0.0545422   0.0384495   0.0000000), wk =   0.1111111
        k(   14) = (   0.0545422  -0.1063255   0.0000000), wk =   0.1111111
        k(   15) = (   0.0545422  -0.0773705   0.0000000), wk =   0.1111111
        k(   16) = (   0.0545422  -0.0484155   0.0000000), wk =   0.1111111
        k(   17) = (  -0.0818134   0.0291908   0.0000000), wk =   0.0555556
        k(   18) = (  -0.0818134   0.0581458   0.0000000), wk =   0.1111111
        k(   19) = (  -0.0818134   0.0871008   0.0000000), wk =   0.1111111
        k(   20) = (  -0.0818134  -0.0576742   0.0000000), wk =   0.0555556

     Largest allocated arrays     est. size (Mb)     dimensions
     Largest temporary arrays     est. size (Mb)     dimensions

     Initial potential from superposition of free atoms
     Check: negative starting charge=   -0.546198

     starting charge  176.98585, renormalised to  180.00000

     negative rho (up, down):  5.555E-01 0.000E+00

     *
     * You are using vdW-DF for exchange-correlation in this calculation.
     * Please cite the following three references that made this development
     * possible:
     *
     *   M. Dion, H. Rydberg, E. Schroder, D. C. Langreth, and
     *   B. I. Lundqvist, Phys. Rev. Lett. 92, 246401 (2004).
     *
     *   T. Thonhauser, V. R. Cooper, S. Li, A. Puzder, P. Hyldgaard, and
     *   D. C. Langreth, Phys. Rev. B 76, 125112 (2007).
     *
     *   G. Roman-Perez and J. M. Soler, Phys. Rev. Lett. 103, 096102 (2009).
     *
     *
     * If you are using vdW-DF2, please also cite:
     *
     *   K. Lee, E. D. Murray, L. Kong, B. I. Lundqvist, and
     *   D. C. Langreth, Phys. Rev. B 82, 081101(R) (2010).
     *
     *
     * If you are calculating the stress with vdW-DF, please also cite:
     *
     *   R. Sabatini, E. Kucukbenli, B. Kolb, T. Thonhauser, and
     *   S. de Gironcoli, J. Phys.: Condens. Matter 24, 424209 (2012).
     *

     Carrying out vdW-DF run using the following parameters:

     Nqs =      20    Nr_points =    1024   r_max =   100.000
     q_mesh =
               0.00001000     0.04494208     0.09755937     0.15916263
               0.23128650     0.31572767     0.41458969     0.53033537
               0.66584808     0.82450364     1.01025438     1.22772762
               1.48234092     1.78043706     2.12944203     2.53805004
               3.01644009     3.57652955     4.23227104     5.00000000

     Gradients computed in reciprocal space

     Adding external electric field

     Computed dipole along edir(3) :
        Dipole               -0.0000 Ry au,         -0.0000 Debye
        Dipole field         -0.0000 Ry au

        Potential amp.        0.0000 Ry
        Total length         46.0528 bohr

     Starting wfc are  126 randomized atomic wfcs

     Self-consistent Calculation

     iteration #  1     ecut=    36.75 Ry     beta=0.10
     Davidson diagonalization with overlap
     ethr =  1.00E-02,  avg # of iterations =  7.7

[...]

     total energy              =   -2194.95840710 Ry
     Harris-Foulkes estimate   =   -2195.87411259 Ry
     estimated scf accuracy    <       5.49777652 Ry

[...]

     End of self-consistent calculation

          k = 0.0000 0.0000 0.0000 ( 22293 PWs)   bands (ev):

   -48.8605 -48.8596 -48.8561 -48.8446 -48.8369 -48.8360 -48.5278 -48.5276
   -48.5269 -48.5268 -48.4422 -48.4421 -48.4309 -48.4308 -48.3755 -48.3753
   -48.3746 -48.3744 -16.2578 -16.2370 -16.1935 -16.1925 -16.1693 -16.1632
   -16.1545 -16.1470 -16.1371 -16.1263 -16.1182 -16.1135 -16.1105 -16.1042
   -16.0996 -16.0954 -16.0899 -16.0776 -16.0702 -16.0671 -16.0577 -16.0574
   -16.0149 -15.9962 -15.9912 -15.9898 -15.9810 -15.9283 -15.9272 -15.8934
    -9.3582  -8.2211  -7.1284  -6.8428  -6.6612  -6.6188  -2.3413  -2.2257
    -2.0234  -1.7944  -1.7819  -1.7380  -1.6288  -1.5152  -1.4974  -1.4827
    -1.2465  -1.2009  -1.1864  -1.1703  -1.0880  -1.0455  -0.9874  -0.7944
    -0.7928  -0.7587  -0.7020  -0.6876  -0.6655  -0.6076  -0.5751  -0.5196
    -0.5116  -0.5055  -0.3174  -0.2545  -0.2217  -0.2023  -0.1742  -0.0631
    -0.0413   0.0080   0.2448   0.9864   1.2339   1.5042   1.7344   2.9119
     2.9986   3.4806   3.7787   3.8628   3.9781   4.0085   4.5214   4.5770
     5.0572   5.3343   5.4876   5.9846   5.9903   5.9965   6.0682   6.6090
     7.0730   7.1738   7.5882   8.1020   8.2245   8.3249   8.4128   8.5496

[...]

          k =-0.0818 0.0292 0.0000 ( 22348 PWs)   bands (ev):

[...]

     the Fermi energy is     0.9884 ev

!    total energy              =   -2194.98721975 Ry
     Harris-Foulkes estimate   =   -2194.98722641 Ry
     estimated scf accuracy    <       0.00000056 Ry

     The total energy is the sum of the following terms:

     one-electron contribution =  -13494.80958766 Ry
     hartree contribution      =    6807.25125298 Ry
     xc contribution           =    -587.35815182 Ry
     ewald contribution        =    5079.96574332 Ry
     electric field correction =       0.00000000 Ry
     smearing contrib. (-TS)   =      -0.03647657 Ry

     convergence has been achieved in  14 iterations

 BEEF-vdW xc energy contributions
           1 :   -519.580920874045
           2 :    479.975130390075
           3 :   -411.156145205354
           4 :    329.623858429238
           5 :   -251.846807663034
           6 :    189.039081317305
           7 :   -144.768808818359
           8 :    115.877101546647
           9 :   -95.7784382252007
[...]

[...]

     Program PWSCF v.5.1rc2 (svn rev. 11289) starts on 19Dec2018 at  2:48: 6

[...]

     Found symmetry operation: I + ( -0.5000  0.5000  0.0000)
     This is a supercell, fractional translations are disabled

[...]

   This run was terminated on:   3: 4:20  19Dec2018

[...]

     Program PWSCF v.5.1rc2 (svn rev. 11289) starts on 19Dec2018 at  3: 4:26

[...]

     Total force =     0.042202     Total SCF correction =     0.006547
     SCF correction compared to forces is large: reduce conv_thr to get better values

[...]

     Program PWSCF v.5.1rc2 (svn rev. 11289) starts on 19Dec2018 at  3:19:46

     Current dimensions of program PWSCF are:
     Max number of different atomic species (ntypx) = 10
     Max number of k-points (npk) =  40000
     Max angular momentum in pseudopotentials (lmaxx) =  3
     Presently stress not available with electric field

     IMPORTANT: XC functional enforced from input :
     Exchange-correlation      = BEEF-VDW ( 1  4 27 13 2)
     Any further DFT definition will be discarded
     Please, verify this is what you really want

     Subspace diagonalization in iterative solution of the eigenvalue problem:
     a serial algorithm will be used

     bravais-lattice index     =            0
     lattice parameter (alat)  =       1.8897  a.u.
     unit-cell volume          =    5933.6274 (a.u.)^3
     number of atoms/cell      =           12
     number of atomic types    =            2
     number of electrons       =       180.00
     number of Kohn-Sham states=          120
     kinetic-energy cutoff     =      36.7493  Ry
     charge density cutoff     =     367.4932  Ry
     convergence threshold     =      1.0E-06
     mixing beta               =       0.1000
     number of iterations used =           10  plain     mixing
     Exchange-correlation      = BEEF-VDW ( 1  4 27 13 2)
     nstep                     =           50

     celldm(1)=   1.889726  celldm(2)=   0.000000  celldm(3)=   0.000000
     celldm(4)=   0.000000  celldm(5)=   0.000000  celldm(6)=   0.000000

     crystal axes: (cart. coord. in units of alat)
               a(1) = (   6.111471   0.000000   0.000000 )
               a(2) = (   2.053746   5.756058   0.000000 )
               a(3) = (   0.000000   0.000000  24.994979 )

     reciprocal axes: (cart. coord. in units 2 pi/alat)
               b(1) = (  0.163627 -0.058382  0.000000 )
               b(2) = (  0.000000  0.173730  0.000000 )
               b(3) = (  0.000000  0.000000  0.040008 )

     PseudoPot. # 1 for Pd read from file:
     /afs/slac.stanford.edu/u/if/mamunm/psp/gbrv1.5pbe/Pd.UPF
     MD5 check sum: 2d733d2bc2cbfd217af676df1668a4bc
     Pseudo is Ultrasoft + core correction, Zval = 16.0
     Generated by new atomic code, or converted to UPF format
     Using radial grid of  887 points,  6 beta functions with:
                l(1) =   0
                l(2) =   0
                l(3) =   1
                l(4) =   1
                l(5) =   2
                l(6) =   2
     Q(r) pseudized with  8 coefficients,  rinner =    1.130   1.130   1.130
                                                       1.130   1.130

     PseudoPot. # 2 for Pb read from file:
     /afs/slac.stanford.edu/u/if/mamunm/psp/gbrv1.5pbe/Pb.UPF
     MD5 check sum: 3d1c1779aa92214d1e8f3a7db79003e2
     Pseudo is Ultrasoft + core correction, Zval = 14.0
     Generated by new atomic code, or converted to UPF format
     Using radial grid of  899 points,  6 beta functions with:
                l(1) =   0
                l(2) =   0
                l(3) =   1
                l(4) =   1
                l(5) =   2
                l(6) =   2
     Q(r) pseudized with  6 coefficients,  rinner =    1.000   1.000   1.000
                                                       1.000   1.000

     vdW kernel table read from file vdW_kernel_table
     MD5 check sum: 095c7af220d748ca6e76c0b4c6cfb241

     atomic species   valence    mass     pseudopotential
        Pd1           16.00   106.42000     Pd( 1.00)
        Pb1           14.00   207.20000     Pb( 1.00)

     No symmetry found

   Cartesian axes

     site n.     atom                  positions (alat units)
         1           Pd1 tau(   1) = (   0.0000000   0.0000000  10.0000000  )
         2           Pd1 tau(   2) = (   4.0826082   2.8780290  10.0000000  )
         3           Pb1 tau(   3) = (   3.0557354   0.0000000  10.0000000  )
         4           Pb1 tau(   4) = (   1.0268728   2.8780290  10.0000000  )
         5           Pd1 tau(   5) = (   6.1114707   4.3082728  12.4974894  )
         6           Pd1 tau(   6) = (   2.0288625   1.4302438  12.4974894  )
         7           Pb1 tau(   7) = (   3.0557354   4.3082728  12.4974894  )
         8           Pb1 tau(   8) = (   5.0845979   1.4302438  12.4974894  )
         9           Pd1 tau(   9) = (   4.0591643   2.8615149  14.7413082  )
        10           Pd1 tau(  10) = (   8.1417503   5.7395330  14.7412968  )
        11           Pb1 tau(  11) = (   7.1189873   2.8644681  15.0889970  )
        12           Pb1 tau(  12) = (   5.0901182   5.7424346  15.0890826  )

     number of k points=    20  Fermi-Dirac smearing, width (Ry)=  0.0110
                       cart. coord. in units 2pi/alat
        k(    1) = (   0.0000000   0.0000000   0.0000000), wk =   0.0555556
        k(    2) = (   0.0000000   0.0289550   0.0000000), wk =   0.1111111
        k(    3) = (   0.0000000   0.0579100   0.0000000), wk =   0.1111111
        k(    4) = (   0.0000000  -0.0868650   0.0000000), wk =   0.0555556
        k(    5) = (   0.0272711  -0.0097303   0.0000000), wk =   0.1111111
        k(    6) = (   0.0272711   0.0192247   0.0000000), wk =   0.1111111
        k(    7) = (   0.0272711   0.0481797   0.0000000), wk =   0.1111111
        k(    8) = (   0.0272711  -0.0965953   0.0000000), wk =   0.1111111
        k(    9) = (   0.0272711  -0.0676403   0.0000000), wk =   0.1111111
        k(   10) = (   0.0272711  -0.0386853   0.0000000), wk =   0.1111111
        k(   11) = (   0.0545422  -0.0194605   0.0000000), wk =   0.1111111
        k(   12) = (   0.0545422   0.0094945   0.0000000), wk =   0.1111111
        k(   13) = (   0.0545422   0.0384495   0.0000000), wk =   0.1111111
        k(   14) = (   0.0545422  -0.1063255   0.0000000), wk =   0.1111111
        k(   15) = (   0.0545422  -0.0773705   0.0000000), wk =   0.1111111
        k(   16) = (   0.0545422  -0.0484155   0.0000000), wk =   0.1111111
        k(   17) = (  -0.0818134   0.0291908   0.0000000), wk =   0.0555556
        k(   18) = (  -0.0818134   0.0581458   0.0000000), wk =   0.1111111
        k(   19) = (  -0.0818134   0.0871008   0.0000000), wk =   0.1111111
        k(   20) = (  -0.0818134  -0.0576742   0.0000000), wk =   0.0555556

     Largest allocated arrays     est. size (Mb)     dimensions
     Largest temporary arrays     est. size (Mb)     dimensions

     Initial potential from superposition of free atoms
     Check: negative starting charge=   -0.545742

     starting charge  176.98585, renormalised to  180.00000

[...]

     *
     * You are using vdW-DF for exchange-correlation in this calculation.
     * Please cite the following three references that made this development
     * possible:
     *
     *   M. Dion, H. Rydberg, E. Schroder, D. C. Langreth, and
     *   B. I. Lundqvist, Phys. Rev. Lett. 92, 246401 (2004).
     *
     *   T. Thonhauser, V. R. Cooper, S. Li, A. Puzder, P. Hyldgaard, and
     *   D. C. Langreth, Phys. Rev. B 76, 125112 (2007).
     *
     *   G. Roman-Perez and J. M. Soler, Phys. Rev. Lett. 103, 096102 (2009).
     *
     *
     * If you are using vdW-DF2, please also cite:
     *
     *   K. Lee, E. D. Murray, L. Kong, B. I. Lundqvist, and
     *   D. C. Langreth, Phys. Rev. B 82, 081101(R) (2010).
     *
     *
     * If you are calculating the stress with vdW-DF, please also cite:
     *
     *   R. Sabatini, E. Kucukbenli, B. Kolb, T. Thonhauser, and
     *   S. de Gironcoli, J. Phys.: Condens. Matter 24, 424209 (2012).
     *

     Carrying out vdW-DF run using the following parameters:

     Nqs =      20    Nr_points =    1024   r_max =   100.000
     q_mesh =
               0.00001000     0.04494208     0.09755937     0.15916263
               0.23128650     0.31572767     0.41458969     0.53033537
               0.66584808     0.82450364     1.01025438     1.22772762
               1.48234092     1.78043706     2.12944203     2.53805004
               3.01644009     3.57652955     4.23227104     5.00000000

     Gradients computed in reciprocal space

[...]

     Starting wfc are  126 randomized atomic wfcs

     Self-consistent Calculation

[...]

     total energy              =   -2194.99865455 Ry
     Harris-Foulkes estimate   =   -2194.99863851 Ry
     estimated scf accuracy    <       0.00000136 Ry

     iteration # 16     ecut=    36.75 Ry     beta=0.10
     Davidson diagonalization with overlap
     ethr =  7.56E-10,  avg # of iterations =  4.5

[...]

     negative rho (up, down):  5.661E-01 0.000E+00

     Adding external electric field

     Computed dipole along edir(3) :
        Dipole                0.0873 Ry au,          0.2219 Debye
        Dipole field          0.0002 Ry au

        Potential amp.       -0.0170 Ry
        Total length         46.0528 bohr

     End of self-consistent calculation

[...]

          k = 0.0545-0.0484 0.0000 ( 22320 PWs)   bands (ev):

[...]

          k =-0.0818-0.0577 0.0000 ( 22342 PWs)   bands (ev):

   -48.7606 -48.7595 -48.7594 -48.7537 -48.7528 -48.7479 -48.6175 -48.6165
   -48.5834 -48.5719 -48.5599 -48.5591 -48.4523 -48.4513 -48.3625 -48.3512
   -48.3010 -48.3002 -16.2042 -16.1543 -16.1389 -16.1377 -16.1135 -16.0924
   -16.0906 -16.0871 -16.0625 -16.0572 -16.0559 -16.0557 -16.0401 -16.0329
   -16.0210 -16.0170 -16.0107 -16.0073 -16.0064 -15.9995 -15.9747 -15.9673
   -15.9643 -15.9500 -15.9352 -15.9317 -15.9289 -15.9192 -15.8663 -15.8370
    -8.1704  -7.9945  -7.6671  -7.4571  -6.5202  -5.4087  -3.6249  -3.4353
    -3.1189  -2.6845  -2.6419  -2.5204  -2.0802  -2.0517  -1.9094  -1.6947
    -1.5796  -1.5615  -1.5069  -1.4016  -1.3805  -1.3290  -1.2938  -1.2549
    -1.1516  -1.0769  -0.9680  -0.8856  -0.7196  -0.7094  -0.7015  -0.5880
    -0.4655  -0.4286  -0.3667  -0.2922  -0.1598   0.1327   0.1905   0.2886
     0.5200   1.5717   1.9054   2.1132   2.6787   2.7662   4.0175   4.1327
     4.2028   4.9312   4.9506   5.2406   5.2627   5.3477   5.8407   5.9217
     6.0926   6.1431   6.2507   6.3460   6.5590   6.5931   6.8455   6.8557
     6.9505   6.9605   7.0285   7.2504   7.3762   7.4406   7.6112   7.6301

     the Fermi energy is     1.0768 ev

!    total energy              =   -2194.99863195 Ry
     Harris-Foulkes estimate   =   -2194.99865542 Ry
     estimated scf accuracy    <       0.00000033 Ry

     The total energy is the sum of the following terms:

     one-electron contribution =  -13659.63632494 Ry
     hartree contribution      =    6889.87352552 Ry
     xc contribution           =    -587.38643355 Ry
     ewald contribution        =    5162.18768669 Ry
     electric field correction =       0.00001614 Ry
     smearing contrib. (-TS)   =      -0.03710181 Ry

     convergence has been achieved in  16 iterations

 BEEF-vdW xc energy contributions
           1 :   -519.619789122146
           2 :    480.062839825276
           3 :   -411.300700954220
           4 :    329.783514964863
           5 :   -251.957763017842
           6 :    189.057716924430
           7 :   -144.699194724271
           8 :    115.767875327110
           9 :   -95.6943459110678
          10 :    78.3037989912849
          11 :   -60.4569505304020
          12 :    42.5414376866083
          13 :   -27.0678689598549
          14 :    16.4946907388520
          15 :   -11.5758136664838
          16 :    10.9941685475366
          17 :   -12.2277977787909
          18 :    12.9475792043712
          19 :   -12.0928901046149
          20 :    10.0866109355703
          21 :   -8.20967731999656
          22 :    7.61502399752533
          23 :   -8.59405015562857
          24 :    10.4705548580497
          25 :   -12.0874532533222
          26 :    12.5182125667226
          27 :   -11.5648352609784
          28 :    9.78490473829993
          29 :   -8.09160018750867
          30 :    7.20363734963473
          31 :   -44.4258714931472
          32 :   -32.6432292494426

     Forces acting on atoms (Ry/au):

     negative rho (up, down):  5.661E-01 0.000E+00
     atom    1 type  1   force =     0.00009876    0.00006949    0.01985153
     atom    2 type  1   force =     0.00009954    0.00006978    0.01985093
     atom    3 type  2   force =    -0.00039629   -0.00027921   -0.00871989
     atom    4 type  2   force =    -0.00039394   -0.00027810   -0.00872950
     atom    5 type  1   force =    -0.00015561   -0.00010791    0.00589428
     atom    6 type  1   force =    -0.00015434   -0.00011029    0.00589652
     atom    7 type  2   force =     0.00029330    0.00020647   -0.01629822
     atom    8 type  2   force =     0.00028814    0.00020270   -0.01630351
     atom    9 type  1   force =     0.00014406    0.00010030    0.00049362
     atom   10 type  1   force =     0.00014523    0.00010296    0.00049463
     atom   11 type  2   force =     0.00001737    0.00000928   -0.00121679
     atom   12 type  2   force =     0.00001377    0.00001455   -0.00121359

     Total force =     0.039315     Total SCF correction =     0.003505

     entering subroutine stress ...

     negative rho (up, down):  5.661E-01 0.000E+00
          total   stress  (Ry/bohr**3)                   (kbar)     P=  -10.58
  -0.00010540  -0.00002391   0.00000061        -15.50     -3.52      0.09
  -0.00002391  -0.00008834   0.00000043         -3.52    -12.99      0.06
   0.00000061   0.00000043  -0.00002198          0.09      0.06     -3.23

 !ASE

     Writing output data file calc.save

     General routines

     Parallel routines

   This run was terminated on:   3:35:57  19Dec2018

   JOB DONE.
Job  /afs/slac/g/suncat/bin/suncat-tsmpirun -x LD_LIBRARY_PATH -wdir /scratch/qe530423_qReWz pw.x -in pw.inp

TID   HOST_NAME   COMMAND_LINE            STATUS            TERMINATION_TIME
00000 suncat2026 pw.x -in pw.inp   Done                     12/19/2018 03:35:57
00001 suncat2026 pw.x -in pw.inp   Done                     12/19/2018 03:35:57
00002 suncat2026 pw.x -in pw.inp   Done                     12/19/2018 03:35:57
00003 suncat2026 pw.x -in pw.inp   Done                     12/19/2018 03:35:57
00004 suncat2026 pw.x -in pw.inp   Done                     12/19/2018 03:35:57
00005 suncat2026 pw.x -in pw.inp   Done                     12/19/2018 03:35:57
00006 suncat2026 pw.x -in pw.inp   Done                     12/19/2018 03:35:57
00007 suncat2026 pw.x -in pw.inp   Done                     12/19/2018 03:35:57
00008 suncat2026 pw.x -in pw.inp   Done                     12/19/2018 03:35:57
00009 suncat2026 pw.x -in pw.inp   Done                     12/19/2018 03:35:57
00010 suncat2026 pw.x -in pw.inp   Done                     12/19/2018 03:35:57
00011 suncat2026 pw.x -in pw.inp   Done                     12/19/2018 03:35:57
00012 suncat2026 pw.x -in pw.inp   Done                     12/19/2018 03:35:57
00013 suncat2026 pw.x -in pw.inp   Done                     12/19/2018 03:35:57
00014 suncat2026 pw.x -in pw.inp   Done                     12/19/2018 03:35:57
00015 suncat2026 pw.x -in pw.inp   Done                     12/19/2018 03:35:57
00016 suncat2025 pw.x -in pw.inp   Done                     12/19/2018 03:35:57
00017 suncat2025 pw.x -in pw.inp   Done                     12/19/2018 03:35:57
00018 suncat2025 pw.x -in pw.inp   Done                     12/19/2018 03:35:57
00019 suncat2025 pw.x -in pw.inp   Done                     12/19/2018 03:35:57
00020 suncat2025 pw.x -in pw.inp   Done                     12/19/2018 03:35:57
00021 suncat2025 pw.x -in pw.inp   Done                     12/19/2018 03:35:57
00022 suncat2025 pw.x -in pw.inp   Done                     12/19/2018 03:35:57
00023 suncat2025 pw.x -in pw.inp   Done                     12/19/2018 03:35:57
00024 suncat2025 pw.x -in pw.inp   Done                     12/19/2018 03:35:57
00025 suncat2025 pw.x -in pw.inp   Done                     12/19/2018 03:35:57
00026 suncat2025 pw.x -in pw.inp   Done                     12/19/2018 03:35:57
00027 suncat2025 pw.x -in pw.inp   Done                     12/19/2018 03:35:57
00028 suncat2025 pw.x -in pw.inp   Done                     12/19/2018 03:35:57
00029 suncat2025 pw.x -in pw.inp   Done                     12/19/2018 03:35:57
00030 suncat2025 pw.x -in pw.inp   Done                     12/19/2018 03:35:57
00031 suncat2025 pw.x -in pw.inp   Done                     12/19/2018 03:35:57