     Program PWSCF v.5.1rc2 (svn rev. 11289) starts on 18Dec2018 at 18: 0:13

     Current dimensions of program PWSCF are:
     Max number of different atomic species (ntypx) = 10
     Max number of k-points (npk) =  40000
     Max angular momentum in pseudopotentials (lmaxx) =  3
     Presently stress not available with electric field

     IMPORTANT: XC functional enforced from input :
     Exchange-correlation      = BEEF-VDW ( 1  4 27 13 2)
     Any further DFT definition will be discarded
     Please, verify this is what you really want

     Subspace diagonalization in iterative solution of the eigenvalue problem:
     a serial algorithm will be used

     Found symmetry operation: I + ( -0.5000  0.0000  0.0000)
     This is a supercell, fractional translations are disabled

     bravais-lattice index     =            0
     lattice parameter (alat)  =       1.8897  a.u.
     unit-cell volume          =    4758.6874 (a.u.)^3
     number of atoms/cell      =           12
     number of atomic types    =            2
     number of electrons       =       150.00
     number of Kohn-Sham states=          105
     kinetic-energy cutoff     =      36.7493  Ry
     charge density cutoff     =     367.4932  Ry
     convergence threshold     =      1.0E-06
     mixing beta               =       0.1000
     number of iterations used =           10  plain     mixing
     Exchange-correlation      = BEEF-VDW ( 1  4 27 13 2)
     nstep                     =           50

     celldm(1)=   1.889726  celldm(2)=   0.000000  celldm(3)=   0.000000
     celldm(4)=   0.000000  celldm(5)=   0.000000  celldm(6)=   0.000000

     crystal axes: (cart. coord. in units of alat)
               a(1) = (   5.501324   0.000000   0.000000 )
               a(2) = (  -2.750662   5.196375   0.000000 )
               a(3) = (   0.000000   0.000000  24.667369 )

     reciprocal axes: (cart. coord. in units 2 pi/alat)
               b(1) = (  0.181774  0.096221  0.000000 )
               b(2) = (  0.000000  0.192442  0.000000 )
               b(3) = (  0.000000  0.000000  0.040539 )

     PseudoPot. # 1 for Mo read from file:
     /afs/slac.stanford.edu/u/if/mamunm/psp/gbrv1.5pbe/Mo.UPF
     MD5 check sum: 30c4dcd161f5d35cd49bb5239c51a633
     Pseudo is Ultrasoft + core correction, Zval = 14.0
     Generated by new atomic code, or converted to UPF format
     Using radial grid of  889 points,  6 beta functions with:
                l(1) =   0
                l(2) =   0
                l(3) =   1
                l(4) =   1
                l(5) =   2
                l(6) =   2
     Q(r) pseudized with  6 coefficients,  rinner =    1.000   1.000   1.000
                                                       1.000   1.000

     PseudoPot. # 2 for Au read from file:
     /afs/slac.stanford.edu/u/if/mamunm/psp/gbrv1.5pbe/Au.UPF
     MD5 check sum: 9d7f43293ad2c663164586bc4b293ffc
     Pseudo is Ultrasoft + core correction, Zval = 11.0
     Generated by new atomic code, or converted to UPF format
     Using radial grid of  985 points,  7 beta functions with:
                l(1) =   0
                l(2) =   0
                l(3) =   1
                l(4) =   1
                l(5) =   2
                l(6) =   2
                l(7) =   3
     Q(r) pseudized with  6 coefficients,  rinner =    1.900   1.900   1.900
                                                       1.900   1.900   1.900
                                                       1.900

     vdW kernel table read from file vdW_kernel_table
     MD5 check sum: 095c7af220d748ca6e76c0b4c6cfb241

     atomic species   valence    mass     pseudopotential
        Mo1           14.00    95.95000     Mo( 1.00)
        Au1           11.00   196.96657     Au( 1.00)

     No symmetry found

   Cartesian axes

     site n.     atom                  positions (alat units)
         1           Mo1 tau(   1) = (   0.0000000   0.0000000  10.0000000  )
         2           Mo1 tau(   2) = (   2.7506622   0.0000000  10.0000000  )
         3           Au1 tau(   3) = (   1.3753311   2.5981875  10.0000000  )
         4           Au1 tau(   4) = (  -1.3753311   2.5981875  10.0000000  )
         5           Mo1 tau(   5) = (   2.7506622   1.4560424  12.3336844  )
         6           Mo1 tau(   6) = (  -0.0000000   1.4560424  12.3336844  )
         7           Au1 tau(   7) = (  -1.3753311   4.0542300  12.3336844  )
         8           Au1 tau(   8) = (   1.3753311   4.0542300  12.3336844  )
         9           Mo1 tau(   9) = (  -0.0000000   2.9120848  14.6673689  )
        10           Mo1 tau(  10) = (   2.7506622   2.9120848  14.6673689  )
        11           Au1 tau(  11) = (   4.1259933   0.3138973  14.6673689  )
        12           Au1 tau(  12) = (   1.3753311   0.3138973  14.6673689  )

     number of k points=    20  Fermi-Dirac smearing, width (Ry)=  0.0110
                       cart. coord. in units 2pi/alat
        k(    1) = (   0.0000000   0.0000000   0.0000000), wk =   0.0555556
        k(    2) = (   0.0000000   0.0320736   0.0000000), wk =   0.1111111
        k(    3) = (   0.0000000   0.0641473   0.0000000), wk =   0.1111111
        k(    4) = (   0.0000000  -0.0962209   0.0000000), wk =   0.0555556
        k(    5) = (   0.0302957   0.0160368   0.0000000), wk =   0.1111111
        k(    6) = (   0.0302957   0.0481105   0.0000000), wk =   0.1111111
        k(    7) = (   0.0302957   0.0801841   0.0000000), wk =   0.1111111
        k(    8) = (   0.0302957  -0.0801841   0.0000000), wk =   0.1111111
        k(    9) = (   0.0302957  -0.0481105   0.0000000), wk =   0.1111111
        k(   10) = (   0.0302957  -0.0160368   0.0000000), wk =   0.1111111
        k(   11) = (   0.0605915   0.0320736   0.0000000), wk =   0.1111111
        k(   12) = (   0.0605915   0.0641473   0.0000000), wk =   0.1111111
        k(   13) = (   0.0605915   0.0962209   0.0000000), wk =   0.1111111
        k(   14) = (   0.0605915  -0.0641473   0.0000000), wk =   0.1111111
        k(   15) = (   0.0605915  -0.0320736   0.0000000), wk =   0.1111111
        k(   16) = (   0.0605915   0.0000000   0.0000000), wk =   0.1111111
        k(   17) = (  -0.0908872  -0.0481105   0.0000000), wk =   0.0555556
        k(   18) = (  -0.0908872  -0.0160368   0.0000000), wk =   0.1111111
        k(   19) = (  -0.0908872   0.0160368   0.0000000), wk =   0.1111111
        k(   20) = (  -0.0908872  -0.1443314   0.0000000), wk =   0.0555556

     Largest allocated arrays     est. size (Mb)     dimensions
     Largest temporary arrays     est. size (Mb)     dimensions

     Check: negative/imaginary core charge=   -0.000002    0.000000

     Initial potential from superposition of free atoms
     Check: negative starting charge=   -0.003632

     starting charge  149.99289, renormalised to  150.00000

     negative rho (up, down):  3.633E-03 0.000E+00

     *
     * You are using vdW-DF for exchange-correlation in this calculation.
     * Please cite the following three references that made this development
     * possible:
     *
     *   M. Dion, H. Rydberg, E. Schroder, D. C. Langreth, and
     *   B. I. Lundqvist, Phys. Rev. Lett. 92, 246401 (2004).
     *
     *   T. Thonhauser, V. R. Cooper, S. Li, A. Puzder, P. Hyldgaard, and
     *   D. C. Langreth, Phys. Rev. B 76, 125112 (2007).
     *
     *   G. Roman-Perez and J. M. Soler, Phys. Rev. Lett. 103, 096102 (2009).
     *
     *
     * If you are using vdW-DF2, please also cite:
     *
     *   K. Lee, E. D. Murray, L. Kong, B. I. Lundqvist, and
     *   D. C. Langreth, Phys. Rev. B 82, 081101(R) (2010).
     *
     *
     * If you are calculating the stress with vdW-DF, please also cite:
     *
     *   R. Sabatini, E. Kucukbenli, B. Kolb, T. Thonhauser, and
     *   S. de Gironcoli, J. Phys.: Condens. Matter 24, 424209 (2012).
     *

     Carrying out vdW-DF run using the following parameters:

     Nqs =      20    Nr_points =    1024   r_max =   100.000
     q_mesh =
               0.00001000     0.04494208     0.09755937     0.15916263
               0.23128650     0.31572767     0.41458969     0.53033537
               0.66584808     0.82450364     1.01025438     1.22772762
               1.48234092     1.78043706     2.12944203     2.53805004
               3.01644009     3.57652955     4.23227104     5.00000000

     Gradients computed in reciprocal space

     Adding external electric field

     Computed dipole along edir(3) :
        Dipole               -0.0000 Ry au,         -0.0000 Debye
        Dipole field         -0.0000 Ry au

        Potential amp.        0.0000 Ry
        Total length         45.4492 bohr

     Starting wfc are  132 randomized atomic wfcs

     Self-consistent Calculation

     iteration #  1     ecut=    36.75 Ry     beta=0.10
     Davidson diagonalization with overlap
     ethr =  1.00E-02,  avg # of iterations =  5.2

[...]

     total energy              =   -1539.02842363 Ry
     Harris-Foulkes estimate   =   -1540.50980394 Ry
     estimated scf accuracy    <       8.27875164 Ry

[...]

     End of self-consistent calculation

          k = 0.0000 0.0000 0.0000 ( 17869 PWs)   bands (ev):

   -60.0257 -59.9268 -59.8316 -59.8251 -59.7341 -59.7279 -34.3919 -34.2578
   -34.1506 -34.1321 -34.1249 -34.1046 -34.0073 -33.9348 -33.9144 -33.8585
   -33.8395 -33.8195 -33.7641 -33.6307 -33.5490 -33.5487 -33.2987 -33.2956
    -6.7808  -5.4381  -5.3670  -5.2194  -4.9716  -4.9356  -4.8002  -4.7235
    -4.6198  -4.4569  -4.4517  -4.3929  -4.1619  -4.1489  -3.7459  -3.7370
    -3.5693  -3.4266  -3.2586  -2.9859  -2.8379  -2.8230  -2.5535  -2.5198
    -2.4063  -2.2820  -2.2218  -1.9564  -1.9382  -1.5848  -1.2861  -1.2287
    -0.9755  -0.8689  -0.6181  -0.6127  -0.2988  -0.1373  -0.1203   0.0300
     0.1111   0.4315   0.6029   0.9489   1.0006   1.2285   1.2472   1.2486
     1.5247   1.7129   1.9235   1.9599   2.2846   2.5376   2.6086   2.6317
     2.7658   2.9606   3.1548   3.1794   3.2764   3.4594   3.4682   3.5690
     3.5807   3.6462   4.0572   4.3254   4.3729   4.5679   4.6662   5.2873
     5.5097   5.5964   5.7716   6.1045   6.5245   6.7535   6.8451   6.9993
     7.2496

[...]

          k =-0.0909-0.0481 0.0000 ( 17952 PWs)   bands (ev):

[...]

     the Fermi energy is     1.4590 ev

!    total energy              =   -1539.66591486 Ry
     Harris-Foulkes estimate   =   -1539.66591461 Ry
     estimated scf accuracy    <       0.00000025 Ry

     The total energy is the sum of the following terms:

     one-electron contribution =  -11428.02165404 Ry
     hartree contribution      =    5756.64187989 Ry
     xc contribution           =    -503.70270585 Ry
     ewald contribution        =    4635.49791628 Ry
     electric field correction =       0.00000001 Ry
     smearing contrib. (-TS)   =      -0.08135114 Ry

     convergence has been achieved in  19 iterations

 BEEF-vdW xc energy contributions
           1 :   -446.208273207059
           2 :    413.427952663495
           3 :   -355.266955760501
           4 :    283.828253921519
           5 :   -212.058812565548
           6 :    150.192849349503
           7 :   -103.680353099052
           8 :    72.9708990453769
           9 :   -54.8686041772062
[...]

[...]

   This run was terminated on:  18:10:28  18Dec2018

[...]

     Program PWSCF v.5.1rc2 (svn rev. 11289) starts on 18Dec2018 at 18:10:33

[...]

     Found symmetry operation: I + ( -0.5000  0.0000  0.0000)
     This is a supercell, fractional translations are disabled

[...]

     iteration #  7     ecut=    36.75 Ry     beta=0.10
     Davidson diagonalization with overlap
     c_bands:  1 eigenvalues not converged
     ethr =  1.57E-05,  avg # of iterations =  5.8

[...]

     Program PWSCF v.5.1rc2 (svn rev. 11289) starts on 18Dec2018 at 18:30:45

     Current dimensions of program PWSCF are:
     Max number of different atomic species (ntypx) = 10
     Max number of k-points (npk) =  40000
     Max angular momentum in pseudopotentials (lmaxx) =  3
     Presently stress not available with electric field

     IMPORTANT: XC functional enforced from input :
     Exchange-correlation      = BEEF-VDW ( 1  4 27 13 2)
     Any further DFT definition will be discarded
     Please, verify this is what you really want

     Subspace diagonalization in iterative solution of the eigenvalue problem:
     a serial algorithm will be used

     bravais-lattice index     =            0
     lattice parameter (alat)  =       1.8897  a.u.
     unit-cell volume          =    4758.6874 (a.u.)^3
     number of atoms/cell      =           12
     number of atomic types    =            2
     number of electrons       =       150.00
     number of Kohn-Sham states=          105
     kinetic-energy cutoff     =      36.7493  Ry
     charge density cutoff     =     367.4932  Ry
     convergence threshold     =      1.0E-06
     mixing beta               =       0.1000
     number of iterations used =           10  plain     mixing
     Exchange-correlation      = BEEF-VDW ( 1  4 27 13 2)
     nstep                     =           50

     celldm(1)=   1.889726  celldm(2)=   0.000000  celldm(3)=   0.000000
     celldm(4)=   0.000000  celldm(5)=   0.000000  celldm(6)=   0.000000

     crystal axes: (cart. coord. in units of alat)
               a(1) = (   5.501324   0.000000   0.000000 )
               a(2) = (  -2.750662   5.196375   0.000000 )
               a(3) = (   0.000000   0.000000  24.667369 )

     reciprocal axes: (cart. coord. in units 2 pi/alat)
               b(1) = (  0.181774  0.096221  0.000000 )
               b(2) = (  0.000000  0.192442  0.000000 )
               b(3) = (  0.000000  0.000000  0.040539 )

     PseudoPot. # 1 for Mo read from file:
     /afs/slac.stanford.edu/u/if/mamunm/psp/gbrv1.5pbe/Mo.UPF
     MD5 check sum: 30c4dcd161f5d35cd49bb5239c51a633
     Pseudo is Ultrasoft + core correction, Zval = 14.0
     Generated by new atomic code, or converted to UPF format
     Using radial grid of  889 points,  6 beta functions with:
                l(1) =   0
                l(2) =   0
                l(3) =   1
                l(4) =   1
                l(5) =   2
                l(6) =   2
     Q(r) pseudized with  6 coefficients,  rinner =    1.000   1.000   1.000
                                                       1.000   1.000

     PseudoPot. # 2 for Au read from file:
     /afs/slac.stanford.edu/u/if/mamunm/psp/gbrv1.5pbe/Au.UPF
     MD5 check sum: 9d7f43293ad2c663164586bc4b293ffc
     Pseudo is Ultrasoft + core correction, Zval = 11.0
     Generated by new atomic code, or converted to UPF format
     Using radial grid of  985 points,  7 beta functions with:
                l(1) =   0
                l(2) =   0
                l(3) =   1
                l(4) =   1
                l(5) =   2
                l(6) =   2
                l(7) =   3
     Q(r) pseudized with  6 coefficients,  rinner =    1.900   1.900   1.900
                                                       1.900   1.900   1.900
                                                       1.900

     vdW kernel table read from file vdW_kernel_table
     MD5 check sum: 095c7af220d748ca6e76c0b4c6cfb241

     atomic species   valence    mass     pseudopotential
        Mo1           14.00    95.95000     Mo( 1.00)
        Au1           11.00   196.96657     Au( 1.00)

     No symmetry found

   Cartesian axes

     site n.     atom                  positions (alat units)
         1           Mo1 tau(   1) = (   0.0000000   0.0000000  10.0000000  )
         2           Mo1 tau(   2) = (   2.7506622   0.0000000  10.0000000  )
         3           Au1 tau(   3) = (   1.3753311   2.5981875  10.0000000  )
         4           Au1 tau(   4) = (  -1.3753311   2.5981875  10.0000000  )
         5           Mo1 tau(   5) = (   2.7506622   1.4560424  12.3336844  )
         6           Mo1 tau(   6) = (  -0.0000000   1.4560424  12.3336844  )
         7           Au1 tau(   7) = (  -1.3753311   4.0542300  12.3336844  )
         8           Au1 tau(   8) = (   1.3753311   4.0542300  12.3336844  )
         9           Mo1 tau(   9) = (  -0.0002056   2.8186332  14.5086839  )
        10           Mo1 tau(  10) = (   2.7504608   2.8185228  14.5085563  )
        11           Au1 tau(  11) = (   4.1254689   0.3018348  14.8250216  )
        12           Au1 tau(  12) = (   1.3764586   0.3018313  14.8249933  )

     number of k points=    20  Fermi-Dirac smearing, width (Ry)=  0.0110
                       cart. coord. in units 2pi/alat
        k(    1) = (   0.0000000   0.0000000   0.0000000), wk =   0.0555556
        k(    2) = (   0.0000000   0.0320736   0.0000000), wk =   0.1111111
        k(    3) = (   0.0000000   0.0641473   0.0000000), wk =   0.1111111
        k(    4) = (   0.0000000  -0.0962209   0.0000000), wk =   0.0555556
        k(    5) = (   0.0302957   0.0160368   0.0000000), wk =   0.1111111
        k(    6) = (   0.0302957   0.0481105   0.0000000), wk =   0.1111111
        k(    7) = (   0.0302957   0.0801841   0.0000000), wk =   0.1111111
        k(    8) = (   0.0302957  -0.0801841   0.0000000), wk =   0.1111111
        k(    9) = (   0.0302957  -0.0481105   0.0000000), wk =   0.1111111
        k(   10) = (   0.0302957  -0.0160368   0.0000000), wk =   0.1111111
        k(   11) = (   0.0605915   0.0320736   0.0000000), wk =   0.1111111
        k(   12) = (   0.0605915   0.0641473   0.0000000), wk =   0.1111111
        k(   13) = (   0.0605915   0.0962209   0.0000000), wk =   0.1111111
        k(   14) = (   0.0605915  -0.0641473   0.0000000), wk =   0.1111111
        k(   15) = (   0.0605915  -0.0320736   0.0000000), wk =   0.1111111
        k(   16) = (   0.0605915   0.0000000   0.0000000), wk =   0.1111111
        k(   17) = (  -0.0908872  -0.0481105   0.0000000), wk =   0.0555556
        k(   18) = (  -0.0908872  -0.0160368   0.0000000), wk =   0.1111111
        k(   19) = (  -0.0908872   0.0160368   0.0000000), wk =   0.1111111
        k(   20) = (  -0.0908872  -0.1443314   0.0000000), wk =   0.0555556

     Largest allocated arrays     est. size (Mb)     dimensions
     Largest temporary arrays     est. size (Mb)     dimensions

     Check: negative/imaginary core charge=   -0.000002    0.000000

     Initial potential from superposition of free atoms
     Check: negative starting charge=   -0.003636

     starting charge  149.99289, renormalised to  150.00000

[...]

     *
     * You are using vdW-DF for exchange-correlation in this calculation.
     * Please cite the following three references that made this development
     * possible:
     *
     *   M. Dion, H. Rydberg, E. Schroder, D. C. Langreth, and
     *   B. I. Lundqvist, Phys. Rev. Lett. 92, 246401 (2004).
     *
     *   T. Thonhauser, V. R. Cooper, S. Li, A. Puzder, P. Hyldgaard, and
     *   D. C. Langreth, Phys. Rev. B 76, 125112 (2007).
     *
     *   G. Roman-Perez and J. M. Soler, Phys. Rev. Lett. 103, 096102 (2009).
     *
     *
     * If you are using vdW-DF2, please also cite:
     *
     *   K. Lee, E. D. Murray, L. Kong, B. I. Lundqvist, and
     *   D. C. Langreth, Phys. Rev. B 82, 081101(R) (2010).
     *
     *
     * If you are calculating the stress with vdW-DF, please also cite:
     *
     *   R. Sabatini, E. Kucukbenli, B. Kolb, T. Thonhauser, and
     *   S. de Gironcoli, J. Phys.: Condens. Matter 24, 424209 (2012).
     *

     Carrying out vdW-DF run using the following parameters:

     Nqs =      20    Nr_points =    1024   r_max =   100.000
     q_mesh =
               0.00001000     0.04494208     0.09755937     0.15916263
               0.23128650     0.31572767     0.41458969     0.53033537
               0.66584808     0.82450364     1.01025438     1.22772762
               1.48234092     1.78043706     2.12944203     2.53805004
               3.01644009     3.57652955     4.23227104     5.00000000

     Gradients computed in reciprocal space

[...]

     Starting wfc are  132 randomized atomic wfcs

     Self-consistent Calculation

[...]

     total energy              =   -1539.68547605 Ry
     Harris-Foulkes estimate   =   -1539.68547583 Ry
     estimated scf accuracy    <       0.00000274 Ry

     iteration # 17     ecut=    36.75 Ry     beta=0.10
     Davidson diagonalization with overlap
     ethr =  1.83E-09,  avg # of iterations =  1.9

[...]

     negative rho (up, down):  3.546E-03 0.000E+00

     Adding external electric field

     Computed dipole along edir(3) :
        Dipole               -0.0568 Ry au,         -0.1443 Debye
        Dipole field         -0.0001 Ry au

        Potential amp.        0.0136 Ry
        Total length         45.4492 bohr

     End of self-consistent calculation

[...]

          k = 0.0606 0.0000 0.0000 ( 17910 PWs)   bands (ev):

[...]

          k =-0.0909-0.1443 0.0000 ( 17952 PWs)   bands (ev):

   -60.0546 -60.0545 -59.8761 -59.8761 -59.8225 -59.8224 -34.4310 -34.4308
   -34.1336 -34.1335 -34.0621 -34.0621 -33.9734 -33.9734 -33.9172 -33.9172
   -33.9011 -33.9011 -33.8164 -33.8164 -33.7939 -33.7939 -33.5459 -33.5457
    -5.1950  -5.1945  -4.4345  -4.4341  -4.2551  -4.2548  -4.1890  -4.1887
    -3.9541  -3.9540  -3.8495  -3.8485  -3.7818  -3.7814  -3.4918  -3.4902
    -3.2543  -3.2540  -3.1302  -3.1280  -2.9732  -2.9729  -2.9331  -2.9302
    -2.7879  -2.7824  -2.7233  -2.7221  -2.4750  -2.4724  -2.3740  -2.3717
    -2.2272  -2.2258  -1.0268  -1.0267  -0.6292  -0.6290  -0.4617  -0.4612
     0.0454   0.0458   0.3987   0.3989   0.8390   0.8392   0.9135   0.9136
     1.1168   1.1173   1.2080   1.2088   1.2787   1.2791   1.4533   1.4536
     1.5996   1.5998   2.5050   2.5052   2.7710   2.7713   2.9398   2.9402
     3.5925   3.5930   4.0997   4.0998   4.6826   4.6831   5.6695   5.6704
     6.2655   6.2655   7.0342   7.0343   7.6094   7.6095   7.6638   7.6639
     8.5768

     the Fermi energy is     1.3737 ev

!    total energy              =   -1539.68547652 Ry
     Harris-Foulkes estimate   =   -1539.68547666 Ry
     estimated scf accuracy    <       0.00000092 Ry

     The total energy is the sum of the following terms:

     one-electron contribution =  -11455.61129976 Ry
     hartree contribution      =    5770.14100767 Ry
     xc contribution           =    -503.78836817 Ry
     ewald contribution        =    4649.65371096 Ry
     electric field correction =       0.00000851 Ry
     smearing contrib. (-TS)   =      -0.08053573 Ry

     convergence has been achieved in  17 iterations

 BEEF-vdW xc energy contributions
           1 :   -446.287113508615
           2 :    413.495501501587
           3 :   -355.321108123564
           4 :    283.872632644295
           5 :   -212.093912135704
           6 :    150.211768969870
           7 :   -103.669601933726
           8 :    72.9152587589816
           9 :   -54.7596934081553
          10 :    44.4933242106437
          11 :   -37.8672838852218
          12 :    32.2574951614935
          13 :   -26.8222965438817
          14 :    21.8864060859270
          15 :   -18.0524542274796
          16 :    15.5086344221841
          17 :   -13.8109173797091
          18 :    12.1245546792809
          19 :   -9.70584208039122
          20 :    6.31684001275244
          21 :   -2.35831895690751
          22 :   -1.33089303641657
          23 :    3.87856611230939
          24 :   -4.78082025186546
          25 :    4.11372102307996
          26 :   -2.48336712307668
          27 :   0.760383504485503
          28 :   0.263709461286226
          29 :  -0.151992981208878
          30 :   -1.07356295671366
          31 :   -38.8222558209460
          32 :   -28.7889949748453

     Forces acting on atoms (Ry/au):

     negative rho (up, down):  3.546E-03 0.000E+00
     atom    1 type  1   force =     0.00000004    0.00962515    0.02657832
     atom    2 type  1   force =    -0.00000034    0.00961913    0.02655911
     atom    3 type  2   force =     0.00000717   -0.02007932   -0.03082858
     atom    4 type  2   force =    -0.00000120   -0.02007855   -0.03082506
     atom    5 type  1   force =     0.00004358   -0.00910135    0.00270630
     atom    6 type  1   force =     0.00004323   -0.00911786    0.00276133
     atom    7 type  2   force =    -0.00003838    0.01968880    0.00257897
     atom    8 type  2   force =    -0.00001255    0.01968887    0.00258012
     atom    9 type  1   force =     0.00002987   -0.00025565   -0.00053436
     atom   10 type  1   force =     0.00003092   -0.00016528   -0.00049244
     atom   11 type  2   force =     0.00056379    0.00008666   -0.00054343
     atom   12 type  2   force =    -0.00066612    0.00008940   -0.00054028

     Total force =     0.072632     Total SCF correction =     0.002343

     entering subroutine stress ...

     negative rho (up, down):  3.546E-03 0.000E+00
          total   stress  (Ry/bohr**3)                   (kbar)     P=  -15.01
  -0.00015203   0.00000001  -0.00000001        -22.36      0.00     -0.00
   0.00000001  -0.00016170   0.00001867          0.00    -23.79      2.75
  -0.00000001   0.00001867   0.00000768         -0.00      2.75      1.13

 !ASE

     Writing output data file calc.save

     General routines

     Parallel routines

   This run was terminated on:  18:35:30  18Dec2018

   JOB DONE.
Job  /afs/slac/g/suncat/bin/suncat-tsmpirun -x LD_LIBRARY_PATH -wdir /scratch/qe530250_B1ht4 pw.x -in pw.inp

TID   HOST_NAME   COMMAND_LINE            STATUS            TERMINATION_TIME
00000 suncat2063 pw.x -in pw.inp   Done                     12/18/2018 18:35:30
00001 suncat2063 pw.x -in pw.inp   Done                     12/18/2018 18:35:30
00002 suncat2063 pw.x -in pw.inp   Done                     12/18/2018 18:35:30
00003 suncat2063 pw.x -in pw.inp   Done                     12/18/2018 18:35:30
00004 suncat2063 pw.x -in pw.inp   Done                     12/18/2018 18:35:30
00005 suncat2063 pw.x -in pw.inp   Done                     12/18/2018 18:35:30
00006 suncat2063 pw.x -in pw.inp   Done                     12/18/2018 18:35:30
00007 suncat2063 pw.x -in pw.inp   Done                     12/18/2018 18:35:30
00008 suncat2063 pw.x -in pw.inp   Done                     12/18/2018 18:35:30
00009 suncat2063 pw.x -in pw.inp   Done                     12/18/2018 18:35:30
00010 suncat2063 pw.x -in pw.inp   Done                     12/18/2018 18:35:30
00011 suncat2063 pw.x -in pw.inp   Done                     12/18/2018 18:35:30
00012 suncat2063 pw.x -in pw.inp   Done                     12/18/2018 18:35:30
00013 suncat2063 pw.x -in pw.inp   Done                     12/18/2018 18:35:30
00014 suncat2063 pw.x -in pw.inp   Done                     12/18/2018 18:35:30
00015 suncat2063 pw.x -in pw.inp   Done                     12/18/2018 18:35:30
00016 suncat2042 pw.x -in pw.inp   Done                     12/18/2018 18:35:30
00017 suncat2042 pw.x -in pw.inp   Done                     12/18/2018 18:35:30
00018 suncat2042 pw.x -in pw.inp   Done                     12/18/2018 18:35:30
00019 suncat2042 pw.x -in pw.inp   Done                     12/18/2018 18:35:30
00020 suncat2042 pw.x -in pw.inp   Done                     12/18/2018 18:35:30
00021 suncat2042 pw.x -in pw.inp   Done                     12/18/2018 18:35:30
00022 suncat2042 pw.x -in pw.inp   Done                     12/18/2018 18:35:30
00023 suncat2042 pw.x -in pw.inp   Done                     12/18/2018 18:35:30
00024 suncat2042 pw.x -in pw.inp   Done                     12/18/2018 18:35:30
00025 suncat2042 pw.x -in pw.inp   Done                     12/18/2018 18:35:30
00026 suncat2042 pw.x -in pw.inp   Done                     12/18/2018 18:35:30
00027 suncat2042 pw.x -in pw.inp   Done                     12/18/2018 18:35:30
00028 suncat2042 pw.x -in pw.inp   Done                     12/18/2018 18:35:30
00029 suncat2042 pw.x -in pw.inp   Done                     12/18/2018 18:35:30
00030 suncat2042 pw.x -in pw.inp   Done                     12/18/2018 18:35:30
00031 suncat2042 pw.x -in pw.inp   Done                     12/18/2018 18:35:30