     Program PWSCF v.5.1rc2 (svn rev. 11289) starts on 24Dec2018 at 15:16:44

     Current dimensions of program PWSCF are:
     Max number of different atomic species (ntypx) = 10
     Max number of k-points (npk) =  40000
     Max angular momentum in pseudopotentials (lmaxx) =  3
     Presently stress not available with electric field

     IMPORTANT: XC functional enforced from input :
     Exchange-correlation      = BEEF-VDW ( 1  4 27 13 2)
     Any further DFT definition will be discarded
     Please, verify this is what you really want

     Subspace diagonalization in iterative solution of the eigenvalue problem:
     a serial algorithm will be used

     Found symmetry operation: I + (  0.5000 -0.5000  0.0000)
     This is a supercell, fractional translations are disabled

     Generating pointlists ...
     new r_m :   0.4125 (alat units)  0.7795 (a.u.) for type    1
     new r_m :   0.4125 (alat units)  0.7795 (a.u.) for type    2

     bravais-lattice index     =            0
     lattice parameter (alat)  =       1.8897  a.u.
     unit-cell volume          =    4803.9564 (a.u.)^3
     number of atoms/cell      =           12
     number of atomic types    =            2
     number of electrons       =       180.00
     number of Kohn-Sham states=          120
     kinetic-energy cutoff     =      36.7493  Ry
     charge density cutoff     =     367.4932  Ry
     convergence threshold     =      1.0E-06
     mixing beta               =       0.1000
     number of iterations used =           10  plain     mixing
     Exchange-correlation      = BEEF-VDW ( 1  4 27 13 2)
     nstep                     =           50

     celldm(1)=   1.889726  celldm(2)=   0.000000  celldm(3)=   0.000000
     celldm(4)=   0.000000  celldm(5)=   0.000000  celldm(6)=   0.000000

     crystal axes: (cart. coord. in units of alat)
               a(1) = (   5.541021   0.000000   0.000000 )
               a(2) = (   1.794880   5.242263   0.000000 )
               a(3) = (   0.000000   0.000000  24.507211 )

     reciprocal axes: (cart. coord. in units 2 pi/alat)
               b(1) = (  0.180472 -0.061791  0.000000 )
               b(2) = (  0.000000  0.190757  0.000000 )
               b(3) = (  0.000000  0.000000  0.040804 )

     PseudoPot. # 1 for Fe read from file:
     /afs/slac.stanford.edu/u/if/mamunm/psp/gbrv1.5pbe/Fe.UPF
     MD5 check sum: a130daea23fe5165f5d574ae7f82ed95
     Pseudo is Ultrasoft + core correction, Zval = 16.0
     Generated by new atomic code, or converted to UPF format
     Using radial grid of  861 points,  6 beta functions with:
                l(1) =   0
                l(2) =   0
                l(3) =   1
                l(4) =   1
                l(5) =   2
                l(6) =   2
     Q(r) pseudized with  8 coefficients,  rinner =    1.000   1.000   1.000
                                                       1.000   1.000

     PseudoPot. # 2 for Sn read from file:
     /afs/slac.stanford.edu/u/if/mamunm/psp/gbrv1.5pbe/Sn.UPF
     MD5 check sum: 469debedee59599fedebd795477fea03
     Pseudo is Ultrasoft + core correction, Zval = 14.0
     Generated by new atomic code, or converted to UPF format
     Using radial grid of  891 points,  6 beta functions with:
                l(1) =   0
                l(2) =   0
                l(3) =   1
                l(4) =   1
                l(5) =   2
                l(6) =   2
     Q(r) pseudized with  8 coefficients,  rinner =    1.350   1.350   1.350
                                                       1.350   1.350

     vdW kernel table read from file vdW_kernel_table
     MD5 check sum: 095c7af220d748ca6e76c0b4c6cfb241

     atomic species   valence    mass     pseudopotential
        Fe1           16.00    55.84500     Fe( 1.00)
        Sn1           14.00   118.71000     Sn( 1.00)

     Starting magnetic structure
     atomic species   magnetization
        Fe1          0.125
        Sn1          0.143

     No symmetry found

   Cartesian axes

     site n.     atom                  positions (alat units)
         1           Fe1 tau(   1) = (   0.0000000   0.0000000  10.0000000  )
         2           Fe1 tau(   2) = (   3.6679506   2.6211313  10.0000000  )
         3           Sn1 tau(   3) = (   2.7705104   0.0000000  10.0000000  )
         4           Sn1 tau(   4) = (   0.8974401   2.6211313  10.0000000  )
         5           Fe1 tau(   5) = (   5.5410209   3.9596344  12.2536057  )
         6           Fe1 tau(   6) = (   1.8730703   1.3385031  12.2536057  )
         7           Sn1 tau(   7) = (   2.7705104   3.9596344  12.2536057  )
         8           Sn1 tau(   8) = (   4.6435807   1.3385031  12.2536057  )
         9           Fe1 tau(   9) = (   3.7461406   2.6770062  14.5072114  )
        10           Fe1 tau(  10) = (   0.0781900   0.0558749  14.5072114  )
        11           Sn1 tau(  11) = (   0.9756302   2.6770062  14.5072114  )
        12           Sn1 tau(  12) = (   2.8487005   0.0558749  14.5072114  )

     number of k points=    40  Fermi-Dirac smearing, width (Ry)=  0.0110
                       cart. coord. in units 2pi/alat
        k(    1) = (   0.0000000   0.0000000   0.0000000), wk =   0.0277778
        k(    2) = (   0.0000000   0.0317929   0.0000000), wk =   0.0555556
        k(    3) = (   0.0000000   0.0635858   0.0000000), wk =   0.0555556
        k(    4) = (   0.0000000  -0.0953787   0.0000000), wk =   0.0277778
        k(    5) = (   0.0300787  -0.0102985   0.0000000), wk =   0.0555556
        k(    6) = (   0.0300787   0.0214943   0.0000000), wk =   0.0555556
        k(    7) = (   0.0300787   0.0532872   0.0000000), wk =   0.0555556
        k(    8) = (   0.0300787  -0.1056772   0.0000000), wk =   0.0555556
        k(    9) = (   0.0300787  -0.0738843   0.0000000), wk =   0.0555556
        k(   10) = (   0.0300787  -0.0420914   0.0000000), wk =   0.0555556
        k(   11) = (   0.0601574  -0.0205971   0.0000000), wk =   0.0555556
        k(   12) = (   0.0601574   0.0111958   0.0000000), wk =   0.0555556
        k(   13) = (   0.0601574   0.0429887   0.0000000), wk =   0.0555556
        k(   14) = (   0.0601574  -0.1159757   0.0000000), wk =   0.0555556
        k(   15) = (   0.0601574  -0.0841829   0.0000000), wk =   0.0555556
        k(   16) = (   0.0601574  -0.0523900   0.0000000), wk =   0.0555556
        k(   17) = (  -0.0902361   0.0308956   0.0000000), wk =   0.0277778
        k(   18) = (  -0.0902361   0.0626885   0.0000000), wk =   0.0555556
        k(   19) = (  -0.0902361   0.0944814   0.0000000), wk =   0.0555556
        k(   20) = (  -0.0902361  -0.0644830   0.0000000), wk =   0.0277778
        k(   21) = (   0.0000000   0.0000000   0.0000000), wk =   0.0277778
        k(   22) = (   0.0000000   0.0317929   0.0000000), wk =   0.0555556
        k(   23) = (   0.0000000   0.0635858   0.0000000), wk =   0.0555556
        k(   24) = (   0.0000000  -0.0953787   0.0000000), wk =   0.0277778
        k(   25) = (   0.0300787  -0.0102985   0.0000000), wk =   0.0555556
        k(   26) = (   0.0300787   0.0214943   0.0000000), wk =   0.0555556
        k(   27) = (   0.0300787   0.0532872   0.0000000), wk =   0.0555556
        k(   28) = (   0.0300787  -0.1056772   0.0000000), wk =   0.0555556
        k(   29) = (   0.0300787  -0.0738843   0.0000000), wk =   0.0555556
        k(   30) = (   0.0300787  -0.0420914   0.0000000), wk =   0.0555556
        k(   31) = (   0.0601574  -0.0205971   0.0000000), wk =   0.0555556
        k(   32) = (   0.0601574   0.0111958   0.0000000), wk =   0.0555556
        k(   33) = (   0.0601574   0.0429887   0.0000000), wk =   0.0555556
        k(   34) = (   0.0601574  -0.1159757   0.0000000), wk =   0.0555556
        k(   35) = (   0.0601574  -0.0841829   0.0000000), wk =   0.0555556
        k(   36) = (   0.0601574  -0.0523900   0.0000000), wk =   0.0555556
        k(   37) = (  -0.0902361   0.0308956   0.0000000), wk =   0.0277778
        k(   38) = (  -0.0902361   0.0626885   0.0000000), wk =   0.0555556
        k(   39) = (  -0.0902361   0.0944814   0.0000000), wk =   0.0555556
        k(   40) = (  -0.0902361  -0.0644830   0.0000000), wk =   0.0277778

     Largest allocated arrays     est. size (Mb)     dimensions
     Largest temporary arrays     est. size (Mb)     dimensions

     Check: negative/imaginary core charge=   -0.000004    0.000000

     Initial potential from superposition of free atoms
     Check: negative starting charge=(component1):   -0.000566
     Check: negative starting charge=(component2):   -0.000424

     starting charge  167.99969, renormalised to  180.00000

     negative rho (up, down):  6.061E-04 4.547E-04

     *
     * You are using vdW-DF for exchange-correlation in this calculation.
     * Please cite the following three references that made this development
     * possible:
     *
     *   M. Dion, H. Rydberg, E. Schroder, D. C. Langreth, and
     *   B. I. Lundqvist, Phys. Rev. Lett. 92, 246401 (2004).
     *
     *   T. Thonhauser, V. R. Cooper, S. Li, A. Puzder, P. Hyldgaard, and
     *   D. C. Langreth, Phys. Rev. B 76, 125112 (2007).
     *
     *   G. Roman-Perez and J. M. Soler, Phys. Rev. Lett. 103, 096102 (2009).
     *
     *
     * If you are using vdW-DF2, please also cite:
     *
     *   K. Lee, E. D. Murray, L. Kong, B. I. Lundqvist, and
     *   D. C. Langreth, Phys. Rev. B 82, 081101(R) (2010).
     *
     *
     * If you are calculating the stress with vdW-DF, please also cite:
     *
     *   R. Sabatini, E. Kucukbenli, B. Kolb, T. Thonhauser, and
     *   S. de Gironcoli, J. Phys.: Condens. Matter 24, 424209 (2012).
     *

     Carrying out vdW-DF run using the following parameters:

     Nqs =      20    Nr_points =    1024   r_max =   100.000
     q_mesh =
               0.00001000     0.04494208     0.09755937     0.15916263
               0.23128650     0.31572767     0.41458969     0.53033537
               0.66584808     0.82450364     1.01025438     1.22772762
               1.48234092     1.78043706     2.12944203     2.53805004
               3.01644009     3.57652955     4.23227104     5.00000000

     Gradients computed in reciprocal space

     Adding external electric field

     Computed dipole along edir(3) :
        Dipole               -0.0000 Ry au,         -0.0000 Debye
        Dipole field         -0.0000 Ry au

        Potential amp.        0.0000 Ry
        Total length         45.1541 bohr

[...]

     Starting wfc are  132 randomized atomic wfcs

     Self-consistent Calculation

     iteration #  1     ecut=    36.75 Ry     beta=0.10
     Davidson diagonalization with overlap
     ethr =  1.00E-02,  avg # of iterations =  7.9

[...]

     Magnetic moment per site:
     atom:    1    charge:    7.2930    magn:    0.9047    constr:    0.0000
     atom:    2    charge:    7.2930    magn:    0.9047    constr:    0.0000
     atom:    3    charge:    3.6955    magn:    0.4841    constr:    0.0000
     atom:    4    charge:    3.6955    magn:    0.4841    constr:    0.0000
     atom:    5    charge:    7.2900    magn:    0.8949    constr:    0.0000
     atom:    6    charge:    7.2900    magn:    0.8949    constr:    0.0000
[...]
        k(    3) = (   0.0000000   0.0635858   0.0000000), wk =   0.0555556
        k(    4) = (   0.0000000  -0.0953787   0.0000000), wk =   0.0277778
        k(    5) = (   0.0300787  -0.0102985   0.0000000), wk =   0.0555556
        k(    6) = (   0.0300787   0.0214943   0.0000000), wk =   0.0555556
        k(    7) = (   0.0300787   0.0532872   0.0000000), wk =   0.0555556
        k(    8) = (   0.0300787  -0.1056772   0.0000000), wk =   0.0555556
        k(    9) = (   0.0300787  -0.0738843   0.0000000), wk =   0.0555556
        k(   10) = (   0.0300787  -0.0420914   0.0000000), wk =   0.0555556
        k(   11) = (   0.0601574  -0.0205971   0.0000000), wk =   0.0555556
        k(   12) = (   0.0601574   0.0111958   0.0000000), wk =   0.0555556
        k(   13) = (   0.0601574   0.0429887   0.0000000), wk =   0.0555556
        k(   14) = (   0.0601574  -0.1159757   0.0000000), wk =   0.0555556
        k(   15) = (   0.0601574  -0.0841829   0.0000000), wk =   0.0555556
        k(   16) = (   0.0601574  -0.0523900   0.0000000), wk =   0.0555556
        k(   17) = (  -0.0902361   0.0308956   0.0000000), wk =   0.0277778
        k(   18) = (  -0.0902361   0.0626885   0.0000000), wk =   0.0555556
        k(   19) = (  -0.0902361   0.0944814   0.0000000), wk =   0.0555556
        k(   20) = (  -0.0902361  -0.0644830   0.0000000), wk =   0.0277778
        k(   21) = (   0.0000000   0.0000000   0.0000000), wk =   0.0277778
        k(   22) = (   0.0000000   0.0317929   0.0000000), wk =   0.0555556
        k(   23) = (   0.0000000   0.0635858   0.0000000), wk =   0.0555556
        k(   24) = (   0.0000000  -0.0953787   0.0000000), wk =   0.0277778
        k(   25) = (   0.0300787  -0.0102985   0.0000000), wk =   0.0555556
        k(   26) = (   0.0300787   0.0214943   0.0000000), wk =   0.0555556
        k(   27) = (   0.0300787   0.0532872   0.0000000), wk =   0.0555556
        k(   28) = (   0.0300787  -0.1056772   0.0000000), wk =   0.0555556
        k(   29) = (   0.0300787  -0.0738843   0.0000000), wk =   0.0555556
        k(   30) = (   0.0300787  -0.0420914   0.0000000), wk =   0.0555556
        k(   31) = (   0.0601574  -0.0205971   0.0000000), wk =   0.0555556
        k(   32) = (   0.0601574   0.0111958   0.0000000), wk =   0.0555556
        k(   33) = (   0.0601574   0.0429887   0.0000000), wk =   0.0555556
        k(   34) = (   0.0601574  -0.1159757   0.0000000), wk =   0.0555556
        k(   35) = (   0.0601574  -0.0841829   0.0000000), wk =   0.0555556
        k(   36) = (   0.0601574  -0.0523900   0.0000000), wk =   0.0555556
        k(   37) = (  -0.0902361   0.0308956   0.0000000), wk =   0.0277778
        k(   38) = (  -0.0902361   0.0626885   0.0000000), wk =   0.0555556
        k(   39) = (  -0.0902361   0.0944814   0.0000000), wk =   0.0555556
        k(   40) = (  -0.0902361  -0.0644830   0.0000000), wk =   0.0277778

     Largest allocated arrays     est. size (Mb)     dimensions
     Largest temporary arrays     est. size (Mb)     dimensions

     Check: negative/imaginary core charge=   -0.000004    0.000000

     Initial potential from superposition of free atoms
     Check: negative starting charge=(component1):   -0.000566
     Check: negative starting charge=(component2):   -0.000425

     starting charge  167.99969, renormalised to  180.00000

[...]

     *
     * You are using vdW-DF for exchange-correlation in this calculation.
     * Please cite the following three references that made this development
     * possible:
     *
     *   M. Dion, H. Rydberg, E. Schroder, D. C. Langreth, and
     *   B. I. Lundqvist, Phys. Rev. Lett. 92, 246401 (2004).
     *
     *   T. Thonhauser, V. R. Cooper, S. Li, A. Puzder, P. Hyldgaard, and
     *   D. C. Langreth, Phys. Rev. B 76, 125112 (2007).
     *
     *   G. Roman-Perez and J. M. Soler, Phys. Rev. Lett. 103, 096102 (2009).
     *
     *
     * If you are using vdW-DF2, please also cite:
     *
     *   K. Lee, E. D. Murray, L. Kong, B. I. Lundqvist, and
     *   D. C. Langreth, Phys. Rev. B 82, 081101(R) (2010).
     *
     *
     * If you are calculating the stress with vdW-DF, please also cite:
     *
     *   R. Sabatini, E. Kucukbenli, B. Kolb, T. Thonhauser, and
     *   S. de Gironcoli, J. Phys.: Condens. Matter 24, 424209 (2012).
     *

     Carrying out vdW-DF run using the following parameters:

     Nqs =      20    Nr_points =    1024   r_max =   100.000
     q_mesh =
               0.00001000     0.04494208     0.09755937     0.15916263
               0.23128650     0.31572767     0.41458969     0.53033537
               0.66584808     0.82450364     1.01025438     1.22772762
               1.48234092     1.78043706     2.12944203     2.53805004
               3.01644009     3.57652955     4.23227104     5.00000000

     Gradients computed in reciprocal space

[...]

     Starting wfc are  132 randomized atomic wfcs

     Self-consistent Calculation

[...]

     total energy              =   -2472.02556882 Ry
     Harris-Foulkes estimate   =   -2472.02556824 Ry
     estimated scf accuracy    <       0.00000126 Ry

[...]

     iteration # 32     ecut=    36.75 Ry     beta=0.10
     Davidson diagonalization with overlap
     ethr =  6.99E-10,  avg # of iterations =  1.4

[...]

     negative rho (up, down):  2.933E-04 5.533E-04

[...]

     Adding external electric field

     Computed dipole along edir(3) :
        Dipole                0.0177 Ry au,          0.0449 Debye
        Dipole field          0.0000 Ry au

        Potential amp.       -0.0042 Ry
        Total length         45.1541 bohr

     Magnetic moment per site:
     atom:    1    charge:    7.1080    magn:    1.1755    constr:    0.0000
     atom:    2    charge:    7.1080    magn:    1.1755    constr:    0.0000
     atom:    3    charge:    3.5226    magn:   -0.0041    constr:    0.0000
     atom:    4    charge:    3.5226    magn:   -0.0041    constr:    0.0000
     atom:    5    charge:    7.0946    magn:    1.0027    constr:    0.0000
     atom:    6    charge:    7.0946    magn:    1.0028    constr:    0.0000
     atom:    7    charge:    3.5225    magn:   -0.0057    constr:    0.0000
     atom:    8    charge:    3.5225    magn:   -0.0057    constr:    0.0000
     atom:    9    charge:    7.1028    magn:    1.1580    constr:    0.0000
     atom:   10    charge:    7.1029    magn:    1.1580    constr:    0.0000
     atom:   11    charge:    3.5188    magn:   -0.0027    constr:    0.0000
     atom:   12    charge:    3.5188    magn:   -0.0027    constr:    0.0000

     End of self-consistent calculation

 ------ SPIN UP ------------

[...]

 ------ SPIN DOWN ----------

[...]

          k = 0.0602-0.0524 0.0000 ( 18091 PWs)   bands (ev):

[...]

          k =-0.0902-0.0645 0.0000 ( 18088 PWs)   bands (ev):

   -84.3135 -84.3128 -84.3076 -84.3066 -84.2838 -84.2829 -50.4867 -50.4844
   -50.4411 -50.4406 -50.4337 -50.4222 -50.4199 -50.4172 -50.4172 -50.4163
   -50.4141 -50.4090 -50.4059 -50.3987 -50.3982 -50.3928 -50.3871 -50.3862
   -20.8036 -20.7596 -20.7281 -20.6961 -20.6955 -20.6933 -20.6888 -20.6760
   -20.6489 -20.5796 -20.5586 -20.5224 -20.5031 -20.4784 -20.4516 -20.4455
   -20.4360 -20.4291 -20.4152 -20.4035 -20.4034 -20.4025 -20.4019 -20.3993
   -20.3944 -20.3743 -20.3698 -20.3535 -20.3112 -20.3037  -8.2796  -7.8109
    -7.0042  -6.9765  -5.2989  -4.7753  -4.4987  -3.4061  -3.2367  -3.0475
    -2.2825  -2.1230  -1.7339  -0.9274  -0.7351  -0.5859   0.1136   0.2838
     0.3250   0.4048   0.5210   0.6026   0.6224   0.7789   0.7848   0.8875
     0.9623   1.1023   1.4326   1.5191   1.5582   1.6056   1.6779   1.6976
     1.7819   1.8124   1.8694   2.0150   2.2474   2.2999   2.3970   2.4546
     2.4631   2.7121   2.9315   3.5303   4.3224   4.5877   4.6329   4.8788
     5.2229   5.7606   5.8277   5.8449   6.1680   6.2389   6.4405   6.7112
     6.7842   7.0213   7.0467   7.2025   7.4170   7.6129   7.6991   7.7038

     the Fermi energy is     1.2339 ev

!    total energy              =   -2472.02556954 Ry
     Harris-Foulkes estimate   =   -2472.02556873 Ry
     estimated scf accuracy    <       0.00000054 Ry

     The total energy is the sum of the following terms:

     one-electron contribution =  -17240.51063889 Ry
     hartree contribution      =    8654.53258388 Ry
     xc contribution           =    -449.42258372 Ry
     ewald contribution        =    6563.45640680 Ry
     electric field correction =       0.00000082 Ry
     smearing contrib. (-TS)   =      -0.08133842 Ry

     total magnetization       =    13.59 Bohr mag/cell
     absolute magnetization    =    15.87 Bohr mag/cell

     convergence has been achieved in  32 iterations

 BEEF-vdW xc energy contributions
           1 :   -394.390019812172
           2 :    359.608324019172
           3 :   -300.968616874718
           4 :    235.201762216038
           5 :   -177.717904373709
           6 :    137.065958375079
           7 :   -113.351324594984
           8 :    100.639263124352
           9 :   -91.4729031373354
          10 :    80.8848590808353
          11 :   -68.0505149093711
          12 :    55.2749696725080
          13 :   -45.5140379914773
          14 :    40.1631666630980
          15 :   -38.3490809673610
          16 :    37.7920352478595
          17 :   -36.3818833258347
          18 :    33.3512735712815
          19 :   -29.4218169761165
          20 :    26.0205024125904
          21 :   -24.2179829758679
          22 :    24.0703248050918
          23 :   -24.7014076865149
          24 :    24.9479131701535
          25 :   -24.0979851965164
          26 :    22.2593653464596
          27 :   -20.1948233192105
          28 :    18.7819246444830
          29 :   -18.4632241659110
          30 :    19.0030426976573
          31 :   -34.5691138961735
          32 :   -24.9551500031535

     Forces acting on atoms (Ry/au):

     negative rho (up, down):  2.933E-04 5.533E-04
     atom    1 type  1   force =    -0.00117515   -0.00083984    0.02082716
     atom    2 type  1   force =    -0.00115705   -0.00082672    0.02081715
     atom    3 type  2   force =     0.00202533    0.00142594   -0.03898352
     atom    4 type  2   force =     0.00200560    0.00145524   -0.03898234
     atom    5 type  1   force =     0.00041830    0.00029893    0.01907899
     atom    6 type  1   force =     0.00041912    0.00029957    0.01906569
     atom    7 type  2   force =    -0.00186175   -0.00134360   -0.00200271
     atom    8 type  2   force =    -0.00187342   -0.00132629   -0.00200426
     atom    9 type  1   force =     0.00099700    0.00071427    0.00112727
     atom   10 type  1   force =     0.00106437    0.00075917    0.00116880
     atom   11 type  2   force =    -0.00039554   -0.00035466   -0.00005620
     atom   12 type  2   force =    -0.00046680   -0.00026202   -0.00005602

     Total force =     0.068380     Total SCF correction =     0.002268

     entering subroutine stress ...

     negative rho (up, down):  2.933E-04 5.533E-04
          total   stress  (Ry/bohr**3)                   (kbar)     P=   -8.82
  -0.00010967  -0.00002853  -0.00000056        -16.13     -4.20     -0.08
  -0.00002853  -0.00009013  -0.00000040         -4.20    -13.26     -0.06
  -0.00000056  -0.00000040   0.00001997         -0.08     -0.06      2.94

 !ASE

     Writing output data file calc.save

     General routines

     Parallel routines

   This run was terminated on:  22: 4:37  24Dec2018

   JOB DONE.
Job  /afs/slac/g/suncat/bin/suncat-tsmpirun -x LD_LIBRARY_PATH -wdir /scratch/qe108939_o64zY pw.x -in pw.inp

TID   HOST_NAME   COMMAND_LINE            STATUS            TERMINATION_TIME
00000 suncat0064 pw.x -in pw.inp   Done                     12/24/2018 22:04:37
00001 suncat0064 pw.x -in pw.inp   Done                     12/24/2018 22:04:37
00002 suncat0064 pw.x -in pw.inp   Done                     12/24/2018 22:04:37
00003 suncat0064 pw.x -in pw.inp   Done                     12/24/2018 22:04:37
00004 suncat0064 pw.x -in pw.inp   Done                     12/24/2018 22:04:37
00005 suncat0064 pw.x -in pw.inp   Done                     12/24/2018 22:04:37
00006 suncat0064 pw.x -in pw.inp   Done                     12/24/2018 22:04:37
00007 suncat0064 pw.x -in pw.inp   Done                     12/24/2018 22:04:37
00008 suncat0063 pw.x -in pw.inp   Done                     12/24/2018 22:04:37
00009 suncat0063 pw.x -in pw.inp   Done                     12/24/2018 22:04:37
00010 suncat0063 pw.x -in pw.inp   Done                     12/24/2018 22:04:37
00011 suncat0063 pw.x -in pw.inp   Done                     12/24/2018 22:04:37
00012 suncat0063 pw.x -in pw.inp   Done                     12/24/2018 22:04:37
00013 suncat0063 pw.x -in pw.inp   Done                     12/24/2018 22:04:37
00014 suncat0063 pw.x -in pw.inp   Done                     12/24/2018 22:04:37
00015 suncat0063 pw.x -in pw.inp   Done                     12/24/2018 22:04:37
00016 suncat0031 pw.x -in pw.inp   Done                     12/24/2018 22:04:37
00017 suncat0031 pw.x -in pw.inp   Done                     12/24/2018 22:04:37
00018 suncat0031 pw.x -in pw.inp   Done                     12/24/2018 22:04:37
00019 suncat0031 pw.x -in pw.inp   Done                     12/24/2018 22:04:37
00020 suncat0031 pw.x -in pw.inp   Done                     12/24/2018 22:04:37
00021 suncat0031 pw.x -in pw.inp   Done                     12/24/2018 22:04:37
00022 suncat0031 pw.x -in pw.inp   Done                     12/24/2018 22:04:37
00023 suncat0031 pw.x -in pw.inp   Done                     12/24/2018 22:04:37
00024 suncat0030 pw.x -in pw.inp   Done                     12/24/2018 22:04:37
00025 suncat0030 pw.x -in pw.inp   Done                     12/24/2018 22:04:37
00026 suncat0030 pw.x -in pw.inp   Done                     12/24/2018 22:04:37
00027 suncat0030 pw.x -in pw.inp   Done                     12/24/2018 22:04:37
00028 suncat0030 pw.x -in pw.inp   Done                     12/24/2018 22:04:37
00029 suncat0030 pw.x -in pw.inp   Done                     12/24/2018 22:04:37
00030 suncat0030 pw.x -in pw.inp   Done                     12/24/2018 22:04:37
00031 suncat0030 pw.x -in pw.inp   Done                     12/24/2018 22:04:37
00032 suncat0024 pw.x -in pw.inp   Done                     12/24/2018 22:04:37
00033 suncat0024 pw.x -in pw.inp   Done                     12/24/2018 22:04:37
00034 suncat0024 pw.x -in pw.inp   Done                     12/24/2018 22:04:37
00035 suncat0024 pw.x -in pw.inp   Done                     12/24/2018 22:04:37
00036 suncat0024 pw.x -in pw.inp   Done                     12/24/2018 22:04:37
00037 suncat0024 pw.x -in pw.inp   Done                     12/24/2018 22:04:37
00038 suncat0024 pw.x -in pw.inp   Done                     12/24/2018 22:04:37
00039 suncat0024 pw.x -in pw.inp   Done                     12/24/2018 22:04:37
00040 suncat0023 pw.x -in pw.inp   Done                     12/24/2018 22:04:37
00041 suncat0023 pw.x -in pw.inp   Done                     12/24/2018 22:04:37
00042 suncat0023 pw.x -in pw.inp   Done                     12/24/2018 22:04:37
00043 suncat0023 pw.x -in pw.inp   Done                     12/24/2018 22:04:37
00044 suncat0023 pw.x -in pw.inp   Done                     12/24/2018 22:04:37
00045 suncat0023 pw.x -in pw.inp   Done                     12/24/2018 22:04:37
00046 suncat0023 pw.x -in pw.inp   Done                     12/24/2018 22:04:37
00047 suncat0023 pw.x -in pw.inp   Done                     12/24/2018 22:04:37
00048 suncat0022 pw.x -in pw.inp   Done                     12/24/2018 22:04:37
00049 suncat0022 pw.x -in pw.inp   Done                     12/24/2018 22:04:37
00050 suncat0022 pw.x -in pw.inp   Done                     12/24/2018 22:04:37
00051 suncat0022 pw.x -in pw.inp   Done                     12/24/2018 22:04:37
00052 suncat0022 pw.x -in pw.inp   Done                     12/24/2018 22:04:37
00053 suncat0022 pw.x -in pw.inp   Done                     12/24/2018 22:04:37
00054 suncat0022 pw.x -in pw.inp   Done                     12/24/2018 22:04:37
00055 suncat0022 pw.x -in pw.inp   Done                     12/24/2018 22:04:37
00056 suncat0198 pw.x -in pw.inp   Done                     12/24/2018 22:04:37
00057 suncat0198 pw.x -in pw.inp   Done                     12/24/2018 22:04:37
00058 suncat0198 pw.x -in pw.inp   Done                     12/24/2018 22:04:37
00059 suncat0198 pw.x -in pw.inp   Done                     12/24/2018 22:04:37
00060 suncat0198 pw.x -in pw.inp   Done                     12/24/2018 22:04:37
00061 suncat0198 pw.x -in pw.inp   Done                     12/24/2018 22:04:37
00062 suncat0198 pw.x -in pw.inp   Done                     12/24/2018 22:04:37
00063 suncat0198 pw.x -in pw.inp   Done                     12/24/2018 22:04:37