     Program PWSCF v.5.1rc2 (svn rev. 11289) starts on 19Dec2018 at  7:56:19

     Current dimensions of program PWSCF are:
     Max number of different atomic species (ntypx) = 10
     Max number of k-points (npk) =  40000
     Max angular momentum in pseudopotentials (lmaxx) =  3
     Presently stress not available with electric field

     IMPORTANT: XC functional enforced from input :
     Exchange-correlation      = BEEF-VDW ( 1  4 27 13 2)
     Any further DFT definition will be discarded
     Please, verify this is what you really want

     Subspace diagonalization in iterative solution of the eigenvalue problem:
     a serial algorithm will be used

     Found symmetry operation: I + ( -0.5000  0.5000  0.0000)
     This is a supercell, fractional translations are disabled

     Generating pointlists ...
     new r_m :   0.4125 (alat units)  0.7795 (a.u.) for type    1
     new r_m :   0.4125 (alat units)  0.7795 (a.u.) for type    2

     bravais-lattice index     =            0
     lattice parameter (alat)  =       1.8897  a.u.
     unit-cell volume          =    4011.5223 (a.u.)^3
     number of atoms/cell      =           12
     number of atomic types    =            2
     number of electrons       =       186.00
     number of Kohn-Sham states=          123
     kinetic-energy cutoff     =      36.7493  Ry
     charge density cutoff     =     367.4932  Ry
     convergence threshold     =      1.0E-06
     mixing beta               =       0.1000
     number of iterations used =           10  plain     mixing
     Exchange-correlation      = BEEF-VDW ( 1  4 27 13 2)
     nstep                     =           50

     celldm(1)=   1.889726  celldm(2)=   0.000000  celldm(3)=   0.000000
     celldm(4)=   0.000000  celldm(5)=   0.000000  celldm(6)=   0.000000

     crystal axes: (cart. coord. in units of alat)
               a(1) = (   5.278106   0.000000   0.000000 )
               a(2) = (   2.537284   4.628238   0.000000 )
               a(3) = (   0.000000   0.000000  24.334297 )

     reciprocal axes: (cart. coord. in units 2 pi/alat)
               b(1) = (  0.189462 -0.103866  0.000000 )
               b(2) = (  0.000000  0.216065  0.000000 )
               b(3) = (  0.000000  0.000000  0.041094 )

     PseudoPot. # 1 for Fe read from file:
     /afs/slac.stanford.edu/u/if/mamunm/psp/gbrv1.5pbe/Fe.UPF
     MD5 check sum: a130daea23fe5165f5d574ae7f82ed95
     Pseudo is Ultrasoft + core correction, Zval = 16.0
     Generated by new atomic code, or converted to UPF format
     Using radial grid of  861 points,  6 beta functions with:
                l(1) =   0
                l(2) =   0
                l(3) =   1
                l(4) =   1
                l(5) =   2
                l(6) =   2
     Q(r) pseudized with  8 coefficients,  rinner =    1.000   1.000   1.000
                                                       1.000   1.000

     PseudoPot. # 2 for Ir read from file:
     /afs/slac.stanford.edu/u/if/mamunm/psp/gbrv1.5pbe/Ir.UPF
     MD5 check sum: 8836f839c3459d2b385c504ce6d91f2c
     Pseudo is Ultrasoft + core correction, Zval = 15.0
     Generated by new atomic code, or converted to UPF format
     Using radial grid of  983 points,  7 beta functions with:
                l(1) =   0
                l(2) =   0
                l(3) =   1
                l(4) =   1
                l(5) =   1
                l(6) =   2
                l(7) =   2
     Q(r) pseudized with  8 coefficients,  rinner =    1.400   1.400   1.400
                                                       1.400   1.400

     vdW kernel table read from file vdW_kernel_table
     MD5 check sum: 095c7af220d748ca6e76c0b4c6cfb241

     atomic species   valence    mass     pseudopotential
        Fe1           16.00    55.84500     Fe( 1.00)
        Ir1           15.00   192.21700     Ir( 1.00)

     Starting magnetic structure
     atomic species   magnetization
        Fe1          0.125
        Ir1          0.133

     No symmetry found

   Cartesian axes

     site n.     atom                  positions (alat units)
         1           Fe1 tau(   1) = (   0.0000000   0.0000000  10.0000000  )
         2           Fe1 tau(   2) = (   3.9076947   2.3141192  10.0000000  )
         3           Ir1 tau(   3) = (   2.6390529   0.0000000  10.0000000  )
         4           Ir1 tau(   4) = (   1.2686419   2.3141192  10.0000000  )
         5           Fe1 tau(   5) = (   5.2781057   3.1256704  12.1671484  )
         6           Fe1 tau(   6) = (   1.3704110   0.8115512  12.1671484  )
         7           Ir1 tau(   7) = (   2.6390529   3.1256704  12.1671484  )
         8           Ir1 tau(   8) = (   4.0094638   0.8115512  12.1671484  )
         9           Fe1 tau(   9) = (   2.7408220   1.6231024  14.3342969  )
        10           Fe1 tau(  10) = (   6.6485167   3.9372217  14.3342969  )
        11           Ir1 tau(  11) = (   5.3798748   1.6231024  14.3342969  )
        12           Ir1 tau(  12) = (   4.0094638   3.9372217  14.3342969  )

     number of k points=    40  Fermi-Dirac smearing, width (Ry)=  0.0110
                       cart. coord. in units 2pi/alat
        k(    1) = (   0.0000000   0.0000000   0.0000000), wk =   0.0277778
        k(    2) = (   0.0000000   0.0360108   0.0000000), wk =   0.0555556
        k(    3) = (   0.0000000   0.0720216   0.0000000), wk =   0.0555556
        k(    4) = (   0.0000000  -0.1080325   0.0000000), wk =   0.0277778
        k(    5) = (   0.0315770  -0.0173111   0.0000000), wk =   0.0555556
        k(    6) = (   0.0315770   0.0186997   0.0000000), wk =   0.0555556
        k(    7) = (   0.0315770   0.0547106   0.0000000), wk =   0.0555556
        k(    8) = (   0.0315770  -0.1253435   0.0000000), wk =   0.0555556
        k(    9) = (   0.0315770  -0.0893327   0.0000000), wk =   0.0555556
        k(   10) = (   0.0315770  -0.0533219   0.0000000), wk =   0.0555556
        k(   11) = (   0.0631540  -0.0346221   0.0000000), wk =   0.0555556
        k(   12) = (   0.0631540   0.0013887   0.0000000), wk =   0.0555556
        k(   13) = (   0.0631540   0.0373995   0.0000000), wk =   0.0555556
        k(   14) = (   0.0631540  -0.1426546   0.0000000), wk =   0.0555556
        k(   15) = (   0.0631540  -0.1066438   0.0000000), wk =   0.0555556
        k(   16) = (   0.0631540  -0.0706330   0.0000000), wk =   0.0555556
        k(   17) = (  -0.0947310   0.0519332   0.0000000), wk =   0.0277778
        k(   18) = (  -0.0947310   0.0879440   0.0000000), wk =   0.0555556
        k(   19) = (  -0.0947310   0.1239549   0.0000000), wk =   0.0555556
        k(   20) = (  -0.0947310  -0.0560992   0.0000000), wk =   0.0277778
        k(   21) = (   0.0000000   0.0000000   0.0000000), wk =   0.0277778
        k(   22) = (   0.0000000   0.0360108   0.0000000), wk =   0.0555556
        k(   23) = (   0.0000000   0.0720216   0.0000000), wk =   0.0555556
        k(   24) = (   0.0000000  -0.1080325   0.0000000), wk =   0.0277778
        k(   25) = (   0.0315770  -0.0173111   0.0000000), wk =   0.0555556
        k(   26) = (   0.0315770   0.0186997   0.0000000), wk =   0.0555556
        k(   27) = (   0.0315770   0.0547106   0.0000000), wk =   0.0555556
        k(   28) = (   0.0315770  -0.1253435   0.0000000), wk =   0.0555556
        k(   29) = (   0.0315770  -0.0893327   0.0000000), wk =   0.0555556
        k(   30) = (   0.0315770  -0.0533219   0.0000000), wk =   0.0555556
        k(   31) = (   0.0631540  -0.0346221   0.0000000), wk =   0.0555556
        k(   32) = (   0.0631540   0.0013887   0.0000000), wk =   0.0555556
        k(   33) = (   0.0631540   0.0373995   0.0000000), wk =   0.0555556
        k(   34) = (   0.0631540  -0.1426546   0.0000000), wk =   0.0555556
        k(   35) = (   0.0631540  -0.1066438   0.0000000), wk =   0.0555556
        k(   36) = (   0.0631540  -0.0706330   0.0000000), wk =   0.0555556
        k(   37) = (  -0.0947310   0.0519332   0.0000000), wk =   0.0277778
        k(   38) = (  -0.0947310   0.0879440   0.0000000), wk =   0.0555556
        k(   39) = (  -0.0947310   0.1239549   0.0000000), wk =   0.0555556
        k(   40) = (  -0.0947310  -0.0560992   0.0000000), wk =   0.0277778

     Largest allocated arrays     est. size (Mb)     dimensions
     Largest temporary arrays     est. size (Mb)     dimensions

     Check: negative/imaginary core charge=   -0.000004    0.000000

     Initial potential from superposition of free atoms
     Check: negative starting charge=(component1):   -1.233567
     Check: negative starting charge=(component2):   -0.943290

     starting charge  176.99978, renormalised to  186.00000

     negative rho (up, down):  1.296E+00 9.913E-01

     *
     * You are using vdW-DF for exchange-correlation in this calculation.
     * Please cite the following three references that made this development
     * possible:
     *
     *   M. Dion, H. Rydberg, E. Schroder, D. C. Langreth, and
     *   B. I. Lundqvist, Phys. Rev. Lett. 92, 246401 (2004).
     *
     *   T. Thonhauser, V. R. Cooper, S. Li, A. Puzder, P. Hyldgaard, and
     *   D. C. Langreth, Phys. Rev. B 76, 125112 (2007).
     *
     *   G. Roman-Perez and J. M. Soler, Phys. Rev. Lett. 103, 096102 (2009).
     *
     *
     * If you are using vdW-DF2, please also cite:
     *
     *   K. Lee, E. D. Murray, L. Kong, B. I. Lundqvist, and
     *   D. C. Langreth, Phys. Rev. B 82, 081101(R) (2010).
     *
     *
     * If you are calculating the stress with vdW-DF, please also cite:
     *
     *   R. Sabatini, E. Kucukbenli, B. Kolb, T. Thonhauser, and
     *   S. de Gironcoli, J. Phys.: Condens. Matter 24, 424209 (2012).
     *

     Carrying out vdW-DF run using the following parameters:

     Nqs =      20    Nr_points =    1024   r_max =   100.000
     q_mesh =
               0.00001000     0.04494208     0.09755937     0.15916263
               0.23128650     0.31572767     0.41458969     0.53033537
               0.66584808     0.82450364     1.01025438     1.22772762
               1.48234092     1.78043706     2.12944203     2.53805004
               3.01644009     3.57652955     4.23227104     5.00000000

     Gradients computed in reciprocal space

     Adding external electric field

     Computed dipole along edir(3) :
        Dipole                0.0000 Ry au,          0.0000 Debye
        Dipole field          0.0000 Ry au

        Potential amp.       -0.0000 Ry
        Total length         44.8355 bohr

[...]

     Starting wfc are  150 randomized atomic wfcs

     Self-consistent Calculation

     iteration #  1     ecut=    36.75 Ry     beta=0.10
     Davidson diagonalization with overlap
     ethr =  1.00E-02,  avg # of iterations =  7.9

[...]

     Magnetic moment per site:
     atom:    1    charge:    7.3378    magn:    0.8626    constr:    0.0000
     atom:    2    charge:    7.3378    magn:    0.8626    constr:    0.0000
     atom:    3    charge:    1.6049    magn:    0.1980    constr:    0.0000
     atom:    4    charge:    1.6049    magn:    0.1980    constr:    0.0000
     atom:    5    charge:    7.3311    magn:    0.8669    constr:    0.0000
     atom:    6    charge:    7.3311    magn:    0.8669    constr:    0.0000
[...]
                                                       1.000   1.000

     PseudoPot. # 2 for Ir read from file:
     /afs/slac.stanford.edu/u/if/mamunm/psp/gbrv1.5pbe/Ir.UPF
     MD5 check sum: 8836f839c3459d2b385c504ce6d91f2c
     Pseudo is Ultrasoft + core correction, Zval = 15.0
     Generated by new atomic code, or converted to UPF format
     Using radial grid of  983 points,  7 beta functions with:
                l(1) =   0
                l(2) =   0
                l(3) =   1
                l(4) =   1
                l(5) =   1
                l(6) =   2
                l(7) =   2
     Q(r) pseudized with  8 coefficients,  rinner =    1.400   1.400   1.400
                                                       1.400   1.400

     vdW kernel table read from file vdW_kernel_table
     MD5 check sum: 095c7af220d748ca6e76c0b4c6cfb241

     atomic species   valence    mass     pseudopotential
        Fe1           16.00    55.84500     Fe( 1.00)
        Ir1           15.00   192.21700     Ir( 1.00)

     Starting magnetic structure
     atomic species   magnetization
        Fe1          0.125
        Ir1          0.133

     No symmetry found

   Cartesian axes

     site n.     atom                  positions (alat units)
         1           Fe1 tau(   1) = (   0.0000000   0.0000000  10.0000000  )
         2           Fe1 tau(   2) = (   3.9076947   2.3141192  10.0000000  )
         3           Ir1 tau(   3) = (   2.6390529   0.0000000  10.0000000  )
         4           Ir1 tau(   4) = (   1.2686419   2.3141192  10.0000000  )
         5           Fe1 tau(   5) = (   5.2781057   3.1256704  12.1671484  )
         6           Fe1 tau(   6) = (   1.3704110   0.8115512  12.1671484  )
         7           Ir1 tau(   7) = (   2.6390529   3.1256704  12.1671484  )
         8           Ir1 tau(   8) = (   4.0094638   0.8115512  12.1671484  )
         9           Fe1 tau(   9) = (   2.6820656   1.5883085  14.3476291  )
        10           Fe1 tau(  10) = (   6.5899847   3.9025596  14.3473660  )
        11           Ir1 tau(  11) = (   5.3437841   1.6013267  14.3209468  )
        12           Ir1 tau(  12) = (   3.9730190   3.9160428  14.3209462  )

     number of k points=    40  Fermi-Dirac smearing, width (Ry)=  0.0110
                       cart. coord. in units 2pi/alat
        k(    1) = (   0.0000000   0.0000000   0.0000000), wk =   0.0277778
        k(    2) = (   0.0000000   0.0360108   0.0000000), wk =   0.0555556
        k(    3) = (   0.0000000   0.0720216   0.0000000), wk =   0.0555556
        k(    4) = (   0.0000000  -0.1080325   0.0000000), wk =   0.0277778
        k(    5) = (   0.0315770  -0.0173111   0.0000000), wk =   0.0555556
        k(    6) = (   0.0315770   0.0186997   0.0000000), wk =   0.0555556
        k(    7) = (   0.0315770   0.0547106   0.0000000), wk =   0.0555556
        k(    8) = (   0.0315770  -0.1253435   0.0000000), wk =   0.0555556
        k(    9) = (   0.0315770  -0.0893327   0.0000000), wk =   0.0555556
        k(   10) = (   0.0315770  -0.0533219   0.0000000), wk =   0.0555556
        k(   11) = (   0.0631540  -0.0346221   0.0000000), wk =   0.0555556
        k(   12) = (   0.0631540   0.0013887   0.0000000), wk =   0.0555556
        k(   13) = (   0.0631540   0.0373995   0.0000000), wk =   0.0555556
        k(   14) = (   0.0631540  -0.1426546   0.0000000), wk =   0.0555556
        k(   15) = (   0.0631540  -0.1066438   0.0000000), wk =   0.0555556
        k(   16) = (   0.0631540  -0.0706330   0.0000000), wk =   0.0555556
        k(   17) = (  -0.0947310   0.0519332   0.0000000), wk =   0.0277778
        k(   18) = (  -0.0947310   0.0879440   0.0000000), wk =   0.0555556
        k(   19) = (  -0.0947310   0.1239549   0.0000000), wk =   0.0555556
        k(   20) = (  -0.0947310  -0.0560992   0.0000000), wk =   0.0277778
        k(   21) = (   0.0000000   0.0000000   0.0000000), wk =   0.0277778
        k(   22) = (   0.0000000   0.0360108   0.0000000), wk =   0.0555556
        k(   23) = (   0.0000000   0.0720216   0.0000000), wk =   0.0555556
        k(   24) = (   0.0000000  -0.1080325   0.0000000), wk =   0.0277778
        k(   25) = (   0.0315770  -0.0173111   0.0000000), wk =   0.0555556
        k(   26) = (   0.0315770   0.0186997   0.0000000), wk =   0.0555556
        k(   27) = (   0.0315770   0.0547106   0.0000000), wk =   0.0555556
        k(   28) = (   0.0315770  -0.1253435   0.0000000), wk =   0.0555556
        k(   29) = (   0.0315770  -0.0893327   0.0000000), wk =   0.0555556
        k(   30) = (   0.0315770  -0.0533219   0.0000000), wk =   0.0555556
        k(   31) = (   0.0631540  -0.0346221   0.0000000), wk =   0.0555556
        k(   32) = (   0.0631540   0.0013887   0.0000000), wk =   0.0555556
        k(   33) = (   0.0631540   0.0373995   0.0000000), wk =   0.0555556
        k(   34) = (   0.0631540  -0.1426546   0.0000000), wk =   0.0555556
        k(   35) = (   0.0631540  -0.1066438   0.0000000), wk =   0.0555556
        k(   36) = (   0.0631540  -0.0706330   0.0000000), wk =   0.0555556
        k(   37) = (  -0.0947310   0.0519332   0.0000000), wk =   0.0277778
        k(   38) = (  -0.0947310   0.0879440   0.0000000), wk =   0.0555556
        k(   39) = (  -0.0947310   0.1239549   0.0000000), wk =   0.0555556
        k(   40) = (  -0.0947310  -0.0560992   0.0000000), wk =   0.0277778

     Largest allocated arrays     est. size (Mb)     dimensions
     Largest temporary arrays     est. size (Mb)     dimensions

     Check: negative/imaginary core charge=   -0.000004    0.000000

     Initial potential from superposition of free atoms
     Check: negative starting charge=(component1):   -1.233435
     Check: negative starting charge=(component2):   -0.943189

     starting charge  176.99978, renormalised to  186.00000

[...]

     *
     * You are using vdW-DF for exchange-correlation in this calculation.
     * Please cite the following three references that made this development
     * possible:
     *
     *   M. Dion, H. Rydberg, E. Schroder, D. C. Langreth, and
     *   B. I. Lundqvist, Phys. Rev. Lett. 92, 246401 (2004).
     *
     *   T. Thonhauser, V. R. Cooper, S. Li, A. Puzder, P. Hyldgaard, and
     *   D. C. Langreth, Phys. Rev. B 76, 125112 (2007).
     *
     *   G. Roman-Perez and J. M. Soler, Phys. Rev. Lett. 103, 096102 (2009).
     *
     *
     * If you are using vdW-DF2, please also cite:
     *
     *   K. Lee, E. D. Murray, L. Kong, B. I. Lundqvist, and
     *   D. C. Langreth, Phys. Rev. B 82, 081101(R) (2010).
     *
     *
     * If you are calculating the stress with vdW-DF, please also cite:
     *
     *   R. Sabatini, E. Kucukbenli, B. Kolb, T. Thonhauser, and
     *   S. de Gironcoli, J. Phys.: Condens. Matter 24, 424209 (2012).
     *

     Carrying out vdW-DF run using the following parameters:

     Nqs =      20    Nr_points =    1024   r_max =   100.000
     q_mesh =
               0.00001000     0.04494208     0.09755937     0.15916263
               0.23128650     0.31572767     0.41458969     0.53033537
               0.66584808     0.82450364     1.01025438     1.22772762
               1.48234092     1.78043706     2.12944203     2.53805004
               3.01644009     3.57652955     4.23227104     5.00000000

     Gradients computed in reciprocal space

[...]

     Starting wfc are  150 randomized atomic wfcs

     Self-consistent Calculation

[...]

     total energy              =   -2607.94814432 Ry
     Harris-Foulkes estimate   =   -2607.94814381 Ry
     estimated scf accuracy    <       0.00000103 Ry

[...]

     iteration # 35     ecut=    36.75 Ry     beta=0.10
     Davidson diagonalization with overlap
     ethr =  5.56E-10,  avg # of iterations =  1.2

[...]

     negative rho (up, down):  1.011E+00 9.236E-01

[...]

     Adding external electric field

     Computed dipole along edir(3) :
        Dipole                0.0039 Ry au,          0.0100 Debye
        Dipole field          0.0000 Ry au

        Potential amp.       -0.0011 Ry
        Total length         44.8355 bohr

     Magnetic moment per site:
     atom:    1    charge:    7.0852    magn:    1.3646    constr:    0.0000
     atom:    2    charge:    7.0852    magn:    1.3646    constr:    0.0000
     atom:    3    charge:    1.6102    magn:    0.0119    constr:    0.0000
     atom:    4    charge:    1.6102    magn:    0.0119    constr:    0.0000
     atom:    5    charge:    7.0851    magn:    1.2550    constr:    0.0000
     atom:    6    charge:    7.0850    magn:    1.2550    constr:    0.0000
     atom:    7    charge:    1.6178    magn:    0.0137    constr:    0.0000
     atom:    8    charge:    1.6178    magn:    0.0137    constr:    0.0000
     atom:    9    charge:    7.0845    magn:    1.3636    constr:    0.0000
     atom:   10    charge:    7.0843    magn:    1.3635    constr:    0.0000
     atom:   11    charge:    1.6091    magn:    0.0107    constr:    0.0000
     atom:   12    charge:    1.6091    magn:    0.0107    constr:    0.0000

     End of self-consistent calculation

 ------ SPIN UP ------------

[...]

 ------ SPIN DOWN ----------

[...]

          k = 0.0632-0.0706 0.0000 ( 15112 PWs)   bands (ev):

[...]

          k =-0.0947-0.0561 0.0000 ( 15098 PWs)   bands (ev):

   -83.9737 -83.9621 -83.8409 -83.8353 -83.8294 -83.8237 -50.1382 -50.1245
   -50.0952 -50.0644 -50.0499 -49.9911 -49.9847 -49.9744 -49.9685 -49.9669
   -49.9614 -49.9547 -49.9045 -49.8903 -49.8853 -49.8738 -49.8662 -49.8610
   -47.6148 -47.5470 -47.5002 -47.3803 -47.3495 -47.2878 -47.2437 -47.1690
   -47.0881 -47.0434 -47.0300 -46.9872 -46.9369 -46.9331 -46.9058 -46.8971
   -46.8915 -46.8546  -5.4291  -4.7275  -4.0209  -3.6348  -3.2421  -3.0927
    -3.0501  -2.8511  -2.7796  -2.6048  -2.2908  -2.1183  -2.0347  -1.9882
    -1.9506  -1.7093  -1.5708  -1.0380  -1.0370  -0.9512  -0.7823  -0.6727
    -0.4247  -0.2146  -0.1178  -0.0266   0.3084   0.3796   0.6386   0.6781
     0.6956   0.7756   0.8021   0.8297   0.8327   0.8336   1.0663   1.0803
     1.1357   1.2307   1.2749   1.2919   1.3092   1.4475   1.5664   1.7775
     2.0562   2.0572   2.2427   2.2852   2.3276   2.3660   2.4246   2.5621
     2.5683   2.6546   2.7418   2.8381   3.1112   3.2277   3.3662   3.3964
     3.4146   3.6243   4.2352   4.4637   4.5787   5.3230   5.6610   6.0424
     6.3066   6.5964   7.3226   7.4426   7.8136   7.8377   8.3959   8.4201
     8.5171   8.5224   9.4013

     the Fermi energy is     1.7123 ev

!    total energy              =   -2607.94814583 Ry
     Harris-Foulkes estimate   =   -2607.94814442 Ry
     estimated scf accuracy    <       0.00000061 Ry

     The total energy is the sum of the following terms:

     one-electron contribution =  -21878.93305039 Ry
     hartree contribution      =   10954.36578792 Ry
     xc contribution           =    -493.75954098 Ry
     ewald contribution        =    8810.47409967 Ry
     electric field correction =       0.00000005 Ry
     smearing contrib. (-TS)   =      -0.09544209 Ry

     total magnetization       =    18.43 Bohr mag/cell
     absolute magnetization    =    19.56 Bohr mag/cell

     convergence has been achieved in  35 iterations

 BEEF-vdW xc energy contributions
           1 :   -435.554533682229
           2 :    401.110640817156
           3 :   -341.292564134279
           4 :    270.369441589571
           5 :   -202.420393141921
           6 :    146.982813802711
           7 :   -107.340613208802
           8 :    81.4843511808725
           9 :   -64.6746469857348
          10 :    52.1286204948889
          11 :   -40.7346417229840
          12 :    29.4186731093174
          13 :   -18.5355995440958
          14 :    8.96299859444133
          15 :   -1.45498377508636
          16 :   -3.60970056620357
          17 :    6.22938526409592
          18 :   -6.73819924569921
          19 :    5.77444966466618
          20 :   -4.20861904640213
          21 :    2.95084246778566
          22 :   -2.66722433849969
          23 :    3.52508647206599
          24 :   -5.13405414013010
          25 :    6.74003240169458
          26 :   -7.59103374913536
          27 :    7.28018175596134
          28 :   -5.91165478901758
          29 :    4.03005239208125
          30 :   -2.37565491443490
          31 :   -37.6163461265444
          32 :   -27.5733455397703

     Forces acting on atoms (Ry/au):

     negative rho (up, down):  1.011E+00 9.236E-01
     atom    1 type  1   force =     0.00649913    0.00384884   -0.00320371
     atom    2 type  1   force =     0.00648423    0.00383990   -0.00321549
     atom    3 type  2   force =    -0.00235305   -0.00139701    0.00686245
     atom    4 type  2   force =    -0.00235620   -0.00139182    0.00686245
     atom    5 type  1   force =    -0.00035159   -0.00020820   -0.00110920
     atom    6 type  1   force =    -0.00030580   -0.00018097   -0.00113580
     atom    7 type  2   force =    -0.00350627   -0.00209446   -0.00037642
     atom    8 type  2   force =    -0.00352202   -0.00206764   -0.00037625
     atom    9 type  1   force =     0.00066184    0.00039157   -0.00127233
     atom   10 type  1   force =     0.00048078    0.00028488   -0.00120712
     atom   11 type  2   force =    -0.00100319   -0.00028043   -0.00091442
     atom   12 type  2   force =    -0.00072786   -0.00074467   -0.00091415

     Total force =     0.016967     Total SCF correction =     0.002421
     SCF correction compared to forces is large: reduce conv_thr to get better values

     entering subroutine stress ...

     negative rho (up, down):  1.011E+00 9.236E-01
          total   stress  (Ry/bohr**3)                   (kbar)     P=  -15.88
  -0.00013607   0.00000912  -0.00000916        -20.02      1.34     -1.35
   0.00000912  -0.00014606  -0.00000542          1.34    -21.49     -0.80
  -0.00000916  -0.00000542  -0.00004172         -1.35     -0.80     -6.14

 !ASE

     Writing output data file calc.save

     General routines

     Parallel routines

   This run was terminated on:  13:40:11  19Dec2018

   JOB DONE.
Job  /afs/slac/g/suncat/bin/suncat-tsmpirun -x LD_LIBRARY_PATH -wdir /scratch/qe529924_NHJpv pw.x -in pw.inp

TID   HOST_NAME   COMMAND_LINE            STATUS            TERMINATION_TIME
00000 suncat1060 pw.x -in pw.inp   Done                     12/19/2018 13:40:11
00001 suncat1060 pw.x -in pw.inp   Done                     12/19/2018 13:40:11
00002 suncat1060 pw.x -in pw.inp   Done                     12/19/2018 13:40:11
00003 suncat1060 pw.x -in pw.inp   Done                     12/19/2018 13:40:11
00004 suncat1060 pw.x -in pw.inp   Done                     12/19/2018 13:40:11
00005 suncat1060 pw.x -in pw.inp   Done                     12/19/2018 13:40:11
00006 suncat1060 pw.x -in pw.inp   Done                     12/19/2018 13:40:11
00007 suncat1060 pw.x -in pw.inp   Done                     12/19/2018 13:40:11
00008 suncat1059 pw.x -in pw.inp   Done                     12/19/2018 13:40:11
00009 suncat1059 pw.x -in pw.inp   Done                     12/19/2018 13:40:11
00010 suncat1059 pw.x -in pw.inp   Done                     12/19/2018 13:40:11
00011 suncat1059 pw.x -in pw.inp   Done                     12/19/2018 13:40:11
00012 suncat1059 pw.x -in pw.inp   Done                     12/19/2018 13:40:11
00013 suncat1059 pw.x -in pw.inp   Done                     12/19/2018 13:40:11
00014 suncat1059 pw.x -in pw.inp   Done                     12/19/2018 13:40:11
00015 suncat1059 pw.x -in pw.inp   Done                     12/19/2018 13:40:11
00016 suncat1059 pw.x -in pw.inp   Done                     12/19/2018 13:40:11
00017 suncat1059 pw.x -in pw.inp   Done                     12/19/2018 13:40:11
00018 suncat1059 pw.x -in pw.inp   Done                     12/19/2018 13:40:11
00019 suncat1059 pw.x -in pw.inp   Done                     12/19/2018 13:40:11
00020 suncat1058 pw.x -in pw.inp   Done                     12/19/2018 13:40:11
00021 suncat1058 pw.x -in pw.inp   Done                     12/19/2018 13:40:11
00022 suncat1058 pw.x -in pw.inp   Done                     12/19/2018 13:40:11
00023 suncat1058 pw.x -in pw.inp   Done                     12/19/2018 13:40:11
00024 suncat1058 pw.x -in pw.inp   Done                     12/19/2018 13:40:11
00025 suncat1058 pw.x -in pw.inp   Done                     12/19/2018 13:40:11
00026 suncat1058 pw.x -in pw.inp   Done                     12/19/2018 13:40:11
00027 suncat1058 pw.x -in pw.inp   Done                     12/19/2018 13:40:11
00028 suncat1058 pw.x -in pw.inp   Done                     12/19/2018 13:40:11
00029 suncat1058 pw.x -in pw.inp   Done                     12/19/2018 13:40:11
00030 suncat1058 pw.x -in pw.inp   Done                     12/19/2018 13:40:11
00031 suncat1058 pw.x -in pw.inp   Done                     12/19/2018 13:40:11