     Program PWSCF v.5.1rc2 (svn rev. 11289) starts on 19Dec2018 at  5:49:13

     Current dimensions of program PWSCF are:
     Max number of different atomic species (ntypx) = 10
     Max number of k-points (npk) =  40000
     Max angular momentum in pseudopotentials (lmaxx) =  3
     Presently stress not available with electric field

     IMPORTANT: XC functional enforced from input :
     Exchange-correlation      = BEEF-VDW ( 1  4 27 13 2)
     Any further DFT definition will be discarded
     Please, verify this is what you really want

     Subspace diagonalization in iterative solution of the eigenvalue problem:
     a serial algorithm will be used

     Found symmetry operation: I + ( -0.5000 -0.5000  0.0000)
     This is a supercell, fractional translations are disabled

     Generating pointlists ...
     new r_m :   0.4125 (alat units)  0.7795 (a.u.) for type    1
     new r_m :   0.4125 (alat units)  0.7795 (a.u.) for type    2

     bravais-lattice index     =            0
     lattice parameter (alat)  =       1.8897  a.u.
     unit-cell volume          =    4100.9205 (a.u.)^3
     number of atoms/cell      =           12
     number of atomic types    =            2
     number of electrons       =       198.00
     number of Kohn-Sham states=          129
     kinetic-energy cutoff     =      36.7493  Ry
     charge density cutoff     =     367.4932  Ry
     convergence threshold     =      1.0E-06
     mixing beta               =       0.1000
     number of iterations used =           10  plain     mixing
     Exchange-correlation      = BEEF-VDW ( 1  4 27 13 2)
     nstep                     =           50

     celldm(1)=   1.889726  celldm(2)=   0.000000  celldm(3)=   0.000000
     celldm(4)=   0.000000  celldm(5)=   0.000000  celldm(6)=   0.000000

     crystal axes: (cart. coord. in units of alat)
               a(1) = (   5.355476   0.000000   0.000000 )
               a(2) = (   2.649370   4.654242   0.000000 )
               a(3) = (   0.000000   0.000000  24.380224 )

     reciprocal axes: (cart. coord. in units 2 pi/alat)
               b(1) = (  0.186725 -0.106291  0.000000 )
               b(2) = (  0.000000  0.214858  0.000000 )
               b(3) = (  0.000000  0.000000  0.041017 )

     PseudoPot. # 1 for Co read from file:
     /afs/slac.stanford.edu/u/if/mamunm/psp/gbrv1.5pbe/Co.UPF
     MD5 check sum: 5f91765df6ddd3222702df6e7b74a16d
     Pseudo is Ultrasoft + core correction, Zval = 17.0
     Generated by new atomic code, or converted to UPF format
     Using radial grid of  863 points,  6 beta functions with:
                l(1) =   0
                l(2) =   0
                l(3) =   1
                l(4) =   1
                l(5) =   2
                l(6) =   2
     Q(r) pseudized with  8 coefficients,  rinner =    1.200   1.200   1.200
                                                       1.200   1.200

     PseudoPot. # 2 for Pd read from file:
     /afs/slac.stanford.edu/u/if/mamunm/psp/gbrv1.5pbe/Pd.UPF
     MD5 check sum: 2d733d2bc2cbfd217af676df1668a4bc
     Pseudo is Ultrasoft + core correction, Zval = 16.0
     Generated by new atomic code, or converted to UPF format
     Using radial grid of  887 points,  6 beta functions with:
                l(1) =   0
                l(2) =   0
                l(3) =   1
                l(4) =   1
                l(5) =   2
                l(6) =   2
     Q(r) pseudized with  8 coefficients,  rinner =    1.130   1.130   1.130
                                                       1.130   1.130

     vdW kernel table read from file vdW_kernel_table
     MD5 check sum: 095c7af220d748ca6e76c0b4c6cfb241

     atomic species   valence    mass     pseudopotential
        Co1           17.00    58.93319     Co( 1.00)
        Pd1           16.00   106.42000     Pd( 1.00)

     Starting magnetic structure
     atomic species   magnetization
        Co1          0.118
        Pd1          0.125

     No symmetry found

   Cartesian axes

     site n.     atom                  positions (alat units)
         1           Co1 tau(   1) = (   0.0000000   0.0000000  10.0000000  )
         2           Co1 tau(   2) = (   4.0024230   2.3271210  10.0000000  )
         3           Pd1 tau(   3) = (   2.6777382   0.0000000  10.0000000  )
         4           Pd1 tau(   4) = (   1.3246848   2.3271210  10.0000000  )
         5           Co1 tau(   5) = (   5.3554764   3.1138242  12.1901119  )
         6           Co1 tau(   6) = (   1.3530534   0.7867032  12.1901119  )
         7           Pd1 tau(   7) = (   2.6777382   3.1138242  12.1901119  )
         8           Pd1 tau(   8) = (   4.0307916   0.7867032  12.1901119  )
         9           Co1 tau(   9) = (   2.7061068   1.5734064  14.3802238  )
        10           Co1 tau(  10) = (   6.7085298   3.9005273  14.3802238  )
        11           Pd1 tau(  11) = (   5.3838450   1.5734064  14.3802238  )
        12           Pd1 tau(  12) = (   4.0307916   3.9005273  14.3802238  )

     number of k points=    40  Fermi-Dirac smearing, width (Ry)=  0.0110
                       cart. coord. in units 2pi/alat
        k(    1) = (   0.0000000   0.0000000   0.0000000), wk =   0.0277778
        k(    2) = (   0.0000000   0.0358096   0.0000000), wk =   0.0555556
        k(    3) = (   0.0000000   0.0716193   0.0000000), wk =   0.0555556
        k(    4) = (   0.0000000  -0.1074289   0.0000000), wk =   0.0277778
        k(    5) = (   0.0311208  -0.0177151   0.0000000), wk =   0.0555556
        k(    6) = (   0.0311208   0.0180945   0.0000000), wk =   0.0555556
        k(    7) = (   0.0311208   0.0539041   0.0000000), wk =   0.0555556
        k(    8) = (   0.0311208  -0.1251440   0.0000000), wk =   0.0555556
        k(    9) = (   0.0311208  -0.0893344   0.0000000), wk =   0.0555556
        k(   10) = (   0.0311208  -0.0535248   0.0000000), wk =   0.0555556
        k(   11) = (   0.0622416  -0.0354303   0.0000000), wk =   0.0555556
        k(   12) = (   0.0622416   0.0003794   0.0000000), wk =   0.0555556
        k(   13) = (   0.0622416   0.0361890   0.0000000), wk =   0.0555556
        k(   14) = (   0.0622416  -0.1428591   0.0000000), wk =   0.0555556
        k(   15) = (   0.0622416  -0.1070495   0.0000000), wk =   0.0555556
        k(   16) = (   0.0622416  -0.0712399   0.0000000), wk =   0.0555556
        k(   17) = (  -0.0933624   0.0531454   0.0000000), wk =   0.0277778
        k(   18) = (  -0.0933624   0.0889550   0.0000000), wk =   0.0555556
        k(   19) = (  -0.0933624   0.1247646   0.0000000), wk =   0.0555556
        k(   20) = (  -0.0933624  -0.0542835   0.0000000), wk =   0.0277778
        k(   21) = (   0.0000000   0.0000000   0.0000000), wk =   0.0277778
        k(   22) = (   0.0000000   0.0358096   0.0000000), wk =   0.0555556
        k(   23) = (   0.0000000   0.0716193   0.0000000), wk =   0.0555556
        k(   24) = (   0.0000000  -0.1074289   0.0000000), wk =   0.0277778
        k(   25) = (   0.0311208  -0.0177151   0.0000000), wk =   0.0555556
        k(   26) = (   0.0311208   0.0180945   0.0000000), wk =   0.0555556
        k(   27) = (   0.0311208   0.0539041   0.0000000), wk =   0.0555556
        k(   28) = (   0.0311208  -0.1251440   0.0000000), wk =   0.0555556
        k(   29) = (   0.0311208  -0.0893344   0.0000000), wk =   0.0555556
        k(   30) = (   0.0311208  -0.0535248   0.0000000), wk =   0.0555556
        k(   31) = (   0.0622416  -0.0354303   0.0000000), wk =   0.0555556
        k(   32) = (   0.0622416   0.0003794   0.0000000), wk =   0.0555556
        k(   33) = (   0.0622416   0.0361890   0.0000000), wk =   0.0555556
        k(   34) = (   0.0622416  -0.1428591   0.0000000), wk =   0.0555556
        k(   35) = (   0.0622416  -0.1070495   0.0000000), wk =   0.0555556
        k(   36) = (   0.0622416  -0.0712399   0.0000000), wk =   0.0555556
        k(   37) = (  -0.0933624   0.0531454   0.0000000), wk =   0.0277778
        k(   38) = (  -0.0933624   0.0889550   0.0000000), wk =   0.0555556
        k(   39) = (  -0.0933624   0.1247646   0.0000000), wk =   0.0555556
        k(   40) = (  -0.0933624  -0.0542835   0.0000000), wk =   0.0277778

     Largest allocated arrays     est. size (Mb)     dimensions
     Largest temporary arrays     est. size (Mb)     dimensions

     Check: negative/imaginary core charge=   -0.000003    0.000000

     Initial potential from superposition of free atoms
     Check: negative starting charge=(component1):   -0.253137
     Check: negative starting charge=(component2):   -0.196881

     starting charge  188.99992, renormalised to  198.00000

     negative rho (up, down):  2.652E-01 2.063E-01

     *
     * You are using vdW-DF for exchange-correlation in this calculation.
     * Please cite the following three references that made this development
     * possible:
     *
     *   M. Dion, H. Rydberg, E. Schroder, D. C. Langreth, and
     *   B. I. Lundqvist, Phys. Rev. Lett. 92, 246401 (2004).
     *
     *   T. Thonhauser, V. R. Cooper, S. Li, A. Puzder, P. Hyldgaard, and
     *   D. C. Langreth, Phys. Rev. B 76, 125112 (2007).
     *
     *   G. Roman-Perez and J. M. Soler, Phys. Rev. Lett. 103, 096102 (2009).
     *
     *
     * If you are using vdW-DF2, please also cite:
     *
     *   K. Lee, E. D. Murray, L. Kong, B. I. Lundqvist, and
     *   D. C. Langreth, Phys. Rev. B 82, 081101(R) (2010).
     *
     *
     * If you are calculating the stress with vdW-DF, please also cite:
     *
     *   R. Sabatini, E. Kucukbenli, B. Kolb, T. Thonhauser, and
     *   S. de Gironcoli, J. Phys.: Condens. Matter 24, 424209 (2012).
     *

     Carrying out vdW-DF run using the following parameters:

     Nqs =      20    Nr_points =    1024   r_max =   100.000
     q_mesh =
               0.00001000     0.04494208     0.09755937     0.15916263
               0.23128650     0.31572767     0.41458969     0.53033537
               0.66584808     0.82450364     1.01025438     1.22772762
               1.48234092     1.78043706     2.12944203     2.53805004
               3.01644009     3.57652955     4.23227104     5.00000000

     Gradients computed in reciprocal space

     Adding external electric field

     Computed dipole along edir(3) :
        Dipole               -0.0000 Ry au,         -0.0000 Debye
        Dipole field         -0.0000 Ry au

        Potential amp.        0.0000 Ry
        Total length         44.9201 bohr

[...]

     Starting wfc are  150 randomized atomic wfcs

     Self-consistent Calculation

     iteration #  1     ecut=    36.75 Ry     beta=0.10
     Davidson diagonalization with overlap
     ethr =  1.00E-02,  avg # of iterations =  7.0

[...]

     Magnetic moment per site:
     atom:    1    charge:    8.4486    magn:    0.9892    constr:    0.0000
     atom:    2    charge:    8.4486    magn:    0.9892    constr:    0.0000
     atom:    3    charge:    3.3788    magn:    0.4009    constr:    0.0000
     atom:    4    charge:    3.3788    magn:    0.4009    constr:    0.0000
     atom:    5    charge:    8.4302    magn:    0.9733    constr:    0.0000
     atom:    6    charge:    8.4302    magn:    0.9733    constr:    0.0000
[...]
     Q(r) pseudized with  8 coefficients,  rinner =    1.200   1.200   1.200
                                                       1.200   1.200

     PseudoPot. # 2 for Pd read from file:
     /afs/slac.stanford.edu/u/if/mamunm/psp/gbrv1.5pbe/Pd.UPF
     MD5 check sum: 2d733d2bc2cbfd217af676df1668a4bc
     Pseudo is Ultrasoft + core correction, Zval = 16.0
     Generated by new atomic code, or converted to UPF format
     Using radial grid of  887 points,  6 beta functions with:
                l(1) =   0
                l(2) =   0
                l(3) =   1
                l(4) =   1
                l(5) =   2
                l(6) =   2
     Q(r) pseudized with  8 coefficients,  rinner =    1.130   1.130   1.130
                                                       1.130   1.130

     vdW kernel table read from file vdW_kernel_table
     MD5 check sum: 095c7af220d748ca6e76c0b4c6cfb241

     atomic species   valence    mass     pseudopotential
        Co1           17.00    58.93319     Co( 1.00)
        Pd1           16.00   106.42000     Pd( 1.00)

     Starting magnetic structure
     atomic species   magnetization
        Co1          0.118
        Pd1          0.125

     No symmetry found

   Cartesian axes

     site n.     atom                  positions (alat units)
         1           Co1 tau(   1) = (   0.0000000   0.0000000  10.0000000  )
         2           Co1 tau(   2) = (   4.0024230   2.3271210  10.0000000  )
         3           Pd1 tau(   3) = (   2.6777382   0.0000000  10.0000000  )
         4           Pd1 tau(   4) = (   1.3246848   2.3271210  10.0000000  )
         5           Co1 tau(   5) = (   5.3554764   3.1138242  12.1901119  )
         6           Co1 tau(   6) = (   1.3530534   0.7867032  12.1901119  )
         7           Pd1 tau(   7) = (   2.6777382   3.1138242  12.1901119  )
         8           Pd1 tau(   8) = (   4.0307916   0.7867032  12.1901119  )
         9           Co1 tau(   9) = (   2.6801532   1.5583152  14.2669052  )
        10           Co1 tau(  10) = (   6.6826875   3.8855032  14.2670280  )
        11           Pd1 tau(  11) = (   5.4241199   1.5967828  14.4089633  )
        12           Pd1 tau(  12) = (   4.0710305   3.9239640  14.4089636  )

     number of k points=    40  Fermi-Dirac smearing, width (Ry)=  0.0110
                       cart. coord. in units 2pi/alat
        k(    1) = (   0.0000000   0.0000000   0.0000000), wk =   0.0277778
        k(    2) = (   0.0000000   0.0358096   0.0000000), wk =   0.0555556
        k(    3) = (   0.0000000   0.0716193   0.0000000), wk =   0.0555556
        k(    4) = (   0.0000000  -0.1074289   0.0000000), wk =   0.0277778
        k(    5) = (   0.0311208  -0.0177151   0.0000000), wk =   0.0555556
        k(    6) = (   0.0311208   0.0180945   0.0000000), wk =   0.0555556
        k(    7) = (   0.0311208   0.0539041   0.0000000), wk =   0.0555556
        k(    8) = (   0.0311208  -0.1251440   0.0000000), wk =   0.0555556
        k(    9) = (   0.0311208  -0.0893344   0.0000000), wk =   0.0555556
        k(   10) = (   0.0311208  -0.0535248   0.0000000), wk =   0.0555556
        k(   11) = (   0.0622416  -0.0354303   0.0000000), wk =   0.0555556
        k(   12) = (   0.0622416   0.0003794   0.0000000), wk =   0.0555556
        k(   13) = (   0.0622416   0.0361890   0.0000000), wk =   0.0555556
        k(   14) = (   0.0622416  -0.1428591   0.0000000), wk =   0.0555556
        k(   15) = (   0.0622416  -0.1070495   0.0000000), wk =   0.0555556
        k(   16) = (   0.0622416  -0.0712399   0.0000000), wk =   0.0555556
        k(   17) = (  -0.0933624   0.0531454   0.0000000), wk =   0.0277778
        k(   18) = (  -0.0933624   0.0889550   0.0000000), wk =   0.0555556
        k(   19) = (  -0.0933624   0.1247646   0.0000000), wk =   0.0555556
        k(   20) = (  -0.0933624  -0.0542835   0.0000000), wk =   0.0277778
        k(   21) = (   0.0000000   0.0000000   0.0000000), wk =   0.0277778
        k(   22) = (   0.0000000   0.0358096   0.0000000), wk =   0.0555556
        k(   23) = (   0.0000000   0.0716193   0.0000000), wk =   0.0555556
        k(   24) = (   0.0000000  -0.1074289   0.0000000), wk =   0.0277778
        k(   25) = (   0.0311208  -0.0177151   0.0000000), wk =   0.0555556
        k(   26) = (   0.0311208   0.0180945   0.0000000), wk =   0.0555556
        k(   27) = (   0.0311208   0.0539041   0.0000000), wk =   0.0555556
        k(   28) = (   0.0311208  -0.1251440   0.0000000), wk =   0.0555556
        k(   29) = (   0.0311208  -0.0893344   0.0000000), wk =   0.0555556
        k(   30) = (   0.0311208  -0.0535248   0.0000000), wk =   0.0555556
        k(   31) = (   0.0622416  -0.0354303   0.0000000), wk =   0.0555556
        k(   32) = (   0.0622416   0.0003794   0.0000000), wk =   0.0555556
        k(   33) = (   0.0622416   0.0361890   0.0000000), wk =   0.0555556
        k(   34) = (   0.0622416  -0.1428591   0.0000000), wk =   0.0555556
        k(   35) = (   0.0622416  -0.1070495   0.0000000), wk =   0.0555556
        k(   36) = (   0.0622416  -0.0712399   0.0000000), wk =   0.0555556
        k(   37) = (  -0.0933624   0.0531454   0.0000000), wk =   0.0277778
        k(   38) = (  -0.0933624   0.0889550   0.0000000), wk =   0.0555556
        k(   39) = (  -0.0933624   0.1247646   0.0000000), wk =   0.0555556
        k(   40) = (  -0.0933624  -0.0542835   0.0000000), wk =   0.0277778

     Largest allocated arrays     est. size (Mb)     dimensions
     Largest temporary arrays     est. size (Mb)     dimensions

     Check: negative/imaginary core charge=   -0.000003    0.000000

     Initial potential from superposition of free atoms
     Check: negative starting charge=(component1):   -0.250051
     Check: negative starting charge=(component2):   -0.194481

     starting charge  188.99992, renormalised to  198.00000

[...]

     *
     * You are using vdW-DF for exchange-correlation in this calculation.
     * Please cite the following three references that made this development
     * possible:
     *
     *   M. Dion, H. Rydberg, E. Schroder, D. C. Langreth, and
     *   B. I. Lundqvist, Phys. Rev. Lett. 92, 246401 (2004).
     *
     *   T. Thonhauser, V. R. Cooper, S. Li, A. Puzder, P. Hyldgaard, and
     *   D. C. Langreth, Phys. Rev. B 76, 125112 (2007).
     *
     *   G. Roman-Perez and J. M. Soler, Phys. Rev. Lett. 103, 096102 (2009).
     *
     *
     * If you are using vdW-DF2, please also cite:
     *
     *   K. Lee, E. D. Murray, L. Kong, B. I. Lundqvist, and
     *   D. C. Langreth, Phys. Rev. B 82, 081101(R) (2010).
     *
     *
     * If you are calculating the stress with vdW-DF, please also cite:
     *
     *   R. Sabatini, E. Kucukbenli, B. Kolb, T. Thonhauser, and
     *   S. de Gironcoli, J. Phys.: Condens. Matter 24, 424209 (2012).
     *

     Carrying out vdW-DF run using the following parameters:

     Nqs =      20    Nr_points =    1024   r_max =   100.000
     q_mesh =
               0.00001000     0.04494208     0.09755937     0.15916263
               0.23128650     0.31572767     0.41458969     0.53033537
               0.66584808     0.82450364     1.01025438     1.22772762
               1.48234092     1.78043706     2.12944203     2.53805004
               3.01644009     3.57652955     4.23227104     5.00000000

     Gradients computed in reciprocal space

[...]

     Starting wfc are  150 randomized atomic wfcs

     Self-consistent Calculation

[...]

     total energy              =   -2995.78177635 Ry
     Harris-Foulkes estimate   =   -2995.78177570 Ry
     estimated scf accuracy    <       0.00000124 Ry

[...]

     iteration # 35     ecut=    36.75 Ry     beta=0.10
     Davidson diagonalization with overlap
     ethr =  6.24E-10,  avg # of iterations =  2.0

[...]

     negative rho (up, down):  2.350E-01 2.319E-01

[...]

     Adding external electric field

     Computed dipole along edir(3) :
        Dipole               -0.0045 Ry au,         -0.0116 Debye
        Dipole field         -0.0000 Ry au

        Potential amp.        0.0013 Ry
        Total length         44.9201 bohr

     Magnetic moment per site:
     atom:    1    charge:    8.2972    magn:    1.1042    constr:    0.0000
     atom:    2    charge:    8.2972    magn:    1.1042    constr:    0.0000
     atom:    3    charge:    3.3096    magn:    0.0694    constr:    0.0000
     atom:    4    charge:    3.3096    magn:    0.0694    constr:    0.0000
     atom:    5    charge:    8.2900    magn:    1.1341    constr:    0.0000
     atom:    6    charge:    8.2900    magn:    1.1341    constr:    0.0000
     atom:    7    charge:    3.3084    magn:    0.0878    constr:    0.0000
     atom:    8    charge:    3.3084    magn:    0.0878    constr:    0.0000
     atom:    9    charge:    8.2962    magn:    1.1060    constr:    0.0000
     atom:   10    charge:    8.2960    magn:    1.1061    constr:    0.0000
     atom:   11    charge:    3.3062    magn:    0.0685    constr:    0.0000
     atom:   12    charge:    3.3062    magn:    0.0685    constr:    0.0000

     End of self-consistent calculation

 ------ SPIN UP ------------

[...]

 ------ SPIN DOWN ----------

[...]

          k = 0.0622-0.0712 0.0000 ( 15450 PWs)   bands (ev):

[...]

          k =-0.0934-0.0543 0.0000 ( 15418 PWs)   bands (ev):

   -92.9516 -92.9450 -92.8025 -92.7959 -92.7660 -92.7595 -56.3449 -56.3257
   -56.3182 -56.2979 -56.2904 -56.2674 -56.1879 -56.1752 -56.1678 -56.1578
   -56.1569 -56.1499 -56.1349 -56.1276 -56.1192 -56.1123 -56.1105 -56.0807
   -49.4290 -49.3339 -49.3074 -49.2894 -49.2621 -49.1607 -49.0689 -49.0403
   -48.9689 -48.9424 -48.9317 -48.9052 -48.8329 -48.8076 -48.8014 -48.7886
   -48.7725 -48.7631  -4.5810  -4.4297  -3.6552  -3.5771  -3.3007  -3.2766
    -3.1916  -3.0513  -2.8890  -2.8725  -2.6186  -2.5695  -2.5312  -2.5212
    -2.4586  -2.3398  -1.8897  -1.7263  -1.7014  -1.6437  -1.6032  -1.5363
    -1.1704  -1.1609  -1.1467  -1.0058  -0.9643  -0.7883  -0.5721  -0.5487
    -0.4626  -0.4149  -0.3854  -0.3696  -0.2661  -0.2433  -0.1647  -0.0854
    -0.0438   0.0563   0.1221   0.1476   0.1511   0.1543   0.2186   0.2296
     0.4692   0.5662   0.7681   0.8163   0.8845   1.0434   1.0971   1.1978
     1.2309   1.2373   1.2837   1.3195   1.3545   1.3666   1.5996   1.6436
     1.6523   1.7724   2.8667   3.0419   3.0724   3.3178   3.9807   4.1460
     5.0233   5.1099   6.0707   6.1310   6.8508   6.8568   7.3654   7.3981
     7.5515   7.5546   8.4962   8.5986   8.6516   8.6899   9.1530   9.1939
     9.4735

     the Fermi energy is     0.9955 ev

!    total energy              =   -2995.78177732 Ry
     Harris-Foulkes estimate   =   -2995.78177701 Ry
     estimated scf accuracy    <       0.00000047 Ry

     The total energy is the sum of the following terms:

     one-electron contribution =  -24831.95847550 Ry
     hartree contribution      =   12442.14981820 Ry
     xc contribution           =    -397.70089788 Ry
     ewald contribution        =    9791.81949714 Ry
     electric field correction =       0.00000006 Ry
     smearing contrib. (-TS)   =      -0.09171934 Ry

     total magnetization       =    14.18 Bohr mag/cell
     absolute magnetization    =    15.55 Bohr mag/cell

     convergence has been achieved in  35 iterations

 BEEF-vdW xc energy contributions
           1 :   -348.404386176287
           2 :    317.067630687394
           3 :   -263.758122336935
           4 :    202.898260814426
           5 :   -147.979708011380
           6 :    106.895482806788
           7 :   -80.5430491094971
           8 :    64.6946137829148
           9 :   -53.5890403624692
          10 :    43.1333352059382
          11 :   -32.2724523204322
          12 :    22.3215899610095
          13 :   -15.1954694690134
          14 :    11.8174890787924
          15 :   -11.5879746232375
          16 :    12.9329050040822
          17 :   -14.3207425562778
          18 :    14.9907106867066
          19 :   -15.0268270413280
          20 :    14.9082158971286
          21 :   -14.9841077928302
          22 :    15.2343421162634
          23 :   -15.3932975322766
          24 :    15.2277926248534
          25 :   -14.7198866173198
          26 :    14.0319914390290
          27 :   -13.3395654841529
          28 :    12.6922470798704
          29 :   -12.0189481445279
          30 :    11.2422216473764
          31 :   -31.5477170953175
          32 :   -22.6123140982166

     Forces acting on atoms (Ry/au):

     negative rho (up, down):  2.350E-01 2.319E-01
     atom    1 type  1   force =     0.01038249    0.00603664    0.01571792
     atom    2 type  1   force =     0.01037511    0.00603246    0.01570596
     atom    3 type  2   force =    -0.01479384   -0.00860137   -0.00859445
     atom    4 type  2   force =    -0.01479368   -0.00860166   -0.00859436
     atom    5 type  1   force =    -0.00153976   -0.00089529   -0.00064820
     atom    6 type  1   force =    -0.00159300   -0.00092621   -0.00070815
     atom    7 type  2   force =     0.00739274    0.00431432   -0.00586246
     atom    8 type  2   force =     0.00740667    0.00429050   -0.00586263
     atom    9 type  1   force =    -0.00043412   -0.00025231    0.00006393
     atom   10 type  1   force =    -0.00045637   -0.00026550    0.00005512
     atom   11 type  2   force =    -0.00098854   -0.00053921   -0.00063633
     atom   12 type  2   force =    -0.00095770   -0.00059238   -0.00063635

     Total force =     0.041738     Total SCF correction =     0.002239

     entering subroutine stress ...

     negative rho (up, down):  2.350E-01 2.319E-01
          total   stress  (Ry/bohr**3)                   (kbar)     P=  -12.07
  -0.00010886  -0.00001609   0.00000587        -16.01     -2.37      0.86
  -0.00001609  -0.00009055   0.00000341         -2.37    -13.32      0.50
   0.00000587   0.00000341  -0.00004676          0.86      0.50     -6.88

 !ASE

     Writing output data file calc.save

     General routines

     Parallel routines

   This run was terminated on:   9:22:16  19Dec2018

   JOB DONE.
Job  /afs/slac/g/suncat/bin/suncat-tsmpirun -x LD_LIBRARY_PATH -wdir /scratch/qe529691_KWx9f pw.x -in pw.inp

TID   HOST_NAME   COMMAND_LINE            STATUS            TERMINATION_TIME
00000 suncat0162 pw.x -in pw.inp   Done                     12/19/2018 09:22:16
00001 suncat0162 pw.x -in pw.inp   Done                     12/19/2018 09:22:16
00002 suncat0162 pw.x -in pw.inp   Done                     12/19/2018 09:22:16
00003 suncat0162 pw.x -in pw.inp   Done                     12/19/2018 09:22:16
00004 suncat0162 pw.x -in pw.inp   Done                     12/19/2018 09:22:16
00005 suncat0162 pw.x -in pw.inp   Done                     12/19/2018 09:22:16
00006 suncat0162 pw.x -in pw.inp   Done                     12/19/2018 09:22:16
00007 suncat0162 pw.x -in pw.inp   Done                     12/19/2018 09:22:16
00008 suncat0161 pw.x -in pw.inp   Done                     12/19/2018 09:22:16
00009 suncat0161 pw.x -in pw.inp   Done                     12/19/2018 09:22:16
00010 suncat0161 pw.x -in pw.inp   Done                     12/19/2018 09:22:16
00011 suncat0161 pw.x -in pw.inp   Done                     12/19/2018 09:22:16
00012 suncat0161 pw.x -in pw.inp   Done                     12/19/2018 09:22:16
00013 suncat0161 pw.x -in pw.inp   Done                     12/19/2018 09:22:16
00014 suncat0161 pw.x -in pw.inp   Done                     12/19/2018 09:22:16
00015 suncat0161 pw.x -in pw.inp   Done                     12/19/2018 09:22:16
00016 suncat0159 pw.x -in pw.inp   Done                     12/19/2018 09:22:16
00017 suncat0159 pw.x -in pw.inp   Done                     12/19/2018 09:22:16
00018 suncat0159 pw.x -in pw.inp   Done                     12/19/2018 09:22:16
00019 suncat0159 pw.x -in pw.inp   Done                     12/19/2018 09:22:16
00020 suncat0159 pw.x -in pw.inp   Done                     12/19/2018 09:22:16
00021 suncat0159 pw.x -in pw.inp   Done                     12/19/2018 09:22:16
00022 suncat0159 pw.x -in pw.inp   Done                     12/19/2018 09:22:16
00023 suncat0159 pw.x -in pw.inp   Done                     12/19/2018 09:22:16
00024 suncat0156 pw.x -in pw.inp   Done                     12/19/2018 09:22:16
00025 suncat0156 pw.x -in pw.inp   Done                     12/19/2018 09:22:16
00026 suncat0156 pw.x -in pw.inp   Done                     12/19/2018 09:22:16
00027 suncat0156 pw.x -in pw.inp   Done                     12/19/2018 09:22:16
00028 suncat0156 pw.x -in pw.inp   Done                     12/19/2018 09:22:16
00029 suncat0156 pw.x -in pw.inp   Done                     12/19/2018 09:22:16
00030 suncat0156 pw.x -in pw.inp   Done                     12/19/2018 09:22:16
00031 suncat0156 pw.x -in pw.inp   Done                     12/19/2018 09:22:16