     Program PWSCF v.5.1rc2 (svn rev. 11289) starts on 25Dec2018 at  1: 0:26

     Current dimensions of program PWSCF are:
     Max number of different atomic species (ntypx) = 10
     Max number of k-points (npk) =  40000
     Max angular momentum in pseudopotentials (lmaxx) =  3
     Presently stress not available with electric field

     IMPORTANT: XC functional enforced from input :
     Exchange-correlation      = BEEF-VDW ( 1  4 27 13 2)
     Any further DFT definition will be discarded
     Please, verify this is what you really want

     Subspace diagonalization in iterative solution of the eigenvalue problem:
     a serial algorithm will be used

     Found symmetry operation: I + ( -0.5000 -0.5000  0.0000)
     This is a supercell, fractional translations are disabled

     bravais-lattice index     =            0
     lattice parameter (alat)  =       1.8897  a.u.
     unit-cell volume          =    6586.3667 (a.u.)^3
     number of atoms/cell      =           12
     number of atomic types    =            2
     number of electrons       =       162.00
     number of Kohn-Sham states=          111
     kinetic-energy cutoff     =      36.7493  Ry
     charge density cutoff     =     367.4932  Ry
     convergence threshold     =      1.0E-06
     mixing beta               =       0.1000
     number of iterations used =           10  plain     mixing
     Exchange-correlation      = BEEF-VDW ( 1  4 27 13 2)
     nstep                     =           50

     celldm(1)=   1.889726  celldm(2)=   0.000000  celldm(3)=   0.000000
     celldm(4)=   0.000000  celldm(5)=   0.000000  celldm(6)=   0.000000

     crystal axes: (cart. coord. in units of alat)
               a(1) = (   6.410907   0.000000   0.000000 )
               a(2) = (   2.176088   6.030287   0.000000 )
               a(3) = (   0.000000   0.000000  25.245958 )

     reciprocal axes: (cart. coord. in units 2 pi/alat)
               b(1) = (  0.155984 -0.056288  0.000000 )
               b(2) = (  0.000000  0.165830  0.000000 )
               b(3) = (  0.000000  0.000000  0.039610 )

     PseudoPot. # 1 for La read from file:
     /afs/slac.stanford.edu/u/if/mamunm/psp/gbrv1.5pbe/La.UPF
     MD5 check sum: 5937b0c7494ba0601a847275249473aa
     Pseudo is Ultrasoft + core correction, Zval = 11.0
     Generated by new atomic code, or converted to UPF format
     Using radial grid of  995 points,  8 beta functions with:
                l(1) =   0
                l(2) =   0
                l(3) =   1
                l(4) =   1
                l(5) =   2
                l(6) =   2
                l(7) =   3
                l(8) =   3
     Q(r) pseudized with  8 coefficients,  rinner =    1.700   1.700   1.700
                                                       1.700   1.700   1.700
                                                       1.700

     PseudoPot. # 2 for Pd read from file:
     /afs/slac.stanford.edu/u/if/mamunm/psp/gbrv1.5pbe/Pd.UPF
     MD5 check sum: 2d733d2bc2cbfd217af676df1668a4bc
     Pseudo is Ultrasoft + core correction, Zval = 16.0
     Generated by new atomic code, or converted to UPF format
     Using radial grid of  887 points,  6 beta functions with:
                l(1) =   0
                l(2) =   0
                l(3) =   1
                l(4) =   1
                l(5) =   2
                l(6) =   2
     Q(r) pseudized with  8 coefficients,  rinner =    1.130   1.130   1.130
                                                       1.130   1.130

     vdW kernel table read from file vdW_kernel_table
     MD5 check sum: 095c7af220d748ca6e76c0b4c6cfb241

     atomic species   valence    mass     pseudopotential
        La1           11.00   138.90547     La( 1.00)
        Pd1           16.00   106.42000     Pd( 1.00)

     No symmetry found

   Cartesian axes

     site n.     atom                  positions (alat units)
         1           La1 tau(   1) = (   0.0000000   0.0000000  10.0000000  )
         2           La1 tau(   2) = (   4.2934974   3.0151437  10.0000000  )
         3           Pd1 tau(   3) = (   3.2054534   0.0000000  10.0000000  )
         4           Pd1 tau(   4) = (   1.0880441   3.0151437  10.0000000  )
         5           La1 tau(   5) = (   6.4109067   4.5021116  12.6229788  )
         6           La1 tau(   6) = (   2.1174093   1.4869679  12.6229788  )
         7           Pd1 tau(   7) = (   3.2054534   4.5021116  12.6229788  )
         8           Pd1 tau(   8) = (   5.3228626   1.4869679  12.6229788  )
         9           La1 tau(   9) = (   4.2348185   2.9739359  15.2459575  )
        10           La1 tau(  10) = (   8.5283160   5.9890795  15.2459575  )
        11           Pd1 tau(  11) = (   7.4402719   2.9739359  15.2459575  )
        12           Pd1 tau(  12) = (   5.3228626   5.9890795  15.2459575  )

     number of k points=    20  Fermi-Dirac smearing, width (Ry)=  0.0110
                       cart. coord. in units 2pi/alat
        k(    1) = (   0.0000000   0.0000000   0.0000000), wk =   0.0555556
        k(    2) = (   0.0000000   0.0276383   0.0000000), wk =   0.1111111
        k(    3) = (   0.0000000   0.0552765   0.0000000), wk =   0.1111111
        k(    4) = (   0.0000000  -0.0829148   0.0000000), wk =   0.0555556
        k(    5) = (   0.0259974  -0.0093814   0.0000000), wk =   0.1111111
        k(    6) = (   0.0259974   0.0182569   0.0000000), wk =   0.1111111
        k(    7) = (   0.0259974   0.0458951   0.0000000), wk =   0.1111111
        k(    8) = (   0.0259974  -0.0922962   0.0000000), wk =   0.1111111
        k(    9) = (   0.0259974  -0.0646579   0.0000000), wk =   0.1111111
        k(   10) = (   0.0259974  -0.0370197   0.0000000), wk =   0.1111111
        k(   11) = (   0.0519947  -0.0187628   0.0000000), wk =   0.1111111
        k(   12) = (   0.0519947   0.0088755   0.0000000), wk =   0.1111111
        k(   13) = (   0.0519947   0.0365137   0.0000000), wk =   0.1111111
        k(   14) = (   0.0519947  -0.1016776   0.0000000), wk =   0.1111111
        k(   15) = (   0.0519947  -0.0740393   0.0000000), wk =   0.1111111
        k(   16) = (   0.0519947  -0.0464011   0.0000000), wk =   0.1111111
        k(   17) = (  -0.0779921   0.0281442   0.0000000), wk =   0.0555556
        k(   18) = (  -0.0779921   0.0557825   0.0000000), wk =   0.1111111
        k(   19) = (  -0.0779921   0.0834207   0.0000000), wk =   0.1111111
        k(   20) = (  -0.0779921  -0.0547706   0.0000000), wk =   0.0555556

     Largest allocated arrays     est. size (Mb)     dimensions
     Largest temporary arrays     est. size (Mb)     dimensions

     Initial potential from superposition of free atoms
     Check: negative starting charge=   -0.874680

     starting charge  158.80755, renormalised to  162.00000

     negative rho (up, down):  8.923E-01 0.000E+00

     *
     * You are using vdW-DF for exchange-correlation in this calculation.
     * Please cite the following three references that made this development
     * possible:
     *
     *   M. Dion, H. Rydberg, E. Schroder, D. C. Langreth, and
     *   B. I. Lundqvist, Phys. Rev. Lett. 92, 246401 (2004).
     *
     *   T. Thonhauser, V. R. Cooper, S. Li, A. Puzder, P. Hyldgaard, and
     *   D. C. Langreth, Phys. Rev. B 76, 125112 (2007).
     *
     *   G. Roman-Perez and J. M. Soler, Phys. Rev. Lett. 103, 096102 (2009).
     *
     *
     * If you are using vdW-DF2, please also cite:
     *
     *   K. Lee, E. D. Murray, L. Kong, B. I. Lundqvist, and
     *   D. C. Langreth, Phys. Rev. B 82, 081101(R) (2010).
     *
     *
     * If you are calculating the stress with vdW-DF, please also cite:
     *
     *   R. Sabatini, E. Kucukbenli, B. Kolb, T. Thonhauser, and
     *   S. de Gironcoli, J. Phys.: Condens. Matter 24, 424209 (2012).
     *

     Carrying out vdW-DF run using the following parameters:

     Nqs =      20    Nr_points =    1024   r_max =   100.000
     q_mesh =
               0.00001000     0.04494208     0.09755937     0.15916263
               0.23128650     0.31572767     0.41458969     0.53033537
               0.66584808     0.82450364     1.01025438     1.22772762
               1.48234092     1.78043706     2.12944203     2.53805004
               3.01644009     3.57652955     4.23227104     5.00000000

     Gradients computed in reciprocal space

     Adding external electric field

     Computed dipole along edir(3) :
        Dipole               -0.0000 Ry au,         -0.0000 Debye
        Dipole field         -0.0000 Ry au

        Potential amp.        0.0000 Ry
        Total length         46.5152 bohr

     Starting wfc are  192 randomized atomic wfcs

     Self-consistent Calculation

     iteration #  1     ecut=    36.75 Ry     beta=0.10
     Davidson diagonalization with overlap
     ethr =  1.00E-02,  avg # of iterations =  2.0

[...]

     total energy              =   -1815.00927646 Ry
     Harris-Foulkes estimate   =   -1826.45612992 Ry
     estimated scf accuracy    <      63.35866432 Ry

[...]

     iteration #  8     ecut=    36.75 Ry     beta=0.10
     Davidson diagonalization with overlap
     c_bands:  1 eigenvalues not converged
     ethr =  3.51E-05,  avg # of iterations = 12.6

[...]

     End of self-consistent calculation

          k = 0.0000 0.0000 0.0000 ( 24839 PWs)   bands (ev):

   -48.4362 -48.4357 -48.4251 -48.4196 -48.4191 -48.4189 -48.1542 -48.1542
   -48.1537 -48.1537 -48.0771 -48.0770 -48.0709 -48.0709 -48.0108 -48.0107
   -48.0103 -48.0102 -31.6128 -31.6067 -31.5327 -31.5326 -31.1396 -31.0686
   -15.5507 -15.5397 -15.3666 -15.3145 -15.2916 -15.2552 -15.2197 -15.1801
   -15.1643 -15.1430 -15.0643 -14.7488 -14.7461 -14.7045 -14.6579 -14.5564
   -14.5344 -14.3351  -2.1850  -1.8255  -1.7359  -1.6698  -1.5504  -1.5303
    -1.4421  -1.4213  -1.3916  -1.3175  -1.2181  -1.1909  -1.1413  -1.0912
    -1.0620  -1.0399  -0.9167  -0.9057  -0.8741  -0.7452  -0.7346  -0.6899
    -0.6236  -0.5628  -0.5441  -0.3036  -0.2113  -0.1810  -0.1356  -0.1098
    -0.0955   0.0067   0.6094   0.8092   0.9567   1.1014   2.2547   2.2682
     2.4174   2.5447   2.6135   2.6457   2.6828   3.0233   3.0279   3.0741
     3.1082   3.1089   3.1120   3.1284   3.1565   3.1614   3.1920   3.2137
     3.2953   3.3020   3.3041   3.3449   3.3520   3.3589   3.4005   3.4134
     3.4175   3.4401   3.4442   3.4502   3.4760   3.4979   3.4988

[...]

          k =-0.0780 0.0281 0.0000 ( 24778 PWs)   bands (ev):

[...]

     the Fermi energy is     2.0579 ev

!    total energy              =   -1823.45312585 Ry
     Harris-Foulkes estimate   =   -1823.45314436 Ry
     estimated scf accuracy    <       0.00000038 Ry

     The total energy is the sum of the following terms:

     one-electron contribution =   -9850.50502724 Ry
     hartree contribution      =    4956.49882479 Ry
     xc contribution           =    -499.59724329 Ry
     ewald contribution        =    3570.21583830 Ry
     electric field correction =       0.00000000 Ry
     smearing contrib. (-TS)   =      -0.06551842 Ry

     convergence has been achieved in  19 iterations

 BEEF-vdW xc energy contributions
           1 :   -439.745206697943
           2 :    403.325037835289
           3 :   -339.792068718939
[...]
                l(2) =   0
                l(3) =   1
                l(4) =   1
                l(5) =   2
                l(6) =   2
                l(7) =   3
                l(8) =   3
     Q(r) pseudized with  8 coefficients,  rinner =    1.700   1.700   1.700
                                                       1.700   1.700   1.700
                                                       1.700

     PseudoPot. # 2 for Pd read from file:
     /afs/slac.stanford.edu/u/if/mamunm/psp/gbrv1.5pbe/Pd.UPF
     MD5 check sum: 2d733d2bc2cbfd217af676df1668a4bc
     Pseudo is Ultrasoft + core correction, Zval = 16.0
     Generated by new atomic code, or converted to UPF format
     Using radial grid of  887 points,  6 beta functions with:
                l(1) =   0
                l(2) =   0
                l(3) =   1
                l(4) =   1
                l(5) =   2
                l(6) =   2
     Q(r) pseudized with  8 coefficients,  rinner =    1.130   1.130   1.130
                                                       1.130   1.130

     vdW kernel table read from file vdW_kernel_table
     MD5 check sum: 095c7af220d748ca6e76c0b4c6cfb241

     atomic species   valence    mass     pseudopotential
        La1           11.00   138.90547     La( 1.00)
        Pd1           16.00   106.42000     Pd( 1.00)

     No symmetry found

   Cartesian axes

     site n.     atom                  positions (alat units)
         1           La1 tau(   1) = (   0.0000000   0.0000000  10.0000000  )
         2           La1 tau(   2) = (   4.2934974   3.0151437  10.0000000  )
         3           Pd1 tau(   3) = (   3.2054534   0.0000000  10.0000000  )
         4           Pd1 tau(   4) = (   1.0880441   3.0151437  10.0000000  )
         5           La1 tau(   5) = (   6.4109067   4.5021116  12.6229788  )
         6           La1 tau(   6) = (   2.1174093   1.4869679  12.6229788  )
         7           Pd1 tau(   7) = (   3.2054534   4.5021116  12.6229788  )
         8           Pd1 tau(   8) = (   5.3228626   1.4869679  12.6229788  )
         9           La1 tau(   9) = (   4.2517622   2.9858273  15.2712244  )
        10           La1 tau(  10) = (   8.5451063   6.0008703  15.2711862  )
        11           Pd1 tau(  11) = (   7.4507564   2.9813811  15.0240928  )
        12           Pd1 tau(  12) = (   5.3334224   5.9964107  15.0240971  )

     number of k points=    20  Fermi-Dirac smearing, width (Ry)=  0.0110
                       cart. coord. in units 2pi/alat
        k(    1) = (   0.0000000   0.0000000   0.0000000), wk =   0.0555556
        k(    2) = (   0.0000000   0.0276383   0.0000000), wk =   0.1111111
        k(    3) = (   0.0000000   0.0552765   0.0000000), wk =   0.1111111
        k(    4) = (   0.0000000  -0.0829148   0.0000000), wk =   0.0555556
        k(    5) = (   0.0259974  -0.0093814   0.0000000), wk =   0.1111111
        k(    6) = (   0.0259974   0.0182569   0.0000000), wk =   0.1111111
        k(    7) = (   0.0259974   0.0458951   0.0000000), wk =   0.1111111
        k(    8) = (   0.0259974  -0.0922962   0.0000000), wk =   0.1111111
        k(    9) = (   0.0259974  -0.0646579   0.0000000), wk =   0.1111111
        k(   10) = (   0.0259974  -0.0370197   0.0000000), wk =   0.1111111
        k(   11) = (   0.0519947  -0.0187628   0.0000000), wk =   0.1111111
        k(   12) = (   0.0519947   0.0088755   0.0000000), wk =   0.1111111
        k(   13) = (   0.0519947   0.0365137   0.0000000), wk =   0.1111111
        k(   14) = (   0.0519947  -0.1016776   0.0000000), wk =   0.1111111
        k(   15) = (   0.0519947  -0.0740393   0.0000000), wk =   0.1111111
        k(   16) = (   0.0519947  -0.0464011   0.0000000), wk =   0.1111111
        k(   17) = (  -0.0779921   0.0281442   0.0000000), wk =   0.0555556
        k(   18) = (  -0.0779921   0.0557825   0.0000000), wk =   0.1111111
        k(   19) = (  -0.0779921   0.0834207   0.0000000), wk =   0.1111111
        k(   20) = (  -0.0779921  -0.0547706   0.0000000), wk =   0.0555556

     Largest allocated arrays     est. size (Mb)     dimensions
     Largest temporary arrays     est. size (Mb)     dimensions

     Initial potential from superposition of free atoms
     Check: negative starting charge=   -0.873284

     starting charge  158.80755, renormalised to  162.00000

[...]

     *
     * You are using vdW-DF for exchange-correlation in this calculation.
     * Please cite the following three references that made this development
     * possible:
     *
     *   M. Dion, H. Rydberg, E. Schroder, D. C. Langreth, and
     *   B. I. Lundqvist, Phys. Rev. Lett. 92, 246401 (2004).
     *
     *   T. Thonhauser, V. R. Cooper, S. Li, A. Puzder, P. Hyldgaard, and
     *   D. C. Langreth, Phys. Rev. B 76, 125112 (2007).
     *
     *   G. Roman-Perez and J. M. Soler, Phys. Rev. Lett. 103, 096102 (2009).
     *
     *
     * If you are using vdW-DF2, please also cite:
     *
     *   K. Lee, E. D. Murray, L. Kong, B. I. Lundqvist, and
     *   D. C. Langreth, Phys. Rev. B 82, 081101(R) (2010).
     *
     *
     * If you are calculating the stress with vdW-DF, please also cite:
     *
     *   R. Sabatini, E. Kucukbenli, B. Kolb, T. Thonhauser, and
     *   S. de Gironcoli, J. Phys.: Condens. Matter 24, 424209 (2012).
     *

     Carrying out vdW-DF run using the following parameters:

     Nqs =      20    Nr_points =    1024   r_max =   100.000
     q_mesh =
               0.00001000     0.04494208     0.09755937     0.15916263
               0.23128650     0.31572767     0.41458969     0.53033537
               0.66584808     0.82450364     1.01025438     1.22772762
               1.48234092     1.78043706     2.12944203     2.53805004
               3.01644009     3.57652955     4.23227104     5.00000000

     Gradients computed in reciprocal space

[...]

     Starting wfc are  192 randomized atomic wfcs

     Self-consistent Calculation

[...]

     iteration # 12     ecut=    36.75 Ry     beta=0.10
     Davidson diagonalization with overlap
     c_bands:  1 eigenvalues not converged
     ethr =  5.36E-07,  avg # of iterations =  4.7

[...]

     total energy              =   -1823.46186377 Ry
     Harris-Foulkes estimate   =   -1823.46186872 Ry
     estimated scf accuracy    <       0.00000318 Ry

     iteration # 19     ecut=    36.75 Ry     beta=0.10
     Davidson diagonalization with overlap
     ethr =  1.96E-09,  avg # of iterations =  4.7

[...]

     negative rho (up, down):  7.579E-01 0.000E+00

     Adding external electric field

     Computed dipole along edir(3) :
        Dipole                0.0907 Ry au,          0.2306 Debye
        Dipole field          0.0002 Ry au

        Potential amp.       -0.0161 Ry
        Total length         46.5152 bohr

     End of self-consistent calculation

[...]

          k = 0.0520-0.0464 0.0000 ( 24750 PWs)   bands (ev):

[...]

          k =-0.0780-0.0548 0.0000 ( 24770 PWs)   bands (ev):

   -48.3239 -48.3233 -48.3141 -48.3078 -48.3069 -48.3063 -48.2146 -48.2140
   -48.1947 -48.1883 -48.1484 -48.1478 -48.0587 -48.0581 -47.9801 -47.9739
   -47.9096 -47.9092 -31.5591 -31.5279 -31.4882 -31.4570 -30.9490 -30.8704
   -15.5217 -15.4887 -15.3649 -15.2826 -15.2041 -15.2037 -15.1319 -15.1162
   -15.0926 -15.0100 -15.0037 -14.6989 -14.6722 -14.5152 -14.4927 -14.4633
   -14.4282 -14.1756  -1.3272  -1.2547  -1.1502  -1.0512  -1.0204  -1.0201
    -0.9964  -0.8752  -0.8454  -0.7844  -0.7540  -0.7439  -0.7067  -0.7056
    -0.6928  -0.6323  -0.5969  -0.5657  -0.5561  -0.5467  -0.4838  -0.4405
    -0.4173  -0.4113  -0.3396  -0.3323  -0.2934  -0.1496  -0.1391  -0.0941
     0.0641   0.1625   0.5272   0.7825   0.8976   1.0339   1.1230   1.1297
     1.2923   1.5847   1.9883   2.0346   2.1086   2.1588   2.2506   2.2668
     2.6660   2.6707   2.9812   3.1692   3.1848   3.2287   3.2387   3.2574
     3.3154   3.3295   3.4036   3.4510   3.4728   3.4782   3.4861   3.4884
     3.4948   3.4953   3.5035   3.5166   3.5213   3.5319   3.5528

     the Fermi energy is     2.1362 ev

!    total energy              =   -1823.46184459 Ry
     Harris-Foulkes estimate   =   -1823.46186452 Ry
     estimated scf accuracy    <       0.00000061 Ry

     The total energy is the sum of the following terms:

     one-electron contribution =  -10013.51557732 Ry
     hartree contribution      =    5038.35307464 Ry
     xc contribution           =    -499.65386226 Ry
     ewald contribution        =    3651.41845094 Ry
     electric field correction =       0.00001571 Ry
     smearing contrib. (-TS)   =      -0.06394630 Ry

     convergence has been achieved in  19 iterations

 BEEF-vdW xc energy contributions
           1 :   -439.811007563317
           2 :    403.442299211154
           3 :   -339.966211871605
           4 :    264.256097595579
           5 :   -191.564507751482
           6 :    133.042691472263
           7 :   -93.5058040639436
           8 :    71.6903379083788
           9 :   -62.3716542704967
          10 :    59.2027294800026
          11 :   -57.0813562135041
          12 :    53.2612373547940
          13 :   -47.1763327966909
          14 :    39.5424717617175
          15 :   -31.4362927883176
          16 :    23.7657016926728
          17 :   -17.1728703081729
          18 :    12.1499519438381
          19 :   -9.10633565226038
          20 :    8.25553132186315
          21 :   -9.40198459330213
          22 :    11.8235269890812
          23 :   -14.4023264584749
          24 :    15.9920276130709
          25 :   -15.8608129762910
          26 :    13.9885092876070
          27 :   -11.0607896658337
          28 :    8.14974425593601
          29 :   -6.23308883512743
          30 :    5.77970307957673
          31 :   -39.3925721722038
          32 :   -28.5293519434344

     Forces acting on atoms (Ry/au):

     negative rho (up, down):  7.579E-01 0.000E+00
     atom    1 type  1   force =    -0.00141344   -0.00099349   -0.00710748
     atom    2 type  1   force =    -0.00141802   -0.00099484   -0.00708673
     atom    3 type  2   force =    -0.00005828   -0.00004256    0.01699249
     atom    4 type  2   force =    -0.00006082   -0.00004137    0.01699316
     atom    5 type  1   force =     0.00074130    0.00052109   -0.01321750
     atom    6 type  1   force =     0.00074377    0.00052178   -0.01320816
     atom    7 type  2   force =     0.00007636    0.00005775    0.00326434
     atom    8 type  2   force =     0.00008031    0.00005159    0.00326531
     atom    9 type  1   force =     0.00030667    0.00021654    0.00047243
     atom   10 type  1   force =     0.00029651    0.00020739    0.00048348
     atom   11 type  2   force =     0.00035591    0.00024414   -0.00042571
     atom   12 type  2   force =     0.00034972    0.00025199   -0.00042563

     Total force =     0.032525     Total SCF correction =     0.004992
     SCF correction compared to forces is large: reduce conv_thr to get better values

     entering subroutine stress ...

     negative rho (up, down):  7.579E-01 0.000E+00
          total   stress  (Ry/bohr**3)                   (kbar)     P=   -7.26
  -0.00007760  -0.00003702   0.00000314        -11.41     -5.45      0.46
  -0.00003702  -0.00005088   0.00000221         -5.45     -7.48      0.32
   0.00000314   0.00000221  -0.00001951          0.46      0.32     -2.87

 !ASE

     Writing output data file calc.save

     General routines

     Parallel routines

   This run was terminated on:   4:10:10  25Dec2018

   JOB DONE.
Job  /afs/slac/g/suncat/bin/suncat-tsmpirun -x LD_LIBRARY_PATH -wdir /scratch/qe109070_TtNO2 pw.x -in pw.inp

TID   HOST_NAME   COMMAND_LINE            STATUS            TERMINATION_TIME
00000 suncat0094 pw.x -in pw.inp   Done                     12/25/2018 04:10:10
00001 suncat0094 pw.x -in pw.inp   Done                     12/25/2018 04:10:10
00002 suncat0094 pw.x -in pw.inp   Done                     12/25/2018 04:10:10
00003 suncat0094 pw.x -in pw.inp   Done                     12/25/2018 04:10:10
00004 suncat0094 pw.x -in pw.inp   Done                     12/25/2018 04:10:10
00005 suncat0094 pw.x -in pw.inp   Done                     12/25/2018 04:10:10
00006 suncat0094 pw.x -in pw.inp   Done                     12/25/2018 04:10:10
00007 suncat0094 pw.x -in pw.inp   Done                     12/25/2018 04:10:10
00008 suncat0093 pw.x -in pw.inp   Done                     12/25/2018 04:10:10
00009 suncat0093 pw.x -in pw.inp   Done                     12/25/2018 04:10:10
00010 suncat0093 pw.x -in pw.inp   Done                     12/25/2018 04:10:10
00011 suncat0093 pw.x -in pw.inp   Done                     12/25/2018 04:10:10
00012 suncat0093 pw.x -in pw.inp   Done                     12/25/2018 04:10:10
00013 suncat0093 pw.x -in pw.inp   Done                     12/25/2018 04:10:10
00014 suncat0093 pw.x -in pw.inp   Done                     12/25/2018 04:10:10
00015 suncat0093 pw.x -in pw.inp   Done                     12/25/2018 04:10:10
00016 suncat0083 pw.x -in pw.inp   Done                     12/25/2018 04:10:10
00017 suncat0083 pw.x -in pw.inp   Done                     12/25/2018 04:10:10
00018 suncat0083 pw.x -in pw.inp   Done                     12/25/2018 04:10:10
00019 suncat0083 pw.x -in pw.inp   Done                     12/25/2018 04:10:10
00020 suncat0083 pw.x -in pw.inp   Done                     12/25/2018 04:10:10
00021 suncat0083 pw.x -in pw.inp   Done                     12/25/2018 04:10:10
00022 suncat0083 pw.x -in pw.inp   Done                     12/25/2018 04:10:10
00023 suncat0083 pw.x -in pw.inp   Done                     12/25/2018 04:10:10
00024 suncat0070 pw.x -in pw.inp   Done                     12/25/2018 04:10:10
00025 suncat0070 pw.x -in pw.inp   Done                     12/25/2018 04:10:10
00026 suncat0070 pw.x -in pw.inp   Done                     12/25/2018 04:10:10
00027 suncat0070 pw.x -in pw.inp   Done                     12/25/2018 04:10:10
00028 suncat0070 pw.x -in pw.inp   Done                     12/25/2018 04:10:10
00029 suncat0070 pw.x -in pw.inp   Done                     12/25/2018 04:10:10
00030 suncat0070 pw.x -in pw.inp   Done                     12/25/2018 04:10:10
00031 suncat0070 pw.x -in pw.inp   Done                     12/25/2018 04:10:10
00032 suncat0039 pw.x -in pw.inp   Done                     12/25/2018 04:10:10
00033 suncat0039 pw.x -in pw.inp   Done                     12/25/2018 04:10:10
00034 suncat0039 pw.x -in pw.inp   Done                     12/25/2018 04:10:10
00035 suncat0039 pw.x -in pw.inp   Done                     12/25/2018 04:10:10
00036 suncat0039 pw.x -in pw.inp   Done                     12/25/2018 04:10:10
00037 suncat0039 pw.x -in pw.inp   Done                     12/25/2018 04:10:10
00038 suncat0039 pw.x -in pw.inp   Done                     12/25/2018 04:10:10
00039 suncat0039 pw.x -in pw.inp   Done                     12/25/2018 04:10:10
00040 suncat0034 pw.x -in pw.inp   Done                     12/25/2018 04:10:10
00041 suncat0034 pw.x -in pw.inp   Done                     12/25/2018 04:10:10
00042 suncat0034 pw.x -in pw.inp   Done                     12/25/2018 04:10:10
00043 suncat0034 pw.x -in pw.inp   Done                     12/25/2018 04:10:10
00044 suncat0034 pw.x -in pw.inp   Done                     12/25/2018 04:10:10
00045 suncat0034 pw.x -in pw.inp   Done                     12/25/2018 04:10:10
00046 suncat0034 pw.x -in pw.inp   Done                     12/25/2018 04:10:10
00047 suncat0034 pw.x -in pw.inp   Done                     12/25/2018 04:10:10
00048 suncat0026 pw.x -in pw.inp   Done                     12/25/2018 04:10:10
00049 suncat0026 pw.x -in pw.inp   Done                     12/25/2018 04:10:10
00050 suncat0026 pw.x -in pw.inp   Done                     12/25/2018 04:10:10
00051 suncat0026 pw.x -in pw.inp   Done                     12/25/2018 04:10:10
00052 suncat0026 pw.x -in pw.inp   Done                     12/25/2018 04:10:10
00053 suncat0026 pw.x -in pw.inp   Done                     12/25/2018 04:10:10
00054 suncat0026 pw.x -in pw.inp   Done                     12/25/2018 04:10:10
00055 suncat0026 pw.x -in pw.inp   Done                     12/25/2018 04:10:10
00056 suncat0180 pw.x -in pw.inp   Done                     12/25/2018 04:10:10
00057 suncat0180 pw.x -in pw.inp   Done                     12/25/2018 04:10:10
00058 suncat0180 pw.x -in pw.inp   Done                     12/25/2018 04:10:10
00059 suncat0180 pw.x -in pw.inp   Done                     12/25/2018 04:10:10
00060 suncat0180 pw.x -in pw.inp   Done                     12/25/2018 04:10:10
00061 suncat0180 pw.x -in pw.inp   Done                     12/25/2018 04:10:10
00062 suncat0180 pw.x -in pw.inp   Done                     12/25/2018 04:10:10
00063 suncat0180 pw.x -in pw.inp   Done                     12/25/2018 04:10:10