     Program PWSCF v.5.1rc2 (svn rev. 11289) starts on 18Dec2018 at 18:53:28

     Current dimensions of program PWSCF are:
     Max number of different atomic species (ntypx) = 10
     Max number of k-points (npk) =  40000
     Max angular momentum in pseudopotentials (lmaxx) =  3
     Presently stress not available with electric field

     IMPORTANT: XC functional enforced from input :
     Exchange-correlation      = BEEF-VDW ( 1  4 27 13 2)
     Any further DFT definition will be discarded
     Please, verify this is what you really want

     Subspace diagonalization in iterative solution of the eigenvalue problem:
     a serial algorithm will be used

     Found symmetry operation: I + ( -0.5000  0.0000  0.0000)
     This is a supercell, fractional translations are disabled

     bravais-lattice index     =            0
     lattice parameter (alat)  =       1.8897  a.u.
     unit-cell volume          =    4497.1919 (a.u.)^3
     number of atoms/cell      =           12
     number of atomic types    =            2
     number of electrons       =       180.00
     number of Kohn-Sham states=          120
     kinetic-energy cutoff     =      36.7493  Ry
     charge density cutoff     =     367.4932  Ry
     convergence threshold     =      1.0E-06
     mixing beta               =       0.1000
     number of iterations used =           10  plain     mixing
     Exchange-correlation      = BEEF-VDW ( 1  4 27 13 2)
     nstep                     =           50

     celldm(1)=   1.889726  celldm(2)=   0.000000  celldm(3)=   0.000000
     celldm(4)=   0.000000  celldm(5)=   0.000000  celldm(6)=   0.000000

     crystal axes: (cart. coord. in units of alat)
               a(1) = (   5.457387   0.000000   0.000000 )
               a(2) = (  -2.728694   4.971616   0.000000 )
               a(3) = (   0.000000   0.000000  24.561928 )

     reciprocal axes: (cart. coord. in units 2 pi/alat)
               b(1) = (  0.183238  0.100571  0.000000 )
               b(2) = (  0.000000  0.201142  0.000000 )
               b(3) = (  0.000000  0.000000  0.040713 )

     PseudoPot. # 1 for Mo read from file:
     /afs/slac.stanford.edu/u/if/mamunm/psp/gbrv1.5pbe/Mo.UPF
     MD5 check sum: 30c4dcd161f5d35cd49bb5239c51a633
     Pseudo is Ultrasoft + core correction, Zval = 14.0
     Generated by new atomic code, or converted to UPF format
     Using radial grid of  889 points,  6 beta functions with:
                l(1) =   0
                l(2) =   0
                l(3) =   1
                l(4) =   1
                l(5) =   2
                l(6) =   2
     Q(r) pseudized with  6 coefficients,  rinner =    1.000   1.000   1.000
                                                       1.000   1.000

     PseudoPot. # 2 for Pd read from file:
     /afs/slac.stanford.edu/u/if/mamunm/psp/gbrv1.5pbe/Pd.UPF
     MD5 check sum: 2d733d2bc2cbfd217af676df1668a4bc
     Pseudo is Ultrasoft + core correction, Zval = 16.0
     Generated by new atomic code, or converted to UPF format
     Using radial grid of  887 points,  6 beta functions with:
                l(1) =   0
                l(2) =   0
                l(3) =   1
                l(4) =   1
                l(5) =   2
                l(6) =   2
     Q(r) pseudized with  8 coefficients,  rinner =    1.130   1.130   1.130
                                                       1.130   1.130

     vdW kernel table read from file vdW_kernel_table
     MD5 check sum: 095c7af220d748ca6e76c0b4c6cfb241

     atomic species   valence    mass     pseudopotential
        Mo1           14.00    95.95000     Mo( 1.00)
        Pd1           16.00   106.42000     Pd( 1.00)

     No symmetry found

   Cartesian axes

     site n.     atom                  positions (alat units)
         1           Mo1 tau(   1) = (   0.0000000   0.0000000  10.0000000  )
         2           Mo1 tau(   2) = (   2.7286937   0.0000000  10.0000000  )
         3           Pd1 tau(   3) = (   1.3643468   2.4858080  10.0000000  )
         4           Pd1 tau(   4) = (  -1.3643468   2.4858080  10.0000000  )
         5           Mo1 tau(   5) = (   2.7286937   1.4976557  12.2809639  )
         6           Mo1 tau(   6) = (  -0.0000000   1.4976557  12.2809639  )
         7           Pd1 tau(   7) = (  -1.3643468   3.9834637  12.2809639  )
         8           Pd1 tau(   8) = (   1.3643468   3.9834637  12.2809639  )
         9           Mo1 tau(   9) = (  -0.0000000   2.9953114  14.5619279  )
        10           Mo1 tau(  10) = (   2.7286937   2.9953114  14.5619279  )
        11           Pd1 tau(  11) = (   4.0930405   0.5095033  14.5619279  )
        12           Pd1 tau(  12) = (   1.3643468   0.5095033  14.5619279  )

     number of k points=    20  Fermi-Dirac smearing, width (Ry)=  0.0110
                       cart. coord. in units 2pi/alat
        k(    1) = (   0.0000000   0.0000000   0.0000000), wk =   0.0555556
        k(    2) = (   0.0000000   0.0335236   0.0000000), wk =   0.1111111
        k(    3) = (   0.0000000   0.0670473   0.0000000), wk =   0.1111111
        k(    4) = (   0.0000000  -0.1005709   0.0000000), wk =   0.0555556
        k(    5) = (   0.0305396   0.0167618   0.0000000), wk =   0.1111111
        k(    6) = (   0.0305396   0.0502855   0.0000000), wk =   0.1111111
        k(    7) = (   0.0305396   0.0838091   0.0000000), wk =   0.1111111
        k(    8) = (   0.0305396  -0.0838091   0.0000000), wk =   0.1111111
        k(    9) = (   0.0305396  -0.0502855   0.0000000), wk =   0.1111111
        k(   10) = (   0.0305396  -0.0167618   0.0000000), wk =   0.1111111
        k(   11) = (   0.0610793   0.0335236   0.0000000), wk =   0.1111111
        k(   12) = (   0.0610793   0.0670473   0.0000000), wk =   0.1111111
        k(   13) = (   0.0610793   0.1005709   0.0000000), wk =   0.1111111
        k(   14) = (   0.0610793  -0.0670473   0.0000000), wk =   0.1111111
        k(   15) = (   0.0610793  -0.0335236   0.0000000), wk =   0.1111111
        k(   16) = (   0.0610793   0.0000000   0.0000000), wk =   0.1111111
        k(   17) = (  -0.0916189  -0.0502855   0.0000000), wk =   0.0555556
        k(   18) = (  -0.0916189  -0.0167618   0.0000000), wk =   0.1111111
        k(   19) = (  -0.0916189   0.0167618   0.0000000), wk =   0.1111111
        k(   20) = (  -0.0916189  -0.1508564   0.0000000), wk =   0.0555556

     Largest allocated arrays     est. size (Mb)     dimensions
     Largest temporary arrays     est. size (Mb)     dimensions

     Initial potential from superposition of free atoms
     Check: negative starting charge=   -0.451201

     starting charge  176.99358, renormalised to  180.00000

     negative rho (up, down):  4.589E-01 0.000E+00

     *
     * You are using vdW-DF for exchange-correlation in this calculation.
     * Please cite the following three references that made this development
     * possible:
     *
     *   M. Dion, H. Rydberg, E. Schroder, D. C. Langreth, and
     *   B. I. Lundqvist, Phys. Rev. Lett. 92, 246401 (2004).
     *
     *   T. Thonhauser, V. R. Cooper, S. Li, A. Puzder, P. Hyldgaard, and
     *   D. C. Langreth, Phys. Rev. B 76, 125112 (2007).
     *
     *   G. Roman-Perez and J. M. Soler, Phys. Rev. Lett. 103, 096102 (2009).
     *
     *
     * If you are using vdW-DF2, please also cite:
     *
     *   K. Lee, E. D. Murray, L. Kong, B. I. Lundqvist, and
     *   D. C. Langreth, Phys. Rev. B 82, 081101(R) (2010).
     *
     *
     * If you are calculating the stress with vdW-DF, please also cite:
     *
     *   R. Sabatini, E. Kucukbenli, B. Kolb, T. Thonhauser, and
     *   S. de Gironcoli, J. Phys.: Condens. Matter 24, 424209 (2012).
     *

     Carrying out vdW-DF run using the following parameters:

     Nqs =      20    Nr_points =    1024   r_max =   100.000
     q_mesh =
               0.00001000     0.04494208     0.09755937     0.15916263
               0.23128650     0.31572767     0.41458969     0.53033537
               0.66584808     0.82450364     1.01025438     1.22772762
               1.48234092     1.78043706     2.12944203     2.53805004
               3.01644009     3.57652955     4.23227104     5.00000000

     Gradients computed in reciprocal space

     Adding external electric field

     Computed dipole along edir(3) :
        Dipole               -0.0000 Ry au,         -0.0000 Debye
        Dipole field         -0.0000 Ry au

        Potential amp.        0.0000 Ry
        Total length         45.2549 bohr

     Starting wfc are  150 randomized atomic wfcs

     Self-consistent Calculation

     iteration #  1     ecut=    36.75 Ry     beta=0.10
     Davidson diagonalization with overlap
     ethr =  1.00E-02,  avg # of iterations =  7.6

[...]

     total energy              =   -2035.12171195 Ry
     Harris-Foulkes estimate   =   -2041.15941355 Ry
     estimated scf accuracy    <      33.97629054 Ry

[...]

     End of self-consistent calculation

          k = 0.0000 0.0000 0.0000 ( 16899 PWs)   bands (ev):

   -59.6436 -59.5347 -59.4633 -59.4547 -59.3563 -59.3483 -48.9645 -48.9312
   -48.9076 -48.8490 -48.8258 -48.7350 -48.6584 -48.6539 -48.6352 -48.6350
   -48.6348 -48.6305 -48.4465 -48.4321 -48.4250 -48.4106 -48.4060 -48.4059
   -34.0644 -33.8774 -33.7749 -33.7667 -33.7636 -33.6939 -33.5942 -33.5459
   -33.5252 -33.5022 -33.4441 -33.4252 -33.4026 -33.2258 -33.1624 -33.1379
   -32.8812 -32.8779  -4.6373  -3.3940  -3.3572  -3.3177  -3.2986  -3.2847
    -3.1552  -3.0460  -2.9952  -2.8817  -2.8696  -2.8311  -2.6920  -2.5921
    -2.4664  -1.8135  -1.6789  -1.6274  -1.4891  -1.4074  -1.0974  -0.9025
    -0.8379  -0.7177  -0.6075  -0.5832  -0.4996  -0.3053  -0.2969  -0.2878
    -0.1946  -0.1269   0.2972   0.4700   0.5569   0.6526   0.7688   0.9384
     1.0203   1.1098   1.4722   1.5169   1.5715   1.7871   2.1066   2.2142
     2.2576   2.2636   2.3313   2.6858   2.7785   2.8298   3.1112   3.3053
     3.4865   3.6606   3.7935   3.8130   3.9100   3.9814   4.1403   4.2294
     4.2506   4.3068   4.4571   4.5967   5.1119   5.2407   5.7377   6.0394
     6.0536   6.1481   6.2781   6.5391   6.7006   6.7574   7.6093   8.5514

[...]

          k =-0.0916-0.0503 0.0000 ( 16936 PWs)   bands (ev):

[...]

     the Fermi energy is     1.8516 ev

!    total energy              =   -2038.32637285 Ry
     Harris-Foulkes estimate   =   -2038.32637121 Ry
     estimated scf accuracy    <       0.00000031 Ry

     The total energy is the sum of the following terms:

     one-electron contribution =  -17816.08618395 Ry
     hartree contribution      =    8927.16376870 Ry
     xc contribution           =    -314.74658754 Ry
     ewald contribution        =    7165.42824277 Ry
     electric field correction =       0.00000000 Ry
     smearing contrib. (-TS)   =      -0.08561283 Ry

     convergence has been achieved in  20 iterations

 BEEF-vdW xc energy contributions
           1 :   -272.724121064186
           2 :    249.413401264693
           3 :   -209.421516919079
           4 :    163.260455086959
           5 :   -121.412053761399
           6 :    90.9137735294361
           7 :   -73.7325269839336
           8 :    67.2540719741479
           9 :   -66.3591135155976
[...]

   This run was terminated on:  19: 3: 2  18Dec2018

[...]

     Program PWSCF v.5.1rc2 (svn rev. 11289) starts on 18Dec2018 at 19: 3: 8

[...]

   This run was terminated on:  19: 7:45  18Dec2018

[...]

     Program PWSCF v.5.1rc2 (svn rev. 11289) starts on 18Dec2018 at 19: 7:51

[...]

     Program PWSCF v.5.1rc2 (svn rev. 11289) starts on 18Dec2018 at 19:17:21

[...]

   This run was terminated on:  19:22: 2  18Dec2018

[...]

     Program PWSCF v.5.1rc2 (svn rev. 11289) starts on 18Dec2018 at 19:22: 9

     Current dimensions of program PWSCF are:
     Max number of different atomic species (ntypx) = 10
     Max number of k-points (npk) =  40000
     Max angular momentum in pseudopotentials (lmaxx) =  3
     Presently stress not available with electric field

     IMPORTANT: XC functional enforced from input :
     Exchange-correlation      = BEEF-VDW ( 1  4 27 13 2)
     Any further DFT definition will be discarded
     Please, verify this is what you really want

     Subspace diagonalization in iterative solution of the eigenvalue problem:
     a serial algorithm will be used

     Found symmetry operation: I + ( -0.5000  0.0000  0.0000)
     This is a supercell, fractional translations are disabled

     bravais-lattice index     =            0
     lattice parameter (alat)  =       1.8897  a.u.
     unit-cell volume          =    4497.1919 (a.u.)^3
     number of atoms/cell      =           12
     number of atomic types    =            2
     number of electrons       =       180.00
     number of Kohn-Sham states=          120
     kinetic-energy cutoff     =      36.7493  Ry
     charge density cutoff     =     367.4932  Ry
     convergence threshold     =      1.0E-06
     mixing beta               =       0.1000
     number of iterations used =           10  plain     mixing
     Exchange-correlation      = BEEF-VDW ( 1  4 27 13 2)
     nstep                     =           50

     celldm(1)=   1.889726  celldm(2)=   0.000000  celldm(3)=   0.000000
     celldm(4)=   0.000000  celldm(5)=   0.000000  celldm(6)=   0.000000

     crystal axes: (cart. coord. in units of alat)
               a(1) = (   5.457387   0.000000   0.000000 )
               a(2) = (  -2.728694   4.971616   0.000000 )
               a(3) = (   0.000000   0.000000  24.561928 )

     reciprocal axes: (cart. coord. in units 2 pi/alat)
               b(1) = (  0.183238  0.100571  0.000000 )
               b(2) = (  0.000000  0.201142  0.000000 )
               b(3) = (  0.000000  0.000000  0.040713 )

     PseudoPot. # 1 for Mo read from file:
     /afs/slac.stanford.edu/u/if/mamunm/psp/gbrv1.5pbe/Mo.UPF
     MD5 check sum: 30c4dcd161f5d35cd49bb5239c51a633
     Pseudo is Ultrasoft + core correction, Zval = 14.0
     Generated by new atomic code, or converted to UPF format
     Using radial grid of  889 points,  6 beta functions with:
                l(1) =   0
                l(2) =   0
                l(3) =   1
                l(4) =   1
                l(5) =   2
                l(6) =   2
     Q(r) pseudized with  6 coefficients,  rinner =    1.000   1.000   1.000
                                                       1.000   1.000

     PseudoPot. # 2 for Pd read from file:
     /afs/slac.stanford.edu/u/if/mamunm/psp/gbrv1.5pbe/Pd.UPF
     MD5 check sum: 2d733d2bc2cbfd217af676df1668a4bc
     Pseudo is Ultrasoft + core correction, Zval = 16.0
     Generated by new atomic code, or converted to UPF format
     Using radial grid of  887 points,  6 beta functions with:
                l(1) =   0
                l(2) =   0
                l(3) =   1
                l(4) =   1
                l(5) =   2
                l(6) =   2
     Q(r) pseudized with  8 coefficients,  rinner =    1.130   1.130   1.130
                                                       1.130   1.130

     vdW kernel table read from file vdW_kernel_table
     MD5 check sum: 095c7af220d748ca6e76c0b4c6cfb241

     atomic species   valence    mass     pseudopotential
        Mo1           14.00    95.95000     Mo( 1.00)
        Pd1           16.00   106.42000     Pd( 1.00)

     No symmetry found

   Cartesian axes

     site n.     atom                  positions (alat units)
         1           Mo1 tau(   1) = (   0.0000000   0.0000000  10.0000000  )
         2           Mo1 tau(   2) = (   2.7286937   0.0000000  10.0000000  )
         3           Pd1 tau(   3) = (   1.3643468   2.4858080  10.0000000  )
         4           Pd1 tau(   4) = (  -1.3643468   2.4858080  10.0000000  )
         5           Mo1 tau(   5) = (   2.7286937   1.4976557  12.2809639  )
         6           Mo1 tau(   6) = (  -0.0000000   1.4976557  12.2809639  )
         7           Pd1 tau(   7) = (  -1.3643468   3.9834637  12.2809639  )
         8           Pd1 tau(   8) = (   1.3643468   3.9834637  12.2809639  )
         9           Mo1 tau(   9) = (   0.0000282   3.0369435  14.4275273  )
        10           Mo1 tau(  10) = (   2.7287218   3.0369268  14.4275033  )
        11           Pd1 tau(  11) = (   4.0929830   0.6251200  14.5638578  )
        12           Pd1 tau(  12) = (   1.3643169   0.6251194  14.5638572  )

     number of k points=    20  Fermi-Dirac smearing, width (Ry)=  0.0110
                       cart. coord. in units 2pi/alat
        k(    1) = (   0.0000000   0.0000000   0.0000000), wk =   0.0555556
        k(    2) = (   0.0000000   0.0335236   0.0000000), wk =   0.1111111
        k(    3) = (   0.0000000   0.0670473   0.0000000), wk =   0.1111111
        k(    4) = (   0.0000000  -0.1005709   0.0000000), wk =   0.0555556
        k(    5) = (   0.0305396   0.0167618   0.0000000), wk =   0.1111111
        k(    6) = (   0.0305396   0.0502855   0.0000000), wk =   0.1111111
        k(    7) = (   0.0305396   0.0838091   0.0000000), wk =   0.1111111
        k(    8) = (   0.0305396  -0.0838091   0.0000000), wk =   0.1111111
        k(    9) = (   0.0305396  -0.0502855   0.0000000), wk =   0.1111111
        k(   10) = (   0.0305396  -0.0167618   0.0000000), wk =   0.1111111
        k(   11) = (   0.0610793   0.0335236   0.0000000), wk =   0.1111111
        k(   12) = (   0.0610793   0.0670473   0.0000000), wk =   0.1111111
        k(   13) = (   0.0610793   0.1005709   0.0000000), wk =   0.1111111
        k(   14) = (   0.0610793  -0.0670473   0.0000000), wk =   0.1111111
        k(   15) = (   0.0610793  -0.0335236   0.0000000), wk =   0.1111111
        k(   16) = (   0.0610793   0.0000000   0.0000000), wk =   0.1111111
        k(   17) = (  -0.0916189  -0.0502855   0.0000000), wk =   0.0555556
        k(   18) = (  -0.0916189  -0.0167618   0.0000000), wk =   0.1111111
        k(   19) = (  -0.0916189   0.0167618   0.0000000), wk =   0.1111111
        k(   20) = (  -0.0916189  -0.1508564   0.0000000), wk =   0.0555556

     Largest allocated arrays     est. size (Mb)     dimensions
     Largest temporary arrays     est. size (Mb)     dimensions

     Initial potential from superposition of free atoms
     Check: negative starting charge=   -0.448062

     starting charge  176.99358, renormalised to  180.00000

[...]

     *
     * You are using vdW-DF for exchange-correlation in this calculation.
     * Please cite the following three references that made this development
     * possible:
     *
     *   M. Dion, H. Rydberg, E. Schroder, D. C. Langreth, and
     *   B. I. Lundqvist, Phys. Rev. Lett. 92, 246401 (2004).
     *
     *   T. Thonhauser, V. R. Cooper, S. Li, A. Puzder, P. Hyldgaard, and
     *   D. C. Langreth, Phys. Rev. B 76, 125112 (2007).
     *
     *   G. Roman-Perez and J. M. Soler, Phys. Rev. Lett. 103, 096102 (2009).
     *
     *
     * If you are using vdW-DF2, please also cite:
     *
     *   K. Lee, E. D. Murray, L. Kong, B. I. Lundqvist, and
     *   D. C. Langreth, Phys. Rev. B 82, 081101(R) (2010).
     *
     *
     * If you are calculating the stress with vdW-DF, please also cite:
     *
     *   R. Sabatini, E. Kucukbenli, B. Kolb, T. Thonhauser, and
     *   S. de Gironcoli, J. Phys.: Condens. Matter 24, 424209 (2012).
     *

     Carrying out vdW-DF run using the following parameters:

     Nqs =      20    Nr_points =    1024   r_max =   100.000
     q_mesh =
               0.00001000     0.04494208     0.09755937     0.15916263
               0.23128650     0.31572767     0.41458969     0.53033537
               0.66584808     0.82450364     1.01025438     1.22772762
               1.48234092     1.78043706     2.12944203     2.53805004
               3.01644009     3.57652955     4.23227104     5.00000000

     Gradients computed in reciprocal space

[...]

     Starting wfc are  150 randomized atomic wfcs

     Self-consistent Calculation

[...]

     total energy              =   -2038.33900110 Ry
     Harris-Foulkes estimate   =   -2038.33900042 Ry
     estimated scf accuracy    <       0.00000182 Ry

     iteration # 18     ecut=    36.75 Ry     beta=0.10
     Davidson diagonalization with overlap
     ethr =  1.01E-09,  avg # of iterations =  1.1

[...]

     negative rho (up, down):  4.753E-01 0.000E+00

     Adding external electric field

     Computed dipole along edir(3) :
        Dipole                0.0041 Ry au,          0.0104 Debye
        Dipole field          0.0000 Ry au

        Potential amp.       -0.0010 Ry
        Total length         45.2549 bohr

     End of self-consistent calculation

[...]

          k = 0.0611 0.0000 0.0000 ( 16932 PWs)   bands (ev):

[...]

          k =-0.0916-0.1509 0.0000 ( 16936 PWs)   bands (ev):

   -59.6003 -59.6003 -59.4127 -59.4126 -59.3988 -59.3987 -49.0539 -49.0539
   -48.9749 -48.9749 -48.9376 -48.9376 -48.6547 -48.6547 -48.6421 -48.6421
   -48.5507 -48.5507 -48.5204 -48.5204 -48.4491 -48.4491 -48.4246 -48.4246
   -33.8989 -33.8989 -33.6582 -33.6582 -33.6408 -33.6408 -33.4979 -33.4979
   -33.4804 -33.4804 -33.4654 -33.4653 -33.3511 -33.3510 -33.3392 -33.3391
   -33.1437 -33.1437  -3.2274  -3.2273  -2.7218  -2.7218  -2.6339  -2.6338
    -2.3878  -2.3877  -2.3440  -2.3440  -2.2214  -2.2214  -1.9311  -1.9311
    -1.8675  -1.8675  -1.6159  -1.6159  -1.3439  -1.3439  -1.2904  -1.2904
    -1.0066  -1.0066  -0.8961  -0.8961  -0.7817  -0.7816  -0.7536  -0.7536
    -0.5534  -0.5533  -0.3278  -0.3278   0.0488   0.0488   0.3122   0.3122
     0.8031   0.8031   0.8693   0.8693   1.2452   1.2452   1.6219   1.6219
     1.7668   1.7668   1.8692   1.8692   2.0034   2.0035   2.1019   2.1020
     2.1695   2.1695   2.5743   2.5743   3.2294   3.2294   3.5301   3.5302
     3.7681   3.7681   4.8122   4.8123   5.4905   5.4905   6.0874   6.0874
     6.6645   6.6645   7.6498   7.6498   7.8379   7.8379   8.2456   8.2456

     the Fermi energy is     1.8479 ev

!    total energy              =   -2038.33900405 Ry
     Harris-Foulkes estimate   =   -2038.33900115 Ry
     estimated scf accuracy    <       0.00000098 Ry

     The total energy is the sum of the following terms:

     one-electron contribution =  -17970.97081213 Ry
     hartree contribution      =    9004.42354338 Ry
     xc contribution           =    -314.89418291 Ry
     ewald contribution        =    7243.18568637 Ry
     electric field correction =       0.00000005 Ry
     smearing contrib. (-TS)   =      -0.08323879 Ry

     convergence has been achieved in  18 iterations

 BEEF-vdW xc energy contributions
           1 :   -272.875423445316
           2 :    249.620220809809
           3 :   -209.702652587216
           4 :    163.579080884557
           5 :   -121.688537794023
           6 :    91.0656683121460
           7 :   -73.7209354040386
           8 :    67.1092998348173
           9 :   -66.1706091180915
          10 :    65.8514332498846
          11 :   -63.0316308720295
          12 :    57.1923374454581
          13 :   -49.8315610062631
          14 :    43.1476188014873
          15 :   -38.7346425507946
          16 :    36.8647833266366
          17 :   -36.5710538580675
          18 :    36.3318275220211
          19 :   -34.9223023361072
          20 :    31.9812076058413
          21 :   -28.0580283593671
          22 :    24.1916312709066
          23 :   -21.3052780849490
          24 :    19.7470536074117
          25 :   -19.1891261503204
          26 :    18.8821880680936
          27 :   -18.0891706706207
          28 :    16.4535279975342
          29 :   -14.1270099491357
          30 :    11.6210719164264
          31 :   -28.2608953086266
          32 :   -21.2618458076708

     Forces acting on atoms (Ry/au):

     negative rho (up, down):  4.753E-01 0.000E+00
     atom    1 type  1   force =     0.00000405    0.01135667    0.02587839
     atom    2 type  1   force =     0.00000390    0.01135688    0.02586852
     atom    3 type  2   force =    -0.00000342   -0.02109397   -0.00719093
     atom    4 type  2   force =    -0.00000253   -0.02109424   -0.00719118
     atom    5 type  1   force =     0.00000029   -0.00006127   -0.01083362
     atom    6 type  1   force =     0.00000015   -0.00006149   -0.01083467
     atom    7 type  2   force =     0.00000956    0.00966307   -0.00824869
     atom    8 type  2   force =    -0.00001615    0.00966324   -0.00824888
     atom    9 type  1   force =    -0.00000106    0.00018980   -0.00000195
     atom   10 type  1   force =    -0.00000107    0.00019728    0.00000708
     atom   11 type  2   force =     0.00001308   -0.00005797    0.00039765
     atom   12 type  2   force =    -0.00000680   -0.00005801    0.00039827

     Total force =     0.056109     Total SCF correction =     0.001846

     entering subroutine stress ...

     negative rho (up, down):  4.753E-01 0.000E+00
          total   stress  (Ry/bohr**3)                   (kbar)     P=  -14.06
  -0.00009630  -0.00000001   0.00000000        -14.17     -0.00      0.00
  -0.00000001  -0.00014762   0.00001860         -0.00    -21.72      2.74
   0.00000000   0.00001860  -0.00004277          0.00      2.74     -6.29

 !ASE

     Writing output data file calc.save

     General routines

     Parallel routines

   This run was terminated on:  19:26:38  18Dec2018

   JOB DONE.
Job  /afs/slac/g/suncat/bin/suncat-tsmpirun -x LD_LIBRARY_PATH -wdir /scratch/qe530265_Tu0me pw.x -in pw.inp

TID   HOST_NAME   COMMAND_LINE            STATUS            TERMINATION_TIME
00000 suncat2044 pw.x -in pw.inp   Done                     12/18/2018 19:26:38
00001 suncat2044 pw.x -in pw.inp   Done                     12/18/2018 19:26:38
00002 suncat2044 pw.x -in pw.inp   Done                     12/18/2018 19:26:38
00003 suncat2044 pw.x -in pw.inp   Done                     12/18/2018 19:26:38
00004 suncat2044 pw.x -in pw.inp   Done                     12/18/2018 19:26:38
00005 suncat2044 pw.x -in pw.inp   Done                     12/18/2018 19:26:38
00006 suncat2044 pw.x -in pw.inp   Done                     12/18/2018 19:26:38
00007 suncat2044 pw.x -in pw.inp   Done                     12/18/2018 19:26:38
00008 suncat2044 pw.x -in pw.inp   Done                     12/18/2018 19:26:38
00009 suncat2044 pw.x -in pw.inp   Done                     12/18/2018 19:26:38
00010 suncat2044 pw.x -in pw.inp   Done                     12/18/2018 19:26:38
00011 suncat2044 pw.x -in pw.inp   Done                     12/18/2018 19:26:38
00012 suncat2044 pw.x -in pw.inp   Done                     12/18/2018 19:26:38
00013 suncat2044 pw.x -in pw.inp   Done                     12/18/2018 19:26:38
00014 suncat2044 pw.x -in pw.inp   Done                     12/18/2018 19:26:38
00015 suncat2044 pw.x -in pw.inp   Done                     12/18/2018 19:26:38
00016 suncat2043 pw.x -in pw.inp   Done                     12/18/2018 19:26:38
00017 suncat2043 pw.x -in pw.inp   Done                     12/18/2018 19:26:38
00018 suncat2043 pw.x -in pw.inp   Done                     12/18/2018 19:26:38
00019 suncat2043 pw.x -in pw.inp   Done                     12/18/2018 19:26:38
00020 suncat2043 pw.x -in pw.inp   Done                     12/18/2018 19:26:38
00021 suncat2043 pw.x -in pw.inp   Done                     12/18/2018 19:26:38
00022 suncat2043 pw.x -in pw.inp   Done                     12/18/2018 19:26:38
00023 suncat2043 pw.x -in pw.inp   Done                     12/18/2018 19:26:38
00024 suncat2043 pw.x -in pw.inp   Done                     12/18/2018 19:26:38
00025 suncat2043 pw.x -in pw.inp   Done                     12/18/2018 19:26:38
00026 suncat2043 pw.x -in pw.inp   Done                     12/18/2018 19:26:38
00027 suncat2043 pw.x -in pw.inp   Done                     12/18/2018 19:26:38
00028 suncat2043 pw.x -in pw.inp   Done                     12/18/2018 19:26:38
00029 suncat2043 pw.x -in pw.inp   Done                     12/18/2018 19:26:38
00030 suncat2043 pw.x -in pw.inp   Done                     12/18/2018 19:26:38
00031 suncat2043 pw.x -in pw.inp   Done                     12/18/2018 19:26:38