     Program PWSCF v.5.1rc2 (svn rev. 11289) starts on 29Dec2018 at 23:15: 0

     Current dimensions of program PWSCF are:
     Max number of different atomic species (ntypx) = 10
     Max number of k-points (npk) =  40000
     Max angular momentum in pseudopotentials (lmaxx) =  3
     Presently stress not available with electric field

     IMPORTANT: XC functional enforced from input :
     Exchange-correlation      = BEEF-VDW ( 1  4 27 13 2)
     Any further DFT definition will be discarded
     Please, verify this is what you really want

     Subspace diagonalization in iterative solution of the eigenvalue problem:
     a serial algorithm will be used

     Found symmetry operation: I + ( -0.5000  0.5000  0.0000)
     This is a supercell, fractional translations are disabled

     bravais-lattice index     =            0
     lattice parameter (alat)  =       1.8897  a.u.
     unit-cell volume          =    5103.0767 (a.u.)^3
     number of atoms/cell      =           12
     number of atomic types    =            2
     number of electrons       =       162.00
     number of Kohn-Sham states=          111
     kinetic-energy cutoff     =      36.7493  Ry
     charge density cutoff     =     367.4932  Ry
     convergence threshold     =      1.0E-06
     mixing beta               =       0.1000
     number of iterations used =           10  plain     mixing
     Exchange-correlation      = BEEF-VDW ( 1  4 27 13 2)
     nstep                     =           50

     celldm(1)=   1.889726  celldm(2)=   0.000000  celldm(3)=   0.000000
     celldm(4)=   0.000000  celldm(5)=   0.000000  celldm(6)=   0.000000

     crystal axes: (cart. coord. in units of alat)
               a(1) = (   5.703607   0.000000   0.000000 )
               a(2) = (   1.902377   5.376997   0.000000 )
               a(3) = (   0.000000   0.000000  24.657335 )

     reciprocal axes: (cart. coord. in units 2 pi/alat)
               b(1) = (  0.175328 -0.062031  0.000000 )
               b(2) = (  0.000000  0.185977  0.000000 )
               b(3) = (  0.000000  0.000000  0.040556 )

     PseudoPot. # 1 for Zr read from file:
     /afs/slac.stanford.edu/u/if/mamunm/psp/gbrv1.5pbe/Zr.UPF
     MD5 check sum: 5db81b1e868ab7776c4564c113de050b
     Pseudo is Ultrasoft + core correction, Zval = 12.0
     Generated by new atomic code, or converted to UPF format
     Using radial grid of  887 points,  6 beta functions with:
                l(1) =   0
                l(2) =   0
                l(3) =   1
                l(4) =   1
                l(5) =   2
                l(6) =   2
     Q(r) pseudized with  6 coefficients,  rinner =    1.200   1.200   1.200
                                                       1.200   1.200

     PseudoPot. # 2 for Tc read from file:
     /afs/slac.stanford.edu/u/if/mamunm/psp/gbrv1.5pbe/Tc.UPF
     MD5 check sum: 9eb49e5b028550b2339a02317eb7b844
     Pseudo is Ultrasoft + core correction, Zval = 15.0
     Generated by new atomic code, or converted to UPF format
     Using radial grid of  965 points,  6 beta functions with:
                l(1) =   0
                l(2) =   0
                l(3) =   1
                l(4) =   1
                l(5) =   2
                l(6) =   2
     Q(r) pseudized with  8 coefficients,  rinner =    1.300   1.300   1.300
                                                       1.300   1.300

     vdW kernel table read from file vdW_kernel_table
     MD5 check sum: 095c7af220d748ca6e76c0b4c6cfb241

     atomic species   valence    mass     pseudopotential
        Zr1           12.00    91.22400     Zr( 1.00)
        Tc1           15.00    97.90721     Tc( 1.00)

     No symmetry found

   Cartesian axes

     site n.     atom                  positions (alat units)
         1           Zr1 tau(   1) = (   0.0000000   0.0000000  10.0000000  )
         2           Zr1 tau(   2) = (   3.8029919   2.6884984  10.0000000  )
         3           Tc1 tau(   3) = (   2.8518035   0.0000000  10.0000000  )
         4           Tc1 tau(   4) = (   0.9511885   2.6884984  10.0000000  )
         5           Zr1 tau(   5) = (   5.7036069   4.0321248  12.3286673  )
         6           Zr1 tau(   6) = (   1.9006150   1.3436264  12.3286673  )
         7           Tc1 tau(   7) = (   2.8518035   4.0321248  12.3286673  )
         8           Tc1 tau(   8) = (   4.7524185   1.3436264  12.3286673  )
         9           Zr1 tau(   9) = (   3.8012300   2.6872528  14.6573347  )
        10           Zr1 tau(  10) = (   7.6042219   5.3757512  14.6573347  )
        11           Tc1 tau(  11) = (   6.6530335   2.6872528  14.6573347  )
        12           Tc1 tau(  12) = (   4.7524185   5.3757512  14.6573347  )

     number of k points=    20  Fermi-Dirac smearing, width (Ry)=  0.0110
                       cart. coord. in units 2pi/alat
        k(    1) = (   0.0000000   0.0000000   0.0000000), wk =   0.0555556
        k(    2) = (   0.0000000   0.0309962   0.0000000), wk =   0.1111111
        k(    3) = (   0.0000000   0.0619925   0.0000000), wk =   0.1111111
        k(    4) = (   0.0000000  -0.0929887   0.0000000), wk =   0.0555556
        k(    5) = (   0.0292213  -0.0103385   0.0000000), wk =   0.1111111
        k(    6) = (   0.0292213   0.0206578   0.0000000), wk =   0.1111111
        k(    7) = (   0.0292213   0.0516540   0.0000000), wk =   0.1111111
        k(    8) = (   0.0292213  -0.1033272   0.0000000), wk =   0.1111111
        k(    9) = (   0.0292213  -0.0723309   0.0000000), wk =   0.1111111
        k(   10) = (   0.0292213  -0.0413347   0.0000000), wk =   0.1111111
        k(   11) = (   0.0584425  -0.0206769   0.0000000), wk =   0.1111111
        k(   12) = (   0.0584425   0.0103193   0.0000000), wk =   0.1111111
        k(   13) = (   0.0584425   0.0413155   0.0000000), wk =   0.1111111
        k(   14) = (   0.0584425  -0.1136656   0.0000000), wk =   0.1111111
        k(   15) = (   0.0584425  -0.0826694   0.0000000), wk =   0.1111111
        k(   16) = (   0.0584425  -0.0516732   0.0000000), wk =   0.1111111
        k(   17) = (  -0.0876638   0.0310154   0.0000000), wk =   0.0555556
        k(   18) = (  -0.0876638   0.0620116   0.0000000), wk =   0.1111111
        k(   19) = (  -0.0876638   0.0930079   0.0000000), wk =   0.1111111
        k(   20) = (  -0.0876638  -0.0619733   0.0000000), wk =   0.0555556

     Largest allocated arrays     est. size (Mb)     dimensions
     Largest temporary arrays     est. size (Mb)     dimensions

     Check: negative/imaginary core charge=   -0.000014    0.000000

     Initial potential from superposition of free atoms
     Check: negative starting charge=   -1.122436

     starting charge  155.98694, renormalised to  162.00000

     negative rho (up, down):  1.166E+00 0.000E+00

     *
     * You are using vdW-DF for exchange-correlation in this calculation.
     * Please cite the following three references that made this development
     * possible:
     *
     *   M. Dion, H. Rydberg, E. Schroder, D. C. Langreth, and
     *   B. I. Lundqvist, Phys. Rev. Lett. 92, 246401 (2004).
     *
     *   T. Thonhauser, V. R. Cooper, S. Li, A. Puzder, P. Hyldgaard, and
     *   D. C. Langreth, Phys. Rev. B 76, 125112 (2007).
     *
     *   G. Roman-Perez and J. M. Soler, Phys. Rev. Lett. 103, 096102 (2009).
     *
     *
     * If you are using vdW-DF2, please also cite:
     *
     *   K. Lee, E. D. Murray, L. Kong, B. I. Lundqvist, and
     *   D. C. Langreth, Phys. Rev. B 82, 081101(R) (2010).
     *
     *
     * If you are calculating the stress with vdW-DF, please also cite:
     *
     *   R. Sabatini, E. Kucukbenli, B. Kolb, T. Thonhauser, and
     *   S. de Gironcoli, J. Phys.: Condens. Matter 24, 424209 (2012).
     *

     Carrying out vdW-DF run using the following parameters:

     Nqs =      20    Nr_points =    1024   r_max =   100.000
     q_mesh =
               0.00001000     0.04494208     0.09755937     0.15916263
               0.23128650     0.31572767     0.41458969     0.53033537
               0.66584808     0.82450364     1.01025438     1.22772762
               1.48234092     1.78043706     2.12944203     2.53805004
               3.01644009     3.57652955     4.23227104     5.00000000

     Gradients computed in reciprocal space

     Adding external electric field

     Computed dipole along edir(3) :
        Dipole                0.0000 Ry au,          0.0000 Debye
        Dipole field          0.0000 Ry au

        Potential amp.       -0.0000 Ry
        Total length         45.4307 bohr

     Starting wfc are  156 randomized atomic wfcs

     Self-consistent Calculation

     iteration #  1     ecut=    36.75 Ry     beta=0.10
     Davidson diagonalization with overlap
     ethr =  1.00E-02,  avg # of iterations =  2.0

[...]

     total energy              =   -1650.77631933 Ry
     Harris-Foulkes estimate   =   -1651.59394060 Ry
     estimated scf accuracy    <       5.21569162 Ry

[...]

     End of self-consistent calculation

          k = 0.0000 0.0000 0.0000 ( 19189 PWs)   bands (ev):

   -64.5809 -64.5740 -64.3593 -64.3591 -64.3527 -64.3526 -47.1191 -47.1185
   -47.0862 -47.0856 -46.6049 -46.5723 -36.6461 -36.6404 -36.6344 -36.6293
   -36.6216 -36.5372 -36.4434 -36.4387 -36.4251 -36.4237 -36.4177 -36.4106
   -36.3942 -36.3887 -36.3824 -36.3741 -36.3340 -36.3338 -25.2378 -25.2232
   -25.1937 -25.1928 -25.1682 -25.1522 -25.0537 -25.0371 -25.0244 -24.9986
   -24.8665 -24.8625 -24.7776 -24.5907 -24.5837 -24.5558 -24.5381 -24.4001
    -3.4278  -2.1228  -1.8683  -1.6302  -1.5970  -1.5716  -1.4942  -1.4771
    -1.4516  -1.3322  -1.0007  -0.7198  -0.6507  -0.1456  -0.0807  -0.0159
    -0.0123   0.0243   0.0994   0.1211   0.2486   0.3872   0.5806   1.0178
     1.1441   1.2501   1.3111   1.7751   1.8714   1.9411   2.0854   2.1816
     2.2261   2.7676   2.9464   3.0791   3.5711   3.6438   3.6808   3.7654
     3.9673   3.9878   4.0651   4.1389   4.1682   4.2339   4.3667   4.5806
     4.6101   4.6118   4.7138   4.7780   4.9570   4.9672   5.2049   5.2610
     5.3337   5.3527   5.4673   5.5602   5.6260   5.6781   5.8344

[...]

          k =-0.0877 0.0310 0.0000 ( 19216 PWs)   bands (ev):

[...]

     the Fermi energy is     1.9029 ev

!    total energy              =   -1650.37170943 Ry
     Harris-Foulkes estimate   =   -1650.37170434 Ry
     estimated scf accuracy    <       0.00000052 Ry

     The total energy is the sum of the following terms:

     one-electron contribution =  -12646.98054052 Ry
     hartree contribution      =    6320.20953237 Ry
     xc contribution           =    -309.26008811 Ry
     ewald contribution        =    4985.74572704 Ry
     electric field correction =       0.00000002 Ry
     smearing contrib. (-TS)   =      -0.08634023 Ry

     convergence has been achieved in  17 iterations

 BEEF-vdW xc energy contributions
           1 :   -268.894134118863
           2 :    245.873421396585
           3 :   -205.684882229714
           4 :    157.533503617216
           5 :   -110.665148564080
           6 :    71.4894379564312
           7 :   -42.3742295654948
           8 :    22.1725630831539
           9 :   -7.93303605593599
          10 :   -3.22744348196358
[...]
     /afs/slac.stanford.edu/u/if/mamunm/psp/gbrv1.5pbe/Zr.UPF
     MD5 check sum: 5db81b1e868ab7776c4564c113de050b
     Pseudo is Ultrasoft + core correction, Zval = 12.0
     Generated by new atomic code, or converted to UPF format
     Using radial grid of  887 points,  6 beta functions with:
                l(1) =   0
                l(2) =   0
                l(3) =   1
                l(4) =   1
                l(5) =   2
                l(6) =   2
     Q(r) pseudized with  6 coefficients,  rinner =    1.200   1.200   1.200
                                                       1.200   1.200

     PseudoPot. # 2 for Tc read from file:
     /afs/slac.stanford.edu/u/if/mamunm/psp/gbrv1.5pbe/Tc.UPF
     MD5 check sum: 9eb49e5b028550b2339a02317eb7b844
     Pseudo is Ultrasoft + core correction, Zval = 15.0
     Generated by new atomic code, or converted to UPF format
     Using radial grid of  965 points,  6 beta functions with:
                l(1) =   0
                l(2) =   0
                l(3) =   1
                l(4) =   1
                l(5) =   2
                l(6) =   2
     Q(r) pseudized with  8 coefficients,  rinner =    1.300   1.300   1.300
                                                       1.300   1.300

     vdW kernel table read from file vdW_kernel_table
     MD5 check sum: 095c7af220d748ca6e76c0b4c6cfb241

     atomic species   valence    mass     pseudopotential
        Zr1           12.00    91.22400     Zr( 1.00)
        Tc1           15.00    97.90721     Tc( 1.00)

     No symmetry found

   Cartesian axes

     site n.     atom                  positions (alat units)
         1           Zr1 tau(   1) = (   0.0000000   0.0000000  10.0000000  )
         2           Zr1 tau(   2) = (   3.8029919   2.6884984  10.0000000  )
         3           Tc1 tau(   3) = (   2.8518035   0.0000000  10.0000000  )
         4           Tc1 tau(   4) = (   0.9511885   2.6884984  10.0000000  )
         5           Zr1 tau(   5) = (   5.7036069   4.0321248  12.3286673  )
         6           Zr1 tau(   6) = (   1.9006150   1.3436264  12.3286673  )
         7           Tc1 tau(   7) = (   2.8518035   4.0321248  12.3286673  )
         8           Tc1 tau(   8) = (   4.7524185   1.3436264  12.3286673  )
         9           Zr1 tau(   9) = (   3.8019422   2.6877582  14.6316871  )
        10           Zr1 tau(  10) = (   7.6049239   5.3762473  14.6316841  )
        11           Tc1 tau(  11) = (   6.6532239   2.6873865  14.5581623  )
        12           Tc1 tau(  12) = (   4.7526092   5.3758872  14.5581548  )

     number of k points=    20  Fermi-Dirac smearing, width (Ry)=  0.0110
                       cart. coord. in units 2pi/alat
        k(    1) = (   0.0000000   0.0000000   0.0000000), wk =   0.0555556
        k(    2) = (   0.0000000   0.0309962   0.0000000), wk =   0.1111111
        k(    3) = (   0.0000000   0.0619925   0.0000000), wk =   0.1111111
        k(    4) = (   0.0000000  -0.0929887   0.0000000), wk =   0.0555556
        k(    5) = (   0.0292213  -0.0103385   0.0000000), wk =   0.1111111
        k(    6) = (   0.0292213   0.0206578   0.0000000), wk =   0.1111111
        k(    7) = (   0.0292213   0.0516540   0.0000000), wk =   0.1111111
        k(    8) = (   0.0292213  -0.1033272   0.0000000), wk =   0.1111111
        k(    9) = (   0.0292213  -0.0723309   0.0000000), wk =   0.1111111
        k(   10) = (   0.0292213  -0.0413347   0.0000000), wk =   0.1111111
        k(   11) = (   0.0584425  -0.0206769   0.0000000), wk =   0.1111111
        k(   12) = (   0.0584425   0.0103193   0.0000000), wk =   0.1111111
        k(   13) = (   0.0584425   0.0413155   0.0000000), wk =   0.1111111
        k(   14) = (   0.0584425  -0.1136656   0.0000000), wk =   0.1111111
        k(   15) = (   0.0584425  -0.0826694   0.0000000), wk =   0.1111111
        k(   16) = (   0.0584425  -0.0516732   0.0000000), wk =   0.1111111
        k(   17) = (  -0.0876638   0.0310154   0.0000000), wk =   0.0555556
        k(   18) = (  -0.0876638   0.0620116   0.0000000), wk =   0.1111111
        k(   19) = (  -0.0876638   0.0930079   0.0000000), wk =   0.1111111
        k(   20) = (  -0.0876638  -0.0619733   0.0000000), wk =   0.0555556

     Largest allocated arrays     est. size (Mb)     dimensions
     Largest temporary arrays     est. size (Mb)     dimensions

     Check: negative/imaginary core charge=   -0.000014    0.000000

     Initial potential from superposition of free atoms
     Check: negative starting charge=   -1.124279

     starting charge  155.98694, renormalised to  162.00000

[...]

     *
     * You are using vdW-DF for exchange-correlation in this calculation.
     * Please cite the following three references that made this development
     * possible:
     *
     *   M. Dion, H. Rydberg, E. Schroder, D. C. Langreth, and
     *   B. I. Lundqvist, Phys. Rev. Lett. 92, 246401 (2004).
     *
     *   T. Thonhauser, V. R. Cooper, S. Li, A. Puzder, P. Hyldgaard, and
     *   D. C. Langreth, Phys. Rev. B 76, 125112 (2007).
     *
     *   G. Roman-Perez and J. M. Soler, Phys. Rev. Lett. 103, 096102 (2009).
     *
     *
     * If you are using vdW-DF2, please also cite:
     *
     *   K. Lee, E. D. Murray, L. Kong, B. I. Lundqvist, and
     *   D. C. Langreth, Phys. Rev. B 82, 081101(R) (2010).
     *
     *
     * If you are calculating the stress with vdW-DF, please also cite:
     *
     *   R. Sabatini, E. Kucukbenli, B. Kolb, T. Thonhauser, and
     *   S. de Gironcoli, J. Phys.: Condens. Matter 24, 424209 (2012).
     *

     Carrying out vdW-DF run using the following parameters:

     Nqs =      20    Nr_points =    1024   r_max =   100.000
     q_mesh =
               0.00001000     0.04494208     0.09755937     0.15916263
               0.23128650     0.31572767     0.41458969     0.53033537
               0.66584808     0.82450364     1.01025438     1.22772762
               1.48234092     1.78043706     2.12944203     2.53805004
               3.01644009     3.57652955     4.23227104     5.00000000

     Gradients computed in reciprocal space

[...]

     Starting wfc are  156 randomized atomic wfcs

     Self-consistent Calculation

[...]

     total energy              =   -1650.37577626 Ry
     Harris-Foulkes estimate   =   -1650.37577482 Ry
     estimated scf accuracy    <       0.00000129 Ry

     iteration # 17     ecut=    36.75 Ry     beta=0.10
     Davidson diagonalization with overlap
     ethr =  7.96E-10,  avg # of iterations =  2.1

[...]

     negative rho (up, down):  1.162E+00 0.000E+00

     Adding external electric field

     Computed dipole along edir(3) :
        Dipole                0.0288 Ry au,          0.0733 Debye
        Dipole field          0.0001 Ry au

        Potential amp.       -0.0065 Ry
        Total length         45.4307 bohr

     End of self-consistent calculation

[...]

          k = 0.0584-0.0517 0.0000 ( 19205 PWs)   bands (ev):

[...]

          k =-0.0877-0.0620 0.0000 ( 19124 PWs)   bands (ev):

   -64.5572 -64.5507 -64.3429 -64.3363 -64.3122 -64.3055 -47.1019 -47.0865
   -47.0683 -47.0530 -46.5048 -46.4677 -36.6182 -36.6142 -36.6106 -36.5960
   -36.5922 -36.5130 -36.4158 -36.4120 -36.4034 -36.3955 -36.3707 -36.3664
   -36.3587 -36.3559 -36.3448 -36.3418 -36.3167 -36.2962 -25.2467 -25.2229
   -25.2115 -25.1537 -25.1475 -25.1145 -25.0932 -25.0477 -25.0361 -25.0036
   -24.8553 -24.8380 -24.7116 -24.5302 -24.4916 -24.4800 -24.4663 -24.3151
    -1.6389  -1.5110  -0.8522  -0.8208  -0.6800  -0.6241  -0.5541  -0.4795
    -0.3709  -0.1613  -0.0794  -0.0763   0.0766   0.2338   0.2508   0.2902
     0.3830   0.4065   0.6545   0.8253   0.8832   0.9156   0.9974   1.1445
     1.1875   1.1905   1.3844   1.4530   1.4918   1.5543   1.6408   1.6655
     1.6687   1.6813   1.7674   1.8053   1.8432   2.0376   2.1068   2.3083
     2.4442   2.5323   3.2847   3.2912   3.3250   3.5713   3.6352   3.7508
     3.9164   3.9677   3.9752   4.0645   4.1578   4.1733   4.4853   4.6038
     4.6653   4.8619   5.0280   5.0981   5.4193   5.4581   6.0513

     the Fermi energy is     1.9196 ev

!    total energy              =   -1650.37578168 Ry
     Harris-Foulkes estimate   =   -1650.37577606 Ry
     estimated scf accuracy    <       0.00000075 Ry

     The total energy is the sum of the following terms:

     one-electron contribution =  -12766.20861211 Ry
     hartree contribution      =    6380.02615273 Ry
     xc contribution           =    -309.37327516 Ry
     ewald contribution        =    5045.26769850 Ry
     electric field correction =       0.00000205 Ry
     smearing contrib. (-TS)   =      -0.08774769 Ry

     convergence has been achieved in  17 iterations

 BEEF-vdW xc energy contributions
           1 :   -269.010002234954
           2 :    246.032357367655
           3 :   -205.896270374526
           4 :    157.761651974636
           5 :   -110.845565076305
           6 :    71.5656007227001
           7 :   -42.3337723118267
           8 :    22.0587011384173
           9 :   -7.82131632790703
          10 :   -3.27247466886922
          11 :    12.8036236219445
          12 :   -20.7376059631690
          13 :    25.9773710400601
          14 :   -27.3584114234843
          15 :    24.5027399246483
          16 :   -18.1618982965791
          17 :    9.95573664482617
          18 :   -1.75937640972484
          19 :   -4.92154936692998
          20 :    9.29889657869307
          21 :   -11.3047846679535
          22 :    11.3311980017899
          23 :   -9.90051443071559
          24 :    7.42956951739291
          25 :   -4.17947854446641
          26 :   0.353414103451883
          27 :    3.75993049218943
          28 :   -7.71693424353964
          29 :    10.9676023096318
          30 :   -12.9976728466985
          31 :   -27.4700002427620
          32 :   -20.2601551719958

     Forces acting on atoms (Ry/au):

     negative rho (up, down):  1.162E+00 0.000E+00
     atom    1 type  1   force =    -0.00010265   -0.00007270    0.00110707
     atom    2 type  1   force =    -0.00010157   -0.00007184    0.00110668
     atom    3 type  2   force =    -0.00000658   -0.00000498    0.01814675
     atom    4 type  2   force =    -0.00000714   -0.00000452    0.01815192
     atom    5 type  1   force =     0.00007250    0.00001321   -0.01221760
     atom    6 type  1   force =     0.00003667    0.00006396   -0.01221706
     atom    7 type  2   force =     0.00002521    0.00001770   -0.00699490
     atom    8 type  2   force =     0.00003913    0.00002778   -0.00699465
     atom    9 type  1   force =     0.00000621    0.00000435    0.00000494
     atom   10 type  1   force =     0.00000668    0.00000465    0.00000549
     atom   11 type  2   force =     0.00001618    0.00001130   -0.00005324
     atom   12 type  2   force =     0.00001537    0.00001108   -0.00004542

     Total force =     0.032522     Total SCF correction =     0.002109

     entering subroutine stress ...

     negative rho (up, down):  1.162E+00 0.000E+00
          total   stress  (Ry/bohr**3)                   (kbar)     P=  -18.34
  -0.00017990  -0.00003577   0.00000030        -26.46     -5.26      0.04
  -0.00003577  -0.00015459   0.00000021         -5.26    -22.74      0.03
   0.00000030   0.00000021  -0.00003953          0.04      0.03     -5.81

 !ASE

     Writing output data file calc.save

     General routines

     Parallel routines

   This run was terminated on:   0:29:55  30Dec2018

   JOB DONE.
Job  /afs/slac/g/suncat/bin/suncat-tsmpirun -x LD_LIBRARY_PATH -wdir /scratch/qe387743_0wbW3 pw.x -in pw.inp

TID   HOST_NAME   COMMAND_LINE            STATUS            TERMINATION_TIME
00000 suncat0020 pw.x -in pw.inp   Done                     12/30/2018 00:29:55
00001 suncat0020 pw.x -in pw.inp   Done                     12/30/2018 00:29:55
00002 suncat0020 pw.x -in pw.inp   Done                     12/30/2018 00:29:55
00003 suncat0020 pw.x -in pw.inp   Done                     12/30/2018 00:29:55
00004 suncat0020 pw.x -in pw.inp   Done                     12/30/2018 00:29:55
00005 suncat0020 pw.x -in pw.inp   Done                     12/30/2018 00:29:55
00006 suncat0020 pw.x -in pw.inp   Done                     12/30/2018 00:29:55
00007 suncat0020 pw.x -in pw.inp   Done                     12/30/2018 00:29:55
00008 suncat0014 pw.x -in pw.inp   Done                     12/30/2018 00:29:55
00009 suncat0014 pw.x -in pw.inp   Done                     12/30/2018 00:29:55
00010 suncat0014 pw.x -in pw.inp   Done                     12/30/2018 00:29:55
00011 suncat0014 pw.x -in pw.inp   Done                     12/30/2018 00:29:55
00012 suncat0014 pw.x -in pw.inp   Done                     12/30/2018 00:29:55
00013 suncat0014 pw.x -in pw.inp   Done                     12/30/2018 00:29:55
00014 suncat0014 pw.x -in pw.inp   Done                     12/30/2018 00:29:55
00015 suncat0014 pw.x -in pw.inp   Done                     12/30/2018 00:29:55
00016 suncat0199 pw.x -in pw.inp   Done                     12/30/2018 00:29:55
00017 suncat0199 pw.x -in pw.inp   Done                     12/30/2018 00:29:55
00018 suncat0199 pw.x -in pw.inp   Done                     12/30/2018 00:29:55
00019 suncat0199 pw.x -in pw.inp   Done                     12/30/2018 00:29:55
00020 suncat0199 pw.x -in pw.inp   Done                     12/30/2018 00:29:55
00021 suncat0199 pw.x -in pw.inp   Done                     12/30/2018 00:29:55
00022 suncat0199 pw.x -in pw.inp   Done                     12/30/2018 00:29:55
00023 suncat0199 pw.x -in pw.inp   Done                     12/30/2018 00:29:55
00024 suncat0006 pw.x -in pw.inp   Done                     12/30/2018 00:29:55
00025 suncat0006 pw.x -in pw.inp   Done                     12/30/2018 00:29:55
00026 suncat0006 pw.x -in pw.inp   Done                     12/30/2018 00:29:55
00027 suncat0006 pw.x -in pw.inp   Done                     12/30/2018 00:29:55
00028 suncat0006 pw.x -in pw.inp   Done                     12/30/2018 00:29:55
00029 suncat0006 pw.x -in pw.inp   Done                     12/30/2018 00:29:55
00030 suncat0006 pw.x -in pw.inp   Done                     12/30/2018 00:29:55
00031 suncat0006 pw.x -in pw.inp   Done                     12/30/2018 00:29:55
00032 suncat0005 pw.x -in pw.inp   Done                     12/30/2018 00:29:55
00033 suncat0005 pw.x -in pw.inp   Done                     12/30/2018 00:29:55
00034 suncat0005 pw.x -in pw.inp   Done                     12/30/2018 00:29:55
00035 suncat0005 pw.x -in pw.inp   Done                     12/30/2018 00:29:55
00036 suncat0005 pw.x -in pw.inp   Done                     12/30/2018 00:29:55
00037 suncat0005 pw.x -in pw.inp   Done                     12/30/2018 00:29:55
00038 suncat0005 pw.x -in pw.inp   Done                     12/30/2018 00:29:55
00039 suncat0005 pw.x -in pw.inp   Done                     12/30/2018 00:29:55
00040 suncat0004 pw.x -in pw.inp   Done                     12/30/2018 00:29:55
00041 suncat0004 pw.x -in pw.inp   Done                     12/30/2018 00:29:55
00042 suncat0004 pw.x -in pw.inp   Done                     12/30/2018 00:29:55
00043 suncat0004 pw.x -in pw.inp   Done                     12/30/2018 00:29:55
00044 suncat0004 pw.x -in pw.inp   Done                     12/30/2018 00:29:55
00045 suncat0004 pw.x -in pw.inp   Done                     12/30/2018 00:29:55
00046 suncat0004 pw.x -in pw.inp   Done                     12/30/2018 00:29:55
00047 suncat0004 pw.x -in pw.inp   Done                     12/30/2018 00:29:55
00048 suncat0187 pw.x -in pw.inp   Done                     12/30/2018 00:29:55
00049 suncat0187 pw.x -in pw.inp   Done                     12/30/2018 00:29:55
00050 suncat0187 pw.x -in pw.inp   Done                     12/30/2018 00:29:55
00051 suncat0187 pw.x -in pw.inp   Done                     12/30/2018 00:29:55
00052 suncat0187 pw.x -in pw.inp   Done                     12/30/2018 00:29:55
00053 suncat0187 pw.x -in pw.inp   Done                     12/30/2018 00:29:55
00054 suncat0187 pw.x -in pw.inp   Done                     12/30/2018 00:29:55
00055 suncat0187 pw.x -in pw.inp   Done                     12/30/2018 00:29:55
00056 suncat0186 pw.x -in pw.inp   Done                     12/30/2018 00:29:55
00057 suncat0186 pw.x -in pw.inp   Done                     12/30/2018 00:29:55
00058 suncat0186 pw.x -in pw.inp   Done                     12/30/2018 00:29:55
00059 suncat0186 pw.x -in pw.inp   Done                     12/30/2018 00:29:55
00060 suncat0186 pw.x -in pw.inp   Done                     12/30/2018 00:29:55
00061 suncat0186 pw.x -in pw.inp   Done                     12/30/2018 00:29:55
00062 suncat0186 pw.x -in pw.inp   Done                     12/30/2018 00:29:55
00063 suncat0186 pw.x -in pw.inp   Done                     12/30/2018 00:29:55