     Program PWSCF v.5.1rc2 (svn rev. 11289) starts on 19Dec2018 at  3:50:22

     Current dimensions of program PWSCF are:
     Max number of different atomic species (ntypx) = 10
     Max number of k-points (npk) =  40000
     Max angular momentum in pseudopotentials (lmaxx) =  3
     Presently stress not available with electric field

     IMPORTANT: XC functional enforced from input :
     Exchange-correlation      = BEEF-VDW ( 1  4 27 13 2)
     Any further DFT definition will be discarded
     Please, verify this is what you really want

     Subspace diagonalization in iterative solution of the eigenvalue problem:
     a serial algorithm will be used

     Found symmetry operation: I + ( -0.5000 -0.5000  0.0000)
     This is a supercell, fractional translations are disabled

     bravais-lattice index     =            0
     lattice parameter (alat)  =       1.8897  a.u.
     unit-cell volume          =    4911.5288 (a.u.)^3
     number of atoms/cell      =           12
     number of atomic types    =            2
     number of electrons       =       168.00
     number of Kohn-Sham states=          114
     kinetic-energy cutoff     =      36.7493  Ry
     charge density cutoff     =     367.4932  Ry
     convergence threshold     =      1.0E-06
     mixing beta               =       0.1000
     number of iterations used =           10  plain     mixing
     Exchange-correlation      = BEEF-VDW ( 1  4 27 13 2)
     nstep                     =           50

     celldm(1)=   1.889726  celldm(2)=   0.000000  celldm(3)=   0.000000
     celldm(4)=   0.000000  celldm(5)=   0.000000  celldm(6)=   0.000000

     crystal axes: (cart. coord. in units of alat)
               a(1) = (   5.593236   0.000000   0.000000 )
               a(2) = (   1.778218   5.303040   0.000000 )
               a(3) = (   0.000000   0.000000  24.537596 )

     reciprocal axes: (cart. coord. in units 2 pi/alat)
               b(1) = (  0.178787 -0.059951  0.000000 )
               b(2) = (  0.000000  0.188571  0.000000 )
               b(3) = (  0.000000  0.000000  0.040754 )

     PseudoPot. # 1 for Ru read from file:
     /afs/slac.stanford.edu/u/if/mamunm/psp/gbrv1.5pbe/Ru.UPF
     MD5 check sum: 7158a806dd851261a58e6920c40ebe78
     Pseudo is Ultrasoft + core correction, Zval = 16.0
     Generated by new atomic code, or converted to UPF format
     Using radial grid of  967 points,  6 beta functions with:
                l(1) =   0
                l(2) =   0
                l(3) =   1
                l(4) =   1
                l(5) =   2
                l(6) =   2
     Q(r) pseudized with  8 coefficients,  rinner =    1.300   1.300   1.300
                                                       1.300   1.300

     PseudoPot. # 2 for Hf read from file:
     /afs/slac.stanford.edu/u/if/mamunm/psp/gbrv1.5pbe/Hf.UPF
     MD5 check sum: 8ee9378dfe14276e333edf04c5e4aa26
     Pseudo is Ultrasoft + core correction, Zval = 12.0
     Generated by new atomic code, or converted to UPF format
     Using radial grid of  921 points,  8 beta functions with:
                l(1) =   0
                l(2) =   0
                l(3) =   0
                l(4) =   1
                l(5) =   1
                l(6) =   2
                l(7) =   2
                l(8) =   3
     Q(r) pseudized with  6 coefficients,  rinner =    1.200   1.200   1.200
                                                       1.200   1.200   1.200
                                                       1.200

     vdW kernel table read from file vdW_kernel_table
     MD5 check sum: 095c7af220d748ca6e76c0b4c6cfb241

     atomic species   valence    mass     pseudopotential
        Ru1           16.00   101.07000     Ru( 1.00)
        Hf1           12.00   178.49000     Hf( 1.00)

     No symmetry found

   Cartesian axes

     site n.     atom                  positions (alat units)
         1           Ru1 tau(   1) = (   0.0000000   0.0000000  10.0000000  )
         2           Ru1 tau(   2) = (   3.6857273   2.6515200  10.0000000  )
         3           Hf1 tau(   3) = (   2.7966182   0.0000000  10.0000000  )
         4           Hf1 tau(   4) = (   0.8891091   2.6515200  10.0000000  )
         5           Ru1 tau(   5) = (   5.5932364   4.0237862  12.2687979  )
         6           Ru1 tau(   6) = (   1.9075092   1.3722661  12.2687979  )
         7           Hf1 tau(   7) = (   2.7966182   4.0237862  12.2687979  )
         8           Hf1 tau(   8) = (   4.7041274   1.3722661  12.2687979  )
         9           Ru1 tau(   9) = (   3.8150183   2.7445323  14.5375959  )
        10           Ru1 tau(  10) = (   0.1292911   0.0930123  14.5375959  )
        11           Hf1 tau(  11) = (   1.0184001   2.7445323  14.5375959  )
        12           Hf1 tau(  12) = (   2.9259093   0.0930123  14.5375959  )

     number of k points=    20  Fermi-Dirac smearing, width (Ry)=  0.0110
                       cart. coord. in units 2pi/alat
        k(    1) = (   0.0000000   0.0000000   0.0000000), wk =   0.0555556
        k(    2) = (   0.0000000   0.0314285   0.0000000), wk =   0.1111111
        k(    3) = (   0.0000000   0.0628570   0.0000000), wk =   0.1111111
        k(    4) = (   0.0000000  -0.0942855   0.0000000), wk =   0.0555556
        k(    5) = (   0.0297979  -0.0099918   0.0000000), wk =   0.1111111
        k(    6) = (   0.0297979   0.0214367   0.0000000), wk =   0.1111111
        k(    7) = (   0.0297979   0.0528652   0.0000000), wk =   0.1111111
        k(    8) = (   0.0297979  -0.1042774   0.0000000), wk =   0.1111111
        k(    9) = (   0.0297979  -0.0728489   0.0000000), wk =   0.1111111
        k(   10) = (   0.0297979  -0.0414204   0.0000000), wk =   0.1111111
        k(   11) = (   0.0595958  -0.0199837   0.0000000), wk =   0.1111111
        k(   12) = (   0.0595958   0.0114448   0.0000000), wk =   0.1111111
        k(   13) = (   0.0595958   0.0428733   0.0000000), wk =   0.1111111
        k(   14) = (   0.0595958  -0.1142692   0.0000000), wk =   0.1111111
        k(   15) = (   0.0595958  -0.0828407   0.0000000), wk =   0.1111111
        k(   16) = (   0.0595958  -0.0514122   0.0000000), wk =   0.1111111
        k(   17) = (  -0.0893937   0.0299755   0.0000000), wk =   0.0555556
        k(   18) = (  -0.0893937   0.0614040   0.0000000), wk =   0.1111111
        k(   19) = (  -0.0893937   0.0928326   0.0000000), wk =   0.1111111
        k(   20) = (  -0.0893937  -0.0643100   0.0000000), wk =   0.0555556

     Largest allocated arrays     est. size (Mb)     dimensions
     Largest temporary arrays     est. size (Mb)     dimensions

     Check: negative/imaginary core charge=   -0.000003    0.000000

     Initial potential from superposition of free atoms
     Check: negative starting charge=   -1.091673

     starting charge  149.99989, renormalised to  168.00000

     negative rho (up, down):  1.223E+00 0.000E+00

     *
     * You are using vdW-DF for exchange-correlation in this calculation.
     * Please cite the following three references that made this development
     * possible:
     *
     *   M. Dion, H. Rydberg, E. Schroder, D. C. Langreth, and
     *   B. I. Lundqvist, Phys. Rev. Lett. 92, 246401 (2004).
     *
     *   T. Thonhauser, V. R. Cooper, S. Li, A. Puzder, P. Hyldgaard, and
     *   D. C. Langreth, Phys. Rev. B 76, 125112 (2007).
     *
     *   G. Roman-Perez and J. M. Soler, Phys. Rev. Lett. 103, 096102 (2009).
     *
     *
     * If you are using vdW-DF2, please also cite:
     *
     *   K. Lee, E. D. Murray, L. Kong, B. I. Lundqvist, and
     *   D. C. Langreth, Phys. Rev. B 82, 081101(R) (2010).
     *
     *
     * If you are calculating the stress with vdW-DF, please also cite:
     *
     *   R. Sabatini, E. Kucukbenli, B. Kolb, T. Thonhauser, and
     *   S. de Gironcoli, J. Phys.: Condens. Matter 24, 424209 (2012).
     *

     Carrying out vdW-DF run using the following parameters:

     Nqs =      20    Nr_points =    1024   r_max =   100.000
     q_mesh =
               0.00001000     0.04494208     0.09755937     0.15916263
               0.23128650     0.31572767     0.41458969     0.53033537
               0.66584808     0.82450364     1.01025438     1.22772762
               1.48234092     1.78043706     2.12944203     2.53805004
               3.01644009     3.57652955     4.23227104     5.00000000

     Gradients computed in reciprocal space

     Adding external electric field

     Computed dipole along edir(3) :
        Dipole                0.0000 Ry au,          0.0000 Debye
        Dipole field          0.0000 Ry au

        Potential amp.       -0.0000 Ry
        Total length         45.2101 bohr

     Starting wfc are  156 randomized atomic wfcs

     Self-consistent Calculation

     iteration #  1     ecut=    36.75 Ry     beta=0.10
     Davidson diagonalization with overlap
     ethr =  1.00E-02,  avg # of iterations =  8.8

[...]

     total energy              =   -2113.69545909 Ry
     Harris-Foulkes estimate   =   -2150.67952152 Ry
     estimated scf accuracy    <     208.98216540 Ry

[...]

     End of self-consistent calculation

          k = 0.0000 0.0000 0.0000 ( 18475 PWs)   bands (ev):

   -70.6388 -70.6341 -70.0782 -70.0781 -70.0736 -70.0736 -60.6525 -60.6520
   -60.6400 -60.6396 -60.1063 -60.0938 -40.7299 -40.6490 -40.6198 -40.6139
   -40.6062 -40.5982 -40.1432 -40.1410 -40.1348 -40.1312 -40.1235 -40.1203
   -40.0435 -40.0432 -40.0126 -40.0100 -40.0042 -40.0039 -29.3110 -29.3091
   -29.2964 -29.2781 -29.2554 -29.2444 -29.1153 -29.1007 -29.0849 -29.0663
   -28.9655 -28.9626 -28.8056 -28.6854 -28.6688 -28.6340 -28.5909 -28.5090
    -4.7672  -3.1013  -2.6542  -2.4349  -2.3480  -2.2516  -2.1054  -1.9961
    -1.9891  -1.9163  -1.3790  -1.3756  -0.9951  -0.7693  -0.7136  -0.6844
    -0.3730  -0.3321  -0.2801  -0.2773  -0.2156  -0.1256   0.0593   0.4770
     0.7135   0.7566   0.7724   1.2268   1.3822   1.5116   1.5158   1.5385
     1.6700   2.1456   2.6945   2.7351   2.9388   3.1185   3.1932   3.3187
     3.6351   3.7119   3.9245   3.9327   4.0678   4.0842   4.1371   4.3197
     4.4115   4.6662   4.6816   4.8841   5.1203   5.1261   5.3669   5.3678
     5.5313   5.5441   5.5791   5.7114   5.9302   5.9757   6.3301   6.3474
     6.4770   6.7954

[...]

          k =-0.0894 0.0300 0.0000 ( 18508 PWs)   bands (ev):

[...]

     the Fermi energy is     2.0065 ev

!    total energy              =   -2134.57676975 Ry
     Harris-Foulkes estimate   =   -2134.57676803 Ry
     estimated scf accuracy    <       0.00000075 Ry

     The total energy is the sum of the following terms:

     one-electron contribution =  -14264.97407341 Ry
     hartree contribution      =    7125.72695634 Ry
     xc contribution           =    -625.73846529 Ry
     ewald contribution        =    5630.45939175 Ry
     electric field correction =       0.00000001 Ry
     smearing contrib. (-TS)   =      -0.05057914 Ry

     convergence has been achieved in  19 iterations

 BEEF-vdW xc energy contributions
           1 :   -560.053081362741
           2 :    519.173053801278
           3 :   -447.002835806395
           4 :    359.050072155878
           5 :   -271.476817243361
           6 :    196.460151784860
[...]
     SCF correction compared to forces is large: reduce conv_thr to get better values

[...]

   This run was terminated on:   4: 8:36  19Dec2018

[...]

     Program PWSCF v.5.1rc2 (svn rev. 11289) starts on 19Dec2018 at  4: 8:42

[...]

   This run was terminated on:   4:15: 1  19Dec2018

[...]

     Program PWSCF v.5.1rc2 (svn rev. 11289) starts on 19Dec2018 at  4:15: 7

     Current dimensions of program PWSCF are:
     Max number of different atomic species (ntypx) = 10
     Max number of k-points (npk) =  40000
     Max angular momentum in pseudopotentials (lmaxx) =  3
     Presently stress not available with electric field

     IMPORTANT: XC functional enforced from input :
     Exchange-correlation      = BEEF-VDW ( 1  4 27 13 2)
     Any further DFT definition will be discarded
     Please, verify this is what you really want

     Subspace diagonalization in iterative solution of the eigenvalue problem:
     a serial algorithm will be used

     Found symmetry operation: I + ( -0.5000 -0.5000  0.0000)
     This is a supercell, fractional translations are disabled

     bravais-lattice index     =            0
     lattice parameter (alat)  =       1.8897  a.u.
     unit-cell volume          =    4911.5288 (a.u.)^3
     number of atoms/cell      =           12
     number of atomic types    =            2
     number of electrons       =       168.00
     number of Kohn-Sham states=          114
     kinetic-energy cutoff     =      36.7493  Ry
     charge density cutoff     =     367.4932  Ry
     convergence threshold     =      1.0E-06
     mixing beta               =       0.1000
     number of iterations used =           10  plain     mixing
     Exchange-correlation      = BEEF-VDW ( 1  4 27 13 2)
     nstep                     =           50

     celldm(1)=   1.889726  celldm(2)=   0.000000  celldm(3)=   0.000000
     celldm(4)=   0.000000  celldm(5)=   0.000000  celldm(6)=   0.000000

     crystal axes: (cart. coord. in units of alat)
               a(1) = (   5.593236   0.000000   0.000000 )
               a(2) = (   1.778218   5.303040   0.000000 )
               a(3) = (   0.000000   0.000000  24.537596 )

     reciprocal axes: (cart. coord. in units 2 pi/alat)
               b(1) = (  0.178787 -0.059951  0.000000 )
               b(2) = (  0.000000  0.188571  0.000000 )
               b(3) = (  0.000000  0.000000  0.040754 )

     PseudoPot. # 1 for Ru read from file:
     /afs/slac.stanford.edu/u/if/mamunm/psp/gbrv1.5pbe/Ru.UPF
     MD5 check sum: 7158a806dd851261a58e6920c40ebe78
     Pseudo is Ultrasoft + core correction, Zval = 16.0
     Generated by new atomic code, or converted to UPF format
     Using radial grid of  967 points,  6 beta functions with:
                l(1) =   0
                l(2) =   0
                l(3) =   1
                l(4) =   1
                l(5) =   2
                l(6) =   2
     Q(r) pseudized with  8 coefficients,  rinner =    1.300   1.300   1.300
                                                       1.300   1.300

     PseudoPot. # 2 for Hf read from file:
     /afs/slac.stanford.edu/u/if/mamunm/psp/gbrv1.5pbe/Hf.UPF
     MD5 check sum: 8ee9378dfe14276e333edf04c5e4aa26
     Pseudo is Ultrasoft + core correction, Zval = 12.0
     Generated by new atomic code, or converted to UPF format
     Using radial grid of  921 points,  8 beta functions with:
                l(1) =   0
                l(2) =   0
                l(3) =   0
                l(4) =   1
                l(5) =   1
                l(6) =   2
                l(7) =   2
                l(8) =   3
     Q(r) pseudized with  6 coefficients,  rinner =    1.200   1.200   1.200
                                                       1.200   1.200   1.200
                                                       1.200

     vdW kernel table read from file vdW_kernel_table
     MD5 check sum: 095c7af220d748ca6e76c0b4c6cfb241

     atomic species   valence    mass     pseudopotential
        Ru1           16.00   101.07000     Ru( 1.00)
        Hf1           12.00   178.49000     Hf( 1.00)

     No symmetry found

   Cartesian axes

     site n.     atom                  positions (alat units)
         1           Ru1 tau(   1) = (   0.0000000   0.0000000  10.0000000  )
         2           Ru1 tau(   2) = (   3.6857273   2.6515200  10.0000000  )
         3           Hf1 tau(   3) = (   2.7966182   0.0000000  10.0000000  )
         4           Hf1 tau(   4) = (   0.8891091   2.6515200  10.0000000  )
         5           Ru1 tau(   5) = (   5.5932364   4.0237862  12.2687979  )
         6           Ru1 tau(   6) = (   1.9075092   1.3722661  12.2687979  )
         7           Hf1 tau(   7) = (   2.7966182   4.0237862  12.2687979  )
         8           Hf1 tau(   8) = (   4.7041274   1.3722661  12.2687979  )
         9           Ru1 tau(   9) = (   3.7568831   2.7027104  14.4246782  )
        10           Ru1 tau(  10) = (   0.0711555   0.0511872  14.4246699  )
        11           Hf1 tau(  11) = (   0.9539751   2.6981850  14.5863432  )
        12           Hf1 tau(  12) = (   2.8614878   0.0466667  14.5863462  )

     number of k points=    20  Fermi-Dirac smearing, width (Ry)=  0.0110
                       cart. coord. in units 2pi/alat
        k(    1) = (   0.0000000   0.0000000   0.0000000), wk =   0.0555556
        k(    2) = (   0.0000000   0.0314285   0.0000000), wk =   0.1111111
        k(    3) = (   0.0000000   0.0628570   0.0000000), wk =   0.1111111
        k(    4) = (   0.0000000  -0.0942855   0.0000000), wk =   0.0555556
        k(    5) = (   0.0297979  -0.0099918   0.0000000), wk =   0.1111111
        k(    6) = (   0.0297979   0.0214367   0.0000000), wk =   0.1111111
        k(    7) = (   0.0297979   0.0528652   0.0000000), wk =   0.1111111
        k(    8) = (   0.0297979  -0.1042774   0.0000000), wk =   0.1111111
        k(    9) = (   0.0297979  -0.0728489   0.0000000), wk =   0.1111111
        k(   10) = (   0.0297979  -0.0414204   0.0000000), wk =   0.1111111
        k(   11) = (   0.0595958  -0.0199837   0.0000000), wk =   0.1111111
        k(   12) = (   0.0595958   0.0114448   0.0000000), wk =   0.1111111
        k(   13) = (   0.0595958   0.0428733   0.0000000), wk =   0.1111111
        k(   14) = (   0.0595958  -0.1142692   0.0000000), wk =   0.1111111
        k(   15) = (   0.0595958  -0.0828407   0.0000000), wk =   0.1111111
        k(   16) = (   0.0595958  -0.0514122   0.0000000), wk =   0.1111111
        k(   17) = (  -0.0893937   0.0299755   0.0000000), wk =   0.0555556
        k(   18) = (  -0.0893937   0.0614040   0.0000000), wk =   0.1111111
        k(   19) = (  -0.0893937   0.0928326   0.0000000), wk =   0.1111111
        k(   20) = (  -0.0893937  -0.0643100   0.0000000), wk =   0.0555556

     Largest allocated arrays     est. size (Mb)     dimensions
     Largest temporary arrays     est. size (Mb)     dimensions

     Check: negative/imaginary core charge=   -0.000003    0.000000

     Initial potential from superposition of free atoms
     Check: negative starting charge=   -1.093538

     starting charge  149.99989, renormalised to  168.00000

[...]

     *
     * You are using vdW-DF for exchange-correlation in this calculation.
     * Please cite the following three references that made this development
     * possible:
     *
     *   M. Dion, H. Rydberg, E. Schroder, D. C. Langreth, and
     *   B. I. Lundqvist, Phys. Rev. Lett. 92, 246401 (2004).
     *
     *   T. Thonhauser, V. R. Cooper, S. Li, A. Puzder, P. Hyldgaard, and
     *   D. C. Langreth, Phys. Rev. B 76, 125112 (2007).
     *
     *   G. Roman-Perez and J. M. Soler, Phys. Rev. Lett. 103, 096102 (2009).
     *
     *
     * If you are using vdW-DF2, please also cite:
     *
     *   K. Lee, E. D. Murray, L. Kong, B. I. Lundqvist, and
     *   D. C. Langreth, Phys. Rev. B 82, 081101(R) (2010).
     *
     *
     * If you are calculating the stress with vdW-DF, please also cite:
     *
     *   R. Sabatini, E. Kucukbenli, B. Kolb, T. Thonhauser, and
     *   S. de Gironcoli, J. Phys.: Condens. Matter 24, 424209 (2012).
     *

     Carrying out vdW-DF run using the following parameters:

     Nqs =      20    Nr_points =    1024   r_max =   100.000
     q_mesh =
               0.00001000     0.04494208     0.09755937     0.15916263
               0.23128650     0.31572767     0.41458969     0.53033537
               0.66584808     0.82450364     1.01025438     1.22772762
               1.48234092     1.78043706     2.12944203     2.53805004
               3.01644009     3.57652955     4.23227104     5.00000000

     Gradients computed in reciprocal space

[...]

     Starting wfc are  156 randomized atomic wfcs

     Self-consistent Calculation

[...]

     total energy              =   -2134.58832530 Ry
     Harris-Foulkes estimate   =   -2134.58832491 Ry
     estimated scf accuracy    <       0.00000163 Ry

     iteration # 21     ecut=    36.75 Ry     beta=0.10
     Davidson diagonalization with overlap
     ethr =  9.71E-10,  avg # of iterations =  2.4

[...]

     negative rho (up, down):  1.147E+00 0.000E+00

     Adding external electric field

     Computed dipole along edir(3) :
        Dipole                0.0448 Ry au,          0.1139 Debye
        Dipole field          0.0001 Ry au

        Potential amp.       -0.0104 Ry
        Total length         45.2101 bohr

     End of self-consistent calculation

[...]

          k = 0.0596-0.0514 0.0000 ( 18493 PWs)   bands (ev):

[...]

          k =-0.0894-0.0643 0.0000 ( 18488 PWs)   bands (ev):

   -70.5363 -70.5319 -70.0190 -70.0145 -70.0116 -70.0073 -60.6389 -60.6262
   -60.5861 -60.5733 -59.9207 -59.9072 -40.6119 -40.5366 -40.5111 -40.5028
   -40.5028 -40.4975 -40.0791 -40.0704 -40.0661 -40.0652 -40.0618 -40.0473
   -40.0043 -39.9744 -39.9562 -39.9500 -39.9447 -39.9397 -29.3077 -29.2715
   -29.2379 -29.2362 -29.2084 -29.2075 -29.1158 -29.0771 -29.0687 -29.0341
   -28.9345 -28.9061 -28.6532 -28.5506 -28.5189 -28.4547 -28.4444 -28.3426
    -2.6588  -2.5378  -1.5831  -1.4777  -1.4019  -1.3882  -1.2544  -1.1809
    -1.0492  -0.6400  -0.6370  -0.4533  -0.4486  -0.3187  -0.3075  -0.1433
    -0.0067  -0.0000   0.1277   0.1668   0.3151   0.4901   0.5939   0.6375
     0.6421   0.7074   0.8875   0.9123   1.0348   1.1600   1.1777   1.3667
     1.3710   1.4093   1.5981   1.6906   1.7091   1.7244   1.7663   2.0127
     2.1642   2.6637   2.6971   3.3043   3.3564   3.3691   3.5083   3.5935
     3.7111   3.8930   4.2088   4.2094   4.2308   4.2995   4.4008   4.4791
     4.7258   4.8870   5.0329   5.2151   5.3972   6.0480   6.2682   6.4237
     6.9368   7.3627

     the Fermi energy is     2.0477 ev

!    total energy              =   -2134.58832657 Ry
     Harris-Foulkes estimate   =   -2134.58832567 Ry
     estimated scf accuracy    <       0.00000068 Ry

     The total energy is the sum of the following terms:

     one-electron contribution =  -14350.83263889 Ry
     hartree contribution      =    7169.14017886 Ry
     xc contribution           =    -625.78411973 Ry
     ewald contribution        =    5672.93843295 Ry
     electric field correction =       0.00000514 Ry
     smearing contrib. (-TS)   =      -0.05018490 Ry

     convergence has been achieved in  21 iterations

 BEEF-vdW xc energy contributions
           1 :   -560.102010930384
           2 :    519.246380703396
           3 :   -447.106288702879
           4 :    359.162054761991
           5 :   -271.556108766973
           6 :    196.468511636857
           7 :   -139.833622453179
           8 :    101.668105858950
           9 :   -78.1900507579103
          10 :    64.3656213127039
          11 :   -55.8113765435495
          12 :    49.5750899126333
          13 :   -43.9959215817572
          14 :    38.1679035333657
          15 :   -31.5386644414061
          16 :    23.8522661655522
          17 :   -15.3237856800040
          18 :    6.74271957292603
          19 :   0.697232168211258
          20 :   -5.82603290096961
          21 :    7.95776283321902
          22 :   -7.15107298399425
          23 :    4.16204922543614
          24 :  -0.166366246397047
          25 :   -3.58983385491410
          26 :    6.06681725968383
          27 :   -6.59509176339930
          28 :    4.95741758528447
          29 :   -1.43450041937831
          30 :   -3.19804868702897
          31 :   -44.6072020498980
          32 :   -32.6613286549159

     Forces acting on atoms (Ry/au):

     negative rho (up, down):  1.147E+00 0.000E+00
     atom    1 type  1   force =     0.00274198    0.00197228    0.02713714
     atom    2 type  1   force =     0.00274165    0.00197260    0.02713780
     atom    3 type  2   force =     0.00907675    0.00652955   -0.01753414
     atom    4 type  2   force =     0.00907695    0.00652985   -0.01753383
     atom    5 type  1   force =    -0.00482002   -0.00346708   -0.00344543
     atom    6 type  1   force =    -0.00481829   -0.00346668   -0.00344563
     atom    7 type  2   force =    -0.00679784   -0.00489426   -0.00777614
     atom    8 type  2   force =    -0.00680180   -0.00488962   -0.00777622
     atom    9 type  1   force =    -0.00051534   -0.00037070    0.00144106
     atom   10 type  1   force =    -0.00051523   -0.00037005    0.00144309
     atom   11 type  2   force =     0.00031587    0.00022703    0.00017677
     atom   12 type  2   force =     0.00031533    0.00022710    0.00017552

     Total force =     0.052168     Total SCF correction =     0.001333

     entering subroutine stress ...

     negative rho (up, down):  1.147E+00 0.000E+00
          total   stress  (Ry/bohr**3)                   (kbar)     P=  -18.22
  -0.00016668   0.00000691  -0.00002107        -24.52      1.02     -3.10
   0.00000691  -0.00017132  -0.00001516          1.02    -25.20     -2.23
  -0.00002107  -0.00001516  -0.00003363         -3.10     -2.23     -4.95

 !ASE

     Writing output data file calc.save

     General routines

     Parallel routines

   This run was terminated on:   4:21:24  19Dec2018

   JOB DONE.
Job  /afs/slac/g/suncat/bin/suncat-tsmpirun -x LD_LIBRARY_PATH -wdir /scratch/qe530504_tnwcE pw.x -in pw.inp

TID   HOST_NAME   COMMAND_LINE            STATUS            TERMINATION_TIME
00000 suncat2050 pw.x -in pw.inp   Done                     12/19/2018 04:21:24
00001 suncat2050 pw.x -in pw.inp   Done                     12/19/2018 04:21:24
00002 suncat2050 pw.x -in pw.inp   Done                     12/19/2018 04:21:24
00003 suncat2050 pw.x -in pw.inp   Done                     12/19/2018 04:21:24
00004 suncat2050 pw.x -in pw.inp   Done                     12/19/2018 04:21:24
00005 suncat2050 pw.x -in pw.inp   Done                     12/19/2018 04:21:24
00006 suncat2050 pw.x -in pw.inp   Done                     12/19/2018 04:21:24
00007 suncat2050 pw.x -in pw.inp   Done                     12/19/2018 04:21:24
00008 suncat2050 pw.x -in pw.inp   Done                     12/19/2018 04:21:24
00009 suncat2050 pw.x -in pw.inp   Done                     12/19/2018 04:21:24
00010 suncat2050 pw.x -in pw.inp   Done                     12/19/2018 04:21:24
00011 suncat2050 pw.x -in pw.inp   Done                     12/19/2018 04:21:24
00012 suncat2050 pw.x -in pw.inp   Done                     12/19/2018 04:21:24
00013 suncat2050 pw.x -in pw.inp   Done                     12/19/2018 04:21:24
00014 suncat2050 pw.x -in pw.inp   Done                     12/19/2018 04:21:24
00015 suncat2050 pw.x -in pw.inp   Done                     12/19/2018 04:21:24
00016 suncat2049 pw.x -in pw.inp   Done                     12/19/2018 04:21:24
00017 suncat2049 pw.x -in pw.inp   Done                     12/19/2018 04:21:24
00018 suncat2049 pw.x -in pw.inp   Done                     12/19/2018 04:21:24
00019 suncat2049 pw.x -in pw.inp   Done                     12/19/2018 04:21:24
00020 suncat2049 pw.x -in pw.inp   Done                     12/19/2018 04:21:24
00021 suncat2049 pw.x -in pw.inp   Done                     12/19/2018 04:21:24
00022 suncat2049 pw.x -in pw.inp   Done                     12/19/2018 04:21:24
00023 suncat2049 pw.x -in pw.inp   Done                     12/19/2018 04:21:24
00024 suncat2049 pw.x -in pw.inp   Done                     12/19/2018 04:21:24
00025 suncat2049 pw.x -in pw.inp   Done                     12/19/2018 04:21:24
00026 suncat2049 pw.x -in pw.inp   Done                     12/19/2018 04:21:24
00027 suncat2049 pw.x -in pw.inp   Done                     12/19/2018 04:21:24
00028 suncat2049 pw.x -in pw.inp   Done                     12/19/2018 04:21:24
00029 suncat2049 pw.x -in pw.inp   Done                     12/19/2018 04:21:24
00030 suncat2049 pw.x -in pw.inp   Done                     12/19/2018 04:21:24
00031 suncat2049 pw.x -in pw.inp   Done                     12/19/2018 04:21:24