     Program PWSCF v.5.1rc2 (svn rev. 11289) starts on 19Dec2018 at  6: 6: 7

     Current dimensions of program PWSCF are:
     Max number of different atomic species (ntypx) = 10
     Max number of k-points (npk) =  40000
     Max angular momentum in pseudopotentials (lmaxx) =  3
     Presently stress not available with electric field

     IMPORTANT: XC functional enforced from input :
     Exchange-correlation      = BEEF-VDW ( 1  4 27 13 2)
     Any further DFT definition will be discarded
     Please, verify this is what you really want

     Subspace diagonalization in iterative solution of the eigenvalue problem:
     a serial algorithm will be used

     Found symmetry operation: I + ( -0.5000 -0.5000  0.0000)
     This is a supercell, fractional translations are disabled

     Generating pointlists ...
     new r_m :   0.4125 (alat units)  0.7795 (a.u.) for type    1
     new r_m :   0.4125 (alat units)  0.7795 (a.u.) for type    2

     bravais-lattice index     =            0
     lattice parameter (alat)  =       1.8897  a.u.
     unit-cell volume          =    4135.0927 (a.u.)^3
     number of atoms/cell      =           12
     number of atomic types    =            2
     number of electrons       =       174.00
     number of Kohn-Sham states=          117
     kinetic-energy cutoff     =      36.7493  Ry
     charge density cutoff     =     367.4932  Ry
     convergence threshold     =      1.0E-06
     mixing beta               =       0.1000
     number of iterations used =           10  plain     mixing
     Exchange-correlation      = BEEF-VDW ( 1  4 27 13 2)
     nstep                     =           50

     celldm(1)=   1.889726  celldm(2)=   0.000000  celldm(3)=   0.000000
     celldm(4)=   0.000000  celldm(5)=   0.000000  celldm(6)=   0.000000

     crystal axes: (cart. coord. in units of alat)
               a(1) = (   5.177983   0.000000   0.000000 )
               a(2) = (   1.717092   4.884987   0.000000 )
               a(3) = (   0.000000   0.000000  24.225047 )

     reciprocal axes: (cart. coord. in units 2 pi/alat)
               b(1) = (  0.193125 -0.067884  0.000000 )
               b(2) = (  0.000000  0.204709  0.000000 )
               b(3) = (  0.000000  0.000000  0.041280 )

     PseudoPot. # 1 for Co read from file:
     /afs/slac.stanford.edu/u/if/mamunm/psp/gbrv1.5pbe/Co.UPF
     MD5 check sum: 5f91765df6ddd3222702df6e7b74a16d
     Pseudo is Ultrasoft + core correction, Zval = 17.0
     Generated by new atomic code, or converted to UPF format
     Using radial grid of  863 points,  6 beta functions with:
                l(1) =   0
                l(2) =   0
                l(3) =   1
                l(4) =   1
                l(5) =   2
                l(6) =   2
     Q(r) pseudized with  8 coefficients,  rinner =    1.200   1.200   1.200
                                                       1.200   1.200

     PseudoPot. # 2 for Ti read from file:
     /afs/slac.stanford.edu/u/if/mamunm/psp/gbrv1.5pbe/Ti.UPF
     MD5 check sum: 88a00a6731bd790ddea75d31a80cb452
     Pseudo is Ultrasoft + core correction, Zval = 12.0
     Generated by new atomic code, or converted to UPF format
     Using radial grid of  851 points,  6 beta functions with:
                l(1) =   0
                l(2) =   0
                l(3) =   1
                l(4) =   1
                l(5) =   2
                l(6) =   2
     Q(r) pseudized with  6 coefficients,  rinner =    1.000   1.000   1.000
                                                       1.000   1.000

     vdW kernel table read from file vdW_kernel_table
     MD5 check sum: 095c7af220d748ca6e76c0b4c6cfb241

     atomic species   valence    mass     pseudopotential
        Co1           17.00    58.93319     Co( 1.00)
        Ti1           12.00    47.86700     Ti( 1.00)

     Starting magnetic structure
     atomic species   magnetization
        Co1          0.118
        Ti1          0.167

     No symmetry found

   Cartesian axes

     site n.     atom                  positions (alat units)
         1           Co1 tau(   1) = (   0.0000000   0.0000000  10.0000000  )
         2           Co1 tau(   2) = (   3.4475373   2.4424936  10.0000000  )
         3           Ti1 tau(   3) = (   2.5889913   0.0000000  10.0000000  )
         4           Ti1 tau(   4) = (   0.8585459   2.4424936  10.0000000  )
         5           Co1 tau(   5) = (   5.1779827   3.6684707  12.1125234  )
         6           Co1 tau(   6) = (   1.7304454   1.2259771  12.1125234  )
         7           Ti1 tau(   7) = (   2.5889913   3.6684707  12.1125234  )
         8           Ti1 tau(   8) = (   4.3194367   1.2259771  12.1125234  )
         9           Co1 tau(   9) = (   3.4608908   2.4519542  14.2250468  )
        10           Co1 tau(  10) = (   0.0133535   0.0094606  14.2250468  )
        11           Ti1 tau(  11) = (   0.8718995   2.4519542  14.2250468  )
        12           Ti1 tau(  12) = (   2.6023448   0.0094606  14.2250468  )

     number of k points=    40  Fermi-Dirac smearing, width (Ry)=  0.0110
                       cart. coord. in units 2pi/alat
        k(    1) = (   0.0000000   0.0000000   0.0000000), wk =   0.0277778
        k(    2) = (   0.0000000   0.0341181   0.0000000), wk =   0.0555556
        k(    3) = (   0.0000000   0.0682363   0.0000000), wk =   0.0555556
        k(    4) = (   0.0000000  -0.1023544   0.0000000), wk =   0.0277778
        k(    5) = (   0.0321876  -0.0113141   0.0000000), wk =   0.0555556
        k(    6) = (   0.0321876   0.0228041   0.0000000), wk =   0.0555556
        k(    7) = (   0.0321876   0.0569222   0.0000000), wk =   0.0555556
        k(    8) = (   0.0321876  -0.1136685   0.0000000), wk =   0.0555556
        k(    9) = (   0.0321876  -0.0795503   0.0000000), wk =   0.0555556
        k(   10) = (   0.0321876  -0.0454322   0.0000000), wk =   0.0555556
        k(   11) = (   0.0643751  -0.0226281   0.0000000), wk =   0.0555556
        k(   12) = (   0.0643751   0.0114900   0.0000000), wk =   0.0555556
        k(   13) = (   0.0643751   0.0456082   0.0000000), wk =   0.0555556
        k(   14) = (   0.0643751  -0.1249825   0.0000000), wk =   0.0555556
        k(   15) = (   0.0643751  -0.0908644   0.0000000), wk =   0.0555556
        k(   16) = (   0.0643751  -0.0567462   0.0000000), wk =   0.0555556
        k(   17) = (  -0.0965627   0.0339422   0.0000000), wk =   0.0277778
        k(   18) = (  -0.0965627   0.0680603   0.0000000), wk =   0.0555556
        k(   19) = (  -0.0965627   0.1021784   0.0000000), wk =   0.0555556
        k(   20) = (  -0.0965627  -0.0684123   0.0000000), wk =   0.0277778
        k(   21) = (   0.0000000   0.0000000   0.0000000), wk =   0.0277778
        k(   22) = (   0.0000000   0.0341181   0.0000000), wk =   0.0555556
        k(   23) = (   0.0000000   0.0682363   0.0000000), wk =   0.0555556
        k(   24) = (   0.0000000  -0.1023544   0.0000000), wk =   0.0277778
        k(   25) = (   0.0321876  -0.0113141   0.0000000), wk =   0.0555556
        k(   26) = (   0.0321876   0.0228041   0.0000000), wk =   0.0555556
        k(   27) = (   0.0321876   0.0569222   0.0000000), wk =   0.0555556
        k(   28) = (   0.0321876  -0.1136685   0.0000000), wk =   0.0555556
        k(   29) = (   0.0321876  -0.0795503   0.0000000), wk =   0.0555556
        k(   30) = (   0.0321876  -0.0454322   0.0000000), wk =   0.0555556
        k(   31) = (   0.0643751  -0.0226281   0.0000000), wk =   0.0555556
        k(   32) = (   0.0643751   0.0114900   0.0000000), wk =   0.0555556
        k(   33) = (   0.0643751   0.0456082   0.0000000), wk =   0.0555556
        k(   34) = (   0.0643751  -0.1249825   0.0000000), wk =   0.0555556
        k(   35) = (   0.0643751  -0.0908644   0.0000000), wk =   0.0555556
        k(   36) = (   0.0643751  -0.0567462   0.0000000), wk =   0.0555556
        k(   37) = (  -0.0965627   0.0339422   0.0000000), wk =   0.0277778
        k(   38) = (  -0.0965627   0.0680603   0.0000000), wk =   0.0555556
        k(   39) = (  -0.0965627   0.1021784   0.0000000), wk =   0.0555556
        k(   40) = (  -0.0965627  -0.0684123   0.0000000), wk =   0.0277778

     Largest allocated arrays     est. size (Mb)     dimensions
     Largest temporary arrays     est. size (Mb)     dimensions

     Check: negative/imaginary core charge=   -0.000007    0.000000

     Initial potential from superposition of free atoms
     Check: negative starting charge=(component1):   -0.004277
     Check: negative starting charge=(component2):   -0.003056

     starting charge  161.99969, renormalised to  174.00000

     negative rho (up, down):  4.594E-03 3.282E-03

     *
     * You are using vdW-DF for exchange-correlation in this calculation.
     * Please cite the following three references that made this development
     * possible:
     *
     *   M. Dion, H. Rydberg, E. Schroder, D. C. Langreth, and
     *   B. I. Lundqvist, Phys. Rev. Lett. 92, 246401 (2004).
     *
     *   T. Thonhauser, V. R. Cooper, S. Li, A. Puzder, P. Hyldgaard, and
     *   D. C. Langreth, Phys. Rev. B 76, 125112 (2007).
     *
     *   G. Roman-Perez and J. M. Soler, Phys. Rev. Lett. 103, 096102 (2009).
     *
     *
     * If you are using vdW-DF2, please also cite:
     *
     *   K. Lee, E. D. Murray, L. Kong, B. I. Lundqvist, and
     *   D. C. Langreth, Phys. Rev. B 82, 081101(R) (2010).
     *
     *
     * If you are calculating the stress with vdW-DF, please also cite:
     *
     *   R. Sabatini, E. Kucukbenli, B. Kolb, T. Thonhauser, and
     *   S. de Gironcoli, J. Phys.: Condens. Matter 24, 424209 (2012).
     *

     Carrying out vdW-DF run using the following parameters:

     Nqs =      20    Nr_points =    1024   r_max =   100.000
     q_mesh =
               0.00001000     0.04494208     0.09755937     0.15916263
               0.23128650     0.31572767     0.41458969     0.53033537
               0.66584808     0.82450364     1.01025438     1.22772762
               1.48234092     1.78043706     2.12944203     2.53805004
               3.01644009     3.57652955     4.23227104     5.00000000

     Gradients computed in reciprocal space

     Adding external electric field

     Computed dipole along edir(3) :
        Dipole                0.0000 Ry au,          0.0000 Debye
        Dipole field          0.0000 Ry au

        Potential amp.       -0.0000 Ry
        Total length         44.6342 bohr

[...]

     Starting wfc are  138 randomized atomic wfcs

     Self-consistent Calculation

     iteration #  1     ecut=    36.75 Ry     beta=0.10
     Davidson diagonalization with overlap
     ethr =  1.00E-02,  avg # of iterations =  8.1

[...]

     Magnetic moment per site:
     atom:    1    charge:    8.4707    magn:    0.9434    constr:    0.0000
     atom:    2    charge:    8.4707    magn:    0.9434    constr:    0.0000
     atom:    3    charge:    3.3643    magn:    0.5137    constr:    0.0000
     atom:    4    charge:    3.3643    magn:    0.5137    constr:    0.0000
     atom:    5    charge:    8.4789    magn:    0.9440    constr:    0.0000
     atom:    6    charge:    8.4789    magn:    0.9440    constr:    0.0000
[...]
                l(3) =   1
                l(4) =   1
                l(5) =   2
                l(6) =   2
     Q(r) pseudized with  8 coefficients,  rinner =    1.200   1.200   1.200
                                                       1.200   1.200

     PseudoPot. # 2 for Ti read from file:
     /afs/slac.stanford.edu/u/if/mamunm/psp/gbrv1.5pbe/Ti.UPF
     MD5 check sum: 88a00a6731bd790ddea75d31a80cb452
     Pseudo is Ultrasoft + core correction, Zval = 12.0
     Generated by new atomic code, or converted to UPF format
     Using radial grid of  851 points,  6 beta functions with:
                l(1) =   0
                l(2) =   0
                l(3) =   1
                l(4) =   1
                l(5) =   2
                l(6) =   2
     Q(r) pseudized with  6 coefficients,  rinner =    1.000   1.000   1.000
                                                       1.000   1.000

     vdW kernel table read from file vdW_kernel_table
     MD5 check sum: 095c7af220d748ca6e76c0b4c6cfb241

     atomic species   valence    mass     pseudopotential
        Co1           17.00    58.93319     Co( 1.00)
        Ti1           12.00    47.86700     Ti( 1.00)

     Starting magnetic structure
     atomic species   magnetization
        Co1          0.118
        Ti1          0.167

     No symmetry found

   Cartesian axes

     site n.     atom                  positions (alat units)
         1           Co1 tau(   1) = (   0.0000000   0.0000000  10.0000000  )
         2           Co1 tau(   2) = (   3.4475373   2.4424936  10.0000000  )
         3           Ti1 tau(   3) = (   2.5889913   0.0000000  10.0000000  )
         4           Ti1 tau(   4) = (   0.8585459   2.4424936  10.0000000  )
         5           Co1 tau(   5) = (   5.1779827   3.6684707  12.1125234  )
         6           Co1 tau(   6) = (   1.7304454   1.2259771  12.1125234  )
         7           Ti1 tau(   7) = (   2.5889913   3.6684707  12.1125234  )
         8           Ti1 tau(   8) = (   4.3194367   1.2259771  12.1125234  )
         9           Co1 tau(   9) = (   3.4570891   2.4492618  13.9928040  )
        10           Co1 tau(  10) = (   0.0098277   0.0069616  13.9929184  )
        11           Ti1 tau(  11) = (   0.8672334   2.4486108  14.2592213  )
        12           Ti1 tau(  12) = (   2.5976436   0.0061676  14.2592200  )

     number of k points=    40  Fermi-Dirac smearing, width (Ry)=  0.0110
                       cart. coord. in units 2pi/alat
        k(    1) = (   0.0000000   0.0000000   0.0000000), wk =   0.0277778
        k(    2) = (   0.0000000   0.0341181   0.0000000), wk =   0.0555556
        k(    3) = (   0.0000000   0.0682363   0.0000000), wk =   0.0555556
        k(    4) = (   0.0000000  -0.1023544   0.0000000), wk =   0.0277778
        k(    5) = (   0.0321876  -0.0113141   0.0000000), wk =   0.0555556
        k(    6) = (   0.0321876   0.0228041   0.0000000), wk =   0.0555556
        k(    7) = (   0.0321876   0.0569222   0.0000000), wk =   0.0555556
        k(    8) = (   0.0321876  -0.1136685   0.0000000), wk =   0.0555556
        k(    9) = (   0.0321876  -0.0795503   0.0000000), wk =   0.0555556
        k(   10) = (   0.0321876  -0.0454322   0.0000000), wk =   0.0555556
        k(   11) = (   0.0643751  -0.0226281   0.0000000), wk =   0.0555556
        k(   12) = (   0.0643751   0.0114900   0.0000000), wk =   0.0555556
        k(   13) = (   0.0643751   0.0456082   0.0000000), wk =   0.0555556
        k(   14) = (   0.0643751  -0.1249825   0.0000000), wk =   0.0555556
        k(   15) = (   0.0643751  -0.0908644   0.0000000), wk =   0.0555556
        k(   16) = (   0.0643751  -0.0567462   0.0000000), wk =   0.0555556
        k(   17) = (  -0.0965627   0.0339422   0.0000000), wk =   0.0277778
        k(   18) = (  -0.0965627   0.0680603   0.0000000), wk =   0.0555556
        k(   19) = (  -0.0965627   0.1021784   0.0000000), wk =   0.0555556
        k(   20) = (  -0.0965627  -0.0684123   0.0000000), wk =   0.0277778
        k(   21) = (   0.0000000   0.0000000   0.0000000), wk =   0.0277778
        k(   22) = (   0.0000000   0.0341181   0.0000000), wk =   0.0555556
        k(   23) = (   0.0000000   0.0682363   0.0000000), wk =   0.0555556
        k(   24) = (   0.0000000  -0.1023544   0.0000000), wk =   0.0277778
        k(   25) = (   0.0321876  -0.0113141   0.0000000), wk =   0.0555556
        k(   26) = (   0.0321876   0.0228041   0.0000000), wk =   0.0555556
        k(   27) = (   0.0321876   0.0569222   0.0000000), wk =   0.0555556
        k(   28) = (   0.0321876  -0.1136685   0.0000000), wk =   0.0555556
        k(   29) = (   0.0321876  -0.0795503   0.0000000), wk =   0.0555556
        k(   30) = (   0.0321876  -0.0454322   0.0000000), wk =   0.0555556
        k(   31) = (   0.0643751  -0.0226281   0.0000000), wk =   0.0555556
        k(   32) = (   0.0643751   0.0114900   0.0000000), wk =   0.0555556
        k(   33) = (   0.0643751   0.0456082   0.0000000), wk =   0.0555556
        k(   34) = (   0.0643751  -0.1249825   0.0000000), wk =   0.0555556
        k(   35) = (   0.0643751  -0.0908644   0.0000000), wk =   0.0555556
        k(   36) = (   0.0643751  -0.0567462   0.0000000), wk =   0.0555556
        k(   37) = (  -0.0965627   0.0339422   0.0000000), wk =   0.0277778
        k(   38) = (  -0.0965627   0.0680603   0.0000000), wk =   0.0555556
        k(   39) = (  -0.0965627   0.1021784   0.0000000), wk =   0.0555556
        k(   40) = (  -0.0965627  -0.0684123   0.0000000), wk =   0.0277778

     Largest allocated arrays     est. size (Mb)     dimensions
     Largest temporary arrays     est. size (Mb)     dimensions

     Check: negative/imaginary core charge=   -0.000007    0.000000

     Initial potential from superposition of free atoms
     Check: negative starting charge=(component1):   -0.004252
     Check: negative starting charge=(component2):   -0.003038

     starting charge  161.99969, renormalised to  174.00000

[...]

     *
     * You are using vdW-DF for exchange-correlation in this calculation.
     * Please cite the following three references that made this development
     * possible:
     *
     *   M. Dion, H. Rydberg, E. Schroder, D. C. Langreth, and
     *   B. I. Lundqvist, Phys. Rev. Lett. 92, 246401 (2004).
     *
     *   T. Thonhauser, V. R. Cooper, S. Li, A. Puzder, P. Hyldgaard, and
     *   D. C. Langreth, Phys. Rev. B 76, 125112 (2007).
     *
     *   G. Roman-Perez and J. M. Soler, Phys. Rev. Lett. 103, 096102 (2009).
     *
     *
     * If you are using vdW-DF2, please also cite:
     *
     *   K. Lee, E. D. Murray, L. Kong, B. I. Lundqvist, and
     *   D. C. Langreth, Phys. Rev. B 82, 081101(R) (2010).
     *
     *
     * If you are calculating the stress with vdW-DF, please also cite:
     *
     *   R. Sabatini, E. Kucukbenli, B. Kolb, T. Thonhauser, and
     *   S. de Gironcoli, J. Phys.: Condens. Matter 24, 424209 (2012).
     *

     Carrying out vdW-DF run using the following parameters:

     Nqs =      20    Nr_points =    1024   r_max =   100.000
     q_mesh =
               0.00001000     0.04494208     0.09755937     0.15916263
               0.23128650     0.31572767     0.41458969     0.53033537
               0.66584808     0.82450364     1.01025438     1.22772762
               1.48234092     1.78043706     2.12944203     2.53805004
               3.01644009     3.57652955     4.23227104     5.00000000

     Gradients computed in reciprocal space

[...]

     Starting wfc are  138 randomized atomic wfcs

     Self-consistent Calculation

[...]

     total energy              =   -2516.72818910 Ry
     Harris-Foulkes estimate   =   -2516.72818888 Ry
     estimated scf accuracy    <       0.00000129 Ry

[...]

     iteration # 55     ecut=    36.75 Ry     beta=0.10
     Davidson diagonalization with overlap
     ethr =  7.44E-10,  avg # of iterations =  2.2

[...]

     negative rho (up, down):  3.000E-03 2.647E-03

[...]

     Adding external electric field

     Computed dipole along edir(3) :
        Dipole                0.0931 Ry au,          0.2367 Debye
        Dipole field          0.0003 Ry au

        Potential amp.       -0.0253 Ry
        Total length         44.6342 bohr

     Magnetic moment per site:
     atom:    1    charge:    8.2767    magn:    0.2804    constr:    0.0000
     atom:    2    charge:    8.2767    magn:    0.2804    constr:    0.0000
     atom:    3    charge:    3.1188    magn:   -0.0593    constr:    0.0000
     atom:    4    charge:    3.1188    magn:   -0.0593    constr:    0.0000
     atom:    5    charge:    8.2716    magn:    0.2700    constr:    0.0000
     atom:    6    charge:    8.2716    magn:    0.2700    constr:    0.0000
     atom:    7    charge:    3.1190    magn:   -0.0154    constr:    0.0000
     atom:    8    charge:    3.1190    magn:   -0.0154    constr:    0.0000
     atom:    9    charge:    8.2794    magn:    0.0079    constr:    0.0000
     atom:   10    charge:    8.2794    magn:    0.0078    constr:    0.0000
     atom:   11    charge:    3.1234    magn:   -0.0130    constr:    0.0000
     atom:   12    charge:    3.1234    magn:   -0.0130    constr:    0.0000

     End of self-consistent calculation

 ------ SPIN UP ------------

[...]

 ------ SPIN DOWN ----------

[...]

          k = 0.0644-0.0567 0.0000 ( 15591 PWs)   bands (ev):

[...]

          k =-0.0966-0.0684 0.0000 ( 15458 PWs)   bands (ev):

   -93.7700 -93.7689 -93.7629 -93.7612 -93.3306 -93.3292 -57.1450 -57.1258
   -57.1061 -57.1033 -57.0995 -57.0802 -57.0798 -57.0795 -57.0708 -57.0528
   -57.0172 -57.0129 -56.7947 -56.7556 -56.6995 -56.6487 -56.5435 -56.5356
   -56.4871 -56.4732 -56.4689 -56.4516 -56.1438 -56.1311 -32.8584 -32.8195
   -32.8194 -32.8052 -32.7929 -32.7363 -32.7317 -32.6890 -32.6731 -32.6358
   -32.5412 -32.5367 -32.4749 -32.4037 -32.3700 -32.3556 -32.3467 -32.2664
    -3.7531  -3.6742  -2.6256  -2.4041  -2.1547  -2.1031  -1.7658  -1.6804
    -1.6548  -1.4834  -1.3566  -1.1422  -1.1381  -0.9973  -0.9787  -0.9392
    -0.9055  -0.7737  -0.6046  -0.5594  -0.5440  -0.5239  -0.4873  -0.4813
    -0.2686  -0.1861  -0.1566  -0.1528  -0.1026  -0.0558  -0.0397   0.0214
     0.0395   0.2739   0.2846   0.2849   0.3537   0.3641   0.4617   0.6365
     0.8562   1.0539   1.1740   1.3608   1.3731   1.4287   1.5575   1.5935
     1.7578   1.8863   1.9105   1.9908   2.0171   2.0914   2.1270   2.1281
     2.3660   2.7199   2.8622   2.9909   3.0463   3.0584   3.3168   3.4370
     3.6689   3.6866   3.8074   4.8293   4.9333

     the Fermi energy is     0.9996 ev

!    total energy              =   -2516.72819081 Ry
     Harris-Foulkes estimate   =   -2516.72818889 Ry
     estimated scf accuracy    <       0.00000095 Ry

     The total energy is the sum of the following terms:

     one-electron contribution =  -19621.99041387 Ry
     hartree contribution      =    9807.56464983 Ry
     xc contribution           =    -314.80970610 Ry
     ewald contribution        =    7612.57706332 Ry
     electric field correction =       0.00002635 Ry
     smearing contrib. (-TS)   =      -0.06981034 Ry

     total magnetization       =     0.81 Bohr mag/cell
     absolute magnetization    =     3.40 Bohr mag/cell

     convergence has been achieved in  55 iterations

 BEEF-vdW xc energy contributions
           1 :   -274.918401059162
           2 :    248.083841083833
           3 :   -202.893603064107
           4 :    152.133102814803
           5 :   -107.234169771276
           6 :    74.1347209147885
           7 :   -52.4745618545581
           8 :    37.8220863929172
           9 :   -25.2169170984532
          10 :    11.9724484273345
          11 :    1.50353651939395
          12 :   -12.8901110098683
          13 :    20.0242590585921
          14 :   -22.4559932110800
          15 :    21.6114157815568
          16 :   -19.7342582122666
          17 :    18.4897348413369
          18 :   -18.1836304464379
          19 :    17.9645465275128
          20 :   -16.7164435901675
          21 :    13.9485032002229
          22 :   -10.1243722725428
          23 :    6.29916223016698
          24 :   -3.41462286627427
          25 :    1.75343754461278
          26 :  -0.886848068357608
          27 :   6.539053710088183E-002
          28 :    1.25246173569792
          29 :   -3.08871011499724
          30 :    5.00053408257259
          31 :   -25.3910437976382
          32 :   -17.8083419614785

     Forces acting on atoms (Ry/au):

     negative rho (up, down):  3.000E-03 2.647E-03
     atom    1 type  1   force =     0.00003975    0.00002840    0.04364299
     atom    2 type  1   force =     0.00007682    0.00005397    0.04362894
     atom    3 type  2   force =     0.00069028    0.00048311   -0.01808448
     atom    4 type  2   force =     0.00068462    0.00049098   -0.01808435
     atom    5 type  1   force =     0.00003446    0.00002641   -0.00242081
     atom    6 type  1   force =     0.00002841    0.00001823   -0.00244317
     atom    7 type  2   force =    -0.00046466   -0.00031953   -0.02371509
     atom    8 type  2   force =    -0.00045560   -0.00033244   -0.02371511
     atom    9 type  1   force =    -0.00014307   -0.00010061    0.00084805
     atom   10 type  1   force =    -0.00023142   -0.00016463    0.00081198
     atom   11 type  2   force =    -0.00014016   -0.00007717   -0.00023462
     atom   12 type  2   force =    -0.00011944   -0.00010672   -0.00023433

     Total force =     0.074851     Total SCF correction =     0.001870

     entering subroutine stress ...

     negative rho (up, down):  3.000E-03 2.647E-03
          total   stress  (Ry/bohr**3)                   (kbar)     P=  -23.55
  -0.00020459   0.00000121  -0.00000208        -30.10      0.18     -0.31
   0.00000121  -0.00020544  -0.00000147          0.18    -30.22     -0.22
  -0.00000208  -0.00000147  -0.00007022         -0.31     -0.22    -10.33

 !ASE

     Writing output data file calc.save

     General routines

     Parallel routines

   This run was terminated on:  13:26:56  19Dec2018

   JOB DONE.
Job  /afs/slac/g/suncat/bin/suncat-tsmpirun -x LD_LIBRARY_PATH -wdir /scratch/qe529703_91llR pw.x -in pw.inp

TID   HOST_NAME   COMMAND_LINE            STATUS            TERMINATION_TIME
00000 suncat0065 pw.x -in pw.inp   Done                     12/19/2018 13:26:56
00001 suncat0065 pw.x -in pw.inp   Done                     12/19/2018 13:26:56
00002 suncat0065 pw.x -in pw.inp   Done                     12/19/2018 13:26:56
00003 suncat0065 pw.x -in pw.inp   Done                     12/19/2018 13:26:56
00004 suncat0065 pw.x -in pw.inp   Done                     12/19/2018 13:26:56
00005 suncat0065 pw.x -in pw.inp   Done                     12/19/2018 13:26:56
00006 suncat0065 pw.x -in pw.inp   Done                     12/19/2018 13:26:56
00007 suncat0065 pw.x -in pw.inp   Done                     12/19/2018 13:26:56
00008 suncat0064 pw.x -in pw.inp   Done                     12/19/2018 13:26:56
00009 suncat0064 pw.x -in pw.inp   Done                     12/19/2018 13:26:56
00010 suncat0064 pw.x -in pw.inp   Done                     12/19/2018 13:26:56
00011 suncat0064 pw.x -in pw.inp   Done                     12/19/2018 13:26:56
00012 suncat0064 pw.x -in pw.inp   Done                     12/19/2018 13:26:56
00013 suncat0064 pw.x -in pw.inp   Done                     12/19/2018 13:26:56
00014 suncat0064 pw.x -in pw.inp   Done                     12/19/2018 13:26:56
00015 suncat0064 pw.x -in pw.inp   Done                     12/19/2018 13:26:56
00016 suncat0063 pw.x -in pw.inp   Done                     12/19/2018 13:26:56
00017 suncat0063 pw.x -in pw.inp   Done                     12/19/2018 13:26:56
00018 suncat0063 pw.x -in pw.inp   Done                     12/19/2018 13:26:56
00019 suncat0063 pw.x -in pw.inp   Done                     12/19/2018 13:26:56
00020 suncat0063 pw.x -in pw.inp   Done                     12/19/2018 13:26:56
00021 suncat0063 pw.x -in pw.inp   Done                     12/19/2018 13:26:56
00022 suncat0063 pw.x -in pw.inp   Done                     12/19/2018 13:26:56
00023 suncat0063 pw.x -in pw.inp   Done                     12/19/2018 13:26:56
00024 suncat0062 pw.x -in pw.inp   Done                     12/19/2018 13:26:56
00025 suncat0062 pw.x -in pw.inp   Done                     12/19/2018 13:26:56
00026 suncat0062 pw.x -in pw.inp   Done                     12/19/2018 13:26:56
00027 suncat0062 pw.x -in pw.inp   Done                     12/19/2018 13:26:56
00028 suncat0062 pw.x -in pw.inp   Done                     12/19/2018 13:26:56
00029 suncat0062 pw.x -in pw.inp   Done                     12/19/2018 13:26:56
00030 suncat0062 pw.x -in pw.inp   Done                     12/19/2018 13:26:56
00031 suncat0062 pw.x -in pw.inp   Done                     12/19/2018 13:26:56