     Program PWSCF v.5.1rc2 (svn rev. 11289) starts on 19Dec2018 at  1:42:18

     Current dimensions of program PWSCF are:
     Max number of different atomic species (ntypx) = 10
     Max number of k-points (npk) =  40000
     Max angular momentum in pseudopotentials (lmaxx) =  3
     Presently stress not available with electric field

     IMPORTANT: XC functional enforced from input :
     Exchange-correlation      = BEEF-VDW ( 1  4 27 13 2)
     Any further DFT definition will be discarded
     Please, verify this is what you really want

     Subspace diagonalization in iterative solution of the eigenvalue problem:
     a serial algorithm will be used

     Found symmetry operation: I + (  0.5000  0.0000  0.0000)
     This is a supercell, fractional translations are disabled

     bravais-lattice index     =            0
     lattice parameter (alat)  =       1.8897  a.u.
     unit-cell volume          =    4408.4067 (a.u.)^3
     number of atoms/cell      =           12
     number of atomic types    =            2
     number of electrons       =       186.00
     number of Kohn-Sham states=          123
     kinetic-energy cutoff     =      36.7493  Ry
     charge density cutoff     =     367.4932  Ry
     convergence threshold     =      1.0E-06
     mixing beta               =       0.1000
     number of iterations used =           10  plain     mixing
     Exchange-correlation      = BEEF-VDW ( 1  4 27 13 2)
     nstep                     =           50

     celldm(1)=   1.889726  celldm(2)=   0.000000  celldm(3)=   0.000000
     celldm(4)=   0.000000  celldm(5)=   0.000000  celldm(6)=   0.000000

     crystal axes: (cart. coord. in units of alat)
               a(1) = (   5.526097   0.000000   0.000000 )
               a(2) = (  -2.763048   4.819568   0.000000 )
               a(3) = (   0.000000   0.000000  24.527791 )

     reciprocal axes: (cart. coord. in units 2 pi/alat)
               b(1) = (  0.180960  0.103744  0.000000 )
               b(2) = (  0.000000  0.207487  0.000000 )
               b(3) = (  0.000000  0.000000  0.040770 )

     PseudoPot. # 1 for Pd read from file:
     /afs/slac.stanford.edu/u/if/mamunm/psp/gbrv1.5pbe/Pd.UPF
     MD5 check sum: 2d733d2bc2cbfd217af676df1668a4bc
     Pseudo is Ultrasoft + core correction, Zval = 16.0
     Generated by new atomic code, or converted to UPF format
     Using radial grid of  887 points,  6 beta functions with:
                l(1) =   0
                l(2) =   0
                l(3) =   1
                l(4) =   1
                l(5) =   2
                l(6) =   2
     Q(r) pseudized with  8 coefficients,  rinner =    1.130   1.130   1.130
                                                       1.130   1.130

     PseudoPot. # 2 for Ir read from file:
     /afs/slac.stanford.edu/u/if/mamunm/psp/gbrv1.5pbe/Ir.UPF
     MD5 check sum: 8836f839c3459d2b385c504ce6d91f2c
     Pseudo is Ultrasoft + core correction, Zval = 15.0
     Generated by new atomic code, or converted to UPF format
     Using radial grid of  983 points,  7 beta functions with:
                l(1) =   0
                l(2) =   0
                l(3) =   1
                l(4) =   1
                l(5) =   1
                l(6) =   2
                l(7) =   2
     Q(r) pseudized with  8 coefficients,  rinner =    1.400   1.400   1.400
                                                       1.400   1.400

     vdW kernel table read from file vdW_kernel_table
     MD5 check sum: 095c7af220d748ca6e76c0b4c6cfb241

     atomic species   valence    mass     pseudopotential
        Pd1           16.00   106.42000     Pd( 1.00)
        Ir1           15.00   192.21700     Ir( 1.00)

     No symmetry found

   Cartesian axes

     site n.     atom                  positions (alat units)
         1           Pd1 tau(   1) = (   0.0000000   0.0000000  10.0000000  )
         2           Pd1 tau(   2) = (   2.7630483   0.0000000  10.0000000  )
         3           Ir1 tau(   3) = (   1.3815241   2.4097842  10.0000000  )
         4           Ir1 tau(   4) = (  -1.3815241   2.4097842  10.0000000  )
         5           Pd1 tau(   5) = (   2.7630483   1.5840496  12.2638954  )
         6           Pd1 tau(   6) = (  -0.0000000   1.5840496  12.2638954  )
         7           Ir1 tau(   7) = (  -1.3815241   3.9938339  12.2638954  )
         8           Ir1 tau(   8) = (   1.3815241   3.9938339  12.2638954  )
         9           Pd1 tau(   9) = (  -0.0000000   3.1680993  14.5277908  )
        10           Pd1 tau(  10) = (   2.7630483   3.1680993  14.5277908  )
        11           Ir1 tau(  11) = (   4.1445724   0.7583151  14.5277908  )
        12           Ir1 tau(  12) = (   1.3815241   0.7583151  14.5277908  )

     number of k points=    20  Fermi-Dirac smearing, width (Ry)=  0.0110
                       cart. coord. in units 2pi/alat
        k(    1) = (   0.0000000   0.0000000   0.0000000), wk =   0.0555556
        k(    2) = (   0.0000000   0.0345812   0.0000000), wk =   0.1111111
        k(    3) = (   0.0000000   0.0691625   0.0000000), wk =   0.1111111
        k(    4) = (   0.0000000  -0.1037437   0.0000000), wk =   0.0555556
        k(    5) = (   0.0301599   0.0172906   0.0000000), wk =   0.1111111
        k(    6) = (   0.0301599   0.0518719   0.0000000), wk =   0.1111111
        k(    7) = (   0.0301599   0.0864531   0.0000000), wk =   0.1111111
        k(    8) = (   0.0301599  -0.0864531   0.0000000), wk =   0.1111111
        k(    9) = (   0.0301599  -0.0518719   0.0000000), wk =   0.1111111
        k(   10) = (   0.0301599  -0.0172906   0.0000000), wk =   0.1111111
        k(   11) = (   0.0603199   0.0345812   0.0000000), wk =   0.1111111
        k(   12) = (   0.0603199   0.0691625   0.0000000), wk =   0.1111111
        k(   13) = (   0.0603199   0.1037437   0.0000000), wk =   0.1111111
        k(   14) = (   0.0603199  -0.0691625   0.0000000), wk =   0.1111111
        k(   15) = (   0.0603199  -0.0345812   0.0000000), wk =   0.1111111
        k(   16) = (   0.0603199   0.0000000   0.0000000), wk =   0.1111111
        k(   17) = (  -0.0904798  -0.0518719   0.0000000), wk =   0.0555556
        k(   18) = (  -0.0904798  -0.0172906   0.0000000), wk =   0.1111111
        k(   19) = (  -0.0904798   0.0172906   0.0000000), wk =   0.1111111
        k(   20) = (  -0.0904798  -0.1556156   0.0000000), wk =   0.0555556

     Largest allocated arrays     est. size (Mb)     dimensions
     Largest temporary arrays     est. size (Mb)     dimensions

     Initial potential from superposition of free atoms
     Check: negative starting charge=   -2.637532

     starting charge  179.99977, renormalised to  186.00000

     negative rho (up, down):  2.725E+00 0.000E+00

     *
     * You are using vdW-DF for exchange-correlation in this calculation.
     * Please cite the following three references that made this development
     * possible:
     *
     *   M. Dion, H. Rydberg, E. Schroder, D. C. Langreth, and
     *   B. I. Lundqvist, Phys. Rev. Lett. 92, 246401 (2004).
     *
     *   T. Thonhauser, V. R. Cooper, S. Li, A. Puzder, P. Hyldgaard, and
     *   D. C. Langreth, Phys. Rev. B 76, 125112 (2007).
     *
     *   G. Roman-Perez and J. M. Soler, Phys. Rev. Lett. 103, 096102 (2009).
     *
     *
     * If you are using vdW-DF2, please also cite:
     *
     *   K. Lee, E. D. Murray, L. Kong, B. I. Lundqvist, and
     *   D. C. Langreth, Phys. Rev. B 82, 081101(R) (2010).
     *
     *
     * If you are calculating the stress with vdW-DF, please also cite:
     *
     *   R. Sabatini, E. Kucukbenli, B. Kolb, T. Thonhauser, and
     *   S. de Gironcoli, J. Phys.: Condens. Matter 24, 424209 (2012).
     *

     Carrying out vdW-DF run using the following parameters:

     Nqs =      20    Nr_points =    1024   r_max =   100.000
     q_mesh =
               0.00001000     0.04494208     0.09755937     0.15916263
               0.23128650     0.31572767     0.41458969     0.53033537
               0.66584808     0.82450364     1.01025438     1.22772762
               1.48234092     1.78043706     2.12944203     2.53805004
               3.01644009     3.57652955     4.23227104     5.00000000

     Gradients computed in reciprocal space

     Adding external electric field

     Computed dipole along edir(3) :
        Dipole                0.0000 Ry au,          0.0000 Debye
        Dipole field          0.0000 Ry au

        Potential amp.       -0.0000 Ry
        Total length         45.1920 bohr

     Starting wfc are  144 randomized atomic wfcs

     Self-consistent Calculation

     iteration #  1     ecut=    36.75 Ry     beta=0.10
     Davidson diagonalization with overlap
     ethr =  1.00E-02,  avg # of iterations =  7.5

[...]

     total energy              =   -2297.28240634 Ry
     Harris-Foulkes estimate   =   -2302.28153780 Ry
     estimated scf accuracy    <      29.86126166 Ry

[...]

     End of self-consistent calculation

          k = 0.0000 0.0000 0.0000 ( 16563 PWs)   bands (ev):

   -48.9999 -48.9832 -48.9692 -48.8998 -48.8744 -48.7713 -48.6657 -48.6597
   -48.6594 -48.6572 -48.6304 -48.6256 -48.4530 -48.4523 -48.3963 -48.3908
   -48.3713 -48.3694 -47.7317 -47.7093 -47.6888 -47.5775 -47.5632 -47.4188
   -47.4058 -47.4014 -47.1590 -47.1451 -47.1389 -47.1257 -47.0840 -47.0833
   -47.0671 -47.0495 -47.0366 -47.0238  -6.1488  -4.5709  -4.3868  -4.1135
    -4.0778  -3.9498  -3.8407  -3.7203  -3.7099  -3.4788  -3.4777  -3.4760
    -3.2661  -3.2043  -3.1477  -2.0903  -2.0465  -2.0262  -1.7302  -1.6762
    -1.6216  -1.5056  -1.4194  -1.3886  -1.1385  -1.1250  -1.1048  -1.1041
    -0.9708  -0.9180  -0.9016  -0.8770  -0.4686  -0.3160  -0.1301   0.1649
     0.1697   0.2675   0.3638   0.4249   0.5386   0.7255   0.8197   1.0548
     1.0630   1.1494   1.1768   1.4541   1.5055   1.5962   1.6190   1.7576
     1.7982   1.8816   1.9099   1.9964   2.0443   2.1188   2.4063   2.4195
     2.4784   2.6327   2.7026   2.9108   3.2094   3.3575   3.5288   4.9046
     4.9578   4.9970   5.0627   5.3001   5.3332   6.2327   6.5060   6.8501
     7.7820   7.9368   8.0962   8.3041   8.5046   8.7665   9.0400   9.0461
     9.0999   9.6759  10.1662

[...]

          k =-0.0905-0.0519 0.0000 ( 16574 PWs)   bands (ev):

[...]

     the Fermi energy is     1.6245 ev

!    total energy              =   -2298.39258030 Ry
     Harris-Foulkes estimate   =   -2298.39258875 Ry
     estimated scf accuracy    <       0.00000039 Ry

     The total energy is the sum of the following terms:

     one-electron contribution =  -19346.22855286 Ry
     hartree contribution      =    9711.66757409 Ry
     xc contribution           =    -506.58830484 Ry
     ewald contribution        =    7842.87100734 Ry
     electric field correction =       0.00000001 Ry
     smearing contrib. (-TS)   =      -0.11430404 Ry

     convergence has been achieved in  18 iterations

 BEEF-vdW xc energy contributions
           1 :   -445.852540774755
           2 :    412.043424108502
           3 :   -352.691840196372
           4 :    281.185281551946
           5 :   -211.488277818342
           6 :    154.061203564761
           7 :   -113.570570020247
           8 :    88.8895022994965
[...]

[...]

     Total force =     0.055157     Total SCF correction =     0.007374
     SCF correction compared to forces is large: reduce conv_thr to get better values

[...]

   This run was terminated on:   2: 8:47  19Dec2018

[...]

     Program PWSCF v.5.1rc2 (svn rev. 11289) starts on 19Dec2018 at  2: 8:53

     Current dimensions of program PWSCF are:
     Max number of different atomic species (ntypx) = 10
     Max number of k-points (npk) =  40000
     Max angular momentum in pseudopotentials (lmaxx) =  3
     Presently stress not available with electric field

     IMPORTANT: XC functional enforced from input :
     Exchange-correlation      = BEEF-VDW ( 1  4 27 13 2)
     Any further DFT definition will be discarded
     Please, verify this is what you really want

     Subspace diagonalization in iterative solution of the eigenvalue problem:
     a serial algorithm will be used

     Found symmetry operation: I + (  0.5000  0.0000  0.0000)
     This is a supercell, fractional translations are disabled

     bravais-lattice index     =            0
     lattice parameter (alat)  =       1.8897  a.u.
     unit-cell volume          =    4408.4067 (a.u.)^3
     number of atoms/cell      =           12
     number of atomic types    =            2
     number of electrons       =       186.00
     number of Kohn-Sham states=          123
     kinetic-energy cutoff     =      36.7493  Ry
     charge density cutoff     =     367.4932  Ry
     convergence threshold     =      1.0E-06
     mixing beta               =       0.1000
     number of iterations used =           10  plain     mixing
     Exchange-correlation      = BEEF-VDW ( 1  4 27 13 2)
     nstep                     =           50

     celldm(1)=   1.889726  celldm(2)=   0.000000  celldm(3)=   0.000000
     celldm(4)=   0.000000  celldm(5)=   0.000000  celldm(6)=   0.000000

     crystal axes: (cart. coord. in units of alat)
               a(1) = (   5.526097   0.000000   0.000000 )
               a(2) = (  -2.763048   4.819568   0.000000 )
               a(3) = (   0.000000   0.000000  24.527791 )

     reciprocal axes: (cart. coord. in units 2 pi/alat)
               b(1) = (  0.180960  0.103744  0.000000 )
               b(2) = (  0.000000  0.207487  0.000000 )
               b(3) = (  0.000000  0.000000  0.040770 )

     PseudoPot. # 1 for Pd read from file:
     /afs/slac.stanford.edu/u/if/mamunm/psp/gbrv1.5pbe/Pd.UPF
     MD5 check sum: 2d733d2bc2cbfd217af676df1668a4bc
     Pseudo is Ultrasoft + core correction, Zval = 16.0
     Generated by new atomic code, or converted to UPF format
     Using radial grid of  887 points,  6 beta functions with:
                l(1) =   0
                l(2) =   0
                l(3) =   1
                l(4) =   1
                l(5) =   2
                l(6) =   2
     Q(r) pseudized with  8 coefficients,  rinner =    1.130   1.130   1.130
                                                       1.130   1.130

     PseudoPot. # 2 for Ir read from file:
     /afs/slac.stanford.edu/u/if/mamunm/psp/gbrv1.5pbe/Ir.UPF
     MD5 check sum: 8836f839c3459d2b385c504ce6d91f2c
     Pseudo is Ultrasoft + core correction, Zval = 15.0
     Generated by new atomic code, or converted to UPF format
     Using radial grid of  983 points,  7 beta functions with:
                l(1) =   0
                l(2) =   0
                l(3) =   1
                l(4) =   1
                l(5) =   1
                l(6) =   2
                l(7) =   2
     Q(r) pseudized with  8 coefficients,  rinner =    1.400   1.400   1.400
                                                       1.400   1.400

     vdW kernel table read from file vdW_kernel_table
     MD5 check sum: 095c7af220d748ca6e76c0b4c6cfb241

     atomic species   valence    mass     pseudopotential
        Pd1           16.00   106.42000     Pd( 1.00)
        Ir1           15.00   192.21700     Ir( 1.00)

     No symmetry found

   Cartesian axes

     site n.     atom                  positions (alat units)
         1           Pd1 tau(   1) = (   0.0000000   0.0000000  10.0000000  )
         2           Pd1 tau(   2) = (   2.7630483   0.0000000  10.0000000  )
         3           Ir1 tau(   3) = (   1.3815241   2.4097842  10.0000000  )
         4           Ir1 tau(   4) = (  -1.3815241   2.4097842  10.0000000  )
         5           Pd1 tau(   5) = (   2.7630483   1.5840496  12.2638954  )
         6           Pd1 tau(   6) = (  -0.0000000   1.5840496  12.2638954  )
         7           Ir1 tau(   7) = (  -1.3815241   3.9938339  12.2638954  )
         8           Ir1 tau(   8) = (   1.3815241   3.9938339  12.2638954  )
         9           Pd1 tau(   9) = (   0.0000436   3.0544681  14.6119289  )
        10           Pd1 tau(  10) = (   2.7631336   3.0544652  14.6119267  )
        11           Ir1 tau(  11) = (   4.1446127   0.6092506  14.4271179  )
        12           Ir1 tau(  12) = (   1.3815630   0.6092418  14.4271116  )

     number of k points=    20  Fermi-Dirac smearing, width (Ry)=  0.0110
                       cart. coord. in units 2pi/alat
        k(    1) = (   0.0000000   0.0000000   0.0000000), wk =   0.0555556
        k(    2) = (   0.0000000   0.0345812   0.0000000), wk =   0.1111111
        k(    3) = (   0.0000000   0.0691625   0.0000000), wk =   0.1111111
        k(    4) = (   0.0000000  -0.1037437   0.0000000), wk =   0.0555556
        k(    5) = (   0.0301599   0.0172906   0.0000000), wk =   0.1111111
        k(    6) = (   0.0301599   0.0518719   0.0000000), wk =   0.1111111
        k(    7) = (   0.0301599   0.0864531   0.0000000), wk =   0.1111111
        k(    8) = (   0.0301599  -0.0864531   0.0000000), wk =   0.1111111
        k(    9) = (   0.0301599  -0.0518719   0.0000000), wk =   0.1111111
        k(   10) = (   0.0301599  -0.0172906   0.0000000), wk =   0.1111111
        k(   11) = (   0.0603199   0.0345812   0.0000000), wk =   0.1111111
        k(   12) = (   0.0603199   0.0691625   0.0000000), wk =   0.1111111
        k(   13) = (   0.0603199   0.1037437   0.0000000), wk =   0.1111111
        k(   14) = (   0.0603199  -0.0691625   0.0000000), wk =   0.1111111
        k(   15) = (   0.0603199  -0.0345812   0.0000000), wk =   0.1111111
        k(   16) = (   0.0603199   0.0000000   0.0000000), wk =   0.1111111
        k(   17) = (  -0.0904798  -0.0518719   0.0000000), wk =   0.0555556
        k(   18) = (  -0.0904798  -0.0172906   0.0000000), wk =   0.1111111
        k(   19) = (  -0.0904798   0.0172906   0.0000000), wk =   0.1111111
        k(   20) = (  -0.0904798  -0.1556156   0.0000000), wk =   0.0555556

     Largest allocated arrays     est. size (Mb)     dimensions
     Largest temporary arrays     est. size (Mb)     dimensions

     Initial potential from superposition of free atoms
     Check: negative starting charge=   -2.635848

     starting charge  179.99977, renormalised to  186.00000

[...]

     *
     * You are using vdW-DF for exchange-correlation in this calculation.
     * Please cite the following three references that made this development
     * possible:
     *
     *   M. Dion, H. Rydberg, E. Schroder, D. C. Langreth, and
     *   B. I. Lundqvist, Phys. Rev. Lett. 92, 246401 (2004).
     *
     *   T. Thonhauser, V. R. Cooper, S. Li, A. Puzder, P. Hyldgaard, and
     *   D. C. Langreth, Phys. Rev. B 76, 125112 (2007).
     *
     *   G. Roman-Perez and J. M. Soler, Phys. Rev. Lett. 103, 096102 (2009).
     *
     *
     * If you are using vdW-DF2, please also cite:
     *
     *   K. Lee, E. D. Murray, L. Kong, B. I. Lundqvist, and
     *   D. C. Langreth, Phys. Rev. B 82, 081101(R) (2010).
     *
     *
     * If you are calculating the stress with vdW-DF, please also cite:
     *
     *   R. Sabatini, E. Kucukbenli, B. Kolb, T. Thonhauser, and
     *   S. de Gironcoli, J. Phys.: Condens. Matter 24, 424209 (2012).
     *

     Carrying out vdW-DF run using the following parameters:

     Nqs =      20    Nr_points =    1024   r_max =   100.000
     q_mesh =
               0.00001000     0.04494208     0.09755937     0.15916263
               0.23128650     0.31572767     0.41458969     0.53033537
               0.66584808     0.82450364     1.01025438     1.22772762
               1.48234092     1.78043706     2.12944203     2.53805004
               3.01644009     3.57652955     4.23227104     5.00000000

     Gradients computed in reciprocal space

[...]

     Starting wfc are  144 randomized atomic wfcs

     Self-consistent Calculation

[...]

     total energy              =   -2298.40441386 Ry
     Harris-Foulkes estimate   =   -2298.40441190 Ry
     estimated scf accuracy    <       0.00000137 Ry

     iteration # 18     ecut=    36.75 Ry     beta=0.10
     Davidson diagonalization with overlap
     ethr =  7.35E-10,  avg # of iterations =  3.7

[...]

     negative rho (up, down):  2.435E+00 0.000E+00

     Adding external electric field

     Computed dipole along edir(3) :
        Dipole                0.0120 Ry au,          0.0306 Debye
        Dipole field          0.0000 Ry au

        Potential amp.       -0.0031 Ry
        Total length         45.1920 bohr

     End of self-consistent calculation

[...]

          k = 0.0603 0.0000 0.0000 ( 16538 PWs)   bands (ev):

[...]

          k =-0.0905-0.1556 0.0000 ( 16574 PWs)   bands (ev):

   -48.9569 -48.9569 -48.8507 -48.8507 -48.8439 -48.8439 -48.6088 -48.6088
   -48.5281 -48.5281 -48.4931 -48.4931 -48.3863 -48.3863 -48.3553 -48.3553
   -48.1873 -48.1873 -47.7928 -47.7926 -47.5625 -47.5624 -47.5489 -47.5488
   -47.3081 -47.3080 -47.2285 -47.2284 -47.2023 -47.2022 -47.1430 -47.1429
   -47.0951 -47.0950 -46.9903 -46.9902  -4.5285  -4.5285  -3.4071  -3.4070
    -3.1701  -3.1701  -3.1394  -3.1394  -2.9322  -2.9321  -2.6900  -2.6899
    -2.3962  -2.3962  -2.2959  -2.2959  -2.0018  -2.0018  -1.8808  -1.8807
    -1.7373  -1.7373  -1.4036  -1.4036  -1.1297  -1.1297  -1.0274  -1.0274
    -0.8996  -0.8995  -0.8066  -0.8066  -0.6983  -0.6983  -0.6585  -0.6585
    -0.6013  -0.6013  -0.4945  -0.4945  -0.1817  -0.1816   0.0775   0.0775
     0.3771   0.3771   0.4991   0.4991   0.5901   0.5901   0.7546   0.7546
     0.9026   0.9026   1.0153   1.0154   1.3985   1.3985   1.5252   1.5252
     1.9155   1.9155   2.1831   2.1831   3.6473   3.6473   4.3632   4.3632
     5.1664   5.1664   6.2339   6.2339   7.2211   7.2211   7.7690   7.7690
     8.3510   8.3510   8.4128   8.4128   9.5619   9.5619   9.6903   9.6903
    10.0594  10.0595  10.4380

     the Fermi energy is     1.6525 ev

!    total energy              =   -2298.40441190 Ry
     Harris-Foulkes estimate   =   -2298.40441447 Ry
     estimated scf accuracy    <       0.00000081 Ry

     The total energy is the sum of the following terms:

     one-electron contribution =  -19358.21380950 Ry
     hartree contribution      =    9717.85842634 Ry
     xc contribution           =    -506.65863600 Ry
     ewald contribution        =    7848.72070349 Ry
     electric field correction =       0.00000041 Ry
     smearing contrib. (-TS)   =      -0.11109665 Ry

     convergence has been achieved in  18 iterations

 BEEF-vdW xc energy contributions
           1 :   -445.921732788240
           2 :    412.123737801039
           3 :   -352.791003054123
           4 :    281.300899201308
           5 :   -211.601202728997
           6 :    154.137577123372
           7 :   -113.576065256000
           8 :    88.8095449932895
           9 :   -74.8790616089692
          10 :    65.7716917883598
          11 :   -56.8896136385173
          12 :    46.3171790026753
          13 :   -34.6741894042251
          14 :    23.9613148486137
          15 :   -16.1342568921690
          16 :    12.0762066589527
          17 :   -11.3135929765758
          18 :    12.4180082945619
          19 :   -13.7555464050528
          20 :    14.1667919664690
          21 :   -13.2968066089526
          22 :    11.5157290817494
          23 :   -9.56273928620192
          24 :    8.12693017749802
          25 :   -7.55724066033576
          26 :    7.79062076914090
          27 :   -8.47304012407005
          28 :    9.16773271006787
          29 :   -9.53856378538734
          30 :    9.44056722365747
          31 :   -40.1339474390342
          32 :   -29.9038751959985

     Forces acting on atoms (Ry/au):

     negative rho (up, down):  2.435E+00 0.000E+00
     atom    1 type  1   force =    -0.00000554   -0.00467004   -0.01516480
     atom    2 type  1   force =     0.00000792   -0.00467010   -0.01516469
     atom    3 type  2   force =     0.00000300    0.01407262    0.02545590
     atom    4 type  2   force =     0.00000310    0.01406605    0.02545109
     atom    5 type  1   force =     0.00000161    0.00606418   -0.00819400
     atom    6 type  1   force =     0.00000352    0.00606468   -0.00819403
     atom    7 type  2   force =    -0.00000298   -0.01506670   -0.00040714
     atom    8 type  2   force =    -0.00000319   -0.01506366   -0.00040305
     atom    9 type  1   force =     0.00001445   -0.00010658   -0.00101917
     atom   10 type  1   force =    -0.00002058   -0.00010585   -0.00101890
     atom   11 type  2   force =    -0.00000073   -0.00029896   -0.00067395
     atom   12 type  2   force =    -0.00000059   -0.00028564   -0.00066727

     Total force =     0.053483     Total SCF correction =     0.007030
     SCF correction compared to forces is large: reduce conv_thr to get better values

     entering subroutine stress ...

     negative rho (up, down):  2.435E+00 0.000E+00
          total   stress  (Ry/bohr**3)                   (kbar)     P=  -20.24
  -0.00020919   0.00000000  -0.00000000        -30.77      0.00     -0.00
   0.00000000  -0.00014918  -0.00001905          0.00    -21.95     -2.80
  -0.00000000  -0.00001905  -0.00005442         -0.00     -2.80     -8.00

 !ASE

     Writing output data file calc.save

     General routines

     Parallel routines

   This run was terminated on:   2:14: 2  19Dec2018

   JOB DONE.
Job  /afs/slac/g/suncat/bin/suncat-tsmpirun -x LD_LIBRARY_PATH -wdir /scratch/qe530420_g3iUg pw.x -in pw.inp

TID   HOST_NAME   COMMAND_LINE            STATUS            TERMINATION_TIME
00000 suncat2050 pw.x -in pw.inp   Done                     12/19/2018 02:14:02
00001 suncat2050 pw.x -in pw.inp   Done                     12/19/2018 02:14:02
00002 suncat2050 pw.x -in pw.inp   Done                     12/19/2018 02:14:02
00003 suncat2050 pw.x -in pw.inp   Done                     12/19/2018 02:14:02
00004 suncat2050 pw.x -in pw.inp   Done                     12/19/2018 02:14:02
00005 suncat2050 pw.x -in pw.inp   Done                     12/19/2018 02:14:02
00006 suncat2050 pw.x -in pw.inp   Done                     12/19/2018 02:14:02
00007 suncat2050 pw.x -in pw.inp   Done                     12/19/2018 02:14:02
00008 suncat2050 pw.x -in pw.inp   Done                     12/19/2018 02:14:02
00009 suncat2050 pw.x -in pw.inp   Done                     12/19/2018 02:14:02
00010 suncat2050 pw.x -in pw.inp   Done                     12/19/2018 02:14:02
00011 suncat2050 pw.x -in pw.inp   Done                     12/19/2018 02:14:02
00012 suncat2050 pw.x -in pw.inp   Done                     12/19/2018 02:14:02
00013 suncat2050 pw.x -in pw.inp   Done                     12/19/2018 02:14:02
00014 suncat2050 pw.x -in pw.inp   Done                     12/19/2018 02:14:02
00015 suncat2050 pw.x -in pw.inp   Done                     12/19/2018 02:14:02
00016 suncat2049 pw.x -in pw.inp   Done                     12/19/2018 02:14:02
00017 suncat2049 pw.x -in pw.inp   Done                     12/19/2018 02:14:02
00018 suncat2049 pw.x -in pw.inp   Done                     12/19/2018 02:14:02
00019 suncat2049 pw.x -in pw.inp   Done                     12/19/2018 02:14:02
00020 suncat2049 pw.x -in pw.inp   Done                     12/19/2018 02:14:02
00021 suncat2049 pw.x -in pw.inp   Done                     12/19/2018 02:14:02
00022 suncat2049 pw.x -in pw.inp   Done                     12/19/2018 02:14:02
00023 suncat2049 pw.x -in pw.inp   Done                     12/19/2018 02:14:02
00024 suncat2049 pw.x -in pw.inp   Done                     12/19/2018 02:14:02
00025 suncat2049 pw.x -in pw.inp   Done                     12/19/2018 02:14:02
00026 suncat2049 pw.x -in pw.inp   Done                     12/19/2018 02:14:02
00027 suncat2049 pw.x -in pw.inp   Done                     12/19/2018 02:14:02
00028 suncat2049 pw.x -in pw.inp   Done                     12/19/2018 02:14:02
00029 suncat2049 pw.x -in pw.inp   Done                     12/19/2018 02:14:02
00030 suncat2049 pw.x -in pw.inp   Done                     12/19/2018 02:14:02
00031 suncat2049 pw.x -in pw.inp   Done                     12/19/2018 02:14:02