     Program PWSCF v.5.1rc2 (svn rev. 11289) starts on 18Dec2018 at 16:49:42

     Current dimensions of program PWSCF are:
     Max number of different atomic species (ntypx) = 10
     Max number of k-points (npk) =  40000
     Max angular momentum in pseudopotentials (lmaxx) =  3
     Presently stress not available with electric field

     IMPORTANT: XC functional enforced from input :
     Exchange-correlation      = BEEF-VDW ( 1  4 27 13 2)
     Any further DFT definition will be discarded
     Please, verify this is what you really want

     Subspace diagonalization in iterative solution of the eigenvalue problem:
     a serial algorithm will be used

     Found symmetry operation: I + (  0.5000  0.0000  0.0000)
     This is a supercell, fractional translations are disabled

     bravais-lattice index     =            0
     lattice parameter (alat)  =       1.8897  a.u.
     unit-cell volume          =    4721.0693 (a.u.)^3
     number of atoms/cell      =           12
     number of atomic types    =            2
     number of electrons       =       204.00
     number of Kohn-Sham states=          132
     kinetic-energy cutoff     =      36.7493  Ry
     charge density cutoff     =     367.4932  Ry
     convergence threshold     =      1.0E-06
     mixing beta               =       0.1000
     number of iterations used =           10  plain     mixing
     Exchange-correlation      = BEEF-VDW ( 1  4 27 13 2)
     nstep                     =           50

     celldm(1)=   1.889726  celldm(2)=   0.000000  celldm(3)=   0.000000
     celldm(4)=   0.000000  celldm(5)=   0.000000  celldm(6)=   0.000000

     crystal axes: (cart. coord. in units of alat)
               a(1) = (   5.423438   0.000000   0.000000 )
               a(2) = (  -2.711719   5.235308   0.000000 )
               a(3) = (   0.000000   0.000000  24.639211 )

     reciprocal axes: (cart. coord. in units 2 pi/alat)
               b(1) = (  0.184385  0.095505  0.000000 )
               b(2) = (  0.000000  0.191011  0.000000 )
               b(3) = (  0.000000  0.000000  0.040586 )

     PseudoPot. # 1 for Ag read from file:
     /afs/slac.stanford.edu/u/if/mamunm/psp/gbrv1.5pbe/Ag.UPF
     MD5 check sum: d66d668201baa78d5eb5b04ef7011058
     Pseudo is Ultrasoft + core correction, Zval = 19.0
     Generated by new atomic code, or converted to UPF format
     Using radial grid of  887 points,  6 beta functions with:
                l(1) =   0
                l(2) =   0
                l(3) =   1
                l(4) =   1
                l(5) =   2
                l(6) =   2
     Q(r) pseudized with  6 coefficients,  rinner =    1.300   1.300   1.300
                                                       1.300   1.300

     PseudoPot. # 2 for Ir read from file:
     /afs/slac.stanford.edu/u/if/mamunm/psp/gbrv1.5pbe/Ir.UPF
     MD5 check sum: 8836f839c3459d2b385c504ce6d91f2c
     Pseudo is Ultrasoft + core correction, Zval = 15.0
     Generated by new atomic code, or converted to UPF format
     Using radial grid of  983 points,  7 beta functions with:
                l(1) =   0
                l(2) =   0
                l(3) =   1
                l(4) =   1
                l(5) =   1
                l(6) =   2
                l(7) =   2
     Q(r) pseudized with  8 coefficients,  rinner =    1.400   1.400   1.400
                                                       1.400   1.400

     vdW kernel table read from file vdW_kernel_table
     MD5 check sum: 095c7af220d748ca6e76c0b4c6cfb241

     atomic species   valence    mass     pseudopotential
        Ag1           19.00   107.86820     Ag( 1.00)
        Ir1           15.00   192.21700     Ir( 1.00)

     No symmetry found

   Cartesian axes

     site n.     atom                  positions (alat units)
         1           Ag1 tau(   1) = (   0.0000000   0.0000000  10.0000000  )
         2           Ag1 tau(   2) = (   2.7117192   0.0000000  10.0000000  )
         3           Ir1 tau(   3) = (   1.3558596   2.6176542  10.0000000  )
         4           Ir1 tau(   4) = (  -1.3558596   2.6176542  10.0000000  )
         5           Ag1 tau(   5) = (   2.7117192   1.4045822  12.3196055  )
         6           Ag1 tau(   6) = (  -0.0000000   1.4045822  12.3196055  )
         7           Ir1 tau(   7) = (  -1.3558596   4.0222364  12.3196055  )
         8           Ir1 tau(   8) = (   1.3558596   4.0222364  12.3196055  )
         9           Ag1 tau(   9) = (   0.0000000   2.8091645  14.6392110  )
        10           Ag1 tau(  10) = (   2.7117192   2.8091645  14.6392110  )
        11           Ir1 tau(  11) = (   4.0675788   0.1915103  14.6392110  )
        12           Ir1 tau(  12) = (   1.3558596   0.1915103  14.6392110  )

     number of k points=    20  Fermi-Dirac smearing, width (Ry)=  0.0110
                       cart. coord. in units 2pi/alat
        k(    1) = (   0.0000000   0.0000000   0.0000000), wk =   0.0555556
        k(    2) = (   0.0000000   0.0318351   0.0000000), wk =   0.1111111
        k(    3) = (   0.0000000   0.0636702   0.0000000), wk =   0.1111111
        k(    4) = (   0.0000000  -0.0955054   0.0000000), wk =   0.0555556
        k(    5) = (   0.0307308   0.0159176   0.0000000), wk =   0.1111111
        k(    6) = (   0.0307308   0.0477527   0.0000000), wk =   0.1111111
        k(    7) = (   0.0307308   0.0795878   0.0000000), wk =   0.1111111
        k(    8) = (   0.0307308  -0.0795878   0.0000000), wk =   0.1111111
        k(    9) = (   0.0307308  -0.0477527   0.0000000), wk =   0.1111111
        k(   10) = (   0.0307308  -0.0159176   0.0000000), wk =   0.1111111
        k(   11) = (   0.0614616   0.0318351   0.0000000), wk =   0.1111111
        k(   12) = (   0.0614616   0.0636702   0.0000000), wk =   0.1111111
        k(   13) = (   0.0614616   0.0955054   0.0000000), wk =   0.1111111
        k(   14) = (   0.0614616  -0.0636702   0.0000000), wk =   0.1111111
        k(   15) = (   0.0614616  -0.0318351   0.0000000), wk =   0.1111111
        k(   16) = (   0.0614616   0.0000000   0.0000000), wk =   0.1111111
        k(   17) = (  -0.0921924  -0.0477527   0.0000000), wk =   0.0555556
        k(   18) = (  -0.0921924  -0.0159176   0.0000000), wk =   0.1111111
        k(   19) = (  -0.0921924   0.0159176   0.0000000), wk =   0.1111111
        k(   20) = (  -0.0921924  -0.1432580   0.0000000), wk =   0.0555556

     Largest allocated arrays     est. size (Mb)     dimensions
     Largest temporary arrays     est. size (Mb)     dimensions

     Initial potential from superposition of free atoms
     Check: negative starting charge=   -2.184588

     starting charge  197.99953, renormalised to  204.00000

     negative rho (up, down):  2.251E+00 0.000E+00

     *
     * You are using vdW-DF for exchange-correlation in this calculation.
     * Please cite the following three references that made this development
     * possible:
     *
     *   M. Dion, H. Rydberg, E. Schroder, D. C. Langreth, and
     *   B. I. Lundqvist, Phys. Rev. Lett. 92, 246401 (2004).
     *
     *   T. Thonhauser, V. R. Cooper, S. Li, A. Puzder, P. Hyldgaard, and
     *   D. C. Langreth, Phys. Rev. B 76, 125112 (2007).
     *
     *   G. Roman-Perez and J. M. Soler, Phys. Rev. Lett. 103, 096102 (2009).
     *
     *
     * If you are using vdW-DF2, please also cite:
     *
     *   K. Lee, E. D. Murray, L. Kong, B. I. Lundqvist, and
     *   D. C. Langreth, Phys. Rev. B 82, 081101(R) (2010).
     *
     *
     * If you are calculating the stress with vdW-DF, please also cite:
     *
     *   R. Sabatini, E. Kucukbenli, B. Kolb, T. Thonhauser, and
     *   S. de Gironcoli, J. Phys.: Condens. Matter 24, 424209 (2012).
     *

     Carrying out vdW-DF run using the following parameters:

     Nqs =      20    Nr_points =    1024   r_max =   100.000
     q_mesh =
               0.00001000     0.04494208     0.09755937     0.15916263
               0.23128650     0.31572767     0.41458969     0.53033537
               0.66584808     0.82450364     1.01025438     1.22772762
               1.48234092     1.78043706     2.12944203     2.53805004
               3.01644009     3.57652955     4.23227104     5.00000000

     Gradients computed in reciprocal space

     Adding external electric field

     Computed dipole along edir(3) :
        Dipole                0.0000 Ry au,          0.0000 Debye
        Dipole field          0.0000 Ry au

        Potential amp.       -0.0000 Ry
        Total length         45.3973 bohr

     Starting wfc are  150 randomized atomic wfcs

     Self-consistent Calculation

     iteration #  1     ecut=    36.75 Ry     beta=0.10
     Davidson diagonalization with overlap
     ethr =  1.00E-02,  avg # of iterations =  7.6

[...]

     total energy              =   -2879.70736693 Ry
     Harris-Foulkes estimate   =   -2882.91962052 Ry
     estimated scf accuracy    <      19.38664354 Ry

[...]

     End of self-consistent calculation

          k = 0.0000 0.0000 0.0000 ( 17715 PWs)   bands (ev):

   -90.3749 -90.3608 -90.2031 -90.2030 -90.1890 -90.1889 -53.9691 -53.9073
   -53.8907 -53.8432 -53.8305 -53.8303 -53.8267 -53.7955 -53.6979 -53.6918
   -53.6814 -53.6757 -53.6573 -53.6570 -53.6461 -53.6356 -53.6305 -53.6204
   -47.5182 -47.4535 -47.4129 -47.3733 -47.3715 -47.1174 -47.1143 -47.0780
   -46.9890 -46.9700 -46.9690 -46.9507 -46.9498 -46.9132 -46.8442 -46.8365
   -46.8046 -46.7978  -5.9907  -4.6045  -4.5342  -4.4678  -4.4062  -4.3623
    -4.1107  -4.0178  -4.0165  -3.9809  -3.9084  -3.8933  -3.8089  -3.7503
    -3.3540  -3.2992  -3.1885  -3.0849  -2.8945  -2.6548  -2.6226  -2.4372
    -2.3880  -2.3201  -2.2494  -2.1370  -2.0908  -2.0499  -2.0020  -1.9668
    -1.8828  -1.8669  -1.6680  -1.4642  -1.4181  -1.1947  -1.1237  -0.9503
    -0.7208  -0.7110  -0.6678  -0.3856  -0.0126   0.1011   0.1377   0.2007
     0.2322   0.2703   0.4771   0.5472   0.9730   0.9894   1.1013   1.4842
     1.6221   1.6602   1.6765   1.6927   1.7791   1.8466   1.9182   2.2433
     2.3594   2.6460   2.8717   2.9273   2.9775   3.1175   3.4373   4.4182
     4.9021   4.9509   5.3497   5.8187   6.1323   6.2136   6.4256   6.5049
     7.4260   7.5221   7.7173   7.8943   7.9851   8.1716   8.4391   8.4961
     8.6133   9.7461   9.9238  10.2801

[...]

          k =-0.0922-0.0478 0.0000 ( 17764 PWs)   bands (ev):

[...]

     the Fermi energy is     1.5014 ev

!    total energy              =   -2879.39181001 Ry
     Harris-Foulkes estimate   =   -2879.39180625 Ry
     estimated scf accuracy    <       0.00000056 Ry

     The total energy is the sum of the following terms:

     one-electron contribution =  -22129.06369731 Ry
     hartree contribution      =   11076.26306692 Ry
     xc contribution           =    -492.07578943 Ry
     ewald contribution        =    8665.56954156 Ry
     electric field correction =       0.00000000 Ry
     smearing contrib. (-TS)   =      -0.08493175 Ry

     convergence has been achieved in  17 iterations

 BEEF-vdW xc energy contributions
           1 :   -432.449558117492
           2 :    398.343890866982
           3 :   -339.049367345522
           4 :    268.772348200195
           5 :   -201.853515313516
[...]

[...]

   This run was terminated on:  18:49: 6  18Dec2018

[...]

     Program PWSCF v.5.1rc2 (svn rev. 11289) starts on 18Dec2018 at 18:49:12

[...]

   This run was terminated on:  19: 6:41  18Dec2018

[...]

     Program PWSCF v.5.1rc2 (svn rev. 11289) starts on 18Dec2018 at 19: 6:47

[...]

     Program PWSCF v.5.1rc2 (svn rev. 11289) starts on 18Dec2018 at 19:24: 3

     Current dimensions of program PWSCF are:
     Max number of different atomic species (ntypx) = 10
     Max number of k-points (npk) =  40000
     Max angular momentum in pseudopotentials (lmaxx) =  3
     Presently stress not available with electric field

     IMPORTANT: XC functional enforced from input :
     Exchange-correlation      = BEEF-VDW ( 1  4 27 13 2)
     Any further DFT definition will be discarded
     Please, verify this is what you really want

     Subspace diagonalization in iterative solution of the eigenvalue problem:
     a serial algorithm will be used

     Found symmetry operation: I + (  0.5000  0.0000  0.0000)
     This is a supercell, fractional translations are disabled

     bravais-lattice index     =            0
     lattice parameter (alat)  =       1.8897  a.u.
     unit-cell volume          =    4721.0693 (a.u.)^3
     number of atoms/cell      =           12
     number of atomic types    =            2
     number of electrons       =       204.00
     number of Kohn-Sham states=          132
     kinetic-energy cutoff     =      36.7493  Ry
     charge density cutoff     =     367.4932  Ry
     convergence threshold     =      1.0E-06
     mixing beta               =       0.1000
     number of iterations used =           10  plain     mixing
     Exchange-correlation      = BEEF-VDW ( 1  4 27 13 2)
     nstep                     =           50

     celldm(1)=   1.889726  celldm(2)=   0.000000  celldm(3)=   0.000000
     celldm(4)=   0.000000  celldm(5)=   0.000000  celldm(6)=   0.000000

     crystal axes: (cart. coord. in units of alat)
               a(1) = (   5.423438   0.000000   0.000000 )
               a(2) = (  -2.711719   5.235308   0.000000 )
               a(3) = (   0.000000   0.000000  24.639211 )

     reciprocal axes: (cart. coord. in units 2 pi/alat)
               b(1) = (  0.184385  0.095505  0.000000 )
               b(2) = (  0.000000  0.191011  0.000000 )
               b(3) = (  0.000000  0.000000  0.040586 )

     PseudoPot. # 1 for Ag read from file:
     /afs/slac.stanford.edu/u/if/mamunm/psp/gbrv1.5pbe/Ag.UPF
     MD5 check sum: d66d668201baa78d5eb5b04ef7011058
     Pseudo is Ultrasoft + core correction, Zval = 19.0
     Generated by new atomic code, or converted to UPF format
     Using radial grid of  887 points,  6 beta functions with:
                l(1) =   0
                l(2) =   0
                l(3) =   1
                l(4) =   1
                l(5) =   2
                l(6) =   2
     Q(r) pseudized with  6 coefficients,  rinner =    1.300   1.300   1.300
                                                       1.300   1.300

     PseudoPot. # 2 for Ir read from file:
     /afs/slac.stanford.edu/u/if/mamunm/psp/gbrv1.5pbe/Ir.UPF
     MD5 check sum: 8836f839c3459d2b385c504ce6d91f2c
     Pseudo is Ultrasoft + core correction, Zval = 15.0
     Generated by new atomic code, or converted to UPF format
     Using radial grid of  983 points,  7 beta functions with:
                l(1) =   0
                l(2) =   0
                l(3) =   1
                l(4) =   1
                l(5) =   1
                l(6) =   2
                l(7) =   2
     Q(r) pseudized with  8 coefficients,  rinner =    1.400   1.400   1.400
                                                       1.400   1.400

     vdW kernel table read from file vdW_kernel_table
     MD5 check sum: 095c7af220d748ca6e76c0b4c6cfb241

     atomic species   valence    mass     pseudopotential
        Ag1           19.00   107.86820     Ag( 1.00)
        Ir1           15.00   192.21700     Ir( 1.00)

     No symmetry found

   Cartesian axes

     site n.     atom                  positions (alat units)
         1           Ag1 tau(   1) = (   0.0000000   0.0000000  10.0000000  )
         2           Ag1 tau(   2) = (   2.7117192   0.0000000  10.0000000  )
         3           Ir1 tau(   3) = (   1.3558596   2.6176542  10.0000000  )
         4           Ir1 tau(   4) = (  -1.3558596   2.6176542  10.0000000  )
         5           Ag1 tau(   5) = (   2.7117192   1.4045822  12.3196055  )
         6           Ag1 tau(   6) = (  -0.0000000   1.4045822  12.3196055  )
         7           Ir1 tau(   7) = (  -1.3558596   4.0222364  12.3196055  )
         8           Ir1 tau(   8) = (   1.3558596   4.0222364  12.3196055  )
         9           Ag1 tau(   9) = (   0.0003130   2.5637300  14.8943626  )
        10           Ag1 tau(  10) = (   2.7120548   2.5637313  14.8943628  )
        11           Ir1 tau(  11) = (   1.3562241   5.1202778  14.5398625  )
        12           Ir1 tau(  12) = (  -1.3554969   5.1202735  14.5398552  )

     number of k points=    20  Fermi-Dirac smearing, width (Ry)=  0.0110
                       cart. coord. in units 2pi/alat
        k(    1) = (   0.0000000   0.0000000   0.0000000), wk =   0.0555556
        k(    2) = (   0.0000000   0.0318351   0.0000000), wk =   0.1111111
        k(    3) = (   0.0000000   0.0636702   0.0000000), wk =   0.1111111
        k(    4) = (   0.0000000  -0.0955054   0.0000000), wk =   0.0555556
        k(    5) = (   0.0307308   0.0159176   0.0000000), wk =   0.1111111
        k(    6) = (   0.0307308   0.0477527   0.0000000), wk =   0.1111111
        k(    7) = (   0.0307308   0.0795878   0.0000000), wk =   0.1111111
        k(    8) = (   0.0307308  -0.0795878   0.0000000), wk =   0.1111111
        k(    9) = (   0.0307308  -0.0477527   0.0000000), wk =   0.1111111
        k(   10) = (   0.0307308  -0.0159176   0.0000000), wk =   0.1111111
        k(   11) = (   0.0614616   0.0318351   0.0000000), wk =   0.1111111
        k(   12) = (   0.0614616   0.0636702   0.0000000), wk =   0.1111111
        k(   13) = (   0.0614616   0.0955054   0.0000000), wk =   0.1111111
        k(   14) = (   0.0614616  -0.0636702   0.0000000), wk =   0.1111111
        k(   15) = (   0.0614616  -0.0318351   0.0000000), wk =   0.1111111
        k(   16) = (   0.0614616   0.0000000   0.0000000), wk =   0.1111111
        k(   17) = (  -0.0921924  -0.0477527   0.0000000), wk =   0.0555556
        k(   18) = (  -0.0921924  -0.0159176   0.0000000), wk =   0.1111111
        k(   19) = (  -0.0921924   0.0159176   0.0000000), wk =   0.1111111
        k(   20) = (  -0.0921924  -0.1432580   0.0000000), wk =   0.0555556

     Largest allocated arrays     est. size (Mb)     dimensions
     Largest temporary arrays     est. size (Mb)     dimensions

     Initial potential from superposition of free atoms
     Check: negative starting charge=   -2.188159

     starting charge  197.99953, renormalised to  204.00000

[...]

     *
     * You are using vdW-DF for exchange-correlation in this calculation.
     * Please cite the following three references that made this development
     * possible:
     *
     *   M. Dion, H. Rydberg, E. Schroder, D. C. Langreth, and
     *   B. I. Lundqvist, Phys. Rev. Lett. 92, 246401 (2004).
     *
     *   T. Thonhauser, V. R. Cooper, S. Li, A. Puzder, P. Hyldgaard, and
     *   D. C. Langreth, Phys. Rev. B 76, 125112 (2007).
     *
     *   G. Roman-Perez and J. M. Soler, Phys. Rev. Lett. 103, 096102 (2009).
     *
     *
     * If you are using vdW-DF2, please also cite:
     *
     *   K. Lee, E. D. Murray, L. Kong, B. I. Lundqvist, and
     *   D. C. Langreth, Phys. Rev. B 82, 081101(R) (2010).
     *
     *
     * If you are calculating the stress with vdW-DF, please also cite:
     *
     *   R. Sabatini, E. Kucukbenli, B. Kolb, T. Thonhauser, and
     *   S. de Gironcoli, J. Phys.: Condens. Matter 24, 424209 (2012).
     *

     Carrying out vdW-DF run using the following parameters:

     Nqs =      20    Nr_points =    1024   r_max =   100.000
     q_mesh =
               0.00001000     0.04494208     0.09755937     0.15916263
               0.23128650     0.31572767     0.41458969     0.53033537
               0.66584808     0.82450364     1.01025438     1.22772762
               1.48234092     1.78043706     2.12944203     2.53805004
               3.01644009     3.57652955     4.23227104     5.00000000

     Gradients computed in reciprocal space

[...]

     Starting wfc are  150 randomized atomic wfcs

     Self-consistent Calculation

[...]

     total energy              =   -2879.41977104 Ry
     Harris-Foulkes estimate   =   -2879.41976870 Ry
     estimated scf accuracy    <       0.00000125 Ry

     iteration # 18     ecut=    36.75 Ry     beta=0.10
     Davidson diagonalization with overlap
     ethr =  6.11E-10,  avg # of iterations =  2.8

[...]

     negative rho (up, down):  1.975E+00 0.000E+00

     Adding external electric field

     Computed dipole along edir(3) :
        Dipole                0.0906 Ry au,          0.2303 Debye
        Dipole field          0.0002 Ry au

        Potential amp.       -0.0219 Ry
        Total length         45.3973 bohr

     End of self-consistent calculation

[...]

          k = 0.0615 0.0000 0.0000 ( 17748 PWs)   bands (ev):

[...]

          k =-0.0922-0.1433 0.0000 ( 17764 PWs)   bands (ev):

   -90.2457 -90.2457 -90.0750 -90.0750 -89.9947 -89.9947 -53.7679 -53.7679
   -53.7599 -53.7599 -53.7176 -53.7176 -53.6234 -53.6234 -53.5667 -53.5667
   -53.5482 -53.5482 -53.5118 -53.5118 -53.4898 -53.4898 -53.4310 -53.4310
   -47.6811 -47.6811 -47.3148 -47.3147 -47.1775 -47.1774 -47.0953 -47.0953
   -47.0435 -47.0434 -47.0274 -47.0273 -46.9112 -46.9111 -46.8144 -46.8143
   -46.6996 -46.6994  -4.3597  -4.3597  -3.6174  -3.6174  -3.5183  -3.5183
    -3.4547  -3.4547  -3.2648  -3.2648  -3.1572  -3.1572  -2.9891  -2.9891
    -2.8070  -2.8070  -2.7393  -2.7393  -2.6532  -2.6532  -2.5199  -2.5199
    -2.4491  -2.4491  -2.3128  -2.3128  -2.2675  -2.2675  -2.1561  -2.1561
    -1.9945  -1.9945  -1.8241  -1.8241  -1.6396  -1.6396  -1.4874  -1.4874
    -0.8816  -0.8816  -0.7301  -0.7301  -0.4208  -0.4208  -0.2811  -0.2811
    -0.0221  -0.0221   0.0568   0.0569   0.1519   0.1519   0.2050   0.2051
     0.3723   0.3724   0.5853   0.5854   1.2328   1.2328   1.4802   1.4802
     1.5546   1.5547   2.8617   2.8617   3.2977   3.2977   3.8273   3.8273
     5.4844   5.4844   5.9780   5.9780   7.2552   7.2552   7.8793   7.8793
     7.9574   7.9574   8.2999   8.2999   8.6890   8.6890   9.1348   9.1348
     9.5506   9.5506   9.6824   9.6825

     the Fermi energy is     1.6240 ev

!    total energy              =   -2879.41977464 Ry
     Harris-Foulkes estimate   =   -2879.41977048 Ry
     estimated scf accuracy    <       0.00000043 Ry

     The total energy is the sum of the following terms:

     one-electron contribution =  -21816.57369796 Ry
     hartree contribution      =   10920.56300140 Ry
     xc contribution           =    -492.11250547 Ry
     ewald contribution        =    8508.78624585 Ry
     electric field correction =       0.00002185 Ry
     smearing contrib. (-TS)   =      -0.08284032 Ry

     convergence has been achieved in  18 iterations

 BEEF-vdW xc energy contributions
           1 :   -432.479130816903
           2 :    398.328424684458
           3 :   -338.982669008223
           4 :    268.687974397347
           5 :   -201.785822560486
           6 :    148.292029483113
           7 :   -111.796877128943
           8 :    90.0465337778614
           9 :   -77.4738223863211
          10 :    68.2695520106340
          11 :   -58.6409291637627
          12 :    47.5381913991461
          13 :   -35.9901409666751
          14 :    25.7713569268361
          15 :   -18.2219682798893
          16 :    13.7008013086422
          17 :   -11.6897512881968
          18 :    11.2392210747449
          19 :   -11.4067150963513
          20 :    11.4991812440132
          21 :   -11.1284227215842
          22 :    10.1774787350254
          23 :   -8.76007700348913
          24 :    7.17946208956914
          25 :   -5.84915485791907
          26 :    5.14899934032962
          27 :   -5.25487316390422
          28 :    6.02998901976775
          29 :   -7.06004171907693
          30 :    7.83705568893816
          31 :   -39.1840217419828
          32 :   -28.9632772047636

     Forces acting on atoms (Ry/au):

     negative rho (up, down):  1.975E+00 0.000E+00
     atom    1 type  1   force =     0.00001741   -0.00727980   -0.02571212
     atom    2 type  1   force =     0.00001567   -0.00727983   -0.02571226
     atom    3 type  2   force =     0.00001162    0.01942748    0.02938002
     atom    4 type  2   force =     0.00001174    0.01943387    0.02938125
     atom    5 type  1   force =    -0.00001324    0.00804928    0.01296263
     atom    6 type  1   force =    -0.00003037    0.00804903    0.01296251
     atom    7 type  2   force =     0.00003551   -0.01993462   -0.01509056
     atom    8 type  2   force =     0.00003576   -0.01993000   -0.01508214
     atom    9 type  1   force =    -0.00002287   -0.00017331   -0.00065437
     atom   10 type  1   force =    -0.00003498   -0.00017351   -0.00065447
     atom   11 type  2   force =    -0.00001342   -0.00009542   -0.00089193
     atom   12 type  2   force =    -0.00001282   -0.00009316   -0.00088855

     Total force =     0.075018     Total SCF correction =     0.002823

     entering subroutine stress ...

     negative rho (up, down):  1.975E+00 0.000E+00
          total   stress  (Ry/bohr**3)                   (kbar)     P=  -18.82
  -0.00016274  -0.00000000  -0.00000003        -23.94     -0.00     -0.00
  -0.00000000  -0.00017923  -0.00002318         -0.00    -26.37     -3.41
  -0.00000003  -0.00002318  -0.00004176         -0.00     -3.41     -6.14

 !ASE

     Writing output data file calc.save

     General routines

     Parallel routines

   This run was terminated on:  19:41:10  18Dec2018

   JOB DONE.
Job  /afs/slac/g/suncat/bin/suncat-tsmpirun -x LD_LIBRARY_PATH -wdir /scratch/qe529555_BsFBo pw.x -in pw.inp

TID   HOST_NAME   COMMAND_LINE            STATUS            TERMINATION_TIME
00000 suncat0007 pw.x -in pw.inp   Done                     12/18/2018 19:41:10
00001 suncat0007 pw.x -in pw.inp   Done                     12/18/2018 19:41:10
00002 suncat0007 pw.x -in pw.inp   Done                     12/18/2018 19:41:10
00003 suncat0007 pw.x -in pw.inp   Done                     12/18/2018 19:41:10
00004 suncat0007 pw.x -in pw.inp   Done                     12/18/2018 19:41:10
00005 suncat0007 pw.x -in pw.inp   Done                     12/18/2018 19:41:10
00006 suncat0007 pw.x -in pw.inp   Done                     12/18/2018 19:41:10
00007 suncat0007 pw.x -in pw.inp   Done                     12/18/2018 19:41:10
00008 suncat0006 pw.x -in pw.inp   Done                     12/18/2018 19:41:10
00009 suncat0006 pw.x -in pw.inp   Done                     12/18/2018 19:41:10
00010 suncat0006 pw.x -in pw.inp   Done                     12/18/2018 19:41:10
00011 suncat0006 pw.x -in pw.inp   Done                     12/18/2018 19:41:10
00012 suncat0006 pw.x -in pw.inp   Done                     12/18/2018 19:41:10
00013 suncat0006 pw.x -in pw.inp   Done                     12/18/2018 19:41:10
00014 suncat0006 pw.x -in pw.inp   Done                     12/18/2018 19:41:10
00015 suncat0006 pw.x -in pw.inp   Done                     12/18/2018 19:41:10
00016 suncat0005 pw.x -in pw.inp   Done                     12/18/2018 19:41:10
00017 suncat0005 pw.x -in pw.inp   Done                     12/18/2018 19:41:10
00018 suncat0005 pw.x -in pw.inp   Done                     12/18/2018 19:41:10
00019 suncat0005 pw.x -in pw.inp   Done                     12/18/2018 19:41:10
00020 suncat0005 pw.x -in pw.inp   Done                     12/18/2018 19:41:10
00021 suncat0005 pw.x -in pw.inp   Done                     12/18/2018 19:41:10
00022 suncat0005 pw.x -in pw.inp   Done                     12/18/2018 19:41:10
00023 suncat0005 pw.x -in pw.inp   Done                     12/18/2018 19:41:10
00024 suncat0004 pw.x -in pw.inp   Done                     12/18/2018 19:41:10
00025 suncat0004 pw.x -in pw.inp   Done                     12/18/2018 19:41:10
00026 suncat0004 pw.x -in pw.inp   Done                     12/18/2018 19:41:10
00027 suncat0004 pw.x -in pw.inp   Done                     12/18/2018 19:41:10
00028 suncat0004 pw.x -in pw.inp   Done                     12/18/2018 19:41:10
00029 suncat0004 pw.x -in pw.inp   Done                     12/18/2018 19:41:10
00030 suncat0004 pw.x -in pw.inp   Done                     12/18/2018 19:41:10
00031 suncat0004 pw.x -in pw.inp   Done                     12/18/2018 19:41:10