     Program PWSCF v.5.1rc2 (svn rev. 11289) starts on 18Dec2018 at 19:35:10

     Current dimensions of program PWSCF are:
     Max number of different atomic species (ntypx) = 10
     Max number of k-points (npk) =  40000
     Max angular momentum in pseudopotentials (lmaxx) =  3
     Presently stress not available with electric field

     IMPORTANT: XC functional enforced from input :
     Exchange-correlation      = BEEF-VDW ( 1  4 27 13 2)
     Any further DFT definition will be discarded
     Please, verify this is what you really want

     Subspace diagonalization in iterative solution of the eigenvalue problem:
     a serial algorithm will be used

     Found symmetry operation: I + (  0.5000  0.0000  0.0000)
     This is a supercell, fractional translations are disabled

     bravais-lattice index     =            0
     lattice parameter (alat)  =       1.8897  a.u.
     unit-cell volume          =    5023.1864 (a.u.)^3
     number of atoms/cell      =           12
     number of atomic types    =            2
     number of electrons       =       192.00
     number of Kohn-Sham states=          126
     kinetic-energy cutoff     =      36.7493  Ry
     charge density cutoff     =     367.4932  Ry
     convergence threshold     =      1.0E-06
     mixing beta               =       0.1000
     number of iterations used =           10  plain     mixing
     Exchange-correlation      = BEEF-VDW ( 1  4 27 13 2)
     nstep                     =           50

     celldm(1)=   1.889726  celldm(2)=   0.000000  celldm(3)=   0.000000
     celldm(4)=   0.000000  celldm(5)=   0.000000  celldm(6)=   0.000000

     crystal axes: (cart. coord. in units of alat)
               a(1) = (   5.585996   0.000000   0.000000 )
               a(2) = (  -2.792998   5.378830   0.000000 )
               a(3) = (   0.000000   0.000000  24.773892 )

     reciprocal axes: (cart. coord. in units 2 pi/alat)
               b(1) = (  0.179019  0.092957  0.000000 )
               b(2) = (  0.000000  0.185914  0.000000 )
               b(3) = (  0.000000  0.000000  0.040365 )

     PseudoPot. # 1 for Nb read from file:
     /afs/slac.stanford.edu/u/if/mamunm/psp/gbrv1.5pbe/Nb.UPF
     MD5 check sum: 573aab8a2fa660278ed4a62cd769473f
     Pseudo is Ultrasoft + core correction, Zval = 13.0
     Generated by new atomic code, or converted to UPF format
     Using radial grid of  887 points,  6 beta functions with:
                l(1) =   0
                l(2) =   0
                l(3) =   1
                l(4) =   1
                l(5) =   2
                l(6) =   2
     Q(r) pseudized with  6 coefficients,  rinner =    1.000   1.000   1.000
                                                       1.000   1.000

     PseudoPot. # 2 for Ag read from file:
     /afs/slac.stanford.edu/u/if/mamunm/psp/gbrv1.5pbe/Ag.UPF
     MD5 check sum: d66d668201baa78d5eb5b04ef7011058
     Pseudo is Ultrasoft + core correction, Zval = 19.0
     Generated by new atomic code, or converted to UPF format
     Using radial grid of  887 points,  6 beta functions with:
                l(1) =   0
                l(2) =   0
                l(3) =   1
                l(4) =   1
                l(5) =   2
                l(6) =   2
     Q(r) pseudized with  6 coefficients,  rinner =    1.300   1.300   1.300
                                                       1.300   1.300

     vdW kernel table read from file vdW_kernel_table
     MD5 check sum: 095c7af220d748ca6e76c0b4c6cfb241

     atomic species   valence    mass     pseudopotential
        Nb1           13.00    92.90637     Nb( 1.00)
        Ag1           19.00   107.86820     Ag( 1.00)

     No symmetry found

   Cartesian axes

     site n.     atom                  positions (alat units)
         1           Nb1 tau(   1) = (   0.0000000   0.0000000  10.0000000  )
         2           Nb1 tau(   2) = (   2.7929981   0.0000000  10.0000000  )
         3           Ag1 tau(   3) = (   1.3964991   2.6894149  10.0000000  )
         4           Ag1 tau(   4) = (  -1.3964991   2.6894149  10.0000000  )
         5           Nb1 tau(   5) = (   2.7929981   1.4502854  12.3869459  )
         6           Nb1 tau(   6) = (  -0.0000000   1.4502854  12.3869459  )
         7           Ag1 tau(   7) = (  -1.3964991   4.1397004  12.3869459  )
         8           Ag1 tau(   8) = (   1.3964991   4.1397004  12.3869459  )
         9           Nb1 tau(   9) = (  -0.0000000   2.9005709  14.7738918  )
        10           Nb1 tau(  10) = (   2.7929981   2.9005709  14.7738918  )
        11           Ag1 tau(  11) = (   4.1894972   0.2111559  14.7738918  )
        12           Ag1 tau(  12) = (   1.3964991   0.2111559  14.7738918  )

     number of k points=    20  Fermi-Dirac smearing, width (Ry)=  0.0110
                       cart. coord. in units 2pi/alat
        k(    1) = (   0.0000000   0.0000000   0.0000000), wk =   0.0555556
        k(    2) = (   0.0000000   0.0309857   0.0000000), wk =   0.1111111
        k(    3) = (   0.0000000   0.0619713   0.0000000), wk =   0.1111111
        k(    4) = (   0.0000000  -0.0929570   0.0000000), wk =   0.0555556
        k(    5) = (   0.0298365   0.0154928   0.0000000), wk =   0.1111111
        k(    6) = (   0.0298365   0.0464785   0.0000000), wk =   0.1111111
        k(    7) = (   0.0298365   0.0774642   0.0000000), wk =   0.1111111
        k(    8) = (   0.0298365  -0.0774642   0.0000000), wk =   0.1111111
        k(    9) = (   0.0298365  -0.0464785   0.0000000), wk =   0.1111111
        k(   10) = (   0.0298365  -0.0154928   0.0000000), wk =   0.1111111
        k(   11) = (   0.0596730   0.0309857   0.0000000), wk =   0.1111111
        k(   12) = (   0.0596730   0.0619713   0.0000000), wk =   0.1111111
        k(   13) = (   0.0596730   0.0929570   0.0000000), wk =   0.1111111
        k(   14) = (   0.0596730  -0.0619713   0.0000000), wk =   0.1111111
        k(   15) = (   0.0596730  -0.0309857   0.0000000), wk =   0.1111111
        k(   16) = (   0.0596730   0.0000000   0.0000000), wk =   0.1111111
        k(   17) = (  -0.0895095  -0.0464785   0.0000000), wk =   0.0555556
        k(   18) = (  -0.0895095  -0.0154928   0.0000000), wk =   0.1111111
        k(   19) = (  -0.0895095   0.0154928   0.0000000), wk =   0.1111111
        k(   20) = (  -0.0895095  -0.1394355   0.0000000), wk =   0.0555556

     Largest allocated arrays     est. size (Mb)     dimensions
     Largest temporary arrays     est. size (Mb)     dimensions

     Initial potential from superposition of free atoms
     Check: negative starting charge=   -0.004145

     starting charge  188.98332, renormalised to  192.00000

     negative rho (up, down):  4.211E-03 0.000E+00

     *
     * You are using vdW-DF for exchange-correlation in this calculation.
     * Please cite the following three references that made this development
     * possible:
     *
     *   M. Dion, H. Rydberg, E. Schroder, D. C. Langreth, and
     *   B. I. Lundqvist, Phys. Rev. Lett. 92, 246401 (2004).
     *
     *   T. Thonhauser, V. R. Cooper, S. Li, A. Puzder, P. Hyldgaard, and
     *   D. C. Langreth, Phys. Rev. B 76, 125112 (2007).
     *
     *   G. Roman-Perez and J. M. Soler, Phys. Rev. Lett. 103, 096102 (2009).
     *
     *
     * If you are using vdW-DF2, please also cite:
     *
     *   K. Lee, E. D. Murray, L. Kong, B. I. Lundqvist, and
     *   D. C. Langreth, Phys. Rev. B 82, 081101(R) (2010).
     *
     *
     * If you are calculating the stress with vdW-DF, please also cite:
     *
     *   R. Sabatini, E. Kucukbenli, B. Kolb, T. Thonhauser, and
     *   S. de Gironcoli, J. Phys.: Condens. Matter 24, 424209 (2012).
     *

     Carrying out vdW-DF run using the following parameters:

     Nqs =      20    Nr_points =    1024   r_max =   100.000
     q_mesh =
               0.00001000     0.04494208     0.09755937     0.15916263
               0.23128650     0.31572767     0.41458969     0.53033537
               0.66584808     0.82450364     1.01025438     1.22772762
               1.48234092     1.78043706     2.12944203     2.53805004
               3.01644009     3.57652955     4.23227104     5.00000000

     Gradients computed in reciprocal space

     Adding external electric field

     Computed dipole along edir(3) :
        Dipole                0.0000 Ry au,          0.0000 Debye
        Dipole field          0.0000 Ry au

        Potential amp.       -0.0000 Ry
        Total length         45.6455 bohr

     Starting wfc are  156 randomized atomic wfcs

     Self-consistent Calculation

     iteration #  1     ecut=    36.75 Ry     beta=0.10
     Davidson diagonalization with overlap
     ethr =  1.00E-02,  avg # of iterations =  7.7

[...]

     total energy              =   -2491.19103363 Ry
     Harris-Foulkes estimate   =   -2491.99669723 Ry
     estimated scf accuracy    <       5.18529263 Ry

[...]

     End of self-consistent calculation

          k = 0.0000 0.0000 0.0000 ( 18859 PWs)   bands (ev):

   -90.6665 -90.6574 -90.4724 -90.4724 -90.4633 -90.4632 -54.1949 -54.1598
   -54.1486 -54.1358 -54.1232 -54.0723 -54.0112 -54.0108 -53.9819 -53.9796
   -53.9703 -53.9686 -53.9114 -53.9031 -53.8994 -53.8924 -53.8883 -53.8882
   -53.5544 -53.5414 -53.4254 -53.4144 -53.3596 -53.2307 -29.9491 -29.9072
   -29.8631 -29.8414 -29.7227 -29.6488 -29.6398 -29.5866 -29.5246 -29.5156
   -29.4763 -29.4628 -29.3486 -29.0520 -28.9434 -28.8794 -28.8586 -28.8015
    -4.6776  -4.2243  -4.0985  -3.9966  -3.9951  -3.9684  -3.8716  -3.8022
    -3.7202  -3.7128  -3.6658  -3.5522  -3.4461  -3.2980  -3.2702  -3.0815
    -3.0168  -2.9880  -2.9516  -2.7704  -2.6627  -2.4757  -2.4390  -2.3313
    -2.2748  -2.2687  -2.1340  -2.1303  -2.1114  -1.9525  -1.7460  -1.2533
    -0.4147  -0.2274  -0.1994   0.0113   0.0192   0.3485   0.3687   0.4666
     0.8526   0.9681   1.0018   1.5412   1.5418   1.8098   1.9049   2.0060
     2.0694   2.4244   2.6321   2.8131   2.9586   2.9745   3.3303   3.5288
     3.7336   3.8539   3.9490   3.9679   4.0263   4.3752   4.5835   4.6902
     4.8043   4.8875   4.9451   5.3141   5.3595   5.4020   5.5237   5.7066
     5.7389   6.0752   6.1779   6.7550   7.0671   7.2411

[...]

          k =-0.0895-0.0465 0.0000 ( 18894 PWs)   bands (ev):

[...]

     the Fermi energy is     1.8036 ev

!    total energy              =   -2490.76280109 Ry
     Harris-Foulkes estimate   =   -2490.76280122 Ry
     estimated scf accuracy    <       0.00000009 Ry

     The total energy is the sum of the following terms:

     one-electron contribution =  -18542.18124600 Ry
     hartree contribution      =    9262.31005576 Ry
     xc contribution           =    -294.39580791 Ry
     ewald contribution        =    7083.57554545 Ry
     electric field correction =       0.00000000 Ry
     smearing contrib. (-TS)   =      -0.07134838 Ry

     convergence has been achieved in  19 iterations

 BEEF-vdW xc energy contributions
           1 :   -254.230501976090
           2 :    230.928437991910
           3 :   -191.465885938155
           4 :    146.943891682459
           5 :   -107.947701597400
           6 :    80.8422789612691
           7 :   -66.3772594669516
           8 :    60.8039694079209
[...]
00028 suncat2049 pw.x -in pw.inp   Done                     12/18/2018 19:40:23
00029 suncat2049 pw.x -in pw.inp   Done                     12/18/2018 19:40:23
00030 suncat2049 pw.x -in pw.inp   Done                     12/18/2018 19:40:23
00031 suncat2049 pw.x -in pw.inp   Done                     12/18/2018 19:40:23

[...]

     Program PWSCF v.5.1rc2 (svn rev. 11289) starts on 18Dec2018 at 19:50:44

     Current dimensions of program PWSCF are:
     Max number of different atomic species (ntypx) = 10
     Max number of k-points (npk) =  40000
     Max angular momentum in pseudopotentials (lmaxx) =  3
     Presently stress not available with electric field

     IMPORTANT: XC functional enforced from input :
     Exchange-correlation      = BEEF-VDW ( 1  4 27 13 2)
     Any further DFT definition will be discarded
     Please, verify this is what you really want

     Subspace diagonalization in iterative solution of the eigenvalue problem:
     a serial algorithm will be used

     Found symmetry operation: I + (  0.5000  0.0000  0.0000)
     This is a supercell, fractional translations are disabled

     bravais-lattice index     =            0
     lattice parameter (alat)  =       1.8897  a.u.
     unit-cell volume          =    5023.1864 (a.u.)^3
     number of atoms/cell      =           12
     number of atomic types    =            2
     number of electrons       =       192.00
     number of Kohn-Sham states=          126
     kinetic-energy cutoff     =      36.7493  Ry
     charge density cutoff     =     367.4932  Ry
     convergence threshold     =      1.0E-06
     mixing beta               =       0.1000
     number of iterations used =           10  plain     mixing
     Exchange-correlation      = BEEF-VDW ( 1  4 27 13 2)
     nstep                     =           50

     celldm(1)=   1.889726  celldm(2)=   0.000000  celldm(3)=   0.000000
     celldm(4)=   0.000000  celldm(5)=   0.000000  celldm(6)=   0.000000

     crystal axes: (cart. coord. in units of alat)
               a(1) = (   5.585996   0.000000   0.000000 )
               a(2) = (  -2.792998   5.378830   0.000000 )
               a(3) = (   0.000000   0.000000  24.773892 )

     reciprocal axes: (cart. coord. in units 2 pi/alat)
               b(1) = (  0.179019  0.092957  0.000000 )
               b(2) = (  0.000000  0.185914  0.000000 )
               b(3) = (  0.000000  0.000000  0.040365 )

     PseudoPot. # 1 for Nb read from file:
     /afs/slac.stanford.edu/u/if/mamunm/psp/gbrv1.5pbe/Nb.UPF
     MD5 check sum: 573aab8a2fa660278ed4a62cd769473f
     Pseudo is Ultrasoft + core correction, Zval = 13.0
     Generated by new atomic code, or converted to UPF format
     Using radial grid of  887 points,  6 beta functions with:
                l(1) =   0
                l(2) =   0
                l(3) =   1
                l(4) =   1
                l(5) =   2
                l(6) =   2
     Q(r) pseudized with  6 coefficients,  rinner =    1.000   1.000   1.000
                                                       1.000   1.000

     PseudoPot. # 2 for Ag read from file:
     /afs/slac.stanford.edu/u/if/mamunm/psp/gbrv1.5pbe/Ag.UPF
     MD5 check sum: d66d668201baa78d5eb5b04ef7011058
     Pseudo is Ultrasoft + core correction, Zval = 19.0
     Generated by new atomic code, or converted to UPF format
     Using radial grid of  887 points,  6 beta functions with:
                l(1) =   0
                l(2) =   0
                l(3) =   1
                l(4) =   1
                l(5) =   2
                l(6) =   2
     Q(r) pseudized with  6 coefficients,  rinner =    1.300   1.300   1.300
                                                       1.300   1.300

     vdW kernel table read from file vdW_kernel_table
     MD5 check sum: 095c7af220d748ca6e76c0b4c6cfb241

     atomic species   valence    mass     pseudopotential
        Nb1           13.00    92.90637     Nb( 1.00)
        Ag1           19.00   107.86820     Ag( 1.00)

     No symmetry found

   Cartesian axes

     site n.     atom                  positions (alat units)
         1           Nb1 tau(   1) = (   0.0000000   0.0000000  10.0000000  )
         2           Nb1 tau(   2) = (   2.7929981   0.0000000  10.0000000  )
         3           Ag1 tau(   3) = (   1.3964991   2.6894149  10.0000000  )
         4           Ag1 tau(   4) = (  -1.3964991   2.6894149  10.0000000  )
         5           Nb1 tau(   5) = (   2.7929981   1.4502854  12.3869459  )
         6           Nb1 tau(   6) = (  -0.0000000   1.4502854  12.3869459  )
         7           Ag1 tau(   7) = (  -1.3964991   4.1397004  12.3869459  )
         8           Ag1 tau(   8) = (   1.3964991   4.1397004  12.3869459  )
         9           Nb1 tau(   9) = (  -0.0000000   2.8821074  14.6235520  )
        10           Nb1 tau(  10) = (   2.7929983   2.8821071  14.6235542  )
        11           Ag1 tau(  11) = (   4.1894970   0.2398116  14.8583773  )
        12           Ag1 tau(  12) = (   1.3964993   0.2398113  14.8583775  )

     number of k points=    20  Fermi-Dirac smearing, width (Ry)=  0.0110
                       cart. coord. in units 2pi/alat
        k(    1) = (   0.0000000   0.0000000   0.0000000), wk =   0.0555556
        k(    2) = (   0.0000000   0.0309857   0.0000000), wk =   0.1111111
        k(    3) = (   0.0000000   0.0619713   0.0000000), wk =   0.1111111
        k(    4) = (   0.0000000  -0.0929570   0.0000000), wk =   0.0555556
        k(    5) = (   0.0298365   0.0154928   0.0000000), wk =   0.1111111
        k(    6) = (   0.0298365   0.0464785   0.0000000), wk =   0.1111111
        k(    7) = (   0.0298365   0.0774642   0.0000000), wk =   0.1111111
        k(    8) = (   0.0298365  -0.0774642   0.0000000), wk =   0.1111111
        k(    9) = (   0.0298365  -0.0464785   0.0000000), wk =   0.1111111
        k(   10) = (   0.0298365  -0.0154928   0.0000000), wk =   0.1111111
        k(   11) = (   0.0596730   0.0309857   0.0000000), wk =   0.1111111
        k(   12) = (   0.0596730   0.0619713   0.0000000), wk =   0.1111111
        k(   13) = (   0.0596730   0.0929570   0.0000000), wk =   0.1111111
        k(   14) = (   0.0596730  -0.0619713   0.0000000), wk =   0.1111111
        k(   15) = (   0.0596730  -0.0309857   0.0000000), wk =   0.1111111
        k(   16) = (   0.0596730   0.0000000   0.0000000), wk =   0.1111111
        k(   17) = (  -0.0895095  -0.0464785   0.0000000), wk =   0.0555556
        k(   18) = (  -0.0895095  -0.0154928   0.0000000), wk =   0.1111111
        k(   19) = (  -0.0895095   0.0154928   0.0000000), wk =   0.1111111
        k(   20) = (  -0.0895095  -0.1394355   0.0000000), wk =   0.0555556

     Largest allocated arrays     est. size (Mb)     dimensions
     Largest temporary arrays     est. size (Mb)     dimensions

     Initial potential from superposition of free atoms
     Check: negative starting charge=   -0.004293

     starting charge  188.98332, renormalised to  192.00000

[...]

     *
     * You are using vdW-DF for exchange-correlation in this calculation.
     * Please cite the following three references that made this development
     * possible:
     *
     *   M. Dion, H. Rydberg, E. Schroder, D. C. Langreth, and
     *   B. I. Lundqvist, Phys. Rev. Lett. 92, 246401 (2004).
     *
     *   T. Thonhauser, V. R. Cooper, S. Li, A. Puzder, P. Hyldgaard, and
     *   D. C. Langreth, Phys. Rev. B 76, 125112 (2007).
     *
     *   G. Roman-Perez and J. M. Soler, Phys. Rev. Lett. 103, 096102 (2009).
     *
     *
     * If you are using vdW-DF2, please also cite:
     *
     *   K. Lee, E. D. Murray, L. Kong, B. I. Lundqvist, and
     *   D. C. Langreth, Phys. Rev. B 82, 081101(R) (2010).
     *
     *
     * If you are calculating the stress with vdW-DF, please also cite:
     *
     *   R. Sabatini, E. Kucukbenli, B. Kolb, T. Thonhauser, and
     *   S. de Gironcoli, J. Phys.: Condens. Matter 24, 424209 (2012).
     *

     Carrying out vdW-DF run using the following parameters:

     Nqs =      20    Nr_points =    1024   r_max =   100.000
     q_mesh =
               0.00001000     0.04494208     0.09755937     0.15916263
               0.23128650     0.31572767     0.41458969     0.53033537
               0.66584808     0.82450364     1.01025438     1.22772762
               1.48234092     1.78043706     2.12944203     2.53805004
               3.01644009     3.57652955     4.23227104     5.00000000

     Gradients computed in reciprocal space

[...]

     Starting wfc are  156 randomized atomic wfcs

     Self-consistent Calculation

[...]

     total energy              =   -2490.77547204 Ry
     Harris-Foulkes estimate   =   -2490.77547177 Ry
     estimated scf accuracy    <       0.00000127 Ry

     iteration # 17     ecut=    36.75 Ry     beta=0.10
     Davidson diagonalization with overlap
     ethr =  6.62E-10,  avg # of iterations =  2.0

[...]

     negative rho (up, down):  3.918E-03 0.000E+00

     Adding external electric field

     Computed dipole along edir(3) :
        Dipole               -0.0290 Ry au,         -0.0737 Debye
        Dipole field         -0.0001 Ry au

        Potential amp.        0.0066 Ry
        Total length         45.6455 bohr

     End of self-consistent calculation

[...]

          k = 0.0597 0.0000 0.0000 ( 18892 PWs)   bands (ev):

[...]

          k =-0.0895-0.1394 0.0000 ( 18894 PWs)   bands (ev):

   -90.7716 -90.7716 -90.5142 -90.5142 -90.4413 -90.4413 -54.2626 -54.2626
   -54.2419 -54.2419 -54.2392 -54.2392 -54.0224 -54.0224 -53.9966 -53.9966
   -53.9565 -53.9565 -53.9497 -53.9497 -53.9312 -53.9312 -53.8674 -53.8674
   -53.5507 -53.5507 -53.4533 -53.4533 -53.2853 -53.2853 -29.9130 -29.9130
   -29.6444 -29.6443 -29.5891 -29.5891 -29.5394 -29.5394 -29.4736 -29.4736
   -29.4253 -29.4253 -29.4026 -29.4026 -29.3325 -29.3325 -28.9151 -28.9151
    -3.7513  -3.7513  -3.6765  -3.6765  -3.5013  -3.5013  -3.4809  -3.4809
    -3.3034  -3.3034  -3.1695  -3.1695  -3.1213  -3.1213  -2.9588  -2.9588
    -2.8845  -2.8845  -2.8244  -2.8244  -2.7797  -2.7797  -2.7426  -2.7426
    -2.5682  -2.5682  -2.4747  -2.4747  -2.3689  -2.3689  -2.2267  -2.2267
    -1.3663  -1.3663  -0.2211  -0.2211   0.1562   0.1562   0.3948   0.3948
     1.0008   1.0008   1.1850   1.1850   1.6958   1.6958   1.7354   1.7354
     1.9744   1.9744   2.1272   2.1273   2.2201   2.2201   2.4275   2.4275
     2.7208   2.7208   3.4156   3.4156   3.8280   3.8280   4.1526   4.1526
     4.5890   4.5890   4.8676   4.8676   5.1987   5.1987   5.9584   5.9584
     6.7477   6.7477   7.0664   7.0664   7.5220   7.5221

     the Fermi energy is     1.7650 ev

!    total energy              =   -2490.77547224 Ry
     Harris-Foulkes estimate   =   -2490.77547207 Ry
     estimated scf accuracy    <       0.00000072 Ry

     The total energy is the sum of the following terms:

     one-electron contribution =  -18565.09676772 Ry
     hartree contribution      =    9273.54662763 Ry
     xc contribution           =    -294.50196328 Ry
     ewald contribution        =    7095.34634769 Ry
     electric field correction =       0.00000210 Ry
     smearing contrib. (-TS)   =      -0.06971866 Ry

     convergence has been achieved in  17 iterations

 BEEF-vdW xc energy contributions
           1 :   -254.334730764377
           2 :    231.052646167011
           3 :   -191.616808919297
           4 :    147.105230605602
           5 :   -108.082412583837
           6 :    80.9090852165820
           7 :   -66.3532139049689
           8 :    60.6999708972166
           9 :   -58.4445986942463
          10 :    55.0660271957354
          11 :   -48.6555839771329
          12 :    39.9256574576112
          13 :   -31.0027988094846
          14 :    23.8777561692488
          15 :   -19.3642984554136
          16 :    16.9533213120567
          17 :   -15.4183613888327
          18 :    13.6626726781395
          19 :   -11.2943680990459
          20 :    8.66643414190469
          21 :   -6.48053118540076
          22 :    5.27303853058288
          23 :   -5.10993180520114
          24 :    5.62190556069697
          25 :   -6.28999349632647
          26 :    6.75705472554012
          27 :   -6.97634460765352
          28 :    7.13845811162753
          29 :   -7.46665768393950
          30 :    8.02909193182586
          31 :   -26.8472973940352
          32 :   -19.9088767141178

     Forces acting on atoms (Ry/au):

     negative rho (up, down):  3.918E-03 0.000E+00
     atom    1 type  1   force =     0.00000004    0.00960127    0.03073183
     atom    2 type  1   force =    -0.00000000    0.00960149    0.03073181
     atom    3 type  2   force =     0.00000001   -0.00976710   -0.01707357
     atom    4 type  2   force =    -0.00000005   -0.00976714   -0.01707364
     atom    5 type  1   force =    -0.00000000   -0.01128469   -0.01036004
     atom    6 type  1   force =     0.00000000   -0.01128390   -0.01035900
     atom    7 type  2   force =    -0.00000175    0.01034552   -0.00519336
     atom    8 type  2   force =     0.00000170    0.01034532   -0.00519335
     atom    9 type  1   force =    -0.00000004    0.00079479    0.00052237
     atom   10 type  1   force =    -0.00000007    0.00079499    0.00052197
     atom   11 type  2   force =     0.00000036    0.00030966    0.00137250
     atom   12 type  2   force =    -0.00000019    0.00030978    0.00137248

     Total force =     0.059918     Total SCF correction =     0.002747

     entering subroutine stress ...

     negative rho (up, down):  3.918E-03 0.000E+00
          total   stress  (Ry/bohr**3)                   (kbar)     P=  -10.03
  -0.00007278   0.00000000  -0.00000000        -10.71      0.00     -0.00
   0.00000000  -0.00009899   0.00000135          0.00    -14.56      0.20
  -0.00000000   0.00000135  -0.00003273         -0.00      0.20     -4.81

 !ASE

     Writing output data file calc.save

     General routines

     Parallel routines

   This run was terminated on:  19:55:40  18Dec2018

   JOB DONE.
Job  /afs/slac/g/suncat/bin/suncat-tsmpirun -x LD_LIBRARY_PATH -wdir /scratch/qe530287_FSiel pw.x -in pw.inp

TID   HOST_NAME   COMMAND_LINE            STATUS            TERMINATION_TIME
00000 suncat2050 pw.x -in pw.inp   Done                     12/18/2018 19:55:40
00001 suncat2050 pw.x -in pw.inp   Done                     12/18/2018 19:55:40
00002 suncat2050 pw.x -in pw.inp   Done                     12/18/2018 19:55:40
00003 suncat2050 pw.x -in pw.inp   Done                     12/18/2018 19:55:40
00004 suncat2050 pw.x -in pw.inp   Done                     12/18/2018 19:55:40
00005 suncat2050 pw.x -in pw.inp   Done                     12/18/2018 19:55:40
00006 suncat2050 pw.x -in pw.inp   Done                     12/18/2018 19:55:40
00007 suncat2050 pw.x -in pw.inp   Done                     12/18/2018 19:55:40
00008 suncat2050 pw.x -in pw.inp   Done                     12/18/2018 19:55:40
00009 suncat2050 pw.x -in pw.inp   Done                     12/18/2018 19:55:40
00010 suncat2050 pw.x -in pw.inp   Done                     12/18/2018 19:55:40
00011 suncat2050 pw.x -in pw.inp   Done                     12/18/2018 19:55:40
00012 suncat2050 pw.x -in pw.inp   Done                     12/18/2018 19:55:40
00013 suncat2050 pw.x -in pw.inp   Done                     12/18/2018 19:55:40
00014 suncat2050 pw.x -in pw.inp   Done                     12/18/2018 19:55:40
00015 suncat2050 pw.x -in pw.inp   Done                     12/18/2018 19:55:40
00016 suncat2049 pw.x -in pw.inp   Done                     12/18/2018 19:55:40
00017 suncat2049 pw.x -in pw.inp   Done                     12/18/2018 19:55:40
00018 suncat2049 pw.x -in pw.inp   Done                     12/18/2018 19:55:40
00019 suncat2049 pw.x -in pw.inp   Done                     12/18/2018 19:55:40
00020 suncat2049 pw.x -in pw.inp   Done                     12/18/2018 19:55:40
00021 suncat2049 pw.x -in pw.inp   Done                     12/18/2018 19:55:40
00022 suncat2049 pw.x -in pw.inp   Done                     12/18/2018 19:55:40
00023 suncat2049 pw.x -in pw.inp   Done                     12/18/2018 19:55:40
00024 suncat2049 pw.x -in pw.inp   Done                     12/18/2018 19:55:40
00025 suncat2049 pw.x -in pw.inp   Done                     12/18/2018 19:55:40
00026 suncat2049 pw.x -in pw.inp   Done                     12/18/2018 19:55:40
00027 suncat2049 pw.x -in pw.inp   Done                     12/18/2018 19:55:40
00028 suncat2049 pw.x -in pw.inp   Done                     12/18/2018 19:55:40
00029 suncat2049 pw.x -in pw.inp   Done                     12/18/2018 19:55:40
00030 suncat2049 pw.x -in pw.inp   Done                     12/18/2018 19:55:40
00031 suncat2049 pw.x -in pw.inp   Done                     12/18/2018 19:55:40