     Program PWSCF v.5.1rc2 (svn rev. 11289) starts on 18Dec2018 at 19: 3:14

     Current dimensions of program PWSCF are:
     Max number of different atomic species (ntypx) = 10
     Max number of k-points (npk) =  40000
     Max angular momentum in pseudopotentials (lmaxx) =  3
     Presently stress not available with electric field

     IMPORTANT: XC functional enforced from input :
     Exchange-correlation      = BEEF-VDW ( 1  4 27 13 2)
     Any further DFT definition will be discarded
     Please, verify this is what you really want

     Subspace diagonalization in iterative solution of the eigenvalue problem:
     a serial algorithm will be used

     Found symmetry operation: I + (  0.5000 -0.5000  0.0000)
     This is a supercell, fractional translations are disabled

     bravais-lattice index     =            0
     lattice parameter (alat)  =       1.8897  a.u.
     unit-cell volume          =    4895.4056 (a.u.)^3
     number of atoms/cell      =           12
     number of atomic types    =            2
     number of electrons       =       162.00
     number of Kohn-Sham states=          111
     kinetic-energy cutoff     =      36.7493  Ry
     charge density cutoff     =     367.4932  Ry
     convergence threshold     =      1.0E-06
     mixing beta               =       0.1000
     number of iterations used =           10  plain     mixing
     Exchange-correlation      = BEEF-VDW ( 1  4 27 13 2)
     nstep                     =           50

     celldm(1)=   1.889726  celldm(2)=   0.000000  celldm(3)=   0.000000
     celldm(4)=   0.000000  celldm(5)=   0.000000  celldm(6)=   0.000000

     crystal axes: (cart. coord. in units of alat)
               a(1) = (   5.817584   0.000000   0.000000 )
               a(2) = (   2.908788   5.038178   0.000000 )
               a(3) = (   0.000000   0.000000  24.750039 )

     reciprocal axes: (cart. coord. in units 2 pi/alat)
               b(1) = (  0.171893 -0.099242  0.000000 )
               b(2) = (  0.000000  0.198484  0.000000 )
               b(3) = (  0.000000  0.000000  0.040404 )

     PseudoPot. # 1 for Cd read from file:
     /afs/slac.stanford.edu/u/if/mamunm/psp/gbrv1.5pbe/Cd.UPF
     MD5 check sum: 17164a7926edb8e0dc231208abae86a6
     Pseudo is Ultrasoft + core correction, Zval = 12.0
     Generated by new atomic code, or converted to UPF format
     Using radial grid of  889 points,  6 beta functions with:
                l(1) =   0
                l(2) =   0
                l(3) =   1
                l(4) =   1
                l(5) =   2
                l(6) =   2
     Q(r) pseudized with  6 coefficients,  rinner =    1.000   1.000   1.000
                                                       1.000   1.000

     PseudoPot. # 2 for Ir read from file:
     /afs/slac.stanford.edu/u/if/mamunm/psp/gbrv1.5pbe/Ir.UPF
     MD5 check sum: 8836f839c3459d2b385c504ce6d91f2c
     Pseudo is Ultrasoft + core correction, Zval = 15.0
     Generated by new atomic code, or converted to UPF format
     Using radial grid of  983 points,  7 beta functions with:
                l(1) =   0
                l(2) =   0
                l(3) =   1
                l(4) =   1
                l(5) =   1
                l(6) =   2
                l(7) =   2
     Q(r) pseudized with  8 coefficients,  rinner =    1.400   1.400   1.400
                                                       1.400   1.400

     vdW kernel table read from file vdW_kernel_table
     MD5 check sum: 095c7af220d748ca6e76c0b4c6cfb241

     atomic species   valence    mass     pseudopotential
        Cd1           12.00   112.41400     Cd( 1.00)
        Ir1           15.00   192.21700     Ir( 1.00)

     No symmetry found

   Cartesian axes

     site n.     atom                  positions (alat units)
         1           Cd1 tau(   1) = (   0.0000000   0.0000000  10.0000000  )
         2           Cd1 tau(   2) = (   4.3631858   2.5190891  10.0000000  )
         3           Ir1 tau(   3) = (   2.9087920   0.0000000  10.0000000  )
         4           Ir1 tau(   4) = (   1.4543938   2.5190891  10.0000000  )
         5           Cd1 tau(   5) = (   5.8175841   3.3587872  12.3750194  )
         6           Cd1 tau(   6) = (   1.4543983   0.8396981  12.3750194  )
         7           Ir1 tau(   7) = (   2.9087920   3.3587872  12.3750194  )
         8           Ir1 tau(   8) = (   4.3631903   0.8396981  12.3750194  )
         9           Cd1 tau(   9) = (   2.9087966   1.6793962  14.7500388  )
        10           Cd1 tau(  10) = (   7.2719824   4.1984853  14.7500388  )
        11           Ir1 tau(  11) = (   5.8175886   1.6793962  14.7500388  )
        12           Ir1 tau(  12) = (   4.3631903   4.1984853  14.7500388  )

     number of k points=    20  Fermi-Dirac smearing, width (Ry)=  0.0110
                       cart. coord. in units 2pi/alat
        k(    1) = (   0.0000000   0.0000000   0.0000000), wk =   0.0555556
        k(    2) = (   0.0000000   0.0330807   0.0000000), wk =   0.1111111
        k(    3) = (   0.0000000   0.0661615   0.0000000), wk =   0.1111111
        k(    4) = (   0.0000000  -0.0992422   0.0000000), wk =   0.0555556
        k(    5) = (   0.0286488  -0.0165403   0.0000000), wk =   0.1111111
        k(    6) = (   0.0286488   0.0165404   0.0000000), wk =   0.1111111
        k(    7) = (   0.0286488   0.0496211   0.0000000), wk =   0.1111111
        k(    8) = (   0.0286488  -0.1157826   0.0000000), wk =   0.1111111
        k(    9) = (   0.0286488  -0.0827018   0.0000000), wk =   0.1111111
        k(   10) = (   0.0286488  -0.0496211   0.0000000), wk =   0.1111111
        k(   11) = (   0.0572976  -0.0330807   0.0000000), wk =   0.1111111
        k(   12) = (   0.0572976   0.0000001   0.0000000), wk =   0.1111111
        k(   13) = (   0.0572976   0.0330808   0.0000000), wk =   0.1111111
        k(   14) = (   0.0572976  -0.1323229   0.0000000), wk =   0.1111111
        k(   15) = (   0.0572976  -0.0992422   0.0000000), wk =   0.1111111
        k(   16) = (   0.0572976  -0.0661614   0.0000000), wk =   0.1111111
        k(   17) = (  -0.0859463   0.0496210   0.0000000), wk =   0.0555556
        k(   18) = (  -0.0859463   0.0827018   0.0000000), wk =   0.1111111
        k(   19) = (  -0.0859463   0.1157825   0.0000000), wk =   0.1111111
        k(   20) = (  -0.0859463  -0.0496212   0.0000000), wk =   0.0555556

     Largest allocated arrays     est. size (Mb)     dimensions
     Largest temporary arrays     est. size (Mb)     dimensions

     Initial potential from superposition of free atoms
     Check: negative starting charge=   -2.314983

     starting charge  155.99956, renormalised to  162.00000

     negative rho (up, down):  2.404E+00 0.000E+00

     *
     * You are using vdW-DF for exchange-correlation in this calculation.
     * Please cite the following three references that made this development
     * possible:
     *
     *   M. Dion, H. Rydberg, E. Schroder, D. C. Langreth, and
     *   B. I. Lundqvist, Phys. Rev. Lett. 92, 246401 (2004).
     *
     *   T. Thonhauser, V. R. Cooper, S. Li, A. Puzder, P. Hyldgaard, and
     *   D. C. Langreth, Phys. Rev. B 76, 125112 (2007).
     *
     *   G. Roman-Perez and J. M. Soler, Phys. Rev. Lett. 103, 096102 (2009).
     *
     *
     * If you are using vdW-DF2, please also cite:
     *
     *   K. Lee, E. D. Murray, L. Kong, B. I. Lundqvist, and
     *   D. C. Langreth, Phys. Rev. B 82, 081101(R) (2010).
     *
     *
     * If you are calculating the stress with vdW-DF, please also cite:
     *
     *   R. Sabatini, E. Kucukbenli, B. Kolb, T. Thonhauser, and
     *   S. de Gironcoli, J. Phys.: Condens. Matter 24, 424209 (2012).
     *

     Carrying out vdW-DF run using the following parameters:

     Nqs =      20    Nr_points =    1024   r_max =   100.000
     q_mesh =
               0.00001000     0.04494208     0.09755937     0.15916263
               0.23128650     0.31572767     0.41458969     0.53033537
               0.66584808     0.82450364     1.01025438     1.22772762
               1.48234092     1.78043706     2.12944203     2.53805004
               3.01644009     3.57652955     4.23227104     5.00000000

     Gradients computed in reciprocal space

     Adding external electric field

     Computed dipole along edir(3) :
        Dipole               -0.0000 Ry au,         -0.0000 Debye
        Dipole field         -0.0000 Ry au

        Potential amp.        0.0000 Ry
        Total length         45.6015 bohr

     Starting wfc are  126 randomized atomic wfcs

     Self-consistent Calculation

     iteration #  1     ecut=    36.75 Ry     beta=0.10
     Davidson diagonalization with overlap
     ethr =  1.00E-02,  avg # of iterations =  7.5

[...]

     total energy              =   -1796.35350579 Ry
     Harris-Foulkes estimate   =   -1798.53507570 Ry
     estimated scf accuracy    <      13.30614396 Ry

[...]

     End of self-consistent calculation

          k = 0.0000 0.0000 0.0000 ( 18487 PWs)   bands (ev):

   -47.3251 -47.3069 -47.3036 -47.2316 -47.2309 -47.1097 -47.0638 -47.0611
   -47.0462 -47.0456 -47.0430 -47.0395 -47.0389 -47.0282 -46.9053 -46.9040
   -46.8872 -46.8861  -8.1563  -8.1022  -7.9938  -7.9315  -7.9133  -7.8549
    -7.7918  -7.7733  -7.7216  -7.6665  -7.6287  -7.5837  -7.4578  -7.3381
    -7.2860  -7.2852  -7.2043  -7.1636  -7.1625  -7.1587  -7.0349  -6.9828
    -6.9770  -6.9620  -6.9374  -6.9101  -6.8768  -6.8697  -6.7735  -6.7676
    -6.4189  -5.0787  -3.2498  -2.7614  -2.3935  -2.2101  -2.0354  -2.0302
    -2.0044  -1.5682  -1.5499  -1.3465  -1.0085  -0.8975  -0.7407  -0.6169
    -0.4050  -0.3165  -0.2343   0.0743   0.1628   0.4600   0.5354   0.6179
     0.6279   0.8940   0.9317   0.9835   1.0251   1.0504   1.1238   1.2026
     1.2275   1.5004   1.5840   1.6931   1.8871   2.5542   2.6056   2.6755
     2.7270   3.2556   3.2580   5.0632   5.1708   5.2294   5.3751   5.3961
     5.4985   5.5773   5.7595   5.9988   6.4889   6.5545   6.6928   6.7201
     7.3392   8.9014   8.9698   8.9881   9.1307   9.2156   9.5858

[...]

          k =-0.0859 0.0496 0.0000 ( 18380 PWs)   bands (ev):

[...]

     the Fermi energy is     1.1409 ev

!    total energy              =   -1796.16135508 Ry
     Harris-Foulkes estimate   =   -1796.16135909 Ry
     estimated scf accuracy    <       0.00000056 Ry

     The total energy is the sum of the following terms:

     one-electron contribution =  -13031.02625520 Ry
     hartree contribution      =    6579.63706128 Ry
     xc contribution           =    -556.82434704 Ry
     ewald contribution        =    5212.12000828 Ry
     electric field correction =       0.00000000 Ry
     smearing contrib. (-TS)   =      -0.06782240 Ry

     convergence has been achieved in  17 iterations

 BEEF-vdW xc energy contributions
           1 :   -490.934106914960
           2 :    453.287255455771
           3 :   -387.775281637376
           4 :    309.981996907152
           5 :   -235.581278267461
           6 :    175.456853015855
           7 :   -133.423191779107
           8 :    106.982195650292
           9 :   -90.2319593421194
          10 :    77.2680667035463
          11 :   -64.5324996419806
[...]
00030 suncat0192 pw.x -in pw.inp   Done                     12/18/2018 19:17:06
00031 suncat0192 pw.x -in pw.inp   Done                     12/18/2018 19:17:06

     Program PWSCF v.5.1rc2 (svn rev. 11289) starts on 18Dec2018 at 19:17:13

[...]

   This run was terminated on:  19:30:50  18Dec2018

[...]

     Program PWSCF v.5.1rc2 (svn rev. 11289) starts on 18Dec2018 at 20:12: 5

[...]

   This run was terminated on:  20:52:41  18Dec2018

[...]

     Program PWSCF v.5.1rc2 (svn rev. 11289) starts on 18Dec2018 at 20:52:48

     Current dimensions of program PWSCF are:
     Max number of different atomic species (ntypx) = 10
     Max number of k-points (npk) =  40000
     Max angular momentum in pseudopotentials (lmaxx) =  3
     Presently stress not available with electric field

     IMPORTANT: XC functional enforced from input :
     Exchange-correlation      = BEEF-VDW ( 1  4 27 13 2)
     Any further DFT definition will be discarded
     Please, verify this is what you really want

     Subspace diagonalization in iterative solution of the eigenvalue problem:
     a serial algorithm will be used

     Found symmetry operation: I + (  0.5000 -0.5000  0.0000)
     This is a supercell, fractional translations are disabled

     bravais-lattice index     =            0
     lattice parameter (alat)  =       1.8897  a.u.
     unit-cell volume          =    4895.4056 (a.u.)^3
     number of atoms/cell      =           12
     number of atomic types    =            2
     number of electrons       =       162.00
     number of Kohn-Sham states=          111
     kinetic-energy cutoff     =      36.7493  Ry
     charge density cutoff     =     367.4932  Ry
     convergence threshold     =      1.0E-06
     mixing beta               =       0.1000
     number of iterations used =           10  plain     mixing
     Exchange-correlation      = BEEF-VDW ( 1  4 27 13 2)
     nstep                     =           50

     celldm(1)=   1.889726  celldm(2)=   0.000000  celldm(3)=   0.000000
     celldm(4)=   0.000000  celldm(5)=   0.000000  celldm(6)=   0.000000

     crystal axes: (cart. coord. in units of alat)
               a(1) = (   5.817584   0.000000   0.000000 )
               a(2) = (   2.908788   5.038178   0.000000 )
               a(3) = (   0.000000   0.000000  24.750039 )

     reciprocal axes: (cart. coord. in units 2 pi/alat)
               b(1) = (  0.171893 -0.099242  0.000000 )
               b(2) = (  0.000000  0.198484  0.000000 )
               b(3) = (  0.000000  0.000000  0.040404 )

     PseudoPot. # 1 for Cd read from file:
     /afs/slac.stanford.edu/u/if/mamunm/psp/gbrv1.5pbe/Cd.UPF
     MD5 check sum: 17164a7926edb8e0dc231208abae86a6
     Pseudo is Ultrasoft + core correction, Zval = 12.0
     Generated by new atomic code, or converted to UPF format
     Using radial grid of  889 points,  6 beta functions with:
                l(1) =   0
                l(2) =   0
                l(3) =   1
                l(4) =   1
                l(5) =   2
                l(6) =   2
     Q(r) pseudized with  6 coefficients,  rinner =    1.000   1.000   1.000
                                                       1.000   1.000

     PseudoPot. # 2 for Ir read from file:
     /afs/slac.stanford.edu/u/if/mamunm/psp/gbrv1.5pbe/Ir.UPF
     MD5 check sum: 8836f839c3459d2b385c504ce6d91f2c
     Pseudo is Ultrasoft + core correction, Zval = 15.0
     Generated by new atomic code, or converted to UPF format
     Using radial grid of  983 points,  7 beta functions with:
                l(1) =   0
                l(2) =   0
                l(3) =   1
                l(4) =   1
                l(5) =   1
                l(6) =   2
                l(7) =   2
     Q(r) pseudized with  8 coefficients,  rinner =    1.400   1.400   1.400
                                                       1.400   1.400

     vdW kernel table read from file vdW_kernel_table
     MD5 check sum: 095c7af220d748ca6e76c0b4c6cfb241

     atomic species   valence    mass     pseudopotential
        Cd1           12.00   112.41400     Cd( 1.00)
        Ir1           15.00   192.21700     Ir( 1.00)

     No symmetry found

   Cartesian axes

     site n.     atom                  positions (alat units)
         1           Cd1 tau(   1) = (   0.0000000   0.0000000  10.0000000  )
         2           Cd1 tau(   2) = (   4.3631858   2.5190891  10.0000000  )
         3           Ir1 tau(   3) = (   2.9087920   0.0000000  10.0000000  )
         4           Ir1 tau(   4) = (   1.4543938   2.5190891  10.0000000  )
         5           Cd1 tau(   5) = (   5.8175841   3.3587872  12.3750194  )
         6           Cd1 tau(   6) = (   1.4543983   0.8396981  12.3750194  )
         7           Ir1 tau(   7) = (   2.9087920   3.3587872  12.3750194  )
         8           Ir1 tau(   8) = (   4.3631903   0.8396981  12.3750194  )
         9           Cd1 tau(   9) = (   2.6195840   1.5124386  15.0610264  )
        10           Cd1 tau(  10) = (   6.9827828   4.0315207  15.0610341  )
        11           Ir1 tau(  11) = (   5.4709635   1.4792585  14.5542263  )
        12           Ir1 tau(  12) = (   4.0165511   3.9983795  14.5542142  )

     number of k points=    20  Fermi-Dirac smearing, width (Ry)=  0.0110
                       cart. coord. in units 2pi/alat
        k(    1) = (   0.0000000   0.0000000   0.0000000), wk =   0.0555556
        k(    2) = (   0.0000000   0.0330807   0.0000000), wk =   0.1111111
        k(    3) = (   0.0000000   0.0661615   0.0000000), wk =   0.1111111
        k(    4) = (   0.0000000  -0.0992422   0.0000000), wk =   0.0555556
        k(    5) = (   0.0286488  -0.0165403   0.0000000), wk =   0.1111111
        k(    6) = (   0.0286488   0.0165404   0.0000000), wk =   0.1111111
        k(    7) = (   0.0286488   0.0496211   0.0000000), wk =   0.1111111
        k(    8) = (   0.0286488  -0.1157826   0.0000000), wk =   0.1111111
        k(    9) = (   0.0286488  -0.0827018   0.0000000), wk =   0.1111111
        k(   10) = (   0.0286488  -0.0496211   0.0000000), wk =   0.1111111
        k(   11) = (   0.0572976  -0.0330807   0.0000000), wk =   0.1111111
        k(   12) = (   0.0572976   0.0000001   0.0000000), wk =   0.1111111
        k(   13) = (   0.0572976   0.0330808   0.0000000), wk =   0.1111111
        k(   14) = (   0.0572976  -0.1323229   0.0000000), wk =   0.1111111
        k(   15) = (   0.0572976  -0.0992422   0.0000000), wk =   0.1111111
        k(   16) = (   0.0572976  -0.0661614   0.0000000), wk =   0.1111111
        k(   17) = (  -0.0859463   0.0496210   0.0000000), wk =   0.0555556
        k(   18) = (  -0.0859463   0.0827018   0.0000000), wk =   0.1111111
        k(   19) = (  -0.0859463   0.1157825   0.0000000), wk =   0.1111111
        k(   20) = (  -0.0859463  -0.0496212   0.0000000), wk =   0.0555556

     Largest allocated arrays     est. size (Mb)     dimensions
     Largest temporary arrays     est. size (Mb)     dimensions

     Initial potential from superposition of free atoms
     Check: negative starting charge=   -2.318935

     starting charge  155.99956, renormalised to  162.00000

[...]

     *
     * You are using vdW-DF for exchange-correlation in this calculation.
     * Please cite the following three references that made this development
     * possible:
     *
     *   M. Dion, H. Rydberg, E. Schroder, D. C. Langreth, and
     *   B. I. Lundqvist, Phys. Rev. Lett. 92, 246401 (2004).
     *
     *   T. Thonhauser, V. R. Cooper, S. Li, A. Puzder, P. Hyldgaard, and
     *   D. C. Langreth, Phys. Rev. B 76, 125112 (2007).
     *
     *   G. Roman-Perez and J. M. Soler, Phys. Rev. Lett. 103, 096102 (2009).
     *
     *
     * If you are using vdW-DF2, please also cite:
     *
     *   K. Lee, E. D. Murray, L. Kong, B. I. Lundqvist, and
     *   D. C. Langreth, Phys. Rev. B 82, 081101(R) (2010).
     *
     *
     * If you are calculating the stress with vdW-DF, please also cite:
     *
     *   R. Sabatini, E. Kucukbenli, B. Kolb, T. Thonhauser, and
     *   S. de Gironcoli, J. Phys.: Condens. Matter 24, 424209 (2012).
     *

     Carrying out vdW-DF run using the following parameters:

     Nqs =      20    Nr_points =    1024   r_max =   100.000
     q_mesh =
               0.00001000     0.04494208     0.09755937     0.15916263
               0.23128650     0.31572767     0.41458969     0.53033537
               0.66584808     0.82450364     1.01025438     1.22772762
               1.48234092     1.78043706     2.12944203     2.53805004
               3.01644009     3.57652955     4.23227104     5.00000000

     Gradients computed in reciprocal space

[...]

     Starting wfc are  126 randomized atomic wfcs

     Self-consistent Calculation

[...]

     total energy              =   -1796.20130079 Ry
     Harris-Foulkes estimate   =   -1796.20129579 Ry
     estimated scf accuracy    <       0.00000914 Ry

     iteration # 17     ecut=    36.75 Ry     beta=0.10
     Davidson diagonalization with overlap
     ethr =  5.64E-09,  avg # of iterations =  3.8

[...]

     negative rho (up, down):  2.123E+00 0.000E+00

     Adding external electric field

     Computed dipole along edir(3) :
        Dipole                0.1196 Ry au,          0.3040 Debye
        Dipole field          0.0003 Ry au

        Potential amp.       -0.0280 Ry
        Total length         45.6015 bohr

     End of self-consistent calculation

[...]

          k = 0.0573-0.0662 0.0000 ( 18404 PWs)   bands (ev):

[...]

          k =-0.0859-0.0496 0.0000 ( 18380 PWs)   bands (ev):

   -47.6360 -47.6165 -47.3522 -47.2677 -47.1880 -47.1723 -47.1587 -47.0782
   -47.0767 -47.0578 -47.0193 -47.0050 -46.9873 -46.8358 -46.8269 -46.8178
   -46.7142 -46.6961  -8.0155  -7.8688  -7.8231  -7.7985  -7.6368  -7.5335
    -7.5285  -7.5074  -7.4787  -7.4768  -7.4491  -7.3650  -7.2316  -7.2280
    -7.1732  -7.0874  -7.0672  -7.0139  -7.0026  -6.9522  -6.9030  -6.8766
    -6.8580  -6.8253  -6.8008  -6.7850  -6.7527  -6.6789  -6.6315  -6.3473
    -5.1649  -4.8173  -3.7679  -3.0792  -3.0764  -2.9224  -2.4596  -2.3947
    -2.1326  -1.9840  -1.9072  -1.7731  -1.5833  -1.5754  -1.5700  -1.5206
    -1.2823  -1.1030  -0.9057  -0.6156  -0.2384  -0.1940  -0.1267   0.0879
     0.1278   0.4477   0.6589   0.7552   1.0029   1.0183   1.1258   1.1434
     1.3128   1.4311   1.7973   2.0350   2.3327   2.4538   3.7184   3.7301
     3.8903   4.2851   4.6412   4.7184   6.1112   6.3106   6.8065   6.8685
     6.9308   7.0570   7.0918   7.1216   7.1467   7.3487   7.6232   7.6812
     8.1220   8.1919   8.2694   8.4285   8.6139   8.6881   8.6992

     the Fermi energy is     1.3180 ev

!    total energy              =   -1796.20130065 Ry
     Harris-Foulkes estimate   =   -1796.20129909 Ry
     estimated scf accuracy    <       0.00000100 Ry

     The total energy is the sum of the following terms:

     one-electron contribution =  -12963.35515139 Ry
     hartree contribution      =    6545.99427925 Ry
     xc contribution           =    -556.79894029 Ry
     ewald contribution        =    5178.02834131 Ry
     electric field correction =       0.00003672 Ry
     smearing contrib. (-TS)   =      -0.06986626 Ry

     convergence has been achieved in  17 iterations

 BEEF-vdW xc energy contributions
           1 :   -490.916139614637
           2 :    453.259155800602
           3 :   -387.739044203043
           4 :    309.949116760655
           5 :   -235.548698700255
           6 :    175.384277499429
           7 :   -133.243817338105
           8 :    106.651164473853
           9 :   -89.7797152623642
          10 :    76.8135873436830
          11 :   -64.2348437682236
          12 :    51.3410192197860
          13 :   -39.2985176239877
          14 :    29.6473590784140
          15 :   -23.1762117947513
          16 :    19.6097476166576
          17 :   -17.9882115409064
          18 :    17.2871894015668
          19 :   -16.8482518908161
          20 :    16.4420440103988
          21 :   -16.0671092602038
          22 :    15.7158713231422
          23 :   -15.2888309635634
          24 :    14.6796773509816
          25 :   -13.9186153253636
          26 :    13.2247988170220
          27 :   -12.9008080603668
          28 :    13.1290705040985
          29 :   -13.8140898225349
          30 :    14.5909221403748
          31 :   -42.9276527810193
          32 :   -31.7442123617325

     Forces acting on atoms (Ry/au):

     negative rho (up, down):  2.123E+00 0.000E+00
     atom    1 type  1   force =    -0.00587054   -0.00339674   -0.02543394
     atom    2 type  1   force =    -0.00587831   -0.00339052   -0.02543448
     atom    3 type  2   force =     0.01464212    0.00845350    0.02872666
     atom    4 type  2   force =     0.01464513    0.00845592    0.02872641
     atom    5 type  1   force =     0.01300612    0.00750943   -0.00179471
     atom    6 type  1   force =     0.01300578    0.00751096   -0.00179352
     atom    7 type  2   force =    -0.02115174   -0.01221158   -0.00159542
     atom    8 type  2   force =    -0.02115024   -0.01221122   -0.00159787
     atom    9 type  1   force =    -0.00026165   -0.00015135   -0.00125249
     atom   10 type  1   force =    -0.00026641   -0.00015332   -0.00125270
     atom   11 type  2   force =    -0.00036029   -0.00020452    0.00135090
     atom   12 type  2   force =    -0.00035997   -0.00021055    0.00135116

     Total force =     0.072602     Total SCF correction =     0.004155

     entering subroutine stress ...

     negative rho (up, down):  2.123E+00 0.000E+00
          total   stress  (Ry/bohr**3)                   (kbar)     P=  -18.99
  -0.00017085   0.00000135  -0.00001764        -25.13      0.20     -2.59
   0.00000135  -0.00017241  -0.00001019          0.20    -25.36     -1.50
  -0.00001764  -0.00001019  -0.00004400         -2.59     -1.50     -6.47

 !ASE

     Writing output data file calc.save

     General routines

     Parallel routines

   This run was terminated on:  21: 6: 5  18Dec2018

   JOB DONE.
Job  /afs/slac/g/suncat/bin/suncat-tsmpirun -x LD_LIBRARY_PATH -wdir /scratch/qe529646_1uh5d pw.x -in pw.inp

TID   HOST_NAME   COMMAND_LINE            STATUS            TERMINATION_TIME
00000 suncat0195 pw.x -in pw.inp   Done                     12/18/2018 21:06:05
00001 suncat0195 pw.x -in pw.inp   Done                     12/18/2018 21:06:05
00002 suncat0195 pw.x -in pw.inp   Done                     12/18/2018 21:06:05
00003 suncat0195 pw.x -in pw.inp   Done                     12/18/2018 21:06:05
00004 suncat0195 pw.x -in pw.inp   Done                     12/18/2018 21:06:05
00005 suncat0195 pw.x -in pw.inp   Done                     12/18/2018 21:06:05
00006 suncat0195 pw.x -in pw.inp   Done                     12/18/2018 21:06:05
00007 suncat0195 pw.x -in pw.inp   Done                     12/18/2018 21:06:05
00008 suncat0194 pw.x -in pw.inp   Done                     12/18/2018 21:06:05
00009 suncat0194 pw.x -in pw.inp   Done                     12/18/2018 21:06:05
00010 suncat0194 pw.x -in pw.inp   Done                     12/18/2018 21:06:05
00011 suncat0194 pw.x -in pw.inp   Done                     12/18/2018 21:06:05
00012 suncat0194 pw.x -in pw.inp   Done                     12/18/2018 21:06:05
00013 suncat0194 pw.x -in pw.inp   Done                     12/18/2018 21:06:05
00014 suncat0194 pw.x -in pw.inp   Done                     12/18/2018 21:06:05
00015 suncat0194 pw.x -in pw.inp   Done                     12/18/2018 21:06:05
00016 suncat0193 pw.x -in pw.inp   Done                     12/18/2018 21:06:05
00017 suncat0193 pw.x -in pw.inp   Done                     12/18/2018 21:06:05
00018 suncat0193 pw.x -in pw.inp   Done                     12/18/2018 21:06:05
00019 suncat0193 pw.x -in pw.inp   Done                     12/18/2018 21:06:05
00020 suncat0193 pw.x -in pw.inp   Done                     12/18/2018 21:06:05
00021 suncat0193 pw.x -in pw.inp   Done                     12/18/2018 21:06:05
00022 suncat0193 pw.x -in pw.inp   Done                     12/18/2018 21:06:05
00023 suncat0193 pw.x -in pw.inp   Done                     12/18/2018 21:06:05
00024 suncat0192 pw.x -in pw.inp   Done                     12/18/2018 21:06:05
00025 suncat0192 pw.x -in pw.inp   Done                     12/18/2018 21:06:05
00026 suncat0192 pw.x -in pw.inp   Done                     12/18/2018 21:06:05
00027 suncat0192 pw.x -in pw.inp   Done                     12/18/2018 21:06:05
00028 suncat0192 pw.x -in pw.inp   Done                     12/18/2018 21:06:05
00029 suncat0192 pw.x -in pw.inp   Done                     12/18/2018 21:06:05
00030 suncat0192 pw.x -in pw.inp   Done                     12/18/2018 21:06:05
00031 suncat0192 pw.x -in pw.inp   Done                     12/18/2018 21:06:05