     Program PWSCF v.5.1rc2 (svn rev. 11289) starts on 19Dec2018 at  4:15: 7

     Current dimensions of program PWSCF are:
     Max number of different atomic species (ntypx) = 10
     Max number of k-points (npk) =  40000
     Max angular momentum in pseudopotentials (lmaxx) =  3
     Presently stress not available with electric field

     IMPORTANT: XC functional enforced from input :
     Exchange-correlation      = BEEF-VDW ( 1  4 27 13 2)
     Any further DFT definition will be discarded
     Please, verify this is what you really want

     Subspace diagonalization in iterative solution of the eigenvalue problem:
     a serial algorithm will be used

     Found symmetry operation: I + (  0.5000 -0.5000  0.0000)
     This is a supercell, fractional translations are disabled

     bravais-lattice index     =            0
     lattice parameter (alat)  =       1.8897  a.u.
     unit-cell volume          =    4658.1278 (a.u.)^3
     number of atoms/cell      =           12
     number of atomic types    =            2
     number of electrons       =       174.00
     number of Kohn-Sham states=          117
     kinetic-energy cutoff     =      36.7493  Ry
     charge density cutoff     =     367.4932  Ry
     convergence threshold     =      1.0E-06
     mixing beta               =       0.1000
     number of iterations used =           10  plain     mixing
     Exchange-correlation      = BEEF-VDW ( 1  4 27 13 2)
     nstep                     =           50

     celldm(1)=   1.889726  celldm(2)=   0.000000  celldm(3)=   0.000000
     celldm(4)=   0.000000  celldm(5)=   0.000000  celldm(6)=   0.000000

     crystal axes: (cart. coord. in units of alat)
               a(1) = (   5.518912   0.000000   0.000000 )
               a(2) = (   2.129220   5.091641   0.000000 )
               a(3) = (   0.000000   0.000000  24.564250 )

     reciprocal axes: (cart. coord. in units 2 pi/alat)
               b(1) = (  0.181195 -0.075772  0.000000 )
               b(2) = (  0.000000  0.196400  0.000000 )
               b(3) = (  0.000000  0.000000  0.040710 )

     PseudoPot. # 1 for Ru read from file:
     /afs/slac.stanford.edu/u/if/mamunm/psp/gbrv1.5pbe/Ru.UPF
     MD5 check sum: 7158a806dd851261a58e6920c40ebe78
     Pseudo is Ultrasoft + core correction, Zval = 16.0
     Generated by new atomic code, or converted to UPF format
     Using radial grid of  967 points,  6 beta functions with:
                l(1) =   0
                l(2) =   0
                l(3) =   1
                l(4) =   1
                l(5) =   2
                l(6) =   2
     Q(r) pseudized with  8 coefficients,  rinner =    1.300   1.300   1.300
                                                       1.300   1.300

     PseudoPot. # 2 for Ta read from file:
     /afs/slac.stanford.edu/u/if/mamunm/psp/gbrv1.5pbe/Ta.UPF
     MD5 check sum: f8bbe9446314a3b8ea5d9f3e3836c939
     Pseudo is Ultrasoft + core correction, Zval = 13.0
     Generated by new atomic code, or converted to UPF format
     Using radial grid of  921 points,  7 beta functions with:
                l(1) =   0
                l(2) =   0
                l(3) =   1
                l(4) =   1
                l(5) =   2
                l(6) =   2
                l(7) =   3
     Q(r) pseudized with  6 coefficients,  rinner =    1.300   1.300   1.300
                                                       1.300   1.300   1.300
                                                       1.300

     vdW kernel table read from file vdW_kernel_table
     MD5 check sum: 095c7af220d748ca6e76c0b4c6cfb241

     atomic species   valence    mass     pseudopotential
        Ru1           16.00   101.07000     Ru( 1.00)
        Ta1           13.00   180.94788     Ta( 1.00)

     No symmetry found

   Cartesian axes

     site n.     atom                  positions (alat units)
         1           Ru1 tau(   1) = (   0.0000000   0.0000000  10.0000000  )
         2           Ru1 tau(   2) = (   3.8240662   2.5458207  10.0000000  )
         3           Ta1 tau(   3) = (   2.7594561   0.0000000  10.0000000  )
         4           Ta1 tau(   4) = (   1.0646101   2.5458207  10.0000000  )
         5           Ru1 tau(   5) = (   5.5189121   3.6741416  12.2821251  )
         6           Ru1 tau(   6) = (   1.6948459   1.1283209  12.2821251  )
         7           Ta1 tau(   7) = (   2.7594561   3.6741416  12.2821251  )
         8           Ta1 tau(   8) = (   4.4543020   1.1283209  12.2821251  )
         9           Ru1 tau(   9) = (   3.3896918   2.2566418  14.5642502  )
        10           Ru1 tau(  10) = (   7.2137580   4.8024625  14.5642502  )
        11           Ta1 tau(  11) = (   6.1491479   2.2566418  14.5642502  )
        12           Ta1 tau(  12) = (   4.4543020   4.8024625  14.5642502  )

     number of k points=    20  Fermi-Dirac smearing, width (Ry)=  0.0110
                       cart. coord. in units 2pi/alat
        k(    1) = (   0.0000000   0.0000000   0.0000000), wk =   0.0555556
        k(    2) = (   0.0000000   0.0327334   0.0000000), wk =   0.1111111
        k(    3) = (   0.0000000   0.0654668   0.0000000), wk =   0.1111111
        k(    4) = (   0.0000000  -0.0982002   0.0000000), wk =   0.0555556
        k(    5) = (   0.0301992  -0.0126287   0.0000000), wk =   0.1111111
        k(    6) = (   0.0301992   0.0201047   0.0000000), wk =   0.1111111
        k(    7) = (   0.0301992   0.0528381   0.0000000), wk =   0.1111111
        k(    8) = (   0.0301992  -0.1108288   0.0000000), wk =   0.1111111
        k(    9) = (   0.0301992  -0.0780955   0.0000000), wk =   0.1111111
        k(   10) = (   0.0301992  -0.0453621   0.0000000), wk =   0.1111111
        k(   11) = (   0.0603984  -0.0252574   0.0000000), wk =   0.1111111
        k(   12) = (   0.0603984   0.0074760   0.0000000), wk =   0.1111111
        k(   13) = (   0.0603984   0.0402094   0.0000000), wk =   0.1111111
        k(   14) = (   0.0603984  -0.1234575   0.0000000), wk =   0.1111111
        k(   15) = (   0.0603984  -0.0907241   0.0000000), wk =   0.1111111
        k(   16) = (   0.0603984  -0.0579908   0.0000000), wk =   0.1111111
        k(   17) = (  -0.0905976   0.0378860   0.0000000), wk =   0.0555556
        k(   18) = (  -0.0905976   0.0706194   0.0000000), wk =   0.1111111
        k(   19) = (  -0.0905976   0.1033528   0.0000000), wk =   0.1111111
        k(   20) = (  -0.0905976  -0.0603141   0.0000000), wk =   0.0555556

     Largest allocated arrays     est. size (Mb)     dimensions
     Largest temporary arrays     est. size (Mb)     dimensions

     Initial potential from superposition of free atoms
     Check: negative starting charge=   -1.005432

     starting charge  167.99323, renormalised to  174.00000

     negative rho (up, down):  1.041E+00 0.000E+00

     *
     * You are using vdW-DF for exchange-correlation in this calculation.
     * Please cite the following three references that made this development
     * possible:
     *
     *   M. Dion, H. Rydberg, E. Schroder, D. C. Langreth, and
     *   B. I. Lundqvist, Phys. Rev. Lett. 92, 246401 (2004).
     *
     *   T. Thonhauser, V. R. Cooper, S. Li, A. Puzder, P. Hyldgaard, and
     *   D. C. Langreth, Phys. Rev. B 76, 125112 (2007).
     *
     *   G. Roman-Perez and J. M. Soler, Phys. Rev. Lett. 103, 096102 (2009).
     *
     *
     * If you are using vdW-DF2, please also cite:
     *
     *   K. Lee, E. D. Murray, L. Kong, B. I. Lundqvist, and
     *   D. C. Langreth, Phys. Rev. B 82, 081101(R) (2010).
     *
     *
     * If you are calculating the stress with vdW-DF, please also cite:
     *
     *   R. Sabatini, E. Kucukbenli, B. Kolb, T. Thonhauser, and
     *   S. de Gironcoli, J. Phys.: Condens. Matter 24, 424209 (2012).
     *

     Carrying out vdW-DF run using the following parameters:

     Nqs =      20    Nr_points =    1024   r_max =   100.000
     q_mesh =
               0.00001000     0.04494208     0.09755937     0.15916263
               0.23128650     0.31572767     0.41458969     0.53033537
               0.66584808     0.82450364     1.01025438     1.22772762
               1.48234092     1.78043706     2.12944203     2.53805004
               3.01644009     3.57652955     4.23227104     5.00000000

     Gradients computed in reciprocal space

     Adding external electric field

     Computed dipole along edir(3) :
        Dipole                0.0000 Ry au,          0.0000 Debye
        Dipole field          0.0000 Ry au

        Potential amp.       -0.0000 Ry
        Total length         45.2592 bohr

     Starting wfc are  156 randomized atomic wfcs

     Self-consistent Calculation

     iteration #  1     ecut=    36.75 Ry     beta=0.10
     Davidson diagonalization with overlap
     ethr =  1.00E-02,  avg # of iterations =  3.0

[...]

     total energy              =   -2030.87494710 Ry
     Harris-Foulkes estimate   =   -2031.34875354 Ry
     estimated scf accuracy    <       3.35385795 Ry

[...]

     End of self-consistent calculation

          k = 0.0000 0.0000 0.0000 ( 17427 PWs)   bands (ev):

   -70.8396 -70.8277 -70.2517 -70.2515 -70.2401 -70.2400 -66.6881 -66.6879
   -66.6693 -66.6690 -66.6131 -66.5942 -40.9394 -40.8277 -40.8089 -40.7961
   -40.7779 -40.7779 -40.3222 -40.3195 -40.3015 -40.2972 -40.2832 -40.2781
   -40.1719 -40.1667 -40.1535 -40.1530 -40.1238 -40.1231 -33.1582 -33.1327
   -33.1256 -33.1253 -33.0863 -33.0727 -33.0599 -32.9899 -32.9385 -32.9126
   -32.8969 -32.8963 -32.8855 -32.8090 -32.7643 -32.7416 -32.6907 -32.6855
    -5.2614  -3.5231  -3.1635  -2.9870  -2.8529  -2.7415  -2.6873  -2.5198
    -2.3994  -2.2535  -1.8729  -1.7384  -1.5816  -1.5804  -1.5485  -0.7108
    -0.6414  -0.6307  -0.6102  -0.5213  -0.4938  -0.1956   0.1740   0.2293
     0.4000   0.4466   0.7092   1.1525   1.2098   1.3607   1.3861   1.5882
     1.6713   2.0755   2.5832   2.6440   2.7332   2.8556   2.9137   2.9717
     3.1165   3.1331   3.1652   3.4135   3.4502   3.7390   3.8880   3.9609
     3.9772   3.9902   4.0344   4.2092   4.5256   4.7598   4.7765   4.8247
     5.0530   5.1233   5.1786   5.5200   5.7128   5.9278   6.2027   6.5562
     6.5726   6.6599   6.8162   6.8514   6.8723

[...]

          k =-0.0906 0.0379 0.0000 ( 17544 PWs)   bands (ev):

[...]

     the Fermi energy is     2.2893 ev

!    total energy              =   -2030.14945840 Ry
     Harris-Foulkes estimate   =   -2030.14946100 Ry
     estimated scf accuracy    <       0.00000065 Ry

     The total energy is the sum of the following terms:

     one-electron contribution =  -16041.60692035 Ry
     hartree contribution      =    8010.61012534 Ry
     xc contribution           =    -422.44937394 Ry
     ewald contribution        =    6423.36285213 Ry
     electric field correction =       0.00000000 Ry
     smearing contrib. (-TS)   =      -0.06614159 Ry

     convergence has been achieved in  16 iterations

 BEEF-vdW xc energy contributions
           1 :   -369.926224812278
           2 :    340.892705916408
           3 :   -290.296281791550
           4 :    230.096879720794
           5 :   -172.427572750978
           6 :    125.854190150900
           7 :   -93.5457641892399
           8 :    73.7380063499284
[...]
00031 suncat2070 pw.x -in pw.inp   Done                     12/19/2018 04:28:14

     Program PWSCF v.5.1rc2 (svn rev. 11289) starts on 19Dec2018 at  4:28:21

[...]

   This run was terminated on:   5:10: 3  19Dec2018

[...]

     Program PWSCF v.5.1rc2 (svn rev. 11289) starts on 19Dec2018 at  5:10: 9

[...]

   This run was terminated on:   5:24: 7  19Dec2018

[...]

     Program PWSCF v.5.1rc2 (svn rev. 11289) starts on 19Dec2018 at  5:38:21

     Current dimensions of program PWSCF are:
     Max number of different atomic species (ntypx) = 10
     Max number of k-points (npk) =  40000
     Max angular momentum in pseudopotentials (lmaxx) =  3
     Presently stress not available with electric field

     IMPORTANT: XC functional enforced from input :
     Exchange-correlation      = BEEF-VDW ( 1  4 27 13 2)
     Any further DFT definition will be discarded
     Please, verify this is what you really want

     Subspace diagonalization in iterative solution of the eigenvalue problem:
     a serial algorithm will be used

     Found symmetry operation: I + (  0.5000 -0.5000  0.0000)
     This is a supercell, fractional translations are disabled

     bravais-lattice index     =            0
     lattice parameter (alat)  =       1.8897  a.u.
     unit-cell volume          =    4658.1278 (a.u.)^3
     number of atoms/cell      =           12
     number of atomic types    =            2
     number of electrons       =       174.00
     number of Kohn-Sham states=          117
     kinetic-energy cutoff     =      36.7493  Ry
     charge density cutoff     =     367.4932  Ry
     convergence threshold     =      1.0E-06
     mixing beta               =       0.1000
     number of iterations used =           10  plain     mixing
     Exchange-correlation      = BEEF-VDW ( 1  4 27 13 2)
     nstep                     =           50

     celldm(1)=   1.889726  celldm(2)=   0.000000  celldm(3)=   0.000000
     celldm(4)=   0.000000  celldm(5)=   0.000000  celldm(6)=   0.000000

     crystal axes: (cart. coord. in units of alat)
               a(1) = (   5.518912   0.000000   0.000000 )
               a(2) = (   2.129220   5.091641   0.000000 )
               a(3) = (   0.000000   0.000000  24.564250 )

     reciprocal axes: (cart. coord. in units 2 pi/alat)
               b(1) = (  0.181195 -0.075772  0.000000 )
               b(2) = (  0.000000  0.196400  0.000000 )
               b(3) = (  0.000000  0.000000  0.040710 )

     PseudoPot. # 1 for Ru read from file:
     /afs/slac.stanford.edu/u/if/mamunm/psp/gbrv1.5pbe/Ru.UPF
     MD5 check sum: 7158a806dd851261a58e6920c40ebe78
     Pseudo is Ultrasoft + core correction, Zval = 16.0
     Generated by new atomic code, or converted to UPF format
     Using radial grid of  967 points,  6 beta functions with:
                l(1) =   0
                l(2) =   0
                l(3) =   1
                l(4) =   1
                l(5) =   2
                l(6) =   2
     Q(r) pseudized with  8 coefficients,  rinner =    1.300   1.300   1.300
                                                       1.300   1.300

     PseudoPot. # 2 for Ta read from file:
     /afs/slac.stanford.edu/u/if/mamunm/psp/gbrv1.5pbe/Ta.UPF
     MD5 check sum: f8bbe9446314a3b8ea5d9f3e3836c939
     Pseudo is Ultrasoft + core correction, Zval = 13.0
     Generated by new atomic code, or converted to UPF format
     Using radial grid of  921 points,  7 beta functions with:
                l(1) =   0
                l(2) =   0
                l(3) =   1
                l(4) =   1
                l(5) =   2
                l(6) =   2
                l(7) =   3
     Q(r) pseudized with  6 coefficients,  rinner =    1.300   1.300   1.300
                                                       1.300   1.300   1.300
                                                       1.300

     vdW kernel table read from file vdW_kernel_table
     MD5 check sum: 095c7af220d748ca6e76c0b4c6cfb241

     atomic species   valence    mass     pseudopotential
        Ru1           16.00   101.07000     Ru( 1.00)
        Ta1           13.00   180.94788     Ta( 1.00)

     No symmetry found

   Cartesian axes

     site n.     atom                  positions (alat units)
         1           Ru1 tau(   1) = (   0.0000000   0.0000000  10.0000000  )
         2           Ru1 tau(   2) = (   3.8240662   2.5458207  10.0000000  )
         3           Ta1 tau(   3) = (   2.7594561   0.0000000  10.0000000  )
         4           Ta1 tau(   4) = (   1.0646101   2.5458207  10.0000000  )
         5           Ru1 tau(   5) = (   5.5189121   3.6741416  12.2821251  )
         6           Ru1 tau(   6) = (   1.6948459   1.1283209  12.2821251  )
         7           Ta1 tau(   7) = (   2.7594561   3.6741416  12.2821251  )
         8           Ta1 tau(   8) = (   4.4543020   1.1283209  12.2821251  )
         9           Ru1 tau(   9) = (   3.6267156   2.4144356  14.3738670  )
        10           Ru1 tau(  10) = (   7.4507824   4.9602589  14.3738656  )
        11           Ta1 tau(  11) = (   6.3816326   2.4114143  14.5475929  )
        12           Ta1 tau(  12) = (   4.6867883   4.9572371  14.5475933  )

     number of k points=    20  Fermi-Dirac smearing, width (Ry)=  0.0110
                       cart. coord. in units 2pi/alat
        k(    1) = (   0.0000000   0.0000000   0.0000000), wk =   0.0555556
        k(    2) = (   0.0000000   0.0327334   0.0000000), wk =   0.1111111
        k(    3) = (   0.0000000   0.0654668   0.0000000), wk =   0.1111111
        k(    4) = (   0.0000000  -0.0982002   0.0000000), wk =   0.0555556
        k(    5) = (   0.0301992  -0.0126287   0.0000000), wk =   0.1111111
        k(    6) = (   0.0301992   0.0201047   0.0000000), wk =   0.1111111
        k(    7) = (   0.0301992   0.0528381   0.0000000), wk =   0.1111111
        k(    8) = (   0.0301992  -0.1108288   0.0000000), wk =   0.1111111
        k(    9) = (   0.0301992  -0.0780955   0.0000000), wk =   0.1111111
        k(   10) = (   0.0301992  -0.0453621   0.0000000), wk =   0.1111111
        k(   11) = (   0.0603984  -0.0252574   0.0000000), wk =   0.1111111
        k(   12) = (   0.0603984   0.0074760   0.0000000), wk =   0.1111111
        k(   13) = (   0.0603984   0.0402094   0.0000000), wk =   0.1111111
        k(   14) = (   0.0603984  -0.1234575   0.0000000), wk =   0.1111111
        k(   15) = (   0.0603984  -0.0907241   0.0000000), wk =   0.1111111
        k(   16) = (   0.0603984  -0.0579908   0.0000000), wk =   0.1111111
        k(   17) = (  -0.0905976   0.0378860   0.0000000), wk =   0.0555556
        k(   18) = (  -0.0905976   0.0706194   0.0000000), wk =   0.1111111
        k(   19) = (  -0.0905976   0.1033528   0.0000000), wk =   0.1111111
        k(   20) = (  -0.0905976  -0.0603141   0.0000000), wk =   0.0555556

     Largest allocated arrays     est. size (Mb)     dimensions
     Largest temporary arrays     est. size (Mb)     dimensions

     Initial potential from superposition of free atoms
     Check: negative starting charge=   -1.003582

     starting charge  167.99323, renormalised to  174.00000

[...]

     *
     * You are using vdW-DF for exchange-correlation in this calculation.
     * Please cite the following three references that made this development
     * possible:
     *
     *   M. Dion, H. Rydberg, E. Schroder, D. C. Langreth, and
     *   B. I. Lundqvist, Phys. Rev. Lett. 92, 246401 (2004).
     *
     *   T. Thonhauser, V. R. Cooper, S. Li, A. Puzder, P. Hyldgaard, and
     *   D. C. Langreth, Phys. Rev. B 76, 125112 (2007).
     *
     *   G. Roman-Perez and J. M. Soler, Phys. Rev. Lett. 103, 096102 (2009).
     *
     *
     * If you are using vdW-DF2, please also cite:
     *
     *   K. Lee, E. D. Murray, L. Kong, B. I. Lundqvist, and
     *   D. C. Langreth, Phys. Rev. B 82, 081101(R) (2010).
     *
     *
     * If you are calculating the stress with vdW-DF, please also cite:
     *
     *   R. Sabatini, E. Kucukbenli, B. Kolb, T. Thonhauser, and
     *   S. de Gironcoli, J. Phys.: Condens. Matter 24, 424209 (2012).
     *

     Carrying out vdW-DF run using the following parameters:

     Nqs =      20    Nr_points =    1024   r_max =   100.000
     q_mesh =
               0.00001000     0.04494208     0.09755937     0.15916263
               0.23128650     0.31572767     0.41458969     0.53033537
               0.66584808     0.82450364     1.01025438     1.22772762
               1.48234092     1.78043706     2.12944203     2.53805004
               3.01644009     3.57652955     4.23227104     5.00000000

     Gradients computed in reciprocal space

[...]

     Starting wfc are  156 randomized atomic wfcs

     Self-consistent Calculation

[...]

     total energy              =   -2030.18551450 Ry
     Harris-Foulkes estimate   =   -2030.18551560 Ry
     estimated scf accuracy    <       0.00000192 Ry

     iteration # 16     ecut=    36.75 Ry     beta=0.10
     Davidson diagonalization with overlap
     ethr =  1.10E-09,  avg # of iterations =  2.2

[...]

     negative rho (up, down):  1.049E+00 0.000E+00

     Adding external electric field

     Computed dipole along edir(3) :
        Dipole                0.0689 Ry au,          0.1751 Debye
        Dipole field          0.0002 Ry au

        Potential amp.       -0.0168 Ry
        Total length         45.2592 bohr

     End of self-consistent calculation

[...]

          k = 0.0604-0.0580 0.0000 ( 17539 PWs)   bands (ev):

[...]

          k =-0.0906-0.0603 0.0000 ( 17540 PWs)   bands (ev):

   -70.8149 -70.8036 -70.3277 -70.3159 -70.1571 -70.1462 -66.6801 -66.6606
   -66.5980 -66.5785 -66.5148 -66.4947 -40.9141 -40.7933 -40.7745 -40.7651
   -40.7596 -40.7514 -40.3877 -40.3413 -40.3277 -40.2921 -40.2786 -40.2321
   -40.2093 -40.1964 -40.1832 -40.0724 -40.0577 -40.0346 -33.1566 -33.1041
   -33.0822 -33.0605 -33.0485 -33.0237 -32.9941 -32.9740 -32.9434 -32.8902
   -32.8632 -32.8606 -32.7910 -32.7291 -32.7248 -32.6748 -32.6617 -32.6008
    -3.3631  -3.2213  -2.1151  -2.0662  -1.9932  -1.8650  -1.8397  -1.7784
    -1.6312  -1.3176  -1.1627  -0.9461  -0.8076  -0.7873  -0.7559  -0.7159
    -0.6734  -0.3917  -0.3588  -0.0392   0.0708   0.1500   0.1559   0.3807
     0.3813   0.5697   0.6439   0.7225   0.7929   0.8841   0.9055   1.1046
     1.2165   1.2237   1.2464   1.2826   1.4337   1.5133   1.5459   1.8271
     1.9575   1.9931   2.3231   2.3471   2.5672   2.7461   2.7527   3.0168
     3.2867   3.3378   3.5956   3.6441   3.6651   3.8542   4.0624   4.3225
     4.3494   4.5849   4.7091   4.8056   4.9939   5.0441   5.5791   5.7772
     6.1412   6.3997   6.6830   6.7343   7.2439

     the Fermi energy is     2.3806 ev

!    total energy              =   -2030.18551121 Ry
     Harris-Foulkes estimate   =   -2030.18551410 Ry
     estimated scf accuracy    <       0.00000084 Ry

     The total energy is the sum of the following terms:

     one-electron contribution =  -16295.75104746 Ry
     hartree contribution      =    8137.87423367 Ry
     xc contribution           =    -422.65103246 Ry
     ewald contribution        =    6550.39783107 Ry
     electric field correction =       0.00001280 Ry
     smearing contrib. (-TS)   =      -0.05550884 Ry

     convergence has been achieved in  16 iterations

 BEEF-vdW xc energy contributions
           1 :   -370.133706784787
           2 :    341.184041938035
           3 :   -290.700611986885
           4 :    230.562504906692
           5 :   -172.840599341278
           6 :    126.096618542094
           7 :   -93.5634676877685
           8 :    73.5772385190555
           9 :   -61.6446451529380
          10 :    52.9832015734363
          11 :   -44.4199285967411
          12 :    35.0497532066631
          13 :   -25.7192427428394
          14 :    17.8890132972851
          15 :   -12.5620109023124
          16 :    9.76121937047162
          17 :   -8.66172205175644
          18 :    8.13974135756234
          19 :   -7.35333028420337
          20 :    6.04542512765778
          21 :   -4.47427620316620
          22 :    3.09704635701621
          23 :   -2.23783103637834
          24 :    1.92274913397910
          25 :   -1.92703504892177
          26 :    1.95166026707784
          27 :   -1.79675094198933
          28 :    1.43507711592326
          29 :  -0.970341624494495
          30 :   0.535837614258810
          31 :   -35.0003235435095
          32 :   -26.2445790012034

     Forces acting on atoms (Ry/au):

     negative rho (up, down):  1.049E+00 0.000E+00
     atom    1 type  1   force =    -0.00089671   -0.00059688    0.04593599
     atom    2 type  1   force =    -0.00089678   -0.00059734    0.04593618
     atom    3 type  2   force =    -0.01670724   -0.01112311   -0.01229668
     atom    4 type  2   force =    -0.01670777   -0.01112246   -0.01229670
     atom    5 type  1   force =     0.00615389    0.00409697   -0.00323944
     atom    6 type  1   force =     0.00616059    0.00410137   -0.00323860
     atom    7 type  2   force =     0.01140562    0.00758459   -0.03094666
     atom    8 type  2   force =     0.01139763    0.00759641   -0.03094705
     atom    9 type  1   force =     0.00015143    0.00010141    0.00010018
     atom   10 type  1   force =     0.00015067    0.00009984    0.00010051
     atom   11 type  2   force =    -0.00010636   -0.00006912    0.00044622
     atom   12 type  2   force =    -0.00010497   -0.00007168    0.00044604

     Total force =     0.088047     Total SCF correction =     0.002846

     entering subroutine stress ...

     negative rho (up, down):  1.049E+00 0.000E+00
          total   stress  (Ry/bohr**3)                   (kbar)     P=  -26.10
  -0.00023956  -0.00004322   0.00003264        -35.24     -6.36      4.80
  -0.00004322  -0.00020341   0.00002173         -6.36    -29.92      3.20
   0.00003264   0.00002173  -0.00008930          4.80      3.20    -13.14

 !ASE

     Writing output data file calc.save

     General routines

     Parallel routines

   This run was terminated on:   5:51:36  19Dec2018

   JOB DONE.
Job  /afs/slac/g/suncat/bin/suncat-tsmpirun -x LD_LIBRARY_PATH -wdir /scratch/qe530536_HfilY pw.x -in pw.inp

TID   HOST_NAME   COMMAND_LINE            STATUS            TERMINATION_TIME
00000 suncat2071 pw.x -in pw.inp   Done                     12/19/2018 05:51:36
00001 suncat2071 pw.x -in pw.inp   Done                     12/19/2018 05:51:36
00002 suncat2071 pw.x -in pw.inp   Done                     12/19/2018 05:51:36
00003 suncat2071 pw.x -in pw.inp   Done                     12/19/2018 05:51:36
00004 suncat2071 pw.x -in pw.inp   Done                     12/19/2018 05:51:36
00005 suncat2071 pw.x -in pw.inp   Done                     12/19/2018 05:51:36
00006 suncat2071 pw.x -in pw.inp   Done                     12/19/2018 05:51:36
00007 suncat2071 pw.x -in pw.inp   Done                     12/19/2018 05:51:36
00008 suncat2071 pw.x -in pw.inp   Done                     12/19/2018 05:51:36
00009 suncat2071 pw.x -in pw.inp   Done                     12/19/2018 05:51:36
00010 suncat2071 pw.x -in pw.inp   Done                     12/19/2018 05:51:36
00011 suncat2071 pw.x -in pw.inp   Done                     12/19/2018 05:51:36
00012 suncat2071 pw.x -in pw.inp   Done                     12/19/2018 05:51:36
00013 suncat2071 pw.x -in pw.inp   Done                     12/19/2018 05:51:36
00014 suncat2071 pw.x -in pw.inp   Done                     12/19/2018 05:51:36
00015 suncat2071 pw.x -in pw.inp   Done                     12/19/2018 05:51:36
00016 suncat2070 pw.x -in pw.inp   Done                     12/19/2018 05:51:36
00017 suncat2070 pw.x -in pw.inp   Done                     12/19/2018 05:51:36
00018 suncat2070 pw.x -in pw.inp   Done                     12/19/2018 05:51:36
00019 suncat2070 pw.x -in pw.inp   Done                     12/19/2018 05:51:36
00020 suncat2070 pw.x -in pw.inp   Done                     12/19/2018 05:51:36
00021 suncat2070 pw.x -in pw.inp   Done                     12/19/2018 05:51:36
00022 suncat2070 pw.x -in pw.inp   Done                     12/19/2018 05:51:36
00023 suncat2070 pw.x -in pw.inp   Done                     12/19/2018 05:51:36
00024 suncat2070 pw.x -in pw.inp   Done                     12/19/2018 05:51:36
00025 suncat2070 pw.x -in pw.inp   Done                     12/19/2018 05:51:36
00026 suncat2070 pw.x -in pw.inp   Done                     12/19/2018 05:51:36
00027 suncat2070 pw.x -in pw.inp   Done                     12/19/2018 05:51:36
00028 suncat2070 pw.x -in pw.inp   Done                     12/19/2018 05:51:36
00029 suncat2070 pw.x -in pw.inp   Done                     12/19/2018 05:51:36
00030 suncat2070 pw.x -in pw.inp   Done                     12/19/2018 05:51:36
00031 suncat2070 pw.x -in pw.inp   Done                     12/19/2018 05:51:36