     Program PWSCF v.5.1rc2 (svn rev. 11289) starts on 25Dec2018 at  0:15:49

     Current dimensions of program PWSCF are:
     Max number of different atomic species (ntypx) = 10
     Max number of k-points (npk) =  40000
     Max angular momentum in pseudopotentials (lmaxx) =  3
     Presently stress not available with electric field

     IMPORTANT: XC functional enforced from input :
     Exchange-correlation      = BEEF-VDW ( 1  4 27 13 2)
     Any further DFT definition will be discarded
     Please, verify this is what you really want

     Subspace diagonalization in iterative solution of the eigenvalue problem:
     a serial algorithm will be used

     Found symmetry operation: I + ( -0.5000  0.0000  0.0000)
     This is a supercell, fractional translations are disabled

     bravais-lattice index     =            0
     lattice parameter (alat)  =       1.8897  a.u.
     unit-cell volume          =    7034.5966 (a.u.)^3
     number of atoms/cell      =           12
     number of atomic types    =            2
     number of electrons       =       138.00
     number of Kohn-Sham states=           99
     kinetic-energy cutoff     =      36.7493  Ry
     charge density cutoff     =     367.4932  Ry
     convergence threshold     =      1.0E-06
     mixing beta               =       0.1000
     number of iterations used =           10  plain     mixing
     Exchange-correlation      = BEEF-VDW ( 1  4 27 13 2)
     nstep                     =           50

     celldm(1)=   1.889726  celldm(2)=   0.000000  celldm(3)=   0.000000
     celldm(4)=   0.000000  celldm(5)=   0.000000  celldm(6)=   0.000000

     crystal axes: (cart. coord. in units of alat)
               a(1) = (   6.792707   0.000000   0.000000 )
               a(2) = (  -3.396353   5.995170   0.000000 )
               a(3) = (   0.000000   0.000000  25.597540 )

     reciprocal axes: (cart. coord. in units 2 pi/alat)
               b(1) = (  0.147217  0.083400  0.000000 )
               b(2) = (  0.000000  0.166801  0.000000 )
               b(3) = (  0.000000  0.000000  0.039066 )

     PseudoPot. # 1 for La read from file:
     /afs/slac.stanford.edu/u/if/mamunm/psp/gbrv1.5pbe/La.UPF
     MD5 check sum: 5937b0c7494ba0601a847275249473aa
     Pseudo is Ultrasoft + core correction, Zval = 11.0
     Generated by new atomic code, or converted to UPF format
     Using radial grid of  995 points,  8 beta functions with:
                l(1) =   0
                l(2) =   0
                l(3) =   1
                l(4) =   1
                l(5) =   2
                l(6) =   2
                l(7) =   3
                l(8) =   3
     Q(r) pseudized with  8 coefficients,  rinner =    1.700   1.700   1.700
                                                       1.700   1.700   1.700
                                                       1.700

     PseudoPot. # 2 for Hf read from file:
     /afs/slac.stanford.edu/u/if/mamunm/psp/gbrv1.5pbe/Hf.UPF
     MD5 check sum: 8ee9378dfe14276e333edf04c5e4aa26
     Pseudo is Ultrasoft + core correction, Zval = 12.0
     Generated by new atomic code, or converted to UPF format
     Using radial grid of  921 points,  8 beta functions with:
                l(1) =   0
                l(2) =   0
                l(3) =   0
                l(4) =   1
                l(5) =   1
                l(6) =   2
                l(7) =   2
                l(8) =   3
     Q(r) pseudized with  6 coefficients,  rinner =    1.200   1.200   1.200
                                                       1.200   1.200   1.200
                                                       1.200

     vdW kernel table read from file vdW_kernel_table
     MD5 check sum: 095c7af220d748ca6e76c0b4c6cfb241

     atomic species   valence    mass     pseudopotential
        La1           11.00   138.90547     La( 1.00)
        Hf1           12.00   178.49000     Hf( 1.00)

     No symmetry found

   Cartesian axes

     site n.     atom                  positions (alat units)
         1           La1 tau(   1) = (   0.0000000   0.0000000  10.0000000  )
         2           La1 tau(   2) = (  -0.0000000   5.9951700  10.0000000  )
         3           Hf1 tau(   3) = (   1.6981767   2.9975850  10.0000000  )
         4           Hf1 tau(   4) = (  -1.6981767   2.9975850  10.0000000  )
         5           La1 tau(   5) = (   3.3963534   1.9240849  12.7987700  )
         6           La1 tau(   6) = (  -0.0000000   1.9240849  12.7987700  )
         7           Hf1 tau(   7) = (  -1.6981767   4.9216699  12.7987700  )
         8           Hf1 tau(   8) = (   1.6981767   4.9216699  12.7987700  )
         9           La1 tau(   9) = (  -0.0000000   3.8481698  15.5975400  )
        10           La1 tau(  10) = (   3.3963534   3.8481698  15.5975400  )
        11           Hf1 tau(  11) = (   5.0945300   0.8505848  15.5975400  )
        12           Hf1 tau(  12) = (   1.6981767   0.8505848  15.5975400  )

     number of k points=    20  Fermi-Dirac smearing, width (Ry)=  0.0110
                       cart. coord. in units 2pi/alat
        k(    1) = (   0.0000000   0.0000000   0.0000000), wk =   0.0555556
        k(    2) = (   0.0000000   0.0278002   0.0000000), wk =   0.1111111
        k(    3) = (   0.0000000   0.0556003   0.0000000), wk =   0.1111111
        k(    4) = (   0.0000000  -0.0834005   0.0000000), wk =   0.0555556
        k(    5) = (   0.0245361   0.0139001   0.0000000), wk =   0.1111111
        k(    6) = (   0.0245361   0.0417002   0.0000000), wk =   0.1111111
        k(    7) = (   0.0245361   0.0695004   0.0000000), wk =   0.1111111
        k(    8) = (   0.0245361  -0.0695004   0.0000000), wk =   0.1111111
        k(    9) = (   0.0245361  -0.0417002   0.0000000), wk =   0.1111111
        k(   10) = (   0.0245361  -0.0139001   0.0000000), wk =   0.1111111
        k(   11) = (   0.0490722   0.0278002   0.0000000), wk =   0.1111111
        k(   12) = (   0.0490722   0.0556003   0.0000000), wk =   0.1111111
        k(   13) = (   0.0490722   0.0834005   0.0000000), wk =   0.1111111
        k(   14) = (   0.0490722  -0.0556003   0.0000000), wk =   0.1111111
        k(   15) = (   0.0490722  -0.0278002   0.0000000), wk =   0.1111111
        k(   16) = (   0.0490722   0.0000000   0.0000000), wk =   0.1111111
        k(   17) = (  -0.0736084  -0.0417002   0.0000000), wk =   0.0555556
        k(   18) = (  -0.0736084  -0.0139001   0.0000000), wk =   0.1111111
        k(   19) = (  -0.0736084   0.0139001   0.0000000), wk =   0.1111111
        k(   20) = (  -0.0736084  -0.1251007   0.0000000), wk =   0.0555556

     Largest allocated arrays     est. size (Mb)     dimensions
     Largest temporary arrays     est. size (Mb)     dimensions

     Check: negative/imaginary core charge=   -0.000003    0.000000

     Initial potential from superposition of free atoms
     Check: negative starting charge=   -1.063273

     starting charge  125.80758, renormalised to  138.00000

     negative rho (up, down):  1.166E+00 0.000E+00

     *
     * You are using vdW-DF for exchange-correlation in this calculation.
     * Please cite the following three references that made this development
     * possible:
     *
     *   M. Dion, H. Rydberg, E. Schroder, D. C. Langreth, and
     *   B. I. Lundqvist, Phys. Rev. Lett. 92, 246401 (2004).
     *
     *   T. Thonhauser, V. R. Cooper, S. Li, A. Puzder, P. Hyldgaard, and
     *   D. C. Langreth, Phys. Rev. B 76, 125112 (2007).
     *
     *   G. Roman-Perez and J. M. Soler, Phys. Rev. Lett. 103, 096102 (2009).
     *
     *
     * If you are using vdW-DF2, please also cite:
     *
     *   K. Lee, E. D. Murray, L. Kong, B. I. Lundqvist, and
     *   D. C. Langreth, Phys. Rev. B 82, 081101(R) (2010).
     *
     *
     * If you are calculating the stress with vdW-DF, please also cite:
     *
     *   R. Sabatini, E. Kucukbenli, B. Kolb, T. Thonhauser, and
     *   S. de Gironcoli, J. Phys.: Condens. Matter 24, 424209 (2012).
     *

     Carrying out vdW-DF run using the following parameters:

     Nqs =      20    Nr_points =    1024   r_max =   100.000
     q_mesh =
               0.00001000     0.04494208     0.09755937     0.15916263
               0.23128650     0.31572767     0.41458969     0.53033537
               0.66584808     0.82450364     1.01025438     1.22772762
               1.48234092     1.78043706     2.12944203     2.53805004
               3.01644009     3.57652955     4.23227104     5.00000000

     Gradients computed in reciprocal space

     Adding external electric field

     Computed dipole along edir(3) :
        Dipole               -0.0000 Ry au,         -0.0000 Debye
        Dipole field         -0.0000 Ry au

        Potential amp.        0.0000 Ry
        Total length         47.1630 bohr

     Starting wfc are  198 randomized atomic wfcs

     Self-consistent Calculation

     iteration #  1     ecut=    36.75 Ry     beta=0.10
     Davidson diagonalization with overlap
     ethr =  1.00E-02,  avg # of iterations =  2.9

[...]

     total energy              =   -1589.09698367 Ry
     Harris-Foulkes estimate   =   -1590.51005818 Ry
     estimated scf accuracy    <       9.50151428 Ry

[...]

     iteration # 11     ecut=    36.75 Ry     beta=0.10
     Davidson diagonalization with overlap
     c_bands:  1 eigenvalues not converged
     ethr =  1.11E-05,  avg # of iterations =  3.4

[...]

     End of self-consistent calculation

          k = 0.0000 0.0000 0.0000 ( 26541 PWs)   bands (ev):

   -61.2466 -61.2464 -61.2395 -61.2393 -60.9053 -60.8981 -31.0868 -31.0831
   -30.9006 -30.8949 -30.6109 -30.4166 -29.8030 -29.7836 -29.7834 -29.7771
   -29.7559 -29.7500 -29.7441 -29.7372 -29.7230 -29.7167 -29.5595 -29.5591
   -29.4597 -29.4396 -29.4207 -29.3648 -29.3489 -29.2631 -15.4853 -15.4791
   -15.1642 -15.0487 -14.9302 -14.7996 -14.6845 -14.6793 -14.5834 -14.4805
   -14.4680 -14.2483 -14.0115 -13.9926 -13.9341 -13.9288 -13.8049 -13.4798
    -2.9311  -2.0129  -1.5710  -1.2751  -0.9208  -0.5436  -0.1443   0.0236
     0.2929   0.3031   0.3458   0.3901   0.4388   0.5496   0.6025   0.9997
     1.1509   1.3584   1.8247   1.8945   2.1309   2.1373   2.2953   2.5083
     2.6217   2.6419   2.6967   2.9797   3.0175   3.0282   3.0612   3.1929
     3.2113   3.2576   3.2921   3.3302   3.3654   3.3788   3.3934   3.4266
     3.4538   3.4836   3.5520   3.5956   3.6514   3.6567   3.6967   3.7043
     3.8258   3.8451   3.8814

[...]

          k =-0.0736-0.0417 0.0000 ( 26440 PWs)   bands (ev):

[...]

     the Fermi energy is     1.7751 ev

!    total energy              =   -1587.15588973 Ry
     Harris-Foulkes estimate   =   -1587.15588493 Ry
     estimated scf accuracy    <       0.00000064 Ry

     The total energy is the sum of the following terms:

     one-electron contribution =   -6362.40426921 Ry
     hartree contribution      =    3179.26539494 Ry
     xc contribution           =    -768.30680407 Ry
     ewald contribution        =    2364.40617328 Ry
     electric field correction =       0.00000001 Ry
     smearing contrib. (-TS)   =      -0.11638467 Ry

     convergence has been achieved in  19 iterations

 BEEF-vdW xc energy contributions
[...]
                l(2) =   0
                l(3) =   1
                l(4) =   1
                l(5) =   2
                l(6) =   2
                l(7) =   3
                l(8) =   3
     Q(r) pseudized with  8 coefficients,  rinner =    1.700   1.700   1.700
                                                       1.700   1.700   1.700
                                                       1.700

     PseudoPot. # 2 for Hf read from file:
     /afs/slac.stanford.edu/u/if/mamunm/psp/gbrv1.5pbe/Hf.UPF
     MD5 check sum: 8ee9378dfe14276e333edf04c5e4aa26
     Pseudo is Ultrasoft + core correction, Zval = 12.0
     Generated by new atomic code, or converted to UPF format
     Using radial grid of  921 points,  8 beta functions with:
                l(1) =   0
                l(2) =   0
                l(3) =   0
                l(4) =   1
                l(5) =   1
                l(6) =   2
                l(7) =   2
                l(8) =   3
     Q(r) pseudized with  6 coefficients,  rinner =    1.200   1.200   1.200
                                                       1.200   1.200   1.200
                                                       1.200

     vdW kernel table read from file vdW_kernel_table
     MD5 check sum: 095c7af220d748ca6e76c0b4c6cfb241

     atomic species   valence    mass     pseudopotential
        La1           11.00   138.90547     La( 1.00)
        Hf1           12.00   178.49000     Hf( 1.00)

     No symmetry found

   Cartesian axes

     site n.     atom                  positions (alat units)
         1           La1 tau(   1) = (   0.0000000   0.0000000  10.0000000  )
         2           La1 tau(   2) = (  -0.0000000   5.9951700  10.0000000  )
         3           Hf1 tau(   3) = (   1.6981767   2.9975850  10.0000000  )
         4           Hf1 tau(   4) = (  -1.6981767   2.9975850  10.0000000  )
         5           La1 tau(   5) = (   3.3963534   1.9240849  12.7987700  )
         6           La1 tau(   6) = (  -0.0000000   1.9240849  12.7987700  )
         7           Hf1 tau(   7) = (  -1.6981767   4.9216699  12.7987700  )
         8           Hf1 tau(   8) = (   1.6981767   4.9216699  12.7987700  )
         9           La1 tau(   9) = (   0.0000015   3.8964963  15.7174083  )
        10           La1 tau(  10) = (   3.3963551   3.8965026  15.7173970  )
        11           Hf1 tau(  11) = (   5.0945170   0.7523119  15.3162023  )
        12           Hf1 tau(  12) = (   1.6982093   0.7523115  15.3162056  )

     number of k points=    20  Fermi-Dirac smearing, width (Ry)=  0.0110
                       cart. coord. in units 2pi/alat
        k(    1) = (   0.0000000   0.0000000   0.0000000), wk =   0.0555556
        k(    2) = (   0.0000000   0.0278002   0.0000000), wk =   0.1111111
        k(    3) = (   0.0000000   0.0556003   0.0000000), wk =   0.1111111
        k(    4) = (   0.0000000  -0.0834005   0.0000000), wk =   0.0555556
        k(    5) = (   0.0245361   0.0139001   0.0000000), wk =   0.1111111
        k(    6) = (   0.0245361   0.0417002   0.0000000), wk =   0.1111111
        k(    7) = (   0.0245361   0.0695004   0.0000000), wk =   0.1111111
        k(    8) = (   0.0245361  -0.0695004   0.0000000), wk =   0.1111111
        k(    9) = (   0.0245361  -0.0417002   0.0000000), wk =   0.1111111
        k(   10) = (   0.0245361  -0.0139001   0.0000000), wk =   0.1111111
        k(   11) = (   0.0490722   0.0278002   0.0000000), wk =   0.1111111
        k(   12) = (   0.0490722   0.0556003   0.0000000), wk =   0.1111111
        k(   13) = (   0.0490722   0.0834005   0.0000000), wk =   0.1111111
        k(   14) = (   0.0490722  -0.0556003   0.0000000), wk =   0.1111111
        k(   15) = (   0.0490722  -0.0278002   0.0000000), wk =   0.1111111
        k(   16) = (   0.0490722   0.0000000   0.0000000), wk =   0.1111111
        k(   17) = (  -0.0736084  -0.0417002   0.0000000), wk =   0.0555556
        k(   18) = (  -0.0736084  -0.0139001   0.0000000), wk =   0.1111111
        k(   19) = (  -0.0736084   0.0139001   0.0000000), wk =   0.1111111
        k(   20) = (  -0.0736084  -0.1251007   0.0000000), wk =   0.0555556

     Largest allocated arrays     est. size (Mb)     dimensions
     Largest temporary arrays     est. size (Mb)     dimensions

     Check: negative/imaginary core charge=   -0.000003    0.000000

     Initial potential from superposition of free atoms
     Check: negative starting charge=   -1.058495

     starting charge  125.80758, renormalised to  138.00000

[...]

     *
     * You are using vdW-DF for exchange-correlation in this calculation.
     * Please cite the following three references that made this development
     * possible:
     *
     *   M. Dion, H. Rydberg, E. Schroder, D. C. Langreth, and
     *   B. I. Lundqvist, Phys. Rev. Lett. 92, 246401 (2004).
     *
     *   T. Thonhauser, V. R. Cooper, S. Li, A. Puzder, P. Hyldgaard, and
     *   D. C. Langreth, Phys. Rev. B 76, 125112 (2007).
     *
     *   G. Roman-Perez and J. M. Soler, Phys. Rev. Lett. 103, 096102 (2009).
     *
     *
     * If you are using vdW-DF2, please also cite:
     *
     *   K. Lee, E. D. Murray, L. Kong, B. I. Lundqvist, and
     *   D. C. Langreth, Phys. Rev. B 82, 081101(R) (2010).
     *
     *
     * If you are calculating the stress with vdW-DF, please also cite:
     *
     *   R. Sabatini, E. Kucukbenli, B. Kolb, T. Thonhauser, and
     *   S. de Gironcoli, J. Phys.: Condens. Matter 24, 424209 (2012).
     *

     Carrying out vdW-DF run using the following parameters:

     Nqs =      20    Nr_points =    1024   r_max =   100.000
     q_mesh =
               0.00001000     0.04494208     0.09755937     0.15916263
               0.23128650     0.31572767     0.41458969     0.53033537
               0.66584808     0.82450364     1.01025438     1.22772762
               1.48234092     1.78043706     2.12944203     2.53805004
               3.01644009     3.57652955     4.23227104     5.00000000

     Gradients computed in reciprocal space

[...]

     Starting wfc are  198 randomized atomic wfcs

     Self-consistent Calculation

[...]

     iteration # 13     ecut=    36.75 Ry     beta=0.10
     Davidson diagonalization with overlap
     c_bands:  1 eigenvalues not converged
     ethr =  3.34E-06,  avg # of iterations = 11.7

[...]

     total energy              =   -1587.18160618 Ry
     Harris-Foulkes estimate   =   -1587.18160527 Ry
     estimated scf accuracy    <       0.00000129 Ry

     iteration # 21     ecut=    36.75 Ry     beta=0.10
     Davidson diagonalization with overlap
     ethr =  9.32E-10,  avg # of iterations =  4.0

[...]

     negative rho (up, down):  9.473E-01 0.000E+00

     Adding external electric field

     Computed dipole along edir(3) :
        Dipole                0.1151 Ry au,          0.2925 Debye
        Dipole field          0.0002 Ry au

        Potential amp.       -0.0194 Ry
        Total length         47.1630 bohr

     End of self-consistent calculation

[...]

          k = 0.0491 0.0000 0.0000 ( 26473 PWs)   bands (ev):

[...]

          k =-0.0736-0.1251 0.0000 ( 26440 PWs)   bands (ev):

   -61.1708 -61.1708 -60.9134 -60.9134 -60.7541 -60.7541 -31.0382 -31.0382
   -30.9239 -30.9239 -30.3926 -30.3926 -29.7160 -29.7159 -29.6519 -29.6519
   -29.5821 -29.5821 -29.4826 -29.4825 -29.4341 -29.4341 -29.3828 -29.3827
   -29.2933 -29.2933 -29.2332 -29.2332 -29.1492 -29.1492 -14.9402 -14.9402
   -14.7921 -14.7921 -14.6951 -14.6951 -14.6693 -14.6693 -14.6307 -14.6307
   -14.5214 -14.5214 -14.2077 -14.2077 -14.0573 -14.0573 -13.8449 -13.8449
    -1.5220  -1.5220  -0.6967  -0.6967  -0.2733  -0.2733   0.6737   0.6737
     0.9305   0.9305   1.0884   1.0884   1.2196   1.2196   1.2644   1.2644
     1.5782   1.5783   1.7291   1.7291   1.8174   1.8174   1.8742   1.8742
     2.1357   2.1357   2.3451   2.3451   2.4532   2.4532   2.6661   2.6661
     2.8266   2.8266   2.9195   2.9195   3.0483   3.0483   3.4194   3.4194
     3.4914   3.4914   3.5848   3.5848   3.6573   3.6573   3.7001   3.7001
     3.7824   3.7826   3.8724

     the Fermi energy is     1.8488 ev

!    total energy              =   -1587.18160939 Ry
     Harris-Foulkes estimate   =   -1587.18160651 Ry
     estimated scf accuracy    <       0.00000062 Ry

     The total energy is the sum of the following terms:

     one-electron contribution =   -6443.11345954 Ry
     hartree contribution      =    3220.20745047 Ry
     xc contribution           =    -768.43495948 Ry
     ewald contribution        =    2404.27510447 Ry
     electric field correction =       0.00002366 Ry
     smearing contrib. (-TS)   =      -0.11576898 Ry

     convergence has been achieved in  21 iterations

 BEEF-vdW xc energy contributions
           1 :   -689.544324771703
           2 :    638.645303069104
           3 :   -548.307062276751
           4 :    437.203428997100
           5 :   -325.107178154684
           6 :    227.458563309469
           7 :   -152.582067810746
           8 :    101.820859287113
           9 :   -71.6666646265062
          10 :    56.3929009718146
          11 :   -50.0758445903535
          12 :    47.5883262596768
          13 :   -44.8968686309440
          14 :    39.1977836421152
          15 :   -29.2037496604345
          16 :    15.4090979671403
          17 :   3.198616596841930E-002
          18 :   -14.0331716691398
          19 :    23.7116462994193
          20 :   -27.4582060857947
          21 :    25.4540241154108
          22 :   -19.4462273210512
          23 :    11.9551825569074
          24 :   -5.34620824530373
          25 :    1.16962872406111
          26 :   3.922547551553635E-002
          27 :    1.41537244002552
          28 :   -4.72420283122142
          29 :    8.86999314920195
          30 :   -12.8242465160600
          31 :   -52.9621904678366
          32 :   -38.0952244459255

     Forces acting on atoms (Ry/au):

     negative rho (up, down):  9.473E-01 0.000E+00
     atom    1 type  1   force =    -0.00000215   -0.00699809   -0.01451103
     atom    2 type  1   force =     0.00000098   -0.00699667   -0.01451113
     atom    3 type  2   force =    -0.00000123    0.01078318    0.02772378
     atom    4 type  2   force =     0.00000061    0.01078235    0.02772777
     atom    5 type  1   force =    -0.00000077    0.00413509   -0.01337744
     atom    6 type  1   force =     0.00000112    0.00413374   -0.01337626
     atom    7 type  2   force =     0.00000001   -0.00561430    0.00040209
     atom    8 type  2   force =     0.00000165   -0.00561422    0.00040388
     atom    9 type  1   force =     0.00000044   -0.00076673    0.00001693
     atom   10 type  1   force =     0.00000113   -0.00076423    0.00001646
     atom   11 type  2   force =     0.00000127   -0.00154177   -0.00025767
     atom   12 type  2   force =    -0.00000305   -0.00153836   -0.00025737

     Total force =     0.052445     Total SCF correction =     0.001545

     entering subroutine stress ...

     negative rho (up, down):  9.473E-01 0.000E+00
          total   stress  (Ry/bohr**3)                   (kbar)     P=   -6.45
  -0.00003592   0.00000000  -0.00000000         -5.28      0.00     -0.00
   0.00000000  -0.00006340  -0.00000921          0.00     -9.33     -1.36
  -0.00000000  -0.00000921  -0.00003221         -0.00     -1.36     -4.74

 !ASE

     Writing output data file calc.save

     General routines

     Parallel routines

   This run was terminated on:   3:16: 1  25Dec2018

   JOB DONE.
Job  /afs/slac/g/suncat/bin/suncat-tsmpirun -x LD_LIBRARY_PATH -wdir /scratch/qe109054_bG8w6 pw.x -in pw.inp

TID   HOST_NAME   COMMAND_LINE            STATUS            TERMINATION_TIME
00000 suncat0084 pw.x -in pw.inp   Done                     12/25/2018 03:16:01
00001 suncat0084 pw.x -in pw.inp   Done                     12/25/2018 03:16:01
00002 suncat0084 pw.x -in pw.inp   Done                     12/25/2018 03:16:01
00003 suncat0084 pw.x -in pw.inp   Done                     12/25/2018 03:16:01
00004 suncat0084 pw.x -in pw.inp   Done                     12/25/2018 03:16:01
00005 suncat0084 pw.x -in pw.inp   Done                     12/25/2018 03:16:01
00006 suncat0084 pw.x -in pw.inp   Done                     12/25/2018 03:16:01
00007 suncat0084 pw.x -in pw.inp   Done                     12/25/2018 03:16:01
00008 suncat0077 pw.x -in pw.inp   Done                     12/25/2018 03:16:01
00009 suncat0077 pw.x -in pw.inp   Done                     12/25/2018 03:16:01
00010 suncat0077 pw.x -in pw.inp   Done                     12/25/2018 03:16:01
00011 suncat0077 pw.x -in pw.inp   Done                     12/25/2018 03:16:01
00012 suncat0077 pw.x -in pw.inp   Done                     12/25/2018 03:16:01
00013 suncat0077 pw.x -in pw.inp   Done                     12/25/2018 03:16:01
00014 suncat0077 pw.x -in pw.inp   Done                     12/25/2018 03:16:01
00015 suncat0077 pw.x -in pw.inp   Done                     12/25/2018 03:16:01
00016 suncat0069 pw.x -in pw.inp   Done                     12/25/2018 03:16:01
00017 suncat0069 pw.x -in pw.inp   Done                     12/25/2018 03:16:01
00018 suncat0069 pw.x -in pw.inp   Done                     12/25/2018 03:16:01
00019 suncat0069 pw.x -in pw.inp   Done                     12/25/2018 03:16:01
00020 suncat0069 pw.x -in pw.inp   Done                     12/25/2018 03:16:01
00021 suncat0069 pw.x -in pw.inp   Done                     12/25/2018 03:16:01
00022 suncat0069 pw.x -in pw.inp   Done                     12/25/2018 03:16:01
00023 suncat0069 pw.x -in pw.inp   Done                     12/25/2018 03:16:01
00024 suncat0068 pw.x -in pw.inp   Done                     12/25/2018 03:16:01
00025 suncat0068 pw.x -in pw.inp   Done                     12/25/2018 03:16:01
00026 suncat0068 pw.x -in pw.inp   Done                     12/25/2018 03:16:01
00027 suncat0068 pw.x -in pw.inp   Done                     12/25/2018 03:16:01
00028 suncat0068 pw.x -in pw.inp   Done                     12/25/2018 03:16:01
00029 suncat0068 pw.x -in pw.inp   Done                     12/25/2018 03:16:01
00030 suncat0068 pw.x -in pw.inp   Done                     12/25/2018 03:16:01
00031 suncat0068 pw.x -in pw.inp   Done                     12/25/2018 03:16:01
00032 suncat0066 pw.x -in pw.inp   Done                     12/25/2018 03:16:01
00033 suncat0066 pw.x -in pw.inp   Done                     12/25/2018 03:16:01
00034 suncat0066 pw.x -in pw.inp   Done                     12/25/2018 03:16:01
00035 suncat0066 pw.x -in pw.inp   Done                     12/25/2018 03:16:01
00036 suncat0066 pw.x -in pw.inp   Done                     12/25/2018 03:16:01
00037 suncat0066 pw.x -in pw.inp   Done                     12/25/2018 03:16:01
00038 suncat0066 pw.x -in pw.inp   Done                     12/25/2018 03:16:01
00039 suncat0066 pw.x -in pw.inp   Done                     12/25/2018 03:16:01
00040 suncat0061 pw.x -in pw.inp   Done                     12/25/2018 03:16:01
00041 suncat0061 pw.x -in pw.inp   Done                     12/25/2018 03:16:01
00042 suncat0061 pw.x -in pw.inp   Done                     12/25/2018 03:16:01
00043 suncat0061 pw.x -in pw.inp   Done                     12/25/2018 03:16:01
00044 suncat0061 pw.x -in pw.inp   Done                     12/25/2018 03:16:01
00045 suncat0061 pw.x -in pw.inp   Done                     12/25/2018 03:16:01
00046 suncat0061 pw.x -in pw.inp   Done                     12/25/2018 03:16:01
00047 suncat0061 pw.x -in pw.inp   Done                     12/25/2018 03:16:01
00048 suncat0141 pw.x -in pw.inp   Done                     12/25/2018 03:16:01
00049 suncat0141 pw.x -in pw.inp   Done                     12/25/2018 03:16:01
00050 suncat0141 pw.x -in pw.inp   Done                     12/25/2018 03:16:01
00051 suncat0141 pw.x -in pw.inp   Done                     12/25/2018 03:16:01
00052 suncat0141 pw.x -in pw.inp   Done                     12/25/2018 03:16:01
00053 suncat0141 pw.x -in pw.inp   Done                     12/25/2018 03:16:01
00054 suncat0141 pw.x -in pw.inp   Done                     12/25/2018 03:16:01
00055 suncat0141 pw.x -in pw.inp   Done                     12/25/2018 03:16:01
00056 suncat0140 pw.x -in pw.inp   Done                     12/25/2018 03:16:01
00057 suncat0140 pw.x -in pw.inp   Done                     12/25/2018 03:16:01
00058 suncat0140 pw.x -in pw.inp   Done                     12/25/2018 03:16:01
00059 suncat0140 pw.x -in pw.inp   Done                     12/25/2018 03:16:01
00060 suncat0140 pw.x -in pw.inp   Done                     12/25/2018 03:16:01
00061 suncat0140 pw.x -in pw.inp   Done                     12/25/2018 03:16:01
00062 suncat0140 pw.x -in pw.inp   Done                     12/25/2018 03:16:01
00063 suncat0140 pw.x -in pw.inp   Done                     12/25/2018 03:16:01